LAMMPS (30 Jul 2021)
  using 1 OpenMP thread(s) per MPI task
echo both

include		in.partitions
variable        pid world 0
include		in.temp
variable        temperature equal 235
variable	tempDamp equal 100.0
include		in.pressure
variable        pressure equal 1000
variable        pressureDamp equal 1000.0 # This is 1 ps
include		in.seed
variable        seed world 745823

units		real
atom_style	full
include		in.box
box tilt large
read_data       iceII.data
Reading data file ...
  triclinic box = (0.0000000 0.0000000 0.0000000) to (23.340000 21.468634 43.717812) with tilt (-9.1571470 3.9466400 5.9740430)
  4 by 4 by 8 MPI processor grid
  reading atoms ...
  2592 atoms
  scanning bonds ...
  2 = max bonds/atom
  scanning angles ...
  1 = max angles/atom
  reading bonds ...
  1728 bonds
  reading angles ...
  864 angles
Finding 1-2 1-3 1-4 neighbors ...
  special bond factors lj:    0        0        0       
  special bond factors coul:  0        0        0       
     2 = max # of 1-2 neighbors
     1 = max # of 1-3 neighbors
     1 = max # of 1-4 neighbors
     2 = max # of special neighbors
  special bonds CPU = 0.021 seconds
  read_data CPU = 0.059 seconds
include 	in.setup
variable	out_freq equal 500
variable	out_freq2 equal 500

timestep	2.0

neigh_modify    delay 7 every 1

include		in.tip4p
# This is TIP4P/Ice

# create groups ###
group ox type 2
864 atoms in group ox
group hy type 1
1728 atoms in group hy

# set charges - beside manually ###
set group ox charge -1.1794
Setting atom values ...
  864 settings made for charge
set group hy charge 0.5897
Setting atom values ...
  1728 settings made for charge

# ### TIP3P Potential Parameters ###
pair_style lj/cut/tip4p/long 2 1 1 1 0.1577 8.5
pair_coeff 1 1*2 0.000 0.000
pair_coeff 2 2 0.21084 3.1668
bond_style  harmonic
bond_coeff  1 450 0.9572
angle_style harmonic
angle_coeff 1 55 104.52
kspace_style pppm/tip4p 1.0e-5
pair_modify tail yes

thermo          ${out_freq}
thermo          500
thermo_style 	custom step temp pe etotal epair emol press lx ly lz xy xz yz vol pxx pyy pzz pxy pxz pyz cella cellb cellc cellalpha cellbeta cellgamma

restart 	${out_freq} restart.lmp.${pid} restart2.lmp.${pid}
restart 	500 restart.lmp.${pid} restart2.lmp.${pid}
restart 	500 restart.lmp.0 restart2.lmp.${pid}
restart 	500 restart.lmp.0 restart2.lmp.0


include         in.dump
dump            myDump all atom ${out_freq2} dump.water.${pid}
dump            myDump all atom 500 dump.water.${pid}
dump            myDump all atom 500 dump.water.0
dump            myDump2 all dcd ${out_freq2} dump.dcd
dump            myDump2 all dcd 500 dump.dcd
dump_modify     myDump append yes
dump_modify     myDump2 append yes


timer           timeout 05:00:00 every 1000
New timer settings: style=normal  mode=nosync  timeout=05:00:00

fix 		1 all shake 1e-6 200 0 b 1 a 1
       0 = # of size 2 clusters
       0 = # of size 3 clusters
       0 = # of size 4 clusters
     864 = # of frozen angles
  find clusters CPU = 0.004 seconds
fix             2 all nph tri ${pressure} ${pressure} ${pressureDamp}
fix             2 all nph tri 1000 ${pressure} ${pressureDamp}
fix             2 all nph tri 1000 1000 ${pressureDamp}
fix             2 all nph tri 1000 1000 1000
fix             3 all temp/csvr ${temperature} ${temperature} ${tempDamp} ${seed}
fix             3 all temp/csvr 235 ${temperature} ${tempDamp} ${seed}
fix             3 all temp/csvr 235 235 ${tempDamp} ${seed}
fix             3 all temp/csvr 235 235 100 ${seed}
fix             3 all temp/csvr 235 235 100 745823
velocity 	all create ${temperature} ${seed} dist gaussian
velocity 	all create 235 ${seed} dist gaussian
velocity 	all create 235 745823 dist gaussian

run             500000
PPPM initialization ...
  extracting TIP4P info from pair style
  using 12-bit tables for long-range coulomb (../kspace.cpp:340)
  G vector (1/distance) = 0.36656857
  grid = 30 40 60
  stencil order = 5
  estimated absolute RMS force accuracy = 0.0046837777
  estimated relative force accuracy = 1.4105057e-05
  using double precision FFTW3
  3d grid and FFT values/proc = 4864 640
Neighbor list info ...
  update every 1 steps, delay 7 steps, check yes
  max neighbors/atom: 2000, page size: 100000
  master list distance cutoff = 10.8154
  ghost atom cutoff = 10.8154
  binsize = 5.4077, bins = 7 6 9
  1 neighbor lists, perpetual/occasional/extra = 1 0 0
  (1) pair lj/cut/tip4p/long, perpetual
      attributes: half, newton on
      pair build: half/bin/newton/tri
      stencil: half/bin/3d/tri
      bin: standard
Per MPI rank memory allocation (min/avg/max) = 9.434 | 9.448 | 9.454 Mbytes
Step Temp PotEng TotEng E_pair E_mol Press Lx Ly Lz Xy Xz Yz Volume Pxx Pyy Pzz Pxy Pxz Pyz Cella Cellb Cellc CellAlpha CellBeta CellGamma 
       0          235   -13874.649   -12664.902   -13874.649            0   -1066.3529        23.34    21.468634    43.717812    -9.157147      3.94664     5.974043     21906.03   -4950.9867   -3228.7469    4980.6749    1907.1047    3775.9375     1553.371        23.34        23.34    44.300251    84.888832    84.888832        113.1 
     500    238.58189    -12712.47   -11484.284    -12712.47            0    1329.8216    23.493981    21.590848    44.021451    -9.200738     3.926849    5.9128651      22330.1    678.92467    1221.7604    2088.7797   -280.83718    106.19217    46.789214    23.493981    23.469518    44.590024    84.982148    84.947665    113.08082 
    1000    237.95863   -12725.835   -11500.858   -12725.835            0    605.29961     23.52109    21.611946    43.916001   -9.2720423    3.8672829    5.9137752    22324.108    1005.6242   -58.291508    868.56611   -427.52476   -83.917835    85.117445     23.52109    23.516951    44.480825    84.957056    85.012253    113.22049 
    1500    242.56387   -12710.488   -11461.803   -12710.488            0    1823.9295    23.446022    21.685785    43.607947    -9.191081    3.7871535    5.7886342     22172.26    2007.4202    1025.5784    2438.7899   -5.8847517    336.12751    183.83265    23.446022    23.553116    44.153187    84.995252     85.07952    112.96868 
    2000    233.36817   -12687.399   -11486.053   -12687.399            0    1468.1835    23.488291    21.629048    43.681568   -9.2194357    3.9064709    5.8883999    22191.519    1086.3885    366.04211      2952.12   -151.84272      874.495    1028.3865    23.488291    23.511991    44.249443    84.963024    84.935166    113.08625 
    2500    245.84444   -12710.281   -11444.708   -12710.281            0    2093.7484    23.518691    21.519865    43.695314    -9.330286    3.7785486    5.7713714    22115.031    2395.0833    1846.8337    2039.3283    272.03233   -352.35671   -254.19639    23.518691    23.455465    44.236485    85.082449    85.099995    113.43992 
    3000    235.96767   -12702.131   -11487.402   -12702.131            0    1461.0578    23.462538    21.619805    43.856843    -9.141853    3.9901142    5.9708827    22246.624    1560.1204     2358.959    464.09402    286.26691   -74.275195   -944.16944    23.462538    23.473164    44.440917    84.906589    84.848779    112.92089 
    3500    232.60489   -12719.539   -11522.122   -12719.539            0    1051.6564    23.434552    21.621915    43.868664    -9.269589    3.7394285    5.9632537    22228.248   -29.543106    2082.5471    1101.9653    881.47294    1094.9536   -339.94674    23.434552    23.525146    44.429758    84.825136    85.171992    113.20543 
    4000    227.72105   -12692.111   -11519.835   -12692.111            0    277.76057    23.670469    21.562256    43.856767   -9.2576488    4.2652845    5.6792469    22383.999   -400.13318   -94.609138     1328.024   -190.11349   -610.22518    107.27061    23.670469    23.465612    44.428172    85.435245    84.490888    113.23603 
    4500    234.45698   -12705.024   -11498.072   -12705.024            0   -203.58908    23.647516    21.607058    43.855718    -9.283046    3.8129381    6.0705953    22408.222   -1067.7075    806.16306    -349.2228   -381.68204    535.37876   -816.51753    23.647516    23.516801    44.437761    84.741756     85.07774    113.24982 
    5000    235.66228   -12701.339   -11488.183   -12701.339            0   -70.001737    23.562888    21.654251    43.925775   -9.2703905    3.8449742    5.7009109    22412.543    71.075468     55.68589   -336.76657   -96.708022    491.56999   -37.189628    23.562888    23.555185    44.460746    85.190649    85.038852    113.17623 
    5500    230.33833   -12716.768   -11531.018   -12716.768            0   -282.60961    23.505613    21.765729    43.817179    -9.252813    3.8363848    6.1288602    22417.605   -884.56485    -741.7405    778.47653    310.24594    218.19002    238.32861    23.505613    23.650825     44.40975    84.651655    85.044265    113.03079 
    6000    236.69285   -12657.496   -11439.034   -12657.496            0    429.57066    23.527984    21.652911    43.879983   -9.2668866    3.9519826    5.8369779    22354.629    248.33621    131.74428    908.63148   -130.15741   -7.7337372    169.50582    23.527984    23.552574    44.442563    85.080444    84.898327    113.16967 
    6500    235.59886   -12736.838   -11524.009   -12736.838            0     407.0239    23.550165    21.519604    44.045738    -9.260988    4.0070543    5.8915614     22321.95   -45.234727    1041.1863    225.12017     655.0275   -413.21985    15.885996    23.550165    23.427746    44.618315    85.078659    84.847474    113.28469 
    7000    232.65121   -12717.072   -11519.416   -12717.072            0    1064.2884    23.446401    21.551053    44.066718   -9.2200555    3.9308554    6.0721998    22266.676    1018.4531    1141.5366    1032.8756    413.19956   -43.051708   -453.65741    23.446401    23.440505    44.656454    84.813843     84.95004     113.1624 
    7500    238.66057   -12698.233   -11469.642   -12698.233            0    1327.3863    23.384757    21.622426    43.915357   -9.2117825    3.9447403    5.7086545     22205.15    1385.4175    1127.0497    1469.6917    321.15268    92.781285     927.6546    23.384757    23.502899    44.460188    85.218803    84.909725    113.07541 
    8000    235.85559   -12715.999   -11501.848   -12715.999            0    1035.6302     23.46244    21.643439    43.810521   -9.2919468    3.5459005    6.1108666    22247.328    828.35325    1123.9538    1154.5835    53.025526    63.180584    270.40594     23.46244    23.553741    44.376547    84.547874    85.416904    113.23478 
    8500    232.28856   -12712.537   -11516.748   -12712.537            0    1180.3624    23.644989     21.58949    43.607266   -9.1870715    4.3601455    5.6836361    22260.778    469.43009    854.46434    2217.1927    -433.6698   -103.11823    379.78773    23.644989    23.462914    44.191722    85.428037     84.33774    113.05142 
    9000    236.19869   -12648.223   -11432.306   -12648.223            0    1080.7118    23.603687    21.530508    43.784168   -9.3631961    3.5744329    5.8862013    22251.087   -19.522696    1855.1885    1406.4695    604.93854    646.92684   -407.78684    23.603687    23.478335    44.322425    84.857993    85.374293    113.50328 
    9500    238.26122   -12706.527   -11479.992   -12706.527            0    986.81513    23.556164    21.608692     43.72661     -9.24491     4.031679      5.99307    22257.627    182.88761    1959.8077    817.75005    89.783714   -173.88374   -210.35436    23.556164    23.503275    44.319157    84.920236    84.780632    113.16283 
   10000    233.54223   -12682.477   -11480.234   -12682.477            0    990.83018    23.391932    21.651777    44.062025   -9.2163777    3.7112494    5.7780178    22316.397    1028.5217     1751.387    192.58184   -196.57638    1049.6321   -256.70829    23.391932    23.531703    44.593956    85.030621    85.226143     113.0577 
   10500    240.93166   -12673.354   -11433.071   -12673.354            0   -900.17635    23.486751     21.63767     44.27725   -9.3178294    3.9144316    6.0753412    22501.635   -578.31364   -842.58632   -1279.6291     414.7153    -391.0272   -248.73513    23.486751    23.558665    44.863208    84.844031    84.994429    113.29816 
   11000     229.6398   -12676.653     -11494.5   -12676.653            0     883.6082    23.477334    21.610482     44.08311   -9.1653107    4.0721806    5.8426839    22365.853    1376.5109    197.61174    1076.7019   -403.00549   -708.25702    59.493381    23.477334    23.473727    44.654677     85.13262    84.767774    112.98249 
   11500    231.57191   -12681.369   -11489.269   -12681.369            0    700.47053    23.454797    21.584164    44.167341   -9.2872415    3.8518785    6.0748181    22359.812    670.64629    1149.6462    281.11905    429.86355    299.99465   -299.30912    23.454797    23.497425    44.749239    84.797422    85.062043    113.28126 
   12000    244.34841   -12697.251    -11439.38   -12697.251            0    1138.9605    23.492243    21.622681    43.927668   -9.1963856    4.0042413    5.8439162     22313.73    1985.0657    800.13464    631.68126   -76.082643   -476.12373   -158.81655    23.492243    23.497103    44.495228    85.087216    84.836819    113.04063 
   12500    236.77803   -12693.177   -11474.277   -12693.177            0    504.60164    23.489867    21.644419    43.886825   -9.2144571     3.819502     5.992779    22313.138    64.867254    798.66713    650.27053    44.134028    61.746163   -80.580878    23.489867    23.524181    44.458469    84.814986    85.071548    113.06041 
   13000    233.73557   -12676.339   -11473.102   -12676.339            0     1762.303    23.606734    21.535256    43.712125   -9.4387175    3.9796719    5.6165914    22222.242    1699.7869     1255.651    2331.4712    118.46081   -273.53202    518.70356    23.606734    23.512904    44.250806    85.402897    84.840164    113.66743 
   13500    233.07421   -12732.233     -11532.4   -12732.233            0    1406.9476    23.578027    21.615501    43.615444   -9.0752796     3.955596    6.0350108    22228.649    1413.2989    1457.6407    1349.9031   -811.92203   -4.4847572   -28.120022    23.578027    23.443348    44.208314    84.765534    84.866521    112.77513 
   14000    229.94034   -12718.773   -11535.072   -12718.773            0     1139.491    23.502484    21.590951     43.76666   -9.4443941    3.5873406    5.8138614    22208.998    954.78137    711.57831    1752.1132    318.19323     111.0439   -301.84461    23.502484    23.566199     44.29662    84.963393    85.354842    113.62571 
   14500    235.74624   -12729.976   -11516.387   -12729.976            0    538.50328    23.440449    21.736224    43.712512   -9.0531148    4.1067648    5.7354002    22271.824    1042.1923   -92.700728    666.01828    27.656572   -682.13165    191.70655    23.440449    23.546174    44.278031     85.18642    84.678197    112.61168 
   15000    241.61511   -12727.649   -11483.848   -12727.649            0    174.82035    23.548625    21.616739    43.888457   -9.2761616    3.8358403    6.2975203    22341.177   -851.44233    917.69729     458.2061   -146.31477   -58.011014   -1086.9665    23.548625     23.52298    44.503585    84.488278    85.055443    113.22511 
   15500    234.88788   -12689.967   -11480.797   -12689.967            0    624.16899    23.530268     21.50419    44.127048      -9.3145    3.8907812    5.4471604    22328.257    422.08886    1426.7432     23.67492    220.43381   -155.50468    343.36143    23.530268    23.434805    44.631895    85.564144    84.998898    113.41976 
   16000    226.03785   -12633.383   -11469.772   -12633.383            0    1175.4132    23.411927    21.674719    44.091154   -9.0808758    4.0845798    6.2936345    22373.921    1243.6638    1078.9947     1203.581    678.85205   -502.49474   -1045.4272    23.411927    23.500122    44.724976    84.577584     84.76007    112.73181 
   16500    239.37187   -12683.292   -11451.039   -12683.292            0    1395.0095    23.437317    21.668671     43.85727   -9.3423736     3.829787     5.957716    22273.156    1903.9161    932.40852    1348.7037   -653.52099    699.23999   -116.30798    23.437317    23.596848    44.425463    84.892948    85.054563    113.32313 
   17000    240.45297   -12714.472   -11476.654   -12714.472            0    1023.1134    23.572852    21.542299     43.77317   -9.1109617    3.8002344    5.5545024    22228.603    877.84844    1146.4789     1045.013   -1112.4482    453.19368     443.6614    23.572852    23.389747    44.287523    85.291398    85.077497    112.92513 
   17500    242.29369   -12742.921   -11495.628   -12742.921            0    1138.7938    23.615029    21.582827      43.6336   -9.4013095    3.9794344    6.2895415    22239.134    915.01359    974.61751    1526.7502    253.56512    562.13036   -231.70365    23.615029    23.541518    44.263815    84.585098    84.841993    113.53756 
   18000     239.3688   -12756.157   -11523.921   -12756.157            0    668.25202    23.487601    21.623454    43.819842   -9.1704229    3.7925648    5.6380534    22255.355    478.83947    1237.1951    288.72151   -379.65574   -37.676266    -35.50424    23.487601    23.487665    44.343542    85.200989    85.093677    112.98161 
   18500    234.22145   -12709.695   -11503.956   -12709.695            0     646.5462    23.445168    21.677908    43.947058   -9.3158738    4.0281206    6.0796666    22335.749    564.68064    30.379827    1344.5781    58.777205   -255.64755   -253.69311    23.445168    23.594855    44.548086    84.854483    84.812123    113.25515 
   19000    237.05782   -12712.799   -11492.458   -12712.799            0    358.32975    23.509646    21.586694    44.131663   -9.2037936    3.7415562    6.2182412    22396.622    1155.0418    201.75558   -281.80813   -462.94277   -459.24963   -138.66273    23.509646    23.466895    44.724372     84.54384    85.201135    113.09166 
   19500    234.82241   -12696.511   -11487.678   -12696.511            0    354.29783      23.5086    21.525054    44.208309   -9.2598102    4.1061182    5.4761094     22370.46    276.76879    535.22554    250.89917    229.12654   -98.572345    427.01688      23.5086    23.432286    44.735026    85.631169    84.733548    113.27677 
   20000    235.06806   -12723.602   -11513.505   -12723.602            0     178.9976    23.466975    21.671816    44.075537   -9.2552161    3.8196128    6.2368547    22415.582    255.92631    362.92119   -81.854706    428.10091    446.71933    74.229638    23.466975     23.56537    44.678191    84.560099    85.095702     113.1255 
   20500    231.68417   -12686.148    -11493.47   -12686.148            0     -609.509    23.512289    21.760043    43.968243   -9.0831392    4.0347081    5.7513673    22495.403    -634.8463    -802.0656    -391.6151    -336.7363   -138.38227    378.89427    23.512289    23.579713    44.525987    85.164513     84.80103    112.65677 
   21000     233.8956   -12716.643   -11512.581   -12716.643            0    784.27152    23.573181    21.593028    43.831603    -9.347721    3.7951078    5.9124182    22311.003    623.22426    801.12565    928.46463    371.94004    121.90693    155.96871    23.573181    23.529529    44.391091    84.936282    85.095651    113.40801 
   21500    227.83277   -12727.686   -11554.835   -12727.686            0    1069.1725     23.59114    21.602392    43.733004   -9.1852645     3.819962    6.0960441    22287.434    778.49612    1044.2001    1384.8212   -645.80762    226.63899   -227.18355     23.59114     23.47408    44.320757    84.672322    85.055599    113.03503 
   22000    240.64473   -12695.209   -11456.404   -12695.209            0    1497.8203     23.52155    21.675534     43.62745   -9.2874656    4.1916305    5.6452526    22243.113    1316.4726    818.75256    2358.2358    463.53173   -1016.0432    567.91919     23.52155    23.581471    44.190418    85.407671    84.557093    113.19402 
   22500    244.73176   -12742.765    -11482.92   -12742.765            0    1489.9613    23.472622    21.607153    43.754755   -9.2955485    3.3984743    5.7442404    22191.385    1267.0045    921.68934    2281.1901    -383.4468     736.5532    97.715778    23.472622    23.521826    44.260869     84.90119    85.596334    113.27771 
   23000    229.57044   -12727.006    -11545.21   -12727.006            0     1827.866    23.520693    21.568366    43.733834   -9.1472929    4.4657659    6.1509398    22186.301    1556.4024    1601.8158    2325.3799   -321.92262   -508.55209    21.006414    23.520693    23.427919    44.389474    84.934838    84.226038    112.98214 
   23500    234.81702   -12707.302   -11498.497   -12707.302            0    1765.4268    23.466442    21.508452    43.997378   -9.2030367    3.4789283    5.7055662    22206.657    2057.6203    2034.4001    1204.2601    -364.8689   -5.5197463    259.67417    23.466442    23.394644    44.501974    85.002063    85.516345    113.16511 
   24000    241.71897   -12660.007   -11415.671   -12660.007            0    1223.1782    23.424733    21.675204    43.953081   -9.2820708    3.9613147    6.1518623    22316.556    1795.9472    626.21685    1247.3705    190.21605   -350.65987   -75.914298    23.424733    23.579043    44.557948     84.72596    84.899526    113.18228 
   24500    229.15889   -12708.587   -11528.909   -12708.587            0    657.27905    23.311323    21.691317    44.070619   -8.9797105    4.1404797    5.6003678    22284.454     1587.297   -11.700954    396.24111   -771.61975    -754.2007    852.86325    23.311323    23.476551    44.617565    85.383902    84.675329    112.48844 
   25000    232.72437    -12671.81   -11473.778    -12671.81            0    137.86927    23.535472    21.589585    44.022282   -9.4102014    3.7019278    6.0323593    22368.649   -248.84499    74.454712    587.99809    416.25219    310.14269    140.18488    23.535472    23.551264     44.58761    84.787538    85.237482    113.55083 
   25500    231.24521   -12699.188    -11508.77   -12699.188            0    149.69089      23.6164    21.567653    43.865132   -9.1652045    4.2642927    5.9469248     22342.72    213.12661   -66.064617    302.01067   -557.16314   -547.02034     197.0153      23.6164    23.434262    44.471338    85.091138    84.497536    113.02313 
   26000    238.49932   -12686.985   -11459.224   -12686.985            0     657.5949    23.481371    21.657393    43.883845   -9.2832672    3.5340411    5.7315622    22316.922    600.99952    283.90827    1087.8769    55.605621    1005.2295    450.08435    23.481371    23.563143    44.397433     84.99198    85.434419      113.202 
   26500    235.41738   -12765.459   -11553.564   -12765.459            0    890.06772     23.43974    21.658191    43.886284   -9.3195333    3.9710445    6.0160672    22279.415    823.20313    1253.2216     593.7784    806.36066   -929.17149   -467.44819     23.43974    23.578188    44.474354    84.896045    84.877329    113.28224 
   27000     239.0521   -12707.163   -11476.556   -12707.163            0   -136.72957    23.575035     21.56616    44.116806   -9.0056862    3.8757104    5.7165375    22429.998   -196.01103   -88.616661   -125.56103   -578.61718    632.41064    428.34396    23.575035    23.370957    44.654144    85.141967    85.020807    112.66464 
   27500    241.10225   -12721.481   -11480.321   -12721.481            0    459.93683    23.582945    21.533543    43.948296   -9.5214156    3.9210685    5.9781989    22318.015    511.45424     654.5198    213.83645    11.836675    404.29123    373.47349    23.582945    23.544656    44.526019    84.998465    84.947851    113.85342 
   28000    233.88007   -12717.143   -11513.162   -12717.143            0    13.303992    23.430343    21.731016    43.984346   -9.0521616    3.8998809     5.847353    22395.296    295.01902   -125.22744    -129.8796    170.85713   -360.84799    628.94526    23.430343       23.541    44.542377    84.979294    84.977071    112.61441 
   28500    234.00875   -12673.215   -11468.571   -12673.215            0    504.05479    23.516508     21.71143    43.797701   -9.2571603    3.8979871    5.9382027      22362.1    395.88074   -297.29358    1413.5772     290.2395    407.54547    225.25601    23.516508    23.602568     44.36998    84.913818    84.959959    113.09207 
   29000    231.38799   -12734.025   -11542.872   -12734.025            0    368.59073    23.578431    21.584643    43.858375   -9.3451355    3.7006116    5.9402727    22320.932   -460.68371    652.94187    913.51403    468.76034    562.37684    296.26447    23.578431    23.520808    44.413269     84.85739    85.220448    113.41034 
   29500    240.97208   -12715.719   -11475.228   -12715.719            0     1198.376    23.602178    21.529534    43.802583   -8.9920656    4.3153159    5.8030668    22258.015    538.76756    1713.7486    1342.6118   -629.04392   -295.38445    20.623852    23.602178    23.331911    44.395538    85.230114    84.421953    112.66843 
   30000    240.68125   -12690.021   -11451.028   -12690.021            0    893.75513    23.461891    21.658238    43.951284   -9.4274809    3.6527778    5.8604957    22333.548    948.70221    1235.6827    496.88048    577.38352   -231.86805    498.36723    23.461891    23.621107    44.490489    84.950837    85.290575    113.52271 
   30500    230.73038   -12711.028    -11523.26   -12711.028            0    1111.1949    23.386065    21.673618     43.96441   -9.0036749    4.2536732    5.9405097     22283.83    1336.1996    1093.9153    903.46971   -516.24541   -654.48886    75.384012    23.386065    23.469382    44.567396    85.038961    84.523147    112.55902 
   31000    242.70839   -12684.464   -11435.035   -12684.464            0    908.77209    23.623053    21.476723    44.060004   -9.2774457    3.8533404    6.0467151    22353.656    1159.7347    867.88101    698.70056   -172.43358   -12.998915    461.86907    23.623053    23.394885    44.639612    84.829562    85.048002    113.36322 
   31500    230.54591   -12676.196   -11489.378   -12676.196            0    760.56545    23.479336    21.629713    43.967491   -9.2735922    3.9555924    5.7973953    22328.947    1259.0693    745.96865    276.65845   -627.56783   -380.89262    67.176351    23.479336     23.53389    44.524115    85.143278    84.903033     113.2069 
   32000    236.87573   -12677.207   -11457.804   -12677.207            0    667.70251    23.444517    21.748543    43.861033   -9.0319998     3.989058    6.0123229    22364.042    846.36331   -60.798708    1217.5429   -6.4811592   -247.55524    34.092467    23.444517     23.54944    44.450543    84.807847    84.851265    112.55273 
   32500    237.65946   -12681.646   -11458.209   -12681.646            0    1627.2141    23.633535    21.481081    43.793565   -9.4934449    3.8246909    5.6080362    22232.849    1539.8963    1072.3033    2269.4426    -77.42952    458.89737    430.52511    23.633535    23.485364    44.316528    85.362059    85.048989    113.84277 
   33000    239.11156   -12695.678   -11464.765   -12695.678            0     1271.791    23.560768    21.533111    43.889736   -9.1099086    3.9745541    5.8817333    22266.871    1274.9665     1092.743    1447.6637   -466.76378   -9.8704461    108.95435    23.560768    23.380875    44.460104    85.008609    84.871141    112.93153 
   33500    234.48775   -12731.477   -11524.367   -12731.477            0    1201.6178    23.375452    21.701182    43.874398   -9.3037078    3.9823468    6.0390387    22256.383    2045.7998    668.23866    890.81509    57.553727    105.91842   -310.22494    23.375452    23.611444    44.466751    84.863213    84.861829    113.20573 
   34000    235.09659   -12728.638   -11518.394   -12728.638            0    813.63198    23.324407    21.691134    44.053343   -9.1676856    3.6766093    5.7029692    22288.032    1742.5298    628.83346    69.532673   -118.74814    363.45405   -515.13252    23.324407    23.548922    44.572843    85.081337    85.268558    112.91119 
   34500    231.91203   -12741.984   -11548.134   -12741.984            0    852.31412    23.497904    21.530958    44.040467   -9.2264681    4.1105702    5.9781397    22281.499    784.87202    2350.7129   -578.64251   -271.53888   -354.10303   -873.03589    23.497904    23.424557    44.634042    85.018436     84.71586    113.19615 
   35000     231.7779   -12743.266   -11550.106   -12743.266            0    800.90041    23.586409    21.447348     44.10977   -9.2108845    3.7916606    6.2619373    22313.629    472.97082    1190.7117     739.0187   -43.583801    314.33395    -621.8888    23.586409    23.341575     44.71309    84.536086    85.135488    113.24183 
   35500    233.02404   -12662.967   -11463.392   -12662.967            0    1400.1723    23.446846    21.643978    43.873306    -9.234557    4.0119319    5.7177834    22264.958    818.30404     1174.499     2207.714    577.62434   -36.216203   -40.016148    23.446846    23.531656    44.425844    85.242392    84.818774    113.10586 
   36000    229.55138    -12680.94   -11499.242    -12680.94            0    1299.9154    23.455407    21.739674    43.705509   -9.2228353    3.8522951    6.0910079    22286.002    1599.2773    593.95992     1706.509    241.22338   -253.85888   -186.42715    23.455407    23.615124    44.295734    84.685519    85.010819    112.98859 
   36500    237.63399   -12715.293   -11491.987   -12715.293            0    903.35099    23.618999    21.578477    43.710587   -9.2846179    3.8774026    5.7714493    22277.627    337.57448    1278.3574    1094.1211   -190.68328    146.61523   -485.74079    23.618999    23.491165    44.260132    85.114987    84.974169    113.28086 
   37000    238.38508   -12715.097   -11487.924   -12715.097            0    1549.0949    23.621574    21.494688    43.757209   -9.2886927    3.8744169    5.9180961    22217.214    800.03409    1913.3787    1933.8718   -753.16577    600.76447    133.54117    23.621574    23.415837    44.325256    84.957924    84.985446    113.37105 
   37500    229.05313   -12675.342   -11496.208   -12675.342            0    2455.2306    23.362128    21.627534    43.781104    -9.145612    3.9207274     5.966506    22121.069    2610.1595    2596.6702    2158.8622    73.177432   -520.67085   -776.17007    23.362128    23.481747      44.3594    84.867536    84.929268    112.92199 
   38000    239.07217    -12680.16    -11449.45    -12680.16            0    2051.8199    23.311184    21.683445    43.887804   -9.2526644    3.9282867    5.7095975    22183.827    2946.6554    697.75259    2511.0519    31.040802   -140.99088    1021.9368    23.311184    23.575063    44.431636    85.210656    84.927747     113.1087 
   38500    233.57432   -12675.725   -11473.318   -12675.725            0    1987.0829    23.495079    21.537223    43.863087   -9.1279965    3.8606945    6.1014374    22195.545    2950.8207    1808.0535    1202.3745   -886.08026    145.98613   -812.41075    23.495079    23.391714    44.453379     84.69353     85.01769    112.96841 
   39000    228.00229   -12690.815   -11517.092   -12690.815            0    1274.4427    23.580164    21.504586    43.901041   -9.2695416    4.0493841    5.8635177    22261.413     877.6955       1686.8    1258.8325    334.29085    386.69397     87.00688    23.580164    23.417336    44.475608     85.12237     84.77614    113.31844 
   39500    240.39121   -12691.566   -11454.066   -12691.566            0    1464.3239    23.423377     21.65323    43.955581   -9.2414439    3.5087664    6.1572463    22293.909    1590.4221    1557.9915    1244.5582   -556.39322    -174.1625    -327.3839    23.423377    23.542868     44.52321    84.476261    85.479971    113.11244 
   40000    235.77488   -12725.375   -11511.639   -12725.375            0    1286.3595    23.385085    21.741914    43.750401   -9.1438302    4.1634411    5.7820145      22244.3    1702.8256    657.86214    1498.3907   -503.57004   -4.3639652     481.3131    23.385085    23.586446    44.326781    85.191413    84.610487    112.80979 
   40500    230.07186   -12717.561   -11533.183   -12717.561            0    1712.9011    23.491444    21.550796    43.862304   -9.2680114    3.6183849    5.9054075      22205.7    1913.5481    2501.8243    723.33079    236.00572    467.32733   -566.74686    23.491444    23.459174    44.405723    84.837715    85.326091    113.27033 
   41000    231.83294   -12745.357   -11551.914   -12745.357            0    1165.6926    23.701702    21.469623    43.717333   -9.2650627    4.1653869    5.9513264    22246.291   -388.07359    2290.7196    1594.4319    333.99547    293.26493     174.1302    23.701702    23.383458    44.316745    85.063128    84.606736    113.34227 
   41500    232.98287   -12643.756   -11444.393   -12643.756            0    688.07098    23.522245    21.652801    43.891674   -9.2754697    3.8042817    5.7897226    22355.017     362.1948    854.29778    847.72035    427.83315    469.82828    588.62306    23.522245    23.555852    44.435037    85.063141     85.08864    113.18897 
   42000    227.92052   -12688.267   -11514.964   -12688.267            0    197.19628     23.42086    21.802897    43.796537   -9.2679454    3.7232854    5.7083739    22364.377    159.51207   -295.08462    727.16139    -50.80471    112.74692    294.04703     23.42086     23.69095     44.32364    85.085859    85.181347    113.02931 
   42500    228.27191   -12674.511   -11499.399   -12674.511            0    919.44752      23.5626       21.583    43.919153   -9.2021636    3.8887754    6.2332402    22335.156    1197.8864    236.62535    1323.8308   -59.427575    107.76369   -465.81503      23.5626    23.462858    44.529405    84.576659    84.989949    113.09154 
   43000    232.32203   -12657.659   -11461.698   -12657.659            0    1782.2226    23.542142    21.478758    44.089194   -9.2816147    3.8279396    5.6880683    22293.964     1654.177    2863.8278    828.66294   -267.34513    126.92301    -375.5747    23.542142    23.398406    44.619102    85.239531    85.078459    113.37062 
   43500    244.58708   -12712.813   -11453.713   -12712.813            0    1887.0084    23.327665    21.671238    43.946185   -9.0699524    4.1281262     6.238254    22216.527    2315.6589    1321.7109    2023.6553   -709.56726   -2.1554646     -50.5949    23.327665    23.492692    44.578295    84.644373    84.686572    112.71052 
   44000    238.99871   -12735.346   -11505.014   -12735.346            0    1441.8152    23.422174    21.692213    43.764921    -9.200279    3.8220251    5.8750719    22236.028    1765.8548    1203.0347     1356.556   -725.17084   -33.530036    56.817824    23.422174    23.562623    44.322598     84.93072    85.053128    112.98317 
   44500    236.07892   -12691.941    -11476.64   -12691.941            0    1229.9006    23.588516    21.594139    43.637857   -9.3334157    3.8180079    5.6598493    22227.976    325.38818    1833.4377     1530.876    965.65884   -221.85972    787.87914    23.588516     23.52487    44.168695    85.220032    85.041079    113.37496 
   45000    233.67578    -12728.42    -11525.49    -12728.42            0    1578.0443    23.673942    21.570397     43.51983   -9.2533378    3.9800199    6.1538896    22223.677     510.0197    1550.1459    2673.9673    -135.8546    42.192539     -195.694    23.673942    23.471393    44.132602     84.68717    84.825853    113.21852 
   45500    237.81941   -12722.267   -11498.006   -12722.267            0    1563.4924    23.512956    21.585126    43.760921   -9.2864211    3.8240946    5.6093327    22209.985    1965.3499    1707.3399    1017.7874    191.57832   -103.67918   -536.49108    23.512956    23.497985    44.284382    85.283354    85.046161    113.27849 
   46000    235.66811   -12681.843   -11468.657   -12681.843            0    1090.7348    23.327828    21.747228    43.920796    -9.169704    3.6608138    5.9783774    22281.704    1986.4026    845.52092    440.28083    192.37914    307.51693   -415.04885    23.327828    23.601386    44.476723    84.728393    85.278727    112.86269 
   46500    236.64837   -12698.214   -11479.981   -12698.214            0    746.39897    23.432495    21.612394    44.097325   -9.2530759    3.9840323    5.8857591     22332.31    915.92976    1220.1384    103.12877    164.16324    180.48463    8.9575294    23.432495    23.509891    44.666416    85.064718    84.882688    113.17758 
   47000    235.99899   -12714.934   -11500.044   -12714.934            0    1655.4533     23.50458    21.436685    44.125047   -9.2717653    3.6986792    5.5746491    22232.858    1491.6888    2690.5478    784.12334   -15.549271     226.6208   -110.97403     23.50458    23.355879    44.629326    85.311057    85.246129    113.38938 
   47500    237.64356   -12694.652   -11471.296   -12694.652            0    1010.0513    23.633989    21.538846    43.821753   -9.2526718    4.0651581     6.174163    22307.413    493.76939    1179.3958    1356.9889   -97.276319    309.27239   -401.00472    23.633989    23.442138     44.44088    84.747494    84.751624    113.24742 
   48000    232.16941   -12707.753   -11512.578   -12707.753            0    358.27254    23.452192    21.804542    43.603534   -9.2574664    3.8664437    5.6805686    22297.291   -83.082173   -336.97419     1494.874    22.753638    617.09208    504.39741    23.452192    23.688367    44.141663    85.168574    84.974925    113.00442 
   48500    237.84135   -12723.062   -11498.688   -12723.062            0    787.47842     23.49936    21.666473    43.848416   -9.2782903    3.6509671    5.8643429    22325.344    1009.6285    434.37111    918.43571   -222.46616    544.05739    35.010792     23.49936    23.569529    44.389229    84.890063    85.282153    113.18219 
   49000    242.25568   -12715.683   -11468.585   -12715.683            0    654.55856    23.652071    21.563252    43.825766    -9.247357    4.2796363    5.9671532    22351.824    206.73347    1141.7752    615.16698   -116.59245   -1298.2759   -499.89192    23.652071    23.462469    44.436697    85.097756    84.473357    113.21198 
   49500    230.11246   -12643.652   -11459.066   -12643.652            0    1589.5393    23.507818    21.488947    44.089946   -9.3196643    3.5944962    5.7451436    22272.401    1405.4017    2365.2748    997.94147    409.12886   -74.940517    621.64221    23.507818    23.422874     44.60774    85.060897    85.378089    113.44617 
   50000    239.16627    -12703.81   -11472.616    -12703.81            0    1197.7865    23.421539    21.615048    43.984712   -9.2549343    4.0146328    5.7695181    22267.599    2064.3756    936.36624    592.61781   -332.95096    218.96487   -252.75715    23.421539    23.513062    44.542783    85.204703    84.828925     113.1792 
   50500    234.10529   -12721.781    -11516.64   -12721.781            0    1202.5913    23.382641    21.673964    43.925946   -9.0077734    3.8193778    6.2695315    22261.429    1518.6529    856.39662    1232.7245   -592.61522   -693.83669   -516.62304    23.382641    23.471274    44.535193    84.428731     85.08022    112.56794 
   51000    232.08955   -12681.329   -11486.564   -12681.329            0    924.15826    23.507183    21.525177    44.041148   -9.4361744    4.0266352    5.3915391    22284.657    1236.2918    1563.1237   -26.940771    581.09972   -277.30442    134.17149    23.507183    23.502652    44.552275    85.724811    84.814531    113.67161 
   51500    233.94527   -12673.239   -11468.922   -12673.239            0    487.11851    23.568978    21.603923    43.805952   -9.1779977    3.8609512    6.0361983     22305.22     46.45035    620.28552    794.61967   -348.69085    186.15968    343.65903    23.568978    23.472647    44.388108    84.770231    85.010012    113.01725 
   52000    228.04714   -12692.318   -11518.364   -12692.318            0    306.12768    23.573817    21.613772    43.797787   -9.3244219     3.835484    5.8480552     22315.81   -177.97599    118.08483     978.2742   -183.56653    235.36726    644.19738    23.573817    23.539329    44.352642    85.019747    85.039036     113.3359 
   52500    238.90075   -12675.247    -11445.42   -12675.247            0   -298.48793    23.564695    21.781898    43.689631   -9.2847451    3.9915146    5.8492221    22425.179    -970.8662   -428.13999     503.5424    105.32483   -16.790376    327.51119    23.564695    23.678209    44.259794    85.054418    84.825821     113.0866 
   53000    230.62024   -12701.738   -11514.538   -12701.738            0    245.65581    23.523894    21.644311    43.931489   -9.1410896    3.7889434    6.0074596     22368.09    803.41176   -492.10329    425.65895   -65.245666    493.03167   -362.96974    23.523894     23.49544    44.501926     84.76547    85.115861     112.8959 
   53500    234.87243   -12693.922   -11484.832   -12693.922            0    868.08071    23.527544     21.49784     44.10241   -9.4251379    3.9742551     5.814381    22306.619    240.21056     2109.029     255.0026   -260.26293    178.80042    -264.3335    23.527544    23.473183    44.661217    85.210101    84.894684    113.67373 
   54000    240.58427   -12695.476   -11456.982   -12695.476            0    424.15186    23.467442    21.590445    44.186734   -8.8840989    3.8280964    6.2236756    22388.203     790.6287    414.69521    67.131656   -652.97591   -57.378337   -526.11515    23.467442    23.346831    44.786783    84.492095    85.096729    112.36633 
   54500    229.73132   -12708.788   -11526.163   -12708.788            0    1438.6434       23.413    21.630649    43.928369   -9.3523631     3.965699      5.77618    22247.012    1738.6094    1068.4383    1508.8824    546.43681    283.51714    263.90632       23.413      23.5659    44.483622    85.192614    84.885311    113.38203 
   55000    242.32899   -12710.052   -11462.577   -12710.052            0    985.00859    23.496904     21.58352    43.966462   -9.2483234    3.6675762    5.7264093    22297.411    1330.2394    171.55733     1453.229   -470.80791    596.49523    722.04967    23.496904    23.481478    44.489242    85.075538     85.27132    113.19465 
   55500    230.79264    -12719.26   -11531.172    -12719.26            0    1371.8457     23.55872    21.518567    43.854567   -9.1562709    4.3073387    6.1190325    22232.068     814.1143    1914.9634    1386.4595   -1325.7752   -647.98253   -363.59285     23.55872    23.385594    44.488412    84.913872    84.443957    113.05002 
   56000    238.82045   -12691.303   -11461.889   -12691.303            0    1145.3038    23.387337    21.632339     44.02909   -9.1752733    3.7588619    5.7143317    22275.321     1174.438    1776.0954     485.3779   -561.31436    184.48696    321.50463    23.387337    23.497739    44.557192    85.116761    85.160754    112.98404 
   56500    229.54148   -12705.591   -11523.943   -12705.591            0    639.65396    23.350136    21.668751    44.046231   -9.1867773    3.8530195    6.0095949    22285.995    1067.1499    538.14256    313.66946    -22.33319   -134.60224    57.122321    23.350136    23.535752    44.620975    84.819595    85.046343    112.97521 
   57000    228.66541   -12681.456   -11504.319   -12681.456            0    864.39544    23.498576    21.579708     43.91755   -9.1770542    4.1174415    6.0527609    22270.255    332.08071    1112.4664    1148.6392   -365.04175   -420.62323   -635.69152    23.498576    23.449992    44.523482    84.898981    84.693821    113.03826 
   57500    240.45601   -12720.916   -11483.082   -12720.916            0     912.7978    23.552559    21.525444    43.846588   -9.3268796    3.4812673     5.553659    22229.312    326.90964    1247.4679    1164.0159    -414.6083    490.41731    99.525656    23.552559    23.459229    44.333798    85.197369    85.496269    113.42687 
   58000    234.01987    -12707.42   -11502.718    -12707.42            0    1376.6891    23.499356    21.710056    43.590889   -9.2286963    4.1121251    5.9924736    22238.866    1383.4112    923.06839    1823.5876    64.659735   -366.31034   -48.759864    23.499356    23.590154    44.192589    84.929012    84.660898    113.02979 
   58500    248.38316   -12690.491   -11411.849   -12690.491            0    1584.4056    23.492031    21.654857    43.710781   -9.1235754      3.67152    5.9121343      22236.4    925.33775    1464.3854    2363.4935   -84.974129   -106.01943    2.1525082    23.492031    23.498351    44.261335    84.785344    85.241793    112.84655 
   59000    229.20837   -12694.122   -11514.189   -12694.122            0    1664.9647    23.534302    21.514769    43.882206   -9.4317528    4.2102052    5.6860429      22219.1    1810.5294    1937.5628    1246.8018    49.899742   -212.18325    359.36051    23.534302    23.491344    44.448902    85.461465    84.564789    113.67193 
   59500    240.67361   -12699.159   -11460.206   -12699.159            0    829.53415    23.462519    21.577888    44.094705   -9.0459139    3.6737503     6.045671    22323.897    1119.4214     761.4308    607.75025   -646.53811    458.08746   -271.46817    23.462519    23.397304     44.65859    84.661272    85.281344    112.74448 
   60000    227.52022   -12708.247   -11537.005   -12708.247            0    899.09852     23.43249    21.617768    44.030549   -9.2785405    4.1370104    5.9447146    22304.032    1717.6351    214.53744    765.12305   -316.66228   -644.23755    245.39946     23.43249    23.524863    44.622234    85.074736    84.680362    113.22945 
   60500    226.35297   -12698.033     -11532.8   -12698.033            0    -524.5229     23.48434    21.652076    44.093666   -9.0841636    3.4034972    5.5850086    22420.955   -1100.0667    131.20661   -604.70858   -442.36053    1163.9619    881.41476     23.48434    23.480512    44.576087    85.066714     85.62106    112.76056 
   61000    228.63362   -12690.609   -11513.635   -12690.609            0    936.53575    23.581662    21.607597    43.804676   -9.3688187    4.0036242    6.0310974    22320.368   -391.00812    1416.8505    1783.7649    186.32031    858.36965    147.19257    23.581662    23.551284    44.398793    84.907917    84.826373    113.44103 
   61500    247.33951   -12694.066   -11420.797   -12694.066            0    489.61094    23.605209    21.638601    43.708539   -9.1345959    3.9338166    5.7758746    22325.609   -433.35021    992.59595    909.58709   -792.57491    228.35421    835.83905    23.605209    23.487654    44.263665    85.086484    84.901262    112.88673 
   62000    235.55692   -12702.325   -11489.712   -12702.325            0    925.32064    23.584605    21.640748    43.671863   -9.3788239     3.612152    5.9975585    22289.617    516.68711    232.17268    2027.1021    176.82563     540.6826    588.68154    23.584605    23.585681    44.229515    84.724575     85.31553    113.43129 
   62500    231.42801   -12703.428   -11512.069   -12703.428            0    2438.2045    23.494377    21.581586     43.69648   -9.2320687    4.2474622    5.7768274    22156.121    1948.9809     2486.844    2878.7886    319.70286   -745.55583    60.146711    23.494377    23.473303    44.280866    85.283857    84.495672    113.16004 
   63000    244.94201   -12680.747    -11419.82   -12680.747            0    1808.7652    23.403993    21.610288    44.017757   -9.0878965    3.6416509    5.9471569     22262.73    1783.7029     1497.513    2145.0796   -968.76466    103.31881    49.114856    23.403993     23.44343    44.566728     84.75968    85.313003    112.80849 
   63500    231.84294   -12725.198   -11531.703   -12725.198            0    2042.1506    23.416028    21.602924    43.871185   -9.4177088     4.056161    6.0309896    22192.443    2426.6664    2201.6221    1498.1634   -305.53601   -710.83252      84.6614    23.416028    23.566492     44.46916    84.958859    84.766612     113.5546 
   64000    243.40576   -12699.586   -11446.567   -12699.586            0    1322.9095    23.471619    21.576786    43.910955   -9.0730494    3.7757809     5.729431    22238.355    1338.2286    1433.4757    1197.0241   -554.19893   -66.001411   -13.791963    23.471619    23.406792    44.443839    85.071991    85.126492    112.80678 
   64500    227.06713   -12707.499   -11538.589   -12707.499            0    935.64507    23.525483    21.618983    43.770539   -9.4291827    3.8601509    5.9547583    22261.565    310.19171    699.62853     1797.115    1327.0147   -418.40413     562.2221    23.525483    23.585799    44.342079    84.934747    85.005857    113.56456 
   65000    234.19802   -12750.976   -11545.357   -12750.976            0    536.78153    23.553561     21.67302    43.652618   -9.0758616    3.8537454    5.9530527    22283.649    704.24324   -336.61287    1242.7142    70.742729   -121.36041    646.30966    23.553561    23.496618    44.224894    84.807472    85.000921    112.72214 
   65500    237.39673   -12739.984   -11517.899   -12739.984            0    823.78533    23.523435    21.598794    43.861916   -9.3261789    3.8456459    5.5889635    22285.267    428.36855    1157.0137    885.97378    249.27913   -289.40874   -92.213578    23.523435    23.526273    44.383478    85.339017    85.029323    113.35428 
   66000    239.00534    -12676.99   -11446.624    -12676.99            0    726.85187    23.561696    21.600649    43.807483   -9.3065992    3.9546609    6.1766256    22295.728    522.29047    644.86175    1013.4034   -394.59171   -354.54095   -846.11176    23.561696    23.520222    44.417177    84.693668    84.891935     113.3087 
   66500    245.48915   -12704.309   -11440.566   -12704.309            0    1110.3873    23.490104    21.545126     44.00214   -9.0961864    3.8700482    5.5486857    22269.362    613.63337    2474.6119    242.91668    569.24343   -498.45698   -215.95234    23.490104      23.3866    44.519136    85.353333    85.012984     112.8891 
   67000    232.93611    -12727.48   -11528.358    -12727.48            0    1366.1591    23.395944    21.612633    43.988215   -9.2832172    3.8669815    5.9419257     22242.55    2180.3368    951.96085    966.17954   -471.11937    261.69179   -31.678926    23.395944     23.52199    44.555842    84.935255    85.021061    113.24485 
   67500    234.43959   -12715.359   -11508.497   -12715.359            0    1428.3049    23.443041    21.594277    43.973322    -9.061068    4.0056198    6.0972888    22260.858    1720.2349    1545.1832    1019.4965   -125.69777   -195.20466   -50.429326    23.443041    23.418278    44.574376    84.757887    84.844232    112.76317 
   68000    229.36136   -12703.199   -11522.479   -12703.199            0    920.13238    23.542407    21.570467    43.951157   -9.3633578    4.0232006    5.7172959    22319.308    1401.5924    401.06449    957.74028    119.27224   -234.40356    293.21659    23.542407    23.515049    44.503683    85.305224    84.813293    113.46481 
   68500    233.23795   -12671.469   -11470.793   -12671.469            0     755.3965     23.53413    21.688685    43.821148   -9.1928646    3.5571966    6.0193965     22367.38     942.7738    918.25956    405.15615   -830.58743    611.12211   -260.36884     23.53413    23.556481    44.375442     84.62875    85.402158    112.96992 
   69000    226.65256   -12693.954   -11527.179   -12693.954            0    664.24519    23.554262    21.647031    43.765352   -9.2570721    4.4367663    5.6922904    22315.071   -373.31147    1179.0995    1186.9476    253.36406   -789.89326    862.25048    23.554262    23.543308    44.356432    85.488161    84.259371    113.15335 
   69500    227.97386   -12693.869   -11520.292   -12693.869            0    259.32645    23.562416    21.636235    43.895221   -9.2977639    3.3245809    5.9344653     22377.87    227.53677    263.83915    286.60344   -605.94061    1065.4335   -627.14055    23.562416    23.549418    44.419153    84.652442    85.707646     113.2547 
   70000    231.28889   -12715.081   -11524.439   -12715.081            0    686.58481      23.5446    21.630608    43.820697   -9.2294286    4.2212785    5.9384501    22317.179    1546.2837   -78.900432    592.37116    143.44624   -908.58577    -84.05433      23.5446    23.517345    44.422267    85.085811    84.547173    113.10715 
   70500    234.19973   -12727.233   -11521.605   -12727.233            0    1243.6128    23.330192    21.656811      44.0371    -9.161126    3.6044624    5.6479411    22250.077    1834.6198    896.27396     999.9445    16.262458    543.37469    193.40683    23.330192    23.514755    44.543884    85.109526    85.358588    112.92902 
   71000    229.28029   -12710.264   -11529.961   -12710.264            0    1199.2058    23.440786    21.601513     44.03062   -9.2617887    3.9973776    6.1112718    22295.188         2761     -125.909     962.5264    -395.6751   -1043.6289    66.204243    23.440786    23.503321    44.632076    84.804602    84.861539    113.20755 
   71500    233.61958   -12694.488   -11491.847   -12694.488            0    1500.3207    23.420423    21.563043    44.148042   -9.1153447    4.1249991    5.6567945    22295.449    2228.3239    1503.9816    768.65655    57.927333   -370.86845    302.16965    23.420423    23.410561    44.699715     85.37511    84.705072    112.91524 
   72000    245.40681   -12695.418   -11432.098   -12695.418            0    1715.1802    23.511991    21.444975    44.091206    -9.321861    3.5841535    6.0886914    22231.406    980.06335    3235.0553    930.42205   -222.02177    547.26777   -448.92387    23.511991    23.383414    44.653698    84.660786    85.396171    113.49398 
   72500    228.16091   -12717.604   -11543.064   -12717.604            0     1393.746    23.477321     21.59042    43.826046   -9.2297347    4.1809336    5.8475427    22214.775    1400.3543    1047.0476    1733.8361   -270.71082   -911.93761   -72.749252    23.477321    23.480508    44.411668    85.177833    84.598152    113.14633 
   73000     229.6025   -12711.063   -11529.101   -12711.063            0     1577.411    23.449323     21.68603     43.72364   -9.1242123    3.6800726    5.9205102    22234.464    1430.0304    1870.0884    1432.1142   -198.20962     456.3673   -219.19915    23.449323    23.527328    44.275863    84.777726    85.232252    112.81851 
   73500    236.59553   -12648.474   -11430.513   -12648.474            0    1166.3925    23.589576    21.683047    43.509802   -9.5718237    4.3099353    5.8983161    22254.998    1281.2364    690.65425    1527.2868    890.26693   -1012.7594   -303.18451    23.589576    23.701779    44.118801     85.24739    84.393874    113.81871 
   74000    238.74702   -12685.009   -11455.974   -12685.009            0    1277.6416    23.542964    21.546612     43.88047   -9.0425639    3.7043255    5.8372293    22259.295    602.57304    1863.9421    1366.4096   -646.77067    276.91871    373.73782    23.542964    23.367166    44.421739    84.899849    85.216554    112.76655 
   74500    239.31874    -12690.68     -11458.7    -12690.68            0    1904.3286    23.521714    21.541248     43.79811   -9.4931622     4.076256    5.9680775    22191.936    2128.1786    1896.9675    1687.8395    165.94433   -371.56348   -446.11775    23.521714    23.540296    44.390407    85.066665    84.731255    113.78294 
   75000    236.02336   -12665.409   -11450.394   -12665.409            0    792.69463    23.361851    21.657992    44.013899   -9.0415452    3.6988819     5.793737    22269.746    1480.8439    873.97763    23.262371   -399.28547     405.5673    153.31377    23.361851    23.469515    44.547417     84.94965    85.237107    112.65903 
   75500    240.87552   -12715.738   -11475.745   -12715.738            0      216.794    23.498841     21.64836     44.03069   -9.2411005    4.0010545    6.0907761    22398.912    235.76376    250.74017    163.87809   -191.54523   -148.72243   -687.19038    23.498841    23.538255    44.629672    84.818006    84.856522    113.11633 
   76000    228.28378   -12685.598   -11510.425   -12685.598            0    842.36528    23.548905    21.507408    44.079117   -9.4158205     3.696172    5.7456334    22325.012    689.59191     2076.911    -239.4071    326.61442   -105.46395    -386.5444    23.548905    23.478209     44.60541    85.137455    85.246806    113.64353 
   76500    232.02765   -12776.549   -11582.103   -12776.549            0    1395.8337    23.481179     21.58325    43.753484    -8.981909    4.0628996    6.1549341    22174.272    876.28947    1925.9432    1385.2684   -382.05393    17.085809    -633.9288    23.481179    23.377582    44.370685    84.670222    84.746226    112.59473 
   77000    226.96946   -12738.265   -11569.858   -12738.265            0     1072.964    23.396754    21.633651    43.895107   -9.3943035    3.8822873    5.6930134    22217.825    1252.6446    1033.5462    932.70118    63.989664    4.3281374    566.89297    23.396754     23.58533    44.432679    85.254957    84.987413    113.47265 
   77500    243.12969   -12737.908    -11486.31   -12737.908            0    1165.5191    23.424397    21.601191    43.923982   -9.0785403    3.7589808    5.9706875    22225.309    824.76348    1334.7582    1337.0355   -0.4788237    241.13751   -435.76967    23.424397    23.431417    44.487023    84.779411     85.15295    112.79602 
   78000    240.50669   -12678.676   -11440.582   -12678.676            0    500.47099    23.597707    21.542564    44.007065   -9.3331795    4.2982906    6.1554225    22371.217    1269.2058    539.18639   -306.97922    229.27988   -1048.4692    135.20175    23.597707    23.477442    44.642875    84.937501    84.474908    113.42437 
   78500    227.39385   -12688.508   -11517.916   -12688.508            0    1341.6408    23.420294    21.591502    44.044629   -9.2176916    3.6305507    5.5376113    22272.458     977.5207    1658.5695    1388.8321    170.03199    367.43126    600.33715    23.420294    23.476771    44.539594    85.276832    85.324468    113.11826 
   79000    227.79474   -12710.393   -11537.738   -12710.393            0    519.67829    23.443809    21.730876     43.89728   -9.3109642    4.2788938    6.4093821    22363.666    1248.7978   -349.82075    660.05783    689.15912   -1270.1806   -599.33115    23.443809    23.641595    44.568602    84.584625    84.490724    113.19354 
   79500    237.09441   -12706.229   -11485.701   -12706.229            0    476.88926    23.522386    21.600928    43.990114   -9.1987549    3.7509425    5.8021537    22351.613    722.72852    602.42031    105.51895   -564.12411   -130.17684   -394.46477    23.522386    23.478015    44.529369    85.015956     85.16795    113.06673 
   80000    228.65107   -12692.536   -11515.472   -12692.536            0    107.44675    23.551908    21.652054    43.932676   -9.2386582    4.1262656    5.6291231    22403.345    771.32707    -216.9272   -232.05962   -40.527436   -1133.6164    489.94673    23.551908    23.540694    44.483627    85.412154    84.677638    113.10733 
   80500     232.0861   -12710.116   -11515.369   -12710.116            0    404.72592    23.527383    21.740225    43.694101   -9.2796623    3.5236221    6.5065292    22349.122    284.45238    30.362606    899.36278   -35.776991    50.370493   -913.09405    23.527383    23.637883    44.316197    84.040832    85.439545    113.11487 
   81000    237.80097   -12712.815   -11488.649   -12712.815            0    579.07224    23.517091    21.604376    43.936451   -9.2147657    4.0235444    5.6075143    22322.884    781.05049   -156.06931    1112.2355   -14.563309   -274.59775    1081.8367    23.517091    23.487464    44.475216     85.38381     84.80952    113.09937 
   81500    228.10189   -12700.318   -11526.082   -12700.318            0    1650.1868    23.519684    21.512968    44.021799   -9.3448564    3.7259923    6.1075021    22274.071    1682.6965    1557.4348    1710.4291    558.20382     68.47496      27.8426    23.519684    23.454938    44.599366    84.703023    85.207718    113.47928 
   82000    231.68921   -12663.339   -11470.636   -12663.339            0    1788.5881    23.372096    21.597127    44.034271   -9.0640826    4.0502128    6.0931649    22227.184    2523.8733    2162.8795    679.01144   -345.94956    301.94846   -619.48696    23.372096    23.422072    44.637965    84.793078    84.794124    112.76727 
   82500    244.66737   -12681.193    -11421.68   -12681.193            0    765.39303    23.444799    21.608125    44.051512   -9.3413389     3.789313    5.5236312    22316.414     1093.671    635.59281    566.91533    451.42153     201.2346    1085.6002    23.444799    23.540851    44.557885    85.409044    85.121532    113.37916 
   83000    233.79988   -12737.487   -11533.918   -12737.487            0    327.50333    23.595753    21.580896     43.91115   -9.2026938    4.0413617    6.5773413    22360.326   -273.47711    793.47086    462.51624    392.91191    184.38001   -779.16846    23.595753    23.461131    44.584562    84.252402    84.799293    113.09475 
   83500    233.82347   -12697.117   -11493.427   -12697.117            0    606.91894    23.550548    21.557099    43.911955    -9.298323    3.9028671    5.5803578    22293.288    296.71461    1791.2432   -267.20094    696.34296     115.2331   -102.87979    23.550548    23.476954    44.436838    85.381302    84.961246    113.33221 
   84000    246.11051   -12690.238   -11423.295   -12690.238            0    464.35064    23.493673    21.679154    43.880584   -9.2648318    3.6976433    5.8809772    22349.389    17.067238    510.63887    865.34581    194.71181    893.17982   -198.60532    23.493673    23.575895    44.427065    84.892971    85.225777    113.13999 
   84500    233.67362   -12719.641   -11516.723   -12719.641            0     107.0092    23.481517    21.798116     43.72558   -9.0989938    4.4070987    6.2421687    22381.062    642.02373   -583.14816    262.15202   -388.24622   -423.41662   -126.55613    23.481517    23.620956    44.388214    84.748429    84.301982    112.65669 
   85000    232.84386   -12722.831   -11524.183   -12722.831            0    325.69608    23.546133    21.533114    44.024586   -9.3154365    3.5091183    5.6144188    22321.414    519.63833    804.84994   -347.40003   -219.41005    342.55542      486.788    23.546133    23.461721    44.519656    85.155697    85.479155    113.39378 
   85500    240.24202    -12678.89   -11442.158    -12678.89            0     152.5143    23.653172    21.616407    43.852882   -9.3572762    3.9394579    6.0714495     22421.83   -690.60675    266.84226    881.30739    1119.0975   -386.30347    153.58879    23.653172     23.55478    44.446115    84.827729    84.914946    113.40675 
   86000    235.99562   -12659.339   -11444.466   -12659.339            0    691.49944    23.446321    21.775869    43.737527   -9.0458264    3.9176904    5.9509562    22330.808    895.75824   -323.78668    1502.5267    402.08586     -794.818    9.3673644    23.446321     23.57998    44.314032    84.830593    84.928005    112.55829 
   86500    233.02356   -12706.694   -11507.121   -12706.694            0    1675.7135    23.392813    21.650961    43.812545   -9.3622321    3.6917797    5.6864521    22190.042    1667.6258    1797.3446    1562.1701    466.41403    342.02064    350.79448    23.392813    23.588461    44.334006    85.142488    85.223337    113.38445 
   87000    243.27983   -12751.668   -11499.298   -12751.668            0    1072.6057    23.501245    21.550252     44.00718   -9.1673032    3.9778128    6.0402158    22287.777    1409.9318    909.13277    898.75266   -791.31546    405.11471    229.56131    23.501245     23.41907    44.597523    84.852728    84.882784    113.04451 
   87500     234.2606   -12712.168   -11506.227   -12712.168            0    2397.1431    23.368178    21.399108    44.313079   -9.1255071    4.1099185    5.8525491    22159.116    3275.0543    3228.6043    687.77081   -302.91752   -866.32869   -688.49434    23.368178    23.263634    44.886443    85.180397    84.746493     113.0955 
   88000    244.67742   -12698.853   -11439.288   -12698.853            0    1086.9336    23.441025    21.613131    43.933978   -9.2790784    3.7616943    5.9177259    22258.444    1481.0934    1019.9063    759.80119    359.19043    112.64709   -61.605302    23.441025    23.520815    44.490047    84.901496    85.149773     113.2351 
   88500    240.20257   -12717.597   -11481.068   -12717.597            0    1033.8306    23.539918    21.629572    43.748268   -9.1672504    3.9803706    6.0356846    22274.796     1474.613    503.80822    1123.0706   -986.75719    650.29829   -235.52246    23.539918     23.49206    44.341671    84.819312     84.84986    112.96866 
   89000    236.58582   -12753.634   -11535.724   -12753.634            0    924.60672    23.551122    21.548686     43.94181   -9.3512972    3.7682288    5.4814886    22300.281     397.7736    363.34379    2012.7028    565.20104    381.65574    498.08654    23.551122    23.490267    44.442423    85.446457    85.136108    113.45898 
   89500    238.84056   -12744.016   -11514.499   -12744.016            0    187.86964    23.525942    21.689725    43.937338   -9.1009655    3.9934637    6.3501746    22419.958   -206.20258    156.32238    613.48912   -235.07638    161.46586   -400.37905    23.525942    23.521729     44.57311    84.450533    84.859775    112.76282 
   90000    236.34991   -12743.043   -11526.347   -12743.043            0    24.650032    23.504231      21.6297    43.984318   -9.2964503    3.9765123    5.7760237    22361.164   -398.97374    209.83796    263.08587    94.850275   -149.58471   -145.65042    23.504231    23.542895    44.539817    85.187831    84.877816    113.25805 
   90500    234.09942    -12686.95    -11481.84    -12686.95            0    750.21524    23.398924    21.577028    44.155077   -9.3014056    3.2895977    5.9089353    22292.981    1147.6057    940.35059    162.68943    471.67664    397.21263    535.68865    23.398924    23.496473    44.669988    84.702829    85.776788    113.31986 
   91000    237.08002     -12739.9   -11519.445     -12739.9            0    657.79701    23.552086    21.570722    43.888166   -9.2021927    4.4397565    5.9870394    22296.747   -851.18106    1944.9889    879.58322    284.41772    544.48191   -93.026619    23.552086    23.451576    44.516595    85.148728    84.276226    113.10337 
   91500    228.20073   -12683.392   -11508.647   -12683.392            0    1186.6331    23.466919    21.561327    44.027208   -9.2080678    3.4532669    5.8026305    22276.795    908.18443    1357.1867    1294.5281    413.68002    714.68599    262.18995    23.466919    23.445241     44.54201     84.87343    85.553493    113.12559 
   92000    235.71789   -12738.463    -11525.02   -12738.463            0     1226.348    23.422158    21.662592    43.821974   -9.3097828     4.153089    5.9517644    22234.598    1845.0039    441.65466    1392.3856    393.51191   -234.29492    197.93786    23.422158    23.578379    44.418882    85.055689    84.635107    113.25625 
   92500     234.3344   -12717.022   -11510.702   -12717.022            0    2103.4558    23.447652    21.635904    43.698027   -9.1021812    3.7702858    5.8491381    22168.496    1425.6618    2087.6766    2797.0291   -848.52332    1259.8048   -205.42758    23.447652     23.47258    44.248673    84.905248    85.112086    112.81639 
   93000    231.70819    -12693.33   -11500.529    -12693.33            0    1863.6493    23.575574    21.537498    43.716795   -9.3546245     3.624331    5.7193019    22197.591    964.87016    2575.3602    2050.7176    261.98162    863.75587     124.5719    23.575574    23.481329    44.238042    85.069727    85.300608     113.4773 
   93500    230.79264   -12709.406   -11521.318   -12709.406            0    1275.4847    23.596911     21.64102     43.63141   -9.2160172    4.2278165    5.7899454    22280.869    752.31635    650.58364    2423.5541   -272.34644    288.62009    488.77981    23.596911    23.521665    44.216488    85.238259    84.513208    113.06715 
   94000    234.37032   -12711.802   -11505.297   -12711.802            0    969.91181    23.491059    21.647024    43.791998   -9.1814855    3.3786655    6.0062714    22268.735    786.89836    179.58883    1943.2482   -557.86418     728.9235   -311.54558    23.491059    23.513683    44.330912    84.550318    85.628983    112.98401 
   94500    233.19328   -12696.246     -11495.8   -12696.246            0    1318.5574    23.544129    21.614604    43.687041   -9.3378718    4.3351105     5.840121    22232.204    650.13895    741.35922    2564.1741   -316.10735   -309.16278    41.004525    23.544129    23.545423    44.288348    85.283091    84.382678    113.36516 
   95000    240.63432   -12718.252   -11479.501   -12718.252            0    1046.3553    23.479544    21.568556    43.943719   -9.0958619    3.6673497    5.8598698    22253.972    1129.9456    1498.7498    510.37051   -101.32386    499.43771   -245.66932    23.479544    23.408061    44.484132    84.874216    85.271068    112.86606 
   95500    239.33856   -12727.103   -11495.021   -12727.103            0    456.35729    23.463926    21.621661    44.043656   -9.4066449    4.0611622     6.023749    22344.627   -143.34046    942.85013    569.56221    1267.7108   -648.57756   -301.60014    23.463926    23.579254    44.638797    84.983289    84.780109    113.51176 
   96000    237.57124   -12719.075   -11496.092   -12719.075            0   -93.201868    23.292556    21.735324    44.192598   -8.9112043    3.5982213    5.7056515    22373.442    1156.9779   -704.19235   -732.39115    22.718472    -413.8331    211.18556    23.292556    23.491145    44.704445    84.976869    85.383319      112.293 
   96500     233.9478   -12711.534   -11507.204   -12711.534            0    956.40379     23.45967    21.613645    43.991216    -9.378413    3.9897403    6.0060808    22305.701     1110.874    265.80226    1492.5351    1046.2086    224.92675    240.00954     23.45967    23.560652    44.578225    84.953075    84.865171    113.45658 
   97000    232.01796   -12684.832   -11490.437   -12684.832            0    986.47936    23.606344     21.49557    43.968474   -9.1059224    3.8175615    5.7721222    22311.002    971.55835    604.33835    1383.5414   -275.41792   -141.92294    84.316769    23.606344     23.34475     44.50975    85.069086    85.079747    112.95842 
   97500    235.68217   -12704.502   -11491.243   -12704.502            0    1400.0268    23.566485      21.5887    43.816535   -9.3305944    4.0875948    5.8007007    22292.529     2458.823    595.61715    1145.6403   -414.50581   -7.1445484    672.65631    23.566485    23.518758    44.387445     85.21457    84.716204    113.37391 
   98000    236.05985   -12744.567   -11529.364   -12744.567            0    880.72604    23.440954    21.764903     43.67041   -9.2618071    3.6482956    6.0242489     22280.21    1542.0592   -410.19552    1510.3145     32.73459   -285.79225    84.808992    23.440954    23.653585    44.234673    84.662644    85.269104    113.05163 
   98500    229.45964   -12714.188   -11532.962   -12714.188            0    1223.1483    23.477765    21.670311    43.723928   -9.1010534    4.0186672    5.8253837    22245.443    1758.3869     608.3132    1302.7448   -614.15178    166.90119    -150.6248    23.477765    23.503862    44.292964    85.059123    84.794439    112.78133 
   99000    236.35378   -12683.709   -11466.993   -12683.709            0    644.05515    23.629033    21.549445    43.877393    -9.431031    3.8305018    6.0263011    22342.041    35.563331    642.84737    1253.7547   -19.126499    189.81807   -300.36404    23.629033    23.522817    44.454636    84.857022    85.056892     113.6364 
   99500    241.55368   -12669.704   -11426.219   -12669.704            0    489.77198    23.561965    21.601384     43.98614    -9.201917    3.8410468    5.8868261    22387.673   -144.19981    531.09104    1082.4247    754.72017    835.28579    591.47888    23.561965    23.479674    44.544235    84.963496    85.053245    113.07339 
  100000    229.07182   -12703.585   -11524.356   -12703.585            0    265.77098    23.519157    21.628624    43.929446   -9.3225178    4.1381529    5.9069493    22346.338    255.98738    376.19933    165.12621   -33.627653   -118.32067    -145.0313    23.519157    23.552212    44.517553    85.120696     84.66634    113.31734 
  100500    232.57937   -12731.908   -11534.622   -12731.908            0    580.60406     23.36572    21.706073     43.95838   -9.0735962    3.4817586    6.1431536    22294.724     1764.673   -442.68625    419.82538   -131.22478    137.43586   -530.77656     23.36572    23.526236    44.521907    84.425275    85.514703    112.68596 
  101000    229.27722   -12691.011   -11510.724   -12691.011            0    1991.5052    23.427445    21.541981    43.851568   -9.2983983    4.2794819    5.5796598    22130.727    2250.8172    1724.9642    1998.7342    491.28169   -574.21249    73.859841    23.427445    23.463102    44.411784    85.574608    84.470447      113.347 
  101500    228.70317   -12694.268   -11516.936   -12694.268            0    716.67727    23.559568    21.566001    43.892358   -9.1979856    3.5061558    6.1385914    22301.078    125.64561    1217.9657    806.42049    26.213649    465.50218     495.2064    23.559568    23.445582    44.458009     84.48724    85.476704    113.09844 
  102000    244.50826   -12681.986   -11423.292   -12681.986            0    1345.9819    23.572696    21.632635    43.817976   -9.2712881    4.1400176    5.8207244    22344.518    1306.5225    839.36631    1892.0567   -743.91583   -252.31376   -205.78478    23.572696    23.535669    44.396347    85.194523    84.649319    113.19895 
  102500    232.11752   -12730.506   -11535.598   -12730.506            0    785.51677    23.449759    21.647705      43.8404   -9.1449724    3.8675183    5.4142473    22254.855    917.20827    96.119222    1343.2228   -200.02717   -240.23343    873.08554    23.449759    23.500078    44.342445    85.495626    84.996343     112.9014 
  103000    223.84467   -12691.025   -11538.704   -12691.025            0    465.14833    23.533309    21.638876    43.871707   -9.3454286    3.6502164    6.2766611     22340.98   -215.64054    1099.8339     511.2516    197.36065   -64.118194   -362.85806    23.533309    23.570702    44.468497    84.431572    85.291553    113.35862 
  103500    234.98293   -12700.543   -11490.884   -12700.543            0    534.52442    23.581808    21.553121    44.029578   -9.2000308    4.2122847    5.4547624    22378.543     113.0004    1088.0829    402.48999   -430.52521   -399.85101    556.01243    23.581808    23.434539    44.565699    85.672052    84.576391    113.11539 
  104000    234.31489    -12702.77    -11496.55    -12702.77            0   -412.83476    23.475247    21.656944    44.110059   -9.3221657    3.4502539    6.0393493    22425.647    297.61529   -1311.1571   -224.96245    29.385821    727.01548    858.15083    23.475247    23.578083     44.65507    84.624861    85.568651    113.28931 
  104500    220.85703   -12675.165   -11538.224   -12675.165            0    1133.6329    23.452294    21.651109    43.884931   -9.1842136     4.128799    6.0287476    22283.372     1214.617    855.82504    1330.4568   -35.308342    471.57856   -180.47717    23.452294     23.51851    44.489099    84.922119    84.675018    112.98624 
  105000    240.76703    -12719.76   -11480.326    -12719.76            0    698.61337    23.444343    21.605343    44.076394   -9.0527229    3.5551649    5.7849582    22325.711    391.09599    1059.3238    645.42031    -773.2998    474.23728   -163.78275    23.444343    23.425256    44.596339    84.903528      85.4276    112.73387 
  105500    239.19902   -12648.316   -11416.953   -12648.316            0    1631.0707    23.505015    21.583136    43.950653   -9.4353578    4.0349001    6.0228844    22296.691    2251.0954    1647.0241    995.09243   -337.42586    239.18423   -493.09107    23.505015    23.555419    44.544533    84.974098    84.802952    113.61319 
  106000    235.39468   -12709.833   -11498.055   -12709.833            0    1809.5523    23.466477    21.525214    43.963573   -9.0409284    3.9387789    5.7376725    22206.921    1631.9742    2563.8766     1232.806   -578.65134    151.85942    308.11375    23.466477    23.346803    44.511017    85.148142    84.923257    112.78317 
  106500    238.73476   -12708.869   -11479.896   -12708.869            0    1507.5879    23.401366    21.575893    44.059053   -9.4530657    3.5661784    6.1470138    22245.653    2135.7588    1085.2774    1301.7276    655.21215    638.60945    319.99664    23.401366    23.555883    44.628506    84.600913    85.416718    113.65971 
  107000    233.69581    -12688.63   -11485.597    -12688.63            0    1776.8731    23.464577    21.650987    43.814976   -9.0885456    4.0822248    5.7319052    22259.377    2141.3162    807.97654    2381.3267   -18.615006   -82.397912    959.84758    23.464577    23.481203    44.376474    85.210676    84.721857    112.77145 
  107500    242.24453   -12704.283   -11457.243   -12704.283            0    1319.3213    23.595181    21.579305    43.766883   -9.2833417    3.6750881    5.8555368    22284.679    1240.8483    1534.4621    1182.6536    618.31291    201.67886    3.4257881    23.595181    23.491421    44.309521    84.915926     85.24235    113.27721 
  108000    237.52397   -12702.293   -11479.553   -12702.293            0    1193.4034    23.682267    21.709093    43.219466   -9.3776756    4.2241074    5.8676651    22220.015   -292.36537    1698.4298    2174.1459    313.55826    9.2167971   -453.59052    23.682267     23.64795    43.820028    85.141299    84.468284    113.36289 
  108500     234.9959   -12693.164   -11483.438   -12693.164            0    748.93321    23.532782    21.655455    43.819488   -9.2264469    3.6010141    5.8745254    22330.985    505.49482    411.04437    1330.2604   -676.11711    526.08625    43.165324    23.532782    23.539032    44.357918    84.835394    85.343555    113.07674 
  109000    230.17675   -12729.557    -11544.64   -12729.557            0   -142.46069    23.518882    21.729918    43.825782   -9.3626047    4.2234246    6.0942905    22397.752   -260.28331   -479.12503    312.02627   -235.51319    343.34765   -232.68176    23.518882    23.661101    44.448587    84.933045    84.547633    113.30939 
  109500    229.26697   -12720.937   -11540.702   -12720.937            0    110.89092    23.496366    21.546559    44.182637   -9.1438696    3.5244336     5.616445    22368.159   -300.65122    645.78703   -12.463049    -531.9037    369.40427    717.04372    23.496366    23.406507    44.677416    85.129473     85.47545    112.99526 
  110000    231.68726   -12687.216   -11494.522   -12687.216            0     995.8445    23.489867    21.578601     44.04437   -9.3176404    4.0458832    6.1212262    22325.143    905.40519    805.66095    1276.4674     355.8103    178.14745   -99.587901    23.489867    23.504349    44.651373    84.839995     84.80127    113.35469 
  110500    236.99698   -12748.148   -11528.121   -12748.148            0     1028.857    23.291682    21.562621    44.197451   -9.0060772    3.7527613    5.7053406    22197.273    2034.9327    1102.6519   -51.013593    -53.98626   -247.95576    -208.7108    23.291682    23.367842    44.721906     85.10225    85.186463    112.66887 
  111000    230.01253    -12698.92   -11514.848    -12698.92            0    1643.0834    23.416881    21.594818    43.979374   -9.3019644     3.920648    5.9653729    22239.635    2002.0355    1749.1028    1178.1119    920.23746   -635.43454   -124.10811    23.416881    23.513033    44.554938    84.942618    84.951682    113.30395 
  111500    230.57227   -12658.639   -11471.686   -12658.639            0    572.74431    23.593839    21.600771    43.903874   -9.2316234    4.0765105    6.0958168    22375.394   -150.54458    1314.0756    554.70195     262.0803    22.686473    -242.2842    23.593839    23.490768      44.5121    84.839946    84.745371    113.14064 
  112000    233.51667   -12720.286   -11518.176   -12720.286            0     358.2118    23.568635    21.657041    43.690239   -9.2386121    3.2585813    5.3684547    22300.673    91.661527   -210.91174    1193.8856   -175.42831    319.93288    627.52509    23.568635    23.545262    44.139275    85.244472    85.766288    113.10246 
  112500    236.58132    -12719.82   -11501.933    -12719.82            0    492.55417      23.4947    21.687205    43.772442   -9.2765921    3.9246142     5.941704    22303.563     302.7616   -36.187542    1211.0884    -94.91498     149.0634    409.81222      23.4947    23.587921    44.347865    84.929589    84.922904    113.15857 
  113000    232.18633   -12678.879   -11483.616   -12678.879            0    331.66609    23.534667    21.624014    43.988584   -9.0602357    3.7751131    6.0185541    22386.405   -360.26033    926.90328    428.35532   -1187.9775     791.7383   -601.25316    23.534667     23.44538    44.558613    84.730683    85.139938    112.73317 
  113500    228.76455   -12673.125   -11495.477   -12673.125            0     634.5256    23.549922    21.520172    44.091157   -9.5163289    3.9829505    5.6501012    22345.326    146.03505    1108.5052    649.03657    500.92142    388.97257    624.78276    23.549922     23.53037    44.629784    85.429187    84.879871    113.85526 
  114000    237.80376   -12685.014   -11460.834   -12685.014            0    454.38488    23.423742    21.667443    43.953125   -9.0638464    3.8086092    5.9876793    22307.644    297.00714    489.67834    576.46916   -764.21638   -92.751038    374.40981    23.423742    23.486835    44.522298     84.77559      85.0927    112.70036 
  114500    234.64246   -12692.266    -11484.36   -12692.266            0    1388.6895    23.422932    21.640043    43.815049   -9.4448834    4.3504469    5.8096249    22208.677    478.80239    1902.8293    1784.4367     701.0013    122.87474    610.61976    23.422932     23.61138    44.412122    85.370841    84.378503    113.57906 
  115000     235.4734   -12646.823   -11434.639   -12646.823            0     1360.014    23.537218    21.580038    43.801259   -9.1380575     3.455297    5.8618845    22248.151    1062.7111    1690.7351    1326.5959   -635.70979    229.20947   -123.25986    23.537218    23.435062     44.32664    84.757016    85.529213    112.95021 
  115500    236.25094   -12709.353   -11493.167   -12709.353            0    1289.3746    23.614585    21.577214    43.648517   -9.3490511    4.4268311    5.8977758    22240.532    139.07186    1910.2412    1818.8106    170.19744   -849.11497   -413.53762    23.614585    23.515546    44.267072    85.268198    84.260668    113.42629 
  116000    231.93951   -12744.634   -11550.642   -12744.634            0    978.75045     23.45202     21.65402    43.787758   -9.2218695    3.2592929    5.8884377    22236.759    1056.3013    520.83645    1359.1136     182.3828    500.84691   -92.282228     23.45202    23.535919    44.301969      84.6372    85.780941    113.06786 
  116500    232.27567   -12666.214   -11470.491   -12666.214            0    1039.1559    23.511135    21.691801    43.771491   -9.2539164    4.2414185    5.7516212     22323.41      863.873    276.03067    1977.5641   -412.82412   -293.02174    1042.4157    23.511135     23.58324    44.351034    85.310419    84.512251    113.10353 
  117000    233.31431   -12685.718   -11484.649   -12685.718            0    1467.6941    23.507371    21.570351    43.912845   -9.2562517    3.8150016    6.0001881    22266.546    1842.4796    925.62531    1634.9773    771.16599   -232.38548   -1219.6881    23.507371      23.4725    44.484767    84.828769    85.080286     113.2251 
  117500    231.18014   -12725.383     -11535.3   -12725.383            0    1668.6413    23.405735    21.563519    44.074335   -9.1813739    3.8848999    5.9097977    22244.758    1684.2538    2081.2885    1240.3815    -174.0647    187.29952   -386.76506    23.405735    23.436787    44.638158     84.96772    85.007179    113.06347 
  118000    229.67969   -12720.376   -11538.017   -12720.376            0     1263.139    23.405414    21.565123    44.151782   -9.1967435    4.2379531    5.8665414    22285.199    1911.9111    1334.6703    542.83571   -515.04189   -461.16706   -362.18553    23.405414    23.444288    44.740992    85.212832    84.564685    113.09649 
  118500    228.63695   -12687.182   -11510.192   -12687.182            0    1794.2338    23.400971    21.534173    44.189333   -9.1817052    3.5148121    5.9889342    22267.913    2564.3478    1229.0161    1589.3373   -859.02835    364.26491   -646.34543    23.400971    23.409919    44.731627    84.701778    85.493307    113.09235 
  119000    236.50314   -12687.524   -11470.039   -12687.524            0    1455.6865    23.510717    21.617153      43.8829   -9.2674292    4.1553985     5.848306    22302.816     944.0866    968.82101    2454.1518   -63.177807    298.25571      7.55997    23.510717    23.519918     44.46548    85.177924    84.637757    113.20516 
  119500    242.73579   -12720.902   -11471.332   -12720.902            0    1711.6846    23.392929     21.61289    43.819436   -9.1479361    3.3684265    5.8542459    22154.617    2053.5997    1256.2066    1825.2474    504.26798   -53.154516   -99.909743    23.392929    23.469166    44.336909    84.722297    85.642845    112.94114 
  120000    232.23762   -12668.636   -11473.109   -12668.636            0    748.89172    23.582642    21.646776    43.770889   -9.2871824    4.1994235    5.9573821    22344.521    419.08403    892.29993     935.2912    240.07829   -303.36187   -283.67274    23.582642    23.554929    44.373598    85.062692    84.569522    113.22093 
  120500    234.91317   -12655.451   -11446.151   -12655.451            0    253.28856    23.554571    21.636877    43.952834   -9.2697519    3.6810952    5.8000892    22400.445     -366.598    445.35028    681.11339    -183.6808     607.1557     20.26338    23.554571    23.538962    44.486437    84.994147     85.25355    113.19144 
  121000    227.57089   -12645.607   -11474.104   -12645.607            0    188.85361    23.637149    21.637158    43.866903   -9.2255472    3.9869587    6.0921946     22435.32   -592.67212     127.7519     1031.481   -727.41658   -552.20475    238.37148    23.637149    23.521848    44.467019     84.78685    84.855893     113.0922 
  121500    226.30505   -12699.866   -11534.879   -12699.866            0    47.527189    23.550363    21.688457     43.79953    -9.290963    4.0709484    5.7895028    22371.531    11.674853    152.85289   -21.946174    80.465538   -22.045866    108.27925    23.550363    23.594727    44.367666    85.192048     84.73543    113.18946 
  122000    237.78885   -12697.458   -11473.355   -12697.458            0    1010.6958    23.513033    21.642019    43.878199   -9.2195251     3.331701    5.8371285    22328.278    889.58335    1094.5518    1047.9523    111.92523    1417.3002    622.81182    23.513033    23.523959    44.389962    84.746582    85.695601    113.07406 
  122500    235.70609   -12681.465   -11468.084   -12681.465            0    656.97842    23.571063     21.64145    43.817257   -9.2345682    4.6349594    6.0891853    22351.708    717.12162    428.75145    825.06219   -268.32847   -679.12862   -25.991545    23.571063    23.529335     44.48048    85.123081    84.018802     113.1083 
  123000    224.47937   -12726.361   -11570.773   -12726.361            0      870.346    23.460003    21.631969    43.899707   -9.1929831    3.6307646    5.8917962    22278.489    1103.6578   -363.88626    1871.2664   -600.83475    201.51587    301.43675    23.460003    23.504319    44.441872    84.832991    85.313888    113.02414 
  123500    230.05028   -12701.179   -11516.912   -12701.179            0    965.34505     23.47107    21.649093    43.960932   -9.4009485    4.1866458    5.9161455    22337.753    955.00764    226.60981    1714.4177    502.27256   -745.51575    220.66507     23.47107    23.602141    44.554374    85.160253    84.608126    113.47252 
  124000    240.40964   -12725.763   -11488.168   -12725.763            0    430.77371    23.486574    21.531465    44.172484   -9.0275658    3.7034403    5.8772689     22338.04    971.30089    1016.0801   -695.05988   -767.92235    513.05257    238.10344    23.486574    23.347396     44.71539    84.882997    85.249178      112.747 
  124500    238.77432   -12704.638   -11475.461   -12704.638            0    857.96128     23.48488    21.589927    44.010606   -9.4596186    3.8825879     6.051375    22314.998    848.63664    1204.9934    520.25375    822.78376    651.76235     315.2543     23.48488    23.571367    44.594025    84.873709    85.005207    113.66061 
  125000    241.31648    -12654.86   -11412.597    -12654.86            0    1844.6735    23.412463    21.590605    44.000647   -8.9972188    3.9106167    5.6420735    22241.854    3034.2535    1278.4239    1221.3431   -236.90596    13.675998    363.46611    23.412463    23.390258    44.532941    85.229301    84.962138    112.62243 
  125500    226.53015    -12676.43   -11510.285    -12676.43            0    1453.5186    23.527391    21.568259    43.841819   -9.3247495     3.999303    5.9642285    22247.306    1961.4186    1593.2235    805.91371    453.55803   -41.335817    448.58277    23.527391    23.497675    44.426023    84.980004    84.835149     113.3806 
  126000    243.16465   -12738.526   -11486.748   -12738.526            0    2388.9985    23.441051    21.503119    43.859608   -9.2772076    3.5735603    5.9322153    22107.685    2400.5608    2787.9914    1978.4435    453.72077    156.12276    197.78605    23.441051    23.419024    44.403004    84.791042    85.383835    113.33708 
  126500    231.56588   -12694.512   -11502.444   -12694.512            0    927.96678    23.436496    21.633146    43.833485   -9.0780784    4.1620773    5.8501028    22223.802    970.30232    1088.0628    725.53523   -102.90488   -926.16327   -171.81738    23.436496    23.460701    44.417576    85.113119    84.623303    112.76475 
  127000    240.52879   -12719.173   -11480.965   -12719.173            0    1372.8253    23.418762    21.676678    43.759808   -9.4066978    3.6686082    6.1058227    22214.271    1064.1038    1175.2072    1879.1648   -63.922717    102.75257   -392.34569    23.418762    23.629734    44.335771    84.641056    85.253576    113.45866 
  127500    241.27117   -12714.052   -11472.022   -12714.052            0    782.06091    23.526518    21.551131    43.860228   -9.0436999    3.9346715    5.5034784    22238.148    628.82422    578.54679    1138.8117   -32.805318     434.2867    771.90622    23.526518    23.371773    44.378931    85.408937    84.913432    112.76483 
  128000    226.99585   -12678.207   -11509.664   -12678.207            0    1062.9163    23.592701    21.573697    43.836548    -9.340222    4.0518034    6.0019535    22312.005    1045.8724    1149.5232    993.35314    16.873704   -77.561999   -132.66052    23.592701     23.50881     44.43066     84.96672    84.767707    113.40995 
  128500     230.6224   -12692.772    -11505.56   -12692.772            0    854.55528     23.50112    21.638989    43.812427   -9.2857011    3.3093808    5.6431222    22280.392     889.1738     760.2327    914.25933   -433.72833    77.529589    -51.64504     23.50112    23.547189    44.298144    84.974103    85.715613    113.22509 
  129000    236.04949   -12676.823   -11461.674   -12676.823            0    377.06471    23.547437    21.690231    43.799616   -9.1818806    4.3135985    5.9050161    22370.626    509.63984    493.90663    127.64767    -704.9193   -499.62647   -181.98646    23.547437    23.553621    44.405886    85.147557    84.425483    112.94385 
  129500    228.91604   -12667.248    -11488.82   -12667.248            0    607.64068    23.560355    21.574274    43.977404    -9.347786    3.4791765    6.0236728    22353.607    186.09716    1426.3918    210.43311    728.91844    386.29718   -309.48159    23.560355    23.512345    44.524166    84.659654    85.518264    113.42631 
  130000    238.68068   -12720.951   -11492.256   -12720.951            0    838.03256    23.489926    21.555285    44.067563   -9.1444174    4.3544594    5.5811304    22312.819    1229.6234     1024.162    260.31229     274.2141   -513.62479    351.66693    23.489926    23.414754    44.632504    85.583067    84.401173    112.98816 
  130500    239.94177   -12696.236    -11461.05   -12696.236            0    1211.2528    23.388505    21.608802    44.056776   -9.2347622    3.7501371    6.0866902    22266.188    1968.6002    957.22357    707.93476    1777.2949   -475.11723   -507.13261    23.388505    23.499386    44.633069    84.699364    85.180241    113.13998 
  131000    238.01927   -12767.321   -11542.031   -12767.321            0    1612.7535    23.344329    21.532023    44.181548   -9.1817834    3.9353199    5.9682048    22207.883    2173.8511    1294.9283     1369.481    483.86399    236.86806    188.70284    23.344329    23.407972    44.756177    84.941506    84.955584    113.09459 
  131500    231.71685   -12725.199   -11532.353   -12725.199            0    932.28599    23.470999    21.527717    44.118625   -9.1699485    4.0192341    5.8922917    22292.128    1085.8227    1354.4619    356.57333   -170.90633   -153.76743     86.05939    23.470999    23.399371    44.691458    85.063348    84.840251    113.07207 
  132000    229.55618   -12713.222   -11531.499   -12713.222            0    479.02373    23.558869    21.638527    43.868436   -9.3246683    3.8880305    6.0654106    22363.217   -111.30067    1134.1138    414.25801    66.899565    88.409434    189.37437    23.558869    23.562158    44.456109    84.796926    84.982631    113.31261 
  132500    236.60209   -12654.114    -11436.12   -12654.114            0   -205.55078    23.651521    21.687525    43.768555   -9.2581736    3.8305797    5.6350176    22450.771   -157.66849   -534.03086    75.047004     830.5799    -82.25642    442.92307    23.651521    23.580978    44.295747    85.236285    85.039015    113.11712 
  133000    233.76071   -12717.465   -11514.098   -12717.465            0    201.08515    23.620646    21.663302    43.706787    -9.348028    3.7939611    6.0016755    22364.815   -153.54778   -467.95793    1224.7612    444.68321    -88.06715   -44.986274    23.620646    23.594158    44.279764    84.807586    85.084779     113.3409 
  133500    225.27035   -12705.485   -11545.825   -12705.485            0   -630.32938    23.537915    21.763398    43.826468   -9.1796081    3.9676607      5.83452    22450.766   -563.52572   -1150.8893   -176.57315   -27.451411    118.71307   -399.17299    23.537915    23.620134    44.390801    85.045353    84.872046    112.86958 
  134000    232.49981   -12719.373   -11522.496   -12719.373            0   -72.427706    23.536133    21.617222    44.000471   -9.3468901    3.7740973    5.8159301    22386.816   -375.35153    562.96816   -404.89975    5.4069577    194.32264   -175.50494    23.536133    23.551404    44.543353    85.053907     85.13958    113.38277 
  134500      236.799   -12665.823   -11446.815   -12665.823            0    404.82128    23.588626    21.626913      43.8994   -9.2438511    3.8017955    6.1545768    22395.242   -105.74683    535.22128    784.98938    49.500802    503.96873   -202.82354    23.588626    23.519612    44.491457    84.628363    85.098097      113.143 
  135000    228.35508   -12714.611   -11539.072   -12714.611            0    417.54752    23.528199    21.579632    44.065927   -9.2987011    3.9327779    5.6393074    22373.588   -452.42155    1379.8335    325.23065   -271.64599    530.62143   -129.56043    23.528199    23.497795    44.599041    85.340889    84.941043    113.31129 
  135500    233.70015   -12745.028   -11541.972   -12745.028            0    876.36681    23.392517    21.642802    43.988749   -9.2445793     3.686006     5.991376    22270.606    1603.1014    183.49938    842.49968   -411.75242    529.58807   -721.07121    23.392517    23.534509    44.547651    84.768459    85.253749    113.12943 
  136000    234.01213   -12706.338   -11501.676   -12706.338            0    719.53529    23.393234    21.692784     43.97877   -9.1462073     4.164712    6.1120797    22317.658    875.94567    515.70664    766.95357   -461.93013    34.582723   -94.277114    23.393234    23.542089    44.596351    84.836037    84.641521    112.86148 
  136500    232.86744   -12679.861   -11481.093   -12679.861            0    1153.0152    23.497277    21.486243    44.164578   -9.2430306    3.7535932    5.6688544    22297.291    1504.2851    1839.3043     115.4562   -59.461847    290.06953   -187.88687    23.497277    23.390003    44.684845    85.219281    85.181391    113.27659 
  137000    237.63861   -12705.949   -11482.619   -12705.949            0    1784.6401    23.545162    21.550562    43.895558   -9.2821928    3.9212912    6.0366456     22273.11    1246.8403    2135.2511    1971.8289   -396.78197    71.647086   -256.10578    23.545162    23.464565     44.48188    84.849753    84.942537    113.30237 
  137500    239.82166   -12694.923   -11460.355   -12694.923            0    1059.3913    23.468098    21.617102     43.86938   -9.0409435    4.1995578    5.7340831    22255.476    1763.7276    554.20944    860.23693   -693.98619   -494.42642    897.26407    23.468098    23.431555    44.441406    85.263498    84.577658     112.6962 
  138000    232.55821   -12686.292   -11489.115   -12686.292            0    1067.5323    23.420591    21.668462    43.832128   -9.3617858    3.5330082    5.9093527    22244.288    1065.7197    1357.7657    779.11152    450.38024    672.93496   -678.73629    23.420591    23.604349    44.369562    84.797226    85.432883     113.3666 
  138500    235.03983   -12706.221   -11496.269   -12706.221            0    1140.8749    23.571433    21.629825    43.766475    -9.082344    4.1632884    6.0073429     22314.16    1056.1632    885.61265    1480.8489   -350.64893    -80.28465   -174.87083    23.571433     23.45929    44.372575    84.922606    84.616264    112.77749 
  139000    227.14532   -12758.027   -11588.715   -12758.027            0    799.60028    23.596997    21.510532    43.867908   -9.4495007    3.7320057    5.6465737    22266.647    790.49178    794.23139    814.07766    829.09278    995.70369    426.44568    23.596997    23.494596    44.386992    85.258914    85.176945    113.71571 
  139500    238.06627   -12718.513   -11492.982   -12718.513            0    506.27564    23.557673    21.665874    43.737461   -9.2692267    3.7781126    6.0412753    22323.494    725.14013   -314.46851    1108.1553   -49.549855    82.324175    646.02236    23.557673    23.565412    44.314068    84.732584     85.10916     113.1625 
  140000    237.02911    -12719.13   -11498.938    -12719.13            0    885.40219    23.443417    21.712394    43.667128   -9.0440445    4.4048256    5.6807401    22227.123    1249.9422    291.58133     1114.683    -1407.661   -644.94465    27.293949    23.443417    23.520688    44.254846    85.398586     84.28771     112.6136 
  140500    236.86338    -12667.02   -11447.681    -12667.02            0    1669.3538    23.505558    21.586776    43.887511   -9.4364438    3.3040196     6.029856    22268.927    638.16572    2843.7644    1526.1313    115.64901    1007.1388   -221.44147    23.505558    23.559188    44.422847    84.572704    85.734597    113.61206 
  141000    232.19977   -12703.446   -11508.114   -12703.446            0    1228.9019    23.553039    21.514741    44.010975   -9.1530701     4.254765     5.855937    22302.012    1479.3745    1783.1647    424.16654   -1648.6295   -447.92876    -407.3093    23.553039     23.38082    44.602253    85.211996    84.526031    113.04648 
  141500    230.24972   -12685.756   -11500.463   -12685.756            0    626.05045    23.440485    21.608908    44.117869   -9.2738466    3.8252185    5.9386509    22346.728    918.47502     411.4019    548.27443    235.83887   -25.895037    605.33081    23.440485    23.514871    44.679819     84.92971    85.088666    113.22745 
  142000    233.61912   -12700.335   -11497.697   -12700.335            0    1223.4168    23.429077     21.71024    43.788434   -9.2043402    3.7761102    5.8443328    22273.026     811.0875    437.02075    2422.1422    197.47887    951.53361    985.07623    23.429077    23.580806    44.337819    84.944874    85.114383    112.97515 
  142500    240.71437   -12711.169   -11472.006   -12711.169            0    601.85006    23.596277     21.69266    43.679641   -9.2054181    4.1247962    5.9796708    22358.124    20.593472    698.77041    1086.1863    294.15982    -130.6916   -496.05899    23.596277    23.565043    44.279582    84.955803    84.654951    112.99425 
  143000      230.362     -12712.5   -11526.629     -12712.5            0    396.88661    23.698332     21.47289    43.837188   -9.4666822    3.4098493    5.8095049    22307.503   -329.38781    877.58381    642.46384    781.58643   -130.74562   -75.021465    23.698332    23.467063    44.351736    84.903025    85.590636    113.79109 
  143500    241.62453   -12721.959    -11478.11   -12721.959            0    557.79445    23.562415    21.640206    43.731594    -9.187101    4.1242121    5.8395752    22298.544    127.16871    57.582291    1488.6324    209.22258   -465.22892    383.62029    23.562415    23.509601    44.312099    85.127813    84.659643    113.00309 
  144000    234.03725   -12710.944   -11506.153   -12710.944            0    445.04825    23.399558    21.749128    43.851835   -9.3162121    3.5385898    6.1162115    22317.076    446.20186    364.66345    524.27944   -159.92789    912.39293   -491.18326    23.399558    23.660439    44.417487    84.536797    85.430598    113.18781 
  144500    241.88006   -12717.143   -11471.979   -12717.143            0    803.89731    23.437721     21.63509     44.05737   -9.1504531    3.9870755    5.8499155    22340.488    551.86802    1244.7997    615.02424     397.4049   -227.91165     61.05463    23.437721    23.490592    44.622529    85.070097    84.873718    112.92569 
  145000    236.38964   -12714.977   -11498.077   -12714.977            0    514.63755    23.518283    21.487024    44.206192   -9.1899386    4.0403765    6.0114067    22339.065   -399.88023    1321.8664     621.9265    803.73803   -324.75957    -348.7738    23.518283    23.369792    44.795637    84.956258    84.825131    113.15626 
  145500    232.32965   -12721.413   -11525.413   -12721.413            0    137.15007    23.475662    21.518019    44.319064   -9.3699037    3.7407282    5.9016091    22387.764    174.37059    445.50746   -208.42785    116.26071    29.807776   -30.061463    23.475662     23.46956    44.866485    84.990935    85.217432    113.53045 
  146000    228.27316   -12687.407   -11512.289   -12687.407            0    1156.6264    23.432171    21.664143    43.946865   -9.0802718    4.0832174    5.8684555    22309.094    865.07415    1411.8977    1192.9073    319.29176   -5.2750404    74.902371    23.432171    23.490134    44.524582    85.060314    84.738181    112.74042 
  146500    236.41392   -12700.542   -11483.517   -12700.542            0    744.96391    23.462936    21.661748    43.818497   -9.3672714    3.7177666    6.0159359    22270.673    780.16945    572.30983    882.41244     428.3413    950.13579   -227.83415    23.462936    23.600362    44.385515    84.769712     85.19523    113.38529 
  147000    234.05505    -12701.55   -11496.667    -12701.55            0    1143.2794    23.623882    21.596789    43.654129   -9.1223407    3.9269746    5.5851032    22272.337     16.27809    951.53782    2462.0222    8.1077353    274.56328    834.87445    23.623882    23.444368    44.184811    85.304538    84.901045    112.89887 
  147500    235.88104   -12687.398   -11473.116   -12687.398            0    888.18072    23.574956    21.646658    43.642294   -9.3240336    3.8889635    6.0908061    22271.493    819.99575    272.80567    1571.7408    467.20092    69.757484    400.04559    23.574956    23.569375    44.236543     84.73992     84.95645    113.30337 
  148000    235.76403   -12702.361   -11488.681   -12702.361            0    673.99156    23.515022    21.616247    43.844337    -9.220319    3.6780592    5.9188647    22286.363    828.77959    632.16365    561.03144    225.85802   -614.17333     205.0019    23.515022    23.500562    44.394673    84.829016    85.247648    113.10047 
  148500     236.5628   -12691.128   -11473.336   -12691.128            0    768.29753    23.462145    21.674311    43.988452   -9.1787655    4.5943924    5.9359415    22369.264    1416.3068    957.53934   -68.953561   -433.64813   -397.96441   -10.339465    23.462145    23.537746    44.624295      85.2769    84.090515    112.95197 
  149000     239.8318    -12673.16    -11438.54    -12673.16            0    1243.1889    23.402215    21.581715    44.204485   -9.1948247    3.6202241    5.8938039    22325.914     1687.143    1143.3224    899.10126    -644.9637   -90.440061    361.60338    23.402215    23.458798    44.742367    84.866709    85.358972    113.07628 
  149500    241.42821    -12738.23   -11495.391    -12738.23            0    1136.6762    23.474355    21.527416    44.076924    -9.284479    4.0450274    5.7436641     22273.93    1771.0811    292.56645    1346.3811   -376.87345   -460.92883    338.68436    23.474355    23.444214    44.633252    85.280742    84.800257    113.32987 
  150000    233.97909    -12724.98   -11520.489    -12724.98            0    1076.2886    23.511237     21.63548     43.79525   -9.0324744    3.9804509     6.321723    22277.633    586.02176    945.74241    1697.1018   -621.28651   -258.50237   -413.92014    23.511237    23.445247     44.42783    84.445554     84.85977    112.65977 
  150500    235.81637    -12677.63   -11463.681    -12677.63            0    1150.5207     23.51985    21.610988    43.802461   -9.4079808    3.7707982    5.5601705     22264.23    1474.0363    567.77462    1409.7511    358.64622    342.32415    369.04813     23.51985        23.57     44.31467    85.349497    85.118718    113.52509 
  151000    235.34023   -12731.322   -11519.824   -12731.322            0    821.39651    23.564476    21.610113    43.759837   -9.1329948    4.0984875    5.8892563    22283.865    946.53647    842.67439    674.97868    -1028.878    -208.3308   -147.23441    23.564476    23.460788    44.344157    85.046235    84.696896    112.91018 
  151500    231.10977   -12686.478   -11496.757   -12686.478            0    452.93356    23.489494    21.704394    43.879844   -9.3717236    3.6026351    6.1740766    22371.052    1393.8951    8.0901182   -43.184584   -717.76664   -153.90276   -144.18351    23.489494    23.641276    44.458283     84.52722    85.351994    113.35417 
  152000     222.4084   -12683.501   -11538.574   -12683.501            0    1159.0458    23.525968    21.566945    43.926175   -9.2295681    4.1682595    5.4467972    22287.406    1093.6504      997.962    1385.5251     329.0814   -768.61546    619.88621    23.525968    23.458858    44.458417    85.655873    84.620255    113.16849 
  152500    230.70196   -12706.986   -11519.365   -12706.986            0    1020.4677    23.503882     21.53007    44.137512    -9.251628    3.5478944    6.2711461    22335.357    323.74439    2145.6961    591.96259    686.14666    300.48778    -467.3272    23.503882    23.433663    44.721749     84.40395    85.449793    113.25355 
  153000    227.91625   -12695.619   -11522.338   -12695.619            0    824.09641    23.462295    21.601383    44.053984   -9.2238671    4.2930062    5.8679563    22327.353    1293.7928    1606.4858   -427.98933   -1053.6461    336.44265   -957.01739    23.462295    23.488284    44.649931    85.232856    84.482596    113.12265 
  153500    237.02965   -12742.629   -11522.434   -12742.629            0    742.85936     23.43126    21.603594    44.016455    -9.172585    3.4759753    5.8137084    22281.104    1049.7354    1020.5346     158.3081    540.36894    6.1207542    505.95112     23.43126    23.470228    44.534592    84.856098    85.523446     113.0054 
  154000    230.58196    -12674.48   -11487.477    -12674.48            0    1122.4458    23.563667    21.633437    43.752204   -9.4159265    4.2790327    6.2712745    22303.259    1042.1924     1241.247    1083.8979    411.64912    8.4451497   -158.00824    23.563667    23.593755    44.406017    84.776827    84.470309    113.52102 
  154500    224.32086    -12710.88   -11556.108    -12710.88            0    1579.5398    23.514556    21.562136    43.840005   -9.0770237    3.8603264     5.686603    22227.937    1479.7722    1555.8242    1703.0231   -132.73332      383.382    632.79634    23.514556     23.39483    44.375507    85.160994    85.009402    112.82966 
  155000    240.26183   -12701.288   -11464.454   -12701.288            0     1450.644    23.477162    21.578425    43.966335   -9.5571339    3.8010831    6.1462431    22273.353      1812.51    1641.1938    898.22824     650.7601    33.855767   -51.299476    23.477162    23.600153    44.556292    84.745535    85.106167    113.88866 
  155500     242.0392   -12732.899   -11486.915   -12732.899            0    1359.2409    23.439971    21.595357    44.031932   -8.8919304    4.0191215    5.7714143    22288.724    1416.1103    1728.8573    932.75531   -86.124762    78.706735   -12.518253    23.439971    23.354354    44.590062    85.102916    84.828631    112.37951 
  156000    231.48264   -12767.272   -11575.632   -12767.272            0    2845.6952    23.414145    21.566203    43.814943   -9.2723504    3.9612763    6.0112088     22124.54    2532.4748    3067.7554    2936.8555   -147.26719   -98.314167   -258.31537    23.414145    23.475042    44.402427    84.886218    84.881664     113.2652 
  156500    232.40312   -12720.658    -11524.28   -12720.658            0    2268.1458    23.490601    21.542346    43.747943   -9.3727595    3.6248732    5.7692803    22138.325    2900.7346     1465.946    2437.7567    257.05545     64.62413    122.95359    23.490601    23.493005    44.275352      85.0192    85.303873    113.51315 
  157000    229.06178   -12695.455   -11516.277   -12695.455            0    1290.1918    23.499159    21.632085    43.819676   -8.9424109    4.3289049     5.867649    22275.111    1745.8822    550.24524    1574.4478   -1277.8096   -709.29981     -34.7134    23.499159    23.407559     44.42221    85.133138    84.407702    112.45954 
  157500    233.13709   -12721.114   -11520.957   -12721.114            0    708.84187    23.481589    21.550025    44.032356   -9.4430719    3.5562311     5.892518    22281.642    349.10226    977.31977    800.10359    716.77902    415.00816    -212.6807    23.481589    23.528179    44.566994    84.889612    85.423207     113.6627 
  158000    234.28406   -12735.674   -11529.613   -12735.674            0    793.78701    23.476698    21.639807    43.863523   -9.1359445     3.925307    5.6987459    22284.039    1264.2451     555.7463    561.36958   -434.07269   -37.033581    459.65424    23.476698    23.489289    44.405995    85.190247     84.92867    112.88861 
  158500    234.92045   -12710.425   -11501.087   -12710.425            0   -39.953385    23.583906    21.758157    43.657396   -9.3416461    3.9367222    6.6149285    22402.458   -1213.5149   -152.77413    1246.4288    521.11959    560.77452   -580.50791    23.583906    23.678762    44.330839    84.141048    84.905238    113.23578 
  159000    243.99423   -12716.331   -11460.283   -12716.331            0    449.98738    23.523724    21.552172    44.053714   -9.2626138    3.7004315    5.7096144    22334.676    -253.9547    1323.9981    279.91877    245.50449     378.5178    348.87932    23.523724    23.458307    44.576031    85.129679    85.238172    113.25689 
  159500    233.29426   -12699.984   -11499.018   -12699.984            0    748.14614    23.512407    21.571274    44.063547   -9.2560795    4.2626328    5.8932876    22348.705    1159.4982    186.42427    898.51598    350.57162   -227.09766    59.585267    23.512407     23.47328    44.659793    85.202743    84.522965    113.22383 
  160000    233.29001   -12710.973   -11510.029   -12710.973            0    1536.6793    23.397675    21.609387    43.920928   -9.2044898    3.4209995    6.1987368    22206.835    1451.2408     1381.696    1777.1012    32.110092    1209.7083   -552.99052    23.397675    23.488045    44.487926    84.372748    85.589758    113.07152 
  160500    244.92525   -12678.476   -11417.636   -12678.476            0    1798.7867    23.466122     21.57207    43.838166   -9.3143123    4.0695692    5.6817328    22191.442    1410.9144    2519.1286    1466.3172    629.16905    256.77426    194.36958    23.466122    23.497034     44.39176    85.344448    84.740083    113.35355 
  161000    230.49843   -12742.765   -11556.192   -12742.765            0    1997.6571    23.480979    21.594966    43.653015    -9.245944    3.6352621    6.1829878    22135.176    1972.6153    1870.9472    2149.4088   -654.25035    617.14622    291.41286    23.480979    23.491063    44.238334     84.48302    85.286434    113.17832 
  161500    238.61266   -12667.183   -11438.839   -12667.183            0    1602.0998     23.55869     21.61442      43.5277   -9.2060128    4.1622499    5.7323093    22164.627    1699.0974     1356.778     1750.424    28.755808   -892.95661   -387.49143     23.55869    23.493272     44.10039    85.261745    84.584292    113.07012 
  162000    229.37304   -12708.623   -11527.843   -12708.623            0    1356.0082    23.492505     21.59539    43.814446   -9.2943522    3.6862934    5.8009364    22228.374    409.18482    1412.7354    2246.1045    586.91407    170.77083    359.04276    23.492505    23.510548    44.350257    84.992576    85.232203    113.28636 
  162500    230.15357   -12697.589   -11512.791   -12697.589            0    269.19962    23.478667    21.652521    44.005145   -9.1225486    4.0250619    5.9358154    22370.998    1113.7546    386.41866   -692.57442   -455.29251   -792.62561   -522.30256    23.478667    23.495799    44.585736     84.97232    84.820463    112.84646 
  163000    223.90771   -12691.426   -11538.781   -12691.426            0   -208.39887    23.491437    21.659329    44.122492   -9.2326772    4.0043369    6.1014965     22449.91    679.19812   -577.52282   -726.87193   -90.170425   -547.84413     316.2861    23.491437    23.545039       44.722    84.813705    84.862947      113.087 
  163500    230.33718   -12715.888   -11530.145   -12715.888            0    429.47626    23.528406    21.595229    43.993525   -9.2454196    3.7380508    5.7999285    22353.168    859.10707    405.79157     23.53013    -257.0978   -208.17234    559.59088    23.528406    23.491099    44.531365    85.026493    85.184813    113.17689 
  164000    227.18142   -12683.517   -11514.019   -12683.517            0    722.08042    23.524669    21.674972    43.905428   -9.2546192    4.3234831    6.1903978    22387.226    733.95971    961.85779    470.42377   -958.71856   -23.918628   -312.34979    23.524669    23.568037    44.549973    84.854555    84.430797    113.12115 
  164500    246.19232   -12715.189   -11447.825   -12715.189            0    1129.0293    23.380769    21.592477    44.197931   -9.1299768    3.5320327     5.753022    22313.269    1873.4231    1269.4813    244.18362   -53.334106    595.11422    -70.96547    23.380769    23.443369    44.710509    84.965922    85.469037    112.92017 
  165000    241.52648   -12696.385   -11453.041   -12696.385            0    1693.0697     23.45426    21.545255    44.074368   -9.4081631    4.1938666    5.6945325    22272.012    2276.4422    1989.7102     813.0565    738.09297   -752.52987   -89.353648     23.45426    23.509818    44.638169    85.450937    84.608968    113.58944 
  165500    229.12036   -12708.672   -11529.192   -12708.672            0    508.53216    23.550353    21.616359    43.907477   -9.1158377    3.7421252    6.2444861    22352.106    496.36208    356.38229    672.85211   -154.11995   -375.58779   -186.83314    23.550353     23.45987    44.506894    84.456149    85.176895    112.86565 
  166000    230.19819   -12670.217   -11485.189   -12670.217            0    10.407737    23.602545    21.638002    43.828667   -9.4272596    4.0273112    5.5983686    22383.822    108.07989   -675.16576    598.30909    538.82573    53.134412    1175.0868    23.602545    23.602465    44.367928    85.444608    84.792049    113.54183 
  166500    230.36651    -12750.49   -11564.596    -12750.49            0   -553.16935    23.515204    21.712771    43.945327   -9.2081245     3.789163    6.2168884    22437.616   -279.52235   -1217.6134   -162.37226     512.9478     -204.061    189.86754    23.515204    23.584613    44.544351    84.532712     85.12024    112.98122 
  167000    229.43879   -12727.031   -11545.913   -12727.031            0    341.42408    23.533184    21.642805    43.940531   -9.1776862    3.7871168    5.8805348    22379.972    369.74656    400.52289    254.00279    -73.34086     57.71307   -347.82878    23.533184    23.508316    44.493743    84.925668    85.117321     112.9795 
  167500    238.67039   -12764.279   -11535.638   -12764.279            0    10.965315    23.517003    21.623735    43.969819    -9.437359    4.0172068    5.8532354    22359.771   -239.32089    622.96329   -350.74646    1074.1923   -513.48796    191.69413    23.517003    23.593424    44.539233      85.1603    84.825187    113.57815 
  168000    239.20686   -12680.068   -11448.665   -12680.068            0    1188.9903    23.513136    21.573435    44.033053   -9.0293074    3.7235961    6.0861849    22336.168    1067.7501    1789.2726    709.94826    543.62864   -82.726702   -903.14702    23.513136     23.38678     44.60736    84.627444    85.211667    112.71117 
  168500    239.66269   -12714.948   -11481.198   -12714.948            0    751.68763    23.490003    21.579865    44.055032    -9.616873    4.3549986    5.8474868    22331.984   -358.41219     1848.298    765.17707    841.00033    332.34172    28.879499    23.490003    23.625724    44.654283    85.416483    84.403218    114.01971 
  169000    234.98248   -12700.591   -11490.934   -12700.591            0    984.43268    23.440211    21.639308    44.017518   -9.0231098    3.7066827    5.9472092    22327.002    1752.5526    785.31318    415.43223   -871.64484    1143.6519   -231.52388    23.440211    23.445173    44.571859    84.770429    85.229662    112.63505 
  169500    240.71661   -12698.212   -11459.037   -12698.212            0    1441.1793    23.480649    21.612036    43.871052   -9.2962473    4.1534535    6.0599222    22263.007    1967.3577     495.4734    1860.7068   -19.226312   -454.39949    804.66332    23.480649    23.526587    44.481941    84.936986    84.642263    113.27458 
  170000    234.74299   -12720.944    -11512.52   -12720.944            0    1544.6886    23.468179    21.522467    43.867623   -9.2379825    3.4227314    5.6434603    22157.234    2024.1104    1451.8687    1158.0867   -180.18833    136.04324    827.40698    23.468179    23.421292    44.361381    85.039458    85.574909    113.23022 
  170500    230.35831   -12743.991   -11558.139   -12743.991            0    1486.2827    23.529037    21.638733    43.566076   -9.1792505    4.1464121    5.9274434    22181.168    1480.6657    836.82792    2141.3546   -290.08612   -391.06005   -107.07017    23.529037    23.505178    44.162544    85.014986    84.612576    112.98688 
  171000    235.98045   -12722.439   -11507.645   -12722.439            0    1534.6531    23.537578    21.641929    43.589708    -9.360658    3.7212625    6.0104153    22204.536    1912.5587    1458.3589    1233.0419    60.559718   -127.33693   -490.78412    23.537578    23.579546    44.159207    84.751819    85.165996    113.38965 
  171500    237.76482   -12705.888   -11481.908   -12705.888            0    1182.1295    23.455397    21.658936    43.829681   -9.1287466    3.7686987    5.7379121    22266.308    1465.8227    623.97223    1456.5935   -413.45397    461.50899    111.64744    23.455397    23.504117    44.364036     85.05554    85.126884    112.85431 
  172000    237.02508    -12712.58   -11492.408    -12712.58            0    1314.3487    23.498116    21.551782    43.933522   -9.3217864    4.1300423    6.1185337    22249.089    1922.1061    1101.9451    918.99498     374.6335   -768.80823   -743.87863    23.498116    23.481376    44.549389    84.879362    84.680639    113.38992 
  172500    242.15582   -12707.697   -11461.113   -12707.697            0    1410.6362    23.407744    21.497366    44.273007   -9.0988559    3.5495881     5.729274    22278.391    1559.9199    1881.0144    790.97408    -489.7864    381.79237   -703.51155    23.407744    23.343648     44.78307    85.013508    85.453863    112.94073 
  173000    230.17551   -12705.168   -11520.257   -12705.168            0    1314.0882    23.432259    21.546817    44.134885   -9.3148995     4.263539    5.9586239    22283.288    1216.1428    1526.8178     1199.304    42.783902    -490.3111   -194.34305    23.432259    23.474085    44.738921    85.156417    84.531516     113.3793 
  173500    235.50315   -12676.289   -11463.952   -12676.289            0    1095.7705    23.360507    21.674983     43.97767    -9.077026    3.5880791    6.1503277    22267.591    1701.6047    950.99066    634.71625    3.2238324    289.83221   -186.66036    23.360507    23.498879    44.550379    84.478018    85.380405    112.72291 
  174000    234.38963   -12734.536   -11527.932   -12734.536            0    1358.1995    23.590738    21.475414    43.853947   -9.3914867    4.1705881    5.5175214    22217.325    525.79053      2371.42    1177.3879    158.09043    901.83917    386.88833    23.590738    23.439143    44.396008    85.628225    84.609651     113.6204 
  174500    237.03909   -12693.789   -11473.545   -12693.789            0    718.88105      23.5941    21.619689    43.797609   -9.2526155    3.7661124    6.0451735    22341.033   -38.033795    1079.7537    1114.9232    1018.6637    187.26641   -48.133527      23.5941    23.516416    44.372945    84.729757    85.131217    113.16956 
  175000    223.73207    -12669.76   -11518.019    -12669.76            0    337.51017    23.526557    21.690424    43.818468   -9.2868701    3.9400043    5.5761459    22360.608    471.13735   -20.947199    562.34034    411.05279   -570.86099    530.50241    23.526557    23.594924    44.347212    85.375775    84.902866    113.17844 
  175500    231.85985    -12729.78   -11536.198    -12729.78            0    509.91946    23.473694    21.720008    43.760928   -9.2437084    3.8850148    6.2822025    22311.458    1058.2261   -245.55601    717.08831    -152.3641   -377.50106   -659.18655    23.473694    23.605188    44.379931    84.492865    84.977905    113.05387 
  176000    231.17631    -12731.52   -11541.457    -12731.52            0    884.79052    23.529645      21.5351    43.956459   -9.2077695    3.8572233    5.6751837    22273.321    262.51416    983.44032    1408.4171     413.2441   -94.535918    -51.12122    23.529645    23.421007    44.488832    85.227085    85.026158    113.15011 
  176500    235.33841   -12676.517   -11465.028   -12676.517            0    1601.9348    23.576729    21.532996     43.85413    -9.368757    4.0936456     5.898255     22263.76    1746.2313    1585.1003    1474.4727    -479.0149   -165.37084     312.8683    23.576729    23.482835    44.437958    85.126469    84.714392     113.5133 
  177000    234.72219   -12744.257   -11535.941   -12744.257            0    667.05536    23.417205    21.634677    44.043324   -9.0652903    3.6710896    6.0485431    22313.391    1059.9154    294.91988     646.3308   -574.52628    894.49043    106.66847    23.417205    23.457168    44.608028    84.649173    85.279413     112.7345 
  177500    235.02095   -12711.392   -11501.537   -12711.392            0    730.64925    23.428993    21.619855    43.980493   -9.3128484    4.1855892    5.6209872    22277.503    13.193998    1733.6262    445.12753    838.50407    737.38126    829.21306    23.428993    23.540333    44.535362    85.484078    84.607183    113.30417 
  178000      241.291   -12692.007   -11449.875   -12692.007            0    389.64554    23.549756    21.587788    44.034026   -9.0950719    3.2266181    6.3411512    22386.332    78.681083    328.88714     761.3684   -1013.7031    1833.8857   -471.71268    23.549756    23.425476    44.605119    84.092416     85.85175      112.846 
  178500    229.60592   -12756.254   -11574.275   -12756.254            0    1105.6145    23.539865     21.55735    43.791343   -9.3088893     4.124463    5.7221418    22222.229    760.24852    1683.9169    872.67807    69.906996   -583.14052    93.211261    23.539865    23.481371    44.355787    85.321071    84.664593    113.35564 
  179000    236.14712   -12710.807   -11495.155   -12710.807            0    1256.9997    23.413081    21.721168    43.698388   -9.1435825    3.5050737    5.9883113    22223.229    1207.0008    965.27113    1598.7271   -100.55396     632.8536   -112.12067    23.413081    23.567228    44.245842    84.605929    85.456374    112.82879 
  179500    239.53178   -12707.263   -11474.187   -12707.263            0    1076.6983     23.52616    21.616647    43.824289   -9.3641777    4.1234661    5.8664191    22287.136    1250.7818    1280.9672     698.3458    748.22294    48.742877   -187.14314     23.52616    23.557743    44.407051    85.163639    84.672061    113.42192 
  180000    237.74137   -12735.696   -11511.837   -12735.696            0    1788.8541    23.519118    21.513632    43.927692   -9.1636412    3.8589439    5.8021817    22226.606    1206.1521    2615.8349    1544.5754     22.74464    490.93928    364.05621    23.519118    23.383941    44.476947     85.06536      85.0226    113.07138 
  180500    236.89179   -12687.234   -11467.748   -12687.234            0    1457.9555    23.502777    21.535185    44.015624   -9.2780237    3.6032711    5.9982806    22277.921    1160.7977    2399.9545    813.11436     149.2738      184.336   -22.389476    23.502777    23.448794    44.568353    84.743565    85.362678    113.30787 
  181000    231.43487   -12699.348   -11507.954   -12699.348            0    283.40136    23.462071    21.706486    43.891476   -9.1525827    4.3441951    5.7576551    22353.012     1139.673   -317.75145    28.282494   -102.85029   -1276.8285    275.06731    23.462071    23.557192    44.480156    85.335089    84.395221    112.86282 
  181500    229.94981   -12693.084   -11509.335   -12693.084            0    313.53896    23.469468    21.678198    43.968965   -9.2275519    3.5972767    5.9373276    22370.345    366.81192    126.20478    447.60017     15.55414    43.422246    330.56155    23.469468     23.56039    44.513618    84.774499    85.364704    113.05754 
  182000    238.20186   -12705.656   -11479.426   -12705.656            0    430.67489     23.52925    21.617179    44.015617   -9.3596451    4.3738818    6.0233593    22387.927    363.60042    777.65231    150.77194    249.06514   -933.90095   -79.318774     23.52925    23.556429    44.640635    85.130194    84.377148    113.41129 
  182500    237.83262   -12723.368   -11499.039   -12723.368            0    468.91471    23.558582    21.553673    43.976545    -9.111811    3.4828787    5.7318845    22330.145   -472.64009    1064.4246     814.9596   -191.66236    526.56991    584.18691    23.558582    23.400554     44.48507    84.940279    85.509534     112.9162 
  183000    234.29286   -12701.498   -11495.392   -12701.498            0    1133.0974     23.52696     21.61046    43.810979   -9.4399158    4.0971116     6.055954    22274.747    1601.0465    489.43925    1308.8064    708.39714    167.49783    7.2854131     23.52696    23.582281     44.41692    84.950356    84.707391    113.59674 
  183500    243.79153   -12735.118   -11480.113   -12735.118            0    2088.6068    23.374461    21.653308     43.75701   -8.9074967    3.6637471    5.6694083    22146.928    2587.8099    1486.1849    2191.8256   -854.85492    -12.47024    211.07199    23.374461    23.413868     44.27461    85.012344    85.253317    112.36074 
  184000    233.91948   -12694.413   -11490.228   -12694.413            0     2057.522    23.423239    21.642453    43.768629   -9.3990103    3.9624354    6.1540551    22187.909    2774.3142     1417.369    1980.8827     441.1544     -633.905    181.43567    23.423239    23.595279    44.376414    84.742476    84.877153    113.47462 
  184500    236.47018   -12677.861   -11460.546   -12677.861            0    2068.3009    23.492098    21.462233    44.055203   -9.2057204    3.6959244    5.6909515     22212.32     2510.793    2657.1473    1036.9626    -6.466378    -112.2769    378.59281    23.492098    23.353217    44.574743    85.144139    85.243848    113.21578 
  185000    234.46335   -12700.446   -11493.461   -12700.446            0    1035.3165    23.563357    21.533257    43.940292   -9.1579519    4.1698614    5.9180782    22295.121    1518.1056    951.32969    636.51431   -531.16351    487.24495     84.96815    23.563357     23.39977    44.532692    85.086811    84.627184    113.03973 
  185500    235.50331   -12684.143   -11471.805   -12684.143            0    715.93437     23.43956    21.725694    43.850996   -9.3262343    3.6229017     6.090204    22330.712    1248.8543    26.554693    872.39413    80.912765      357.966    9.7655342     23.43956    23.642852    44.419881     84.61687    85.321739     113.2325 
  186000    243.08643   -12716.386   -11465.011   -12716.386            0   -174.88449    23.490721     21.69436    43.886713   -9.1743182    3.9432575    5.5799727    22365.377   -33.234097   -350.40927   -141.01011    -186.0377    341.77574    821.03517    23.490721    23.554476    44.415413    85.346451    84.906501    112.92299 
  186500    231.24477   -12711.985    -11521.57   -12711.985            0    999.83404    23.570266    21.601347    43.765586   -9.3079079    4.0261149    6.1701635    22283.226     552.6504    789.00817    1657.8435   -435.46392    749.80581   -104.48141    23.570266     23.52138    44.381382     84.73404    84.795183    113.31096 
  187000    236.42692   -12738.618   -11521.525   -12738.618            0    1010.6256    23.505507    21.552792    43.912501   -9.2391054    3.5397655    5.5207016    22246.482    1372.8514    160.20986    1498.8154    4.7221253    830.62235    466.54477    23.505507    23.449604    44.399503    85.246331    85.427221    113.20352 
  187500    237.59824   -12702.278   -11479.156   -12702.278            0    1911.1124    23.437258    21.636512    43.801231   -9.2170408    4.2452859    6.0474898    22211.627    1374.4058    1794.6596    2564.2719    387.04111     760.4212    84.447161    23.437258    23.517918    44.420068    84.963176    84.515795    113.07375 
  188000    240.16782   -12716.378   -11480.027   -12716.378            0    1466.8738     23.46994    21.601108    43.861968   -9.2557634    3.4664969    6.0529513    22236.997    925.42861    1551.1021    1924.0908    332.91183   -42.909597   -404.57215     23.46994    23.500575     44.41314    84.575666    85.523445    113.19443 
  188500    235.08171    -12678.99   -11468.822    -12678.99            0    1996.7326    23.514523    21.580804    43.782675   -9.1984326    4.7850558    5.4949286    22218.057    2787.9986    1167.5358    2034.6635     100.3311   -2032.0428    258.08528    23.514523    23.459375    44.384835    85.893163    83.811008    113.08526 
  189000    231.94589    -12760.05   -11566.026    -12760.05            0    1320.9378    23.476501    21.578564    43.834131   -9.2128331    3.5395233    6.0746541    22205.897    997.05721    1065.3305    1900.4256    782.61746    420.58095    208.39256    23.476501    23.462965    44.394377    84.575257    85.427006    113.11976 
  189500    232.71449   -12701.015   -11503.034   -12701.015            0    1369.9156    23.465676    21.613061     43.84452   -9.3995822    3.8880193    5.7601012     22236.41    1303.9231    1394.8091    1411.0147    85.025748    155.58394   -122.97728    23.465676     23.56855    44.391861    85.178041    84.975365    113.50436 
  190000    240.48173   -12669.146    -11431.18   -12669.146            0    732.27699    23.550675     21.64235    43.767617   -8.9862313    3.9277613    5.7883676    22308.002   -107.93942    476.38726    1828.3831   -212.45939   -124.61166     1023.148    23.550675    23.433814    44.323095    85.030289    84.915975    112.54896 
  190500    241.86254   -12663.995   -11418.921   -12663.995            0    996.11665    23.558147    21.565209    43.937638   -9.4466003    3.7888194    6.1712414    22321.918    225.25273    1991.8524    771.24478    34.020842     102.2637    61.064545    23.558147    23.543502    44.530388    84.675235     85.11915    113.65573 
  191000    232.42242   -12681.138    -11484.66   -12681.138            0    210.26287    23.512034     21.61108    44.028852   -9.1296145    4.2211996    5.4218748     22371.96   -330.76908    386.92571    574.63198   -498.44714    63.553304    655.45939    23.512034    23.460363    44.561811    85.686306    84.564402    112.90166 
  191500    239.75154   -12731.569   -11497.362   -12731.569            0   -272.74444    23.459435    21.710259    43.998333   -9.2806137    3.7164793    6.3620216    22408.809    626.60803   -478.23233   -966.60901    -48.59286    573.65035   -577.23926    23.459435      23.6107    44.610995    84.353749     85.22123    113.14554 
  192000    237.56881   -12693.456   -11470.485   -12693.456            0    502.89116    23.533345    21.626577     43.93504   -9.2405384    4.0324377    5.7967536    22360.549   -75.917002    762.90453    821.68595    176.19996   -26.202193   -47.798146    23.533345    23.518001    44.498883     85.17082     84.80079     113.1359 
  192500    233.61842   -12672.242   -11469.608   -12672.242            0   -455.89402    23.569522    21.669406    43.956198   -9.2226666    3.4774277    5.6384139    22450.081   -96.265138    -1432.992    161.57502   -386.93814    600.83773    121.77197    23.569522    23.550387    44.452576    85.062149    85.513293    113.05498 
  193000    230.26266   -12679.395   -11494.035   -12679.395            0    860.18534    23.637897    21.590973    43.734871   -9.3565627    4.2447497    6.1083958    22320.756    327.31776    1515.6039    737.63435    285.85786   -591.43237   -626.38132    23.637897    23.531158    44.362928    84.934593    84.509405    113.42975 
  193500    232.25957   -12660.359   -11464.719   -12660.359            0    1039.0061    23.500057    21.628172    43.828149   -9.1454168    3.4849157    5.5224212    22276.238    1429.5117    1010.0497    677.45686    128.46964    178.75393    845.52104    23.500057    23.482258    44.311944    85.172462    85.489312    112.92095 
  194000    236.31297   -12703.237   -11486.731   -12703.237            0    1485.7716    23.473704    21.704375     43.73496   -9.3389832    4.0835776    6.1752624    22282.178    1941.7364    1243.5627    1272.0158    97.520541    146.32039   -191.15291    23.473704    23.628299    44.357144    84.750418    84.717795     113.2813 
  194500    231.85488   -12686.242   -11492.686   -12686.242            0    1397.1773    23.446458    21.614053    43.983281   -9.0574319     3.807003     5.795136    22289.538    1773.7897    1221.2533    1196.4888   -191.54607    171.17638    217.82074    23.446458     23.43511    44.526462    85.009413    85.095235    112.73626 
  195000    237.64017   -12669.967   -11446.629   -12669.967            0    1444.6074    23.566853    21.510724    44.071871   -9.4679479    4.0358636    5.7403564    22341.797    784.13728     3396.448    153.23707    857.05889    410.58277   -793.06951    23.566853    23.502197    44.627006    85.336828    84.811341     113.7567 
  195500    235.54204   -12660.196   -11447.659   -12660.196            0    862.70166    23.522874    21.571735    44.079206   -9.1945914    3.7612804    6.1935272    22367.076    537.86691    1120.4187    929.81939   -269.42512    380.51708    349.50653    23.522874    23.449526    44.670834    84.575699    85.169982    113.08532 
  196000    238.64262   -12698.736   -11470.238   -12698.736            0     1022.386    23.407998    21.618704    44.042451    -9.206909     4.096012    5.5863579    22287.707    1036.2927    808.36535    1222.4998    776.95293   -739.58313    511.61934    23.407998    23.497564    44.583878    85.452627    84.728686    113.06804 
  196500    237.67432    -12666.77   -11443.257    -12666.77            0    1862.2785    23.380498    21.699587    43.811086   -9.3558393    3.6640823    6.2592022     22227.43    1777.2772    1773.0924    2036.4658    1291.0479   -219.75157    278.43321    23.380498     23.63057    44.407368    84.447134    85.267105    113.32343 
  197000    240.08089   -12726.695   -11490.792   -12726.695            0    452.90365    23.567917    21.551761    43.919627   -9.0945149    3.9584859     5.755639    22308.102   -116.28907    1175.5191    299.48095   -146.92608   -744.47718    357.48613    23.567917    23.392063    44.471684    85.145009    84.893265      112.879 
  197500    234.64506   -12745.244   -11537.324   -12745.244            0   -274.70096    23.662528    21.541112    43.922764   -9.4936119    4.0632398    5.7914534    22388.187   -303.52405    472.66913   -993.24795    707.87871   -448.38296    -308.8782    23.662528    23.540352    44.488876    85.279873    84.759783    113.78408 
  198000    235.10868   -12706.985   -11496.679   -12706.985            0    416.77299    23.504572    21.632018    43.990425   -9.1949077    3.7694962    5.9748181     22366.99      162.687    604.19116     483.4408   -219.13101    -122.9565    299.20253    23.504572    23.505118    44.554069    84.817999     85.14669    113.02841 
  198500      232.582   -12677.273   -11479.974   -12677.273            0    1494.0259    23.283733    21.778543    43.885703   -9.1392766     4.047752    5.9610843    22253.816    2325.9954    1092.0169    1064.0653    510.37858   -265.72957   -187.15781    23.283733    23.618452    44.473293    84.929764    84.777978    112.76516 
  199000    241.34511   -12693.129   -11450.718   -12693.129            0    1085.1899    23.481852    21.549274    44.025367   -9.3271007    3.6451351    5.7810925    22277.579    800.82062    1420.5166    1034.2326    679.04819    787.50311    263.12314    23.481852    23.481185    44.552677    85.032884    85.307026    113.40425 
  199500    238.20237   -12668.612    -11442.38   -12668.612            0     1607.778    23.547867    21.540755    43.941793   -9.1412227    4.0354024    5.9380326    22288.984      2218.01    1235.3204    1370.0037     119.2202   -1182.9487    183.77616    23.547867     23.40013    44.524442      84.9881    84.799952    112.99485 
  200000    237.50605   -12757.366   -11534.719   -12757.366            0    1027.2869    23.440634    21.617283    43.917595   -9.3452846    4.0116021    5.9546288    22254.048    1613.2666    918.03609    550.55797   -195.34937    524.30644   -581.03583    23.440634    23.550823    44.500626    85.005937    84.827931    113.37913 
  200500    224.55211   -12721.098   -11565.135   -12721.098            0    1722.0776    23.345426    21.620614    43.912774   -9.1391159    3.5257224    5.7977954    22164.641    1606.0031    1758.4681    1801.7618   -207.60756    1025.8138   -204.55035    23.345426    23.472844    44.433961    84.877171    85.448941    112.91397 
  201000     245.0136   -12688.917   -11427.621   -12688.917            0    2343.6828    23.485644    21.540631    43.806345   -9.3103416    4.3662167    5.9754258    22161.436    2037.8121     2648.366    2344.8702    104.67689   -370.19138   -172.70182    23.485644    23.466598     44.42708    85.154503    84.359966    113.37508 
  201500    235.38791   -12690.939   -11479.196   -12690.939            0    1682.9821     23.49183    21.491971    44.001597   -9.1440301    3.4395412    5.8209324    22215.779    1804.4886    1797.1373    1447.3204    158.66766    326.44507    370.03597     23.49183    23.356329    44.518022    84.832406    85.568811    113.04794 
  202000    235.90225   -12706.604   -11492.212   -12706.604            0    1514.9476    23.445598    21.622177    43.888521   -9.3069574    4.3141032    6.0666217    22249.061    1958.4478    546.93961    2039.4554    214.51721   -686.17773    621.10599    23.445598    23.540136    44.515364      85.0169    84.438584    113.28877 
  202500    232.06185   -12729.816   -11535.195   -12729.816            0    896.21848    23.427298    21.661999     43.84524   -9.1599519    3.6921231    5.8804731    22250.675      365.688    1607.8183    715.14915   -431.91308    613.25258    356.58838    23.427298    23.519075     44.39163    84.858509    85.229107    112.92147 
  203000    221.98461   -12734.828   -11592.082   -12734.828            0    570.14896    23.576605    21.550028    43.822935   -9.3157707    3.8094293    5.6669099    22265.404    324.28041     582.0907    804.07578    319.70883    234.47895    759.57413    23.576605    23.477379    44.351722    85.227403    85.072717    113.37814 
  203500    235.68984   -12674.375   -11461.077   -12674.375            0   -337.94301    23.666009    21.575541    43.946187   -9.2808814    3.8916321    6.2042017    22439.228   -1483.4479    371.53973    98.079134   -311.18628    861.72494   -363.93312    23.666009     23.48699    44.552264    84.640345    84.988838    113.27532 
  204000     229.3466   -12676.231   -11495.587   -12676.231            0    727.52764     23.45224    21.697448    43.987295   -9.2092902    3.9039952    5.7524051    22383.099    583.52209    582.57153    1016.4893     228.6171    62.263725    241.73077     23.45224    23.570962    44.533284    85.143935    84.970729    112.99837 
  204500    228.16748   -12694.231   -11519.657   -12694.231            0    116.50428     23.40343    21.757914    44.030435   -9.2330841    3.7775133    5.8762018     22420.73    479.08562   -1035.1115    905.53874   -154.19364    444.63582   -70.651471     23.40343    23.635919    44.581145    84.937862    85.139304    112.99419 
  205000    226.25728   -12698.229   -11533.489   -12698.229            0    831.78933     23.53276    21.635802    43.826116   -9.1967786    4.0084772    6.1709056    22314.072    588.40522    581.37869    1325.5841     349.5602   -190.08823   -620.57901     23.53276    23.509331    44.439581    84.692084    84.824852      113.029 
  205500    237.78237   -12700.258   -11476.187   -12700.258            0    860.84737    23.638422    21.478539    43.931309   -9.3245095    3.9677039    5.6801062     22304.75    368.93147    1272.9811    940.62951    796.91571   -657.64138   -241.28543    23.638422    23.415254    44.474332    85.317966    84.881647    113.46718 
  206000    228.29416   -12765.329   -11590.103   -12765.329            0    1456.0385    23.546714    21.526319    43.799711   -9.2738224    3.6281166    6.0642984    22200.938    1030.8986    1960.2141    1377.0028    178.15704    378.03629   -168.18796    23.546714    23.438989    44.366132     84.65354    85.309301    113.30702 
  206500    241.25477   -12699.234   -11457.289   -12699.234            0    1291.0818    23.302413    21.801496    43.757968   -9.1931141     4.119312    5.7224978    22230.249    1885.9411    761.45686    1225.8474    752.13211   -68.939362    80.525658    23.302413    23.660486    44.322404    85.247281     84.66725    112.86387 
  207000    224.34242   -12650.989   -11496.106   -12650.989            0    1393.6853    23.402804    21.651043    43.930603   -9.1905995    3.8367191    5.9830898    22259.422    2208.6272    1491.0874    481.34131    179.45363    237.95788   -1137.3036    23.402804    23.520944    44.501861    84.832377    85.054116    113.00062 
  207500    237.17191   -12742.081   -11521.153   -12742.081            0    1049.3344    23.602578     21.40359    44.069769   -9.3222779    4.0502438    5.9009203    22263.162    963.80781     1648.448    535.74742     117.3048   -478.55982    245.50551    23.602578    23.345632    44.647171    85.126927    84.795161    113.53541 
  208000    228.02871   -12681.835   -11507.975   -12681.835            0    1070.9713    23.497873     21.53583    44.148074   -9.2379925    3.9494169    5.7959567    22340.965    1723.3823     1659.538   -170.00634   -341.22865    14.880332    332.75392    23.497873    23.433576    44.701716    85.162578    84.931283    113.21736 
  208500    236.11091   -12715.952   -11500.486   -12715.952            0    531.35991    23.392105    21.719115    44.004683   -9.1383052    3.9357699    6.0413718    22356.835    439.70225    452.27902    702.09846    417.58964   -22.500758    464.47757    23.392105    23.563289    44.591485    84.799051    84.936324     112.8189 
  209000    232.50106   -12671.299   -11474.417   -12671.299            0    455.51967     23.48559     21.67962    44.003141   -9.3382843    4.0598591    5.6640136     22404.58    787.10387    491.99477    87.460378   -385.81697    708.57471   -53.823927     23.48559    23.605285    44.551542    85.370473     84.77154    113.30349 
  209500    241.68973   -12725.506   -11481.321   -12725.506            0    1021.7096    23.661959    21.511541    43.720116   -9.2486549    3.6180711    6.1240523    22253.767    396.71067    793.57594    1874.8421   -861.61396    440.97914   -14.104311    23.661959    23.415465    44.294955    84.562956    85.314784    113.26477 
  210000     237.4071    -12721.38   -11499.242    -12721.38            0    1631.0889    23.560802    21.599152    43.696886   -9.2553831     3.970855    5.8804554    22237.054    937.26693    1974.6282    1981.3715   -186.19855   -110.90821   -148.48448    23.560802    23.498627    44.269236    85.022342    84.853776    113.19546 
  210500    241.73834   -12703.218   -11458.783   -12703.218            0    1079.3964    23.342735    21.749597    43.942059   -9.2694084    3.4775719    5.3946026    22309.168    2242.8114    -123.5606    1118.9384    98.894727    569.37594    182.99902    23.342735    23.642481     44.40833    85.351125    85.508626     113.0831 
  211000      234.433   -12674.646   -11467.818   -12674.646            0    366.06652    23.574029    21.660626    43.898217   -9.2735593    4.1748868    6.3382419    22415.669    -912.9778    1179.1698    832.00755    362.40606   -100.17617   -533.89226    23.574029    23.562293    44.549483    84.611521    84.622723    113.17721 
  211500    230.17727   -12724.645   -11539.725   -12724.645            0    898.02392    23.611204    21.503616     43.98849   -9.2815072    3.8423393    5.5923558    22334.111   -89.368187    1422.8894    1360.5505    514.09789    79.044598    733.55826    23.611204    23.421184     44.50871    85.345405    85.047617    113.34626 
  212000    236.85109   -12733.431   -11514.155   -12733.431            0    380.51212    23.579659    21.570452    44.046568   -9.2705621    3.7546818    6.0093884    22403.137    185.46641    582.87942    373.19054    301.53731    754.70771    55.066194    23.579659    23.478239    44.612897    84.806277    85.172199     113.2571 
  212500    238.80772    -12691.17   -11461.821    -12691.17            0    1008.9307    23.477603    21.615491    43.921966   -9.1920555    4.1470894    5.8056268    22289.516    980.66454    1217.5448    828.58273    403.02485    422.47549     537.0317    23.477603    23.488792    44.497671    85.204874    84.652393    113.03778 
  213000    237.58892   -12758.385    -11535.31   -12758.385            0    1337.5741     23.38047    21.724689    43.684943   -9.2896699    3.4386976    6.0355797    22189.044    1807.5478     453.9519    1751.2226   -15.906477    546.45173    151.66611     23.38047    23.627528    44.233778    84.554798    85.541375    113.15198 
  213500    245.17211   -12741.585   -11479.473   -12741.585            0    969.62565    23.543184    21.588691    43.801707    -9.199965    4.1682933    5.9097251    22262.942     793.3112    909.01026    1206.5555    -495.4842   -868.84589   -304.13921    23.543184    23.467231    44.394696    85.086423    84.612466    113.08115 
  214000    233.72037   -12704.151   -11500.992   -12704.151            0    1823.5728    23.528259    21.467678     43.95562   -9.3091128    3.5357146    5.8744589    22201.855    1704.4812    2563.5481    1202.6891     452.7546    4.5697639    14.990748    23.528259    23.399162    44.487156    84.863471    85.441484    113.44319 
  214500     237.1908   -12721.889   -11500.864   -12721.889            0    1919.7641     23.37309    21.584016    43.945657   -9.1561624    4.1570929    5.9387138    22169.931    2413.1907    2278.1331    1067.9684    -133.4439   -253.99342   -209.21898     23.37309     23.44579    44.539539    85.049313     84.64451    112.98716 
  215000    234.05491   -12752.198   -11547.317   -12752.198            0    1216.5035    23.371692    21.680613    43.885052   -9.1594722    3.8459923    5.9579448     22237.11     1544.573    774.16661    1330.7708    415.94244   -628.88287    56.582542    23.371692    23.536034     44.45432    84.848513    85.036816    112.90274 
  215500    234.47614   -12654.712   -11447.662   -12654.712            0    1265.1919    23.725908    21.491662    43.712153    -9.433537    4.2117231    5.6851637    22289.228    76.716458    2252.7329    1466.1262    1068.8314   -1146.3866     472.6609    23.725908      23.4709    44.281057    85.449767    84.542152    113.69856 
  216000    238.07413   -12729.542    -11503.97   -12729.542            0    853.78728    23.634919     21.56545    43.754492    -9.188716    3.7504991    5.9954056    22301.562    478.54274    1317.2295    765.58962    333.47929    -308.2339    -390.9804    23.634919     23.44144    44.322305    84.763118    85.145897    113.07813 
  216500     236.6955   -12729.196   -11510.721   -12729.196            0    1295.7053      23.4919    21.656837    43.745871   -9.3079288    4.1232152    5.8253666     22256.16    810.83553    613.73644     2462.544    272.31786   -383.58141    324.38313      23.4919    23.572359    44.324226    85.180652    84.662402    113.25763 
  217000    232.65539   -12641.796   -11444.119   -12641.796            0    740.11158    23.309699    21.735859    44.061342   -9.1454571    3.3849657    5.8962552    22323.958    1561.7109    47.323581    611.30029    170.15384    110.73879      312.813    23.309699    23.581496    44.582795    84.695006    85.645606    112.81914 
  217500    238.46181   -12700.577   -11473.009   -12700.577            0    840.07252    23.512679    21.601335    44.048443   -9.2286942    4.2284851    6.0588358    22372.436    431.61701    1587.2569    501.34369    820.17481   -1041.7677   -428.53594    23.512679    23.490136    44.663799    84.977231    84.567463    113.13353 
  218000    231.47039   -12655.682   -11464.105   -12655.682            0    1358.6637    23.563932    21.364965    44.312123   -9.2568856    3.7332384    5.5909051    22308.609    1525.0689    2147.1424    403.77982   -367.86541    476.09196    146.90543    23.563932    23.284151    44.819187    85.334032    85.221981    113.42583 
  218500    233.70075   -12711.721   -11508.663   -12711.721            0    815.16393    23.470031    21.622191    44.032928   -9.3119458    4.0080244    6.0823624    22345.543    1271.5711     382.8238     791.0969    158.01514    22.352565   -111.58894    23.470031    23.542121    44.631358    84.856816    84.847733    113.29991 
  219000    230.30236   -12724.285   -11538.721   -12724.285            0    1147.7861    23.402024    21.708413    43.793921   -9.0957824    3.9685234    5.9391834    22248.223    1810.6306    1239.3376    393.39016   -389.92463   -216.95608    88.882193    23.402024    23.536959    44.372633    84.900413    84.868822    112.73359 
  219500    232.74977   -12748.073    -11549.91   -12748.073            0     1638.466    23.436475    21.546212    43.874633   -9.3825595    3.5402856    5.7179387    22155.253    1806.4224    1863.3681    1245.6075    242.86994    259.34891   -450.56261    23.436475    23.500462    44.387068     85.05131    85.425264     113.5313 
  220000    229.73636    -12680.97   -11498.319    -12680.97            0     1236.821    23.610043    21.532293     43.79252   -9.1622025    4.1389835    5.9952928    22263.169    618.44364    1711.9486    1380.0709   -649.26917    -86.90892   -575.64566    23.610043    23.400547    44.394364    84.965217     84.65042    113.05023 
  220500    234.60283   -12709.241   -11501.538   -12709.241            0    1575.7932    23.526562    21.542261    43.834756   -9.2317529    3.5782707    5.7234308    22216.127    1077.6972    2009.5674    1640.1151    632.23861    577.08052   -362.58561    23.526562    23.437028     44.35141    85.018449    85.372348    113.19714 
  221000    237.73237   -12709.352   -11485.539   -12709.352            0    615.25662     23.37261    21.685388    43.890672   -9.2926094    4.1445178    6.1483837    22245.728    901.40594     489.2541    455.10982    555.62239   -642.04234   -2.1650553     23.37261    23.592555    44.512591    84.819861    84.657515    113.19607 
  221500    235.44927   -12700.677   -11488.618   -12700.677            0    1671.5466    23.382713    21.575907    44.086332   -9.0773858    3.8139731    5.8055171    22241.697    1735.2286    1620.4349    1658.9762    275.80625   -403.42972    285.50726    23.382713    23.407663    44.630204    85.022695    85.097683     112.8174 
  222000    236.79066   -12758.254   -11539.289   -12758.254            0    1688.6765     23.44404    21.474051    44.073067   -9.4477396     3.773587    6.0690659    22188.079    1714.7903    2210.4556    1140.7838    1183.8908    99.041039   -662.99398     23.44404    23.460491    44.648726    84.814299    85.151735    113.74761 
  222500    236.16706   -12683.909   -11468.154   -12683.909            0    1425.3503    23.448841    21.611947    43.948654   -9.0611281    3.9313197    5.9130298    22272.084    1213.3177    2078.3591    984.37424   -7.6591344    43.912139   -121.07822    23.448841    23.434596    44.518574    84.931498    84.933759    112.74659 
  223000    231.55442   -12653.693   -11461.683   -12653.693            0    1340.8935    23.531982    21.684009    43.678768   -9.3307537    4.0133483    5.6462882    22287.865    1546.9183     908.3771    1567.3852    17.959901   -466.10802     550.1452    23.531982    23.606338     44.22468    85.330605    84.793298    113.28249 
  223500    238.58582   -12686.749   -11458.543   -12686.749            0    869.85708    23.635184     21.58946    43.675059   -9.3245529    3.6925064    5.9818393     22286.11    760.21034    131.05017    1718.3107   -67.536887    445.57661    258.50338    23.635184    23.517059    44.237177    84.776437    85.211912    113.35966 
  224000    233.78747   -12689.692   -11486.187   -12689.692            0    669.93712    23.647195    21.606524    43.628603   -9.2255459     4.042703    5.7646749    22291.323    590.17098    154.04872    1265.5917   -94.012742   -296.18666     467.2066    23.647195    23.493671    44.193099    85.178998     84.75135     113.1215 
  224500    234.40795   -12720.355   -11513.656   -12720.355            0    1274.9068    23.416804    21.673088    43.735183   -9.3983373    3.6085605    5.9499637    22196.238    2245.2562    408.11532    1171.3489    1169.3626    193.95888    90.993681    23.416804    23.623114    44.285325    84.787698    85.326109    113.44353 
  225000    237.83668   -12670.111   -11445.761   -12670.111            0    2653.0813    23.399512    21.610259    43.948947   -9.0523127    3.9822003    5.9090899    22223.642     3632.078    2396.5516    1930.6142   -864.25072    163.26065    273.69648    23.399512    23.429632    44.522861    84.959642    84.868511     112.7283 
  225500    239.83847   -12716.702   -11482.047   -12716.702            0    867.50118    23.473751    21.548002    44.098324   -9.2817915    3.9766119    5.9496393    22305.481     168.5325    1921.7655    512.20553    71.562091    606.35568    258.92598    23.473751    23.462055    44.675204    85.003373    84.893252    113.30394 
  226000    226.10157   -12704.209    -11540.27   -12704.209            0    638.68569    23.513585     21.51472    44.122901   -9.2875938    3.7677024    5.7580101    22321.255    113.17863    1596.7133    206.16514    553.92124    162.37563   -129.64649    23.513585    23.433792     44.65625    85.127297    85.160131    113.34916 
  226500    235.66702   -12720.282   -11507.101   -12720.282            0    103.79946    23.558561     21.68938    43.837783   -9.1673612    4.1365615    6.1233041    22399.818   -1024.5689   -0.5534442    1336.5208    319.38828    198.78817    408.61446    23.558561    23.547181    44.456239    84.799264    84.661023    112.91212 
  227000    229.97281   -12656.307   -11472.439   -12656.307            0    254.35797    23.507019    21.704821     43.85776   -9.3917944    3.7126614    5.5945498    22376.915    180.83658    353.34713    228.89021     349.0208    473.45343    840.83939    23.507019    23.649631    44.368749    85.268129    85.200026     113.3984 
  227500    245.34975   -12741.528   -11478.502   -12741.528            0      658.705    23.583169    21.646825    43.740275   -9.1512993    3.9683329    5.8761598    22329.443     798.8597    599.07537    578.17992     -598.286     296.6179   -302.41094    23.583169     23.50173    44.311269    84.993287    84.861945    112.91644 
  228000    234.74747   -12663.946   -11455.499   -12663.946            0    1882.4639    23.676108    21.510653      43.6556   -9.3243969    3.8952927    6.1882674    22233.297    1390.6121    1250.9168    3005.8628   -363.25432     858.7777    696.15291    23.676108    23.444671    44.263748    84.648157    84.951333    113.43568 
  228500    243.04021   -12704.566   -11453.429   -12704.566            0    1322.1906    23.441768     21.57115    43.930065   -9.2416307    3.8261751    5.5555488    22213.935    798.59547    1465.5599    1702.4165    151.76882    -79.43786     520.0558    23.441768    23.467472    44.444959    85.354194    85.061411    113.19153 
  229000     231.8213   -12680.792   -11487.408   -12680.792            0    2033.6533       23.357    21.659293    43.910794   -9.0903121    4.0791042     6.277338      22214.3    2682.5258    2413.5074    1004.9267   -628.60762   -609.29696   -1039.7357       23.357    23.489546    44.544381    84.577213    84.745839    112.76758 
  229500    233.50031   -12687.288   -11485.261   -12687.288            0    1523.2374    23.433556    21.507023    44.087623    -9.218314    3.7445927    5.7362782    22219.546    1554.7647    2019.3478    995.59972    283.46722    421.94003   -157.95166    23.433556    23.399345    44.616649    85.117839    85.185608    113.20088 
  230000    228.54437   -12686.034    -11509.52   -12686.034            0    1543.0487    23.506458    21.517303    43.844613   -9.2539028    3.8623558    5.6594131    22176.412    1708.8732    1783.8875    1136.3852   -43.259124    -964.0806    217.35538    23.506458    23.422832     44.37676    85.252204    85.006913    113.27099 
  230500    235.05118   -12701.683   -11491.673   -12701.683            0    931.41913    23.554087    21.650205     43.71786   -9.2988259    3.9398704    6.2219362    22293.959    1266.7044    445.31914    1082.2338    4.9904053   -289.76964   -339.17014    23.554087    23.562673    44.333806    84.613094    84.901495    113.24366 
  231000    234.92136   -12642.279   -11432.937   -12642.279            0    229.19257     23.55263    21.749173    43.697207   -9.2036271    3.8195815    5.4743136    22383.905     335.5162   -220.98775    573.04924    192.21359    -282.0947    507.17895     23.55263    23.616377    44.204109    85.389822    85.043014    112.93669 
  231500     233.5712   -12723.675   -11521.283   -12723.675            0    458.86247     23.55985    21.637038    43.823999   -9.2768913    3.9127005    5.9849271    22339.958    561.05237   -133.38913    948.92416    69.627527   -845.09447   -11.375629     23.55985    23.541923    44.403507    84.884961    84.944716    113.20726 
  232000    233.54334   -12687.005   -11484.757   -12687.005            0    52.591236    23.619265    21.581429    44.058268    -9.188213     4.029552    5.7551932     22458.15   -354.48308    302.42774    209.82905   -61.847228   -222.78407    759.64868    23.619265    23.455944    44.614914    85.221246     84.81807     113.0617 
  232500    233.62664   -12693.765   -11491.088   -12693.765            0   -477.71352    23.505684    21.637244     44.20239   -9.3378693    3.8325198    5.8412406    22481.257    91.076903   -706.01582   -818.20165    339.30069    29.905491    423.14596    23.505684    23.566207    44.751084    85.071702    85.087124    113.34332 
  233000    237.44446   -12714.529   -11492.199   -12714.529            0   -285.92042    23.483493    21.715493    43.986611    -9.179277    3.8685902    6.0977065     22431.22    -470.7349   -407.43155    20.405176    138.97631    237.89513    360.96793    23.483493    23.575873    44.575441    84.709246     85.02118    112.91409 
  233500    228.58474   -12652.129   -11475.407   -12652.129            0    615.03481    23.556072    21.597015    43.910799   -9.2233205     4.064325    5.6802536    22339.217    304.37788    876.18471    664.54183    -331.3235   -538.64789     351.3875    23.556072    23.484052    44.462819    85.320236    84.755299    113.12561 
  234000    230.10404   -12699.437   -11514.894   -12699.437            0     506.1815    23.658525    21.588759    43.697657   -9.4437175    3.4426901    6.1727058    22318.936   -66.818343      887.497    697.86585    665.57556    776.16345   -525.13277    23.658525     23.56392    44.265558    84.457207    85.539399    113.62634 
  234500    225.61949   -12735.411   -11573.954   -12735.411            0    857.11159    23.520604     21.64029    43.725638   -9.1710619    4.1668254    5.8185684     22256.03    1443.4971    1026.2269    101.61082   -215.99039   -534.44034    110.98784    23.520604    23.503415    44.307444    85.169015    84.603732    112.96702 
  235000    226.14132   -12696.782   -11532.638   -12696.782            0    1069.5778    23.399994    21.643144    44.005611   -9.2704916    3.4679533    5.7537376    22286.617    1737.1197    1358.3613    113.25257    757.86514   -14.276643   -613.02938    23.399994    23.545014    44.515457    84.943482    85.531875    113.18709 
  235500    243.43072   -12633.697    -11380.55   -12633.697            0    831.12997    23.538613    21.591456    44.103354   -9.2488651    4.2578036    6.1579503    22414.777    563.07839    1563.7589    366.55262    44.451481   -507.99738   -324.95453    23.538613    23.488987    44.734272    84.890559    84.538326    113.18824 
  236000    233.60357   -12748.983   -11546.425   -12748.983            0    797.15286     23.47244    21.532663     44.09428   -9.1083217     3.822857    5.7906444    22286.313    871.82936    862.06227    657.56695    -161.8947   -311.79867   -191.14321     23.47244    23.379844    44.636883     85.05995    85.086973    112.92837 
  236500    235.75299   -12707.806   -11494.183   -12707.806            0    537.07382    23.376685    21.639639    44.208638   -9.4950111    4.1305901    6.1044269    22363.515     1053.607    459.92449     97.68996    1348.5759   -1070.1011   -42.896873    23.376685    23.631107    44.818852    84.969085    84.712009    113.69084 
  237000    229.63776   -12708.101   -11525.958   -12708.101            0    1001.8183    23.425095    21.641046    43.907175   -9.1027302    3.8277054    5.8164958    22258.459    1540.6113    593.66799    871.17547   -659.48636    154.20213    -382.1142    23.425095    23.477533    44.455854    84.996317    85.060645    112.81276 
  237500    233.79575   -12762.616   -11559.069   -12762.616            0      202.934    23.612608     21.60751    43.705178   -9.3680699    3.9910879    6.0247281    22298.805   -126.30876   -31.416396    766.52716     134.0465   -462.58333     155.4044    23.612608    23.550907    44.298631    84.897267    84.830924    113.43944 
  238000    234.56141   -12666.143   -11458.654   -12666.143            0    762.75865    23.652362     21.61769    43.664656   -9.2984542    3.6812612    5.6000187    22326.151   -185.66122    1053.5389    1420.3983   -712.99187    1102.2981    168.16444    23.652362    23.532653    44.175945    85.208857    85.219896    113.27407 
  238500    233.84271   -12719.875   -11516.085   -12719.875            0    470.11559     23.56704    21.716939    43.598932   -9.1774457     4.012758    5.9450112    22314.106   -234.08359    377.43899    1266.9914   -834.70522    595.70497   -64.277114     23.56704    23.576491    44.184978    84.917835    84.789376    112.90862 
  239000    233.27474    -12699.95   -11499.084    -12699.95            0    1879.3178    23.440696    21.641535    43.767299   -9.3689605    3.7649844    5.7754174    22202.829     1911.538    1576.6917    2149.7238    392.63093    584.99877    133.16339    23.440696    23.582482    44.306964    85.074381    85.125412    113.40854 
  239500     243.2566   -12688.935   -11436.685   -12688.935            0    2134.3069    23.456596    21.550252    43.981801   -9.1260104    3.8781956    5.7311666    22232.605    1799.3619    2180.0821    2423.4767   -895.49659    1217.6293    349.29272    23.456596    23.402937    44.522865     85.14889    85.002878    112.95148 
  240000    235.56386   -12720.556   -11507.906   -12720.556            0    652.48251    23.529526    21.588451    44.002014   -9.3046713     4.170928    6.1698548    22351.528    426.91167    797.98289    732.55298   -204.22439   -510.36106    412.28616    23.529526    23.508257    44.627805    84.838174    84.637293    113.31615 
  240500    237.48897   -12729.904   -11507.344   -12729.904            0    119.04785    23.375347     21.61845    44.285882   -9.0976072    3.4718073    5.4349874    22379.373    869.19188   -228.65054    -283.3978    -323.2407    990.29069    907.28185    23.375347    23.454719     44.75301    85.305338    85.550691    112.82263 
  241000    235.86332   -12717.947   -11503.755   -12717.947            0    535.79148    23.506293    21.595431    44.095153   -9.2980465    4.1731199    6.0032974    22383.957    497.87295    1205.3247   -95.823212    532.37564   -696.00538    672.37991    23.506293    23.512046    44.697171    85.041151    84.642818    113.29459 
  241500     241.3134   -12675.633   -11433.386   -12675.633            0     743.2825    23.515491    21.577423    44.062203   -9.1218454    4.0203723    5.8843597    22357.325    768.25784    1345.4354    116.15429    804.09396    -178.1907     103.6969    23.515491    23.426337    44.634816    85.046014    84.832218    112.91619 
  242000    235.08504   -12704.846   -11494.661   -12704.846            0    766.76634     23.53817    21.650208    43.803484    -9.431214    3.8281839    5.7608945     22322.53    287.69832    68.651739     1943.949    777.30247    244.05671    559.69609     23.53817    23.615234     44.34623    85.145709    85.047784    113.53879 
  242500    235.67909   -12673.391   -11460.149   -12673.391            0    1068.8516    23.512478     21.73761    43.629242   -9.1196694    4.0706713    6.0859607    22299.127    1223.3234    103.89609    1879.3353   -936.15992   -938.93185   -203.84419    23.512478    23.573122     44.23935    84.763918    84.720477    112.75971 
  243000    235.80163    -12676.97   -11463.096    -12676.97            0    1370.7623    23.594757    21.558758    43.756314   -9.3438386    3.6414426      5.58838    22257.684    659.59475    1506.2165    1946.4757    236.23841   -11.193596    750.87133    23.594757    23.496539     44.26178    85.231588    85.280909    113.43252 
  243500     232.2669   -12713.326   -11517.648   -12713.326            0    1624.3074    23.483759    21.626171    43.672298   -9.2387084    4.0465197    5.9031058    22179.579     1036.703    1255.9533    2580.2658    659.04444    195.25675    583.88546    23.483759    23.516909    44.254837    85.023721    84.753731    113.13219 
  244000    233.99814   -12683.715   -11479.125   -12683.715            0    1189.1037    23.492187    21.620642    43.876394   -9.1181661     3.909499    6.0318941     22285.53     973.4535    654.83409    1939.0234    71.004741    177.95215   -246.41538    23.492187    23.464721    44.461285    84.788333    84.955444    112.86682 
  244500    240.83641   -12698.432    -11458.64   -12698.432            0     273.0432    23.362572    21.552752    44.399891   -9.4057647    3.8932485    5.6919092    22356.576    1095.6957    391.71819   -668.28426     731.9774   -293.25001    16.787795    23.362572    23.515729    44.932233    85.328296    85.029253    113.57678 
  245000     234.3183   -12675.864   -11469.626   -12675.864            0     953.5695    23.413776    21.626976    44.157873    -9.145001    3.8967048    6.0448321    22360.186    1415.8334     370.1438    1074.7313    -30.25965    196.19756    -216.8013    23.413776    23.480995    44.739714    84.806377    85.003366    112.92115 
  245500    233.30122   -12609.144   -11408.142   -12609.144            0    1476.6272    23.459453    21.618542    44.074176   -9.3486532    3.8696416    6.0079514    22352.623    897.24794    1490.4791    2042.1547    209.14854    728.27834    202.68322    23.459453    23.553316    44.649777    84.887884    85.028136    113.38543 
  246000    230.64418   -12699.952   -11512.629   -12699.952            0    943.69435    23.542883    21.547958    43.843044   -9.1418504    3.9153756    5.6890853    22241.623    864.63299    1045.1641    921.28594   -254.71616   -347.79003    383.04077    23.542883    23.407006     44.38365    85.207612    84.938981    112.98938 
  246500    235.07576   -12724.076   -11513.939   -12724.076            0    943.94092      23.5706    21.597151    43.758482   -9.2574459    3.9784198    6.1710482    22275.597    1661.0425    949.45079    221.32944   -302.92555   -1040.1572    -748.2211      23.5706      23.4976    44.370198    84.692157    84.855709    113.20201 
  247000    241.42597   -12698.423   -11455.596   -12698.423            0    619.03188      23.4757    21.653292    43.845977   -9.2916715    3.7017972    5.1434397    22288.059    491.84316     115.3507    1249.9018     398.3522   -102.47652    566.27741      23.4757    23.562687    44.301557     85.77106    85.206829    113.22472 
  247500    233.84749   -12745.174    -11541.36   -12745.174            0    677.00619    23.478678    21.698047    43.766506   -9.1937315    3.9420272    6.1985284    22296.472    804.46585    277.32941     949.2233   -376.41274   -406.95047   -876.17963    23.478678    23.565439    44.378693    84.609067     84.90387    112.96298 
  248000    237.40791   -12757.423    -11535.28   -12757.423            0    814.27209    23.548616    21.619296    43.738018   -9.2695228    4.0572887    6.0582124    22267.221    502.81366    1175.4304    764.57219    24.516157   -344.57665   -200.33775    23.548616    23.522712    44.341603     84.86441    84.750051    113.20779 
  248500    234.82093   -12671.996   -11463.171   -12671.996            0    849.44759    23.514377    21.536812    44.050643   -9.1898258    3.4462546    5.3910035    22308.335    863.12675    1631.2737    53.942358     597.8659     17.62972    836.52029    23.514377    23.415533    44.512906    85.353467    85.559633     113.1081 
  249000    236.97367   -12734.965   -11515.058   -12734.965            0     765.2953    23.474009    21.667259     43.83594    -9.364218    4.1508242     6.252907    22295.723    1035.2084    504.23521    756.44231    965.66861   -674.21878      27.8209    23.474009    23.604209    44.473788    84.719382    84.644681    113.37317 
  249500    232.25241   -12740.539   -11544.937   -12740.539            0    1170.8292    23.378386    21.631725    43.976805   -8.9951637    3.6802036    5.9476145    22239.723     1800.447    1442.9384     269.1022   -425.87126   -359.53169   -521.27967    23.378386    23.427431    44.529512     84.74462    85.259303     112.5791 
  250000    236.67043   -12681.498   -11463.152   -12681.498            0    1639.3417    23.510262    21.495473    44.008495   -9.4906232    4.1934609    5.6535612    22240.318    1563.2061    2018.4696    1336.3494    503.28262    141.74503    729.65888    23.510262    23.497389    44.567875    85.523994    84.600964    113.82229 
  250500    234.95188   -12687.468   -11477.969   -12687.468            0    994.23213    23.516069    21.598755    43.926868   -9.1125939    3.8465601    5.9535545    22311.238    1642.3267    395.74426    944.62548    -51.69722    -65.72542    314.98254    23.516069    23.442388    44.495062    84.855097    85.040638    112.87506 
  251000    239.51644     -12700.4   -11467.403     -12700.4            0    1353.2116    23.467614    21.691511    43.674678   -9.3382534     3.887473    5.9051385    22232.508    1170.7426    1181.5454    1707.3469    865.40876   -467.16879   -510.09673    23.467614    23.616194    44.243199    84.960147    84.959148    113.29201 
  251500    234.87467   -12683.127   -11474.025   -12683.127            0    1562.1167    23.517796     21.59045    43.802437    -9.332087    3.8510091    5.5417394    22241.116    1267.2244    1565.1486     1853.977    36.189314   -354.95512    545.29732    23.517796    23.520956    44.319235    85.393997     85.01514    113.37555 
  252000     222.9722   -12708.933   -11561.104   -12708.933            0    1335.6023    23.542823    21.558946    43.879895   -9.0607133    3.9115759    6.2122844    22271.611    1735.1507    916.62075    1355.0356   -60.460256   -503.75157   -219.04458    23.542823    23.385565    44.489752    84.568101    84.955995    112.79586 
  252500    234.17266    -12684.17   -11478.682    -12684.17            0    858.17585    23.481148    21.589478    44.071932   -9.5112798    4.0646982     5.700368    22342.077    640.11829     1382.528    551.88128    874.43486   -182.74734    279.59693    23.481148    23.591736    44.624557    85.401288     84.77388    113.77597 
  253000    238.93478   -12741.207   -11511.204   -12741.207            0    998.71382    23.388286     21.65056    44.031759   -9.0466371    3.6370523    5.9231509     22296.34    1722.5423    752.94353    520.65564   -723.10956   -22.581444    119.47193    23.388286     23.46462    44.576985    84.770496    85.320014     112.6775 
  253500    238.79176   -12698.175   -11468.909   -12698.175            0    565.74752     23.55457    21.621095    43.985641   -9.3728443    4.1208513    6.1478685    22400.814     421.4479    850.19124    425.60343    560.66616    10.091502   -446.35368     23.55457    23.565271    44.603972    84.852805    84.699025    113.43695 
  254000    236.10508   -12716.422   -11500.987   -12716.422            0    730.10664    23.599406    21.425031    44.141996   -9.1076401    3.6699159    5.4271402    22318.987    1032.8005    1718.1509   -560.63148   -999.35287    400.59858    394.29863    23.599406    23.280486     44.62553    85.425817     85.28278    113.03003 
  254500    233.75929    -12688.41    -11485.05    -12688.41            0    1000.7664    23.548966    21.653411    43.704972   -9.3246528    3.9910995    6.2015868     22285.84    106.44084    540.90647    2354.9518    731.00108   -582.41885   -322.49795    23.548966    23.575821    44.322828    84.669849    84.833739    113.29826 
  255000    232.52178   -12695.529    -11498.54   -12695.529            0    918.69007    23.424055    21.722982     43.76893   -9.1185645    3.8136328    5.7117519    22271.397    961.81054    691.80087    1102.4588   -715.22829    763.98807   -57.888033    23.424055    23.559206    44.304482    85.092007    85.061994      112.771 
  255500    236.71725   -12715.175   -11496.588   -12715.175            0    1647.4485    23.503637    21.602318    43.668593   -9.3513279      3.60723    5.6847164    22171.988    1701.0678    807.65201    2433.6258    -149.0794    352.06742     272.7829    23.503637    23.539488    44.184547    85.087278    85.317156    113.40708 
  256000    240.84743   -12671.707   -11431.858   -12671.707            0    670.98488    23.564912    21.619229    43.810859   -9.2694392    3.9167766    6.0676842    22319.672    611.85184    272.55751    1128.5453    267.10924    81.316742    91.489854    23.564912    23.522619    44.402132    84.788392    84.939278    113.20767 
  256500    229.84233   -12676.608   -11493.412   -12676.608            0    953.56193    23.580515    21.534416    43.913656   -9.2517028    3.7240648    5.4050472     22299.03    716.22371    886.47193    1257.9901    500.20872   -37.500592    479.62304    23.580515    23.437685     44.40149    85.483945    85.188807    113.24952 
  257000    232.33338   -12689.246   -11493.226   -12689.246            0    254.67484     23.48024     21.72281    43.937399   -9.2509538     4.035268    6.4906705    22410.568     512.0652   -389.87445    641.83377    158.63115   -572.22159   -937.26691     23.48024    23.610604    44.597166    84.350023    84.808628    113.06739 
  257500    229.81115   -12740.539   -11557.503   -12740.539            0    972.94611    23.399928    21.645508    43.890189   -9.1464417    3.6989676    5.5608885    22230.526    1889.2681    119.56913    910.00112     297.3714   -645.08619    113.63814    23.399928    23.498625    44.395434    85.241859    85.220652    112.90679 
  258000    233.36733   -12696.376   -11495.034   -12696.376            0    903.89091     23.66618    21.506145    43.837434    -9.428929    4.2929662    5.8861288    22311.864    109.02042    1943.5305    659.12183    480.89675    30.213097    202.77868     23.66618    23.482312    44.438685    85.266661    84.456338    113.67406 
  258500    230.55902   -12695.743   -11508.857   -12695.743            0    1460.0685    23.496209    21.561213    43.926102    -9.142189     3.659263     6.093648    22253.261      906.056    2282.8982    1191.2512   -859.74418    845.47882    -780.5626    23.496209    23.419341    44.497474    84.607602    85.282938    112.97747 
  259000    238.05779   -12716.306   -11490.818   -12716.306            0    904.55583    23.416956    21.701046     43.87021   -9.2666414    4.0883725    5.7650017    22293.632    945.97941    368.63486    1399.0532    272.26579   -73.619689     478.9225    23.416956    23.596738    44.435856    85.228436    84.720969    113.12314 
  259500    230.40505   -12724.195   -11538.102   -12724.195            0     1602.792    23.351582    21.668195    43.910488   -9.1312139     3.400819    6.1817851     22218.12    2202.8074    582.12579    2023.4427   -984.70813    1086.7177   -114.37673    23.351582    23.513608    44.473711     84.35329    85.614421    112.85109 
  260000     229.1965   -12741.485   -11561.613   -12741.485            0    1198.2911    23.538809    21.483903    43.930473    -9.324633    4.1409009    5.7594774     22215.88    2216.8511    1026.1198    351.90253   -234.63294   -312.44402   -122.59222    23.538809    23.420223    44.499495    85.314986    84.660616    113.46223 
  260500    234.49673   -12728.042   -11520.886   -12728.042            0     1815.782    23.567681    21.467054    43.825452   -9.1961796    3.7242529    5.8867721    22172.553    1366.6786    3197.7711     882.8963    3.4825702    5.5441318   -14.516527    23.567681    23.353889    44.375606    84.900123     85.18575     113.1896 
  261000     234.8389   -12689.239   -11480.321   -12689.239            0    1041.0787    23.448692    21.682908     43.75328   -9.2677712    4.1156759    5.9108628    22245.735    1242.3971     902.4228     978.4163    252.99503   -243.63045    -197.8468    23.448692    23.580502    44.342153     85.06102    84.674351    113.14297 
  261500    236.97312   -12681.379   -11461.474   -12681.379            0   -132.89244    23.488704    21.764192    43.842456   -9.2463256    3.8110061    5.9205943    22412.819   -600.67503    92.612879    109.38484    386.28636   -202.46765   -7.3758207    23.488704    23.646872    44.404258    84.884759    85.076519    113.01779 
  262000     230.4091   -12658.849   -11472.736   -12658.849            0    111.13972      23.6147    21.530843     44.12138   -9.2333584    3.8905128     5.876259    22433.269   -245.62841    398.53768    180.50989    271.00864   -23.947358    174.05942      23.6147    23.427166    44.680675    85.034683    85.004717    113.21175 
  262500    231.59711   -12717.392   -11525.163   -12717.392            0    1117.8717    23.581381    21.465153    44.039079   -9.3791245    4.0788231    5.8897277    22291.611    743.53488    2105.8916    504.18862   -320.72906   -24.866972    -266.0647    23.581381     23.42479    44.618003    85.160898    84.754896    113.60276 
  263000     239.7636   -12692.033   -11457.764   -12692.033            0    1618.9494    23.315964    21.707998    43.970701   -8.9875818    3.7280086    5.9624767    22255.459    2056.9273    1368.0657    1431.8552   -331.15634   -519.89472    -89.26879    23.315964    23.494974    44.529448    84.739166    85.197572    112.49061 
  263500    239.70697   -12705.585   -11471.608   -12705.585            0    1292.4547    23.394245    21.681277    43.876263   -9.2679316    4.0084575    5.8148326     22254.79    2011.5871    309.77946    1555.9974    398.00742   -518.07607    345.44752    23.394245    23.579065    44.441044    85.132029    84.825048    113.14489 
  264000    237.84937   -12710.702   -11486.287   -12710.702            0     861.5445    23.524329    21.511708    44.094243   -9.1646397    3.7039087    5.9660246    22313.825    760.43169    1864.7959   -40.594053    182.15128   -127.51824    -120.7517    23.524329    23.382562    44.649913    84.812602    85.241592    113.07547 
  264500    228.26327   -12684.558   -11509.491   -12684.558            0    641.29112    23.643153    21.499964    43.876927   -9.2385548    4.3411454    5.9504347    22303.824   -274.16193    1557.5121    640.52316     67.44935    268.79612   -56.609355    23.643153     23.40084    44.490875    85.160831    84.400522    113.25324 
  265000    231.63011    -12736.02   -11543.621    -12736.02            0    309.41834    23.450712    21.652587    43.874687   -9.2931219    3.6406581    5.7765006    22278.187    879.05528   -289.26403    338.46378    42.520177   -561.16621    445.95598    23.450712    23.562611    44.402821    84.996882    85.296948    113.22863 
  265500    232.33816   -12689.038   -11492.994   -12689.038            0    1851.7195    23.359933    21.749645    43.698599   -9.1285916    3.6650344      6.16345    22201.958    2317.8707    803.92821    2433.3598    189.40315    113.87042   -204.53023    23.359933    23.587671    44.283045    84.473432    85.252551    112.76839 
  266000     229.1669   -12701.103   -11521.384   -12701.103            0    1506.3495    23.548622    21.513696    43.816524   -9.2629738    4.2073901    5.5969894    22198.235     1559.122    2009.8113    950.11526     134.7653   -270.10481   -7.0382818    23.548622    23.423104    44.372471    85.505904     84.55905    113.29486 
  266500    238.83351   -12711.591    -11482.11   -12711.591            0    1377.5271    23.506837    21.552344    43.951064   -9.2225023    3.6544852    5.9090835    22266.815    1676.0993    1197.9608    1258.5211   -261.83585   -295.74349    103.75866    23.506837    23.442655    44.496838    84.849081    85.289043    113.16665 
  267000    234.98172   -12660.746   -11451.094   -12660.746            0    633.15811    23.478873    21.742159     43.81215   -9.2518058    4.3750761    6.0825895    22365.287     284.2102    966.18222    649.08191   -676.44008   -102.23292   -292.46192    23.478873    23.628741    44.448214    84.987104     84.35118    113.05091 
  267500    238.03789   -12703.843   -11478.458   -12703.843            0    106.26892    23.424361     21.71393    43.990098   -9.1732247    3.3778385    5.6187308    22374.901    415.30184   -155.79377    59.298688    774.48281    706.61567    623.72235    23.424361    23.572077    44.475934    85.019429    85.644331    112.90202 
  268000    229.33654   -12693.775   -11513.183   -12693.775            0    379.57896    23.573429    21.564774    43.956174   -9.4010897    4.0389554     5.988696     22345.37   -70.098924    903.24339    305.59242    885.53305    170.70064   -273.75065    23.573429     23.52488     44.54574    85.008732    84.797856    113.55463 
  268500    237.19578   -12725.722   -11504.672   -12725.722            0    1044.8001    23.519962    21.531138     44.03962    -8.837107    3.9402233    5.9642992    22302.173    839.50537    1009.0418    1285.8532   -1254.5039   -130.15615   -54.980105    23.519962    23.274114    44.615988    84.828515    84.933371     112.3149 
  269000    226.66282   -12724.572   -11557.743   -12724.572            0    747.43631    23.419405    21.615605    43.958006    -9.440409    3.8723125    5.8374449    22252.624    1070.2475    917.23608    254.82538     56.56682    283.33666    361.49729    23.419405    23.587194    44.512659    85.103176    85.009331    113.59284 
  269500    247.31701   -12685.596   -11412.443   -12685.596            0    1225.8708    23.463538      21.6484    43.944623     -9.14609    3.8937352    5.9196783    22321.585    2106.0338    943.22465    628.35381   -18.066339   -11.592981    139.59924    23.463538    23.501153    44.512174     84.92486    84.981595    112.90325 
  270000    233.99574   -12702.589   -11498.012   -12702.589            0    1792.6368    23.574222      21.5012    43.761698   -9.2507341    3.9960493    5.8567593     22181.67     1821.308     2302.334    1254.2686    454.80534   -1044.4225   -431.54907    23.574222    23.406788    44.332338    85.081948    84.828427    113.27944 
  270500    232.81994   -12713.885   -11515.361   -12713.885            0    709.83519    23.494482    21.586937    43.924707   -9.4256876    3.8257579    5.8541788    22277.465    827.46449    966.42817    335.61291    727.60492   -748.30453    305.57623    23.494482     23.55503    44.477946    85.054779    85.065622    113.58793 
  271000    230.56791   -12714.338   -11527.407   -12714.338            0    1083.4077    23.422171    21.603004    43.980606   -8.9050611    3.8324493     5.977001    22253.714    1599.9781    616.12608     1034.119   -575.07177     301.1478    129.25872    23.422171    23.366426    44.550038    84.764256    85.064989    112.40214 
  271500     236.4391   -12676.303   -11459.148   -12676.303            0    544.42903    23.496689    21.611449    44.025453   -9.5191245    3.9594704    5.9933938    22356.016    558.46022    895.36449    179.46239    750.28766   -86.089637   -185.56607    23.496689    23.615005    44.607608    84.998657    84.907597     113.7719 
  272000    237.16557   -12673.901   -11453.006   -12673.901            0    671.29234    23.520267    21.567616    44.074783   -9.1395289    3.7522815    5.5926487    22358.083    423.51538    1672.2353   -81.873672    346.74325    23.712507   -589.59037    23.520267    23.424198    44.586363    85.258745    85.172414    112.96537 
  272500    235.28659   -12698.596   -11487.373   -12698.596            0    830.05004    23.550164    21.649207    43.802149   -9.3016676    4.3283154    6.4786944    22332.192    375.35002    1460.9606    653.83955    1026.4943   -896.59683   -847.01915    23.550164    23.562877     44.48973    84.526226    84.416979    113.25097 
  273000    232.06599   -12673.488   -11478.845   -12673.488            0    1144.1906    23.447739    21.597448    43.969822   -9.2228691    3.4959745    5.4325799    22266.816    1538.0057     718.7506    1175.8154    21.884327    879.76657    441.18978    23.447739    23.484273    44.441872    85.323743    85.488225    113.12418 
  273500    234.30623   -12718.311   -11512.135   -12718.311            0     859.2113    23.538564    21.610644    43.798822   -9.2856088    4.0818852    5.8582172    22279.739    579.26061    1022.6242    975.74905    688.05072   -152.95782    120.14042    23.538564    23.521107    44.376991    85.125385    84.722358    113.25211 
  274000    235.45761   -12691.578   -11479.476   -12691.578            0     1151.342    23.559872    21.622692    43.760508   -9.1800859    3.7245521    6.4287833    22292.823    378.32092    1392.7269    1682.9783   -211.35146    518.65738     -188.668    23.559872    23.490739    44.386751    84.230556    85.186574    113.00404 
  274500    232.37492   -12707.139   -11510.906   -12707.139            0    88.786253    23.517339    21.590032    44.017353    -9.295728     3.991377     5.467429    22349.375    652.06154     458.4785   -844.18128    223.76225    451.12691    453.84618    23.517339     23.50617    44.534832    85.565613     84.85804    113.29461 
  275000    237.68445   -12704.197   -11480.631   -12704.197            0    1157.7912    23.473323     21.60178    43.881827     -9.26497    3.7915863    6.0009828    22250.964    1565.1164    1452.6502    455.60697   -418.66041   -790.46941   -157.36448    23.473323    23.504821    44.452251    84.810669     85.10697    113.21442 
  275500    227.85677   -12723.223   -11550.248   -12723.223            0    909.90344    23.337059    21.737377    43.901842   -8.9870981    4.2133901     5.992366    22270.809    1437.1301    606.58561    685.99461   -557.74301   -478.60657    222.90958    23.337059    23.521936    44.508795    84.937043    84.568006    112.46215 
  276000    232.38023   -12675.553   -11479.293   -12675.553            0    789.26401    23.491452    21.566726    44.024007     -9.38817    3.7321656    5.7583981    22304.046    1939.7944    361.68243    66.315208   -270.98959   -253.54953   -10.127155    23.491452     23.52151    44.555599    85.120117    85.195033    113.52388 
  276500    230.51643   -12740.176    -11553.51   -12740.176            0    755.47066    23.551965    21.548514    43.987479   -9.0600342    3.9130223    6.1050322    22324.079    1046.1146    954.97028    265.32716   -66.920895     -541.072   -453.77929    23.551965    23.375685    44.581179    84.708756      84.9645    112.80423 
  277000    236.96096   -12698.844   -11479.003   -12698.844            0    449.40435    23.495252    21.693978     43.93677   -9.3445693    4.0350118    5.7908512    22394.812    231.93282    586.03292     530.2473    96.075324    6.9208678    74.623064    23.495252    23.620958    44.500056     85.20194    84.797599    113.30371 
  277500    232.81987   -12741.229   -11542.705   -12741.229            0    669.31802    23.443109    21.670493    43.936502   -9.2218879    3.5333793     5.996994    22320.786    885.29054    296.83416    825.82936   -163.91957    443.75012     175.1634    23.443109    23.551083    44.484434    84.667004    85.444222     113.0522 
  278000    229.20639    -12684.61   -11504.688    -12684.61            0    506.31795    23.583236     21.60341    43.883604   -9.1722088    4.5333003    5.8901854    22357.744    590.03787    288.52091    640.39507    88.035403   -281.04712    406.13248    23.583236    23.469911    44.508603    85.295945     84.15416    113.00473 
  278500    236.55912   -12671.351   -11453.578   -12671.351            0    1030.7476    23.583537    21.509158    43.868101   -9.3354092    3.2124188    5.8907643    22252.621    446.87708    956.50164    1688.8641    158.61581    895.71323    90.843751    23.583537    23.447681    44.378272    84.666914    85.848888    113.46182 
  279000    235.62698   -12673.376   -11460.401   -12673.376            0    728.76372    23.523832    21.651556    43.804792   -9.2550539    4.0923171    5.9396448    22310.989     762.1259    518.95109    905.21417    156.98224   -698.36551    -222.9971    23.523832    23.546675    44.394665    85.020909    84.710945     113.1445 
  279500    231.78807   -12710.129   -11516.917   -12710.129            0    1395.5395    23.368224    21.682387    43.800828    -9.097354    3.6948922    5.9449337    22192.954    1416.8392    1439.3082    1330.4712    -135.2877    703.65887   -610.22591    23.368224    23.513565    44.356589    84.758158     85.22174    112.76163 
  280000    245.46142   -12665.673   -11402.072   -12665.673            0    1961.7053    23.562946    21.467708     43.93219   -9.4248834    3.8919875    5.8036469    22222.766    1974.4219    1871.9432    2038.7509     613.5569   -240.40594    145.27838    23.562946    23.445489     44.48446    85.164891    84.980721    113.70273 
  280500    242.02478   -12679.321   -11433.412   -12679.321            0    1269.9358    23.591861    21.469551    43.985589   -9.1309899    4.0759894    5.9866686    22278.995    1124.0159    2302.6595    383.13206   -399.92085    454.24808   -603.42757    23.591861    23.330594    44.577864    84.963011    84.753817    113.04003 
  281000    236.41476   -12728.678   -11511.648   -12728.678            0      1015.78    23.334175    21.661107    44.013112   -9.2895112    3.7011442    5.9436754    22246.166    446.40488    1781.2877    819.64755    538.99661    153.13586   -65.501356    23.334175    23.569017    44.566577    84.845724     85.23624     113.2124 
  281500    229.20179   -12684.887   -11504.989   -12684.887            0    1404.6625    23.385616    21.689179    43.805509   -9.1764299    3.9515161    5.9140867    22218.803    2089.3632    735.12193    1389.5023    -306.2319    701.88911    575.01446    23.385616    23.550528    44.379201    84.949385    84.891629    112.93264 
  282000    233.95588   -12689.149   -11484.777   -12689.149            0    1259.4682    23.530715    21.522266    43.989396   -9.1983647    3.8513598    5.9111656     22277.74    903.15118    2600.5565    274.69679   -135.52439   -881.10188   -229.94839    23.530715    23.405509    44.551563    84.949605    85.040748     113.1413 
  282500    238.84136   -12718.584   -11489.062   -12718.584            0    773.13536    23.584407     21.44313     44.05709   -9.4777499    3.7100063    5.8707704    22280.706    675.98843    673.12105    970.29659    904.54031   -284.80766   -123.19911    23.584407    23.444307    44.601091    85.022469    85.228511    113.84518 
  283000    236.77869   -12718.032   -11499.128   -12718.032            0    107.17612    23.518295     21.65678    43.990699   -9.1078212    4.1592183    5.8286931    22405.806    564.56651   -542.61937    299.58122    -956.2621   -39.127534    239.43681    23.518295    23.494011    44.569658    85.159993    84.645395    112.80933 
  283500    235.20595   -12729.334   -11518.527   -12729.334            0   -93.807071    23.455166    21.770029     43.92982   -9.2949687    3.8198109     6.257089     22431.43    210.98847   -471.17745   -21.232232    549.31404    105.99382   -974.69817    23.455166    23.671304    44.537301    84.518234    85.079894    113.12063 
  284000    239.54009   -12703.189   -11470.071   -12703.189            0    710.02967    23.487751    21.603092    44.037518   -9.2234281    3.8554027    5.7150268    22344.991    547.76131    703.40771    878.91998    145.05773   -218.69848   -239.23367    23.487751    23.489683    44.573856    85.184109    85.038018    113.12003 
  284500    230.24224   -12648.257   -11463.003   -12648.257            0    844.63449    23.610579     21.55748    43.922564   -9.2056966    3.9306539    6.0516785    22355.908    92.137262    767.34327    1674.4229    50.339467    268.88319    652.22335    23.610579    23.440772    44.511397    84.815981    84.933801    113.12395 
  285000    232.29247   -12728.615   -11532.806   -12728.615            0    896.43744    23.531107    21.652535     43.64374   -9.3905262    3.8617857    5.7172388    22236.839    492.66483    1124.1388    1072.5087    1484.2357    572.18544    102.32144    23.531107    23.601149    44.185702    85.185308     84.98601    113.44598 
  285500    234.14303   -12714.212   -11508.877   -12714.212            0    1480.6995    23.389864    21.737021    43.654667   -9.1473845    3.7597913    5.8053637    22195.166    1122.0778    1141.4951    2178.5256   -158.12994    1228.0347    631.73803    23.389864    23.583315    44.199188    84.947519    85.120254    112.82236 
  286000    231.74237   -12719.571   -11526.594   -12719.571            0    1944.4535    23.519116    21.588539    43.611598   -9.3242548    3.9988579    5.9424729      22143.5    1992.3409    1668.5015    2172.5182    138.12698   -962.84919   -525.95939    23.519116    23.516096    44.195875    84.976717    84.808759    113.35988 
  286500    234.41688   -12661.966   -11455.221   -12661.966            0    1763.0638    23.624358    21.387238    44.008311   -9.1702154    3.8450636    5.7848089    22235.629    919.88063    2804.0369    1565.2739   -188.39168    709.47856    179.48217    23.624358    23.270299    44.553114    85.105335    85.049048    113.20822 
  287000     239.9224   -12722.649   -11487.562   -12722.649            0    869.13701    23.480345    21.596564    44.030946   -9.2759744    3.9541237    5.9500307    22327.863    882.50672    551.30711    1173.5972    37.996768   -8.6272922   -347.54353    23.480345    23.504367     44.60675    84.975691    84.914394    113.24408 
  287500    238.01821   -12622.816   -11397.532   -12622.816            0    427.37766     23.34281    21.832263    44.008465   -9.1612477    3.9450828    5.8752441    22427.874     1021.744   -180.16427    440.55321    534.24457    162.20115    440.52807     23.34281     23.67649     44.57384    84.991934    84.922296    112.76388 
  288000    231.80185   -12748.543    -11555.26   -12748.543            0    601.24339    23.438075    21.607357    44.055871   -9.2749669    3.7727802    5.7519407    22311.428    1478.3487    120.08146    205.30005   -319.05581    147.55566    45.205217    23.438075    23.513887    44.589668    85.114579    85.146339    113.23145 
  288500    241.37677   -12680.239   -11437.666   -12680.239            0    934.28765    23.664252    21.444138    44.041852   -9.2107665    3.9975371    6.0498732    22349.455    9.3704588    1544.9965     1248.496    198.33519   -114.33206    336.68533    23.664252    23.338579    44.634807    84.882794    84.861649    113.24467 
  289000    239.05506   -12668.343   -11437.721   -12668.343            0    995.73483    23.552095    21.575508    43.934505   -9.3126819    3.8216915    5.8025387    22325.248    629.44137    1413.0307    944.73242    2.2651806   -10.174846    125.00906    23.552095    23.499544    44.480507     85.08247    85.071165    113.34658 
  289500    235.07943    -12714.52   -11504.365    -12714.52            0    1194.4704    23.337526    21.806311    43.727016   -9.1697173    3.8536054    5.9353496    22252.913    1789.8545    305.39924    1488.1574    469.16667   -474.10709    -39.92278    23.337526    23.655843    44.295943     84.84823    85.009141    112.80712 
  290000    237.34826   -12682.137   -11460.302   -12682.137            0    1332.3279    23.517491    21.677596    43.649003   -9.2408367    3.9053224    6.0024427    22252.378    989.61888    401.80676     2605.558    131.04378    426.87867   -90.627659    23.517491    23.565042    44.232526    84.824286    84.934718    113.08783 
  290500    237.98663   -12732.161   -11507.039   -12732.161            0    1753.8892    23.600178    21.468663    43.788021   -9.2903104    3.8225977    5.7267962    22185.826    585.17693    1842.0599    2834.4307    472.68709    488.93381    556.91052    23.600178    23.392592    44.326056    85.162965    85.052772    113.39998 
  291000    243.17181   -12712.923   -11461.109   -12712.923            0    2282.3261    23.523433    21.529949    43.714541   -9.1976688    4.1458466     6.095865    22139.593    2403.2358    2405.1558    2038.5869   -566.32736    282.13156   -453.52714    23.523433    23.412301    44.331802    84.853038     84.63394    113.13234 
  291500    232.11738   -12636.359   -11441.451   -12636.359            0    1763.9224    23.386804    21.657668    43.953913   -9.3007692    3.5878472    5.7665567    22262.817    3133.9598    1289.5931    868.21426    38.384519   -159.06046   -346.60614    23.386804    23.570297    44.475525    84.991499    85.372913    113.24084 
  292000    232.65124   -12708.247   -11510.592   -12708.247            0    1245.8171    23.457298     21.56282    44.073911   -9.1419335     4.157064    5.7341589    22292.826    1409.7912    1760.4187    567.24137    43.678315   -662.05647   -402.75423    23.457298     23.42072    44.639348    85.301348    84.656556    112.97536 
  292500    230.29302   -12672.408   -11486.892   -12672.408            0    990.27466    23.563768    21.501835      44.0355    -9.357686      3.69511    6.1460278    22311.214   -422.77696    2165.8568    1227.7441    1166.4977   -242.06148   -853.49523    23.563768    23.449845    44.615611    84.648717    85.249264    113.51887 
  293000    232.61195   -12720.029   -11522.575   -12720.029            0    1021.2177    23.570091    21.538474    43.861933   -9.2384067    4.1500122    5.6089296    22267.115    965.34021    691.58995    1406.7229    974.54892   -1055.4799    773.83411    23.570091    23.436169     44.41342     85.45573    84.638432    113.21574 
  293500    232.63485   -12683.584   -11486.012   -12683.584            0    528.18757    23.526012    21.738269    43.663827   -9.2027376    3.6958924     6.114839    22330.327    259.56014    151.63875    1173.3638    158.87657   -241.11135   -985.84272    23.526012    23.605989    44.244556    84.565641    85.208313    112.94502 
  294000    231.38805   -12657.675   -11466.522   -12657.675            0    1540.0572    23.476467    21.657017    43.805422   -9.3279428    3.8682896    5.7626374    22272.002    850.65059    1255.2307    2514.2902    265.17665    219.19134    983.00601    23.476467    23.580435    44.351851    85.133746    84.996406    113.30214 
  294500    242.09747   -12669.122   -11422.838   -12669.122            0    968.99329     23.63348    21.490771    43.891843   -9.0669195    3.8989675    5.7215002    22292.742    88.340885    1527.6888    1290.9502    210.36504   -514.87633    84.458001     23.63348    23.325143    44.434574     85.15115    84.966036     112.8748 
  295000    234.28739   -12642.562   -11436.484   -12642.562            0    803.93173    23.566819    21.602904    43.922971   -9.3409597    3.9173736    6.1114085    22361.699    1249.3759    882.51333    279.90592    -207.3082    60.960945   -533.64883    23.566819    23.535909    44.518788     84.77429    84.951803    113.38335 
  295500    235.62143   -12699.285   -11486.339   -12699.285            0    1074.6245     23.36117    21.640863    44.021678   -9.1133627    3.8336621    5.5707934    22255.418    1879.2031    399.63266    945.03775   -288.55603    130.02711     322.6487     23.36117    23.481489    44.538061    85.304052    85.062093    112.83685 
  296000    238.49966   -12674.367   -11446.604   -12674.367            0    991.14699    23.381595    21.729521    43.951879   -9.2059022    4.0856919    6.3441184    22330.669    1408.9646    718.16876    846.30757   -268.73802    369.44831   -348.19775    23.381595    23.599168    44.594937     84.53425    84.743313    112.96037 
  296500    227.14297    -12700.31    -11531.01    -12700.31            0     1811.006     23.48131    21.579594    43.899119   -9.1815295     3.742862    5.6940095    22244.436    2031.5399    1144.1611     2257.317   -241.90151    512.44466    628.20116     23.48131    23.451639    44.424806    85.126554    85.167008    113.04843 
  297000    230.52623   -12679.207   -11492.491   -12679.207            0    1539.7742    23.716416    21.435524    43.636822   -9.4308073    4.0075481    5.7321356    22183.816    1010.5221    1516.3909    2092.4095   -457.44805   -122.12243   -206.82332    23.716416    23.418407    44.193778    85.284734    84.797199    113.74765 
  297500    238.26814   -12693.394   -11466.823   -12693.394            0    348.71887    23.564375    21.655881    43.810158   -9.2157759    3.7690505    6.0007497    22356.643     574.5539    -79.55466    551.15736   -551.44951   -135.83734    324.78606    23.564375    23.535244    44.379552    84.769563    85.128136    113.05244 
  298000    229.88073   -12740.165   -11556.771   -12740.165            0   -357.49066    23.398047    21.783942    43.872598   -9.2893477    4.0733238    5.4320154    22361.938     206.2321   -676.15297    -602.5511    613.34984     -503.479    448.16319    23.398047    23.681894     44.39486    85.609111    84.735585     113.0949 
  298500    233.99023   -12687.454   -11482.905   -12687.454            0   -213.74007    23.574062    21.680161     43.91476   -9.2315403    3.7154205    6.1331013    22444.371   -457.50346   -882.85507    699.13832    268.96274   -146.03522       442.69    23.574062    23.563758    44.496353    84.600281    85.210258    113.06459 
  299000    235.15055   -12713.043   -11502.521   -12713.043            0    815.95325    23.606825    21.523593    44.039916   -9.2973619    4.1532103    5.7490603    22376.845    537.00794    1037.8178    873.03399     746.4527   -535.96787    512.84414    23.606825     23.44581    44.607343    85.331292    84.657683    113.36248 
  299500    226.55081   -12724.267   -11558.015   -12724.267            0     505.5057    23.397138    21.702471      43.9684   -9.2114792    3.4181881    6.0712118    22326.085    645.45909    72.357541    798.70047    451.42208   -445.34474   -304.07758    23.397138    23.576442    44.517006    84.517628    85.596274    112.99849 
  300000    240.84772   -12660.667   -11420.817   -12660.667            0    950.05205    23.411894    21.715894    43.909271   -9.2715558    4.1250021    6.0043887    22323.922    750.68292    1273.7703    825.70293    474.15721   -479.51169   -418.23753    23.411894    23.612323    44.509464    84.970051     84.68237    113.11996 
  300500    233.13534   -12700.097   -11499.949   -12700.097            0    1185.7174    23.448642    21.516508    44.149988     -9.12152    3.7641959      5.79965    22275.121    1046.0471    2148.6626    362.44236   -63.546462    24.954896    220.82605    23.448642    23.370114    44.688103    85.031361    85.168101    112.97361 
  301000    239.85253   -12708.515   -11473.788   -12708.515            0    1222.3059    23.587225    21.479668    44.023891   -9.3461918    4.1089538    6.0633689    22304.518    1513.2639      1968.72    184.93385     223.5366    178.42621    -664.5364    23.587225    23.424932    44.629037    84.960351     84.71735    113.51473 
  301500    227.35386   -12689.853   -11519.467   -12689.853            0    1281.9583    23.450539    21.575499    43.968992   -9.2557747     3.820635    5.7431251    22246.422    1929.2346    1209.2273     707.4131     176.8757    -368.3069     134.7398    23.450539    23.477042    44.506774    85.138701    85.075446    113.21908 
  302000    229.86976   -12685.334   -11501.997   -12685.334            0    897.62855    23.369635    21.797768    43.763437   -9.1499015    3.8403951    6.1157914    22293.353    1357.1361     265.1757    1070.5738    474.66066   -420.94597    -531.9359    23.369635    23.640292    44.355269    84.627877    85.032963    112.77087 
  302500    223.95249   -12701.798   -11548.923   -12701.798            0    1289.8271    23.543627      21.5967    43.757278   -9.3454429    4.0071702    5.7683053    22249.028    1063.1745    1578.0028     1228.304    507.33319    -714.0514    277.05798    23.543627    23.531994     44.31738    85.207612     84.81224    113.39937 
  303000    231.72709    -12688.09   -11495.192    -12688.09            0    602.83137    23.633409    21.514152    43.869292   -9.2199747    3.4172436    5.8541029    22305.463   -373.78076    1404.3404    777.93444   -214.22898    1096.7023    -224.1294    23.633409    23.406552    44.389896    84.785016    85.584861    113.19774 
  303500    233.18605   -12643.544   -11443.135   -12643.544            0    709.74112     23.55789    21.649942    43.831342   -9.3487837    4.3513627    5.9110661    22355.165    1043.4725    544.05032    541.70059    367.60418   -1312.0887   -340.96635     23.55789    23.582191    44.441665    85.222096    84.381066    113.35544 
  304000    233.15806   -12697.923   -11497.659   -12697.923            0     853.8999    23.435007    21.676454    43.770299   -9.1257765    3.6034409    5.8967691     22234.78    949.50041    994.93384    617.26546       114.17    -63.35484   -260.65446    23.435007    23.519108    44.312478    84.773475    85.335621    112.83107 
  304500    233.79983   -12717.638   -11514.069   -12717.638            0    622.65709    23.504714    21.729113    43.746121   -9.3466175    4.0098526    6.0167058    22342.745    1153.7233     242.1062    472.14183    657.40496   -241.74966    -366.7969    23.504714     23.65404    44.339629    84.898586    84.811369     113.2746 
  305000    244.65112    -12684.98   -11425.551    -12684.98            0    201.32974    23.605676    21.569077    44.031956    -9.180543    3.8081803    5.5813669    22418.987    282.65688    254.79862    66.533707    408.39728   -405.99507    237.95634    23.605676    23.441575    44.547357    85.307782    85.096021    113.05628 
  305500    235.77821   -12676.884   -11463.131   -12676.884            0      650.115    23.567625    21.585873    44.023822   -9.3334795    4.0037271    5.9131286    22396.141    900.15674    453.69251    596.49574    761.02344   -428.95563    294.71438    23.567625    23.517308    44.599236    85.062636    84.849555    113.38309 
  306000    234.77612   -12720.338   -11511.744   -12720.338            0    1181.2796    23.270772    21.735468    44.041307   -9.0405658    3.6009256    6.2006017    22276.143    2837.7281    413.39325    292.71759   -224.26728    389.56354   -769.52731    23.270772    23.540655    44.621193    84.415548    85.371203    112.58419 
  306500    230.81858    -12704.91   -11516.688    -12704.91            0     1191.291    23.403495    21.634838    43.981415   -9.2379641    3.9033699    5.6582619    22269.146    1394.5981    1265.1257    914.14939     -403.361    388.18796    420.28007    23.403495    23.524587    44.515358    85.269809    84.969507    113.12223 
  307000    239.22063   -12710.322   -11478.848   -12710.322            0    577.02434    23.648125    21.507669    43.942521   -9.3279554    4.0397284    6.1133387    22349.871    5.4984406    911.77799    813.79659    51.014594    216.45263    354.50454    23.648125    23.443348     44.54927    84.847041    84.797271    113.44656 
  307500    232.10116   -12699.741   -11504.917   -12699.741            0   -5.6342895    23.608102    21.583895     43.94429   -9.2180152    3.7338408    5.6933959    22392.023   -386.14648    -348.3051    717.54871    795.87909    28.248196    652.90749    23.608102    23.469902    44.468607    85.137486    85.183445    113.12628 
  308000    235.61041   -12716.042   -11503.153   -12716.042            0    518.16217    23.468967    21.671075    43.866949   -9.2675463    3.9541187    5.8867104    22310.632    905.16273   -670.95973    1320.2835    616.38088   -567.90956    607.16815    23.468967    23.569534    44.436445    85.019543    84.894858    113.15377 
  308500     243.5845   -12707.991   -11454.053   -12707.991            0    397.05695    23.367204    21.796515    43.938985   -9.0774307    3.3205129    6.0450797    22379.162    756.48792    250.96503     183.7179    251.86478    702.89529   -229.22392    23.367204     23.61118    44.476996    84.446989    85.718493     112.6099 
  309000    236.65775   -12719.781     -11501.5   -12719.781            0    968.88697    23.613763    21.548141    43.825462    -9.289409    4.3010464    5.7529645    22299.828     1549.374     1028.269    329.01789   -315.31002    -1209.442   -83.354568    23.613763    23.465197     44.41021    85.375914    84.442299    113.32089 
  309500    229.76615   -12668.644    -11485.84   -12668.644            0    1052.9726    23.636782    21.492208    43.945659   -9.3387493    3.5590511    5.9672536    22324.686    717.79322    1831.7391    609.38544   -539.15695    85.122322   -426.33932    23.636782    23.433464    44.491526    84.771321    85.411784    113.48581 
  310000    245.46856   -12728.377   -11464.739   -12728.377            0    888.70148    23.438855    21.682784    43.826963   -9.1529301     4.332404    5.8232181    22273.723    584.27834    568.87118    1512.9549    448.48297   -547.41405   -9.8366625    23.438855    23.535489    44.423893    85.248336     84.40338    112.88601 
  310500    239.76631   -12644.517   -11410.234   -12644.517            0    1446.5604    23.389202    21.702287    43.947144   -9.2014005    3.8114689    5.9737696    22307.534    1734.7345    1377.6147    1227.3321    599.27106    219.50404    473.69971    23.389202    23.572336     44.51477    84.828988    85.088174    112.97612 
  311000    238.51704    -12722.46   -11494.608    -12722.46            0    430.40415     23.41788    21.543581    44.199222   -9.2857707    3.7493513    5.6583335    22298.728    651.34279    806.66326   -166.79361    121.99202    525.71993    353.73406     23.41788     23.45957    44.717397     85.23821    85.190362    113.31714 
  311500    234.31817   -12707.816   -11501.579   -12707.816            0    1648.9572     23.56868    21.463587    43.952376    -9.138658    4.1187792    6.0382103    22234.118    1681.5637    1509.0676    1756.2404   -752.66803     108.5929    279.19447     23.56868    23.328108    44.555984    84.924118    84.695975    113.06309 
  312000    234.35035   -12705.887   -11499.484   -12705.887            0    1113.1396    23.485125     21.62285    43.834974   -9.3080827    3.5523324    5.9023214    22260.072    1186.2101     673.2675     1479.941   -481.98121     960.9585    1057.0907    23.485125    23.541199    44.372981     84.80631    85.408204    113.29064 
  312500    231.52968   -12650.065   -11458.183   -12650.065            0    1492.3272    23.421217    21.709615     43.63759   -9.1901954    4.2460179    5.6778485    22188.214    1939.2807    665.49039    1872.2105    299.40608   -689.49769     -114.615    23.421217    23.574712    44.209794    85.363809    84.488677    112.94409 
  313000    238.16885   -12732.427   -11506.367   -12732.427            0   -268.25166    23.559501    21.638446    43.782851   -9.2595169    3.5778454    6.1170986    22320.103   -1071.8915    143.28694    123.84959    180.31237     333.9784   -169.71576    23.559501    23.536376    44.352654    84.545106    85.373029    113.16703 
  313500    227.98169   -12675.727    -11502.11   -12675.727            0    1035.5987    23.553341    21.558837    43.911187   -9.3385657    3.9703041    5.5629702    22297.339    1215.5978    1293.4715    597.72673   -29.014527   -164.03451    324.44668    23.553341    23.494516    44.439873    85.448497    84.874302    113.42064 
  314000    235.39847   -12682.197   -11470.399   -12682.197            0    200.64106    23.475701    21.640615    44.116632   -9.0848408    3.9785879    6.1546954    22412.511    365.96059    633.97561   -398.01303   -712.99986    186.58288   -230.49997    23.475701    23.470206     44.72121    84.694906    84.895977    112.77291 
  314500     239.3202   -12671.539   -11439.553   -12671.539            0    905.09967    23.397426    21.626368    44.088011   -9.3324174    3.7185287    5.9498069    22308.592    1444.7203    339.82078    930.75789   -118.27818   -10.704116   -138.04067    23.397426    23.554062    44.642808    84.872878    85.222004    113.34163 
  315000    234.35651   -12692.149   -11485.715   -12692.149            0    1036.7658    23.429447     21.54971    44.141249   -9.1508627    4.0514854    5.7084455    22286.819    1843.4878    872.65185    394.15775   -717.95166    77.151226    326.40032    23.429447     23.41214    44.692849    85.288793    84.798896      113.008 
  315500    243.70584   -12754.533    -11499.97   -12754.533            0    787.57859    23.518975    21.542728    44.051551   -9.1878378    3.8907842    6.3057052    22319.286    856.63214    719.51598    786.58765   -123.06695   -10.503797   -637.03016    23.518975    23.420194     44.67034     84.50982    85.003209    113.09794 
  316000    229.21974   -12634.886   -11454.896   -12634.886            0    1273.5575    23.537257    21.634293    43.798671   -9.2704561    3.9146691    5.7476283    22302.805     884.3293    1318.6112     1617.732   -347.53167    583.77282   -325.25355    23.537257    23.536864    44.347305    85.160753    84.935739    113.19549 
  316500    236.26839   -12692.701   -11476.425   -12692.701            0    453.00586     23.57042    21.675752    43.742199   -9.1580089    3.7534743    5.9935318    22348.177   -588.93416   -78.438902    2026.3906      22.9502   -304.01464    236.88418     23.57042    23.530987    44.310168    84.742567    85.140703    112.90407 
  317000    227.73896   -12706.231   -11533.863   -12706.231            0    939.34485    23.622591    21.596043    43.656978   -9.4779343    4.0364296    5.5876386    22271.804    804.27293    804.14027    1209.6213    535.96128   -477.24698    59.331871    23.622591    23.584324    44.197808    85.465261    84.760078     113.6954 
  317500    233.06621   -12756.967   -11557.175   -12756.967            0    1262.2435    23.503113    21.647787    43.640964    -9.108404    3.6131395    5.9676626    22204.103    1215.5694    650.10915    1921.0518   -332.28532    113.09208    149.70229    23.503113    23.485947    44.195039    84.677849    85.310583    112.81914 
  318000    239.75612    -12714.07    -11479.84    -12714.07            0    1967.7158    23.462015    21.681541    43.599331   -9.2743888    4.1023341    6.0662342    22178.659    2964.1275    150.96957    2788.0505    131.31775   -407.99738    155.69054    23.462015    23.581847    44.210067    84.855777    84.675759    113.15906 
  318500    234.64388   -12671.858   -11463.944   -12671.858            0    2040.6037    23.428725    21.565063    43.943913   -9.1135682    3.5523574    5.5029077    22202.308    1129.9024    2332.2869    2659.6217   -311.17935    1086.8244    726.03416    23.428725     23.41173    44.429368    85.241077    85.414011    112.90931 
  319000    239.62218   -12712.977   -11479.435   -12712.977            0    913.78629    23.551223    21.539214    43.972349   -9.3037368    4.0408055    6.0206476    22306.066    792.03713    897.60928    1051.7125   -180.93954   -88.028473   -307.32375    23.551223    23.462678    44.566173    84.947648    84.797859    113.36165 
  319500    237.21269   -12692.173   -11471.036   -12692.173            0    1620.4075    23.425695    21.574391    43.983842   -9.1048937    3.8793019    5.9951193    22229.219    2596.8953    878.57823    1385.7491   -638.35298   0.84456312   -161.39314    23.425695    23.416948    44.559722    84.830346    85.005594    112.88087 
  320000    242.74691    -12701.17   -11451.544    -12701.17            0    853.34729    23.335015    21.632794    44.176257   -9.3261501    3.8855938     5.615336    22300.244    944.88572    938.37682    676.77933    182.52322    492.53522    568.13192    23.335015     23.55748    44.700912    85.357147    85.013313    113.32144 
  320500    237.25797   -12733.988   -11512.617   -12733.988            0    460.68492    23.483069    21.618775    43.932516   -9.1759343    3.8579512    6.2688703    22303.449    995.24553    471.64353    -84.83431   -878.23348    -547.2084   -495.48269    23.483069     23.48551    44.544905    84.507977    85.031495    112.99845 
  321000    228.83455   -12696.071   -11518.063   -12696.071            0    1281.9516    23.569478    21.464062    44.026217   -9.1893113    4.0874139    5.4803552     22272.72     600.1209    2297.4992    948.23461    406.54155    -241.7554    912.52852    23.569478    23.348435    44.553889    85.585518    84.736232      113.177 
  321500    232.71862   -12727.406   -11529.403   -12727.406            0     792.3576    23.522663    21.596946    43.809095   -9.4197751    3.7962554    6.0588069    22255.795    600.16119    897.22329    879.68832    103.32763    522.43363   -326.71788    23.522663    23.561839    44.388709    84.783437      85.0939    113.56502 
  322000    234.43308   -12714.552   -11507.724   -12714.552            0    820.58718    23.444243    21.694302    43.863113   -8.9705683    4.0716929     5.952584    22309.063    1837.1203    192.13998    432.50128    -774.4792   -796.77647    273.58914    23.444243    23.475814    44.452048    84.908473    84.744488    112.46504 
  322500    236.26521   -12693.105   -11476.845   -12693.105            0    1387.6108       23.453    21.614107    43.903641    -9.432439    3.6674843    5.6716334    22255.442    969.45062    2029.2338    1164.1479    1380.4031    324.81535    171.80585       23.453    23.582632    44.420125    85.181459    85.264065    113.57655 
  323000    242.57743   -12725.887   -11477.133   -12725.887            0    685.07423    23.583148    21.598729    43.833437   -9.1992203    4.0221495    6.1037433    22327.263    742.38278     1083.826    229.01387   -447.57947   -302.37049   -562.66219    23.583148    23.476174    44.438762    84.784568    84.807056    113.06988 
  323500    236.33319   -12699.154   -11482.544   -12699.154            0    446.31557    23.536075    21.634603    43.910947   -9.0728452    3.8798801    5.7400323    22359.174    13.073173    730.08984     595.7837   -218.81421    -542.1774    260.36421    23.536075     23.46002    44.454164    85.105468    84.992956    112.75158 
  324000    234.70159   -12727.055   -11518.844   -12727.055            0    962.55102     23.48432    21.605979    43.964958   -9.5646552    3.6685092    5.9797043    22307.896     1474.468     225.4802    1187.7048    988.47924   -173.07295   -123.65984     23.48432    23.628393    44.521146    84.867419    85.273512    113.87828 
  324500    232.09968   -12715.917   -11521.101   -12715.917            0     1525.796    23.440901    21.609202    43.905442   -9.0517625    3.9529773    5.9104729    22239.826    1321.5861    1367.2931     1888.509    280.53986   -332.75084    112.58684    23.440901    23.428444    44.477495    84.938204    84.901058    112.72806 
  325000    236.78604   -12700.524   -11481.583   -12700.524            0    1258.6561    23.465072    21.583104    43.893729   -9.4148243    4.0766633    5.7157485    22229.939    1230.5748    1707.2053    838.18816    954.17956   -1146.0902   -506.80515    23.465072    23.547172    44.451641    85.343024    84.738006    113.56744 
  325500    233.04702   -12732.162   -11532.468   -12732.162            0    1314.4223    23.481561    21.535376    43.937455   -9.1795093    3.5771749     5.953404    22218.479    1855.1732    1517.6472    570.44639   -250.17955    521.54166   -96.139619    23.481561    23.410165    44.483021    84.745224    85.387486    113.08625 
  326000    227.38065   -12674.564    -11504.04   -12674.564            0    1627.0176    23.564857    21.548469    43.873533   -9.2589367    4.4575042    5.8671379    22278.392    977.97352    1761.6342    2141.4451   -21.435592   -794.73032    30.374899    23.564857    23.453453     44.48797    85.318637    84.249559    113.25221 
  326500    234.46678   -12682.502     -11475.5   -12682.502            0     1002.749     23.37933    21.618237    44.076131   -9.2158334    3.2310231    5.9611931    22276.953    2010.0099    428.34701    569.89015    35.630742    435.81893     180.2265     23.37933    23.500633    44.594626    84.574287    85.845097     113.0885 
  327000    235.81077   -12651.505   -11437.584   -12651.505            0    951.80838    23.429374    21.707577    43.987591   -9.1779873    4.1955221    5.8320414    22371.865    1555.0377    785.95548    514.43196   -38.946212   -307.16099   -38.156064    23.429374    23.568079     44.57043    85.189352    84.598613    112.91869 
  327500    235.48252   -12746.987   -11534.756   -12746.987            0    206.05156    23.564207    21.558376    44.071648    -9.286857    3.6911769    5.9958665    22388.663    499.55687   -145.74241    264.34022    514.34391     295.3382    109.78691    23.564207    23.473587    44.630543    84.798271    85.255924    113.30528 
  328000    236.19711   -12681.854   -11465.944   -12681.854            0    359.40066    23.554832    21.537237    44.064194   -9.2966207    3.8964812    5.7031935    22354.031    813.05836    694.83166   -429.68804     462.7921   -1015.5317   -299.48081    23.554832    23.458042    44.602266    85.251857    84.988217     113.3476 
  328500    237.55412   -12764.122   -11541.227   -12764.122            0    917.64059    23.407167    21.678831     43.85204   -9.1306716    4.0886271    6.0469272     22252.28     1343.085   -141.71842    1551.5552   -47.489961   -169.27548     644.1014    23.407167    23.523198    44.455412    84.856066    84.722969    112.83981 
  329000    235.85011   -12700.027   -11485.904   -12700.027            0    1275.5455     23.41724    21.687394     43.83318    -9.293532    3.5438747    5.8556288    22261.071    1787.7405    708.09839    1330.7975     283.0223     111.9662    375.09213     23.41724    23.594762    44.364345    84.844677    85.418266    113.19621 
  329500    230.73968   -12720.999   -11533.184   -12720.999            0    1146.2008    23.502831    21.599865    43.844879   -9.2175065    4.2148275    5.8870194    22258.202    1106.2271    1054.8124     1277.563   -259.13023   -662.69425   -269.76886    23.502831     23.48439    44.438667    85.145941    84.557547    113.10984 
  330000    239.25629   -12632.717    -11401.06   -12632.717            0    279.39624    23.565428    21.569154    44.124564   -9.1817383    3.2273471    6.1747031    22427.914   -67.561947     426.5165    479.23417   -64.162627     374.1451   -434.75994    23.565428    23.442114    44.671242    84.325074    85.856963    113.05889 
  330500    235.89787   -12712.986   -11498.617   -12712.986            0    668.12046    23.463955    21.667798    43.959724   -9.2691035    4.2410697    5.7994906    22349.661    1654.7623    767.93813   -418.33901   -119.42035   -791.28538    -367.0379    23.463955    23.567132    44.542992    85.281584    84.536423    113.16039 
  331000    226.48696   -12705.884   -11539.961   -12705.884            0     394.6886    23.435055    21.669582    44.034055   -9.1528527    3.4993663     6.060568    22361.719    787.76261   -589.88619    986.18937    376.77588   -130.88471    356.00427    23.435055    23.523297    44.586702    84.567212    85.498538    112.89835 
  331500    231.79304   -12667.574   -11474.336   -12667.574            0    668.45532    23.563556    21.595493    43.947828    -9.321722    4.1858586     5.811823    22363.583    530.86665    802.45895    672.04035   -224.74683   -535.42782   -177.56177    23.563556    23.521476    44.527635    85.263167    84.605896     113.3475 
  332000    240.72781   -12743.582   -11504.349   -12743.582            0     590.6324    23.559437    21.560391    43.901074   -9.1227356    4.0317663    5.9615846     22299.58    132.51424    631.45873    1007.9242    88.286401    148.73964    84.356614    23.559437    23.410996    44.487076    84.945779    84.800274    112.93443 
  332500    234.34088   -12693.134    -11486.78   -12693.134            0    1232.9881    23.485199    21.591839    43.843499   -9.4151568    3.4119423    5.9255794    22232.541    1294.9227    1059.3116    1344.7299    903.59693    -410.9388   -185.38482    23.485199    23.555312    44.373486    84.740101    85.590091    113.55969 
  333000    243.68691   -12702.745   -11448.279   -12702.745            0    1457.7897    23.454573    21.664386    43.709985   -9.1229156    4.1743559    5.8375025    22210.307    1292.4869    712.22283    2368.6593   -901.52788    206.64619   -22.977552    23.454573    23.506876    44.295197    85.130709    84.592452    112.83606 
  333500    238.94272    -12677.04   -11446.996    -12677.04            0    1436.3483    23.522469    21.623169    43.748829   -9.1865384    3.7151973    5.9655423    22251.982    1300.4243     357.0776    2651.5429   -608.38198    974.73414   -156.05375    23.522469      23.4937     44.30971    84.771498    85.190324    113.01807 
  334000    236.14949   -12667.189   -11451.525   -12667.189            0    1724.7086    23.550632    21.554409     43.70711   -9.4767804    3.8970618    5.7329055    22186.601    1796.5711     2029.396    1348.1586      589.247    595.48988    299.37761    23.550632    23.545741    44.253415    85.230504    84.947852    113.73355 
  334500    238.54371    -12733.18   -11505.191    -12733.18            0    1066.3455     23.44853    21.578677    43.931034    -9.045831    3.7815121    5.9955683    22228.587     859.7889    1357.1429    982.10475   -15.195637    -9.333382   -228.24923     23.44853    23.397999    44.499241    84.755601    85.125168    112.74354 
  335000    233.49645   -12754.856   -11552.849   -12754.856            0    809.12787    23.431606    21.571779    44.059085   -9.3483085    4.0563701    5.8311358    22270.168    892.77781    1030.0068    504.59898    63.643741   -20.764884   -88.355045    23.431606    23.510264     44.62801    85.196075    84.785022    113.42989 
  335500    243.82906    -12655.06   -11399.862    -12655.06            0    171.76044    23.365466    21.623324    44.393379   -9.0208094    3.6579014    5.8221727    22429.268    714.98853   -70.148719    -129.5585   -105.86692   -279.13315    343.82509    23.365466    23.429536    44.922712    84.936364    85.329431     112.6449 
  336000    230.47332   -12665.821   -11479.376   -12665.821            0    820.85434     23.49088    21.591964    44.051108   -9.3336987    4.0983816     6.035469    22343.349    817.64699    1490.8511    154.06498     646.9887   -217.31586    -187.1905     23.49088    23.522985    44.651134     84.97139    84.733595    113.37769 
  336500    234.67176   -12687.184   -11479.127   -12687.184            0    1787.9113    23.502155    21.557015    43.865725   -9.2251089    3.6889872    5.7005554    22223.969    1544.7066    2078.9939    1740.0334    537.16678   -760.33485    20.868221    23.502155    23.447975    44.388138    85.102614    85.232793    113.16802 
  337000    239.01193   -12679.944   -11449.545   -12679.944            0    1761.0072    23.554494    21.662231    43.518861   -9.2111437    3.9700525    6.0788938     22205.19    1581.2475    1619.1553    2082.6189   -57.255051   -289.58662   -383.57269    23.554494    23.539274    44.120353    84.745365    84.837409    113.03601 
  337500    239.08655   -12684.888   -11454.104   -12684.888            0    1322.6004    23.527044    21.616061    43.669446   -9.3166914    3.8234152    5.6947414    22208.621    1480.4509    716.10278    1771.2474   -490.47519    274.75882    453.88924    23.527044    23.538369    44.204854    85.177418     85.03811    113.31642 
  338000    230.86869   -12763.637   -11575.158   -12763.637            0    1906.9584    23.509397    21.585464    43.642941   -9.1232001    3.6973356    6.0910728    22147.101    977.13125    1971.0547    2772.6894   -154.29335   -104.21719    40.760528    23.509397    23.434271    44.220784    84.587539    85.203854    112.91158 
  338500    234.72257   -12699.882   -11491.563   -12699.882            0    1738.5209    23.454597    21.547576    43.883701    -9.335982    4.0604857     5.800626    22178.372    2046.2459    1692.0204    1477.2964    832.18169   -174.26978   -42.093708    23.454597    23.483156    44.451255    85.214695      84.7589    113.42578 
  339000    238.90982   -12661.422   -11431.548   -12661.422            0    1381.8637    23.397977    21.570512    44.147344   -9.0468196    3.4957597    5.9003007    22281.444    2302.4365    758.29924    1084.8554   -926.93888    202.97815    114.45789    23.397977    23.390851    44.676861    84.748619    85.512281    112.75351 
  339500    238.71093    -12739.91    -11511.06    -12739.91            0    1267.9925    23.455719    21.585897    43.980523    -9.362433    4.5124855    6.2002126    22267.899    1032.9647    1703.6363    1067.3766    356.73924   -540.95295   -275.65166    23.455719    23.528836    44.644054    84.997867     84.19881    113.44778 
  340000    234.22302   -12667.572   -11461.825   -12667.572            0     1266.607    23.431137    21.555069    44.079954    -9.167741    3.5644429    5.7447101    22263.011    1676.2266    1012.6925    1110.9019   -247.61034     392.8822    893.22376    23.431137    23.423673    44.595395     84.99406    85.415544    113.04088 
  340500    243.42989   -12728.768   -11475.626   -12728.768            0      1010.55    23.479618    21.625188    43.806601   -9.3480104    4.2250945    5.9114633    22242.852    990.77102    761.53248    1279.3465    1064.2855   -928.82387    571.28085    23.479618     23.55916    44.405125    85.155979    84.540116    113.37758 
  341000     234.7027   -12707.493   -11499.276   -12707.493            0    649.10069    23.586383    21.587459    43.718739   -9.0737781    3.5554068    5.8936116    22260.273    132.26805    360.84762    1454.1864   -785.04453    281.52909    176.12423    23.586383    23.416913    44.257245    84.742351    85.392177     112.7983 
  341500    230.68481   -12698.111   -11510.578   -12698.111            0    1347.0424    23.518037    21.565304    43.831385   -9.3333426    3.9502103    5.7298301    22230.122    1175.2872    1285.8066    1580.0333   -233.05527    655.77062    475.03979    23.518037    23.498375    44.380462    85.231323    84.893467    113.40269 
  342000    229.29284   -12679.954   -11499.587   -12679.954            0    1150.1518    23.414213     21.75354    43.720905   -9.1142052    3.8908417    6.1638308    22268.894    409.09347    1865.6217    1175.7402    417.72502    714.46523    5.5463689    23.414213      23.5857    44.324362    84.586766    84.964031     112.7325 
  342500    240.74417   -12738.971   -11499.654   -12738.971            0    1094.2343    23.435339    21.662463     43.77598   -9.2807598    3.6593495    5.7987797    22223.628    570.19818    1082.2559    1630.2489    274.79334    318.55684    206.75817    23.435339    23.566816     44.30974    84.964593    85.262794    113.19154 
  343000    232.39981   -12719.521   -11523.159   -12719.521            0    415.18991    23.619974    21.512396    43.950372   -9.3184567    3.9560994     5.815673    22332.161    249.30359    222.27889    773.98725    819.15618   -411.84338    518.49412    23.619974    23.443908    44.509639    85.148854    84.900715    113.42066 
  343500    230.88893   -12669.535   -11480.951   -12669.535            0    138.21353    23.574214    21.598265    43.986748   -9.0953941    3.9055015    6.1638949    22396.385   -786.86838    904.75542    296.75356     364.2801    201.78229   -112.22529    23.574214    23.435256    44.587896    84.640157    84.974962    112.83678 
  344000    223.90271   -12698.239   -11545.619   -12698.239            0     683.7508    23.358456    21.682075    44.063257   -9.4214457    3.7602909    5.4849283    22316.268     1181.052    354.68365    515.51672    1372.7153    177.94381    611.91774    23.358456    23.640559    44.562258     85.45404    85.159462    113.48624 
  344500    233.22006   -12696.417   -11495.833   -12696.417            0    521.78581    23.479782    21.646342    43.923311   -9.1445912    3.9079897    5.9685741    22324.084    1063.3945    111.57313    390.38983   -685.05348   -286.15218    -44.35216    23.479782    23.498674    44.498916    84.872102    84.961672    112.90184 
  345000    241.94778   -12732.934   -11487.421   -12732.934            0    1252.6078    23.568844    21.536751    43.831812   -9.3313488    4.0770257    6.1105017    22248.867    1132.2998    1879.1942    746.32949   -66.223196    161.30922    90.989679    23.568844    23.471381    44.443089    84.854397    84.736521    113.42591 
  345500    234.73846   -12715.825   -11507.424   -12715.825            0    1525.2698    23.453392    21.501582     44.07841    -9.263247    3.5099529    5.5173486    22228.083    899.07766    2286.0106    1390.7212       336.59    1178.8241    866.07914    23.453392    23.412086    44.560825    85.265016    85.482264     113.3072 
  346000     232.5579   -12728.394   -11531.219   -12728.394            0    694.21349    23.482131    21.661316    43.939361   -9.1347371    4.3607194    6.2673005    22349.925     1025.488    924.50646    132.64602   -272.47664   -164.11653   -301.39721    23.482131    23.508637    44.597784    84.750515     84.38872    112.86551 
  346500    236.03582   -12697.816   -11482.737   -12697.816            0    79.585069    23.423206    21.659691    44.122127    -9.280484    3.5561119    5.8300968    22384.893    824.11934    744.74699   -1330.1111    13.903275    113.18042    -475.1657    23.423206    23.564159    44.647487    84.913576     85.43163    113.19358 
  347000    230.89472   -12660.603    -11471.99   -12660.603            0    1151.2915    23.543281    21.541577    44.006193   -9.2670219    3.9996273    5.6383561    22318.155    535.78263    1165.2525    1752.8393    340.79459    84.185816    91.252317    23.543281    23.450314    44.545854     85.36602    84.848661    113.27701 
  347500    234.99665    -12697.44    -11487.71    -12697.44            0    1093.1002    23.541469    21.623738    43.809264   -9.2022956    3.9373437    6.1880103    22301.306    558.05778    702.60939    2018.6334   -97.232392    128.91765   -123.25066    23.541469    23.500389     44.41898    84.636436    84.914569    113.05288 
  348000    227.72649   -12743.214   -11570.911   -12743.214            0     1247.289    23.456724    21.690508    43.669613    -9.279358    3.7148418    5.7329849    22218.586    1446.5909    1124.3619    1170.9143    690.54842   -190.51541    -399.7557    23.456724    23.592045    44.200704    85.055412    85.178897    113.16159 
  348500    230.54477   -12717.769   -11530.957   -12717.769            0    1606.6132     23.57964    21.626184    43.660829   -9.2553772    4.0546246    5.5649491      22264.3    988.24896    1379.8075    2451.7833    638.26421   -453.57259    618.37048     23.57964    23.523475    44.200415    85.431239    84.736702    113.16951 
  349000    229.23089   -12718.504   -11538.456   -12718.504            0    1145.1553    23.605311    21.530568    43.860923   -9.2385016    3.8636569    6.1896932    22291.689    531.70853    1559.5324    1344.2249   -428.89407    205.19702   -99.773018    23.605311    23.428941    44.463701    84.625575    85.015018    113.22358 
  349500     241.2268    -12709.03   -11467.228    -12709.03            0    85.901518    23.469896     21.54448    44.208218   -9.2636949    3.9326128    5.3595712     22353.74    243.39131    593.56339   -579.25015    376.93364   -692.39241    1065.0006    23.469896    23.451667    44.705223    85.676431    84.953303    113.26674 
  350000    231.99953   -12710.488   -11516.187   -12710.488            0    507.57164    23.351602    21.752621    44.056328   -9.2118754    3.8502645    6.1492822    22378.788    547.20104    460.56359    514.95028    611.84175    312.45631    71.414067    23.351602    23.622768    44.649728    84.652702    85.053089    112.95185 
  350500    238.71124   -12665.381   -11436.529   -12665.381            0    669.11457    23.461714    21.693693    43.929475   -9.2139535    3.9638468    6.0736223    22358.839    1332.0127    448.80454    226.52646    -160.6986   -213.26572   -83.961729    23.461714    23.569329    44.524148    84.793071    84.892372    113.01237 
  351000    233.97384   -12718.453   -11513.988   -12718.453            0    1795.4626    23.575321    21.474249    43.851218   -9.2863863    3.7832449    5.5779639    22200.219    789.08404    2072.4565    2524.8473    214.12708   -450.78483    772.54442    23.575321    23.396161    44.366158    85.322268    85.108264    113.38573 
  351500    245.45572   -12691.808   -11428.236   -12691.808            0    1109.6348    23.588866    21.605366    43.684749   -9.2796408    4.0174633    6.0622011    22263.762    706.39126     344.5531      2277.96   -28.621305   -86.401111     485.2272    23.588866    23.513901    44.285975    84.837762    84.795179    113.24383 
  352000    230.08716    -12701.36   -11516.903    -12701.36            0    1259.6559    23.400267     21.76362    43.636078   -9.1473572    3.7894601    6.0108768    22222.742    1759.4855    235.10827     1784.374    50.121438   -380.56326   -270.15894    23.400267    23.607823    44.210835    84.714019    85.082952    112.79726 
  352500    230.23338   -12707.558   -11522.349   -12707.558            0    444.85302    23.471332     21.63475    43.951646   -9.2975138    3.8404062    5.5039663    22318.488   -235.96178     884.6834    685.83744    294.80259    463.00139    418.68264    23.471332    23.547954    44.461102    85.432666    85.044801    113.25557 
  353000    232.45958   -12730.476   -11533.807   -12730.476            0    708.71864    23.613881    21.534305    43.908237   -9.2060749    3.8481528    6.5130759    22327.712    219.67671      871.645    1034.8342   -281.31677    -127.3142   -740.88969    23.613881     23.41961    44.555154    84.234243    85.045288    113.14707 
  353500    237.34671   -12758.696   -11536.869   -12758.696            0     -294.275    23.574057    21.554002    43.975899   -9.2621933    3.9737403    5.3191735    22344.826   -1059.0317    148.03215    28.174548    177.53963    402.83222    532.58167    23.574057    23.459822    44.474306    85.721247    84.873836    113.25418 
  354000    238.19832   -12693.783   -11467.572   -12693.783            0    303.87609    23.450798    21.713647    43.842281   -9.2948812    3.7643407    5.8955876    22324.592    613.05771   -68.865422    367.43598    78.954788   -45.876501    212.50645    23.450798    23.619426    44.396777    84.910494    85.136131    113.17414 
  354500    234.69936   -12659.332   -11451.133   -12659.332            0    822.71854    23.449521    21.730968    43.878936   -9.0711862    4.1088837    6.3525052    22359.863    1002.7247    137.28026    1328.1507   -682.87456   -593.76468   -106.83534    23.449521    23.548278    44.526378    84.484766    84.705226    112.65718 
  355000    231.09805   -12671.563   -11481.903   -12671.563            0    1176.5327    23.549744    21.473431    44.046338   -9.3868124    3.7175843    5.4983899     22273.96     593.7307    1660.8555    1275.0118    610.43216    297.20815    245.29107    23.549744    23.435453    44.543604    85.430097    85.212557    113.61188 
  355500    235.41714   -12753.148   -11541.254   -12753.148            0    1677.4135    23.504104    21.522718    43.895744   -9.1825906    4.0494785    6.0961578    22205.637     921.9592    3044.5766    1065.7046    165.80428    203.13172   -99.949018    23.504104     23.39973     44.50166    84.819721    84.779084    113.10535 
  356000    232.67922   -12684.279   -11486.479   -12684.279            0    1386.5457    23.404497    21.678778    43.918151   -9.1588717    4.0150235     5.929993     22283.23    1741.8543    1217.8343    1199.9486   -104.65366    76.292523    188.98337    23.404497     23.53411    44.498193    84.971978    84.823224    112.90313 
  356500    243.97106   -12686.083   -11430.154   -12686.083            0    1736.1355    23.373017    21.618735    43.951624    -9.343372    3.5013176     5.665972    22208.539    1205.6102    2070.0111    1932.7852    59.480017    764.95631    557.60849    23.373017    23.551397    44.453433    85.080742    85.482492    113.37345 
  357000    227.08278   -12664.206   -11495.216   -12664.206            0    1463.7554    23.585619    21.548303    43.771307   -9.1243977     4.182888    6.0684375    22245.894    568.28915    2156.8798    1666.0972   -678.90378   -257.38469   -158.75446    23.585619    23.400512    44.387496    84.885348    84.592667    112.94971 
  357500    242.93587   -12700.756   -11450.156   -12700.756            0    930.52147    23.562374    21.558113     43.86836   -9.3325282    3.7620093    5.7615025    22283.386    570.41398    1006.5607    1214.5898   -435.00838   -500.09201    440.19826    23.562374    23.491452    44.404737    85.100168    85.140024    113.40783 
  358000    233.41524   -12715.209   -11513.621   -12715.209            0    163.11746    23.445975    21.770401    43.839294   -9.1545871    3.6712804    5.7306048    22376.816    143.82821   -489.55222    835.07638    151.87949    167.71243    946.05701    23.445975    23.616876    44.364421    85.009268    85.253185    112.80705 
  358500    232.24991    -12694.39     -11498.8    -12694.39            0    96.064777    23.533853    21.708257    43.916705   -9.2331863    4.0966927    6.0272267    22436.119    589.71473   -498.50252    196.98212    522.47515    30.099125    143.62889    23.533853    23.590256     44.51727     84.91859    84.719897    113.04153 
  359000    239.95907   -12717.054   -11481.779   -12717.054            0   -216.75924     23.57553    21.598647    44.019262   -9.3173438    3.7049018    5.8777407    22414.588    -834.7063     377.7734   -193.34482    437.00815   -449.02863    123.13671     23.57553    23.522636    44.564218    84.941354     85.23114    113.33467 
  359500    237.36703   -12640.828   -11418.896   -12640.828            0    79.108777    23.638706    21.589628    44.071053   -9.1413081    4.4496627    6.0564976      22491.7   -1067.4489    1494.4987   -189.72344   -500.11674    -236.7147   -1165.2957    23.638706     23.44516    44.707252      85.0698    84.287958    112.94838 
  360000    229.53465   -12692.299   -11510.687   -12692.299            0    963.36842    23.428939    21.628164    44.071104   -9.2951561    3.6340301    5.9610205    22331.928    906.46323    433.23534    1550.4067    676.26735    10.764788    369.46088    23.428939    23.540973    44.620648    84.802992    85.328498    113.25663 
  360500    233.84304   -12725.498   -11521.707   -12725.498            0    387.91921    23.386955    21.648041    44.141858   -9.1514625    4.0744128    5.7341379    22348.217    824.79938    96.294892    242.66337   -209.38432   -29.869526     239.8517    23.386955    23.502913    44.698823    85.258119    84.770083    112.91566 
  361000    240.55282   -12713.736   -11475.404   -12713.736            0    550.39029    23.534786    21.568428    44.028857   -9.2213924    3.8783981    6.3035198    22349.414    469.05178    1058.7832     123.3359   -497.05063    183.98396   -65.532114    23.534786    23.457006    44.646574    84.510117    85.016498    113.14871 
  361500    228.19312    -12649.12   -11474.414    -12649.12            0    1243.8747    23.582524    21.471473    44.035275   -9.3787821    3.8061434     5.563475    22297.328    1097.7949    2398.7787    235.05041    667.57173   -307.17286   -524.91686    23.582524    23.430444    44.548226    85.397323    85.098747     113.5958 
  362000    238.71013   -12739.926    -11511.08   -12739.926            0    722.01201    23.490376    21.656327    43.837795   -9.1146989    3.9948056    6.0122549    22300.955    875.82551    965.74532    324.46518    313.39394   -129.90522   -96.479225    23.490376     23.49626    44.428121    84.845134    84.841217    112.82522 
  362500    240.58573   -12677.654   -11439.153   -12677.654            0    1417.1521    23.394414    21.759035    43.762638   -9.3867162    3.7250293    6.1484184    22276.928    2374.7175    535.83233    1340.9064    758.90367    11.756017   -261.36234    23.394414    23.697384    44.349153    84.604716    85.181865    113.33508 
  363000    238.78371   -12666.265    -11437.04   -12666.265            0    1277.1711    23.540105    21.560192    43.896252   -9.0781413    3.9817629    5.4534812    22278.629    384.69065    2358.1159    1088.7068   -666.27367   -208.01363    437.57781    23.540105    23.393472    44.412564    85.504707    84.856299    112.83403 
  363500    234.88581   -12664.225   -11455.066   -12664.225            0    1008.3354    23.618117    21.561119    43.929274   -9.3431465    3.9603647    6.2609106    22370.238    922.32723    683.86731    1418.8118   -794.94201    186.39376    -267.5479    23.618117     23.49843    44.549575    84.628964    84.899791    113.42868 
  364000    238.97166   -12691.382    -11461.19   -12691.382            0    667.01063    23.411122    21.632564    44.065818   -9.1629598    3.8965049    5.6018677    22316.808    1160.7968    639.84902    200.38606    203.86265    -274.7119    704.29711    23.411122    23.493141    44.591031    85.319656     84.98692    112.95618 
  364500     226.5528   -12697.592    -11531.33   -12697.592            0    608.61919    23.290707    21.754366    44.035223   -9.2687284    3.9170801    6.2298468    22311.526    1538.4848   -30.366683    317.73945   -168.46598    -417.6122   -761.29385    23.290707    23.646601    44.645888    84.607215    84.966589    113.07706 
  365000    239.40656   -12704.876   -11472.445   -12704.876            0    623.90841    23.516253    21.606524    43.938522   -9.2544182    3.8626502    5.9153012     22325.36    929.04685    252.36846    690.30992    526.33134   -249.16065    286.83057    23.516253    23.505023    44.502861     84.95084    85.020716    113.18622 
  365500    232.59885   -12706.134   -11508.748   -12706.134            0    871.47543    23.615407    21.564185    43.790866    -9.213154    3.9996035    5.6065225    22300.368    513.16046    126.51552    1974.7503   -926.08782    811.37014    340.34575    23.615407    23.449868    44.329109    85.362209    84.823436    113.13427 
  366000    243.06805   -12696.288   -11445.008   -12696.288            0    1178.5199    23.564837    21.611324    43.763525   -9.4215962    3.7086636    6.3639707    22287.334    83.370908    2039.9115    1412.2773     464.6713    297.62234   -189.45456    23.564837    23.575746    44.379054      84.3728    85.206322    113.55511 
  366500    237.11685   -12737.772   -11517.128   -12737.772            0    1207.9047     23.42016    21.660069    43.833357   -9.0612046    3.9829765    5.5854019    22235.885    1741.1312    499.90651    1382.6764   -515.54015   -552.83326    588.66992     23.42016    23.479012    44.366925    85.325664     84.84942    112.70135 
  367000     232.5606     -12720.5   -11523.311     -12720.5            0    1629.0709    23.450586    21.654519    43.780827    -9.354643    4.0157406    6.2257512    22232.393    1825.3797    1595.7244    1466.1088    143.17942    -138.8744    -408.0991    23.450586    23.588717    44.403232     84.67256    84.811193     113.3641 
  367500    234.04369   -12690.162   -11485.338   -12690.162            0    834.06408    23.530129     21.58674    44.008303   -9.2257476    3.7854473    5.9360227    22353.524    804.16227    1321.6064    376.42354   -1228.4413      589.528   -200.82998    23.530129    23.475556    44.567889    84.888476    85.127618    113.14091 
  368000     238.7831   -12694.889   -11465.667   -12694.889            0    975.34147     23.55788    21.533003    43.979999   -9.2641116    4.1369553    5.5965086    22309.818    556.47802    1219.3283    1150.2181    13.973639    233.40432    482.49597     23.55788    23.441288    44.527245    85.483993    84.669052    113.27875 
  368500    238.35379   -12745.103   -11518.091   -12745.103            0    463.12025    23.439164    21.592724     44.08581   -9.2941203    3.2350945    6.4544387    22312.507    794.17275    907.30368   -312.11567   -454.89473    854.25397   -478.34236    23.439164    23.508007    44.673082    84.025873    85.847171    113.28841 
  369000    235.94258   -12692.229    -11477.63   -12692.229            0     366.1716    23.484749    21.667292     43.86889   -9.1303414    4.3764911    5.6005653    22322.725    29.176574    653.64783    415.69041   -73.098847   -330.44039    405.93426    23.484749    23.512437    44.440966     85.53261    84.348423    112.84998 
  369500    239.67041   -12698.271   -11464.482   -12698.271            0    668.67067    23.556436    21.604615     43.83811    -9.351035    3.5402073    6.0429195    22310.429     487.8059     373.7672    1144.4389    -494.3072    295.29543    240.51769    23.556436    23.541479    44.394029    84.649689    85.426084    113.40421 
  370000    242.40673   -12714.963   -11467.087   -12714.963            0    439.57256    23.653947    21.574317    43.790858   -9.2571059    3.9297968    5.8709314    22347.252   -221.18339   -127.02396     1666.925     381.8713   -54.532779    5.3744233    23.653947    23.476481    44.357079    85.026327     84.91724     113.2232 
  370500    228.84514   -12685.296   -11507.234   -12685.296            0     1195.901    23.446407     21.68536    43.793949     -9.18458    4.0260559    5.7962313    22266.761    1750.2168   -314.37093    2151.8571   -560.94053   -999.86115   -45.297041    23.446407    23.550188    44.358939    85.128405    84.792619    112.95452 
  371000     230.4008   -12735.057   -11548.986   -12735.057            0    801.97637    23.507324    21.639988    43.822878    -9.275078    3.5708072    6.1037764     22292.62     1008.059     557.2796    840.59054    327.83728    241.25723   -360.00692    23.507324     23.54392    44.389766    84.566261     85.38602    113.20037 
  371500    228.02064    -12704.63   -11530.812    -12704.63            0    434.14401    23.634738    21.473997    43.999301    -9.252876    4.4090702    5.5298125    22331.066    352.95151    968.79822   -19.317691   -632.62116   -879.86713     143.6338    23.634738    23.382649     44.56408    85.709881    84.321995     113.3106 
  372000    231.82958   -12698.702   -11505.276   -12698.702            0    1157.9219    23.511153    21.508459    43.963798   -9.2984408    3.4984979    5.8828158    22231.995    1621.5959    946.04908    906.12066   -529.28222    352.86177    216.86265    23.511153    23.432346    44.493399    84.827172    85.490201    113.37958 
  372500    232.65646   -12702.491   -11504.809   -12702.491            0    1341.2139    23.424202    21.729602    43.756691   -9.1522462    4.3109624    5.8361342    22272.094    1794.7455    549.40961    1679.4866   -113.34802   -258.90762    388.46129    23.424202    23.578363    44.354176    85.208154    84.422385    112.84024 
  373000    226.62115   -12711.856   -11545.243   -12711.856            0    1597.2657    23.448852    21.621346    43.863006   -9.1987578    3.7524591     5.701965    22238.357    1756.4654     156.9249    2878.4066    8.8767485    -459.2223    725.05087    23.448852    23.496803    44.390952    85.118058    85.150882    113.04723 
  373500    240.96383   -12711.847   -11471.399   -12711.847            0    632.79673    23.553975    21.574238    43.987522   -9.3758282    3.7280293    6.1784321    22352.659    3.0758965    537.36143    1357.9529    930.98853    223.99648    284.70581    23.553975    23.523476    44.575479    84.618527    85.202516    113.48902 
  374000    240.64983   -12685.435   -11446.603   -12685.435            0   -132.59969     23.56794    21.581199    44.021066   -9.0606091    4.2807496    5.3528666    22390.189    -379.6795    252.41545   -270.53502   -542.16357   -212.32491    407.30093     23.56794    23.406041    44.551457    85.779932    84.486199    112.77452 
  374500    239.29216   -12696.335   -11464.493   -12696.335            0   -224.04571    23.603159    21.588586    44.009815   -9.3883729    3.7440523    6.3091566    22425.589   -996.40615   -40.979001    365.24802    -288.9712    477.80597   -187.50009    23.603159    23.541635    44.617118    84.479029    85.186355     113.5031 
  375000     234.9429   -12760.658   -11551.205   -12760.658            0    291.97465    23.473372    21.689014    43.888433   -9.2181188    3.8783067    5.9311428    22344.228    265.99708   -55.419943    665.34682    243.31657   -130.66744   -153.48599    23.473372    23.566651    44.456881    84.913429    84.995298    113.02614 
  375500    231.79888   -12696.129   -11502.861   -12696.129            0    638.17504    23.399819    21.733181    43.895737   -9.1561531    4.0150056    5.6030254    22323.287    873.05435   -152.23425     1193.705    172.26396    493.64909    475.97609    23.399819    23.583178    44.433657    85.346781    84.815708    112.84561 
  376000     233.7481   -12679.824   -11476.522   -12679.824            0    1163.8083    23.625151    21.529505    43.774199   -9.3532011    3.7487822    6.1675583    22265.213    258.35583    2040.4606    1192.6083    239.89619    326.22789   -400.57865    23.625151    23.473431    44.365219    84.615661    85.152829    113.48188 
  376500    236.04383   -12678.437   -11463.317   -12678.437            0    1496.5053    23.636059    21.458995    43.884411   -9.2086936    4.0757726    5.7525367     22258.44     464.7325    1893.7649    2131.0184   -507.68065    77.177701    774.35636    23.636059    23.351414    44.447105     85.25198     84.73862    113.22561 
  377000    227.37703   -12737.145    -11566.64   -12737.145            0    1268.5338    23.393662    21.617908      43.9071   -9.2738802    3.8275893    6.0610379    22204.788    1633.0083    764.70974    1407.8835    102.81225    451.82547    135.52425    23.393662    23.523155    44.488426    84.762471     85.06442    113.21888 
  377500    234.63474   -12699.042   -11491.175   -12699.042            0    1647.4098    23.286323     21.77709    43.857664   -9.0834288    3.7597909    5.9824956    22240.588    2072.1835    382.85314    2487.1928   -534.36399   -2.7115325    198.47331    23.286323    23.595558    44.423203    84.738009    85.144921    112.64148 
  378000    237.00975   -12714.397   -11494.304   -12714.397            0    377.60573     23.48743    21.680469    43.911372   -9.2868367    3.9366716    5.9046643    22360.483    687.23022   -616.90971    1062.4967   -16.603684    8.3124942    303.86398     23.48743     23.58576    44.481131    84.998919    84.922563    113.18789 
  378500    233.66451   -12688.154   -11485.282   -12688.154            0    679.86939    23.771739    21.447899    43.782554   -9.2847983    3.7738895    5.7431846    22322.704   -21.530372    864.26105    1196.8775   -54.900751    294.04036    308.09775    23.771739    23.371347    44.318602    85.118552    85.115141    113.40779 
  379000    230.10325   -12714.163   -11529.624   -12714.163            0    607.76427    23.579179    21.598303    43.751021   -9.2091028    4.0378905      5.82363    22281.093    905.34761    13.337428    904.60779   -732.39841   -436.60482    900.37658    23.579179    23.479656    44.321225     85.11623    84.772813    113.09247 
  379500    237.14447   -12764.667   -11543.881   -12764.667            0     848.6688    23.465832    21.700465    43.588041   -9.2926089    3.6318173    5.9677917    22195.879    1578.0424   -560.51807    1528.4821    257.35521    480.25331    499.75593    23.465832    23.606414    44.144331    84.727807     85.28086    113.18166 
  380000    223.72191   -12763.101   -11611.412   -12763.101            0    389.19328    23.399168    21.740064    43.860963   -9.2103968     4.125166    5.8433156    22312.046    1742.7527   -1214.8802    639.70732   -157.53971   -1131.8019    187.62566    23.399168    23.610629    44.440358    85.132079    84.673865    112.96043 
  380500     236.6507   -12644.691   -11426.446   -12644.691            0     984.2667     23.56561    21.520494    44.117104    -9.256887    3.8272866    6.0193595    22373.705     1086.064    1241.2734    625.46271    228.83911   -451.65724   -159.22343     23.56561    23.426942     44.69004    84.842699    85.087131    113.27461 
  381000    240.21222    -12698.32   -11461.741    -12698.32            0    894.98833    23.604198    21.457695    44.105005    -9.321856    3.8544102    5.6026222    22338.818    902.75473    1742.1324    40.077842     411.7314   -126.74711   -305.36373    23.604198    23.395078    44.626195    85.369236    85.045131    113.48155 
  381500    240.40645   -12662.924   -11425.345   -12662.924            0    4.5012172    23.415321    21.729025    44.107403   -9.1526504    4.0847733    6.3750057    22441.498    1136.7885     272.5537   -1395.8386   -674.61777    529.16141   -671.79953    23.415321    23.577988    44.752532    84.499883    84.763057    112.84169 
  382000    234.81581   -12710.001   -11501.202   -12710.001            0    810.09926    23.350023    21.685981    44.070805   -9.1983034    3.7962969    5.8091404    22316.052    1180.7883    860.43969    389.06985    90.078444    113.50918   -120.06221    23.350023    23.556115    44.613831     85.02939    85.118663    112.98466 
  382500    234.44452   -12693.284   -11486.397   -12693.284            0     1267.923    23.509476    21.517617    44.073254   -9.2533873    4.0982352     5.792434    22295.244    1359.2176    1404.9507    1039.6007    609.70201   -419.74583     92.63464    23.509476    23.422917    44.640783     85.24279    84.732559    113.26953 
  383000    237.55945   -12696.474   -11473.551   -12696.474            0    1146.9201    23.590994    21.504168     43.89742   -9.2807155    3.5244356    6.3113471    22269.367    64.275058     1852.005    1524.4803    429.49216     232.7788   -342.76588    23.590994    23.421377     44.48863    84.326453    85.456208    113.34394 
  383500    244.33395   -12724.396   -11466.599   -12724.396            0    325.50769    23.526664    21.656537    43.843201   -9.2443686    4.2166564    5.3840498    22338.377    474.60504    -69.90127    571.81929   -235.00834   -259.98344     673.8013    23.526664    23.547058    44.373353     85.73975    84.547139    113.11583 
  384000    233.78044   -12747.189    -11543.72   -12747.189            0    802.51991     23.39382     21.74754    43.804886   -9.1920034    3.5908286    6.2227364    22286.088    461.81402    835.66402    1110.0817   -199.60447    393.94203    -303.0475     23.39382    23.610346    44.390141    84.397312    85.360133    112.91226 
  384500    234.05075   -12735.894   -11531.033   -12735.894            0    688.49865    23.452052     21.61266    43.945197   -9.2699964    3.8801236    5.7907707    22274.116    1655.1452    -64.29522    474.64596      341.249   -261.22796   -220.26535    23.452052    23.516801    44.494592     85.11058    84.997202    113.21522 
  385000    234.35213   -12713.183   -11506.771   -12713.183            0    816.30981     23.70055    21.365147    44.013605   -9.2048792    3.9744899    5.5691148    22286.981   -97.559861     1908.786    637.70329   -344.34733   -213.56827    1074.9655     23.70055    23.263691    44.542217    85.439006    84.880704    113.30813 
  385500    235.26657    -12694.48   -11483.361    -12694.48            0    882.97949    23.485832    21.629033    43.958749   -9.3276688    3.8506678    6.1249255    22329.982    300.80506    924.22806    1423.9054    253.74722    872.31266   -269.83105    23.485832    23.554627    44.550129    84.720382    85.041481    113.32845 
  386000    234.45396   -12682.589   -11475.653   -12682.589            0    611.37514    23.367844    21.708835    44.088781   -9.1272701    3.9779919    5.6055501     22365.74    1085.2649    220.96869    527.89186   -890.44153    522.66771   -148.44259    23.367844    23.549535    44.621376    85.339404    84.885296    112.80385 
  386500    232.55475   -12680.582   -11483.423   -12680.582            0    1757.2963    23.389287    21.575682    44.106727   -9.3358537    3.4866898    6.2849581    22258.011    2214.8012    2151.8389    905.24878    158.91887    352.14934   -1164.1154    23.389287    23.508897     44.68849    84.370809    85.525115    113.39826 
  387000    236.00122   -12735.575   -11520.674   -12735.575            0    1495.4471    23.532076    21.538698    43.857245   -9.1879239    4.1188867     5.815093    22229.057    1126.5774    2107.3211    1252.4427    311.21855   -847.83359    328.17383    23.532076    23.416521    44.432403    85.181061    84.681041      113.102 
  387500    226.66351   -12699.718   -11532.886   -12699.718            0    1309.3813    23.496289    21.607319    43.791516   -9.3211262    3.5218198    5.6783249    22232.594    896.11536     924.5171    2107.5115   -229.65414    625.65362    1119.3534    23.496289    23.532098    44.298346    85.054508    85.440042    113.33476 
  388000    232.54543   -12695.458   -11498.346   -12695.458            0    793.21446     23.59295    21.760736    43.527957   -9.1907326    4.3997739    6.1687586    22347.251    1112.4697   -215.61037     1482.784    -876.0959   -476.13819    4.1667998     23.59295    23.622006    44.182515    84.843646    84.284911    112.89696 
  388500    234.21159   -12738.951   -11533.263   -12738.951            0    975.53408    23.582234    21.605204    43.701554   -9.2413492    3.8337263    5.8300959    22265.898    308.97256    676.84566     1940.784    162.85839     803.4918    250.12208    23.582234    23.498668    44.255094    85.005794    85.030357     113.1582 
  389000     233.1968   -12680.724    -11480.26   -12680.724            0    1156.6558     23.58851    21.617695    43.685183   -9.4648285    3.7262537    5.6916266    22276.351    190.45304    1213.1553     2066.359    572.11525    816.46011    280.16899     23.58851    23.598892    44.211704    85.174294    85.165258    113.64514 
  389500    228.56396   -12691.169   -11514.554   -12691.169            0    1356.5019    23.495756    21.600712    43.833013   -8.9850041    4.0835317    6.0054683    22246.353    1026.9112    1278.2364     1764.358   -1064.9639    107.05443   -213.33687    23.495756    23.394894    44.430552    84.865088    84.726606    112.58529 
  390000    227.58596   -12715.628   -11544.048   -12715.628            0    1470.2218    23.439385    21.548109     44.04646    -9.376424    3.7150052     5.912344     22246.74    1954.6328    1590.9739     865.0588   -341.09944    214.09667   -899.02569    23.439385    23.499751    44.596499    84.932682    85.221574    113.51574 
  390500       232.66   -12666.264   -11468.563   -12666.264            0    1204.8415    23.410733    21.590504    44.197869    -9.005358    4.1636941    5.9710013    22339.792    2042.7018    1247.8011    324.02159    -799.3522   -488.10176   -445.46865    23.410733    23.393297    44.793312    84.994837    84.666459    112.64092 
  391000    232.62485   -12716.409   -11518.889   -12716.409            0    565.55426    23.446743    21.593375    44.133833   -9.3143149    3.9111728    5.9163247    22344.709     1227.552   -80.262192    549.37301    97.464814   -840.58543    307.14007    23.446743    23.516596     44.70006    85.016086    84.980306    113.33298 
  391500    240.27437   -12681.566   -11444.668   -12681.566            0    1325.9296    23.451325    21.617238     43.93958   -9.2491703    3.7665093    5.9165075    22275.296    1071.8702    1355.4284    1550.4902    -306.8131    61.765735   -178.09192    23.451325    23.512808    44.495824    84.896794    85.144182    113.16419 
  392000    233.38429   -12732.813   -11531.383   -12732.813            0    832.18541    23.569691    21.689735    43.618865   -9.0901294    4.2840917     6.004954    22298.851      683.531    795.67994    1017.3453   -872.95375    -871.6342   -207.33719    23.569691    23.517548    44.238199    84.965262    84.442684    112.73847 
  392500    234.58663   -12692.968    -11485.35   -12692.968            0    987.43338    23.626958    21.600588    43.684711   -9.4176635    3.5893126    5.8861825    22294.763    897.44493    325.05988    1739.7953    157.32061    618.27626    154.49678    23.626958    23.564333     44.22538    84.861271    85.344779    113.55677 
  393000    241.94984   -12674.878   -11429.354   -12674.878            0    886.20522    23.580741    21.599512    43.840636   -9.1986567    3.9781252    5.7875454     22329.46    1369.9977    720.64226    567.97574   -427.50129     -161.398   -52.852329    23.580741    23.476673    44.399578    85.134202    84.859504    113.06786 
  393500    244.74831   -12777.131   -11517.201   -12777.131            0    320.41742    23.404949     21.75267    43.853158   -9.1844487    3.8691009    6.0783002    22326.525    1001.5031   -305.47389    265.22306   -30.037566   -814.93993   -397.65155    23.404949    23.612131    44.441142    84.713456    85.005435    112.89052 
  394000    235.26557   -12756.256   -11545.142   -12756.256            0    965.09181    23.464107    21.574249     44.01748   -9.2907314    3.7819555    5.8982703     22282.55    1648.0648    155.05447    1092.1562   -318.32593   -21.678891   -71.542339    23.464107    23.489698    44.571643    84.952547    85.132534    113.29864 
  394500    235.31565   -12727.616   -11516.245   -12727.616            0    760.88128    23.499532    21.497559    44.131324   -9.0719749    4.1309595    5.9345444    22294.376    890.03982    1273.3191    119.28495   -825.46908   -412.75601    94.518585    23.499532    23.333362    44.719765     85.04638    84.699783    112.87976 
  395000    238.48027   -12738.921   -11511.258   -12738.921            0    1760.6957    23.380716    21.585555    44.002783   -9.4334976    3.7816608    6.0617473    22207.577    2964.7082    1463.8056    853.57319    594.99902    103.61282    197.01287    23.380716     23.55689    44.579038    84.800292    85.133724    113.60669 
  395500    230.34461   -12747.989   -11562.207   -12747.989            0    2227.5381    23.354163    21.588965    43.857959   -9.0330908    3.7339027    5.7097141    22112.842    2896.9159    1581.2848    2204.4137   -108.07771    84.692246    119.02782    23.354163    23.402567    44.385397    85.054999    85.174314    112.70504 
  396000    234.30215   -12716.909   -11510.754   -12716.909            0    1062.6084    23.538774    21.657419    43.764219   -9.3785505    4.1507459    6.0889928    22310.522    969.45443    1080.0491    1138.3218    254.98094   -789.72508   -867.17598    23.538774    23.600869    44.380304    84.909074    84.633468    113.41459 
  396500    239.16125   -12634.627   -11403.459   -12634.627            0    451.46482    23.593318     21.54974    44.035649   -9.1887515    3.5340673    5.7498593    22389.039   -681.48392    1013.8319    1022.0465    228.38492    4.4109122   -197.81729    23.593318    23.427003    44.549847    84.973959    85.450038    113.09327 
  397000    227.27062   -12712.506   -11542.549   -12712.506            0    794.59214    23.602762     21.57853    43.825395   -9.3353495    4.3277167    5.7219373    22320.839    192.09869     877.6687     1314.009    427.34066   -510.29619     325.4732    23.602762     23.51131    44.408726    85.436666    84.407539    113.39438 
  397500    240.49922   -12709.224   -11471.168   -12709.224            0     745.3395    23.504136    21.691613    43.774767   -9.2516789    3.6384445    6.0354356    22318.241    483.37163    555.50664    1197.1402    53.995523       668.44   -640.55003    23.504136    23.582189    44.338414    84.662895    85.292971    113.09871 
  398000    233.24804   -12684.992   -11484.264   -12684.992            0    412.36964    23.536721    21.615012    43.951387   -9.1947531    3.8940922    5.3914403    22360.114    78.774182    976.40025    181.93448   -234.81973    196.18553    468.46293    23.536721    23.489407    44.451726    85.565598    84.974292    113.04429 
  398500    240.05427   -12674.286    -11438.52   -12674.286            0    615.31969    23.589109    21.564424    43.890592   -9.2898848    4.0433921    6.3857298    22326.509   -313.44789    1012.5049     1146.902    23.765566     291.3896      -544.12    23.589109    23.480339    44.536622    84.504806    84.791057    113.30622 
  399000     231.3944   -12725.091   -11533.905   -12725.091            0    1237.7418    23.486479    21.572439    43.899565   -9.1714831    3.8369378    5.7620644    22242.181    974.64252    1439.8722    1298.7107   -608.40822   -32.733872   -3.3739076    23.486479    23.441122    44.442044    85.093019    85.047159    113.03268 
  399500    227.91384   -12715.346   -11542.078   -12715.346            0     1562.976    23.448862    21.572921    43.922576   -9.3725583    4.2380062    5.9709446    22218.694    2245.1401    694.51325    1749.2748    383.30233    1.7355453    95.833596    23.448862    23.520964    44.528705    85.120444    84.538625    113.48299 
  400000    236.38768   -12749.622   -11532.732   -12749.622            0     1594.979    23.361712    21.590318    43.983753   -9.0649543    3.5474805    6.0098169    22184.823    1854.1232    1999.4304    931.38327   -440.23681    392.04815   -565.79166    23.361712    23.416131    44.533954     84.62987    85.431099    112.77568 
  400500    231.05233   -12668.495    -11479.07   -12668.495            0    2051.6183     23.46925     21.59016    43.878422   -9.2718283    4.3859445    5.7003438    22233.411    1780.7818    2094.4501    2279.6229   -378.09622   -398.13861     637.0867     23.46925    23.496847     44.46399    85.476103    84.339118    113.24096 
  401000    238.65675       -12667   -11438.429       -12667            0    1452.4452    23.502902    21.553151    44.002977   -9.1454538    3.4215462    6.1138361    22290.218    1198.7636    1905.1184    1253.4536   -972.98834    1486.6701   -748.47793    23.502902    23.413194    44.557244    84.472857    85.595927    112.99253 
  401500    239.29369   -12681.329   -11449.479   -12681.329            0    1128.1649    23.558559    21.573938    43.782747    -9.334061    4.1050398    5.8067405     22252.62    1739.8629    1283.9032    360.72869   -497.98827   -77.337437   -387.31927    23.558559    23.506584    44.356493    85.216035    84.689875    113.39594 
  402000    239.21513    -12698.23   -11466.784    -12698.23            0    1762.6154    23.456877    21.625785    43.711474   -9.1945392    3.8026846    5.7463519    22173.667    1162.6857    2642.9606       1482.2    365.17529    805.22666   -290.58975    23.456877    23.499237    44.251259    85.073296    85.070268    113.03353 
  402500    235.51882    -12670.79   -11458.373    -12670.79            0     2097.212    23.501367    21.611102    43.701622   -9.2568927     3.689506     6.257802    22195.635    2444.2568     1566.647    2280.7323    209.00731   -95.129187   -642.06525    23.501367    23.510206     44.30129    84.430462    85.222752    113.18737 
  403000    238.20331   -12709.137     -11482.9   -12709.137            0    1806.5108     23.46366    21.540001    43.871015   -9.2656766     4.077359    5.6197942    22172.729    1275.0014     2289.706    1854.8251    175.53053   -211.19287    36.523987     23.46366    23.448334    44.417034    85.414169    84.732993    113.27551 
  403500    238.16716   -12715.321    -11489.27   -12715.321            0    1330.3477    23.381195    21.639566    43.903923   -9.0900939    3.4995849     6.208922    22213.581    1907.9566    985.73793    1097.3486    474.31844   -533.59995   -186.06622    23.381195    23.471273    44.478672     84.36288      85.4873    112.78573 
  404000    229.90778   -12716.543    -11533.01   -12716.543            0    1844.8199    23.446362    21.610339    43.847404   -9.3874703    4.2186175    5.8690209     22216.77    2257.5803    1903.8927    1372.9868    300.10454   -947.64168   -165.35606    23.446362    23.561226    44.439138    85.221126    84.552696    113.47999 
  404500    240.42803    -12731.48   -11493.791    -12731.48            0    423.54461     23.49511     21.56947    44.066553   -9.0448648    3.6626482    5.7214057    22331.919    106.01459    314.30982     850.3094   -465.76888    433.93986    714.94967     23.49511    23.389135    44.587112    85.033706    85.288078    112.75008 
  405000    233.59285   -12719.582   -11517.079   -12719.582            0    441.42794    23.479564    21.604955    44.051466   -9.4834067    3.9477382    6.2214161    22346.204    1411.1075     229.6298   -316.45347    643.20413    -756.8231   -647.53128    23.479564    23.594683    44.663433    84.720013    84.929089    113.69888 
  405500    235.36958    -12659.17   -11447.521    -12659.17            0   -168.80014    23.420947    21.663635     44.23359   -9.0070977    3.9400591    5.7133354    22443.365    743.94481   -320.74394   -929.60128   -839.65912   -486.25925   -26.522812    23.420947    23.461477    44.774733     85.17914    84.951592    112.57609 
  406000    236.05459   -12695.287   -11480.111   -12695.287            0    590.32593    23.432104    21.677481    44.045174   -9.3192962    3.8489916    6.0751307    22372.702    657.66059    746.36232    366.95487    602.35869    324.88366   -141.95964    23.432104    23.595815    44.628458    84.779049    85.052366     113.2632 
  406500    238.10448   -12758.255   -11532.527   -12758.255            0    900.63733    23.574508    21.542917    43.828965   -9.2152844    4.1022288    5.9051819    22259.139    1177.6697    768.14229    756.09997   -231.34296   -385.76605    472.22001    23.574508    23.431148    44.414836    85.071318    84.700513     113.1595 
  407000    238.03526   -12727.499   -11502.127   -12727.499            0     814.9434    23.593536    21.592043    43.716713   -9.2486554    3.8816223    5.8018774     22270.72    402.70454    617.50424    1424.6214    288.97611   -250.37176    188.41105    23.593536    23.489443    44.270529    85.069563     84.96987    113.18721 
  407500    231.91229   -12715.738   -11521.887   -12715.738            0     1369.955     23.49075    21.647518    43.741251   -9.4133373    3.7984503    6.1654157    22243.145    938.08895    885.15929    2286.6168     176.5876   -357.00058    575.73594     23.49075    23.605634     44.33664    84.643076    85.085277    113.50162 
  408000    237.86553   -12707.425   -11482.927   -12707.425            0     1424.675    23.528443    21.610971    43.740054   -8.9741089    4.2079885    5.2191173    22240.614    678.61964    1624.8295    1970.5758   -271.03631   -352.68193    786.43924    23.528443    23.400185    44.250861    85.844901    84.543274    112.55102 
  408500    236.60565   -12695.515   -11477.502   -12695.515            0    1207.9709    23.557896    21.585594    43.859202   -9.4515371    3.8268149    6.1487331    22302.894    858.61586    1411.7906    1353.5062    1222.9987   -347.18285    335.03156    23.557896    23.564155    44.453133    84.711177    85.061494    113.64684 
  409000    235.26021   -12679.809   -11468.722   -12679.809            0    1279.2447    23.500893    21.505371    44.080707   -9.0745429    3.9090016    5.7721384    22278.187    1249.8267    1884.5831    703.32431   -1104.2591    381.05091    200.81073    23.500893    23.341558     44.62854    85.117621    84.975039    112.87811 
  409500    232.39146   -12723.393   -11527.074   -12723.393            0    763.08327    23.427739    21.629931    43.979966   -9.2312702    4.2338242    5.8393823    22286.425    975.81845     1257.854    55.577304   -100.15892   -800.95548   -425.35648    23.427739    23.517446    44.567489    85.226442    84.548793    113.11193 
  410000    235.29643   -12723.559   -11512.287   -12723.559            0     1127.968    23.398664    21.675739    43.893384   -9.2980948    3.4131694    6.1889858    22261.994    1330.7881     891.0076    1162.1084    170.69039    844.06593   -610.01196    23.398664    23.585848    44.458773    84.395078    85.596981    113.21755 
  410500    240.00064   -12688.636   -11453.147   -12688.636            0    609.96888    23.500456    21.607906    44.034832   -9.0595435    4.4065945    5.5803539    22360.696    126.40817    846.31081    857.18766   -253.44414    -242.2728    608.41508    23.500456    23.430257    44.605211    85.573712    84.330443    112.74684 
  411000    240.56748   -12653.559   -11415.151   -12653.559            0     73.42012    23.592431    21.579781     44.06902   -9.3623045    3.5390474    6.2277872    22436.398     -125.872    1212.2726   -866.14025    86.716935     268.4968   -698.45795    23.592431    23.523174    44.647382    84.467179    85.453587    113.45342 
  411500    225.43426   -12717.236   -11556.733   -12717.236            0    1346.3991    23.446973    21.600316     43.85299   -9.2641016    4.0194047    5.6981327    22209.875    1630.9542    1354.6522     1053.591    1051.5244   -429.98157    418.39749    23.446973    23.503133    44.403931    85.281729    84.806528    113.21388 
  412000    235.34157   -12690.091   -11478.586   -12690.091            0    420.78597    23.456725    21.738646    43.863926   -9.0930718     3.844715    6.0864878    22366.982    1104.2049   -716.36129    874.51427   -302.27611    255.45302    502.19034    23.456725      23.5638    44.450773    84.667032    85.038072     112.6991 
  412500    240.76927   -12714.916    -11475.47   -12714.916            0    383.82357    23.586667    21.598445    43.916555   -9.3924963    3.8344295    5.9289557    22372.645    355.87193    279.31273    516.28604    436.78394    120.16807    314.70952    23.586667    23.552321    44.480548    84.959633      85.0547    113.50273 
  413000    233.65877   -12715.334   -11512.492   -12715.334            0    552.32261    23.605152    21.592729    43.809258   -9.0975545    4.1994296    5.5779233    22329.564    84.224786    867.34621    705.39684   -34.009801   -635.86324    851.72841    23.605152    23.430993    44.362141     85.46219    84.568107     112.8469 
  413500    240.69102   -12718.258   -11479.215   -12718.258            0    476.11866    23.471148    21.717731    43.705385   -9.4600173    3.6173361    6.2689756    22278.386    961.48352    369.29882    97.573626    815.05573   -379.82387   -493.54615    23.471148    23.688642     44.30063    84.426209     85.31634    113.53744 
  414000    231.67394   -12675.029   -11482.404   -12675.029            0    1124.4501    23.415767     21.68255    43.872903   -9.1202894    3.9581987    5.7079684    22274.867    1819.6821    1006.2743    547.39388    641.41407   -200.06394    175.14852    23.415767    23.522599    44.419363    85.187241    84.887606    112.81299 
  414500    230.73222   -12723.052   -11535.275   -12723.052            0    100.99628    23.552376    21.558341    44.101491    -9.250886    3.9851565    6.0254334    22392.539    1119.1851   -214.13445   -602.06182   -128.31257   -196.15954   -190.92418    23.552376    23.459347    44.689247     84.90894    84.883862    113.22462 
  415000    238.12035   -12735.677   -11509.867   -12735.677            0    1024.3094    23.606795    21.485389    43.947376   -9.3736988    3.7809767    5.8827854    22290.161    549.80894    1374.3504    1148.7688   -125.09911    566.77082    209.69122    23.606795    23.441164    44.500279    84.997977    85.125974     113.5708 
  415500    237.86576    -12731.39   -11506.891    -12731.39            0    758.90594    23.419468    21.715181    43.901803   -9.0889782    3.9923772    5.8327055    22326.612    1729.1461    87.245222    460.32645   -773.84805   -26.101843    517.90923    23.419468    23.540573    44.467154    85.047331    84.848899    112.71195 
  416000    233.67277   -12726.879   -11523.965   -12726.879            0    763.12802    23.364433    21.742394    43.873519   -9.2898322    3.8634212    6.2155213    22287.691    1378.8578    459.13457    451.39173    423.19197   -470.90119   -541.48318    23.364433    23.643872    44.479708    84.584751    85.017121    113.13547 
  416500    232.13193   -12705.307   -11510.325   -12705.307            0    675.81852    23.552341    21.553223    43.994447   -9.1244241    3.7963964    5.4422518    22332.851    381.84327    863.26651    782.34578   -80.404661    26.268538   -52.181595    23.552341    23.405054    44.492045    85.447255    85.105141    112.94507 
  417000    227.28423   -12686.039   -11516.012   -12686.039            0   -620.29945    23.695015    21.511913    43.985669   -9.3147862    3.9691775    6.1927027    22420.599   -1579.4717    32.590388   -314.01706    443.80081   -477.91756   -619.98287    23.695015    23.442006    44.596446    84.717732    84.893799     113.4129 
  417500    236.21767    -12715.74   -11499.724    -12715.74            0    636.71628    23.481247    21.628538    43.948946    -9.274497    3.7510007    5.7578204    22320.134    1380.5023    416.24057    113.40595    580.35639   -145.67624    56.747193    23.481247    23.533167    44.482945    85.081978     85.16282    113.21006 
  418000    237.94315   -12739.614   -11514.716   -12739.614            0    1403.3448    23.328412    21.755209    43.825144    -9.175646     4.029294    5.8980247    22241.895    2365.1702     478.9972    1365.8669    42.970382   -324.99311    297.54308    23.328412    23.611048    44.403436     85.00185    84.793656    112.86845 
  418500    234.48831   -12693.471   -11486.358   -12693.471            0    1277.6634    23.499172    21.651325    43.743286   -9.2826433    3.7081944    6.1711909    22256.068    1276.3336    1475.2688    1081.3878    104.77237   -687.83775   -280.09148    23.499172     23.55732     44.33181    84.549758     85.20181    113.20642 
  419000    237.43763   -12707.139   -11484.843   -12707.139            0    1288.9021    23.651727    21.394572    43.967746    -9.210411    4.2968788     5.187677    22248.497    286.63901    2799.9525     780.1149     -59.4257   -365.91514    190.51543    23.651727    23.292904    44.480758    86.047762    84.456535    113.29199 
  419500    237.25873   -12703.858   -11482.484   -12703.858            0    894.41664    23.540469    21.548765    43.968364    -9.297351    3.7133868    6.0326805    22303.746    817.53805    1929.2632   -63.551373    887.04555   -635.74562    -1126.555    23.540469    23.468916    44.535374    84.759086     85.21709    113.33809 
  420000    230.94773   -12716.349   -11527.463   -12716.349            0    1296.1538     23.37918    21.710121    43.837994   -9.1770377    4.0938175    5.9932556    22250.624    1472.3427    861.05736    1555.0615    257.52584   -610.90243   -986.25497     23.37918    23.570053    44.434763    84.930562    84.713788    112.91416 
  420500    239.52166   -12633.297   -11400.273   -12633.297            0    1341.0589    23.366521    21.778982    43.805905   -9.1730805    3.7624565    5.8246282    22292.783    1426.5135    1010.5417    1586.1216   -44.469307     553.1521     373.0372    23.366521    23.631958    44.351321    84.945536    85.133577    112.84032 
  421000    235.49222   -12703.548   -11491.268   -12703.548            0    780.19943    23.550078    21.595355    43.802019   -9.2931886    3.7349164    6.1256075    22276.494    665.22778    1589.1658    86.204743    316.99568    835.08297   -877.11463    23.550078    23.510055    44.385691    84.634611    85.173032    113.28379 
  421500     242.6721   -12683.177   -11433.935   -12683.177            0    1367.3909    23.649791    21.447888    43.945091   -9.1802033    4.0736786    5.5648002    22290.624    1204.7254    1684.1104     1213.337    319.40874   -170.26578   -159.16012    23.649791    23.329982     44.48295    85.470524    84.745581    113.17207 
  422000    237.32682   -12687.768   -11466.043   -12687.768            0    1291.4364    23.487629    21.596564    43.939086   -9.3688988    3.6888714    6.1192156    22288.193    870.72736    1590.1973    1413.3845    1040.9058    584.09673   -508.35387    23.487629    23.541195    44.516243    84.656501    85.246692    113.45189 
  422500    233.76951   -12670.542    -11467.13   -12670.542            0    1913.4583    23.327669    21.730279    43.824376   -9.0802727    4.1304064    5.8073026     22215.31    2491.6045    1229.1121    2019.6585   -619.41545   -777.37891   -441.81774    23.327669    23.551143     44.40001    85.134586    84.662219    112.67823 
  423000     236.6331   -12700.724   -11482.571   -12700.724            0    1484.1816    23.446687    21.633154    43.866657   -9.2182298    3.7780691    5.8122937    22250.299      1460.88    1431.8917     1559.773     572.4191    14.636751    314.64904    23.446687    23.515295    44.411036    85.006001    85.119921    113.07962 
  423500    233.34142    -12707.88   -11506.672    -12707.88            0    1308.2909     23.55673    21.557721    43.821791   -9.3340382     3.901751    6.1821829    22253.994     1291.982    1304.6684    1328.2223   -50.222101   -549.14851    -596.6613     23.55673    23.491693    44.427383    84.675197    84.961615    113.41159 
  424000    229.91772   -12718.245   -11534.661   -12718.245            0   -48.819981    23.638388    21.533675    44.005719   -8.9504617    4.1581994    5.4091402    22399.852   -839.14718    356.29344     336.3938   -735.44445    455.84543    725.60268    23.638388    23.319733     44.53148     85.62263    84.642108    112.57019 
  424500    234.40484   -12669.857   -11463.174   -12669.857            0    392.87094    23.497936    21.687206    43.907481   -9.3755931    3.7981286    6.0429326    22375.453    121.77738    1017.3383    39.497141    88.154525    58.377926   -436.84471    23.497936    23.627032    44.483814    84.789713    85.101993     113.3793 
  425000    242.53998   -12706.353   -11457.791   -12706.353            0    175.37968    23.488874    21.712428    43.890308   -9.1604932    3.9061792     5.768663    22384.078   -36.697713   -105.72787     668.5646   -171.14923    359.93758   -32.637048    23.488874    23.565741    44.439789    85.099137    84.957294    112.87493 
  425500    239.67009   -12683.614   -11449.826   -12683.614            0    335.94464     23.63479    21.527206    44.034851   -9.2818168     3.770517    6.0153281    22404.535   -732.31762    1172.4569    567.69464   -98.972895     492.3038   -537.92985     23.63479    23.442967    44.603465    84.815014    85.150762     113.3241 
  426000    235.88886   -12679.124   -11464.801   -12679.124            0    853.48771    23.546925    21.573882    43.972189   -9.3176962    4.1407717    5.9798748     22337.81    188.02901     1786.387    586.04707    233.52774    706.05422   -323.10603    23.546925    23.500039    44.569702    85.047188    84.669218    113.35937 
  426500    229.21129   -12677.127   -11497.179   -12677.127            0    443.77514    23.393121    21.663682    44.057389   -9.0510073    3.6685549    5.5615695    22327.454    191.97863    1072.4869    66.859888   -569.15663    432.27863   -94.981479    23.393121    23.478412    44.558309    85.214307    85.277404    112.67499 
  427000    234.19575   -12710.087    -11504.48   -12710.087            0    1071.5813    23.459818    21.664158    43.880561   -9.4041062    4.0012581    6.3594164    22301.734    907.15252    1121.7699    1185.8213    1087.0391   -446.55773   -193.16038    23.459818    23.617218    44.519163    84.534537    84.843457    113.46499 
  427500    240.59856    -12698.44   -11459.872    -12698.44            0     1041.293    23.529796    21.603256     43.87319   -9.2009154    3.8738749     5.747762    22301.629    1334.3818    595.56763    1193.9297    335.79752    -260.9445    290.82722    23.529796    23.481003    44.417344    85.130853    84.996571    113.06935 
  428000    230.68549   -12680.995   -11493.458   -12680.995            0    508.00688    23.599814    21.507712    44.096398   -9.3442282    3.8389915    5.9066182    22382.361    575.93455    528.51579     419.5703    711.26468    326.71025    154.31851    23.599814    23.449867    44.655552    85.005557    85.068254    113.48299 
  428500    231.06959   -12689.983   -11500.469   -12689.983            0    439.67355    23.484581    21.717003    43.899688    -9.174913    3.8936342    6.1777149    22389.488    1102.1728   -256.52531    473.37312    144.32443   -176.13667    55.147135    23.484581    23.575565    44.502889    84.616397    84.980676    112.90289 
  429000     233.5909   -12669.915   -11467.422   -12669.915            0    897.21711    23.439979    21.671154    44.005332   -9.2409413     3.947344    5.5653686     22353.45    1418.1615    832.61876    440.87103    284.82993    178.27273    716.88739    23.439979    23.559158    44.531158    85.400396    84.914496    113.09421 
  429500    237.12316   -12669.067   -11448.391   -12669.067            0    1679.8919    23.448642    21.577369    44.006635   -9.2493169    3.6552689    6.1265258    22265.597    2015.5655    1815.2217    1208.8886    11.166126    150.56589   -414.09096    23.448642    23.476216    44.581153    84.605933    85.296962    113.20279 
  430000    235.10791   -12757.551   -11547.248   -12757.551            0    1685.0629    23.476962     21.52305    43.859421   -9.1397977     4.214446    5.8533536    22161.983    1736.6899    1726.9623    1591.5363   -451.03327   -887.34232   -280.08066    23.476962    23.383276    44.448533    85.172777    84.559252    113.00858 
  430500    236.12508   -12672.146   -11456.607   -12672.146            0    2232.8953    23.444229    21.598309    43.791783   -9.1864495    3.6779146    5.7783918    22174.218    871.23867    2752.0753    3075.3719     840.1997    535.94257    403.69177    23.444229    23.470786    44.324227    84.980856    85.240265     113.0416 
  431000    230.07623   -12731.029   -11546.629   -12731.029            0    2262.3376    23.544435    21.616155    43.489352   -9.3436074     4.297873    6.1738927    22133.477    1803.5759    2175.8052    2807.6315    89.315586   -89.439148   -266.71697    23.544435    23.549122    44.135161    84.849832    84.411693    113.37647 
  431500    236.13697    -12708.46    -11492.86    -12708.46            0    1219.8842    23.497634    21.549247    43.922092   -9.1203443     3.839033    5.7062491    22240.229    1992.4052    1050.9647    616.28282   -463.04959   -423.03782    67.715796    23.497634    23.399802    44.457278    85.150104     85.04615    112.93967 
  432000    240.14601    -12687.69   -11451.452    -12687.69            0    1314.3659    23.479951    21.616116    43.947317   -9.3315604    3.7309187    6.0950683    22305.256    2335.0901    1456.0097    151.99795   -134.19199   -0.1018566   -867.41523    23.479951    23.544309    44.524558    84.694273    85.193285     113.3496 
  432500    231.35828   -12682.697   -11491.697   -12682.697            0    676.28979    23.488441    21.670912    43.968705   -9.0817654    4.0170221    5.8247717    22380.771    393.81465    1128.1541    506.90064   -446.11002     446.2231   -308.16054    23.488441    23.496955    44.534385    85.079981     84.82486     112.7374 
  433000    234.73242   -12704.452   -11496.082   -12704.452            0    -155.6414    23.560731    21.599131    44.145243   -9.3520398    3.8916279    5.8310306     22465.13    184.57145    374.33613   -1025.8318   -245.81031   -164.46648   -455.39281    23.560731    23.536846    44.698413    85.117117     85.00527    113.41175 
  433500    235.72353   -12701.659   -11488.188   -12701.659            0   -378.88567    23.605235    21.614208    43.958065   -9.2505556    3.6750856    6.0187565    22427.777   -1339.8481    541.91906   -338.72801   -275.42649    755.84605   -713.45108    23.605235    23.510567    44.520143    84.732415    85.264912     113.1702 
  434000    230.25971   -12679.088   -11493.743   -12679.088            0     489.5658    23.514901     21.68401    43.871119   -9.1867164    4.1407581    5.7953736    22369.768    127.18659    448.61808    892.89273   -55.790048   -181.71518   -135.47071    23.514901    23.549778    44.445555    85.197649    84.654302    112.96058 
  434500    237.95835   -12675.905   -11450.929   -12675.905            0    1491.6869    23.476051    21.681157    43.796416   -9.3274831    3.6083055    5.8860191    22291.847    1539.7882    959.82257    1975.4499   -8.3566874    265.12989   -326.56544    23.476051    23.602426    44.337244    84.848635    85.331925    113.27793 
  435000    229.84069    -12741.93   -11558.742    -12741.93            0    1201.8237    23.609214    21.560249    43.612338   -9.0452113    4.1430101    6.1719714    22199.575    1513.4523    1116.8963    975.12254   -750.47559   -567.83934   -403.41579    23.609214    23.380765    44.241313     84.69738    84.626622     112.7596 
  435500    233.84226    -12729.68   -11525.893    -12729.68            0    2066.4347     23.47426    21.506936    43.909169   -9.3581188    3.8521025     5.681321    22167.957    1891.7226    2603.2693    1704.3122    504.58932   -18.287262    415.56364     23.47426    23.454694    44.442449     85.25985     85.02758    113.51487 
  436000    237.94636   -12672.942   -11448.027   -12672.942            0    1174.5311    23.439052    21.643238    43.983341   -9.0878479    3.7994358     6.105644    22312.616   -302.27943    2236.4285    1589.4442    -17.54788    1027.5481  -0.35653685    23.439052    23.473788    44.567352    84.645965     85.10951     112.7772 
  436500    230.82255   -12719.595   -11531.353   -12719.595            0    1146.8498    23.393737    21.635952    43.972425   -9.3602478    4.3228199    5.7276221    22256.457    1280.6455    903.75407    1256.1497    793.93722     492.9197    324.99032    23.393737    23.573898    44.554086    85.442364     84.43217     113.3945 
  437000     228.8267   -12682.134   -11504.167   -12682.134            0    804.40639     23.50207    21.562218    44.044872   -9.1822311    3.5235043    5.8383022    22320.036    908.03274    1265.8405    239.34597   -498.92881    922.65984    95.010266     23.50207    23.435926    44.569626    84.862533    85.465683    113.06664 
  437500    238.48549   -12669.819    -11442.13   -12669.819            0    982.97114    23.593498    21.568234    43.922715   -9.3389823    4.3243931    6.1468965    22350.956    1333.0938    819.93149    795.88813     -655.302     94.05023   -725.70825    23.593498    23.503304    44.561078    84.949958    84.431014    113.41247 
  438000    240.18896   -12735.492   -11499.033   -12735.492            0    232.12924    23.499416    21.664824    43.941871   -9.2001229    3.3652849    5.5035377    22371.277   -273.08072    855.43587    114.03258   -188.97812    1610.1511    332.44584    23.499416     23.53735     44.41286    85.156075    85.654376    113.00885 
  438500    233.95063   -12680.711   -11476.367   -12680.711            0    860.10577     23.51707    21.712933    43.739669   -9.3452956     4.104151    6.0669786     22334.55    732.89155    976.93942    870.48633    59.416138    -83.69199   -533.13379     23.51707    23.638655    44.348742    84.889819    84.690098    113.28715 
  439000    241.80674   -12710.644   -11465.857   -12710.644            0    1230.6086    23.493703    21.661103    43.714199   -9.1198974    3.6367108    5.8940479    22246.134    2115.8986    525.60902    1050.3181    515.36955   -1063.0577    681.70286    23.493703    23.502678    44.259425    84.787402    85.286804    112.83238 
  439500    240.58045   -12673.004    -11434.53   -12673.004            0    1602.9351    23.578504    21.452344    43.998056   -9.4050176    4.1554121    5.6309628    22254.841    1345.8978    2394.6937    1068.2139    1471.5316   -1317.7845   -10.800777    23.578504    23.423437    44.551141    85.508792     84.64808    113.67334 
  440000      230.081    -12730.88   -11546.456    -12730.88            0    1060.3894    23.427166    21.530032    44.100956   -9.1578935    3.8033536    6.1218295    22243.977     1815.233    1677.2965    -311.3614    486.20583   -413.34679   -654.13719    23.427166    23.396779    44.685977    84.678079    85.117482    113.04269 
  440500    236.27631   -12721.522   -11505.205   -12721.522            0    985.31718    23.276349    21.639616    44.199317   -9.1443498    3.9557022      5.84842     22262.81    1827.2142    962.62149    166.11585    331.69166   -24.319138    11.144536    23.276349    23.492384    44.759705     85.06892     84.92979    112.90768 
  441000    227.78239   -12758.076   -11585.484   -12758.076            0    1176.8649    23.423163     21.58825    43.979116   -9.2662122    3.8278157    5.8304887    22238.704    1449.6635    865.31597    1215.6152   -614.68996   -14.181817     276.4935    23.423163    23.492876    44.528749    85.042534    85.068608    113.23021 
  441500    234.08486   -12668.102   -11463.066   -12668.102            0    1690.2666    23.653578    21.475649    43.769223   -9.1159437    3.9669161    6.2056727    22233.712    1115.4805    1727.8922    2227.4271     48.51308   -576.13666   -390.82975    23.653578    23.330322    44.384588    84.618959    84.872291    113.00016 
  442000    237.35043   -12715.894   -11494.047   -12715.894            0      1596.57    23.500241    21.595467    43.734392   -9.3984215    3.6592742     5.577225    22195.146    1587.0267    1798.0477    1404.6356    412.13993    407.72546    109.83597    23.500241    23.551953    44.240171    85.262692    85.255426    113.51884 
  442500    235.35212   -12675.932   -11464.372   -12675.932            0    1731.6883    23.449355    21.659943    43.802302   -9.1299739    4.0263457    5.9024403    22247.701    1511.0951    1859.1913    1824.7784   -169.32764    426.09753    -569.8307    23.449355    23.505522    44.381211    84.990908    84.794864    112.85611 
  443000    235.51208   -12707.295   -11494.912   -12707.295            0    1622.9137    23.484505    21.465786    44.108188   -9.3082388    3.7008266    6.1430271    22235.527    1481.6944     2430.754    956.29275     170.0979    78.140669   -1217.9982    23.484505    23.397079    44.687416    84.653868     85.24956    113.44307 
  443500    239.88172   -12704.049   -11469.172   -12704.049            0    308.56438    23.503172    21.510717    44.188883   -9.2566169    3.7370124    5.8331562    22340.577    559.58205    789.64517    -423.5341   -514.61451    558.29886   -698.67498    23.503172    23.417854    44.728608    85.022393    85.207431    113.28346 
  444000    228.91125   -12664.556   -11486.153   -12664.556            0    640.85277    23.466696    21.641755    44.057568   -9.1726716    4.3504656    6.0027405    22375.099    1293.3103    445.47054    183.77751   -1066.3351   -379.73302   -535.18837    23.466696    23.505393    44.676938    85.083355    84.411906    112.96924 
  444500    228.20839   -12705.107   -11530.323   -12705.107            0      1885.86    23.381754     21.64606    43.890307   -9.2249899    3.3780273    5.9318092    22213.887    2486.8002    1047.0522    2123.7277   -135.23875    646.90146    383.14493    23.381754    23.529818    44.417974    84.661614    85.638393    113.08245 
  445000    238.50945   -12693.449   -11465.636   -12693.449            0     1432.964    23.492762    21.592465    43.829573   -9.3103729    4.1441081    5.6884255     22233.28    1172.0287    1327.3683    1799.4949    459.16816   -467.35609    93.488079    23.492762      23.5142    44.391027    85.370773    84.643374    113.32504 
  445500    241.39562   -12694.632   -11451.962   -12694.632            0    1182.5641    23.574249    21.509096    43.952485   -9.0557773    3.4712305    6.4644233    22286.581    1400.6246    922.87457    1224.1931   -890.22316    -42.21876   -1202.0146    23.574249    23.337702    44.560735    84.060639    85.532198    112.83211 
  446000    241.97408   -12703.026   -11457.378   -12703.026            0    928.67635    23.518447    21.604887    43.996853    -9.380654    4.0871522    5.6737346     22355.39    880.78075    1143.6387    761.60959   -71.814816   -202.18339   -185.75867    23.518447     23.55351    44.549064    85.395148    84.735999    113.47007 
  446500    233.88569   -12712.375   -11508.364   -12712.375            0     856.6019    23.510772    21.642784    43.951129   -9.1473225     4.057338    5.8424654    22364.029    1023.8406    456.77324    1089.1919    -200.4694    -225.9892    695.79468    23.510772     23.49646    44.523006    85.101321    84.771438    112.91135 
  447000    242.73698   -12704.119   -11454.543   -12704.119            0    581.29564    23.471185    21.617722    44.118436   -9.2284828    3.5463923      6.42698    22385.409    1147.4656      770.191   -173.76969    75.870579   -328.95825   -732.78178    23.471185    23.505123     44.72493    84.201539    85.452048    113.11736 
  447500    227.22021   -12682.891   -11513.193   -12682.891            0    1196.1358    23.469913    21.591465    44.016432   -9.2788226    4.1355822    5.5449319    22305.318     1122.133    1821.3584    644.91583    107.07249   -356.17219    162.80795    23.469913    23.500806    44.556656    85.544238    84.674355    113.25537 
  448000    233.12061   -12693.045   -11492.973   -12693.045            0    499.88838    23.514701    21.612281    44.016099   -9.1915658    3.7653488    6.0193437    22369.259    760.57175    1028.8032   -289.70979   -108.44413    37.486629   -519.07524    23.514701    23.485646    44.585057    84.768125     85.15542    113.03974 
  448500    229.36186   -12710.385   -11529.662   -12710.385            0   -271.47172    23.668157    21.675358     43.71115   -9.4800146     4.094808    6.0868481    22424.509   -1181.8181     252.1712    115.23173    332.57602    12.036082   -2.3712595    23.668157    23.657807    44.322476    84.905286    84.699072    113.62282 
  449000     233.6487   -12719.835   -11517.045   -12719.835            0    86.603815    23.558843    21.656484     43.79731   -9.1443779    3.9678532    5.6255014    22345.462   -259.71252   -407.86968    927.39365   -92.035439   -266.79336    1089.7569    23.558843    23.507933    44.335026    85.291909    84.865328    112.89174 
  449500    234.11771   -12723.612   -11518.407   -12723.612            0     659.1844    23.543545    21.612213    43.831718   -9.4522809    3.8368667    6.3268682    22302.811    671.87927    139.78479    1165.8891    116.05012    104.44876   -271.34317    23.543545     23.58884    44.451888    84.501666    85.048351    113.62256 
  450000    234.47704   -12692.831   -11485.776   -12692.831            0    369.76911    23.431889    21.622665     44.06985   -8.9972405    4.0807633    5.6431346    22328.425    351.58076    204.88393    552.84265   -768.69416   -45.142269    710.08614    23.431889    23.419862    44.616693    85.317326    84.752239    112.59231 
  450500    235.34281   -12705.073   -11493.561   -12705.073            0    1211.9345    23.460467    21.609483     43.99301   -9.3376632    3.8800113    5.8321197    22303.072    1978.0951    980.42031    677.28808   -162.85864    441.71364    197.57291    23.460467    23.540639      44.5472    85.087677     85.00327    113.36963 
  451000    227.05266   -12752.204   -11583.369   -12752.204            0    2237.3182    23.439666    21.558874    43.852426   -9.0852021    3.8550946    6.3325859    22160.069    2658.6197     1984.516     2068.819   -582.11389   -126.17858   -432.22644    23.439666    23.394998    44.474697    84.401908    85.027326    112.85122 
  451500    237.96563   -12734.025   -11509.011   -12734.025            0    1227.5102    23.491783    21.600926    43.876327   -9.2388597    4.0165605    5.6376262    22264.791    978.61792    2134.1521    569.76055   -535.50802    560.76962    140.52182    23.491783    23.493755    44.419001    85.346217    84.811978    113.15672 
  452000    234.48995   -12675.299   -11468.178   -12675.299            0    1931.6901    23.490757     21.59343    43.839987     -9.28896       3.5747    5.9978158    22237.659     2276.973    1623.6476    1894.4497   -195.66383    642.07669   -329.75197    23.490757    23.506616     44.39253    84.704534    85.381268    113.27618 
  452500    237.77434   -12740.884   -11516.856   -12740.884            0    844.72001     23.48417    21.668378    43.791087   -9.0330109    4.5897448    6.0525839    22283.702      1394.59    534.97858    604.59143   -1440.6869   -262.47982   -326.43425     23.48417    23.475815    44.445009    85.068699    84.072615    112.63005 
  453000     231.7862   -12739.848   -11546.646   -12739.848            0    863.40667    23.468173    21.557537    44.005106   -9.3734908    3.4463503    5.7736764    22262.888    390.22932     953.8744    1246.1163   -222.26748    1260.6405    112.48497    23.468173    23.507227    44.515863     84.94733    85.559805    113.50002 
  453500     232.0056     -12622.8   -11428.468     -12622.8            0     996.1529    23.451855    21.608891    44.159724     -9.13304    4.0585393    5.9552591    22378.761     1374.906     1552.839    60.713635   -17.986956    69.163081    -493.8313    23.451855    23.459681    44.743917    84.992642    84.795779    112.91144 
  454000    236.71746   -12690.717   -11472.129   -12690.717            0    491.86274    23.483146    21.664236    43.917836    -9.134106     4.147562     5.893456    22342.954    488.16815    217.53804    769.88203   -204.39128    241.50204    279.65099    23.483146    23.511083    44.505184    85.077155    84.652688    112.86133 
  454500    236.73446   -12678.477   -11459.802   -12678.477            0    1164.0101    23.511369    21.554015    43.974265   -9.4228006    3.3686514     5.879701    22284.592    298.33229    1215.4347    1978.2633    834.04802    514.00398    614.32437    23.511369    23.523706     44.49331    84.792927    85.657901    113.61358 
  455000    233.00974   -12687.561   -11488.059   -12687.561            0    1449.0625    23.589878    21.583242    43.780041    -9.062824    4.4989969    5.8184496    22290.435    1742.3007    1090.8859    1514.0011   -261.05558   -736.76945   -8.9066714    23.589878    23.408783    44.393551    85.318976    84.183461    112.77758 
  455500    240.33422    -12762.24   -11525.033    -12762.24            0    2029.2374    23.513861    21.611935     43.70349   -9.3028613    3.6981365    6.0179483    22209.241    1063.5926    2147.0784    2877.0412    735.83301    16.215967    23.793979    23.513861    23.529108     44.27061    84.731011    85.208225    113.28947 
  456000    238.62538   -12674.285   -11445.875   -12674.285            0    2181.7483    23.477055    21.638975    43.623475   -9.2627751    3.9434644    5.4983113    22161.572    2558.3513    1660.2561    2326.6375   -472.97263   -283.94599    -495.4097    23.477055    23.538144      44.1451    85.448889    84.874959    113.17382 
  456500     231.3493   -12730.959   -11540.005   -12730.959            0    1513.7687    23.483141    21.577751    43.864655   -9.1628198    3.9034565    6.0254559    22226.806    1269.0816    1663.4332    1608.7912   -228.59582   -429.18659   -812.61211    23.483141    23.442623    44.448296    84.810416    84.961785    113.00812 
  457000    226.98017   -12695.367   -11526.905   -12695.367            0    1276.5371    23.495877    21.455499     44.21516   -9.5047463    3.8766414    6.0081849    22289.559    472.21946    2610.4684     746.9235    464.45741    660.40941   -383.20838    23.495877    23.466543    44.789586    84.975021    85.034706    113.89325 
  457500    233.72923   -12657.861   -11454.656   -12657.861            0    1294.7889    23.447139     21.61751    44.012428    -9.020917    3.9774547    5.7618301    22308.525    1164.3576    2011.0902    708.91888   -375.86977    142.58247   -58.938493    23.447139    23.424211    44.565824    85.127116    84.879597    112.65062 
  458000    227.58028   -12696.027   -11524.476   -12696.027            0     537.3295    23.494265    21.656312    43.879139   -9.4079123    3.7844132    6.0572869    22325.667    185.37094    548.91182    877.70575    91.594068   -21.742625   -471.25996    23.494265    23.611536    44.456623    84.775937    85.116731    113.48104 
  458500    236.31645   -12726.903   -11510.379   -12726.903            0   -244.26072    23.602245    21.676166    43.687637   -9.0972059    3.8980917    5.6723907    22350.865   -1189.3188   -87.217082    543.75374   -52.750648    610.85303    43.215471    23.602245    23.507772    44.226471    85.172516    84.943427    112.76716 
  459000    236.52149   -12712.798   -11495.219   -12712.798            0    303.45291    23.596683    21.633317    43.711255   -9.3184558    3.9507889    5.9408409    22313.483   -481.43138    213.42953    1178.3606    79.334434    130.87558   -516.86777    23.596683    23.554915    44.289685    84.956969    84.882221    113.30375 
  459500    236.00036   -12729.334   -11514.438   -12729.334            0    52.150337    23.538915    21.676691    43.799044   -9.3045535    3.4947651     5.949593    22348.277   -351.66764    458.04539    50.073264     410.0587    384.00171     165.5316    23.538915     23.58927     44.33923    84.708963    85.479326    113.23106 
  460000    235.88034   -12671.476   -11457.197   -12671.476            0    127.52422     23.54282    21.673781     43.86451   -9.1645206    4.3384199    5.6051883    22382.389    315.00358    286.21622   -218.64713   -351.83774   -186.62675    552.03579     23.54282    23.531707    44.433493    85.517063    84.396799    112.92054 
  460500    234.02598   -12701.264   -11496.532   -12701.264            0    546.71705     23.50564    21.570194    44.036903   -9.3221391    3.5125586    6.1669684    22327.644     902.7466    555.07202    182.33252    225.14024     38.60686   -679.16812     23.50564    23.498416    44.605139    84.510027    85.483404    113.37288 
  461000     238.4013    -12661.03   -11433.774    -12661.03            0    830.29896    23.489318    21.599669    44.109252   -9.1637263    4.2179776    5.7417229    22379.336    836.35553    561.17331     1093.368    -20.18062   -453.07786    38.483208    23.489318    23.463154    44.680922    85.329269    84.583086    112.98923 
  461500    230.78569   -12736.555   -11548.503   -12736.555            0    605.93091    23.455889    21.555457    44.049254   -9.2128079    4.0419858    5.7451921    22271.408    734.21193    1140.8253   -57.244489    -458.1054   -452.56993   -149.19149    23.455889    23.441705    44.605848    85.249183    84.800977    113.14188 
  462000    234.20297   -12706.734    -11501.09   -12706.734            0    1514.8783    23.547525    21.584081    43.697166   -9.3008753    3.6204959    6.2404769    22209.157    1058.5084    1088.1944     2397.932    -260.1141     466.3183   -218.35905    23.547525    23.502741    44.288755    84.430616     85.31098    113.31187 
  462500    242.27897   -12673.758    -11426.54   -12673.758            0    1491.1675    23.565698    21.595308    43.710257    -9.207275    4.1740734    5.6017284    22244.521    1214.7984    1092.9243    2165.7799   -353.93839    882.90205    331.04348    23.565698    23.476184    44.264984    85.444324    84.589117    113.09124 
  463000    240.41322   -12684.921   -11447.308   -12684.921            0    1531.2178    23.490618    21.620981    43.798942   -9.2881831    3.3407927    6.1159219    22245.054    1509.7188    1420.2515    1663.6832    117.77111    1174.8254   -145.85755    23.490618    23.531621     44.34989    84.435171    85.679926    113.24793 
  463500     235.3433   -12717.599   -11506.085   -12717.599            0    1413.3942    23.487953     21.60775    43.803105   -9.2666404    4.2367776    5.8363685    22231.032    1251.3327    1022.6215    1966.2284    437.63106   -491.96902     377.0348    23.487953    23.510966    44.392854    85.226775    84.523454    113.21242 
  464000    237.17331   -12714.458   -11493.524   -12714.458            0    1622.9752    23.450516     21.58067    43.919217   -9.1302092    3.8981985    5.8187951    22226.542      2148.72    1406.4417    1313.7638    -153.4334    133.40873    275.49174    23.450516    23.432585    44.474172    85.046731    84.971524    112.93193 
  464500     236.1438   -12708.079   -11492.444   -12708.079            0    1122.0609    23.392294    21.523962    44.171164   -9.5116042    4.0118812    6.3424967    22239.953    2722.6283    913.19409   -269.63961    567.98952   -527.26118   -505.00628    23.392294    23.531927    44.804176    84.647207    84.862708      113.841 
  465000     232.5314    -12695.56   -11498.521    -12695.56            0    1848.9869    23.389827    21.558504    44.025082    -9.021327    3.7918608    5.6673203    22199.633    1280.0136    2526.8789    1740.0683    36.794248   -302.24683    283.26087    23.389827    23.369926    44.550023    85.152959    85.117381    112.70726 
  465500    231.91682   -12708.331   -11514.456   -12708.331            0     1860.134    23.480989     21.60331    43.774471    -9.326833    3.8791847    6.1408804    22205.349    2199.6049    1568.7983    1811.9989    576.39673   -29.700875    188.81331    23.480989    23.530679    44.372997    84.698003    84.984675    113.35139 
  466000    238.86477   -12687.698   -11458.056   -12687.698            0    874.67009    23.606174    21.640223    43.686211   -9.2632717    3.9573214    5.5191203    22316.789    747.08242    130.41561    1746.5122    536.78445   -617.51879    573.57718    23.606174    23.539487    44.210927    85.437887     84.86458    113.17374 
  466500    224.74452   -12643.587   -11486.634   -12643.587            0    734.71683    23.600238    21.674688    43.701804   -9.2260071    3.9564414    5.8695353    22354.688    772.21825    641.53677    790.39548   -192.06517   -160.42378     54.38807    23.600238    23.556555    44.271352    85.009642    84.872751    113.05742 
  467000    241.47847   -12699.089   -11455.992   -12699.089            0    765.69168    23.529181    21.660524    43.787049   -9.3917885    3.7859899    6.0971234    22316.262    124.11471     786.4447    1386.5156    272.90777   -13.892609    194.53645    23.529181    23.608981    44.371323    84.713964    85.105277    113.44108 
  467500    233.83393   -12756.217   -11552.473   -12756.217            0    514.11462    23.423895     21.60003    44.153221   -8.9855811     4.005513    5.2871284    22339.624    582.86564    1193.0946   -233.61643   -34.269056   -589.32445    525.96473    23.423895    23.394486    44.648682    85.705912    84.852973    112.58724 
  468000     235.2593   -12707.006   -11495.925   -12707.006            0    578.28442     23.49537     21.57287    44.094879   -9.3696496    3.8657095     6.252794    22350.043    932.67155    146.20737    655.97435    753.30003    -443.3448   -157.55283     23.49537    23.519759    44.703462    84.615134     85.03918    113.47654 
  468500    237.31726   -12730.815   -11509.139   -12730.815            0    346.39284    23.476291    21.539041    44.255673   -9.1268315    3.8261665    5.8403527    22378.181   -2.1529245    1459.0541   -417.72265    19.419995   -18.918553   -448.64169    23.476291    23.392933    44.803056    85.025842    85.100992    112.96404 
  469000    240.61548   -12723.994    -11485.34   -12723.994            0    647.53013    23.440795    21.628333    44.047454   -9.3169791    4.1553281     5.758338    22331.412    484.64396    869.99502    587.95142    677.07712    -426.5085      230.735    23.440795    23.549753    44.616179     85.31448    84.656012    113.30525 
  469500    231.48366   -12707.407   -11515.762   -12707.407            0    1118.7133    23.466255    21.637965    43.893641   -9.1566573    3.6311829     6.195926    22287.522    996.57759    1793.1027    566.45953   -141.44311    908.44265   -459.60209    23.466255    23.495657     44.47726    84.463824    85.317084    112.93689 
  470000    236.74725   -12703.282   -11484.541   -12703.282            0    1298.0331    23.590909    21.504773    43.734262   -9.3666042    4.0770091    5.4766579    22187.141    392.09452     1993.504    1508.5009    193.30824    293.08481   -332.25587    23.590909    23.456098    44.263997    85.603752    84.715186    113.53598 
  470500    238.98867   -12713.111   -11482.831   -12713.111            0    980.10681    23.634702     21.57049    43.691315   -9.2583969    3.4601923    6.1408395    22274.361    710.06747    767.10439    1463.1486    232.33403   -127.81998   -397.60756    23.634702    23.473474     44.25623     84.45257    85.515728    113.22978 
  471000    229.12806   -12681.595   -11502.076   -12681.595            0    1577.2179     23.44615    21.638564    43.807792   -9.2632812    3.9978236    5.8391717    22225.489    1303.0452    1949.8064     1478.802   -347.63822   -528.31924   -25.187704     23.44615    23.537965    44.375682    85.094538    84.831191    113.17535 
  471500    233.76414   -12682.701   -11479.316   -12682.701            0    1837.7252    23.357162    21.644535    43.897118   -9.1285689    3.7141248    5.5959257    22192.404    2094.7261    1293.5761    2124.8734   -201.87323    109.40637    237.46661    23.357162    23.490778     44.40795    85.204093    85.202378    112.86755 
  472000    233.06155   -12661.763   -11461.995   -12661.763            0    1444.1951     23.50991    21.570233    43.921635    -9.337028     4.043038    6.1561666    22273.286    1500.9662    1739.4883    1092.1308    689.78518   -505.90036   -447.98898     23.50991    23.504362    44.534869    84.790706    84.791308    113.40616 
  472500    235.23177    -12699.77    -11488.83    -12699.77            0    934.30475    23.552906    21.521127    44.009687   -9.1531121    3.8754571    5.8052911    22307.854     981.4104    1723.6405    97.863371   -823.18992    464.79132   -343.56755    23.552906    23.386713     44.55977    85.075147    85.010562    113.04045 
  473000    237.68679   -12663.963   -11440.385   -12663.963            0    1312.5746    23.470495    21.595856    44.032324   -9.3093208    3.9796254    5.8423811    22318.464    1955.6007    1765.0344    217.08863    -22.17815    175.06124   -19.500049    23.470495    23.516897    44.596147     85.12514    84.880288    113.31941 
  473500    238.71936   -12663.307   -11434.413   -12663.307            0    670.32088      23.3837    21.750979     44.02524   -9.0467152    3.8311591    6.1126196    22392.046    1053.8787   -447.69467    1404.7786   -729.08304    810.05021   -430.65926      23.3837    23.557338    44.612371    84.633236    85.073565    112.58351 
  474000    240.04548   -12732.215   -11496.495   -12732.215            0    615.61948    23.488601    21.675385    43.905017   -9.2250058    3.8598611    5.9392579    22353.118    1178.9465   -12.582135     680.4941    57.474981    593.62133    112.78696    23.488601    23.556804    44.472731     84.90002    85.020941    113.05452 
  474500    243.89052   -12723.366   -11467.852   -12723.366            0    1037.3826    23.579877    21.504876    43.861774   -9.4057784    4.0641952    5.8251285    22241.531    357.27272    1706.8676    1048.0075   -7.7683963     1148.465   -693.25114    23.579877    23.471863    44.433153    85.212586    84.751956    113.62355 
  475000    237.38326   -12737.419   -11515.403   -12737.419            0    1441.0544    23.494864    21.602833      43.7586   -9.0584219    3.6739165    5.8795704    22209.923    198.41338    1680.1373    2444.6125   -491.97719     779.6723   -45.203744    23.494864    23.425144    44.304425    84.818094    85.243321     112.7491 
  475500    234.91911   -12734.379   -11525.049   -12734.379            0    774.32035    23.465265    21.641503    43.800571   -9.4109629    3.9015288     5.931835    22242.964    656.20303    691.02425    975.73377    405.10299    560.44343     -138.921    23.465265    23.599171    44.372273    84.978489     84.95563    113.50216 
  476000    238.76338   -12646.081    -11416.96   -12646.081            0    2569.1342    23.432786    21.591969    43.753209   -8.7349898    3.6319057    5.7671832    22137.374    3035.0731    2999.9203    1672.4092   -1862.9523    320.27576    205.25643    23.432786    23.291912    44.280859    84.837762    85.295329     112.0257 
  476500    237.15603   -12686.672   -11465.827   -12686.672            0    1846.6495    23.513987    21.555071     43.86934   -9.3610629    4.0451533    5.9350986    22234.985    2101.0904    2052.4601    1386.3981    107.19081   -279.01457    51.805299    23.513987    23.500013    44.453432    85.054132    84.779002    113.47463 
  477000    238.27448   -12684.273    -11457.67   -12684.273            0     2288.277    23.431517    21.549706    43.942567   -9.1314902    3.4466701     5.729978    22188.461    1577.9551    3077.9996    2208.8762   -772.03688    1061.8403    4.3482052    23.431517    23.404571    44.448412    84.926003     85.55264    112.96436 
  477500     240.4692   -12644.522    -11406.62   -12644.522            0    1793.4989    23.502001    21.686274    43.631922   -9.2451092     4.489103    6.1457372    22237.918    720.99212     2474.604    2184.9006    220.14516   -146.00514   -432.83714    23.502001    23.574701    44.290708    84.957415    84.182773    113.08911 
  478000    237.47266   -12700.739   -11478.263   -12700.739            0     1566.954    23.486131    21.567712    43.847754     -9.22822    3.4145972    5.8786274    22210.734    1367.7902     2119.478    1213.5938    539.94191    1230.4873   -874.93434    23.486131    23.459033     44.37165     84.74821     85.58647    113.16473 
  478500    229.10507   -12712.536   -11533.136   -12712.536            0    1388.4351    23.596457    21.491666    43.864171   -9.3092922    4.3667956    5.7601954    22244.713    885.02032    1980.6489     1299.636    10.113465   -168.57041   -204.78879    23.596457    23.421243    44.455756    85.419842    84.362866    113.42025 
  479000    238.20946   -12732.004   -11505.736   -12732.004            0    373.73805    23.509149    21.568262    43.983989   -9.1691478    3.5420662     6.122395    22302.147   -527.98605     1123.017    526.18324    561.70834    384.61295   -189.88565    23.509149    23.436365    44.549088    84.527447     85.43964    113.03142 
  479500    231.33436   -12722.078   -11531.201   -12722.078            0    851.24132    23.425214    21.677576    43.892132   -9.3229342    3.9136365     5.754474    22288.505    1067.8264    611.44567    874.45185    460.94371    -276.2274    492.68302    23.425214    23.597339    44.440407    85.172279    84.947713    113.27122 
  480000    242.82195    -12726.64   -11476.627    -12726.64            0    790.86242    23.521736    21.673569     43.76054   -9.0959305    4.1649529    5.9553066    22309.122    547.46637    712.40044    1112.7205   -235.97348   -513.15514   -694.58694    23.521736    23.504883    44.359862    84.982698    84.612557    112.76674 
  480500     239.8797    -12688.64   -11453.773    -12688.64            0    1549.1223    23.647218    21.477368     43.74909   -9.4624803    3.6071174    5.8690828    22219.288     100.1666    2549.6218    1997.5784    220.53144    1052.1845   -15.053979    23.647218    23.469467    44.288151    84.926468    85.328281    113.77729 
  481000     228.8802   -12779.755   -11601.512   -12779.755            0    764.82258    23.564251    21.566969    43.645945   -9.1716469    3.9969746    5.6678489    22181.283    737.64976    274.95067    1281.8673   -503.17194    283.32823     44.37435    23.564251    23.436153    44.193538     85.26039    84.810935    113.03828 
  481500    235.26993   -12667.093   -11455.956   -12667.093            0    867.75525    23.507201    21.737638    43.716991   -9.2629494    3.8443568    6.1035785    22338.991    511.86142     1229.004    862.40035   -79.683446     387.8086   -1064.1285    23.507201    23.628947    44.308104    84.680238    85.022519    113.08006 
  482000    226.74865   -12748.523   -11581.253   -12748.523            0    1240.2436    23.415448    21.637552    43.902485   -9.3242842    3.6394609      5.77885    22243.324    1254.3823    1465.1333    1001.2151    -193.5126    497.38093    22.246231    23.415448     23.56111    44.430496    85.007286    85.301433    113.31269 
  482500    239.71939   -12692.287   -11458.245   -12692.287            0    1212.6637    23.562983    21.536412    43.948704   -9.0794888    4.1820037    5.8240732    22302.303    582.97684    1872.3706    1182.6436   -634.99002   -248.86144    215.65105    23.562983    23.372081    44.529738     85.17949    84.611134    112.85969 
  483000    236.96244   -12760.046   -11540.196   -12760.046            0    300.68394    23.539532    21.517358    44.085755   -9.3875353    3.8330789    6.1544221    22329.812    314.86605     899.2614   -312.07562    62.733615   -261.38248    88.777634    23.539532    23.475999    44.677994    84.724145    85.078348    113.57055 
  483500     238.2606   -12709.111   -11482.579   -12709.111            0    495.53084    23.419708    21.661024     44.08305   -9.1380859    3.9652186    5.5688867    22363.104    31.305191    993.11121    462.17613   -9.6213226    260.00706    607.93832    23.419708     23.50967    44.609984    85.384469    84.900457    112.87331 
  484000    233.61306   -12682.452   -11479.845   -12682.452            0    426.31924    23.410631    21.775564    43.943328   -9.2353199      3.97345    6.1107289    22401.417    514.99656   -332.94545    1096.9066   -439.46332    329.71769   -88.495395    23.410631    23.653041    44.543747     84.75203    84.882224    112.98248 
  484500    224.33034   -12660.085   -11505.264   -12660.085            0    366.57451     23.64893    21.510501    44.014542   -9.2650226    3.7906063    5.9214535    22390.213    77.881249    689.69341    332.14888   -274.68627    583.07216   -3.1183384     23.64893     23.42098     44.57255    84.930101    85.121473    113.30255 
  485000    235.11482   -12675.595   -11465.257   -12675.595            0    505.79446    23.637062    21.590559    43.854192   -9.2792413    3.9165218    5.5983866    22380.433   -619.80469    904.86016    1232.3279    194.74894    408.03819    1047.3843    23.637062     23.50014    44.383231    85.351419    84.937448    113.25718 
  485500    228.30423   -12670.758    -11495.48   -12670.758            0    819.33207    23.523081    21.753872    43.671992   -9.2979269    3.7268715     6.247901    22347.749    1130.2328   -279.70992    1607.4733   -13.232897    98.460927   -180.96926    23.523081    23.657608    44.273793    84.451974    85.171252    113.14258 
  486000    234.16936   -12810.367   -11604.896   -12810.367            0    534.47716    23.396117    21.693442    43.811097   -9.1817109     4.003771    5.5943698    22235.986     1232.139   -582.89952    954.19204   -33.651798   -529.45489    274.47361    23.396117    23.556512    44.347936    85.355032    84.820233    112.94042 
  486500    234.08275   -12694.935    -11489.91   -12694.935            0    1138.8785    23.548056    21.533031    43.900607   -9.2942921    3.7823436    5.8222968    22260.286    796.57494    1486.7313    1133.3294   -14.709768    388.45393   -101.84682    23.548056    23.453257    44.446244    85.035005    85.118266    113.34645 
  487000    227.86828   -12736.092   -11563.058   -12736.092            0      400.459     23.68286    21.491268    43.867156   -9.1682643    3.9924401    6.3918461    22327.272   -565.13052     1089.982    676.52548   -504.28295   -206.20662   -724.93915     23.68286     23.36518    44.509804    84.439806    84.853767     113.1033 
  487500     235.8713   -12714.581   -11500.349   -12714.581            0    1476.8965    23.445832     21.60231    43.923726   -9.2675996    3.8026143    5.6469949    22246.671    2130.0424    948.95753    1351.6894    282.13556    49.116053    754.55996    23.445832    23.506344    44.448196    85.237464    85.092255     113.2198 
  488000    234.30157   -12685.793   -11479.641   -12685.793            0    823.86963    23.357612    21.748301    43.962213   -9.1871603    3.9113531    6.1194761    22332.293    1056.6158    433.49408    981.49904    67.925396    311.19394    402.09008    23.357612    23.609161    44.558084    84.700981    84.964038    112.90071 
  488500    237.22529    -12693.87   -11472.668    -12693.87            0    1297.7729    23.485044    21.605825    43.968153    -9.091305    3.9521864    5.8857453    22310.046    338.68109    1929.0981    1625.5397     178.5224    57.678542     319.6606    23.485044    23.440638    44.536056    84.986265    84.908802     112.8204 
  489000    231.54387   -12709.359   -11517.403   -12709.359            0    1002.6012    23.589599    21.510983    43.901971   -9.4174763    3.8426659    5.7070889    22277.418    948.07096    957.01097    1102.7217    193.93945    397.04479   -301.80854    23.589599    23.482148    44.437822    85.240805    85.039274    113.64373 
  489500    228.22141   -12678.127   -11503.275   -12678.127            0    1217.4879    23.583283    21.651837    43.683347   -9.1139976    4.0195459    6.1236335    22305.651    461.49455    1491.6183     1699.351   -565.68285   -58.274344    132.06538    23.583283    23.491849    44.293233     84.70888    84.793329    112.82789 
  490000      236.533   -12687.751   -11470.113   -12687.751            0    735.32781    23.495402    21.713895    43.750018   -9.3694783    3.6956765    5.6608395     22320.24    1063.4854   -182.55432    1325.0523    196.23595    320.99969    295.05808    23.495402    23.649109    44.269258    85.162236    85.211273    113.34005 
  490500    233.52781   -12652.669   -11450.501   -12652.669            0    1213.3052    23.557058    21.673492    43.692133   -9.2432885    3.8219135    5.9709019    22307.617    1447.4904    298.77252    1893.6528    345.23232    23.167657   -175.53248    23.557058    23.562229    44.263543    84.824371    85.046657    113.09723 
  491000    232.32045   -12665.259   -11469.306   -12665.259            0    951.45515    23.647871    21.492195    43.934044   -9.1855412    4.1033204     5.903267    22329.243    392.49317    742.40694    1719.4653   -477.65371    399.98694    862.64875    23.647871    23.372818    44.518378    85.083147    84.711463    113.14136 
  491500    231.17355   -12704.078   -11514.029   -12704.078            0    1168.6606    23.431693     21.60094    43.988542   -9.3387074    3.6956198    5.6911413    22264.651    1765.8607    924.40824    815.71278    517.55127    43.040145    474.32657    23.431693    23.533212    44.508859    85.157485    85.237185    113.38022 
  492000    235.98894   -12718.139   -11503.301   -12718.139            0    232.32939    23.349284    21.723503    44.029745   -8.9774937    3.9907854    6.2344922     22333.13    1055.4882   -471.68581    113.18577   -128.06905   -295.65048   -164.18676    23.349284    23.505446    44.647662    84.553684    84.871832    112.45344 
  492500    230.17702   -12745.053   -11560.134   -12745.053            0    793.25698    23.446045    21.549863    44.090594   -9.2866981    3.9915588     5.755034    22277.172    1669.6815    370.72829    339.36115   -395.87445    -325.8082    127.27765    23.446045    23.465706    44.643403    85.238868    84.870344    113.31314 
  493000    233.04558   -12745.785   -11546.099   -12745.785            0     600.6617    23.550263    21.526355    43.968719   -9.3064621    3.6186375    5.9228718        22290     236.8527    1094.9377    470.19467    -149.8585    333.27368   -612.91784    23.550263    23.451955     44.51318    84.843655    85.337073    113.38022 
  493500    243.25954   -12665.167   -11412.901   -12665.167            0    673.96724    23.526376    21.698798    43.870081   -9.1827533    4.4641666     6.112876    22395.417    401.57023    1084.0864    536.24513   -45.229018   -247.00803    -361.0487    23.526376    23.561851    44.518311    84.987492    84.244873    112.93768 
  494000    242.17452   -12691.055   -11444.375   -12691.055            0    443.96124    23.374078    21.724476    44.046067   -9.1566418    3.5718824    5.6099651    22366.134    597.78167    656.65983    77.442226    343.88884   -354.26843   -511.17455    23.374078    23.575346    44.545326    85.129312     85.40078    112.85492 
  494500    227.40024   -12657.923   -11487.299   -12657.923            0    594.68828    23.558209    21.627044    43.884791   -9.3404507     4.030863    6.2752912    22359.056    1429.9154   -9.4971585    363.64662   -189.32352   -442.66977   -641.53101    23.558209    23.557866    44.514066      84.6341    84.804603    113.35891 
  495000    244.01895   -12719.255   -11463.079   -12719.255            0    328.54065    23.639619    21.509781     43.95413    -9.177642    4.0516605    5.6473392     22349.93   -233.21279    1031.0963    187.73845   -36.493591   -324.17797    184.59264    23.639619    23.385889    44.500269    85.354317    84.776099    113.10663 
  495500    238.30605   -12720.939   -11494.173   -12720.939            0    1258.5499    23.462925    21.619532    43.859381    -9.317213    3.6781943     6.012192    22247.999    546.54271    1227.1336    2001.9735    605.98408    374.36611    198.20005    23.462925    23.541764    44.422077    84.748886    85.250412    113.31424 
  496000    231.51196   -12701.016   -11509.226   -12701.016            0    1715.6603    23.361689    21.781696     43.69651   -9.0747619    4.4190656    5.8577684    22235.284    2858.9413    586.78802    1701.2517   -10.253731   -412.97627    189.97015    23.361689    23.596474    44.308313    85.199818     84.27612    112.61775 
  496500    230.65741   -12709.629   -11522.237   -12709.629            0    1295.4193     23.45088    21.565706    44.028489    -9.245037    3.5560951    5.8287193    22266.738    1670.0601    1070.9421    1145.2557    522.97508    148.96773    333.14791     23.45088     23.46381    44.554771    84.905947    85.422125    113.20441 
  497000    233.98753   -12722.872   -11518.337   -12722.872            0    791.09604    23.588557    21.529263    43.963589   -9.3378019    4.3277811    5.9859664    22326.656    1233.1776    857.12591    282.98465   -85.037534   -761.63234    67.155072    23.588557    23.467077    44.579801    85.149365    84.428985    113.44763 
  497500     223.4162   -12710.021   -11559.906   -12710.021            0    686.75415    23.511494    21.562984    44.014522   -9.0655661    3.5747805    5.7351778    22314.393    2381.2418   -360.39878    39.419475   -1236.2054    416.90331    833.21513    23.511494    23.391169    44.530321    84.973645    85.395486    112.80299 
  498000    232.94323    -12713.64   -11514.481    -12713.64            0    554.85964     23.41763    21.713068     43.91548   -9.4496752     4.078159    6.0488169    22329.642    991.74203    196.52906    476.30784    260.60326    94.007429    388.31348     23.41763    23.680238    44.517288    84.949627    84.743854      113.519 
  498500    237.19383   -12747.689   -11526.649   -12747.689            0    853.45665    23.413494    21.633127    43.938521   -9.0769281    3.7567403    5.8302783    22255.173    496.49982    1365.6743    698.19585   -175.55984     813.4596   -67.295387    23.413494    23.460239    44.482568    84.940793    85.155359    112.76217 
  499000     235.8519   -12644.056   -11429.924   -12644.056            0     1573.665     23.68342    21.455751    43.793278   -9.4591623    4.2312288    6.1729556     22253.36     1001.554    2479.4969    1239.9442   -155.25628   -92.197674   -577.32573     23.68342    23.448347    44.428143    84.910247    84.535006    113.79117 
  499500    229.42596   -12689.461   -11508.408   -12689.461            0    1235.6266      23.6123    21.532053    43.754691   -9.2486414    3.7398694    5.7871995    22245.817   -37.500616    1655.0314     2089.349    340.03647     290.5474    66.568034      23.6123    23.434306     44.29392    85.024703    85.156578    113.24493 
  500000    244.50631   -12705.761   -11447.077   -12705.761            0    91.016986    23.520905    21.774302    43.716817   -9.1394903    4.1098952    5.8596199    22389.624    -441.4038   -711.20369    1425.6585    233.95134    194.12612    313.94577    23.520905    23.614625    44.298831    85.063052    84.676637    112.76962 
Loop time of 1549.42 on 128 procs for 500000 steps with 2592 atoms

Performance: 55.763 ns/day, 0.430 hours/ns, 322.701 timesteps/s
99.0% CPU use with 128 MPI tasks x 1 OpenMP threads

MPI task timing breakdown:
Section |  min time  |  avg time  |  max time  |%varavg| %total
---------------------------------------------------------------
Pair    | 71.195     | 89.127     | 108.01     | 109.2 |  5.75
Bond    | 0.0726     | 0.086276   | 0.10202    |   2.3 |  0.01
Kspace  | 808.31     | 832.8      | 854.34     |  37.6 | 53.75
Neigh   | 16.111     | 16.493     | 16.971     |   4.7 |  1.06
Comm    | 228.22     | 242.53     | 260.95     |  65.4 | 15.65
Output  | 5.9042     | 5.907      | 5.9737     |   0.2 |  0.38
Modify  | 310.36     | 331.42     | 343.46     |  47.0 | 21.39
Other   |            | 31.06      |            |       |  2.00

Nlocal:        20.2500 ave          25 max          15 min
Histogram: 3 9 8 17 12 14 24 11 15 15
Nghost:        2496.04 ave        2528 max        2458 min
Histogram: 6 3 7 12 17 27 26 15 12 3
Neighs:        6232.16 ave        7776 max        4560 min
Histogram: 3 11 12 20 12 22 15 16 12 5

Total # of neighbors = 797717
Ave neighs/atom = 307.76119
Ave special neighs/atom = 2.0000000
Neighbor list builds = 22106
Dangerous builds = 0

unfix		3
unfix		2
unfix		1

write_data	data.final.${pid}
write_data	data.final.0
System init for write_data ...
PPPM initialization ...
  extracting TIP4P info from pair style
  using 12-bit tables for long-range coulomb (../kspace.cpp:340)
  G vector (1/distance) = 0.36699001
  grid = 30 40 60
  stencil order = 5
  estimated absolute RMS force accuracy = 0.0045293378
  estimated relative force accuracy = 1.3639966e-05
  using double precision FFTW3
  3d grid and FFT values/proc = 4864 640
WARNING: Not all mixed pair coeffs generated from mixing. Use write_data with 'pair ij' option to store all pair coeffs. (../write_data.cpp:312)

write_restart   restart.lmp.${pid}
write_restart   restart.lmp.0
System init for write_restart ...
PPPM initialization ...
  extracting TIP4P info from pair style
  using 12-bit tables for long-range coulomb (../kspace.cpp:340)
  G vector (1/distance) = 0.36699001
  grid = 30 40 60
  stencil order = 5
  estimated absolute RMS force accuracy = 0.0045293378
  estimated relative force accuracy = 1.3639966e-05
  using double precision FFTW3
  3d grid and FFT values/proc = 4864 640
Total wall time: 0:25:49
