LAMMPS (30 Jul 2021)
Processor partition = 0
  using 2 OpenMP thread(s) per MPI task
using multi-threaded neighbor list subroutines
variable        pid world 0 1
variable        phase world IceII IceVI

shell cd ${phase}
shell cd IceII
include Restart.lmp
echo both
log log.lammps
#include		in.partitions
include		in.temp
variable        temperature equal 87.99
variable	tempDamp equal 100.0
include		in.pressure
variable        pressure equal 8101.0
variable        pressureDamp equal 1000.0 # This is 1 ps
include		in.seed
variable        seed equal 745823

units		real
atom_style	full
box tilt large
read_restart	restart.lmp.${pid}
read_restart	restart.lmp.0
Reading restart file ...
  restart file = 30 Jul 2021, LAMMPS = 30 Jul 2021
  restoring atom style full from restart
  triclinic box = (-10.579304 -9.0893216 0.25911225) to (12.559304 12.079320 21.600887) with tilt (-9.2094204 1.8687951 2.7641565)
  4 by 2 by 4 MPI processor grid
  restoring pair style lj/cut/tip4p/long/omp from restart
  restoring bond style harmonic/omp from restart
  restoring angle style harmonic/omp from restart
  1296 atoms
  864 bonds
  432 angles
Finding 1-2 1-3 1-4 neighbors ...
  special bond factors lj:    0        0        0       
  special bond factors coul:  0        0        0       
     2 = max # of 1-2 neighbors
     1 = max # of 1-3 neighbors
     1 = max # of 1-4 neighbors
     2 = max # of special neighbors
  special bonds CPU = 0.002 seconds
  read_restart CPU = 0.011 seconds
include 	in.setup
variable	out_freq equal 1000
variable	out_freq2 equal 10000
variable	out_freq3 equal 1000

timestep	2.0

neigh_modify    delay 7 every 1

include		in.tip4p
# This is TIP4P/Ice

# create groups ###
group ox type 2
432 atoms in group ox
group hy type 1
864 atoms in group hy

# set charges - beside manually ###
set group ox charge -1.1794
Setting atom values ...
  432 settings made for charge
set group hy charge 0.5897
Setting atom values ...
  864 settings made for charge

# ### TIP3P Potential Parameters ###
pair_style lj/cut/tip4p/long/omp 2 1 1 1 0.1577 8.5
pair_coeff 1 1*2 0.000 0.000
pair_coeff 2 2 0.21084 3.1668
bond_style  harmonic
bond_coeff  1 450 0.9572
angle_style harmonic
angle_coeff 1 55 104.52
kspace_style pppm/tip4p/omp 1.0e-5
pair_modify tail yes

thermo          ${out_freq}
thermo          1000
thermo_style    custom step temp pe etotal epair emol press lx ly lz vol pxx pyy pzz pxy pxz pyz enthalpy

restart 	${out_freq3} restart.lmp.${pid} restart2.lmp.${pid}
restart 	1000 restart.lmp.${pid} restart2.lmp.${pid}
restart 	1000 restart.lmp.0 restart2.lmp.${pid}
restart 	1000 restart.lmp.0 restart2.lmp.0


include         in.dump
dump            myDump all atom ${out_freq2} dump.water.${pid}
dump            myDump all atom 10000 dump.water.${pid}
dump            myDump all atom 10000 dump.water.0
dump            myDump2 all dcd ${out_freq2} dump.dcd
dump            myDump2 all dcd 10000 dump.dcd
dump_modify     myDump append yes
dump_modify     myDump2 append yes


variable natoms 	equal  "count(all)"                        # NUMBER ATOMS
variable H      	equal  "enthalpy/v_natoms"                 # ENTHALPY-per-atom
variable Vol      	equal  "vol/v_natoms"                 # volume-per-atom
fix AVG all 		ave/time ${out_freq} 1 ${out_freq} v_Vol v_H file vol_enthalpy.dat
fix AVG all 		ave/time 1000 1 ${out_freq} v_Vol v_H file vol_enthalpy.dat
fix AVG all 		ave/time 1000 1 1000 v_Vol v_H file vol_enthalpy.dat


timer           timeout 10:00:00 every 1000
New timer settings: style=normal  mode=nosync  timeout=10:00:00

fix 		1 all shake 1e-6 200 0 b 1 a 1
Finding SHAKE clusters ...
       0 = # of size 2 clusters
       0 = # of size 3 clusters
       0 = # of size 4 clusters
     432 = # of frozen angles
  find clusters CPU = 0.001 seconds
fix             2 all nph tri ${pressure} ${pressure} ${pressureDamp}
fix             2 all nph tri 8101 ${pressure} ${pressureDamp}
fix             2 all nph tri 8101 8101 ${pressureDamp}
fix             2 all nph tri 8101 8101 1000
fix             3 all temp/csvr ${temperature} ${temperature} ${tempDamp} ${seed}
fix             3 all temp/csvr 87.99 ${temperature} ${tempDamp} ${seed}
fix             3 all temp/csvr 87.99 87.99 ${tempDamp} ${seed}
fix             3 all temp/csvr 87.99 87.99 100 ${seed}
fix             3 all temp/csvr 87.99 87.99 100 745823


run             250000
PPPM initialization ...
  extracting TIP4P info from pair style
  using 12-bit tables for long-range coulomb (../kspace.cpp:340)
  G vector (1/distance) = 0.36926059
  grid = 30 40 32
  stencil order = 5
  estimated absolute RMS force accuracy = 0.0041551195
  estimated relative force accuracy = 1.2513019e-05
  using double precision FFTW3
  3d grid and FFT values/proc = 7888 1280
Last active /omp style is kspace_style pppm/tip4p/omp
Neighbor list info ...
  update every 1 steps, delay 7 steps, check yes
  max neighbors/atom: 2000, page size: 100000
  master list distance cutoff = 10.8154
  ghost atom cutoff = 10.8154
  binsize = 5.4077, bins = 7 5 4
  1 neighbor lists, perpetual/occasional/extra = 1 0 0
  (1) pair lj/cut/tip4p/long/omp, perpetual
      attributes: half, newton on, omp
      pair build: half/bin/newton/tri/omp
      stencil: half/bin/3d/tri
      bin: standard
Setting up Verlet run ...
  Unit style    : real
  Current step  : 1750000
  Time step     : 2
  Walltime left : 9:59:59.94
Per MPI rank memory allocation (min/avg/max) = 10.66 | 10.67 | 10.68 Mbytes
Step Temp PotEng TotEng E_pair E_mol Press Lx Ly Lz Volume Pxx Pyy Pzz Pxy Pxz Pyz Enthalpy 
 1750000    91.834532   -6779.5554   -6543.3166   -6779.5554            0     8557.271    23.138609    21.168641    21.341774    10453.477    8260.9498    8553.0209    8857.8423   -2.1961114   -261.73856   -378.72255    -5238.733 
 1751000    89.545346   -6789.3499        -6559   -6789.3499            0    8382.9701    22.978435    21.269382    21.401246    10459.583    8529.5014    8324.2791    8295.1299    436.86394    899.72033   -644.01624   -5280.2425 
 1752000    88.757804   -6791.5747   -6563.2507   -6791.5747            0     7202.895    23.059086     21.19715    21.489667    10503.867     7171.082    7671.5879    6766.0151    127.73445   -298.98903    264.01676   -5459.8526 
 1753000    90.166666   -6798.2222   -6566.2739   -6798.2222            0    6828.6448    23.160873    21.155287    21.442384    10506.231    7111.0697    5986.7335    7388.1314   -265.20336   -592.93841     374.4062   -5519.9712 
 1754000    85.882626    -6796.734   -6575.8062    -6796.734            0    7558.5506    23.019567    21.266925    21.418047    10485.321    7238.8606    7296.9863    8139.8048      512.559     721.6723    655.72321   -5419.9704 
 1755000    86.432664   -6784.7253   -6562.3826   -6784.7253            0    8422.3238    23.064372    21.106343       21.482    10457.536    8895.6566    8514.6448      7856.67    36.390568    312.60761   -280.00018   -5277.8735 
 1756000    90.270602   -6784.6456     -6552.43   -6784.6456            0    8473.4383    22.979854    21.154871    21.508474     10456.04    10008.475    8405.5966    7006.2429    165.88291   -296.40187     -38.4068   -5260.3101 
 1757000    85.451695   -6781.6132   -6561.7939   -6781.6132            0    8851.8394    22.907882    21.266029    21.435294    10442.411      9072.46    8383.7871    9099.2712   -116.46526   -14.594309    428.08965   -5213.7309 
 1758000     87.59111   -6783.0889   -6557.7661   -6783.0889            0    8176.3884    23.109672     21.12774    21.464508    10480.156    8558.7248    7366.9286    8603.5118   -842.96742   -733.30295    886.21375   -5308.0679 
 1759000    91.376035   -6779.8979   -6544.8386   -6779.8979            0    8284.3336     23.06979     21.15873    21.425217    10458.236    7756.0756    9340.3781     7756.547    84.293541   -191.48829   -389.00724   -5281.2901 
 1760000    89.465134   -6785.0816    -6554.938   -6785.0816            0    8208.6439    22.944382    21.329476    21.363137    10454.941    9312.9894    7333.6728    7979.2694    243.56753    385.34812     836.5797   -5303.3283 
 1761000    90.548681    -6791.894    -6558.963    -6791.894            0    8007.7897    23.162572    21.167451    21.325253    10455.614     6718.661    8256.2897    9048.4185   -1163.3618    287.64835    675.06105      -5337.9 
 1762000    90.584236   -6778.3912   -6545.3688   -6778.3912            0    7847.1519    23.143883    21.198411    21.346161    10472.716    6873.1169    8204.7222    8463.6167    519.92813    578.31587    629.88289   -5346.8433 
 1763000    89.824496   -6779.5186   -6548.4505   -6779.5186            0    7876.6164    23.035671    21.215043    21.392265    10454.459    7944.7919    7706.3624     7978.695    200.38918    443.39566   -365.88726    -5347.522 
 1764000    85.653249   -6793.9577   -6573.6199   -6793.9577            0    7423.0734    23.058447    21.109057    21.562915    10495.578    8435.4779    7346.1556    6487.5865   -522.45244    257.26614    321.67403   -5437.3906 
 1765000    89.088931   -6791.0971   -6561.9212   -6791.0971            0    7618.5252    23.046251    21.155136    21.518648    10491.343      7868.27    7654.3599    7332.9458   -982.26428    41.357428    310.00154   -5396.2452 
 1766000    88.876278   -6787.3111   -6558.6823   -6787.3111            0    8271.6194    22.925061    21.222431    21.469994      10445.7    8808.6423    8458.6691    7547.5467    744.81824   -767.02322   -658.29914   -5298.5852 
 1767000    86.741818   -6781.0019   -6557.8638   -6781.0019            0    8111.7209    23.060189    21.133605    21.469638    10463.119    8566.3656    8053.6959    7715.1011   -451.82929    577.08205   -129.95932    -5320.065 
 1768000    82.656548   -6785.0129   -6572.3839   -6785.0129            0    7755.7499    23.139053    21.196279    21.366886    10479.642    7883.1915    7585.6334    7798.4249   -300.07841   -9.7129271    127.72619   -5387.0353 
 1769000    88.312458   -6791.3483   -6564.1699   -6791.3483            0    7648.0173    23.037913    21.347206    21.287627     10469.15    6999.6244    7440.4234    8504.0042    783.25839   -174.97106    1084.9382   -5396.4567 
 1770000    88.097711    -6788.417    -6561.791    -6788.417            0    8501.4096    23.164345    21.109414    21.333025    10431.545    7006.7985    9508.4974    8988.9328   -44.348659     1530.311   -13.361456   -5268.4428 
 1771000    87.937342   -6797.9907   -6571.7773   -6797.9907            0    8209.0168    23.107202    21.160289    21.393347    10460.386    8907.1374    7798.7542    7921.1589   -254.79018    86.904761    62.190956    -5319.459 
 1772000    89.200066   -6784.6486   -6555.1869   -6784.6486            0    9087.2406    22.951451    21.229024    21.445922    10449.245    9799.8341     8300.745    9161.1427    524.06628   -384.21124   -193.78182   -5170.3685 
 1773000    87.501489   -6784.8481   -6559.7558   -6784.8481            0    9151.9961    23.048401    21.149182    21.398134    10430.624    9211.2466    9059.5343    9185.2075   -958.10882   -124.60587   -188.40746   -5167.5546 
 1774000    95.167057   -6781.3795    -6536.568   -6781.3795            0    7991.1757    23.031855    21.197709    21.459907    10477.211    7881.3359    7730.5221     8361.669   -126.30593   -75.601971    499.95747   -5315.5214 
 1775000    89.374838   -6777.3675   -6547.4562   -6777.3675            0    8218.0366    22.943568    21.237035    21.502756     10477.29    8488.8216    8530.9048    7634.3834    380.42436    508.04545   -381.60182   -5291.7358 
 1776000    89.359255   -6781.2589   -6551.3877   -6781.2589            0    8236.0699    23.172525     21.05201    21.491581    10484.199    8186.3998    8787.0469    7734.7631    164.62223   -9.6887837    19.864733    -5292.082 
 1777000    88.407369   -6777.3901   -6549.9675   -6777.3901            0    8740.6992    23.021376    21.199526    21.402156    10445.156    8552.5844    9176.1031      8493.41    146.54384   -70.919327   -142.74693   -5218.4803 
 1778000    87.137552   -6795.4352   -6571.2792   -6795.4352            0    8514.6336    22.977742    21.301529    21.368761    10459.176     9079.374    7666.1913    8798.3355   -308.30422    123.72209    173.41654   -5272.4881 
 1779000    85.977228   -6791.1104   -6569.9392   -6791.1104            0    7661.5576    23.191114    21.148244    21.375197    10483.494    7117.4291    8028.5088    7838.7348   -357.71167   -157.08247   -103.11068    -5398.556 
 1780000    92.316748   -6783.4432    -6545.964   -6783.4432            0    8249.4619    23.080114    21.243004    21.320453    10453.225    8559.0797    7466.9256    8722.3803    743.46676    -354.7779    -288.5144   -5288.3371 
 1781000    87.288247   -6772.8084   -6548.2647   -6772.8084            0    8601.3585    23.093372    21.243471    21.306792    10452.758    7843.7887    8604.7533    9355.5335   -469.90966    127.11851    -214.0002     -5237.05 
 1782000    93.142763   -6796.6572   -6557.0531   -6796.6572            0    7404.0291    23.218801      21.1544     21.36694     10495.01    7285.4211     6728.341    8198.3252   -87.225712    124.37524   -285.30725   -5423.8002 
 1783000    84.983616   -6777.6205   -6559.0053   -6777.6205            0    8318.2614    23.170517    21.181092    21.306739    10456.855    7396.2131     8920.504    8638.0669    222.27317     85.38033   -414.20334   -5290.4497 
 1784000    83.442915   -6774.8901   -6560.2383   -6774.8901            0    8635.4698    23.017032    21.264666    21.339991    10444.848    8745.9545    8353.2967     8807.158    -235.3847    38.343403    200.42263   -5244.8197 
 1785000    85.589065   -6789.2812   -6569.1085   -6789.2812            0    7930.1269    23.178411    21.115594     21.40237    10474.875    7562.3781    8387.6195    7840.3831    100.66142    -33.49451    299.09972   -5357.6602 
 1786000    84.694547   -6790.8225    -6572.951   -6790.8225            0    6847.5279    23.060456      21.2431    21.462741    10514.073    6678.2813    5993.8317    7870.4706    100.35847    184.43622   -115.96068   -5522.9718 
 1787000     91.58365   -6792.6672   -6557.0738   -6792.6672            0    8436.4622    22.910308    21.289493    21.430047     10452.48    8765.2302    8277.0487    8267.1078     235.4419    375.90476   -157.17055   -5271.0305 
 1788000    90.236845   -6792.3184   -6560.1896   -6792.3184            0    7936.6355    23.138039    21.102362    21.433054    10465.059    8293.4606    7525.4032    7991.0425    29.049951   -439.41771    -97.10588   -5348.8832 
 1789000    89.563166   -6789.5057   -6559.1099   -6789.5057            0    8234.9477    23.062242    21.120316    21.508464    10476.382    7971.4904    8658.5367    8074.8161    53.114211    217.37507   -584.96885   -5300.9146 
 1790000    90.119696   -6800.9499   -6569.1224   -6800.9499            0    7294.0339    23.003857    21.309324    21.402099    10491.237    6895.6452    7812.2574    7174.1993    648.02587     1084.573    206.09441   -5453.1065 
 1791000    88.037148   -6791.0539   -6564.5837   -6791.0539            0    8445.1002    23.139227    21.094487    21.404437    10447.722    8865.6224     8354.288    8115.3902   -130.37099   -327.03416   -179.76155   -5277.8096 
 1792000    88.104882   -6788.6155   -6561.9711   -6788.6155            0    8232.9375    23.115636    21.116735    21.436569    10463.763    7484.0266    9274.3025    7940.4833    198.13287    307.74566   -325.93517   -5305.5981 
 1793000    89.952702   -6789.2305   -6557.8327   -6789.2305            0    7395.0656    22.983565     21.35304    21.358279    10481.981    8257.6418    6481.3688    7446.1863    29.359102    26.281881   -537.87532   -5427.3568 
 1794000    89.651087   -6786.8863   -6556.2643   -6786.8863            0    7746.8582    23.193743    21.137909    21.350126    10467.267    7374.9852    7406.2365     8459.353   -607.90429    736.79925    59.777825   -5373.6727 
 1795000    83.769078    -6798.093   -6582.6021    -6798.093            0    7745.6407    23.136796    21.155091      21.3629    10456.307    6629.7119    8454.9388    8152.2712   -502.57672    151.61344    233.02218   -5401.4344 
 1796000    88.544839   -6782.4088   -6554.6326   -6782.4088            0    8040.3803    22.974407    21.324806    21.348404    10459.112    8194.1987    7540.9897    8385.9525    240.88723   -519.27168   -378.45225   -5328.1898 
 1797000    86.080949    -6793.537    -6572.099    -6793.537            0    7639.8488    23.140529    21.169975    21.406536    10486.728    6613.5438    8311.2081    7994.7946   -266.17138    1228.0328    70.946521   -5403.6745 
 1798000    92.087286   -6789.8861   -6552.9971   -6789.8861            0    8307.0921    23.167813    21.026245    21.468709    10458.097    8475.6828    9147.8181    7297.7755     303.1791   -148.83691   -309.81871   -5285.9943 
 1799000    92.360342   -6786.5254    -6548.934   -6786.5254            0    8833.1915    22.907298    21.239197     21.44492    10433.653    10571.419    7708.3087    8219.8471   -472.64178    455.91293    143.75481   -5204.8391 
 1800000    89.788781   -6791.8151    -6560.839   -6791.8151            0    7443.7451    23.060141    21.228928     21.40422    10478.266    7275.7693     7081.835    7973.6309    975.66889   -86.590722    725.35737   -5423.3248 
 1801000    91.221205   -6783.6014   -6548.9404   -6783.6014            0    8635.8255     23.14614    21.099171    21.375025    10438.801    8134.6421    8837.6722    8935.1623   -367.23769    467.81371    281.20586   -5234.2293 
 1802000    86.496612   -6794.2027   -6571.6955   -6794.2027            0    7649.8524    22.980252     21.30656    21.390506    10473.436    8612.1949    7134.5707    7202.7915    296.56418   -99.633045    76.523203    -5403.224 
 1803000     84.85977    -6788.398   -6570.1015    -6788.398            0    7692.0596    23.220636    21.141007    21.352414    10482.063    7280.0953     7900.943    7895.1404    554.46929    57.320069    156.08633   -5394.2153 
 1804000    89.369128   -6786.3186    -6556.422   -6786.3186            0    7701.6741    23.164966    21.150633    21.393811    10481.977    7025.7864    7901.2689    8177.9669    8.1637746    645.44196   -77.024084   -5379.0757 
 1805000    89.392608   -6781.2824   -6551.3254   -6781.2824            0    8929.1129    22.913936    21.323201     21.35188    10432.496    9299.6588    8329.5222    9158.1575     404.9543   -10.798212    1033.1291   -5192.7854 
 1806000    91.245413   -6781.6846   -6546.9613   -6781.6846            0     7793.922    23.121789    21.182958    21.378012    10470.691    7723.1149    7453.8741    8204.7772    186.20027    294.80795    432.89453    -5356.796 
 1807000    86.659163   -6783.0672   -6560.1417   -6783.0672            0    8412.8536    23.124686    21.120638    21.404512    10454.138    8165.3521    8502.2446    8570.9641    563.41508     430.4844   -592.34592   -5277.4939 
 1808000    91.534049   -6793.9941   -6558.5284   -6793.9941            0    8747.5376    22.957529    21.304525    21.354172    10444.309    9362.9241    8690.9452    8188.7435    -774.3114   -463.07159   -696.70188   -5226.1075 
 1809000    88.035032   -6782.0614   -6555.5966   -6782.0614            0      8827.11     23.12599     21.11491    21.409883    10454.514    8710.3889    9457.8419    8313.0992   -497.63258   -163.28704   -525.58486   -5209.7416 
 1810000     85.63484     -6793.38   -6573.0896     -6793.38            0    8400.1457    23.094762    21.182514    21.362496    10450.642    7906.6548    7961.8707    9331.9117   -81.476906    -576.1399    175.39579   -5292.8075 
 1811000    89.000008   -6789.0911    -6560.144   -6789.0911            0    8193.3986    23.030886    21.292848       21.332    10461.067    7841.7774    7982.8389    8755.5796    1221.7416   -149.65156    -12.65021   -5310.1269 
 1812000    89.990891   -6783.0658   -6551.5697   -6783.0658            0    8606.9641    23.094967    21.132914    21.397431    10443.315    7532.2792    9620.8608    8667.7523   -284.58122    726.83553    237.05732   -5240.6858 
 1813000    93.263276   -6786.3121    -6546.398   -6786.3121            0      7783.41    23.116183    21.186844    21.401169    10481.415    8183.9862    8016.8118    7149.4319   -452.85487   -701.99928   -200.82132   -5356.6207 
 1814000    86.382685   -6785.6259   -6563.4117   -6785.6259            0    8533.7325    23.037158    21.261601    21.359653    10462.104    9077.6825     7838.532     8684.983   -134.87979   -364.81205    583.68622   -5261.3428 
 1815000    82.782053   -6791.1082   -6578.1564   -6791.1082            0    8359.6566    23.123173    21.192212    21.352547    10463.414     7977.404    8485.7479     8615.818    1023.1272    122.50733   -244.95349   -5302.4881 
 1816000     90.61022   -6783.8592   -6550.7699   -6783.8592            0     7868.351    23.130214    21.137109    21.448142    10486.122     7400.841     8917.763    7286.4489    533.77458   -25.200142   -313.48049   -5347.4682 
 1817000    86.262111   -6793.3436   -6571.4396   -6793.3436            0     8651.577    22.953068    21.257719    21.394971    10439.245    9081.3552    8464.4221    8408.9537     28.85291   -457.68552   -455.92565   -5254.2743 
 1818000    85.414415   -6784.2057   -6564.4823   -6784.2057            0    8899.4295    23.088612    21.143859    21.349633    10422.514    9031.9087    9244.1372    8422.2426   -517.50227    175.27007   -1198.3019   -5211.7541 
 1819000    84.367447   -6795.0192   -6577.9891   -6795.0192            0    7542.8053    23.236937    21.058184    21.416285    10479.581    6101.0831    8893.8975    7633.4353    500.26153    326.85872   -348.95554   -5425.1924 
 1820000    88.707217   -6794.8194   -6566.6255   -6794.8194            0    8063.3272    22.993016    21.292415    21.394147    10474.079    8949.7504    7253.3612    7986.8701    328.66998   -238.32892   -279.54381   -5334.9224 
 1821000    88.665641   -6782.7638   -6554.6768   -6782.7638            0    9168.9152    23.021187    21.236672    21.319743    10423.082    8924.7483    9259.1743    9322.8229   -563.76571    663.33058   -28.029385   -5160.9105 
 1822000    92.517076   -6771.3366    -6533.342   -6771.3366            0    9065.7031    23.235397    21.087283    21.263944    10418.724    8735.4766    8562.5231    9899.1097     200.1643     -338.488    697.74585    -5155.841 
 1823000    84.554985   -6786.6984   -6569.1858   -6786.6984            0    7569.1591    23.080257    21.307638    21.325328    10487.493    7426.4032    7420.3156    7860.7586    -62.18192    553.24541    32.428533   -5411.4881 
 1824000    87.059477   -6786.2902    -6562.335   -6786.2902            0    7568.1679    23.043357     21.25481    21.385149    10474.065    7583.0032    7086.5234    8034.9771    107.50453   -372.94931    535.88904   -5406.2709 
 1825000    87.570577   -6789.3535   -6564.0835   -6789.3535            0    7100.8511    23.090921    21.195433    21.441757    10494.069    7724.7826    6794.6739    6783.0969   -571.77149   -270.65024    199.59888   -5477.3321 
 1826000    88.366434   -6792.7813   -6565.4641   -6792.7813            0     7765.004    23.048899    21.226283    21.419399    10479.279    7535.5399     7456.367    8303.1049    168.49301   -139.32434   -8.8304904   -5378.7421 
 1827000    86.404486   -6786.1959   -6563.9256   -6786.1959            0    9327.2213     22.93783    21.191197    21.465342    10433.875    10399.804    8419.9686    9161.8912    389.13378    286.87789    760.42809   -5144.6269 
 1828000     90.16546   -6779.0512   -6547.1061   -6779.0512            0    8213.5031    23.121649    21.096772    21.457356     10466.73    6913.6538    9709.9378    8016.9177    311.79358    488.97885   -409.17217   -5293.3435 
 1829000    83.091994   -6782.6341    -6568.885   -6782.6341            0    8232.7805      22.9775    21.179609    21.502849    10464.458    9658.7153    7372.5608    7667.0654    155.78534    -466.6214    469.17454   -5312.4526 
 1830000    91.923289   -6782.7236   -6546.2565   -6782.7236            0     8630.744    22.949262    21.196768    21.487703    10452.697    8898.2385    8772.6783    8221.3151    406.72899    302.69229     251.9932   -5230.5698 
 1831000      83.7669   -6783.4768   -6567.9916   -6783.4768            0     8108.847    23.064145    21.074605    21.528222    10464.175    8819.3654    7944.7751    7562.4005    677.76966   -939.55753   -220.37858   -5330.5065 
 1832000     85.58941   -6790.9629   -6570.7893   -6790.9629            0    7499.4274    23.098351    21.185837    21.453443    10498.412    7578.0062    7508.5356    7411.7404    256.33737   -173.85213     43.42278   -5422.5627 
 1833000    88.717571   -6789.3294   -6561.1089   -6789.3294            0    8369.1734    22.892603    21.343503    21.391762    10452.193     9023.915    7636.2772    8447.3279    -671.0213    139.32867    270.89786    -5285.358 
 1834000    93.585456   -6783.0813   -6542.3384   -6783.0813            0    8190.0314    23.091802    21.221972     21.35253    10463.883    8365.5958    7802.1625    8402.3359   -98.362206   -443.28325    995.69943   -5292.4986 
 1835000    87.409241    -6790.514    -6565.659    -6790.514            0     7349.016    23.282299     21.09772    21.328225    10476.497    5773.0748    8809.1862    7464.7869    746.42493    35.338576   -387.48498   -5442.8105 
 1836000    87.054403   -6792.1781   -6568.2359   -6792.1781            0    7531.0549    23.090917    21.225975    21.377551     10477.72    7248.6998    8292.0676    7052.3972    271.86398     67.67496   -63.735411   -5417.4395 
 1837000     87.12516   -6797.4815   -6573.3574   -6797.4815            0    7290.6329    23.052492    21.279122    21.361177    10478.443    7154.2175    7274.5858    7443.0952    92.388683   -228.00753   -245.34167   -5459.2222 
 1838000    85.574226   -6778.1719   -6558.0374   -6778.1719            0    7941.1867    23.157404    21.111269    21.429161    10476.335    8370.9962    7702.6652    7749.8986   -354.03544   -1529.2854   -180.54677   -5344.7305 
 1839000    82.697782   -6794.9428   -6582.2078   -6794.9428            0    7667.1707    23.033935    21.226786    21.439659     10482.63    8117.0904    7196.3776    7688.0441    269.34733    8.6371861    378.44314    -5410.063 
 1840000    89.015322   -6794.3782   -6565.3917   -6794.3782            0    8320.9321    23.049179    21.171973    21.419286    10452.539    8503.9978    9076.8338    7381.9648   -9.9398673   -452.51173   -494.11512   -5296.9525 
 1841000    87.826076   -6799.2753   -6573.3481   -6799.2753            0    8345.9475    23.124369    21.149812    21.395755    10464.152    8671.0972    7912.9257    8453.8197    243.20825   -1256.4047    405.67164   -5299.6821 
 1842000    86.621173   -6783.4661   -6560.6384   -6783.4661            0     8265.019    23.099798    21.240816    21.317066    10459.401    7232.8621    9319.7357    8242.4593   -177.10461   -314.43551   -608.18562   -5299.8954 
 1843000    87.731487   -6789.5479    -6563.864   -6789.5479            0    8199.0416    23.016995    21.258781    21.365182    10454.267    9186.7123    7941.4824    7468.9302   -162.15036   -230.65094   -622.42004   -5313.7991 
 1844000     89.96592    -6785.803   -6554.3711    -6785.803            0     8164.353    23.169093    21.078066    21.386055    10444.087    8410.6713    7547.5015    8534.8863    278.83241   -544.18008    114.66207   -5310.8071 
 1845000    83.710815   -6789.3249    -6573.984   -6789.3249            0     8561.065    23.009935    21.208056    21.401325    10443.761    9047.4431     8193.668    8442.0838   -44.030907   -289.94943    605.66175    -5270.035 
 1846000     90.08073   -6784.4704   -6552.7432   -6784.4704            0    7895.3825    22.914282    21.318111    21.452601    10479.364    9011.7923    7027.9808    7646.3745   -198.25065    -941.2523    118.57434   -5346.0858 
 1847000    89.453758   -6795.7357   -6565.6214   -6795.7357            0    7878.3736    23.101619    21.044847    21.566183    10484.832    8476.8558    8592.5851    6565.6798   -726.53551   -336.77983   -11.645407   -5360.9352 
 1848000    85.102946   -6792.7963   -6573.8742   -6792.7963            0    8383.1082    23.052254    21.144968    21.421388    10441.624    8122.0213    8718.8242     8308.479    695.59342   -506.26398   -70.688093   -5297.2914 
 1849000    90.087366   -6792.3206   -6560.5763   -6792.3206            0    7391.1207    22.994511    21.270507    21.416112    10474.725    7536.1282    7018.8279    7618.4059   -178.81419    269.41041    220.14856   -5431.4856 
 1850000     84.63616   -6781.5821   -6563.8607   -6781.5821            0    9305.2757    23.125658    21.115186       21.329    10415.005    8617.3303    9827.4535    9471.0432   -671.48233   -650.07435    169.19758   -5150.4622 
 1851000    87.713452   -6794.2018   -6568.5643   -6794.2018            0    8710.0913    23.089434    21.135615    21.370969    10429.234    8107.8202    9792.6959    8229.7577    462.08402   -230.61886    50.492332   -5243.7622 
 1852000    85.848417   -6784.7259   -6563.8861   -6784.7259            0    7541.0563    23.085921    21.241653    21.374011    10481.455    7069.0733    7044.4366    8509.6589   -173.08929    20.414227   -153.95243   -5411.1507 
 1853000    89.033189   -6782.0188   -6552.9863   -6782.0188            0    7856.2932    23.098347    21.188804    21.430808    10488.802    7688.9569    8042.0902    7837.8326    48.548639   -97.306894    1324.3857   -5351.2216 
 1854000    87.518684   -6785.8119   -6560.6755   -6785.8119            0     7860.343    23.099368    21.223534    21.350615    10467.143    8280.1572    7187.5916      8113.28    393.53548   -9.3885285    207.34219   -5360.7741 
 1855000    91.259404   -6790.0786   -6555.3194   -6790.0786            0    7986.4823    23.017114    21.248199    21.385002     10458.81    8363.1356    7743.1599    7853.1514    187.24349    21.986028    -78.35257   -5337.1331 
 1856000    90.259699   -6798.2799   -6566.0924   -6798.2799            0    8370.6537    23.079598    21.172328    21.398619     10456.41    8495.9857     8766.043    7849.9325    459.15132   -464.06468   -64.606505    -5289.601 
 1857000    86.536215   -6790.9989   -6568.3897   -6790.9989            0    7286.5964    23.122011    21.173518    21.425961      10489.6    7248.7216    7575.9333    7035.1342   -799.68896   -470.85245    21.182201   -5453.6858 
 1858000    90.129188    -6793.548   -6561.6962    -6793.548            0    8223.5225    22.862713    21.375665    21.363074    10440.256    8853.7017    8069.3988     7747.467   -371.19018    494.26413   -328.03137   -5309.5791 
 1859000    87.477231   -6795.1879    -6570.158   -6795.1879            0    7704.5693    23.127658    21.144406    21.430707    10480.057      7552.92    7574.2796    7986.5084    196.59007    165.17121   -242.45242   -5392.5849 
 1860000    84.579015   -6785.8378   -6568.2634   -6785.8378            0    8325.7087    23.151948    21.084068    21.447964     10469.55    8272.5245    8224.2207    8480.3809    79.141333   -263.62489    345.10383   -5297.0305 
 1861000    88.394389   -6784.1197   -6556.7305   -6784.1197            0    8696.4136     22.78716    21.428907    21.383795    10441.791    9111.5483    7500.6188    9477.0737   -70.384954    1321.2022    197.12471   -5232.4162 
 1862000    88.754927   -6782.5412   -6554.2246   -6782.5412            0    9192.1555     23.05269    21.207832    21.320245    10423.416    9140.5364    9595.5615    8840.3687    83.027313     -123.646   -121.88276   -5156.8806 
 1863000    89.744062   -6785.2276   -6554.3664   -6785.2276            0    8623.3136     23.16134    21.095147    21.358112      10435.4    7966.5067    9162.3513    8741.0828     179.2047    183.14211   -40.757276   -5241.9878 
 1864000    88.435326   -6783.5638   -6556.0693   -6783.5638            0    7797.9277    23.050518    21.197566    21.426324    10469.221      7484.07    7532.1057    8377.6073    75.473777    1308.3339    54.493542   -5365.4595 
 1865000    87.167803   -6782.7261   -6558.4922   -6782.7261            0    7997.5292    22.984686    21.216213    21.456828    10463.379    8638.0692    8769.8567    6584.6616    135.94869    570.04714    318.14877    -5338.088 
 1866000     84.44408   -6797.1255   -6579.8982   -6797.1255            0    7260.1103    23.170446      21.0894    21.448743    10480.945     6739.453    7892.2389    7148.6391    437.19394   -534.51959    317.54768   -5470.1625 
 1867000    82.174941      -6797.7   -6586.3099      -6797.7            0    8161.6946     23.04246    21.234617    21.351571    10447.277     8329.966     7710.022    8445.0957    79.889982    103.17764    684.62571   -5342.7712 
 1868000    84.012782   -6786.5826   -6570.4648   -6786.5826            0    7934.9554    23.110416    21.235411    21.325841    10465.852    7288.4107    7815.5627    8700.8929    697.48845    398.80671   -206.03432   -5359.3231 
 1869000    89.966749    -6795.282    -6563.848    -6795.282            0    8192.8907    23.132961    21.170814    21.328053    10445.278    7540.2527    7773.1786    9265.2408   -206.96695   -311.91769    612.42274   -5315.7949 
 1870000    86.380331   -6782.7346   -6560.5264   -6782.7346            0      8705.16    22.998866    21.217392    21.384928    10435.331    9421.7488    7894.4365    8799.2949   -237.78439    866.10685    21.523238   -5235.7003 
 1871000    86.424291   -6785.5132    -6563.192   -6785.5132            0    8660.0608    23.000066    21.217405    21.422264    10454.102    8772.8991    8102.6236    9104.6596    778.27987   -169.17716    528.97883   -5242.8587 
 1872000    90.220045   -6777.3532   -6545.2677   -6777.3532            0     8230.936    23.073171    21.081539    21.518386    10466.929    7680.7943    9348.4009    7663.6127    16.707076    955.02326    58.382892     -5288.82 
 1873000    87.898203   -6794.7074   -6568.5947   -6794.7074            0    7369.6506    23.054615    21.220433    21.423732    10481.109    7705.2168    7705.1518    6698.5833   -223.73975   -444.22442   -367.28614   -5442.0977 
 1874000    85.513206   -6779.4371   -6559.4596   -6779.4371            0    7956.2918      23.0256    21.239742    21.402611    10467.113    9308.7637    7344.8472    7215.2645   -43.792602   -118.47215    100.16473   -5344.9148 
 1875000    89.576104   -6780.1493   -6549.7203   -6780.1493            0    8847.4907    23.168063    21.069407    21.382141    10437.422    8110.4374    8897.5627    9534.4719      73.2677    28.828141   -106.77876   -5202.9633 
 1876000    85.174589   -6783.9908   -6564.8844   -6783.9908            0    8102.3595    23.076243    21.234133    21.365501    10469.181    8481.8966    7599.1163    8226.0656    338.11461   -592.56342    44.879529   -5327.7978 
 1877000    91.260081   -6798.3514   -6563.5904   -6798.3514            0    8221.2746    22.976288    21.267207    21.395722    10454.837    8323.6048    8701.8404    7638.3785   -269.77087    331.48978   -1122.1927   -5310.0674 
 1878000    88.924132   -6793.7951   -6565.0431   -6793.7951            0     6980.724    23.142435    21.135205    21.475069    10503.888    6751.1655    7225.1964    6965.8101    279.93559    -395.6603   -109.82341    -5495.677 
 1879000    89.551786   -6779.1725    -6548.806   -6779.1725            0     7602.173    23.111566    21.155679    21.438878    10482.344    7713.5201    8019.8425    7073.1563   -10.976887   -854.21735   -174.63508   -5386.6296 
 1880000    82.044515   -6792.1609   -6581.1064   -6792.1609            0    7637.5086    23.026149    21.232769    21.415339     10470.15    7897.4606    7934.7371    7080.3282    321.91402    631.07246   -301.84417   -5414.8864 
 1881000    85.831613   -6798.3333   -6577.5367   -6798.3333            0    7572.9739     23.03407    21.195041    21.482863    10488.106    8833.2014    6620.2842     7265.436   -78.569142   -1157.2257    679.80435   -5419.1877 
 1882000    91.261283   -6787.8462   -6553.0821   -6787.8462            0    7357.7588    23.148931    21.067169    21.529017    10499.324     7185.517    7911.7143     6976.045   -948.00273   -107.74445    465.51025   -5426.4484 
 1883000    87.124521    -6780.486   -6556.3635    -6780.486            0    8368.8124    22.942385     21.25543    21.438157    10454.323    9211.7965    8776.9883    7117.6525    -161.1773    246.25449   -900.05727   -5280.4077 
 1884000    84.781879   -6793.6508   -6575.5546   -6793.6508            0    7848.2404    23.045924    21.226889    21.415541    10476.339    8348.9724    8358.6224    6837.1265    32.925952   -490.32158   -541.48778   -5376.4482 
 1885000    85.310897    -6796.301   -6576.8439    -6796.301            0    7568.7382    23.150329    21.149018    21.417723    10486.261    7282.3628    7822.0585    7601.7932   -799.32432   -26.844987   -896.60726   -5419.3464 
 1886000    92.469431   -6791.3148   -6553.4428   -6791.3148            0    8151.6499    23.033023    21.251647    21.370064    10460.425    8431.7224    8132.9236    7890.3035    601.01477    166.07116    146.58921   -5309.8713 
 1887000    88.018481   -6787.8822     -6561.46   -6787.8822            0    8885.3004    23.039522    21.228417    21.331233    10432.948    9011.1214    8667.2128    8977.5671    155.14947   -224.96678    131.50942   -5209.5274 
 1888000    84.594647   -6787.1314   -6569.5168   -6787.1314            0    8582.1364    23.232938    21.094507    21.302138    10439.909    7000.1879    10145.821    8600.4006    673.71608    936.51815   -182.81665   -5262.8406 
 1889000    86.255432   -6785.2633   -6563.3765   -6785.2633            0    8746.8023    23.138422    21.142781    21.337748    10438.652    8988.9282    8327.1226    8924.3561   -137.56559   -910.66801     338.1095   -5231.7893 
 1890000    89.229359   -6791.8865   -6562.3494   -6791.8865            0    8026.8211    22.974308    21.252761    21.415144    10456.319    8134.8107    8434.8418    7510.8108    110.48685   -390.15426   -253.08648   -5338.3019 
 1891000    86.323865   -6792.4221   -6570.3592   -6792.4221            0     8164.015    23.010733    21.121606      21.5244    10461.367    8270.0608    9200.8049    7021.1794   -537.15084    275.61566    132.52603   -5324.7893 
 1892000    89.621575   -6791.7443   -6561.1983   -6791.7443            0    8068.5752    23.074079    21.101968    21.491101    10464.199    7893.7298    8907.2074    7404.7884   -515.21296    497.44643   -243.69888   -5329.8561 
 1893000    85.314639   -6779.9653   -6560.4986   -6779.9653            0    8295.7618     23.04659    21.189937    21.416668    10458.954    9853.0728    7971.8135     7062.399   -1176.7049   -520.10522   -387.69612   -5295.1203 
 1894000    89.035135   -6791.4594   -6562.4219   -6791.4594            0    8189.0937    23.029262    21.214648    21.382537    10446.603    8034.6347    7695.8566    8836.7899    521.34457   -221.87234    985.78548    -5314.789 
 1895000    91.774972   -6784.6212   -6548.5356   -6784.6212            0    7982.5553    23.159534    21.122482    21.387614    10462.539    7686.1107    7517.4262    8744.1289   -443.75557    446.52234     246.6687   -5330.5142 
 1896000    88.162933   -6794.7402   -6567.9464   -6794.7402            0    7401.7858    23.096824    21.224527    21.377979    10479.894    7706.0249    7204.7393     7294.593    705.85031   -115.18618   -348.01484   -5436.6685 
 1897000    87.453012   -6796.8051   -6571.8376   -6796.8051            0    7845.4238    23.001844    21.280345    21.375556     10463.06    7922.9859    6869.3187    8743.9666    307.09507    608.67301    748.44303   -5374.6808 
 1898000    88.029646   -6795.8482   -6569.3973   -6795.8482            0    8635.1853    23.148794    21.119427    21.368115    10446.642    8528.8468    8781.6585    8595.0506   -404.93121   -669.16963    269.73542   -5253.7961 
 1899000    88.300163   -6778.5497   -6551.4029   -6778.5497            0    8185.7796    23.092833     21.15538    21.430125    10469.423    7843.5816    8368.5004    8345.2569    493.02153    512.58775   -442.84424   -5301.5506 
 1900000    87.304127   -6790.3984   -6565.8139   -6790.3984            0    8032.2945    22.969366    21.280945    21.375604    10448.605    8286.4091    7586.8292    8223.6451    41.630335    620.89888   -64.653131   -5341.8353 
 1901000    88.501925   -6780.8013   -6553.1355   -6780.8013            0    8260.1277    23.168575    21.134318    21.359135    10458.544    8805.1953    7290.0623    8685.1255   -87.859157   -560.46245    380.45833   -5293.2419 
 1902000    87.809748   -6801.0333    -6575.148   -6801.0333            0    8257.0281    23.054313    21.200725    21.384293    10451.961    7891.3523    7978.4713    8901.2606   -379.97825    539.85135     534.7965   -5316.5199 
 1903000    93.367097    -6794.266   -6554.0848    -6794.266            0    7874.8316    23.010205    21.319503    21.344714    10470.994     7623.989    7851.7513    8148.7546    279.53949   -7.2826186    -50.87387   -5351.5294 
 1904000    85.587519   -6780.4466   -6560.2779   -6780.4466            0    8055.5549    23.198827     21.05799     21.39302    10450.932    7475.1264    9260.8985    7430.6398   -360.59719    -563.4155    47.821782   -5332.4814 
 1905000    83.315993   -6786.8273    -6572.502   -6786.8273            0    7736.5897    23.092131     21.20075     21.38974    10471.786    7381.6617    8165.8894     7662.218   -72.611391    68.488918     154.9301    -5390.968 
 1906000    85.309704   -6803.3538   -6583.8998   -6803.3538            0    7017.7976    23.032227    21.335795    21.339962     10486.69    6848.1687    6329.6104    7875.6138   -961.96799    841.00924    791.86907   -5510.6146 
 1907000     83.97623   -6783.8943   -6567.8705   -6783.8943            0    7751.4162    23.202457     21.09216    21.378311     10462.33    6950.0953    7580.0258    8724.1273    436.77281   -246.06916      682.809   -5385.1412 
 1908000    90.334108     -6802.65    -6570.271     -6802.65            0    7961.7071     23.08979    21.168041    21.389553    10454.478    7506.0037    7926.9946     8452.123   -24.746728    170.90934     17.10132   -5356.3667 
 1909000    90.593574    -6793.887   -6560.8405    -6793.887            0      7691.39    22.990143    21.224834    21.467506    10475.326    7769.7046    7676.0055    7628.4598    1039.1029   -22.735752    194.06521   -5385.8123 
 1910000    87.401658   -6791.5747   -6566.7393   -6791.5747            0    8121.2321    23.127177    21.110566     21.44811    10471.563    8171.1611    8008.9324     8183.603   -424.66221   -45.290261    777.04496    -5326.489 
 1911000    86.404015   -6795.0582   -6572.7891   -6795.0582            0    8304.3493    23.079175    21.155542    21.402499    10449.823    7704.3065    8178.9294     9029.812    36.471752   -526.87555    346.35162   -5307.2068 
 1912000    89.504903   -6790.4624   -6560.2165   -6790.4624            0     8200.042    22.980151    21.300646    21.358866    10454.995    8523.3861    7765.5824    8311.1576    514.83074   -71.893311    95.816962   -5309.9119 
 1913000     84.93705   -6781.2523   -6562.7569   -6781.2523            0    8292.3286    23.159385    21.097537    21.410264    10461.183    7994.1138    8658.4591     8224.413    621.24395   -606.37451   -64.061064   -5297.6326 
 1914000    84.357808   -6790.3421   -6573.3367   -6790.3421            0     7732.895    23.159697    21.157717    21.378498    10475.599    7758.6534    7685.2326    7754.7992   -450.35802   -185.03489   -371.84004    -5391.937 
 1915000    89.175736   -6793.0769   -6563.6778   -6793.0769            0     8227.165     23.04346    21.254969    21.354216    10459.039    7773.4282     8578.176    8329.8907    151.94509      1027.15   -356.20907   -5308.7524 
 1916000    91.140589   -6783.8713   -6549.4176   -6783.8713            0    8466.5856    23.177142    21.153738    21.302195    10444.108    8234.6146    8774.9478    8390.1943   -271.39774     341.6868   -340.18709   -5259.8161 
 1917000    87.890008   -6791.9908   -6565.8991   -6791.9908            0    8084.9099     23.15193    21.136552    21.392685    10468.552    8103.7748    8517.1432    7633.8119   -140.64521   -182.05399   -134.83075   -5331.5509 
 1918000    90.377938   -6785.0294   -6552.5376   -6785.0294            0    8115.8591    22.928371    21.322734     21.41747    10470.906    8871.7825    7391.5595    8084.2353   -402.58798    468.10222     298.5475   -5313.1857 
 1919000    93.403394    -6786.765   -6546.4904    -6786.765            0    7643.4074    22.989941    21.152435    21.580538    10494.469    7459.0311    8444.8081    7026.3831    726.58358     225.2207    292.78625   -5376.6588 
 1920000    87.120651   -6788.8682   -6564.7557   -6788.8682            0    8330.1127    23.061701    21.086705    21.509513    10459.975    8178.7172    8720.1193    8091.5017    465.56396   -76.722374     162.0873   -5294.0136 
 1921000    86.174833   -6783.8856   -6562.2061   -6783.8856            0    8581.0804    22.958091    21.215021    21.451681    10448.178    8484.0355    8907.6771    8351.5285     477.5579  0.005860651   -52.197344   -5254.6558 
 1922000    91.020184   -6793.6873   -6559.5434   -6793.6873            0    7919.6937    22.980876    21.197539    21.494416    10470.748    8374.8925    8240.9574    7143.2311   -834.19998     147.9032    135.23909   -5350.1657 
 1923000    87.201549   -6793.7981   -6569.4774   -6793.7981            0    7915.5557    23.085052    21.138313    21.454452    10469.323    8267.4706    7829.9274    7649.2691     107.6098   -579.67855    435.97547    -5360.896 
 1924000    84.610917   -6784.3962   -6566.7398   -6784.3962            0    8864.0261    23.002118    21.168389    21.434864    10437.016    9464.1654    8481.7614    8646.1516    855.23197   -320.62506    825.17916   -5217.5183 
 1925000    87.047436   -6783.5355   -6559.6113   -6783.5355            0      7931.81    23.115932    21.189216    21.374346    10469.336    8083.2741    8127.0885    7585.0672   -842.00157    409.98715    347.74423   -5348.5466 
 1926000    87.075269   -6793.2738    -6569.278   -6793.2738            0    8165.8474    23.132782    21.168746    21.344227    10452.097    7620.8991    8172.8542    8703.7888    354.07371   -534.71601    335.85479   -5324.5325 
 1927000    90.464916   -6777.7009   -6544.9854   -6777.7009            0    8463.5897     23.05059    21.269159    21.309089    10447.136    9003.9717    7738.4159    8648.3813   -952.13253    131.86304    290.01061   -5255.4665 
 1928000     87.94213   -6780.1802   -6553.9544   -6780.1802            0    8855.2707    23.081493    21.181711    21.371244    10448.519    8962.8341    9576.8841    8026.0938    962.14328   -638.84926   -413.55269     -5204.58 
 1929000    87.194956   -6788.1287    -6563.825   -6788.1287            0    7816.7151    23.137076    21.124265    21.450321    10483.924    8353.6976     8001.921    7094.5266   -579.83418   -152.45128    -814.0439   -5368.6705 
 1930000    89.540544   -6789.2119   -6558.8743   -6789.2119            0     8043.926    23.006876    21.215882    21.442189    10466.172    8621.6407    8535.2241    6974.9132   -871.68743   -329.78366   -602.25177   -5331.0625 
 1931000    86.358112   -6789.4425   -6567.2915   -6789.4425            0    7414.8268    23.006063    21.229608    21.486491    10494.211    8706.8835    7409.7021    6127.8947   -628.05752   -655.44795   -835.79395   -5432.4723 
 1932000    90.814501   -6792.5778    -6558.963   -6792.5778            0     7785.814    23.122502    21.115965    21.491632    10493.374    7487.0835    8249.5651    7620.7934   -78.024626    197.46983   -301.47285   -5367.4602 
 1933000    85.739825    -6792.883   -6572.3225    -6792.883            0    8110.4229    23.068976    21.201133    21.423798    10478.132    8288.6491    8272.2865     7770.333   -354.69012    268.69798   -369.68948    -5332.946 
 1934000    88.370417   -6795.4923   -6568.1648   -6795.4923            0     8559.092    22.976189    21.309336    21.340538    10448.484    8979.6074    8064.3589    8633.3097   -601.34141   -363.20861   -887.66565   -5263.9268 
 1935000    84.594906   -6773.2774   -6555.6622   -6773.2774            0    7892.9155    23.128659    21.209402    21.364818    10480.405    8149.6205    6927.2651    8601.8611    41.167382   -936.64247   -351.04546   -5349.2619 
 1936000    88.167487   -6781.1913   -6554.3859   -6781.1913            0    8061.2702     23.17263    21.207621    21.337231    10485.891     8167.671    7412.0655    8604.0742    25.048184    136.93021    -645.2896   -5321.6084 
 1937000    87.119571   -6799.0121   -6574.9023   -6799.0121            0    8232.0394    23.019729    21.308311    21.333679    10464.415    8691.8656    7261.5195    8742.7331    1166.7179   -921.70546    176.42654    -5318.588 
 1938000    89.823426   -6782.2619   -6551.1966   -6782.2619            0    8132.1032    23.139953    21.161856    21.378245    10468.593    8244.1886    8542.2756    7609.8453     -608.781    108.10084   -994.35005   -5309.6384 
 1939000    84.320739   -6793.3741   -6576.4642   -6793.3741            0    8367.0799    23.051392    21.231373    21.364785    10456.197    8172.5658    7840.2178     9088.456    774.03387   -286.08828   -241.97635   -5300.5438 
 1940000    90.195978   -6778.7574   -6546.7337   -6778.7574            0     7532.178    23.050726    21.312053    21.376557    10501.411    7309.5229    7293.7741    7993.2371    29.263941   -527.67529    590.37958   -5393.1633 
 1941000    87.846135   -6778.0802   -6552.1014   -6778.0802            0    8354.0523    23.091827    21.180915    21.389376    10461.673    8622.8501    8781.8903    7657.4165    145.87967      201.387    -654.6893   -5277.5006 
 1942000    89.660864   -6788.6826   -6558.0355   -6788.6826            0    8303.2598    23.149498    21.154206    21.357312    10458.873    8067.8481    8566.6757    8275.2556   -68.127497   -465.83856   -467.45242   -5291.5232 
 1943000    85.319817   -6784.1364   -6564.6564   -6784.1364            0    8752.6285    23.018414    21.267627    21.319069    10436.687    8445.1361    9572.5318    8240.2177    -262.6409   -397.24305   -888.39952    -5232.433 
 1944000    83.895815    -6778.614   -6562.7971    -6778.614            0     7505.914    23.023351    21.321556     21.36986    10490.329    8714.9121    7125.0772    6677.7526   -576.89307   -740.49537   -659.33756   -5414.4622 
 1945000    88.882537   -6785.6558   -6557.0109   -6785.6558            0    7751.2068    23.179609    21.114875    21.415859    10481.661     7512.585    8771.6102    6969.4251    66.286966   -217.26448   -1138.2883   -5372.1283 
 1946000    85.864194   -6788.4828   -6567.6024   -6788.4828            0    8237.5491    23.115159    21.157626    21.412912    10472.239    7835.0846     8282.964    8594.5987    413.66667   -75.729121   -268.95625   -5309.5074 
 1947000    86.260507   -6780.3899     -6558.49   -6780.3899            0    8213.3688    23.011745     21.28336    21.376876    10469.694    8166.8166    8304.8415    8168.4485    305.03415   -209.98464   -100.91626   -5304.3928 
 1948000    89.750679   -6789.5105   -6558.6324   -6789.5105            0    7659.1858    23.137201    21.184842    21.403693     10491.19    7243.2833    7457.2862     8276.988   -491.41396   -223.17432    616.47759   -5386.7521 
 1949000    88.967666   -6789.1378   -6560.2739   -6789.1378            0    7055.3734    23.164223    21.229688    21.361558    10504.957    6163.3489    7306.8365    7695.9348    522.63479   -268.04584    269.05164   -5479.3623 
 1950000    86.078266    -6789.158   -6567.7269    -6789.158            0    7982.2709    23.090866     21.28785    21.274028    10457.353    8406.0358    7190.6889    8350.0879    1007.6604   -120.43211    217.56116   -5350.3527 
 1951000    89.719945   -6788.9251    -6558.126   -6788.9251            0    8419.4324    23.077587     21.24053    21.321991    10451.617    7976.9264    8930.1705    8351.2002   -295.02798   -328.14105   -114.66232   -5274.7846 
 1952000    89.254632   -6793.5472   -6563.9451   -6793.5472            0    7860.8374    23.100438     21.22929    21.347164    10468.775    7783.3382    7822.1541      7977.02    757.44048    495.26508     191.1921   -5363.7811 
 1953000    79.799483   -6785.3055   -6580.0262   -6785.3055            0    8242.4262     23.15698    21.109357    21.403041    10462.426    8119.1521    8101.7515     8506.375   -106.00901    1002.6194    3.8395442   -5322.3659 
 1954000    85.517658   -6787.6684   -6567.6795   -6787.6684            0     7708.688     23.08593    21.167462     21.43161    10472.997    7596.8396    7813.4088    7715.8156    571.46279    490.41248   -470.70172   -5390.2706 
 1955000    86.509766   -6793.4616   -6570.9205   -6793.4616            0    7691.6052    23.018424    21.225332    21.443199    10476.583     8081.505    7969.1112    7024.1994    389.38206    107.00421    381.81884   -5395.7185 
 1956000    84.028851   -6794.6109   -6578.4518   -6794.6109            0    7206.5372    22.988072    21.166659    21.572823    10496.919    7701.6221    7467.9119    6450.0777    310.51493   -189.13844    450.08029   -5475.2261 
 1957000    86.196253   -6791.2016   -6569.4669   -6791.2016            0    8882.2207     23.00312    21.147654    21.430163    10424.961    9010.5831    9533.3921    8102.6869    282.86004    204.73329     18.30686   -5219.0376 
 1958000     86.64812   -6784.5193   -6561.6223   -6784.5193            0    8038.8659     23.04599    21.199601    21.409369    10459.886    8632.7955     7164.083    8319.7194    437.36828   -391.55918    344.83048   -5335.3198 
 1959000    89.127546   -6786.7633   -6557.4881   -6786.7633            0    8099.7814    23.137174    21.110536    21.430458    10467.453    7775.7041    8661.0621     7862.578    -191.8944     167.1532   -25.886805   -5320.9992 
 1960000    86.118579   -6783.9645   -6562.4297   -6783.9645            0    8712.8291    22.972192    21.208644    21.418641    10435.355    9218.7959    7998.9332    8920.7581    247.32627    87.479439    777.76844   -5236.4334 
 1961000    88.230289   -6779.4511    -6552.484   -6779.4511            0      8454.78    23.025227    21.210692      21.3689    10436.165    9274.7894    7771.8533    8317.6972    9.5066243   -301.94617    244.90271   -5265.6601 
 1962000    84.008157   -6786.3084   -6570.2025   -6786.3084            0    7244.3543    23.190811    21.059015    21.485783    10493.133    6600.5689    8265.0114    6867.4826    518.28313    188.13168    -198.3014   -5461.5875 
 1963000    84.918663   -6783.5852   -6565.1371   -6783.5852            0    8174.3623    23.059916    21.164572    21.437065    10462.429    8558.0724     8643.109    7321.9056   -288.47058   -664.11913   -904.58816   -5317.8619 
 1964000    87.671165   -6789.7154   -6564.1866   -6789.7154            0    7693.1386    22.959919    21.279866    21.425359    10468.087    8032.9566    7557.5483     7488.911   -730.28933    124.13672    120.87682   -5389.7035 
 1965000    84.925715   -6798.7705   -6580.3042   -6798.7705            0    7499.5066    23.110889    21.165392    21.437831    10486.337     6770.481    8122.5026    7605.5361     34.93971    351.55341   -197.77645   -5433.3862 
 1966000    88.253791   -6797.6742   -6570.6467   -6797.6742            0    7712.4247    23.097453    21.196616    21.414153    10484.109    7582.1022    7544.7544    8010.4175   -106.27137     5.428905   -294.66521   -5391.4172 
 1967000    89.436603   -6794.5103   -6564.4401   -6794.5103            0    8052.2031    23.069501    21.203577    21.368234    10452.399    8063.6378     8388.957    7704.0145    164.37674    558.98443   -940.66866   -5336.9823 
 1968000    88.286202   -6784.5196   -6557.4088   -6784.5196            0    7727.6333     23.16369    21.164854     21.36105    10472.386    8086.9244    7307.4287    7788.5468   -760.05718   -41.652237   -71.193942    -5377.175 
 1969000    85.920518   -6790.3178   -6569.2925   -6790.3178            0    7746.1095    23.092143    21.229514    21.380971      10481.7    7845.8794    7730.2047    7662.2443    203.94607   -33.124577    25.679521   -5385.1847 
 1970000     84.09767   -6794.5089   -6578.1728   -6794.5089            0    8012.0742    23.029389    21.256597    21.376161    10464.196    7680.4187    7890.9941    8464.8099   -124.56397    703.61673   -537.78549   -5355.4536 
 1971000    87.617567   -6790.5437   -6565.1528   -6790.5437            0    8799.1126    23.187106    21.097126     21.34164    10439.931    8316.3292    8690.8481    9390.1606   -70.666372    55.813173    129.58027   -5225.4379 
 1972000    87.420165   -6797.1611   -6572.2781   -6797.1611            0    8084.3431    23.084622    21.224289    21.358439    10464.667    7814.4236    7719.5904    8719.0153    461.70745   -235.89197    270.36428   -5338.4744 
 1973000    85.007462   -6787.7771   -6569.1006   -6787.7771            0    8220.5508    23.024241    21.321724    21.321718    10467.183    8129.2858    7795.6816    8736.6851   -508.92828      613.822    75.420141   -5314.2077 
 1974000    94.604348   -6796.0577   -6552.6938   -6796.0577            0    7968.0127    23.168474    21.169835     21.35975    10476.376    7550.4302     7359.599    8994.0091    266.94756    825.34219   -228.21902   -5335.2835 
 1975000    87.709539   -6795.1922   -6569.5647   -6795.1922            0     7548.826    23.076951    21.185463    21.423687    10473.953    7574.3842    7763.4362    7308.6576    532.95036   -478.87969     31.65479   -5416.4675 
 1976000    89.674702   -6797.4865   -6566.8038   -6797.4865            0    8138.0019    22.956253    21.311013    21.367201    10453.284    8604.6603    7034.2924     8775.053    -380.4817   -262.88947    458.02426    -5326.162 
 1977000    91.630015   -6778.8925   -6543.1798   -6778.8925            0    8418.0542    23.049107    21.193668    21.418002     10462.59    8388.1037    8608.2441     8257.815   -272.36195     -1050.31    386.25341   -5258.7014 
 1978000    90.982155   -6782.1183   -6548.0723   -6782.1183            0     8507.365    23.095904    21.137168    21.416163    10454.986    7937.8526    8621.1791    8963.0633   -19.515242    714.50263    63.002928   -5250.9098 
 1979000    87.990746   -6781.2399   -6554.8891   -6781.2399            0    8552.4748    22.993203    21.225963    21.386846    10437.912    9281.6941    8271.0802    8104.6501    667.76154     339.7809   -580.62375    -5252.978 
 1980000    91.352939   -6785.5176   -6550.5177   -6785.5176            0    7388.4716    23.113173    21.196364    21.370689    10469.826    7361.4105    8263.7636    6540.2408    235.64485    174.08354    -171.3241   -5422.3597 
 1981000    88.721219   -6780.7486   -6552.5187   -6780.7486            0     7758.726    23.171645    21.180168    21.361493    10483.779    6889.0754     7242.174    9144.9286   -479.78387     717.8719    819.00234    -5366.247 
 1982000    86.815819   -6784.4581   -6561.1297   -6784.4581            0    7445.6464    23.042433    21.290802    21.373125    10485.482    7618.2774    7369.0211    7349.6406    53.638802    774.46303    395.50171   -5422.5415 
 1983000    84.003869   -6784.6567   -6568.5618   -6784.6567            0     8517.504     23.08051    21.177665    21.365233     10443.14     9015.783    7721.0543    8815.6748   -118.58227    493.87502    4.9524039   -5271.3248 
 1984000    90.183141   -6793.6502   -6561.6596   -6793.6502            0    8493.4813    23.153542    21.163209    21.320371    10447.051    8482.8131    8601.7985    8395.8322    129.94572   -731.62619   -182.41562   -5267.5969 
 1985000    87.307372   -6794.3494   -6569.7565   -6794.3494            0    7616.9761    23.031168    21.300486    21.372519    10484.825    7624.5478    8130.7645    7095.6161   -170.30666    379.16414   -248.80663   -5405.0414 
 1986000    87.091225   -6788.0239    -6563.987   -6788.0239            0    8121.1504    23.009444     21.26961    21.344797    10446.184    8965.3176    7765.6888    7632.4446   -255.75439   -393.61632   -529.95137   -5326.7551 
 1987000    85.960242   -6787.3676   -6566.2401   -6787.3676            0    8413.8355    23.124127    21.158301    21.363832    10452.623    8176.9315    8051.0352    9013.5397   -458.61208    89.586475    -234.2943   -5283.6284 
 1988000    90.194386   -6785.1419   -6553.1224   -6785.1419            0    8038.9066    23.066187    21.269746    21.366042    10482.435    8529.3331     7299.906    8287.4805   -142.19576    379.38774   -535.95807     -5324.17 
 1989000     86.27648    -6786.179    -6564.238    -6786.179            0    8171.6822    23.027757    21.253781    21.371359    10459.718    8066.8285    7960.7909    8487.4272   -250.79771    489.22321   -458.27321   -5317.6948 
 1990000    91.345272   -6785.3064   -6550.3263   -6785.3064            0    9334.6566    23.195283    21.105624    21.262649    10409.149     9556.436    9072.1926    9375.3411   -326.31451   -605.36996   -865.76141   -5133.2623 
 1991000    86.186881   -6785.6987   -6563.9882   -6785.6987            0    8320.3054    23.110543    21.212091    21.324534    10453.776    8349.6304    8401.2881    8209.9977   -213.58783    440.21007   -100.77951   -5295.4944 
 1992000     86.51935   -6787.7595   -6565.1937   -6787.7595            0    8179.4518    23.053277    21.289319    21.281984    10444.954     7707.102    7895.1855    8936.0679   -146.10599    402.75903    177.73416   -5319.2264 
 1993000    88.952085   -6782.7626   -6553.9388   -6782.7626            0     8703.288    23.209244     21.10672    21.260623    10414.963    7662.4263    9541.6853    8905.7523   -144.80645    530.16729    84.389321   -5231.9829 
 1994000    87.833341   -6784.4213   -6558.4754   -6784.4213            0    8719.8563    23.050289     21.19258    21.371479    10439.863    8756.0268    9484.5427    7918.9994   -275.37294    504.70268   -494.41289   -5230.8363 
 1995000    90.568655   -6783.0007   -6550.0183   -6783.0007            0    7856.4205     23.01739    21.232228    21.474238    10494.685    8725.7476    7460.7494    7382.7643   -91.169957    -238.8692    22.306417   -5347.5601 
 1996000    86.005131   -6792.9314   -6571.6884   -6792.9314            0    7921.7224    23.092595    21.115585    21.471821    10469.953    7937.0168    8868.0113     6960.139   -219.49165    17.012547   -678.70881   -5362.0927 
 1997000    88.235111   -6790.9366   -6563.9572   -6790.9366            0    7693.8089    22.996613    21.234821    21.444489    10471.965    8079.6312    7790.8871    7210.9084    -324.7698   -42.963387   -264.37395   -5388.9366 
 1998000    87.264061   -6783.2124   -6558.7309   -6783.2124            0    8172.4613    22.980629    21.217374    21.487126    10476.878    7964.8492    8454.5524    8097.9823     319.1826   -760.83092   -336.72877   -5310.0237 
 1999000    87.412815   -6796.9427   -6572.0786   -6796.9427            0     7784.333    23.114542    21.112396    21.508165    10496.057    7743.4143    8106.0007     7503.584   -639.38925   -333.89346    95.672051   -5380.4979 
 2000000    92.577498   -6783.0854   -6544.9354   -6783.0854            0    7754.0521    23.019248    21.254473    21.387812    10464.243    7870.5949    7710.8667    7680.6946    580.43673    66.395849   -186.92567   -5361.5876 
Loop time of 613.29 on 64 procs for 250000 steps with 1296 atoms

Performance: 70.440 ns/day, 0.341 hours/ns, 407.638 timesteps/s
196.5% CPU use with 32 MPI tasks x 2 OpenMP threads

MPI task timing breakdown:
Section |  min time  |  avg time  |  max time  |%varavg| %total
---------------------------------------------------------------
Pair    | 37.709     | 49.99      | 62.309     |  99.9 |  8.15
Bond    | 0.83756    | 1.1171     | 2.0817     |  24.3 |  0.18
Kspace  | 321.74     | 339.52     | 362.11     |  51.0 | 55.36
Neigh   | 0.88239    | 0.9997     | 1.1876     |   9.1 |  0.16
Comm    | 76.886     | 88.465     | 95.842     |  53.7 | 14.42
Output  | 0.57675    | 0.57728    | 0.57923    |   0.1 |  0.09
Modify  | 112.67     | 116.87     | 122.13     |  18.7 | 19.06
Other   |            | 15.75      |            |       |  2.57

Nlocal:        40.5000 ave          50 max          29 min
Histogram: 5 0 3 8 0 0 0 3 9 4
Nghost:        3196.78 ave        3230 max        3161 min
Histogram: 1 0 3 4 8 7 6 0 0 3
Neighs:        13346.8 ave       16473 max        9717 min
Histogram: 5 0 3 8 0 0 0 4 10 2

Total # of neighbors = 427099
Ave neighs/atom = 329.55170
Ave special neighs/atom = 2.0000000
Neighbor list builds = 1877
Dangerous builds = 0

unfix		3
unfix		2
unfix		1

write_data	data.final.${pid}
write_data	data.final.0
System init for write_data ...
PPPM initialization ...
  extracting TIP4P info from pair style
  using 12-bit tables for long-range coulomb (../kspace.cpp:340)
  G vector (1/distance) = 0.36947045
  grid = 30 40 32
  stencil order = 5
  estimated absolute RMS force accuracy = 0.0041067207
  estimated relative force accuracy = 1.2367267e-05
  using double precision FFTW3
  3d grid and FFT values/proc = 7888 1280
Last active /omp style is kspace_style pppm/tip4p/omp
WARNING: Not all mixed pair coeffs generated from mixing. Use write_data with 'pair ij' option to store all pair coeffs. (../write_data.cpp:312)

write_restart   restart.lmp.${pid}
write_restart   restart.lmp.0
System init for write_restart ...
PPPM initialization ...
  extracting TIP4P info from pair style
  using 12-bit tables for long-range coulomb (../kspace.cpp:340)
  G vector (1/distance) = 0.36947045
  grid = 30 40 32
  stencil order = 5
  estimated absolute RMS force accuracy = 0.0041067207
  estimated relative force accuracy = 1.2367267e-05
  using double precision FFTW3
  3d grid and FFT values/proc = 7888 1280
Last active /omp style is kspace_style pppm/tip4p/omp
Total wall time: 0:10:13
