LAMMPS (27 Oct 2021)
  using 32 OpenMP thread(s) per MPI task
package omp 0
using multi-threaded neighbor list subroutines
echo both

include		in.partitions
variable        pid world 0
include		in.temp
variable	temperature equal 300.0
variable	tempDamp equal 100.0
include		in.pressure
variable        pressure equal 10000
variable        pressureDamp equal 1000.0 # This is 1 ps
include		in.seed
variable        seed world 745823

units		real
atom_style	full
include		in.box
read_data       water.data
Reading data file ...
  orthogonal box = (0.0000000 1.0915313 0.0000000) to (18.207572 22.537647 22.213196)
  1 by 1 by 1 MPI processor grid
  reading atoms ...
  864 atoms
  reading velocities ...
  864 velocities
  scanning bonds ...
  2 = max bonds/atom
  scanning angles ...
  1 = max angles/atom
  reading bonds ...
  576 bonds
  reading angles ...
  288 angles
Finding 1-2 1-3 1-4 neighbors ...
  special bond factors lj:    0        0        0       
  special bond factors coul:  0        0        0       
     2 = max # of 1-2 neighbors
     1 = max # of 1-3 neighbors
     1 = max # of 1-4 neighbors
     2 = max # of special neighbors
  special bonds CPU = 0.000 seconds
  read_data CPU = 0.012 seconds
include 	in.setup
variable	out_freq equal 500
variable	out_freq2 equal 500

timestep	2.0

neigh_modify    delay 7 every 1

include		in.tip4p
# This is TIP4P/Ice

# create groups ###
group ox type 2
288 atoms in group ox
group hy type 1
576 atoms in group hy

# set charges - beside manually ###
set group ox charge -1.1794
Setting atom values ...
  288 settings made for charge
set group hy charge 0.5897
Setting atom values ...
  576 settings made for charge

# ### TIP3P Potential Parameters ###
pair_style lj/cut/tip4p/long 2 1 1 1 0.1577 8.5
pair_coeff 1 1*2 0.000 0.000
pair_coeff 2 2 0.21084 3.1668
bond_style  harmonic
bond_coeff  1 450 0.9572
angle_style harmonic
angle_coeff 1 55 104.52
kspace_style pppm/tip4p 1.0e-5
pair_modify tail yes

thermo          ${out_freq}
thermo          500
thermo_style 	custom step temp pe etotal epair emol press lx ly lz vol pxx pyy pzz pxy pxz pyz

restart 	${out_freq} restart.lmp.${pid} restart2.lmp.${pid}
restart 	500 restart.lmp.${pid} restart2.lmp.${pid}
restart 	500 restart.lmp.0 restart2.lmp.${pid}
restart 	500 restart.lmp.0 restart2.lmp.0


include         in.dump
dump            myDump all atom ${out_freq2} dump.water.${pid}
dump            myDump all atom 500 dump.water.${pid}
dump            myDump all atom 500 dump.water.0
dump            myDump2 all dcd ${out_freq2} dump.dcd
dump            myDump2 all dcd 500 dump.dcd
dump_modify     myDump append yes
dump_modify     myDump2 append yes


timer           timeout 00:55:00 every 1000
New timer settings: style=normal  mode=nosync  timeout=00:55:00

fix 		1 all shake 1e-6 200 0 b 1 a 1
       0 = # of size 2 clusters
       0 = # of size 3 clusters
       0 = # of size 4 clusters
     288 = # of frozen angles
  find clusters CPU = 0.002 seconds
fix             2 all nph iso ${pressure} ${pressure} ${pressureDamp}
fix             2 all nph iso 10000 ${pressure} ${pressureDamp}
fix             2 all nph iso 10000 10000 ${pressureDamp}
fix             2 all nph iso 10000 10000 1000
fix             3 all temp/csvr ${temperature} ${temperature} ${tempDamp} ${seed}
fix             3 all temp/csvr 300 ${temperature} ${tempDamp} ${seed}
fix             3 all temp/csvr 300 300 ${tempDamp} ${seed}
fix             3 all temp/csvr 300 300 100 ${seed}
fix             3 all temp/csvr 300 300 100 745823
velocity 	all create ${temperature} ${seed} dist gaussian
velocity 	all create 300 ${seed} dist gaussian
velocity 	all create 300 745823 dist gaussian

run             500000
PPPM initialization ...
  extracting TIP4P info from pair style
  using 12-bit tables for long-range coulomb (../kspace.cpp:340)
  G vector (1/distance) = 0.37144849
  grid = 24 25 25
  stencil order = 5
  estimated absolute RMS force accuracy = 0.0033118622
  estimated relative force accuracy = 9.9735747e-06
  using single precision MKL FFT
  3d grid and FFT values/proc = 33792 15000
  generated 0 of 1 mixed pair_coeff terms from geometric mixing rule
Last active /omp style is kspace_style pppm/tip4p/omp
Neighbor list info ...
  update every 1 steps, delay 7 steps, check yes
  max neighbors/atom: 2000, page size: 100000
  master list distance cutoff = 10.8154
  ghost atom cutoff = 10.8154
  binsize = 5.4077, bins = 4 4 5
  1 neighbor lists, perpetual/occasional/extra = 1 0 0
  (1) pair lj/cut/tip4p/long/omp, perpetual
      attributes: half, newton on, omp
      pair build: half/bin/newton/omp
      stencil: half/bin/3d
      bin: standard
Per MPI rank memory allocation (min/avg/max) = 38.65 | 38.65 | 38.65 Mbytes
Step Temp PotEng TotEng E_pair E_mol Press Lx Ly Lz Volume Pxx Pyy Pzz Pxy Pxz Pyz 
       0          300   -3852.2439   -3338.0542   -3852.2439            0    3467.3083    18.207572    21.446115    22.213196    8673.8464    3133.8643    3776.2154    3491.8451    2131.3549   -2192.9288   -1816.9989 
     500    324.80858   -3762.9456   -3206.2348   -3762.9456            0    11626.687    17.240508    20.307041    21.033379     7363.864    12130.932    12027.803    10721.327    686.54505    818.76286   -519.79486 
    1000    308.12658   -3729.1307   -3201.0123   -3729.1307            0    9026.2652    17.133519    20.181023    20.902853    7227.6201    7611.3294    9104.4158     10363.05    173.15457    -62.45621   -952.03444 
    1500    282.11373    -3669.787   -3186.2537    -3669.787            0    9786.7851     17.05761    20.091611    20.810244      7131.98    9068.7264    9425.5997    10866.029   -196.62164   -875.61771   -1420.0183 
    2000    300.35809   -3677.6106   -3162.8071   -3677.6106            0    10105.049    16.999358    20.022999    20.739178    7059.1625    9320.2546    9464.9125    11529.981   -555.69246    365.81055    10.636615 
    2500    301.82536   -3709.2511   -3191.9327   -3709.2511            0    9855.5577    17.045237    20.077038    20.795149    7116.4715    9804.0914    10116.321    9646.2607    2314.9848    -513.6532    986.28528 
    3000    302.54058   -3743.2909   -3224.7467   -3743.2909            0    9972.9154    17.045185    20.076976    20.795086    7116.4065    10477.332    9375.5434    10065.871     94.59391    -1259.147   -472.46871 
    3500    289.68884   -3736.1551   -3239.6383   -3736.1551            0    8221.6953    16.953247    19.968686    20.682922    7001.8738    9820.6074     7650.384    7194.0944    1800.4056     1355.771   -102.64873 
    4000    277.71701   -3749.0747   -3273.0772   -3749.0747            0    9102.3889    17.003381    20.027737    20.744085    7064.1749     8864.198    7520.5746    10922.394   -1696.4711   -638.10568   -488.23047 
    4500     295.5156   -3758.1642   -3251.6605   -3758.1642            0    9977.7934    16.988441    20.010139    20.725858    7045.5704    9121.9377    10462.669    10348.774      331.325    934.66969    330.77545 
    5000    292.25416   -3735.1915   -3234.2779   -3735.1915            0    9368.8139    17.024748    20.052904    20.770153    7090.8398    9374.0967    8200.9279    10531.417   -239.42606    1346.8383   -978.35642 
    5500    285.47128   -3770.6143   -3281.3263   -3770.6143            0     9786.001    16.944188    19.958015    20.671869    6990.6547    8993.2963    10850.272    9514.4341    583.05683    1883.4808   -420.82245 
    6000    304.10015   -3758.8049   -3237.5877   -3758.8049            0    8877.5688    16.955225    19.971015    20.685335    7004.3242    9750.4522    7690.2336    9192.0206   -252.86749    912.01083   -2040.0348 
    6500    299.86831    -3803.687   -3289.7229    -3803.687            0    10146.497    16.971861    19.990611    20.705631    7024.9623    11767.837    8446.8338    10224.821    676.21966   -1597.4999    176.21654 
    7000    301.21715   -3764.6972   -3248.4213   -3764.6972            0    9947.8124    16.960401    19.977112     20.69165    7010.7414    11304.422    11043.643    7495.3725    1611.8201   -182.03953    32.090831 
    7500    295.48422   -3764.2932   -3257.8434   -3764.2932            0    11057.394    16.896881    19.902294    20.614156    6932.2665    11358.195    10913.362    10900.626    -158.2473    -1386.507     216.3922 
    8000     300.8962   -3728.5272   -3212.8015   -3728.5272            0    11637.081    16.922893    19.932933     20.64589    6964.3312    8674.7231    13209.132    13027.386   -605.17189    229.29822    448.81542 
    8500    290.52364   -3722.3248   -3224.3772   -3722.3248            0    12239.524    16.861074    19.860118     20.57047    6888.2875     13077.49    11007.584    12633.498    87.271419    -1315.084    406.23373 
    9000    318.31039   -3748.2425   -3202.6694   -3748.2425            0    10104.608     17.00723    20.032271    20.748781    7068.9734    13013.163    9489.1476    7811.5129    450.16113     1230.687     382.6443 
    9500    299.61451   -3702.5528   -3189.0238   -3702.5528            0    11203.433    16.963842    19.981165    20.695847    7015.0086    10369.586     10043.31    13197.403    624.54763   -1897.9814   -1528.8775 
   10000     309.7172   -3709.1907    -3178.346   -3709.1907            0    9598.9042    16.953514       19.969    20.683248    7002.2046    9866.1493     9145.365    9785.1984    726.55775   -814.77692    1022.2779 
   10500    320.70101   -3683.2537   -3133.5832   -3683.2537            0    8961.4274     17.06166    20.096382    20.815185    7137.0616    7936.6566    9993.1308    8954.4949     807.8468   -556.59743   -741.48597 
   11000    303.12023   -3702.7228   -3183.1851   -3702.7228            0    9467.6054    16.978785    19.998766    20.714078    7033.5632     9986.541    9610.8894    8805.3859    254.76055   -756.75549   -131.36029 
   11500    293.94525   -3747.9616   -3244.1495   -3747.9616            0    8973.2347    17.010808    20.036485    20.753146    7073.4361    10313.688    8879.7499    7726.2668   -549.31683    1079.0305   -847.21311 
   12000    326.20439   -3734.6151    -3175.512   -3734.6151            0    10369.336    16.993681    20.016312    20.732251    7052.0921    9209.1928    11690.499    10208.316    348.48864    420.06822     750.1146 
   12500    305.87872   -3719.7837   -3195.5181   -3719.7837            0    10349.512    16.969093     19.98735    20.702253     7021.525    10459.738    10628.031    9960.7657   -1918.1641   -885.33502    399.15822 
   13000    314.55227   -3718.1945   -3179.0627   -3718.1945            0    9523.3844    16.949202    19.963921    20.677986    6996.8624    9622.3342    9472.7594    9475.0597     1352.539   -499.36119   -843.31223 
   13500    289.09295    -3747.404   -3251.9086    -3747.404            0    10963.095    16.873597    19.874869    20.585749    6903.6477    12627.527    9674.4413    10587.316    377.76189     487.8614    451.04439 
   14000    317.07752   -3773.9106   -3230.4506   -3773.9106            0    10323.397    16.892326    19.896929    20.608598    6926.6613    11204.564    8736.2998    11029.326     177.5167   -1940.1974    359.56598 
   14500    291.46506   -3751.4653   -3251.9042   -3751.4653            0     10045.86    16.948426    19.963007     20.67704    6995.9017    9868.6478    10088.414    10180.517   -1661.3131   -73.590634    765.41421 
   15000    300.88714   -3723.8598   -3208.1495   -3723.8598            0    8326.9835    16.981669    20.002163    20.717597    7037.1484    7595.2634    9359.9667    8025.7204    379.70942   -643.47556     -2181.24 
   15500    305.74313   -3739.3372    -3215.304   -3739.3372            0    8644.1141    17.072945    20.109675    20.828954    7151.2334    10681.377    6481.1308     8769.835   -1316.5784    28.345833    739.77948 
   16000    297.71367   -3741.0499   -3230.7788   -3741.0499            0    7836.1505    17.064223      20.0994    20.818312    7140.2778    9039.1516    7720.2352    6749.0648   -1692.1765    539.90823   -996.37925 
   16500    311.94321   -3702.9104   -3168.2504   -3702.9104            0    11649.481     16.90686    19.914048     20.62633    6944.5562    11543.287    12347.691    11057.465    1067.1048    1348.8705   -2685.2052 
   17000    310.59039   -3741.1953    -3208.854   -3741.1953            0    11846.356    16.965151    19.982707    20.697445    7016.6334    13435.882    10933.221    11169.964    633.19448    720.50472   -470.16942 
   17500    294.55111   -3746.6597   -3241.8092   -3746.6597            0     8435.004    17.023628    20.051585    20.768787    7089.4405    7056.6551    8194.1851    10054.172   -601.90754    278.49056   -572.02623 
   18000    275.86367    -3744.345   -3271.5241    -3744.345            0    9682.0313    16.966723    19.984559    20.699363    7018.5843    10242.489     8869.873    9933.7325      1346.12   -566.47332   -650.83103 
   18500    287.87418   -3736.9254   -3243.5189   -3736.9254            0    10074.252     16.89145    19.895897     20.60753    6925.5841    10738.552    9324.1011    10160.101   -781.47555   -1171.3918    810.89056 
   19000    307.89155   -3756.7791   -3229.0636   -3756.7791            0    11164.959    16.949243    19.963969    20.678037    6996.9133    11588.446    12677.757    9228.6738    1046.4994   -918.40828    935.46034 
   19500    314.18795   -3776.2989   -3237.7916   -3776.2989            0    10165.473    17.006809    20.031775    20.748268    7068.4487    9567.4334    8619.2836    12309.703    848.04116    221.75417    1180.6377 
   20000    291.08487   -3768.5959   -3269.6864   -3768.5959            0    7991.1884    17.016487    20.043173    20.760074    7080.5219    7457.1408     7057.559    9458.8653   -845.29759    -1920.079   -467.39959 
   20500    299.02476   -3730.9861   -3218.4679   -3730.9861            0    10814.876    16.926864     19.93761    20.650735    6969.2354     10906.54    8782.6164     12755.47   -1820.3158   -886.35689   -420.69638 
   21000    293.31166   -3754.0488   -3251.3226   -3754.0488            0     10278.27    16.903965    19.910638    20.622798    6940.9886    9665.6852    11276.378    9892.7476   -1028.7913   -134.94357    617.45415 
   21500    294.54018    -3753.635   -3248.8032    -3753.635            0    10784.784    16.858073    19.856583     20.56681    6884.6106    11053.751     10670.21     10630.39   -612.61325   -296.26817   -150.34251 
   22000    307.62831   -3709.0721   -3181.8077   -3709.0721            0    10695.566     16.93791    19.950621    20.664211     6982.888    12608.058    9964.8337     9513.806    -536.4067   -2246.0228    684.21921 
   22500    296.16725   -3730.6709   -3223.0504   -3730.6709            0     9861.592    16.940703    19.953911    20.667618    6986.3429    11427.308    9096.9634    9060.5046   -1443.9314   -1114.0412    786.73727 
   23000    288.71044   -3743.9293   -3249.0894   -3743.9293            0    10739.154    16.976082    19.995582     20.71078    7030.2047    10130.317    12343.641    9743.5038   -1597.2971     362.6547    982.20226 
   23500    293.36856   -3746.2025   -3243.3789   -3746.2025            0    8026.7129    17.038065     20.06859      20.7864    7107.4924     6843.382    9517.2734    7719.4833    1158.4097   -112.82823    -140.1572 
   24000      325.319    -3720.107   -3162.5213    -3720.107            0    11435.249     16.96897    19.987206    20.702104    7021.3734    10170.045    12695.933    11439.768    585.27907   -991.02289    686.16493 
   24500    289.62633    -3748.422   -3252.0124    -3748.422            0    9882.6527    16.942384     19.95589    20.669669    6988.4222     8819.217    10697.807    10130.935    798.13305   -1627.2645   -754.98695 
   25000    299.13389   -3716.1939   -3203.4887   -3716.1939            0    10767.212    16.879627    19.881971    20.593105    6911.0511      11500.8    11117.177      9683.66   -1956.5918    735.53788    90.619933 
   25500    287.85418   -3709.8325   -3216.4603   -3709.8325            0    10073.003    16.914124    19.922604    20.635192    6953.5105    9724.9977    11067.367    9426.6444    173.77968   -880.06484    652.18207 
   26000    309.77306   -3685.5812   -3154.6408   -3685.5812            0    9117.8949     16.96718    19.985097     20.69992    7019.1512     8749.669    8754.0933    9849.9224     915.7654    -1174.305   -1062.9869 
   26500    279.79108   -3750.9804    -3271.428   -3750.9804            0    8670.5111    16.986194    20.007493    20.723117    7042.7754    8121.8573    8447.5415    9442.1343   -1340.0336    18.245665     843.8503 
   27000    302.48526   -3710.5536   -3192.1042   -3710.5536            0    8525.2818    17.000354    20.024172    20.740392    7060.4031    6955.7243    10481.714    8138.4073   -1915.8058    -99.29432    249.15478 
   27500    312.00131   -3753.6646   -3218.9051   -3753.6646            0    10113.947    16.924839    19.935225    20.648264    6966.7342     10545.98    9106.5323    10689.328   -269.09545    2563.5972   -991.31195 
   28000     293.5482   -3723.3646    -3220.233   -3723.3646            0    12130.049    16.876896    19.878755    20.589774     6907.698    9938.1165    12418.286    14033.743   -893.04905    82.167209    2294.8559 
   28500    283.89789   -3699.5106   -3212.9193   -3699.5106            0    10208.408    16.960332     19.97703    20.691565    7010.6553    9005.1939    10651.448    10968.581    164.22546    958.79945    900.67422 
   29000    298.75353    -3778.117   -3266.0637    -3778.117            0    9407.3427    17.019584    20.046822    20.763853    7084.3896     10423.81    8482.6432    9315.5751   -1084.3485    1006.4095   -26.291496 
   29500    310.02908   -3758.5358   -3227.1566   -3758.5358            0    11602.036    16.974451    19.993662    20.708791    7028.1792    11417.057     12498.87    10890.181    1213.5226    -914.6901    344.35428 
   30000    313.33414   -3713.5395   -3176.4955   -3713.5395            0    11702.929    16.890739    19.895059    20.606662    6924.7086    12396.662    11986.714    10725.411    1294.6617    -402.7342   -1027.8813 
   30500    283.82739   -3708.5927   -3222.1223   -3708.5927            0    12017.785     16.88121    19.883836    20.595037    6912.9962    12536.989    12462.719    11053.648      1702.42   -1368.9873   -876.00787 
   31000    303.36978   -3706.6373   -3186.6718   -3706.6373            0      9278.77    16.993714     20.01635    20.732291    7052.1332    10753.008    7973.2394    9110.0627    583.19151   -743.32886     441.6816 
   31500     292.1677   -3702.1064   -3201.3409   -3702.1064            0    10093.779     16.92013    19.929678    20.642519    6960.9202    9686.6123    11507.344    9087.3807   -2100.7387   -284.86265   -48.628806 
   32000    299.48596   -3708.1467   -3194.8381   -3708.1467            0    9545.8437    16.984144    20.005079    20.720616    7040.2261       7619.2    10459.637    10558.694    837.64615    1362.8341   -678.12813 
   32500    311.17457   -3730.9872   -3197.6447   -3730.9872            0    10166.938    16.969279     19.98757    20.702481     7021.757    12263.441    10584.326    7653.0458   -855.29112   -141.52709    1282.6249 
   33000    309.76931   -3719.4734   -3188.5394   -3719.4734            0    10078.199    16.949639    19.964436     20.67852    6997.4038    7921.4372    10834.762    11478.397    444.26577   -410.92293   -113.86474 
   33500    304.31878   -3733.9769    -3212.385   -3733.9769            0    10209.773    16.892656    19.897317    20.609001     6927.067    9249.5465     12437.67    8942.1025   -1148.4342    752.34304   -602.14175 
   34000    289.93021   -3737.1983   -3240.2678   -3737.1983            0    9975.9615    16.916071    19.924897    20.637567    6955.9117    7163.8361    11511.127    11252.921   -374.84592    -748.3257   -1020.0312 
   34500    283.41166   -3762.4379     -3276.68   -3762.4379            0    11601.462     16.92363    19.933801    20.646789     6965.241    10730.738    10026.998    14046.651    543.54532   -1167.2526   -842.41933 
   35000    285.29652   -3759.2991   -3270.3106   -3759.2991            0    7432.3568    17.041807    20.072998    20.790965    7112.1763    5329.2792    8283.4765    8684.3146   -1618.5436   -207.59165    207.52005 
   35500    303.26842   -3724.2739   -3204.4822   -3724.2739            0    9475.0921    16.945941    19.960081    20.674009    6992.8254    10195.645    10215.551    8014.0801    906.88968    1281.5625   -2.3657004 
   36000    313.73375   -3743.8745   -3206.1456   -3743.8745            0    10702.978    16.889028    19.893044    20.604574    6922.6046    10167.332     9748.184    12193.417     210.2079   -1300.9444    467.40156 
   36500    303.06625   -3689.4618   -3170.0167   -3689.4618            0    9327.9645    17.001914    20.026009    20.742296    7062.3472    9028.5638    10532.998    8422.3312    1345.1138   -461.94251    1111.4503 
   37000    305.33356   -3717.6194   -3194.2882   -3717.6194            0    10694.266    16.964758    19.982244    20.696966    7016.1461    10628.167    11931.116    9523.5137   -214.59358    628.82205   -336.37679 
   37500     319.6291   -3772.2588   -3224.4255   -3772.2588            0    9671.2068    16.959524    19.976079    20.690579    7009.6533    10358.412    8310.5933    10344.615    142.24378    2263.2767   -1045.8935 
   38000    304.00791   -3725.7951   -3204.7359   -3725.7951            0    11151.024    16.909033    19.916608    20.628981    6947.2339    11324.963    11056.984    11071.126    1728.9577    715.36551   -120.45367 
   38500    292.19079   -3692.7524   -3191.9474   -3692.7524            0    10990.166    16.933715    19.945679    20.659093    6977.7003     10306.62    10938.237    11725.642    730.45352   -545.41744    1722.9262 
   39000    306.93733   -3729.3461    -3203.266   -3729.3461            0    9351.0211    16.994925    20.017777    20.733769    7053.6412    10370.048    9117.0396    8565.9762    1145.2232   -1092.0049    2488.1856 
   39500    289.08321   -3695.3064   -3199.8276   -3695.3064            0    10829.915    16.958638    19.975036    20.689499    7008.5554    10104.092    11523.871    10861.783    1837.0047    1983.0571   -460.41631 
   40000    303.24702   -3709.8552   -3190.1002   -3709.8552            0    10008.899    16.933588     19.94553    20.658938    6977.5435    10349.522    9968.5348      9708.64    2074.6149   -377.70968    740.97247 
   40500    295.09114   -3754.7002   -3248.9241   -3754.7002            0    10714.526    16.942847    19.956436    20.670233    6988.9951    9696.2936    10805.741    11641.544   -51.636443    1559.0434   -508.75973 
   41000    296.79292   -3711.4208   -3202.7279   -3711.4208            0    12281.092    16.903331    19.909892    20.622025    6940.2084    12349.031    12282.143    12212.101    1410.0366    56.911759      1061.69 
   41500     312.9383   -3743.6616   -3207.2961   -3743.6616            0    11339.591    16.992742    20.015206    20.731106    7050.9236    12013.747    11778.242    10226.783   -186.63915    879.92881   -972.01049 
   42000    304.83465   -3730.8736   -3208.3974   -3730.8736            0    10532.509    16.952757    19.968109    20.682324    7001.2667    9821.7624    10759.548    11016.216    1638.4143    489.56641    101.29412 
   42500    282.73042   -3705.7015   -3221.1112   -3705.7015            0    9790.3132    16.991429    20.013659    20.729504    7049.2889    9262.6971    9195.6931    10912.549    755.61838      2340.59     307.9303 
   43000     302.7851   -3736.6587   -3217.6954   -3736.6587            0    11054.622    16.927278    19.938098     20.65124    6969.7466    8601.0606     11871.42    12691.385   -3320.7249    1851.1483   -301.47577 
   43500    289.31406   -3764.4021   -3268.5277   -3764.4021            0    9462.4012    16.957591    19.973803    20.688222    7007.2577    8750.8861    10134.336    9501.9815   -206.29869   -460.38354   -545.80036 
   44000    308.45083   -3734.2851   -3205.6109   -3734.2851            0    11977.841    16.901356    19.907565    20.619615    6937.7759    11329.477    11997.206    12606.841    945.60736   -1835.7495    143.93464 
   44500    304.98308   -3683.0798   -3160.3493   -3683.0798            0    10936.775    16.950896    19.965916    20.680053    6998.9604    12762.448    9867.7686    10180.109    613.27139    2349.4847    328.43427 
   45000    302.53582   -3772.9158   -3254.3798   -3772.9158            0    10218.567     16.89014    19.894354    20.605931    6923.9724    10332.718    9362.6922    10960.291   -637.52945   -602.94899   -190.45445 
   45500    284.09239   -3727.1397    -3240.215   -3727.1397            0    10549.955    16.896319    19.901631    20.613469    6931.5739    10290.456    8994.2448    12365.163    842.21595   -1393.6514     461.5153 
   46000    323.30013   -3755.5713   -3201.4459   -3755.5713            0    9673.1755    16.997018    20.020242    20.736322    7056.2472    11566.874    8779.8864     8672.766    61.499319   -445.13255   -243.09277 
   46500    292.22331   -3721.6924   -3220.8316   -3721.6924            0    11124.937    16.919314    19.928717    20.641524    6959.9139    13332.577    10841.558    9200.6778   -581.81735   -402.10658     255.3903 
   47000    295.69086   -3734.9892   -3228.1852   -3734.9892            0    10430.031     16.98239    20.003013    20.718476     7038.045    10017.226    8988.2514    12284.616    1027.8867   -365.57485    312.84374 
   47500    298.93604   -3734.3044   -3221.9383   -3734.3044            0    8550.8762    16.984515    20.005515    20.721069     7040.687    6935.0325    9390.0874    9327.5086    854.00503   -963.91661    752.92208 
   48000    300.98137   -3736.4367    -3220.565   -3736.4367            0    9093.6501    16.976506    19.996081    20.711297    7030.7312    9312.2565    8611.9978     9356.696   -84.002078   -465.07054    735.14572 
   48500     292.7547   -3692.3392   -3190.5677   -3692.3392            0    10062.944    16.936999    19.949547    20.663099    6981.7607    9781.9883    11448.828    8958.0165   -962.14469     2985.004   -715.30806 
   49000    316.78675   -3721.5214   -3178.5598   -3721.5214            0    10601.183    16.952955    19.968341    20.682565    7001.5112    11633.783    11057.169    9112.5962    567.01553    1606.2254   -147.30781 
   49500    327.32485   -3704.4801   -3143.4565   -3704.4801            0    9249.1344    17.018786    20.045882    20.762879    7083.3929    10410.811    9575.8793    7760.7128    -25.50069   -517.71742    599.68231 
   50000    316.97731   -3768.0488   -3224.7605   -3768.0488            0    10021.519     16.92712    19.937912    20.651047    6969.5515    10451.499    10359.974    9253.0843    919.91129    712.54126   -315.18241 
   50500    309.19069   -3730.9661   -3201.0238   -3730.9661            0    11020.575    16.953431    19.968903    20.683147    7002.1019    9824.3045    11210.227    12027.194   -1046.6364   -870.94086    175.02111 
   51000    303.49517   -3715.2299   -3195.0496   -3715.2299            0    8258.5405    17.023637    20.051596    20.768798    7089.4522    8567.9048    6513.1545    9694.5622   -1009.8139    388.04616    741.17296 
   51500    294.41699   -3716.7714   -3212.1507   -3716.7714            0    9428.4566    16.905816    19.912818    20.625056    6943.2688    10837.193       8850.9    8597.2769   -1154.2037    167.59534   -931.96368 
   52000    287.88868   -3748.5075   -3255.0762   -3748.5075            0    7873.3777    16.971488    19.990171    20.705176    7024.4989    8940.3313    7349.4466    7330.3553    -819.6002    176.81646   -321.42096 
   52500    307.18305   -3747.7962    -3221.295   -3747.7962            0    10833.489    16.881363    19.884016    20.595223     6913.184    13476.139     10349.36    8674.9679   -828.06719    159.43321   -493.48473 
   53000    302.79906    -3762.175   -3243.1877    -3762.175            0    10281.576    16.873362    19.874592    20.585462    6903.3592    8886.2538    11883.151    10075.322   -326.83301    283.45457    636.32548 
   53500    308.76658   -3750.3462   -3221.1309   -3750.3462            0    11972.974    16.863952    19.863508    20.573982     6891.816    12266.639    12825.219    10827.064    827.63196     1062.757    601.41638 
   54000    318.80467   -3746.2162   -3199.7959   -3746.2162            0    7669.1447    17.008646    20.033938    20.750508    7070.7387    8483.1488    8464.3592    6059.9259    1440.5255   -292.58069    1965.2096 
   54500    283.44128   -3761.4073   -3275.5986   -3761.4073            0    10243.177    16.929859    19.941138    20.654389    6972.9352    8944.6792    11259.836    10525.015    1032.3819   -94.500227    1232.9831 
   55000    295.79787   -3717.0905    -3210.103   -3717.0905            0    11006.707    16.913593    19.921979    20.634544    6952.8558     10447.02    9085.3172    13487.784   -1717.5213   -791.86648   -240.33421 
   55500     293.5523   -3774.5486     -3271.41   -3774.5486            0     7523.422    16.975775    19.995221    20.710406    7029.8234    8117.7621    6676.4721    7776.0319   -680.60961    91.250814   -1024.4114 
   56000    308.87132   -3687.4721   -3158.0772   -3687.4721            0    12044.134     16.96738    19.985332    20.700164    7019.3994    12666.998    10653.604    12811.799    1665.3573   -520.55943    819.72115 
   56500    293.24013   -3684.1752   -3181.5717   -3684.1752            0    8827.0141    16.957933    19.974205    20.688638    7007.6807    10290.846    8589.6605    7600.5356   -614.86535   -717.17647   -260.27073 
   57000    297.83793   -3701.4493   -3190.9653   -3701.4493            0     12962.67    16.889141    19.893178    20.604713    6922.7444    10113.811    15694.884    13079.315    266.14373    905.81067    -971.4823 
   57500    296.47647   -3689.0738   -3180.9233   -3689.0738            0    10617.247    16.954809    19.970525    20.684827    7003.8089    10268.228    11294.585    10288.929    132.75475    380.67743   -487.90365 
   58000    298.13992   -3717.8234   -3206.8218   -3717.8234            0    11509.619    16.950414    19.965348    20.679465    6998.3633    10990.422    11351.053    12187.381   -950.59559   -1255.0499    161.48451 
   58500    312.10572   -3745.5667   -3210.6282   -3745.5667            0    8245.9059    17.011469    20.037264    20.753953    7074.2606    8762.9751    7609.2376    8365.5051    130.35686   -51.092957   -1296.3733 
   59000    299.72312   -3723.7646   -3210.0494   -3723.7646            0    11100.202     16.99139    20.013613    20.729456    7049.2402     12977.77    9929.3668    10393.469   -1801.0985   -2894.3551   -473.58794 
   59500    321.76336   -3763.5635   -3212.0722   -3763.5635            0    10457.244    16.978553    19.998493    20.713795    7033.2754    9630.4772    12216.019    9525.2375    601.38072   -396.66431   -1509.7423 
   60000    289.41496   -3759.2933   -3263.2459   -3759.2933            0    10799.039    16.979649    19.999783    20.715132    7034.6368    10195.634    10341.975    11859.509    -80.87832   -968.16116   -1463.4007 
   60500    305.17616   -3751.4828   -3228.4213   -3751.4828            0    9726.6478    16.940514    19.953688    20.667387    6986.1086    10211.498    9995.9544    8972.4912    -1797.176    828.23492   -283.93414 
   61000    293.69275   -3708.4018   -3205.0225   -3708.4018            0    10735.079    16.962631    19.979739    20.694371    7013.5076    13426.562    8786.3326    9992.3422   -507.59996   -330.15983    399.19034 
   61500    303.04177   -3735.2993   -3215.8961   -3735.2993            0    7548.1682    17.030945    20.060203    20.777713    7098.5851     7951.411    7450.5448    7242.5488    695.03593       1027.5    617.50319 
   62000    290.48321   -3695.2628   -3197.3846   -3695.2628            0    9018.0103    17.007423    20.032498    20.749017    7069.2143     8940.292    8264.8476    9848.8911    919.09523    585.17355    396.19893 
   62500    299.60959   -3738.7304   -3225.2098   -3738.7304            0    9521.9906    16.966231    19.983979    20.698762    7017.9729    8084.0689    9760.5559    10721.347     1103.721    1191.9548    -1524.759 
   63000    313.81583   -3700.4516    -3162.582   -3700.4516            0    9608.9006     16.95065    19.965627    20.679753    6998.6561     8515.207     11421.05    8890.4444    -785.3396    99.833231   -527.55248 
   63500    291.77527   -3734.7701   -3234.6772   -3734.7701            0    10911.103    16.912304    19.920461    20.632972    6951.2667    11081.002    10148.486    11503.822   -811.76856    787.98046    715.75151 
   64000    301.96536   -3734.6965   -3217.1382   -3734.6965            0    9174.9837    16.917319    19.926368     20.63909    6957.4524    9298.1007    7628.6757    10598.175    -696.7008     1749.645   -475.70956 
   64500    298.07295   -3771.6286   -3260.7418   -3771.6286            0    11487.308    16.956921    19.973013    20.687404    7006.4262    12025.239    13145.699    9290.9871   -849.45288    1091.5725   -673.78198 
   65000    287.40676   -3772.7658   -3280.1604   -3772.7658            0    9418.3027    16.950215    19.965114    20.679223    6998.1174    10565.831    8753.3723    8935.7052    305.33535    581.97495   -1041.7646 
   65500    303.44622   -3746.8817   -3226.7853   -3746.8817            0    10032.329    16.915594    19.924335    20.636985    6955.3237    10049.922    8508.6144     11538.45    1008.1012   -762.10012   -592.76123 
   66000    311.74552   -3695.0515   -3160.7304   -3695.0515            0    7696.9414    17.000525    20.024373    20.740601    7060.6162    6612.8228      10411.6    6066.4009   -1058.4768   -827.03932    -466.4702 
   66500    311.81429   -3698.3432   -3163.9041   -3698.3432            0    10439.514    16.929155    19.940309     20.65353    6972.0656    10847.981    9110.5743    11359.985    880.43354    1212.4618     1010.665 
   67000    292.33621   -3749.2351   -3248.1808   -3749.2351            0    8195.7455    17.013503    20.039659    20.756434    7076.7982     7683.608    8650.3977    8253.2307   -97.228286   -1205.2733     -659.215 
   67500    296.88969   -3724.8002   -3215.9414   -3724.8002            0    11001.248    16.961591    19.978513    20.693101    7012.2167    11948.922    10534.828    10519.994   -1572.8532   -431.98421    1331.7826 
   68000    291.95842   -3712.2132   -3211.8065   -3712.2132            0    11132.529    16.991591     20.01385    20.729702     7049.491    11470.959    8934.1763    12992.451   -1133.6148    406.16256    229.62306 
   68500    295.17936   -3702.6577   -3196.7304   -3702.6577            0    11593.221     16.94183    19.955238    20.668993     6987.737    13733.278    9542.9073    11503.478    639.80056    1194.0581     683.7189 
   69000      300.493   -3774.3082   -3259.2735   -3774.3082            0    9543.4563    16.948615     19.96323    20.677271    6996.1357     10602.59    10637.361    7390.4179   -155.47927    542.76985    307.93392 
   69500    291.05827   -3724.4011   -3225.5372   -3724.4011            0    12793.908    16.954132    19.969728    20.684001    7002.9697    10235.058    14300.608    13846.059   -2063.7267   -27.713698    1334.9472 
   70000    307.61914   -3746.5848   -3219.3361   -3746.5848            0     9902.812    17.001603    20.025642    20.741916     7061.959    12562.678    7792.3629    9353.3952     2657.772   -1028.3688    30.299528 
   70500    309.98005   -3767.6135   -3236.3183   -3767.6135            0    7458.2565    17.031249    20.060562    20.778085    7098.9664     7904.674    7408.7677     7061.328   -724.19416     777.0221   -1968.9922 
   71000    289.53612   -3721.2848   -3225.0298   -3721.2848            0    10028.345     16.93973    19.952764    20.666431    6985.1385    9703.0166    9659.1027    10722.917    985.25881    745.57872    111.67187 
   71500    290.82357   -3737.2615   -3238.7998   -3737.2615            0    10003.152    16.945049     19.95903     20.67292    6991.7209    10817.422    9659.7629    9532.2724    1.8710614     1037.249    325.30926 
   72000    315.32867   -3685.0549   -3144.5923   -3685.0549            0    8944.6528    17.019277     20.04646    20.763478    7084.0052    8741.0216    7921.3944    10171.542   -1101.9299    2748.4217    416.08388 
   72500    299.80781   -3755.3948   -3241.5345   -3755.3948            0    9762.1176    16.948851    19.963508    20.677559    6996.4281    8701.1642    10180.219    10404.969   -148.19106    7.9121855    405.97838 
   73000    290.04732    -3739.744   -3242.6128    -3739.744            0    10174.386    16.952048    19.967273    20.681459    7000.3878     8774.011    9524.9297    12224.218   -224.01208   -293.02559    566.56194 
   73500    296.25928   -3703.0276   -3195.2493   -3703.0276            0    8798.8879    16.969356     19.98766    20.702575     7021.852    11543.021    8097.5878    6756.0545    1321.5916    612.30782     694.4233 
   74000    301.70259   -3735.2393   -3218.1314   -3735.2393            0     11139.06    16.861349    19.860442    20.570806    6888.6248    9396.3794    12877.716    11143.083    486.54896   -861.34674    1184.8861 
   74500    311.39509   -3716.2421   -3182.5216   -3716.2421            0    8509.1138    16.917623    19.926725     20.63946    6957.8266    8740.5727    7631.5572    9155.2115   -1133.7648   -1971.7211    1116.7507 
   75000    314.65754   -3768.8001   -3229.4878   -3768.8001            0    10034.417    16.956523    19.972544    20.686918    7005.9334    9436.8952    8796.3068    11870.049    1169.4386   -861.37516   -938.45563 
   75500    305.67242   -3786.9246   -3263.0125   -3786.9246            0    9018.6388    16.960418    19.977132     20.69167    7010.7624    8660.6614    11247.726    7147.5287    201.80841   -1112.8595         -943 
   76000    295.70418   -3749.2624   -3242.4356   -3749.2624            0     10165.63    16.948321    19.962884    20.676913    6995.7724    10002.567    9864.9383    10629.385   -1118.3926    179.22016    759.97397 
   76500    280.58495   -3784.3536   -3303.4406   -3784.3536            0    9825.5271    16.950894    19.965914    20.680051    6998.9582    10755.532    8465.7268    10255.322    804.58571   -1118.9138   -502.94286 
   77000    295.50479   -3766.3241    -3259.839   -3766.3241            0     8810.521    17.000666    20.024538    20.740772    7060.7911    10011.996    6222.2403    10197.327   -591.88813   -1325.1094   -234.68406 
   77500     306.9218   -3742.1631   -3216.1096   -3742.1631            0    10455.188    16.977189    19.996886     20.71213    7031.5799    9562.8994    12447.258    9355.4051     32.17232    1024.0131    42.515338 
   78000    314.29539   -3704.6053   -3165.9137   -3704.6053            0    9047.1328    17.006871    20.031848    20.748343     7068.526    9373.6914    9674.1924    8093.5145    -659.4679   -145.73211    115.91173 
   78500    296.99572   -3729.4499   -3220.4094   -3729.4499            0    10646.444    16.911802    19.919869    20.632359    6950.6476    9395.1546    11358.813    11185.364    908.29291   -665.96699     729.9328 
   79000    307.39882   -3725.5174   -3198.6464   -3725.5174            0    9053.3715    16.964358    19.981773    20.696477    7015.6496    8932.9672    9773.6856    8453.4616    900.85986   -1715.8429   -512.97275 
   79500    312.05027   -3716.6215    -3181.778   -3716.6215            0    12444.043    16.893668    19.898509    20.610235    6928.3117    14714.631    13569.588    9047.9106     602.9727    1693.8199    1253.3422 
   80000    326.07256   -3726.4436   -3167.5664   -3726.4436            0    7704.8342    17.016704     20.04343    20.760339    7080.7936    6384.5979    9669.0099    7060.8947    235.61572    375.85185   -804.82735 
   80500    288.60227    -3690.195   -3195.5406    -3690.195            0    10996.766    16.918526    19.927789    20.640562     6958.941    10575.691    11488.197     10926.41     434.1152    871.15793    577.71258 
   81000    308.21453   -3752.9314   -3224.6622   -3752.9314            0    8769.5107    17.047499    20.079702    20.797909    7119.3055    8467.9847    9562.7309    8277.8166   -637.56208   -197.37849    721.11467 
   81500    290.47988   -3724.0362   -3226.1636   -3724.0362            0    9804.7578    16.977208    19.996908    20.712154    7031.6034    8322.4881    11732.501     9359.284   -1974.9617   -74.683311    1507.7205 
   82000    304.40108   -3749.7343   -3228.0013   -3749.7343            0    9313.0677    16.919627    19.929086    20.641906    6960.3001    8767.7295    10917.081    8254.3925    1015.2251    369.15577    -611.7009 
   82500    317.44771   -3672.7053   -3128.6108   -3672.7053            0    9042.5304    16.927078    19.937861    20.650995    6969.4987    6128.7072    9868.6522    11130.232   -283.67882   -1008.7169   -768.96568 
   83000    291.29901   -3717.0519   -3217.7754   -3717.0519            0    7734.9019    16.945248    19.959264    20.673163    6991.9673    8515.6441    7461.1988    7227.8629    525.89365    1081.9558    73.102514 
   83500     290.8804   -3675.6321   -3177.0731   -3675.6321            0    10169.531    16.939481    19.952472    20.666128    6984.8312    9668.2975    9884.0669    10956.227   -1568.9654    1230.9648    164.98087 
   84000    299.86397   -3668.9105   -3154.9539   -3668.9105            0    9776.1006    16.961827    19.978792    20.693389    7012.5098    11311.067    7286.5142    10730.721   -395.93129    1201.4288     357.8394 
   84500    304.09325   -3727.6869   -3206.4814   -3727.6869            0    10481.796    16.919897    19.929404    20.642235    6960.6333    10055.839    10917.654    10471.895    -1037.199   -1329.5068   -587.16906 
   85000    308.00121   -3747.8196   -3219.9161   -3747.8196            0    11729.275    16.912469    19.920654    20.633172    6951.4692    11545.964    12100.063    11541.797   -960.54102    159.70934   -538.23386 
   85500    314.81958   -3729.7773   -3190.1873   -3729.7773            0    9744.3045    17.001903    20.025996    20.742282    7062.3329    9858.7876    9954.0965    9420.0295   -1815.8682   -2020.5219   -596.20013 
   86000    308.43061    -3765.995   -3237.3555    -3765.995            0    9260.8567    16.981644    20.002133    20.717565    7037.1167    10251.856    9481.6688    8049.0457    1521.8584     -1521.56    603.66352 
   86500    296.63668    -3776.145   -3267.7199    -3776.145            0    8717.6669    16.965906    19.983596    20.698365    7017.5697    8493.8129    9727.4345    7931.7532   -566.07087   -1281.2288    1288.1655 
   87000    291.13623   -3742.2827   -3243.2851   -3742.2827            0    10936.512    16.911662    19.919704    20.632188    6950.4748    10212.751    10355.444    12241.341   -310.00567   -269.99789   -925.77905 
   87500    298.30473   -3731.8845   -3220.6004   -3731.8845            0    8469.1748    17.016288     20.04294    20.759832    7080.2747     7206.131    8675.3219    9526.0715    1553.8508   -356.68399    130.85484 
   88000    316.05395   -3722.3534   -3180.6477   -3722.3534            0     9354.714    16.954272    19.969892    20.684172     7003.143    8988.0854    9181.9025    9894.1541    -934.1608     513.7312   -211.49544 
   88500     296.7376   -3734.6258   -3226.0277   -3734.6258            0     8134.958    16.915711    19.924474    20.637128    6955.4684    6606.9798    8064.8393    9733.0548   -1163.2271   -1768.7028    1282.6975 
   89000    292.24315   -3755.9424   -3255.0477   -3755.9424            0    10600.418    16.885269    19.888616    20.599989    6917.9836    9644.6335     11422.37    10734.249   -1276.9834    947.31403    2183.3411 
   89500    284.61112   -3742.9447    -3255.131   -3742.9447            0    10315.594     16.93147    19.943036    20.656354    6974.9262    8757.9379    9833.5961    12355.249    1251.4489    1215.7754    593.18251 
   90000    299.73957   -3710.0801   -3196.3367   -3710.0801            0     12016.41    16.860914    19.859929    20.570275    6888.0916    12913.832     11450.72    11684.679    689.21535     1634.417     285.2748 
   90500    295.84626   -3714.0856   -3207.0152   -3714.0856            0    9436.6321    16.987045    20.008495    20.724155    7043.8332     10895.15    7454.0611     9960.685    235.77855   -1036.8143    1522.6803 
   91000    298.00942   -3758.3638   -3247.5859   -3758.3638            0    10263.052    16.888213    19.892084    20.603581    6921.6031    7555.7755    12335.886    10897.495   -944.62364   -433.24633    87.834704 
   91500    285.55999   -3764.6782   -3275.2382   -3764.6782            0    10139.832    16.967828    19.985861    20.700711    7019.9558     9896.787    11151.346    9371.3644   -553.07964    353.54478    1542.3814 
   92000    303.87672   -3702.0355   -3181.2012   -3702.0355            0    12452.904    16.861797    19.860969    20.571353    6889.1738    13226.637     11348.25    12783.824   -31.862748    508.44601    392.05597 
   92500     288.4448   -3763.1494   -3268.7648   -3763.1494            0    8349.4854    16.948457    19.963043    20.677077    6995.9397    7940.7582    7536.5999     9571.098   -34.600442   -21.037259   -556.03045 
   93000    290.14463   -3743.0995   -3245.8016   -3743.0995            0    10767.109    16.902291    19.908666    20.620755    6938.9265    11065.101    10283.954    10952.273    121.57499     556.4038   -493.10392 
   93500    302.28809   -3785.0287   -3266.9173   -3785.0287            0    6638.2835     16.99136    20.013578     20.72942    7049.2031    6957.5629    6309.6624    6647.6252   -238.45501    -116.1142    657.06705 
   94000    290.14443   -3730.9796    -3233.682   -3730.9796            0    10941.491     16.91704    19.926039     20.63875    6957.1078    11031.791    13370.419    8422.2634    668.03195    1315.7114    2334.4788 
   94500    310.15163   -3741.5907   -3210.0014   -3741.5907            0    9137.9795    16.926088    19.936696    20.649788    6968.2763    8395.1902    9860.1296    9158.6188   -1462.3851    271.17712    190.89635 
   95000    302.16497   -3754.6079   -3236.7075   -3754.6079            0    11536.181    16.851872    19.849279    20.559245    6877.0164    9839.5974    13356.732    11412.214   -686.35488    151.91739    532.54553 
   95500    288.85503   -3739.0748   -3243.9872   -3739.0748            0    9777.8011    16.971458    19.990136     20.70514    7024.4621    12023.276    8063.4113    9246.7163   -239.04981    2605.7872    776.59821 
   96000    295.61207   -3699.9937   -3193.3247   -3699.9937            0    10881.127    16.946248    19.960442    20.674383    6993.2053    10586.171    9800.6803    12256.529    1286.5917   -898.27286    1079.4277 
   96500     310.7526   -3735.9975   -3203.3782   -3735.9975            0    12505.276    16.899383    19.905241    20.617208    6935.3462    13231.294    12596.453    11688.081   -1107.8964    -1571.444    376.58917 
   97000    299.55417   -3728.3549   -3214.9293   -3728.3549            0    10916.193     16.94203    19.955473    20.669237    6987.9841    9349.7603    11777.386    11621.432    1047.4752    564.89871   -1969.2731 
   97500    292.12593   -3728.4531   -3227.7593   -3728.4531            0    8678.2214    16.971651    19.990363    20.705375    7024.7013    8082.9441    7828.9411    10122.779    297.39211    524.79062   -1068.6952 
   98000    299.68377   -3770.6877     -3257.04   -3770.6877            0    10420.027    16.900115    19.906103    20.618101    6936.2474    9179.0726    9615.1179    12465.892    531.35199   -82.936416    385.93058 
   98500    288.72841   -3731.8359   -3236.9652   -3731.8359            0    9672.2413    16.940918    19.954163     20.66788    6986.6082    9617.2188    7870.4142    11529.091    -36.52731   -524.40447    719.07271 
   99000    311.42124   -3767.7893    -3234.024   -3767.7893            0    9084.5617    16.956835    19.972912      20.6873    7006.3205    8960.0688    7783.8094    10509.807   -438.37552   -456.25537    1945.1151 
   99500    311.01245   -3679.3175   -3146.2528   -3679.3175            0    10381.169     16.96221    19.979243    20.693856    7012.9844    10117.858    10665.038     10360.61     -457.928    1677.9674    145.04444 
  100000     296.7119      -3737.4   -3228.8459      -3737.4            0    9163.3055    16.944658    19.958568    20.672443    6991.2363    9755.1005    8813.9584    8920.8575    312.44882   -304.56292   -457.75516 
  100500    306.95195   -3697.5932    -3171.488   -3697.5932            0    10900.803    16.928372    19.939386    20.652574    6971.0973    12230.799    8805.8767    11665.733    1321.6637   -257.58972   -1202.7924 
  101000    299.02176   -3739.3137   -3226.8006   -3739.3137            0    11628.241    16.946813    19.961107    20.675072    6993.9041    10733.178    13459.462    10692.084   -123.23607    1641.2622   -737.17105 
  101500    308.11892   -3744.0295   -3215.9243   -3744.0295            0    9818.1996    16.954706    19.970405    20.684702    7003.6819    9786.6185    11503.999    8163.9813   -52.304765    1173.5986    906.89634 
  102000    301.51845   -3727.7963    -3211.004   -3727.7963            0    8024.0476    17.069255    20.105328    20.824451    7146.5968    8289.6161    8287.7788     7494.748   -829.04653    -24.24173    1693.5459 
  102500     284.6324   -3751.0131   -3263.1629   -3751.0131            0    9994.3376    16.905193    19.912084    20.624296    6942.5013    10342.532    10378.353    9262.1275    450.87682    842.52727    95.417497 
  103000    293.52617   -3729.3169    -3226.223   -3729.3169            0    7760.6039    17.028756    20.057625    20.775042    7095.8484    8921.3082    6970.1674    7390.3362     1247.785    2066.9519   -17.397504 
  103500    296.37917   -3754.6571   -3246.6733   -3754.6571            0    11932.069    16.854289    19.852126    20.562193    6879.9754     12986.72    11491.948    11317.538    2648.6051    753.69356    1736.7972 
  104000    306.53224   -3738.7056   -3213.3198   -3738.7056            0    8281.2866    16.902062    19.908396    20.620476    6938.6445    8483.6427    7346.4587    9013.7584    1378.1902   -132.39177   -650.11956 
  104500    295.21959     -3725.84   -3219.8438     -3725.84            0    12209.836    16.880111    19.882541    20.593696    6911.6455    10344.436    11996.562    14288.511   -201.38685    248.83118   -1440.7524 
  105000    305.71992   -3750.7425    -3226.749   -3750.7425            0    9806.1111    16.976274    19.995809    20.711015    7030.4436    7427.6586     11758.92    10231.755     785.1691   -499.15641    882.57469 
  105500    303.52066   -3674.1486   -3153.9246   -3674.1486            0    10676.343    16.929357    19.940547    20.653776    6972.3151    10831.946    10779.595    10417.487    410.57253   -127.68218    259.43068 
  106000    286.41056   -3725.4476   -3234.5497   -3725.4476            0    9532.3088    16.955349    19.971162    20.685487    7004.4786    10256.793    9518.3447    8821.7885   -1622.5148   -1075.8089   -208.19973 
  106500     293.4093   -3705.2322   -3202.3387   -3705.2322            0    9315.7521    16.980479    20.000761    20.716144    7035.6685    9389.9012    7874.9898    10682.365    247.12919   -1111.2892   -561.59809 
  107000     284.5594   -3730.4802   -3242.7551   -3730.4802            0    8173.8512    16.951312    19.966407    20.680562    6999.4767    6839.7701    8749.1165     8932.667    950.76164   -1131.4871   -210.13218 
  107500    304.57138   -3739.1374   -3217.1125   -3739.1374            0    8856.8571    17.000984    20.024914    20.741161    7061.1881    10269.189    8712.2498    7589.1328   -592.00379    224.20436    1179.0895 
  108000    305.03987    -3713.606   -3190.7781    -3713.606            0    7886.6488    16.980095    20.000309    20.715676    7035.1916    6502.1012    8704.1274    8453.7179   -226.59528   -1941.0537   -4.3563758 
  108500    297.75813   -3676.5728   -3166.2256   -3676.5728            0    11623.384    16.911674    19.919719    20.632203    6950.4898    12960.806    9807.1979    12102.148    1040.5583   -1613.3441   -410.08433 
  109000    300.10308   -3720.1439   -3205.7775   -3720.1439            0    9757.0715    16.950784    19.965785    20.679917    6998.8225    10981.231    8237.2442     10052.74    1234.5083   -651.86253    724.43981 
  109500    294.14151     -3694.33   -3190.1816     -3694.33            0    12209.881    16.907154    19.914394    20.626689    6944.9181    11789.368    12187.243    12653.032   -318.71642    464.90404    312.61768 
  110000    293.48139   -3725.8787   -3222.8616   -3725.8787            0    6442.7411    17.057355    20.091311    20.809933    7131.6602    5745.0429    6233.4597    7349.7206   -1531.3363   -951.83899    550.76777 
  110500    290.00754   -3716.5398   -3219.4768   -3716.5398            0    9753.3221    16.988824    20.010591    20.726326    7046.0471    11268.855      10524.4    7466.7118    1038.1789   -411.75792    1678.3885 
  111000    308.42884   -3710.8268   -3182.1903   -3710.8268            0    9628.7773    16.971883    19.990637    20.705658    7024.9898     9983.547    9266.5433    9636.2416   -1618.9337    351.27611   -2014.3762 
  111500    308.46048   -3705.3695   -3176.6788   -3705.3695            0     11261.99    17.025206    20.053444    20.770712    7091.4121    10842.125    10480.588    12463.256    626.96509   -1188.7408    314.20803 
  112000    302.95808   -3742.2143   -3222.9545   -3742.2143            0    8704.6495    17.114255    20.158332    20.879351    7203.2682    9864.1685    7958.4784    8291.3017     196.5705    533.01492   -660.06146 
  112500     306.8304   -3773.3646   -3247.4678   -3773.3646            0    7992.8153    17.044825    20.076552    20.794647    7115.9555    6918.0508    7760.1413    9300.2537    1501.4896    1156.3503    1124.6019 
  113000    306.56083   -3742.0091   -3216.5744   -3742.0091            0    11221.342    16.906795    19.913971     20.62625    6944.4754    11330.434    10610.015    11723.578     808.8797   -177.17724   -79.553196 
  113500    302.79042      -3733.2   -3214.2276      -3733.2            0    9209.3888    16.960394    19.977104    20.691642    7010.7332    11838.688    9112.3832    6677.0955   -378.29634    384.60881   -788.51363 
  114000    308.54425   -3715.3102   -3186.4759   -3715.3102            0    9008.5099    17.018187    20.045176    20.762148    7082.6449    9815.1324     8235.276    8975.1212   -587.88267   -422.09629     -2873.81 
  114500    289.27461   -3735.4033   -3239.5965   -3735.4033            0    9823.3821    17.023755    20.051735    20.768941     7089.599    10472.452    9209.5604     9788.134   -450.05895   -1124.8692     611.7422 
  115000     314.3082    -3731.848   -3193.1345    -3731.848            0    11362.057    16.963143    19.980342    20.694995    7014.1419    11864.276    10302.799    11919.095    594.85881   -982.42701    813.86723 
  115500    298.27576   -3721.1118   -3209.8773   -3721.1118            0    9287.7664     16.94994     19.96479    20.678887    6997.7762    9330.8279    10104.756     8427.715    30.694268    866.85927    868.78135 
  116000     291.2268   -3732.0709   -3232.9181   -3732.0709            0    10201.303    16.952854    19.968223    20.682442    7001.3866    11173.951    10074.976    9354.9822   -329.97461    -1437.856   -924.58656 
  116500    305.35478   -3705.9301   -3182.5625   -3705.9301            0    10883.985    16.931225    19.942747    20.656055    6974.6229    9164.4868    12146.026    11341.441    637.34941   -1923.5415    809.58773 
  117000     298.0703   -3752.7623     -3241.88   -3752.7623            0    9879.2269    16.928357    19.939368    20.652556    6971.0791    11300.136    10438.191    7899.3541    954.17954   -1492.8517   -1055.1032 
  117500    281.91729   -3732.3592   -3249.1626   -3732.3592            0    10619.425    16.923774    19.933971    20.646965    6965.4193    9855.9569    10316.205    11686.111    156.15302   -1767.4043    639.62208 
  118000    287.96907   -3733.9944   -3240.4253   -3733.9944            0    7665.9062    16.970344    19.988824     20.70378    7023.0787    9219.0008    7840.7151    5938.0028    487.63556    -858.6674   -548.53994 
  118500    299.67215   -3711.6432   -3198.0154   -3711.6432            0    10497.829    16.986266    20.007578    20.723205    7042.8651    10152.052    14135.632    7205.8047   -1360.1635   -539.95545    2083.0915 
  119000    306.15966   -3748.4051   -3223.6579   -3748.4051            0     10652.01    16.996172    20.019246     20.73529    7055.1937    10865.522    11021.828    10068.681   -1931.6911    826.34947   -708.11689 
  119500     288.4531   -3723.9558    -3229.557   -3723.9558            0    9245.6041    16.995043    20.017916    20.733913    7053.7883    9419.2503    10404.319    7913.2435    450.83646   -1258.7048   -972.83594 
  120000    290.88723   -3688.3027   -3189.7319   -3688.3027            0    10128.748    16.944923    19.958881    20.672766    6991.5643    9745.4167    11872.533    8768.2927   -658.22573     368.3169   -2127.0886 
  120500     319.2378   -3725.6466   -3178.4839   -3725.6466            0    9563.6724    17.006622    20.031555    20.748039    7068.2156    10368.579    10416.304    7906.1334    311.99525    88.307558   -2543.6558 
  121000    305.57777   -3741.2663   -3217.5164   -3741.2663            0    11257.421    16.949975    19.964831     20.67893    6997.8199    10689.424    10186.082    12896.756   -497.69256   -1750.9873   -496.39656 
  121500    297.62007   -3732.8336    -3222.723   -3732.8336            0    7748.5314    16.970365    19.988848    20.703806    7023.1047    8269.7566     7274.316    7701.5215   -1078.1056    231.21676    -349.2643 
  122000    322.08744   -3720.2549   -3168.2081   -3720.2549            0    10300.223    16.930242    19.941589    20.654856    6973.4082    8622.8425    12346.994    9930.8337   -229.90702    2135.7534   -480.26404 
  122500    306.44136   -3728.0013   -3202.7713   -3728.0013            0    7460.8512    17.045751    20.077643    20.795777    7117.1157    8289.8356    6471.3685    7621.3494   -7.3714205    2345.4864    156.72661 
  123000    284.54656   -3730.8284   -3243.1253   -3730.8284            0    12473.457    16.834179     19.82844     20.53766    6855.3786    11701.948    11624.437    14093.986    991.49783   -250.29647   -161.17812 
  123500    288.22727   -3732.5648   -3238.5531   -3732.5648            0    7182.3877    17.071143    20.107551    20.826754    7148.9681    5695.1562    7186.9852    8665.0217    711.98062   -1405.2827      563.115 
  124000    307.79938   -3730.5409   -3202.9833   -3730.5409            0    11765.426    16.921165    19.930897    20.643782    6962.1978    12937.911    12423.145    9935.2232   -873.61175    1631.2981    328.25485 
  124500    284.95851   -3714.0792   -3225.6701   -3714.0792            0    9823.5596    16.900772    19.906877    20.618902     6937.056    9965.7734     9611.089    9893.8162   -102.80375    263.06283    449.00325 
  125000    310.33685    -3697.317   -3165.4103    -3697.317            0     7614.131    16.951763    19.966938    20.681112    7000.0353    5850.7117    7983.3096    9008.3716    1404.9152    381.91175     176.0375 
  125500    301.18736   -3748.6433   -3232.4184   -3748.6433            0    8730.5108    16.967073    19.984971    20.699789    7019.0181    8971.1519    9750.5976     7469.783   -388.66476   -1550.2413    60.383912 
  126000    303.69529   -3735.8422   -3215.3189   -3735.8422            0    12573.236    16.888045    19.891887    20.603376     6921.397    10496.651    13301.469    13921.586    -1413.279    445.95814   -588.59018 
  126500    268.14775   -3733.5886   -3273.9926   -3733.5886            0    9774.7245    16.983816    20.004692    20.720216    7039.8179    9932.2502    9028.0524    10363.871    382.54568     1419.699    1088.4513 
  127000    301.10409   -3697.1188   -3181.0367   -3697.1188            0    10068.131     16.89505    19.900137    20.611921    6930.0123     8690.989    9283.8084    12229.595     123.3357   -102.01074   -757.44885 
  127500    312.95967   -3743.4068   -3207.0046   -3743.4068            0    10076.623    17.011528    20.037333    20.754025    7074.3341      11480.2    10616.743    8132.9265    2439.1732   -1158.7873    580.81036 
  128000    294.20065    -3726.649   -3222.3992    -3726.649            0    10679.468    16.921408    19.931183    20.644078    6962.4975    13106.582    10850.128    8081.6933    2066.8736    1064.6882   -1614.7774 
  128500    282.97515   -3738.0048   -3252.9951   -3738.0048            0    11310.771    16.867479    19.867662    20.578285    6896.1406    15367.224    9376.1401    9188.9478    138.77705   -819.03301   -320.96446 
  129000    313.97791   -3724.0091   -3185.8617   -3724.0091            0    8976.9344      16.9204    19.929996    20.642849    6961.2541    9666.0876    9715.7454    7548.9702    217.42535    34.185516    823.79034 
  129500    295.34953   -3747.2235   -3241.0045   -3747.2235            0      9593.21    16.976823    19.996455    20.711684    7031.1255    9069.0378    9834.0658    9876.5265    688.85059  -0.27924508   -169.72919 
  130000    279.41256   -3725.2419   -3246.3383   -3725.2419            0    9032.9746    16.920358    19.929947    20.642798    6961.2023    7692.0415     9980.421    9426.4611   -681.99588   -804.20807    705.05448 
  130500    298.22425   -3712.0923   -3200.9461   -3712.0923            0    9355.1553    16.942773    19.956349    20.670144     6988.904    9112.0898    10114.416    8838.9602   -1651.7166   -524.18835   -16.926772 
  131000    291.44048   -3737.0761   -3237.5571   -3737.0761            0    8935.9982    16.959115    19.975598    20.690081    7009.1472    9325.2027    7463.3763    10019.416   -1500.8142   -374.52834    796.37898 
  131500    303.84826   -3717.0266    -3196.241   -3717.0266            0    11152.382     16.95011     19.96499    20.679094    6997.9871    11350.327    13101.637    9005.1814   -616.63488   -395.04646   -67.926816 
  132000    292.03684   -3679.8294   -3179.2883   -3679.8294            0    8969.6771    17.108426    20.151466     20.87224    7195.9108     10109.43    8223.5065    8576.0949   -975.60185    63.002085    1470.5776 
  132500    294.20646   -3653.7939   -3149.5341   -3653.7939            0    8720.7437    17.057014    20.090909    20.809517    7131.2321    8158.9341    9652.6468    8350.6502    1577.3698   -2041.6109    1381.3986 
  133000    292.37516    -3697.246    -3196.125    -3697.246            0    10636.339    16.963946    19.981288    20.695974    7015.1381    11801.849    9704.9307    10402.239    1706.9094   -1150.7704   -528.86919 
  133500    297.64531   -3693.0122   -3182.8583   -3693.0122            0    9329.8968     16.97498    19.994285    20.709436    7028.8362    8610.4997    10359.766    9019.4248   -1067.3498   -795.21146    1221.6494 
  134000    283.68049   -3760.0008   -3273.7822   -3760.0008            0    9680.2047    17.027502    20.056148    20.773512     7094.281    8085.8505    12062.498    8892.2653   -385.35135   -2035.4455    201.13042 
  134500    302.58362   -3743.3586   -3224.7406   -3743.3586            0     12965.91    16.917344    19.926397    20.639121    6957.4831    13387.493    11030.302    14479.936    -1108.651   -143.54658   -380.41169 
  135000    293.28962   -3756.2102   -3253.5218   -3756.2102            0    11332.601    16.965324    19.982911    20.697656     7016.848     11874.37    10156.376    11967.059   -1377.8992   -100.78812    113.66819 
  135500    297.37843   -3739.1633   -3229.4669   -3739.1633            0    9226.3349    17.004447    20.028992    20.745385    7065.5035    9203.4408    8930.6072    9544.9568    692.49784    -59.29595    26.420778 
  136000    299.86037   -3709.7555   -3195.8051   -3709.7555            0    9563.3982    16.942394    19.955902    20.669681    6988.4342    9108.1248    9719.8332    9862.2365     375.9742    430.91281   -604.44725 
  136500    316.25761   -3707.7631   -3165.7084   -3707.7631            0    10901.738    16.940207    19.953326    20.667013    6985.7285    10074.656    9899.1309    12731.426   -1057.2107    1694.9662   -2334.0876 
  137000    283.98386   -3722.2368   -3235.4982   -3722.2368            0    8686.1104    16.980308     20.00056    20.715936    7035.4563    7869.3562    9280.9837    8907.9913    1732.4569    1071.9595   -1319.0354 
  137500    317.05378   -3669.1662   -3125.7468   -3669.1662            0    11008.078    16.945035    19.959012    20.672903    6991.7029    10719.939    11701.047    10603.248    10.871281    79.882802    1869.7477 
  138000    308.41901   -3721.1773   -3192.5577   -3721.1773            0    12128.107    16.945187    19.959193    20.673089    6991.8922    12764.368    12631.818    10988.134    13.441805     1721.708    -808.4976 
  138500    291.86012    -3685.417   -3185.1788    -3685.417            0    10973.864    16.914371    19.922895    20.635493    6953.8151    10326.287    10386.081    12209.223   -180.06107    793.99859   -1837.0841 
  139000    290.22664   -3783.9497   -3286.5111   -3783.9497            0    9060.6576    16.966416    19.984196    20.698987    7018.2024    10769.179    6664.9004    9747.8931   -952.76576    265.57499    125.56357 
  139500    306.68599   -3709.0402   -3183.3909   -3709.0402            0     9102.577    16.976753    19.996372    20.711598     7031.038    6719.5119    10766.958    9821.2606    480.91848   -880.27574     -138.575 
  140000    300.59506   -3725.2784   -3210.0688   -3725.2784            0    8293.7812    16.981414    20.001862    20.717285    7036.8309    8944.3323    7879.2752    8057.7361   -403.41613   -112.77127    2397.1117 
  140500    301.15691   -3693.7078   -3177.5352   -3693.7078            0    10061.079    16.920527    19.930145    20.643003    6961.4099    10766.183     9908.741    9508.3118    506.37616   -2552.7207    771.34755 
  141000    292.62327   -3736.9878   -3235.4415   -3736.9878            0    8913.1128     16.94012    19.953223    20.666906    6985.6209     8823.061     10107.56    7808.7174    512.21459   -902.67259   -1576.5707 
  141500    292.51295   -3739.1036   -3237.7465   -3739.1036            0    9547.0843     16.91703    19.926027    20.638738    6957.0957    10752.519    7701.5113    10187.223    99.923949    1937.6642    533.75315 
  142000    292.78743   -3755.3193   -3253.4917   -3755.3193            0    10890.003    16.981363    20.001803    20.717224    7036.7683    11505.864    11363.701     9800.444    -231.8937   -308.59585   -1421.6266 
  142500    314.66985   -3752.2374   -3212.9041   -3752.2374            0    8798.9802    16.949006    19.963691    20.677748    6996.6206    6181.0954    11414.502    8801.3435    2143.6799    864.37886    519.00634 
  143000    290.07954   -3730.4838   -3233.2974   -3730.4838            0    11254.244    16.962573    19.979671      20.6943    7013.4356    9960.6146    11029.717    12772.401    1914.1277   -898.82564   -195.86795 
  143500    294.28371   -3749.2697   -3244.8775   -3749.2697            0    8118.6974     17.05604    20.089763    20.808329    7130.0116    8488.6593    8398.9511    7468.4819    276.30547    199.51874   -300.38365 
  144000    295.63144   -3712.3413   -3205.6391   -3712.3413            0     12160.72    16.920325    19.929908    20.642757    6961.1612    13304.874    12844.174     10333.11    212.59892   -426.54782    154.00527 
  144500    296.28571   -3751.8167   -3243.9931   -3751.8167            0    9607.4108    16.982745     20.00343    20.718909    7038.4856    7253.1093    10175.041    11394.082    602.54882    869.35337   -145.26113 
  145000    302.01915   -3695.2561   -3177.6056   -3695.2561            0    12994.961    16.874051    19.875404    20.586303    6904.2051    14197.775    12499.602    12287.505   -815.13103    145.81322   -948.01461 
  145500    293.90799   -3680.6519   -3176.9036   -3680.6519            0    10705.963    16.931143     19.94265    20.655955    6974.5214     11114.75    10210.162    10792.977    276.24086    -1296.668    -1223.075 
  146000    296.30057   -3725.9235   -3218.0745   -3725.9235            0    13195.779    16.889488    19.893586    20.605136    6923.1707    12373.723    13549.709    13663.906    422.82584    4.8140159    1074.2565 
  146500     308.0222   -3739.4117   -3211.4722   -3739.4117            0    9034.5793    16.966561    19.984368    20.699165    7018.3828    8410.2588    10056.175    8637.3046    -252.8687   -1451.8974    1587.5789 
  147000    294.91079   -3745.8616   -3240.3945   -3745.8616            0    9371.9189    16.963705    19.981004    20.695681    7014.8395    8986.2679    9766.2126    9363.2763    1127.1281   -1316.0099   -626.68677 
  147500    301.73632   -3719.2919   -3202.1262   -3719.2919            0    11597.333     16.91818    19.927381     20.64014    6958.5141    8952.6221    12593.157    13246.219   -1644.9723   -2588.6893    1496.0329 
  148000    296.43297   -3734.1858   -3226.1098   -3734.1858            0    11681.237    16.935406    19.947671    20.661156    6979.7913    12420.232    11720.222    10903.256    614.41243   -91.002588    333.41997 
  148500     306.4193   -3768.0393   -3242.8471   -3768.0393            0    8950.8005    16.936453    19.948905    20.662433    6981.0858    8209.2048    9559.7567      9083.44     642.5561    66.589681   -281.04259 
  149000    310.69152   -3723.1777    -3190.663   -3723.1777            0    10316.898    16.990418    20.012469    20.728271    7048.0311    9176.8553    9957.9242    11815.913   -1694.4846    772.52221   -445.63873 
  149500    295.73195   -3715.0003   -3208.1259   -3715.0003            0    8500.8917    16.989303    20.011155     20.72691    7046.6434    8719.9467    7929.9109    8852.8175    128.18456   -1281.3094   -459.10679 
  150000    298.51422    -3740.721   -3229.0779    -3740.721            0     11067.39    16.916217    19.925069    20.637745    6956.0924    7796.9913    13251.639    12153.538   -206.02607    644.80952    865.06004 
  150500    300.84986   -3736.8109   -3221.1646   -3736.8109            0    11059.925      16.9614    19.978289    20.692868    7011.9801    9661.7634    11089.962     12428.05    1180.3471   -530.63005    766.99754 
  151000    304.54884   -3709.3255   -3187.3392   -3709.3255            0    9846.6511    16.927976     19.93892    20.652091    6970.6088    10349.538    10253.377     8937.038   -839.89469    847.76873   -411.69053 
  151500    290.12855   -3699.7325   -3202.4621   -3699.7325            0    9167.1721    16.944296    19.958143    20.672002    6990.7891    8653.8537    11170.301    7677.3621   -270.55401   -81.280823    -441.2526 
  152000    276.97883   -3704.9098   -3230.1775   -3704.9098            0    8578.3157    16.956782    19.972849    20.687234    7006.2538     5839.368    9195.1109    10700.468   -255.65687    839.95735   -971.69483 
  152500    296.99781   -3765.6892   -3256.6451   -3765.6892            0    9035.7574    16.957277    19.973433    20.687839    7006.8684    9563.0573    9104.7583    8439.4567    1603.3301   -714.79005   -2539.9422 
  153000    314.36807   -3751.6664   -3212.8502   -3751.6664            0    10137.087    16.887666     19.89144    20.602914     6920.931    8446.6044    10566.575    11398.081    559.95846   -1509.8269   -137.01291 
  153500     305.5855   -3721.4191    -3197.656   -3721.4191            0    8460.2159    17.019027    20.046166    20.763173    7083.6939    9114.7205    7287.1998    8978.7272     684.9663   -18.182448   -282.17302 
  154000    297.50624   -3729.6426   -3219.7271   -3729.6426            0    11273.512    16.930472    19.941859    20.655136    6973.6918    12764.032     9043.208    12013.296    2175.5366   -468.32761   -410.16348 
  154500    280.69484   -3713.9964   -3232.8951   -3713.9964            0     10403.24    16.957805    19.974054    20.688483    7007.5226    12080.374    11158.029    7971.3177    773.41645   -854.40908    1384.6184 
  155000    304.33503   -3722.9605   -3201.3406   -3722.9605            0     9417.134    16.957697    19.973927     20.68835    7007.3881    9042.9286    9172.4941    10035.979    1397.0259    328.46369    912.63083 
  155500    282.61702   -3719.2538   -3234.8579   -3719.2538            0    9018.0612    16.992769    20.015237    20.731139    7050.9569    8846.3836    7701.3851    10506.415    1502.5726      500.388   -1076.1907 
  156000    280.77188   -3758.5085   -3277.2751   -3758.5085            0    9433.3605    16.973884    19.992993    20.708099    7027.4743    9158.1958    8858.3767    10283.509    222.06398   -1704.4168   -1536.8843 
  156500    294.70789    -3758.612   -3253.4928    -3758.612            0    9809.4453     16.96383    19.981151    20.695833    7014.9939    9316.3147     9321.587    10790.434    1164.0646   -16.907841    -782.3074 
  157000    298.52756   -3741.9529   -3230.2869   -3741.9529            0    10895.667    16.907931    19.915309    20.627636    6945.8753    13034.435    9307.8224    10344.745     384.7824   -1442.4235    192.72923 
  157500    290.30121   -3738.5857   -3241.0194   -3738.5857            0    8469.1797    16.963133     19.98033    20.694982    7014.1294    6449.4916    7704.2271     11253.82    605.40456    735.40614   -382.07082 
  158000    303.31108     -3742.15   -3222.2852     -3742.15            0    9487.8669    16.910316    19.918118    20.630546    6948.8151    11336.544    9939.9494    7187.1072   -1465.9554    82.747234    35.389852 
  158500    302.46055   -3770.0225   -3251.6155   -3770.0225            0    10028.216    16.913012    19.921294    20.633835     6952.139    9369.4234    10770.366    9944.8583    1182.4831    1517.8876    200.23638 
  159000    291.84846   -3715.5811   -3215.3628   -3715.5811            0    11998.913     16.90868    19.916192     20.62855    6946.7989    11781.489    10058.007    14157.244    892.53768    1379.9704   -1489.5165 
  159500     304.3768   -3744.6951   -3223.0037   -3744.6951            0     7757.357    16.936524    19.948988     20.66252    6981.1737    10367.864    7056.7144    5847.4928    247.11429   -1339.5762    1081.5197 
  160000    319.01599   -3723.2561   -3176.4736   -3723.2561            0    10791.881    16.951777    19.966954    20.681128    7000.0518    7539.1718    13171.151    11665.321   -510.46028    1037.2239    1140.8644 
  160500    302.23931   -3734.3567   -3216.3289   -3734.3567            0    10238.218    16.992677    20.015129    20.731026    7050.8422     11102.71    9045.9891    10565.955    456.85182   -793.34122    2330.6748 
  161000    289.71291   -3760.4894   -3263.9314   -3760.4894            0    8095.3128    17.008169    20.033376    20.749926     7070.144    9350.7495    6540.4949     8394.694   -475.47853    288.62175   -2690.5207 
  161500    302.63953   -3757.9066   -3239.1928   -3757.9066            0     10185.69    16.935916    19.948273    20.661779    6980.4223    11974.444    8566.3961    10016.231   -477.19356    24.846077   -1156.8962 
  162000    283.03482   -3719.4327   -3234.3207   -3719.4327            0    10628.842    16.989601    20.011506    20.727274    7047.0141    10700.158    10203.404    10982.965   -1645.9533   -2742.0492    592.87005 
  162500    301.84216   -3726.1334   -3208.7862   -3726.1334            0    10279.786    16.933682    19.945641    20.659052    6977.6596      9599.54    8382.1631    12857.656   -1149.3087    1413.6271    728.82137 
  163000     298.7149   -3722.6756   -3210.6884   -3722.6756            0    8753.3082    17.010385    20.035987    20.752631    7072.9087    8433.3225    8516.1828    9310.4192    134.82815   -1155.8962   -770.65478 
  163500    290.59252   -3770.5872   -3272.5216   -3770.5872            0    9999.7959    16.978039    19.997887    20.713168    7032.6361    9743.8534    9422.6185    10832.916    264.20802   -1636.3555   -550.36786 
  164000     305.8954   -3765.1803   -3240.8861   -3765.1803            0    9990.8489    16.967994    19.986055    20.700913    7020.1609    9323.8464    11261.381    9387.3188   -630.21365   -300.21724   -114.31504 
  164500    296.31594   -3741.2406   -3233.3652   -3741.2406            0    9768.5124    16.961114    19.977952    20.692519    7011.6251    9951.6003    9255.0414    10098.896    -1009.199    1475.0044   -2220.1597 
  165000     295.2382   -3719.4256   -3213.3975   -3719.4256            0    12103.857    16.913418    19.921772    20.634331    6952.6401    11744.398    12104.326    12462.848   -218.64906    382.99378    76.814644 
  165500    299.23811   -3729.2226   -3216.3387   -3729.2226            0    10216.252    16.937242    19.949834    20.663396    6982.0614    9865.3497    10695.316    10088.089   -1353.7021    1143.4625   -1667.9917 
  166000    298.28025    -3686.891   -3175.6489    -3686.891            0    10828.559    16.942781    19.956358    20.670153    6988.9137    10224.474    11461.937    10799.266   -1096.7506    1893.0498    1334.2455 
  166500    295.02751    -3728.114   -3222.4469    -3728.114            0    9794.8443     16.97348    19.992518    20.707606    7026.9732    8055.9113     8728.447    12600.175    76.647263   -203.04767    171.04976 
  167000    286.59453   -3741.1788   -3249.9655   -3741.1788            0     10951.34    17.028456    20.057272    20.774676    7095.4736    9220.7069    13112.118    10521.195   -571.87309    2268.6108   -178.58592 
  167500    279.01002   -3719.1759   -3240.9623   -3719.1759            0    9477.9479    17.034089    20.063906    20.781548    7102.5171    10667.515     9976.769    7789.5601      1372.91   -529.56497    324.77884 
  168000    307.85252   -3683.7371   -3156.0884   -3683.7371            0    11302.704    16.893285    19.898058    20.609768    6927.8412    10437.396    11162.159    12308.558    659.08713    1219.0785    97.671168 
  168500    303.24515   -3734.7354   -3214.9836   -3734.7354            0    7845.7758    16.976585    19.996175    20.711394    7030.8299    6335.2993    10734.246    6467.7825    1198.4358     96.36827    380.65599 
  169000    302.23111   -3706.6409   -3188.6271   -3706.6409            0    7823.8122     17.00647    20.031376    20.747854    7068.0263    7957.0374    8303.4936    7210.9055    -391.9527    1068.9921   -732.63486 
  169500    285.66836   -3732.1999   -3242.5741   -3732.1999            0    9571.6333    16.920106     19.92965     20.64249    6960.8913    10260.647    7217.1435     11237.11   -52.469226   -307.61266   -709.85801 
  170000    303.88517   -3738.4669   -3217.6181   -3738.4669            0    10111.503    16.966331    19.984096    20.698884    7018.0971    10391.462    10043.248    9899.7993    960.31358    -65.19874   -615.86311 
  170500    289.84468   -3732.8693   -3236.0854   -3732.8693            0    12506.348    16.827069    19.820065    20.528985    6846.6956    10799.677    14431.266    12288.102   -673.37567   -1133.5878   -795.75904 
  171000     288.6385   -3732.5993   -3237.8828   -3732.5993            0     9034.541    16.926303    19.936949     20.65005    6968.5419    8700.6204     9906.963    8496.0396    377.72952    1763.2587     396.2012 
  171500    296.34032   -3756.9734   -3249.0562   -3756.9734            0    7809.3991    16.998605    20.022111    20.738258    7058.2239    6796.6884    7657.4409    8974.0679   -930.15024   -303.01392   -31.135558 
  172000    308.18068   -3745.0898   -3216.8787   -3745.0898            0    12193.742      16.9114    19.919395    20.631868    6950.1514     13233.17    12169.326     11178.73    963.40181     816.3842   -867.77168 
  172500    305.83166   -3734.8851   -3210.7001   -3734.8851            0    10956.742    16.953263    19.968704    20.682941    7001.8932    9952.4698    12288.456      10629.3   -1498.6757    -702.2388   -84.992371 
  173000    296.22536   -3714.3061    -3206.586   -3714.3061            0    9263.7816    16.957186    19.973325    20.687727    7006.7547    10328.216    9582.4978     7880.631    373.75015   -1304.8017    1375.0881 
  173500    296.45007   -3702.3696   -3194.2643   -3702.3696            0    11122.734    16.920939    19.930631    20.643506    6961.9193    11397.767    10290.084     11680.35   -819.42967    791.64431   -1177.6361 
  174000     290.5837    -3733.566   -3235.5155    -3733.566            0    9891.1131    17.012581    20.038573    20.755309    7075.6472     9901.579    10592.315    9179.4456    1375.0216    1385.2934   -412.95263 
  174500     306.6982   -3696.2023   -3170.5321   -3696.2023            0    11022.599     16.94753    19.961951    20.675947     6994.792    11080.514    10337.541    11649.742   -241.41824    810.54052   -101.50015 
  175000    298.45436   -3719.2761   -3207.7356   -3719.2761            0    10313.573     16.95856    19.974944    20.689404    7008.4591    9635.6755    12239.306    9065.7383   -1039.5729   -1842.7075   -1167.0641 
  175500     286.0898   -3760.2458   -3269.8976   -3760.2458            0    11100.011    16.904078    19.910771    20.622936    6941.1279    11158.327    11955.963    10185.742    -1156.937   -1562.8818    165.65617 
  176000    306.10308   -3760.1307   -3235.4805   -3760.1307            0    11458.466    16.916382    19.925263    20.637946    6956.2954    9958.1803    12605.443    11811.774   -1539.8425    138.16857    832.48148 
  176500    292.15983   -3708.7598   -3208.0079   -3708.7598            0    9477.9874    16.975373    19.994747    20.709916    7029.3243    9665.7124    9331.6433    9436.6066    474.26552   -671.59679    -301.3624 
  177000    302.41001   -3698.0408   -3179.7204   -3698.0408            0    10655.351    16.965413    19.983016    20.697765    7016.9588    10012.669    8778.0545     13175.33    774.39525    583.04387   -465.83451 
  177500    301.25899   -3753.5357   -3237.1881   -3753.5357            0    8571.6514    16.944985    19.958954    20.672842    6991.6416     7549.095    8072.7694     10093.09    174.31112    1710.3252   -1046.8315 
  178000    299.38355   -3725.5031   -3212.3699   -3725.5031            0    9276.7848    16.947493    19.961908    20.675902    6994.7466    7521.7614    9951.8981    10356.695    982.61099    1331.9295    801.47385 
  178500    290.75387   -3777.9515   -3279.6093   -3777.9515            0    8586.1189    16.877387    19.879333    20.590373    6908.3006    8693.7342    7857.0401    9207.5824   -950.87274    281.59645    1804.5773 
  179000    295.39027   -3744.0775   -3237.7887   -3744.0775            0    8594.8702     17.00994    20.035462    20.752087    7072.3529    7982.1345    8310.5962    9491.8798   -343.90541    263.09414    648.45585 
  179500    284.40746   -3730.3549   -3242.8902   -3730.3549            0    8730.4135    17.071655    20.108155    20.827379    7149.6118     9979.186    6224.1781    9987.8764    1533.9329    3667.1139   -123.92615 
  180000    296.10371   -3762.9321   -3255.4205   -3762.9321            0    8982.2238    16.956671    19.972719    20.687099    7006.1171    8516.2499    8027.3513     10403.07    454.04515   -2216.5691   -165.24736 
  180500     297.6038   -3737.4637    -3227.381   -3737.4637            0    10245.772     16.96302    19.980197    20.694845    7013.9896    13177.823     8978.125    8581.3696   -220.10854    -844.4482    -1019.258 
  181000    308.99546   -3732.4301   -3202.8224   -3732.4301            0    9071.6454    16.914212    19.922708      20.6353    6953.6196    9868.2674    8393.3946    8953.2742    561.12536   -410.99261    -1198.867 
  181500    298.49989   -3725.1335   -3213.5149   -3725.1335            0    8001.3152    16.961962    19.978951    20.693554    7012.6776     9464.504    6252.6249    8286.8168    1420.0444   -1058.8539   -1467.9602 
  182000     317.8669   -3717.5127   -3172.6997   -3717.5127            0    10021.997    16.890632    19.894934    20.606532    6924.5782    8993.8582    10673.163    10398.971    658.22722    586.24617    805.67372 
  182500    300.09794   -3754.7859   -3240.4283   -3754.7859            0    7551.2128    17.025562    20.053864    20.771146    7091.8573    7083.7281    7414.4359    8155.4743   -190.93938   -997.50719    2420.3044 
  183000    295.53332   -3730.3019   -3223.7679   -3730.3019            0    11873.997    16.882375    19.885208    20.596459    6914.4279    11811.867    12001.633    11808.492   -807.57709    318.18273    214.72732 
  183500    306.25242    -3725.684   -3200.7779    -3725.684            0    7558.7801    16.983575    20.004408    20.719922    7039.5184    7596.0537    6158.7606     8921.526    2389.7597   -1268.9023    884.70913 
  184000    299.21242   -3730.6446   -3217.8047   -3730.6446            0    10033.697    16.999608    20.023293    20.739482    7059.4734    9696.0436    9561.2648    10843.783    936.52432   -646.37777    614.61014 
  184500    313.63172   -3740.4952   -3202.9412   -3740.4952            0    11327.842    17.000816    20.024715    20.740956    7060.9783    11575.174    13346.023    9062.3295    1118.6421   -545.36458   -677.36709 
  185000    300.76191   -3700.0549   -3184.5593   -3700.0549            0     9589.628    17.031416    20.060758    20.778288    7099.1746    10170.684    9276.6636    9321.5361    361.77206   -1207.7908   -1174.4101 
  185500    306.83424    -3722.006   -3196.1027    -3722.006            0    10505.089    16.943387    19.957072    20.670893    6989.6641    10255.062     10391.29    10868.915   -376.27263    1152.3103   -1270.6442 
  186000    308.02856   -3705.8071   -3177.8567   -3705.8071            0    9240.9883    16.982678    20.003351    20.718827    7038.4025    8383.8026    9644.3978    9694.7645   -67.478291   -880.97615    394.23108 
  186500    298.80068   -3761.1918   -3249.0577   -3761.1918            0    9487.3869    16.957147     19.97328     20.68768    7006.7072    10909.962    8718.4146    8833.7842   -1709.4014   -848.77296    -449.4042 
  187000    297.65407   -3740.5937   -3230.4248   -3740.5937            0     8235.644     17.04196    20.073178    20.791152    7112.3683    6848.3708    10493.701    7364.8603   -727.25906    457.40549    1867.6123 
  187500    314.08221   -3763.8778   -3225.5516   -3763.8778            0    9545.3481    16.974501     19.99372    20.708851    7028.2404    10372.215    8186.2786     10077.55    454.28832    55.557835    1806.8268 
  188000    320.63678    -3750.851   -3201.2906    -3750.851            0    11298.895    16.959041     19.97551     20.68999    7009.0543    10052.279     13441.83    10402.576    1809.5777    331.16019   -1035.2567 
  188500     291.9331   -3736.7082   -3236.3449   -3736.7082            0    10736.738     16.94999    19.964849    20.678948    6997.8383    10445.452    10268.162    11496.601   -418.16406    491.06959   -1561.2906 
  189000    290.40739   -3767.5101   -3269.7618   -3767.5101            0     10694.85    16.923195    19.933289    20.646259    6964.7045    10497.532    11600.194    9986.8249   -146.68337   -63.877564     535.8386 
  189500    295.46341   -3752.7705   -3246.3563   -3752.7705            0    10945.131    16.957968    19.974247    20.688682    7007.7249    11196.445    9986.7533    11652.194    718.98773      781.759     1879.861 
  190000    302.42999   -3689.6313   -3171.2766   -3689.6313            0    10798.515    16.938659    19.951502    20.665124    6983.8135    11360.214    9872.0132    11163.318    233.45791    -344.2142    1078.3954 
  190500    306.38414   -3708.7557   -3183.6238   -3708.7557            0     10959.27    16.966111    19.983838    20.698616    7017.8247    11806.836    8103.4645    12967.509   -1426.1181    147.82213    793.29628 
  191000    305.88083   -3716.6593     -3192.39   -3716.6593            0    11057.946    16.918577    19.927849    20.640625    6959.0045    11868.491    7838.2699    13467.077    357.20582    965.60089   -904.49159 
  191500     301.7017   -3749.2254    -3232.119   -3749.2254            0    8492.1258    16.982504    20.003147    20.718616    7038.1869    7105.7317    9331.6781    9038.9676    509.95131    127.24814   -854.86456 
  192000    303.61508   -3728.2797   -3207.8938   -3728.2797            0    10005.812     16.95352    19.969007    20.683254    7002.2113    9651.0564    10152.073    10214.306    624.58561   -1052.9967   -2206.6758 
  192500    317.43635   -3726.1051     -3182.03   -3726.1051            0    10708.828     16.91502     19.92366    20.636285     6954.616    10378.423    9842.1587    11905.902    26.472104    812.80164   -1491.7534 
  193000    300.81443   -3707.3937   -3191.8081   -3707.3937            0    10489.075    16.881629    19.884329    20.595548    6913.5109    11265.775    11618.493     8582.957    1269.8984    1566.7577    2947.3119 
  193500    294.76218   -3711.6736   -3206.4613   -3711.6736            0    8413.8049    16.975105    19.994431    20.709588    7028.9906    8434.3646    8826.3055    7980.7446    224.51714    139.55366    2153.2082 
  194000    309.66848   -3716.4394   -3185.6782   -3716.4394            0    9385.0055    16.928541    19.939585     20.65278    6971.3059     11354.61    8286.7296    8513.6764    414.04027    179.39767    1736.2367 
  194500    300.87833   -3727.0405   -3211.3454   -3727.0405            0    11575.062    16.837825    19.832734    20.542107    6859.8335    13847.799    10701.302    10176.085    49.085496    150.63164   -624.32861 
  195000    297.19467   -3752.3021   -3242.9206   -3752.3021            0    8216.9431    16.942168    19.955637    20.669406    6988.1558    7350.9353    7954.5441    9345.3499    2339.3921    246.76556   -996.21406 
  195500    313.65142   -3724.8422   -3187.2544   -3724.8422            0    10373.886    16.933397    19.945305    20.658705    6977.3076    9921.4704    10494.796    10705.391    1684.4698    1191.1821     788.0258 
  196000    290.50635   -3713.1739    -3215.256   -3713.1739            0    7442.2328     17.00423    20.028737    20.745121    7065.2338    8045.5668     8171.642    6109.4897   -1807.7391   -188.96447   -2818.0957 
  196500    283.22021   -3675.0427   -3189.6129   -3675.0427            0      10981.3    16.948032    19.962543    20.676559    6995.4139    12266.987    10430.088    10246.825    1347.4481    2149.2074   -632.53145 
  197000    306.04501   -3724.3212   -3199.7705   -3724.3212            0    10876.434    16.917426    19.926493     20.63922    6957.5832    10343.055    9097.7417    13188.504   -314.05887   -355.51079   -206.31571 
  197500    292.07773   -3687.0591   -3186.4479   -3687.0591            0    11056.993     16.91651    19.925414    20.638102    6956.4532    11082.397    10959.406    11129.175     1721.522   -500.14148     1016.582 
  198000    291.25764   -3691.2142   -3192.0085   -3691.2142            0    8397.7994    17.003101    20.027407    20.743744    7063.8261    9359.6709     7743.379    8090.3483    956.18371   -449.96312    1528.8024 
  198500    305.48216   -3717.7304   -3194.1445   -3717.7304            0    9766.2171     16.89455    19.899548    20.611311    6929.3972    8866.4016    8137.4241    12294.825    140.27798   -1138.1407    763.71322 
  199000    326.25586   -3745.9519   -3186.7605   -3745.9519            0    8727.0142    16.973115    19.992088    20.707161    7026.5196    6108.2196    11155.108    8917.7151    521.98545    544.61077    2003.4505 
  199500    298.22868   -3718.6423   -3207.4885   -3718.6423            0    8486.6521    16.969924    19.988329    20.703268    7022.5575     9224.203    8313.3871    7922.3663   -1954.9398   -1322.1314   -520.48882 
  200000    294.72557   -3720.6341   -3215.4845   -3720.6341            0     7589.709    16.920565     19.93019     20.64305    6961.4573    7391.7512    7610.5289     7766.847    787.33493   -2334.1323    1922.9045 
  200500    294.30775    -3728.418   -3223.9846    -3728.418            0    8815.5386    16.968561    19.986723    20.701605    7020.8649    8508.5115     6901.833    11036.271    808.09955   -1271.4154     715.3735 
  201000      294.706   -3711.6973   -3206.5813   -3711.6973            0    9996.8853    16.990403    20.012451    20.728253    7048.0125    10376.024    10674.456    8940.1755   -1788.8111    -145.8315     856.0885 
  201500    302.09834   -3717.0845   -3199.2983   -3717.0845            0    9697.0043     16.94886    19.963519     20.67757    6996.4394    9729.5431    10338.913    9022.5569   -445.69315   -788.62155   -439.60446 
  202000    298.32015   -3705.0607   -3193.7501   -3705.0607            0    9144.3103    16.996087    20.019146    20.735187    7055.0881    8311.1096    8262.8066    10859.015    466.92841    1260.9454    518.89262 
  202500    302.02648   -3704.3893   -3186.7263   -3704.3893            0    13632.513    16.871993    19.872979    20.583792    6901.6789    10904.837    16640.866    13351.835    20.657173   -689.62273   -943.21388 
  203000    293.73341   -3764.9164   -3261.4674   -3764.9164            0    9243.0366    16.968609     19.98678    20.701664    7020.9252    10496.769    6532.4448    10699.896    846.21475   -982.80563    665.63402 
  203500    293.62105   -3712.6896   -3209.4331   -3712.6896            0    11669.209    16.925329    19.935802    20.648861    6967.3387    12191.179    10012.319    12804.128   -326.91151    1431.4094    345.49352 
  204000    296.47755   -3758.3058   -3250.1535   -3758.3058            0     9291.889    16.996805    20.019992    20.736063    7055.9824    7672.0704    11176.899    9026.6973    96.488849   -556.71003   -1429.3919 
  204500    309.09884   -3729.0197   -3199.2349   -3729.0197            0    10359.743    16.959202      19.9757    20.690187    7009.2546    11067.662    10661.571    9349.9947    2584.2394     381.9755   -368.05636 
  205000    287.79411   -3722.2007   -3228.9314   -3722.2007            0    13570.882    16.887124    19.890802    20.602252    6920.2643    14755.433     12146.37    13810.842   -748.67315   -1868.9507   -82.130164 
  205500    322.99302   -3736.5909   -3182.9919   -3736.5909            0    8413.6974    16.996317    20.019416    20.735467     7055.374    10212.001    6274.4703    8754.6205   -14.558311    896.17652   -859.53553 
  206000    301.79574   -3765.1433   -3247.8758   -3765.1433            0    11514.001    16.943789    19.957545    20.671382    6990.1607    11537.215    12576.746    10428.044     -1271.04   -1484.6461    453.59538 
  206500    299.18135    -3729.261   -3216.4744    -3729.261            0    9872.2414    17.008197    20.033409    20.749961    7070.1791    9252.8627    10532.561    9831.3001     1903.185   -1058.4357   -1087.1948 
  207000    297.22834   -3713.0236   -3203.5844   -3713.0236            0    11070.299    16.984338    20.005307    20.720853    7040.4672    13236.257    9496.4586    10478.181   -115.38424   -139.02307   -640.87853 
  207500    315.35759   -3731.2597   -3190.7476   -3731.2597            0    13131.236     16.94988     19.96472    20.678815     6997.703    12922.644    12727.703    13743.361   -876.57899    -1700.777     1433.882 
  208000    305.07961   -3718.3684   -3195.4724   -3718.3684            0    9854.8909    17.029366    20.058344    20.775787    7096.6112    12486.596    6680.7582    10397.318    185.12346    273.14057   -815.67365 
  208500    309.60865   -3750.8332   -3220.1746   -3750.8332            0    9890.8789    16.927639    19.938523     20.65168    6970.1926    9799.3413    10032.056    9841.2396    6.2808422   -268.82151    2435.7864 
  209000     302.3654   -3734.1135   -3215.8696   -3734.1135            0    10202.653    16.938828    19.951702    20.665331    6984.0235    10559.386    10974.466    9074.1079   -562.56917    179.40796   -307.04742 
  209500    301.49332   -3711.2356   -3194.4863   -3711.2356            0    10614.293    16.959429    19.975967    20.690463    7009.5356    10886.839    8543.5504    12412.489    1533.5819    568.33709   -52.645231 
  210000    300.16316   -3665.7937   -3151.3243   -3665.7937            0    13128.702    16.919577    19.929027    20.641845    6960.2385    9250.0428    14711.692    15424.371   -2085.4727   -169.29332   -611.28762 
  210500    315.14483   -3705.7082   -3165.5608   -3705.7082            0    9574.7778    16.986877    20.008297     20.72395    7043.6246    11882.938     8961.275    7880.1199   -2094.7397      910.757    1397.8659 
  211000    292.34185   -3715.1012   -3214.0373   -3715.1012            0    10767.891    16.993945    20.016622    20.732573    7052.4203    8509.1975    13396.012    10398.463   -591.32126      1698.11   -1860.2369 
  211500    303.06553   -3718.6602   -3199.2163   -3718.6602            0    9530.5952    16.997702    20.021048    20.737157    7057.0991    10880.658    10707.056     7004.072    438.51309    39.948873   -932.45838 
  212000    300.33118   -3737.6202   -3222.8628   -3737.6202            0    8414.8129    16.959279    19.975791    20.690281    7009.3504    8724.8704    8560.3431    7959.2252    924.12159     678.8408   -1170.5571 
  212500    320.05481   -3698.3823   -3149.8193   -3698.3823            0    13480.302    16.880585    19.883099    20.594274    6912.2283    12085.986     15258.02    13096.901   -966.20602    1576.7663    2696.3146 
  213000    316.19816   -3719.2557   -3177.3029   -3719.2557            0    9776.3735    16.936226    19.948637    20.662156    6980.8054    8981.9779    9647.6178    10699.525    -1043.138   -975.93214    207.72411 
  213500     294.8905   -3731.0862    -3225.654   -3731.0862            0    9327.1577     16.98709    20.008548     20.72421    7043.8896    10499.768    9003.2182     8478.487   -511.70091     -126.643    515.82012 
  214000    297.76245   -3747.8075   -3237.4528   -3747.8075            0    10304.714    17.024598    20.052728     20.76997    7090.6523    10932.586    10122.009     9859.548     44.55008    932.95628    1335.9681 
  214500    295.40219   -3725.6946   -3219.3854   -3725.6946            0    12364.128    16.868457    19.868814    20.579478    6897.3399    11764.906    13567.612    11759.867   -1705.0146   -611.54732   -271.50761 
  215000    287.15265   -3794.8063   -3302.6365   -3794.8063            0    9294.8523    16.933008    19.944846     20.65823    6976.8261     7048.615    9823.5004    11012.441     246.4386   -957.00873    -947.9618 
  215500    308.03878   -3744.4121   -3216.4442   -3744.4121            0    11691.485    16.935367    19.947625    20.661108    6979.7429     10219.27    13421.145    11434.039    1862.2802    -423.0491   -629.29015 
  216000    291.26627   -3764.6215   -3265.4011   -3764.6215            0    10701.176    16.917124    19.926138    20.638852    6957.2114    11952.691    10593.558      9557.28    1775.4466    219.76814   -783.24953 
  216500     312.2483   -3771.0195   -3235.8366   -3771.0195            0    10592.034    16.966392    19.984169    20.698959    7018.1732    9834.3232    9044.0958    12897.683   -432.26641    1187.9519   -1041.2075 
  217000    279.77448   -3751.1914   -3271.6676   -3751.1914            0    8972.5394    17.016464    20.043147    20.760046     7080.494    8940.7967    8302.8209    9674.0007   -117.13135    502.51374   -838.64009 
  217500    314.53629   -3742.7858   -3203.6814   -3742.7858            0    8952.8675    17.033664    20.063406     20.78103    7101.9861    10486.338    9534.3667    6837.8982    431.07222   -1037.2504   -373.25762 
  218000    306.75152     -3746.46   -3220.6984     -3746.46            0    9905.1179    17.051967    20.084965     20.80336    7124.9044    10183.041    10277.693    9254.6195    1822.5128    150.26286   -1178.1894 
  218500     300.7981   -3728.4659   -3212.9083   -3728.4659            0    10152.511    16.983098    20.003846     20.71934     7038.925    8001.5483     9538.671    12917.313    -358.8238    1341.5762    1184.9519 
  219000    306.33523   -3751.7067   -3226.6586   -3751.7067            0    8776.1307    17.056881    20.090753    20.809355    7131.0659    8632.2268     8666.355    9029.8104    1124.0127   -808.66363    1117.3739 
  219500    300.66309   -3691.1957   -3175.8695   -3691.1957            0    12632.329    16.899247    19.905081    20.617042    6935.1792    13519.432    12586.212    11791.344    11.699312   -1063.4446    143.55606 
  220000    292.60697   -3764.1901   -3262.6718   -3764.1901            0     9937.081    16.998824    20.022369    20.738526    7058.4969    9111.6832    11809.992    8889.5676    747.29961   -740.27343   -619.02014 
  220500     291.8682   -3754.3307   -3254.0786   -3754.3307            0    9892.2738    16.989226    20.011064    20.726816    7046.5473    10956.027    9174.9818    9545.8124    209.78164   -245.20265   -460.56341 
  221000    317.34784   -3755.6939   -3211.7706   -3755.6939            0    10226.368    16.982864    20.003571    20.719055    7038.6346    11981.408    9572.1937    9125.5032    307.08375    799.21521   -1171.6097 
  221500    279.93834   -3753.2609   -3273.4562   -3753.2609            0    10308.982    16.995602    20.018574    20.734595     7054.484    10974.866    10354.088    9597.9931    400.12756   -129.32748    -20.07588 
  222000    282.34233   -3721.5044   -3237.5793   -3721.5044            0    11984.902    16.948258    19.962809    20.676835    6995.6934    13035.754    12890.539    10028.411    511.51472   -713.36411    932.23638 
  222500    279.02444    -3677.538   -3199.2997    -3677.538            0    9351.8927    17.053491    20.086759    20.805219    7126.8145     8688.652    9530.7647    9836.2614   -993.34795   -2180.3034   -272.76689 
  223000    286.23784   -3717.9814   -3227.3796   -3717.9814            0    11146.969    16.937114    19.949683     20.66324    6981.9034    10659.331    13247.702    9533.8754    -1051.246    1173.1803   -709.36607 
  223500    294.72951     -3693.34   -3188.1837     -3693.34            0     9974.701    17.044952    20.076702    20.794802    7116.1147    9933.4152    10752.926    9237.7621    117.93405    1350.6773   -1946.6067 
  224000    293.10619   -3697.2959    -3194.922   -3697.2959            0     10197.26     16.93968    19.952706     20.66637    6985.0772     10121.43    11427.471    9042.8799     1211.881    528.62332    -1198.886 
  224500    302.80593   -3721.6413   -3202.6423   -3721.6413            0    11035.849    16.913047    19.921336    20.633878    6952.1827     12045.22    9120.6688    11941.657    1599.0947   -684.10234   -632.75753 
  225000    294.42936   -3726.0276   -3221.3858   -3726.0276            0     10709.21    16.956864    19.972946    20.687335    7006.3561    11682.281    10257.166    10188.184    371.67977    563.22147    389.15331 
  225500    315.59996   -3667.8258   -3126.8983   -3667.8258            0    10150.242    16.953673    19.969187    20.683441    7002.4009    10816.513    9158.6764    10475.536    303.58618    766.01062    506.76022 
  226000    305.75863   -3731.0921   -3207.0322   -3731.0921            0    8926.6481    16.985815    20.007047    20.722655    7042.3041    7270.4114    8393.5112    11116.022   -27.327174    526.92523   -187.17327 
  226500    313.82382    -3735.685   -3197.8017    -3735.685            0    9834.2217    16.932457    19.944198    20.657558     6976.146    9398.3817    10354.436     9749.847   -136.70938   -64.524003   -633.90172 
  227000    330.36665   -3721.9997   -3155.7626   -3721.9997            0    9980.1134    17.009932    20.035453    20.752078    7072.3436    7764.6912    10968.361    11207.288   -488.17852   -906.14112    1286.0635 
  227500    301.45947   -3727.2665   -3210.5753   -3727.2665            0    10079.366    16.947976    19.962477    20.676491    6995.3443    9701.8615     10099.89    10436.346    1484.9932   -43.159931   -1061.5861 
  228000    302.88837   -3700.2228   -3181.0825   -3700.2228            0    9057.3125    17.023009    20.050856    20.768031    7088.6671    9024.2353    7899.6415    10248.061   -954.51092   -2234.0848    321.46111 
  228500    299.31704   -3702.1013   -3189.0822   -3702.1013            0    9317.8309    16.993679    20.016309    20.732249    7052.0894    10419.384    10103.964    7430.1451   -1649.6365     619.9919    355.65413 
  229000    296.18813    -3719.842   -3212.1857    -3719.842            0    11940.122    16.963431    19.980681    20.695346    7014.4989    13984.965    9340.2016    12495.198   -234.46339   -1122.8188   -346.34503 
  229500    308.07821   -3731.2987   -3203.2632   -3731.2987            0    10073.399    16.948648    19.963268    20.677311    6996.1764    11553.418    10010.409     8656.371   -250.71225    2080.8031   -713.06894 
  230000    303.77655   -3669.4751   -3148.8125   -3669.4751            0     10575.23    16.981589    20.002069    20.717499    7037.0489    11008.183     10057.99    10659.517   -503.86938   -291.42545   -829.02725 
  230500    299.99235    -3709.393   -3195.2164    -3709.393            0    11723.534    16.950672    19.965652     20.67978    6998.6832    13267.548     12714.23    9188.8233    314.70993     2012.683    2053.4277 
  231000    303.66804   -3690.2585   -3169.7819   -3690.2585            0    11875.995    16.937262    19.949858     20.66342    6982.0864    12110.723    11730.714    11786.547    1645.7453   -498.52298    293.16549 
  231500    307.16585   -3715.1743   -3188.7025   -3715.1743            0    10016.675    16.989889    20.011845    20.727625     7047.372     11437.47    8481.5266    10131.028   -765.83216   -485.72052    966.73247 
  232000    304.56209   -3730.8673   -3208.8583   -3730.8673            0    7058.5976    17.032611    20.062165    20.779745    7100.6686    6076.2569    7822.3904    7277.1455   -18.351549    216.47519    699.41405 
  232500    294.55342    -3688.241   -3183.3865    -3688.241            0    12418.941     16.91384     19.92227    20.634846    6953.1607    11868.754    12252.034    13136.035    800.58185    589.42401   -86.913232 
  233000    283.44254   -3694.0474   -3208.2366   -3694.0474            0    9464.3491    16.980975    20.001345     20.71675    7036.2855    9732.6479    9553.2893    9107.1102   -41.918874   -290.73338    1049.7832 
  233500    297.91767    -3693.289   -3182.6683    -3693.289            0    14766.869    16.876828    19.878674    20.589691    6907.6141    13192.018    15616.519    15492.068   -485.77662   -198.99433   -199.70354 
  234000     305.2713   -3692.9397   -3169.7151   -3692.9397            0    9353.8556     17.00038    20.024202    20.740424    7060.4354     7658.368    9422.8557    10980.343    2140.8925    356.79893    1086.5013 
  234500     306.2065   -3737.8109   -3212.9835   -3737.8109            0    9890.1741    16.982129    20.002705    20.718157    7037.7199    9049.1389    9253.5608    11367.822    2.7553141    352.89509    1737.7368 
  235000     298.2882   -3745.9877    -3234.732   -3745.9877            0    10653.626    16.859197    19.857908    20.568181    6885.9883    8634.6444    12570.254    10755.979   -168.45651    252.98165    946.20123 
  235500    290.53072   -3749.7143   -3251.7545   -3749.7143            0    11261.185    16.857421    19.855815    20.566014    6883.8119     9711.843    9930.7145    14140.998   -675.09366   -104.32764   -318.23727 
  236000    294.87559   -3687.6007   -3182.1941   -3687.6007            0    8086.7114    16.969151    19.987419    20.702325    7021.5977     8895.527    9521.0463    5843.5607   -1293.2451   -277.01453   -1274.1314 
  236500    280.93637   -3697.5969   -3216.0816   -3697.5969            0    10597.211    16.891898    19.896425    20.608076    6926.1352    12270.337    9848.7376    9672.5569   -1614.2154    743.34943     -133.606 
  237000    287.30243   -3696.1269   -3203.7004   -3696.1269            0    10219.884    16.945279      19.9593    20.673201    6992.0052    8900.1337    10786.076    10973.444    36.771068   -1526.9871    844.64648 
  237500    296.94266   -3773.8341   -3264.8846   -3773.8341            0    8488.8397    17.032182     20.06166    20.779222    7100.1321    7507.0244    9546.2193    8413.2755    1305.9894   -167.52627    1690.6656 
  238000    319.31091   -3759.8423   -3212.5544   -3759.8423            0     11188.42    16.944266    19.958107    20.671965    6990.7518    9621.7009    11741.258      12202.3   -1145.1493    163.25409   -65.982664 
  238500    304.01622   -3775.1765   -3254.1031   -3775.1765            0    11715.575    16.896402     19.90173    20.613571    6931.6765      11227.1    10964.743    12954.882    181.45135   -817.26071    807.24761 
  239000    294.69091   -3728.5009   -3223.4108   -3728.5009            0    8559.3463    16.948897    19.963562    20.677615    6996.4851    8257.3889    9768.3242    7652.3259   -973.04901   -877.65722    1481.2234 
  239500    315.48403    -3706.109   -3165.3801    -3706.109            0    11615.069    16.942666    19.956223    20.670013    6988.7715    12141.421    9698.7524    13005.033   -454.10951   -155.25495    779.82549 
  240000    298.23599   -3714.2433   -3203.0771   -3714.2433            0    10272.464    16.951717    19.966884    20.681055    6999.9782    9455.6759     10079.87    11281.845    506.23483    2363.2742    80.791705 
  240500    313.69177   -3726.5926   -3188.9356   -3726.5926            0    10835.964    16.951294    19.966385    20.680539    6999.4539     11379.76    9210.8078    11917.323   -1192.0855   -858.89407   -481.06467 
  241000    281.43824     -3705.48   -3223.1044     -3705.48            0    11175.898    16.946848    19.961148    20.675115    6993.9474    11025.634    11026.457    11475.603    828.04872    1880.1285   -836.18238 
  241500    298.08846   -3676.8895   -3165.9761   -3676.8895            0    10378.592    16.989472    20.011354    20.727116    7046.8534    10281.602    10585.613     10268.56    259.03779   -515.32529    967.23976 
  242000    307.22933   -3716.9948   -3190.4142   -3716.9948            0     11069.35    16.929935    19.941228    20.654482    6973.0292    11973.362    10317.324    10917.364   -394.91366   -952.35768   -187.18976 
  242500    319.47231   -3733.6626    -3186.098   -3733.6626            0    8799.3057    17.043555    20.075056    20.793097    7114.3649    9614.6029    9837.8063     6945.508   -872.90695    -349.3334    433.93346 
  243000    305.13408   -3703.2321   -3180.2427   -3703.2321            0    11344.555     16.90226    19.908629    20.620717    6938.8883    12104.831    10089.895    11838.938   -991.62711    1115.5006     418.2825 
  243500    299.04716   -3724.3992   -3211.8426   -3724.3992            0     9180.586    17.035963    20.066114    20.783835    7104.8622     10901.94    8418.4322    8221.3861   -1200.3566   -373.11447    1643.3976 
  244000    301.76529   -3701.0213   -3183.8059   -3701.0213            0    11614.849    16.922147    19.932054    20.644979    6963.4098     10933.98    12656.096    11254.472    95.339598    1696.3266    540.84594 
  244500    310.29267   -3716.7847   -3184.9537   -3716.7847            0    11353.308    16.974123    19.993275    20.708391    7027.7718    9963.0792    10936.297    13160.546     605.3348    777.64437    142.49804 
  245000    316.60101    -3734.656   -3192.0127    -3734.656            0    9376.9218    17.023253    20.051143    20.768329    7088.9715    8605.9989    11392.334     8132.432    582.08981    1455.2236    1970.3034 
  245500    296.82983   -3726.7924   -3218.0363   -3726.7924            0    10282.373    16.954932     19.97067    20.684977    7003.9613    8811.7107    11646.227    10389.183    1267.9035   -149.68042    802.04916 
  246000    294.96811   -3711.2064   -3205.6412   -3711.2064            0    11034.391    17.001923    20.026019    20.742306    7062.3579    9046.2842    12040.636    12016.251    919.91792   -318.32611   -358.60279 
  246500    302.58363   -3734.5409   -3215.9229   -3734.5409            0    10728.273    16.993124    20.015656    20.731572    7051.3992    11599.143    10003.513    10582.162   -202.15287   -882.21052   -361.21194 
  247000    293.42065   -3711.9861   -3209.0731   -3711.9861            0    10048.432    16.905137    19.912019    20.624228    6942.4327     9942.811    10558.538    9643.9456    51.822449    158.04089    991.95319 
  247500    308.98616   -3730.1159   -3200.5242   -3730.1159            0    9892.4955    16.918957    19.928297    20.641088     6959.473    10823.246    11150.851    7703.3897    -222.9652    987.33274    197.64745 
  248000    314.81023   -3725.7712   -3186.1972   -3725.7712            0      8268.56      17.0087    20.034002    20.750574    7070.8061    9041.2028    8049.8286    7714.6486   -119.57133    -149.8223   -681.93662 
  248500    293.40664   -3745.5007   -3242.6118   -3745.5007            0    10956.485    16.983434    20.004241    20.719749    7039.3423    11278.491    10693.327    10897.637    -721.8719   -730.05288    1931.0519 
  249000    279.96337   -3701.8763   -3222.0286   -3701.8763            0    13200.394    16.869639    19.870206     20.58092    6898.7903    12324.088    12988.966    14288.128    473.15269    1181.7115     1208.349 
  249500    302.21319   -3744.0487   -3226.0656   -3744.0487            0    9097.1563    16.969772     19.98815    20.703082    7022.3682    7643.5724    10811.704    8836.1927   -1246.6422     843.8719    889.06245 
  250000    314.51781   -3719.6885   -3180.6158   -3719.6885            0    9712.3984    16.924666    19.935021    20.648053    6966.5201    8931.7622    11682.175    8523.2581    277.93768    1126.1717    1289.4277 
  250500    313.33769   -3732.0815   -3195.0314   -3732.0815            0    11198.317    16.893646    19.898484    20.610209    6928.2854    12609.193    8241.1121    12744.646   -1309.3983   -1120.2313    789.40787 
  251000    319.20679   -3709.9145    -3162.805   -3709.9145            0    11514.627    16.972059    19.990844    20.705872     7025.208    11278.383    13128.609    10136.889    1242.9507    521.34463    2124.1946 
  251500    306.19157    -3711.838   -3187.0361    -3711.838            0    11251.169    16.943629    19.957357    20.671188    6989.9637    12049.091    9464.9885    12239.427    -1190.429    320.84093   -1274.6091 
  252000     296.4395   -3752.5685   -3244.4813   -3752.5685            0    9631.5792    16.977321    19.997041    20.712291    7031.7438    8612.3452    9433.0762    10849.316     507.3295    843.55188    2017.8993 
  252500    309.76659   -3727.6743    -3196.745   -3727.6743            0    8723.6408    16.985188    20.006308    20.721889    7041.5236    9241.0701    8815.0308    8114.8215    457.26308   -986.48709    389.59296 
  253000    306.41035   -3702.7889    -3177.612   -3702.7889            0    8911.9585     16.95818    19.974496     20.68894    7007.9871    8347.9891    8549.7753    9838.1112    1578.9596   -578.36622   -102.29835 
  253500    306.17232    -3705.335   -3180.5661    -3705.335            0    9491.7546    16.995419    20.018358    20.734371    7054.2555    9098.7322    10159.143    9217.3883   -492.97278   -640.56303   -8.4205191 
  254000    304.69301   -3703.2148   -3180.9815   -3703.2148            0    8936.6221    17.041798    20.072987    20.790954    7112.1654    8400.9402    7500.8482    10908.078     704.9167   -1285.3144   -703.06394 
  254500    307.57249   -3696.4869   -3169.3182   -3696.4869            0    10644.408    16.914681     19.92326    20.635871    6954.1976    11353.246    10755.828    9824.1493   -1022.1656     248.9875   -709.51764 
  255000    302.52128   -3751.8174   -3233.3063   -3751.8174            0    12362.841    16.923978    19.934211    20.647214     6965.671    12004.664    12553.587    12530.271    1419.5606    624.57197    696.30728 
  255500    292.83291   -3737.7069   -3235.8013   -3737.7069            0    9543.7854    16.975661    19.995087    20.710267    7029.6824    8060.6913    10858.135    9712.5297   -2014.0179    397.10558    1371.4172 
  256000    315.77368   -3725.2566   -3184.0313   -3725.2566            0     10903.07    16.905184    19.912074    20.624285    6942.4909     10942.85    10428.004    11338.356    216.44665    606.00686    1570.9046 
  256500    302.73273   -3718.7571   -3199.8835   -3718.7571            0    11098.308    16.974941    19.994238    20.709388    7028.7871    11602.833     10908.02    10784.072    -287.6382   -817.05892   -565.61074 
  257000    303.26083   -3748.6748   -3228.8961   -3748.6748            0    9221.8366    16.942908    19.956508    20.670308    6989.0708     11084.14    9114.7277    7466.6421   -584.91749    1726.2817   -898.55834 
  257500    296.80589   -3754.9928   -3246.2777   -3754.9928            0    9204.5601    16.939175    19.952111    20.665754    6984.4527    9808.6071    7958.6759    9846.3975    2770.3788   -1144.9926    77.398913 
  258000     307.8089   -3742.0045   -3214.4306   -3742.0045            0    11596.733    16.977929    19.997758    20.713034    7032.5003    11381.694    10537.672    12870.832    291.14848   -580.66312   -2023.7869 
  258500    297.27183   -3674.1654   -3164.6517   -3674.1654            0    9330.4347    17.023139     20.05101     20.76819    7088.8298    8676.1402    12440.916    6874.2479    -1522.358   -376.60878     -858.196 
  259000    291.89665    -3736.559   -3236.2581    -3736.559            0    10379.959    16.951909    19.967109    20.681289    7000.2152     9883.221    9369.9012    11886.755    271.15755   -373.21267    1450.4041 
  259500    302.15243   -3711.8451   -3193.9662   -3711.8451            0    10953.426    16.995889    20.018912    20.734945    7054.8414    10801.762    10477.919    11580.596   -377.57145    854.33266    1158.7036 
  260000    279.77143   -3696.4799   -3216.9613   -3696.4799            0    11698.279    16.936219    19.948628    20.662147     6980.796    12523.995    11401.688    11169.154    255.19317   -1637.8578   -1240.8789 
  260500    289.25232   -3677.5907   -3181.8221   -3677.5907            0    10479.846    16.998231    20.021671    20.737802    7057.7579    11474.447    11322.788    8642.3021   -1222.9374    1414.7663    1040.5038 
  261000    286.70931   -3728.4392   -3237.0292   -3728.4392            0    11669.859    16.917874    19.927021    20.639767    6958.1367    11934.629    10296.107    12778.842   -1691.6845   -285.08252    860.52858 
  261500    291.63875   -3771.1159    -3271.257   -3771.1159            0    7693.2867    17.044688    20.076391    20.794479    7115.7839    5355.6625    10998.751    6725.4468    251.53052    -923.5456   -1378.7845 
  262000    282.86789   -3722.6801   -3237.8542   -3722.6801            0     10876.16    16.942074    19.955525     20.66929    6988.0384    12372.827    10849.872    9405.7808    754.43408    76.462726    382.27028 
  262500    301.65176   -3753.2274   -3236.2066   -3753.2274            0    12150.614    16.943605    19.957328    20.671158    6989.9329    13947.672    11596.213    10907.957   -1295.8782   -778.07616    1131.1517 
  263000    298.73371   -3727.2375   -3215.2181   -3727.2375            0    9128.6829    17.032996    20.062619    20.780215    7101.1504    7636.7738     9764.203     9985.072   -996.99279   -273.29461   -990.22901 
  263500    312.61735   -3697.3667   -3161.5513   -3697.3667            0    10816.669    16.955317    19.971124    20.685448    7004.4389    13674.466    8507.3317     10268.21    1750.8587    292.51528    173.54715 
  264000    309.47431   -3718.5787   -3188.1503   -3718.5787            0    10549.637    16.928179    19.939159    20.652339     6970.859     11058.67    10017.812     10572.43   -211.83503     -2805.88   -1413.6492 
  264500    302.82399   -3745.2652   -3226.2353   -3745.2652            0    8820.4269    16.938062      19.9508    20.664396    6983.0758     8292.875    9073.6284    9094.7774    1696.9892   -5.4628795    273.64095 
  265000    300.46598   -3727.3704    -3212.382   -3727.3704            0    10569.331    16.957483    19.973675    20.688089    7007.1231    11129.191    10766.871    9811.9324   -1848.6409    -1040.264   -894.90298 
  265500    292.64735   -3733.2525   -3231.6649   -3733.2525            0     9125.335    16.954771     19.97048    20.684781    7003.7616    8601.4215    8816.1692    9958.4141   -477.88097   -410.78967   -785.06377 
  266000    305.83057   -3750.3213   -3226.1382   -3750.3213            0    10332.891    16.929939    19.941232    20.654486    6973.0337    10280.473    8810.2661    11907.933    1104.7505    251.91977   -76.329922 
  266500    295.20612    -3676.542   -3170.5688    -3676.542            0     7937.238     17.00455    20.029114    20.745512    7065.6324     8308.119    7925.1186    7578.4764    1359.5565   -564.79173    161.45324 
  267000    294.27741   -3724.5638   -3220.1824   -3724.5638            0    12261.255    16.925144    19.935583    20.648636    6967.1101    13203.575    13194.323    10385.865   -181.94055    1589.8927    378.13334 
  267500    313.78418   -3723.2417   -3185.4263   -3723.2417            0    9359.4114    17.009429    20.034861    20.751464     7071.716    11243.432    8816.0077    8018.7949   -51.182758    689.69956   -552.54529 
  268000    314.82849   -3737.7119   -3198.1066   -3737.7119            0    8650.5127    16.929985    19.941286    20.654542    6973.0905    7967.5939    9252.0185    8731.9256    268.93112    39.414046    782.29225 
  268500    289.57537   -3734.1897   -3237.8674   -3734.1897            0     10635.08    16.920874    19.930554    20.643427    6961.8388    8661.8678    11209.934    12033.439   -947.52541    395.52951    511.97436 
  269000    293.65741   -3693.2988   -3189.9801   -3693.2988            0    10547.718    16.892355    19.896962    20.608633    6926.6965    12264.085    9496.6493    9882.4188    -2340.846    2945.4844    2059.1336 
  269500    312.75672   -3693.6711   -3157.6168   -3693.6711            0    8541.8178     16.97499    19.994297    20.709449    7028.8489    6853.0461    8993.0819    9779.3254   -434.16645   -58.043831   -1003.8217 
  270000    302.49635   -3679.8271   -3161.3587   -3679.8271            0    10067.278    16.968526    19.986682    20.701562    7020.8213    9063.1838    10223.917    10914.732    1963.0291    2268.8786   -187.62199 
  270500    295.54625   -3687.6949   -3181.1387   -3687.6949            0    11360.401    16.956706     19.97276    20.687142    7006.1607    11427.999    12386.225     10266.98    417.42225   -1195.2277   -1233.1498 
  271000    310.79118   -3736.2893   -3203.6038   -3736.2893            0    8842.7352    16.950999    19.966038    20.680179    6999.0884    5364.3504    10420.175     10743.68    1435.9339    658.15498   -515.46623 
  271500    311.91672   -3737.5567   -3202.9422   -3737.5567            0     10541.84    16.951375     19.96648    20.680638    6999.5539     9944.291    11265.147    10416.081    737.78297     643.1469   -135.58743 
  272000    312.55397   -3715.6287   -3179.9219   -3715.6287            0    10791.263    17.003653    20.028057    20.744417    7064.5142    9529.3295    11907.129    10937.331   -569.74023    2140.8597   -325.69496 
  272500    319.00984   -3715.6322   -3168.8602   -3715.6322            0    8223.2234    17.005201     20.02988    20.746305    7066.4434    8648.2713    7902.8434    8118.5554    880.60925    492.45255    1268.0827 
  273000    302.06108   -3729.5122   -3211.7899   -3729.5122            0    11056.447    16.954307    19.969934    20.684214    7003.1863    13182.487    8615.1413    11371.711   -1873.8701    569.12894    1120.7603 
  273500    290.70926   -3694.8314   -3196.5657   -3694.8314            0    13349.015    16.932095    19.943771    20.657116    6975.6977    13172.255    13376.449    13498.341   -1536.2491    -653.6573    1714.5331 
  274000     323.2111   -3712.2403   -3158.2676   -3712.2403            0    11384.527    16.979086     19.99912    20.714445    7033.9371    11031.588    12132.592    10989.402   -234.35421   -675.75533   -66.209259 
  274500    307.66948   -3679.7286   -3152.3936   -3679.7286            0    12841.089    16.934998    19.947191    20.660658    6979.2869    11565.056    14952.669    12005.542    689.40534    385.27272    66.342649 
  275000    301.06683   -3736.9904   -3220.9722   -3736.9904            0    8617.1424    16.975841    19.995299    20.710487    7029.9059    7823.2097    9394.3674    8633.8503    820.80802   -225.32121   -879.25819 
  275500     292.3842    -3747.315   -3246.1785    -3747.315            0    9210.0374    16.951716    19.966882    20.681054    6999.9766    8592.5586    9596.0562    9441.4974    1977.0217    1977.8048    1718.8543 
  276000    304.65772   -3677.9732   -3155.8003   -3677.9732            0    9489.3012    16.974416     19.99362    20.708748    7028.1357    8848.4009    10654.416    8965.0871   -151.50799    54.755844   -415.02739 
  276500    299.95376   -3725.3134   -3211.2029   -3725.3134            0    10491.076    17.010953    20.036655    20.753323    7073.6165     9969.623    11546.361    9957.2446    503.19383     124.2144   -864.29921 
  277000    313.09011   -3714.0101   -3177.3843   -3714.0101            0    9860.9344    16.993848    20.016509    20.732455    7052.3006    6819.9489    11693.049    11069.806   -458.55424   -980.40188    1111.9133 
  277500    305.23665   -3700.7329   -3177.5678   -3700.7329            0    10511.228    17.033366    20.063055    20.780667    7101.6135    11336.177    10256.692    9940.8151    67.179039   -615.99061    1200.2882 
  278000    307.72186   -3709.6686   -3182.2438   -3709.6686            0      10743.5    16.989763    20.011697    20.727472    7047.2158    10067.661     10807.04      11355.8    474.70447    1078.7812    1061.0765 
  278500    289.00231   -3694.8074   -3199.4673   -3694.8074            0    7832.0554    17.092727    20.132974    20.853087    7176.1192    7878.4385    7746.3701    7871.3575    -347.7438   -533.46785    816.26198 
  279000    283.62644   -3708.7378   -3222.6118   -3708.7378            0    9591.0841    16.967729    19.985744     20.70059    7019.8325    8938.2976    9464.0189    10370.936    83.450343   -345.82584   -1316.1426 
  279500    313.40937   -3747.6935   -3210.5206   -3747.6935            0    7695.4622    16.983518     20.00434    20.719852    7039.4467    6915.6692    7742.3355    8428.3818   -609.01534    232.42171   -568.37159 
  280000    310.83403   -3736.9965   -3204.2376   -3736.9965            0    10901.486    16.950855    19.965868    20.680004    6998.9104    11473.036    9432.8842    11798.537   -112.63991     1932.072    673.69622 
  280500    295.87618   -3707.8458   -3200.7242   -3707.8458            0    11167.138    16.944585    19.958483    20.672354    6991.1464    11395.348    10479.391    11626.676   -1597.4182   -635.10678   -797.43138 
  281000    305.63646   -3706.7783   -3182.9279   -3706.7783            0    10129.769    16.898209    19.903858    20.615776    6933.9011    9554.6233    9693.3699    11141.315   -500.68371   -1610.2496    229.18232 
  281500    310.05056    -3717.651   -3186.2349    -3717.651            0    9775.9738    16.960239    19.976921    20.691452    7010.5402     10240.11    9845.7844    9242.0265   -784.39195   -1228.8007    373.33472 
  282000    291.00092   -3709.8423   -3211.0767   -3709.8423            0    11229.984    16.970327    19.988804    20.703759    7023.0574    10601.358    11860.377    11228.216    -786.5103   -268.59156    1422.1649 
  282500     293.4752   -3694.0422   -3191.0358   -3694.0422            0    10893.766    16.926333    19.936985    20.650087    6968.5792    9023.2798    11781.751    11876.266    1055.9143    774.94354    -811.2263 
  283000     276.1075   -3711.8049   -3238.5661   -3711.8049            0    11774.057    16.884329    19.887509    20.598842    6916.8284    13619.264    11611.395    10091.511    279.45103    189.56201   -439.63619 
  283500    296.28144   -3752.7754   -3244.9592   -3752.7754            0    10366.941    16.967013      19.9849    20.699716    7018.9438    8135.7386    12151.565    10813.519   -69.125811    448.98121   -2180.6816 
  284000    310.36098   -3738.8021    -3206.854   -3738.8021            0      10034.1    16.925386    19.935869    20.648931    6967.4089    10096.565    11041.215    8964.5206    189.94905    390.86379   -1714.4658 
  284500    309.24416   -3671.8999    -3141.866   -3671.8999            0    10555.413    16.956731     19.97279    20.687173    7006.1916    9825.4605    10990.239    10850.538    662.15895     2118.344    1688.5234 
  285000    286.93711   -3677.1296   -3185.3292   -3677.1296            0    10283.228    16.926365    19.937023    20.650126     6968.619    9833.2302    10037.898    10978.556    2827.5728    2027.4338    989.63024 
  285500    307.92366   -3704.0675   -3176.2969   -3704.0675            0    10103.469    16.930984    19.942463    20.655761    6974.3249    10526.082    10355.791    9428.5343    666.78598    280.78246    -1077.567 
  286000    292.78292   -3762.1965   -3260.3766   -3762.1965            0    7748.0794    16.936426    19.948872      20.6624    6981.0518    9665.0869    6347.5626    7231.5886    1201.4715   -733.51361    1156.4012 
  286500    324.10199   -3740.3541   -3184.8543   -3740.3541            0    9951.9535    16.942095     19.95555    20.669317    6988.0652    9533.3273    10929.569    9392.9646   -1434.5027   -491.61353    688.52684 
  287000    298.84471   -3718.5179   -3206.3082   -3718.5179            0    9461.4996    16.893787    19.898649     20.61038    6928.4585    10492.607     8702.046    9189.8462    967.79258   -928.91715    884.23625 
  287500    316.93725    -3717.397   -3174.1774    -3717.397            0    9838.5893    16.974103    19.993251    20.708366    7027.7466    10907.921    9448.1757    9159.6711    1989.1299    43.967818     123.2462 
  288000    293.45749   -3785.1988   -3282.2227   -3785.1988            0    12233.914    16.890904    19.895254    20.606863    6924.9122    12177.832    9634.3533    14889.556     715.7358    305.45424    2426.0853 
  288500    280.78185   -3750.9151   -3269.6647   -3750.9151            0    7677.9108    17.052973    20.086149    20.804587    7126.1652     6656.133    7279.4993    9098.1002    654.94847    765.62943   -174.85539 
  289000    301.97541    -3692.574   -3174.9985    -3692.574            0     10716.98     16.99209    20.014438     20.73031    7050.1119    11894.447    10371.234    9885.2591    666.08373    768.82125    1420.5663 
  289500     303.5108   -3733.1579   -3212.9508   -3733.1579            0    11287.835    16.939271    19.952224    20.665872    6984.5715     12587.13    10354.372    10922.004    383.30669    1051.3297    1646.3209 
  290000    304.57894   -3716.7273   -3194.6894   -3716.7273            0    9096.4854     16.99192    20.014237    20.730103    7049.9001    9655.4989    8711.9195    8922.0378   -1447.7778     1551.158   -861.32576 
  290500    277.50739   -3722.4772   -3246.8391   -3722.4772            0     9515.872    16.995152    20.018045    20.734046    7053.9242    7145.0975    10448.273    10954.245    139.46613   -143.50154    1285.3943 
  291000    309.76104   -3698.5823   -3167.6625   -3698.5823            0    10964.721    16.976155    19.995669     20.71087    7030.2959    11388.604    10885.661    10619.897    452.78962   -357.19975   -943.80263 
  291500    294.68495   -3697.1595   -3192.0796   -3697.1595            0    11340.506    16.979754    19.999907     20.71526    7034.7678    11392.314    10929.633     11699.57    200.20339    130.81149    390.70353 
  292000    302.77035   -3753.2437   -3234.3057   -3753.2437            0    8357.6345    16.957339    19.973506    20.687914    7006.9449    9217.9289    7820.7837    8034.1908   -1262.9043    980.59127    2015.5114 
  292500    309.20931    -3760.625   -3230.6508    -3760.625            0    9747.1313    16.980398    20.000666    20.716046    7035.5681    12125.128    6849.6108    10266.655   -881.10867    458.46805   -914.29353 
  293000    288.10913   -3777.1291   -3283.3199   -3777.1291            0    9284.1376    16.975378    19.994753    20.709922    7029.3307    10853.955     8387.323    8611.1346   -617.81722    815.24094    1726.9522 
  293500     295.0682   -3696.7082   -3190.9714   -3696.7082            0    10392.447    16.998355    20.021816    20.737953     7057.912    9482.6188    12306.913    9387.8099   -1855.2613    886.88106    1091.7299 
  294000    296.32161   -3758.9782   -3251.0931   -3758.9782            0    9141.3132    16.961139    19.977982     20.69255    7011.6566    6997.8554    11044.361    9381.7232   -977.71404   -570.85165   -367.53716 
  294500    297.08103   -3724.2896   -3215.1029   -3724.2896            0    9086.6993      16.9581    19.974401    20.688842    7007.8878    10300.448    8261.4338    8698.2162   -129.38758   -337.81579   -236.18723 
  295000    293.64188   -3702.0362    -3198.744   -3702.0362            0    10277.003    16.923131    19.933213     20.64618    6964.6252    9157.3629    10224.954    11448.692    650.63004    733.54826   -1290.9396 
  295500    300.57401   -3699.6207   -3184.4471   -3699.6207            0    11288.864    16.906921    19.914119    20.626404    6944.6303    9363.7706    11315.938    13186.883   -1370.3926     582.2962   -64.516351 
  296000     287.6858   -3725.7806    -3232.697   -3725.7806            0    8253.1338     17.04736    20.079539     20.79774    7119.1314    10464.889    7765.8884    6528.6244    356.30541    1280.7905    650.31711 
  296500    291.12257   -3734.8703   -3235.8962   -3734.8703            0    12002.724     16.90284    19.909312    20.621425    6939.6027    11752.879    12765.504    11489.789   -103.47146   -1360.4096    160.62858 
  297000    315.63212   -3755.4581   -3214.4755   -3755.4581            0    10063.261    16.972655    19.991546      20.7066    7025.9487    11740.282    7389.9921    11059.509   -363.81825   -789.85277    774.68008 
  297500    312.14304   -3702.0283   -3167.0258   -3702.0283            0     10865.33    16.915345    19.924043    20.636682    6955.0171    10691.783    10668.895    11235.312    747.11991   -647.02045    1059.0528 
  298000    304.41962   -3714.4569   -3192.6921   -3714.4569            0     10917.27     16.92158    19.931387    20.644289    6962.7108    12504.569    10781.381    9465.8611   -237.80842   -925.87135     573.8959 
  298500    303.91076   -3745.0347   -3224.1421   -3745.0347            0    10241.666      16.9208    19.930467    20.643336    6961.7473    8662.5767    11097.257    10965.164   -1691.1569   -113.15009    1254.4299 
  299000    294.22906   -3740.0487   -3235.7502   -3740.0487            0    9239.2366     16.95911    19.975591    20.690075    7009.1404    9127.5678    10093.129     8497.013    1154.3601     1026.052   -751.61351 
  299500    288.79135   -3736.4651   -3241.4866   -3736.4651            0    8814.1366     16.98678    20.008183    20.723832    7043.5045    11380.236    7394.4584    7667.7156   -329.06566   -375.92831    2143.4696 
  300000    308.68035    -3739.996   -3210.9285    -3739.996            0     11790.36    16.902547    19.908968    20.621068    6939.2422    13419.226    9523.9982    12427.857   -108.86952   -1659.8633    2169.6133 
  300500    303.78201   -3766.4971   -3245.8251   -3766.4971            0    11323.719     16.92189    19.931752    20.644667    6963.0932    13237.033    11967.427    8766.6976    516.61472    -907.6841    1019.4134 
  301000    281.85688   -3732.3426   -3249.2495   -3732.3426            0    11554.971    16.969229    19.987511     20.70242    7021.6949    12838.823    10477.041    11349.048   -314.57237   -484.50606    887.60843 
  301500    303.60779   -3730.6222   -3210.2489   -3730.6222            0    8739.1201    16.983467     20.00428     20.71979    7039.3834    9170.9378    8641.1974     8405.225    190.40366   -1137.8427   -486.09756 
  302000    297.93339   -3714.1857   -3203.5381   -3714.1857            0    9695.9918     16.94013    19.953236     20.66692    6985.6342    10758.922    7888.8681    10440.185    1162.6413   -1103.8547    813.79796 
  302500    285.81446   -3727.7859   -3237.9097   -3727.7859            0    7867.5612    17.020725    20.048165    20.765244    7085.8136    7253.2747    7581.7908    8767.6181   -93.302995    353.94028    269.07114 
  303000    304.12057    -3735.747   -3214.4948    -3735.747            0    8406.7016    17.018716    20.045799    20.762793    7083.3049    7542.7318    9343.4006    8333.9726    736.12778   -2140.2822    2.7163243 
  303500    300.31702   -3731.4205   -3216.6874   -3731.4205            0    10186.022    16.985247    20.006377    20.721961    7041.5972    10318.826    10838.718    9400.5222    1.8467133    859.09935   -823.40556 
  304000    294.34153   -3754.1309   -3249.6396   -3754.1309            0    9868.9671    16.988688     20.01043    20.726159    7045.8774     10598.86    8717.2384    10290.803    1028.9729   -427.20988    1006.1268 
  304500    308.79014   -3733.2117    -3203.956   -3733.2117            0    10724.731    16.948239    19.962787    20.676812    6995.6703    11626.946    9673.5569    10873.692    909.58601   -1086.1864    -1274.098 
  305000    307.83403   -3735.1922   -3207.5752   -3735.1922            0    11673.634    16.965129    19.982681    20.697418    7016.6057    11087.643    12239.319     11693.94   -900.93479   -120.46608    919.33047 
  305500    291.13956   -3705.0488   -3206.0456   -3705.0488            0    11094.096    16.980409    20.000679     20.71606    7035.5825    11471.787    10183.529    11626.972   -389.96851    1550.3919    631.31816 
  306000    297.17184   -3741.5548   -3232.2125   -3741.5548            0     9424.444    16.940761    19.953978    20.667689     6986.414    9877.1385    9127.7609    9268.4325    -1571.882    262.15926    1160.3004 
  306500    295.28962   -3732.1399   -3226.0235   -3732.1399            0    9307.5788    16.980601    20.000905    20.716294    7035.8209    9518.2668    9284.8224    9119.6472   -852.59624   -164.26821   -1524.5676 
  307000    301.72888   -3732.3766   -3215.2237   -3732.3766            0    10316.183    17.007867    20.033021    20.749558     7069.768    9134.6816     9122.222    12691.646    426.11172   -92.421551    -616.7795 
  307500    291.83464   -3694.0859   -3193.8913   -3694.0859            0     9592.164    16.954315    19.969943    20.684224    7003.1964    9206.3484    9662.1929    9907.9507    580.01253     1565.657    830.89822 
  308000    292.33606   -3694.8708   -3193.8168   -3694.8708            0    9003.5245    16.930338    19.941702    20.654973    6973.5265    10346.608    7156.7598    9507.2053    2.7181231   -204.68627   -428.82535 
  308500    318.42098   -3718.2332   -3172.4706   -3718.2332            0     9543.893     16.97111    19.989726    20.704714    7024.0295    10057.386     9442.699    9131.5945   -133.36123    1332.0477    608.58948 
  309000    306.13646   -3713.9248   -3189.2174   -3713.9248            0    10035.579    16.957297    19.973456    20.687863     7006.893    10904.113    8232.8889    10969.736    2359.7445    1233.8679     -1383.15 
  309500     298.1822   -3722.6561    -3211.582   -3722.6561            0    10554.931    16.917385    19.926446    20.639171    6957.5338    9932.3943    10279.012    11453.387    43.126218   -134.35119    2296.8349 
  310000    300.59668   -3716.4876   -3201.2752   -3716.4876            0     10593.82    16.981698    20.002197    20.717632    7037.1844    9300.4046    10965.131    11515.924    1042.4918    1565.4072    2026.6899 
  310500    319.34458   -3715.3865   -3168.0408   -3715.3865            0    6529.0758    16.991441    20.013673    20.729519    7049.3039    6552.7724    6332.4461    6702.0088    940.86165    879.73777   -915.22935 
  311000    290.48944   -3726.7502   -3228.8612   -3726.7502            0    10597.997    16.956234    19.972204    20.686565    7005.5747    10165.603     9823.492    11804.896   -678.03739    435.86166   -288.61098 
  311500    304.50253   -3765.6397   -3243.7328   -3765.6397            0    9036.4468    16.957081    19.973201    20.687599    7006.6248    9436.1398      8585.35    9087.8506   -528.40717    247.93857   -108.32909 
  312000    297.39382   -3703.0251   -3193.3023   -3703.0251            0    11835.602    16.910095    19.917858    20.630276    6948.5421    11793.286    12620.235    11093.284    -1240.016   -633.20363    1034.7738 
  312500    284.76314   -3744.1338   -3256.0596   -3744.1338            0    9509.1109    16.936343    19.948776    20.662299    6980.9503    6358.8576    8919.7292    13248.746   -324.96977   -1161.2381    1416.0572 
  313000    289.48786   -3715.0305   -3218.8582   -3715.0305            0    10772.935    16.901247    19.907436    20.619482    6937.6411    11836.444    8956.6968    11525.664   -1481.6603   -201.92151    891.43561 
  313500    315.89909   -3787.6159   -3246.1757   -3787.6159            0      9738.91     16.93034    19.941704    20.654975    6973.5287    12216.362    6924.5056    10075.863   -347.76568    1255.8628    1554.8628 
  314000    309.81253   -3716.9514   -3185.9433   -3716.9514            0    11041.358    16.941914    19.955337    20.669096     6987.841    11012.113    11628.391     10483.57    -10.74687     692.1769    72.332267 
  314500    310.39067    -3722.505    -3190.506    -3722.505            0    10403.901    16.903128    19.909653    20.621777    6939.9583    10561.586    10906.843    9743.2741   -124.76792    941.90516    302.80462 
  315000    302.98307   -3723.0863   -3203.7837   -3723.0863            0    10297.908    16.921104    19.930825    20.643707    6962.1225    10688.016    8221.9623    11983.744   -1960.0765   -1024.6579    198.90693 
  315500    314.69898   -3745.8621   -3206.4788   -3745.8621            0    9966.8199    17.012164    20.038083    20.754801     7075.128    9317.5826    10191.051    10391.826    1518.3884   -601.05134   -104.45969 
  316000    306.99414   -3714.5023   -3188.3248   -3714.5023            0    7746.6232    17.065364    20.100745    20.819704    7141.7109    6764.9963    10030.429    6444.4437    787.50668   -653.71851    1057.4062 
  316500    324.98799   -3733.8624   -3176.8441   -3733.8624            0    10067.724    16.952563     19.96788    20.682088    7001.0264    10835.677     10976.16     8391.335   -479.84419   -1084.8149    480.13922 
  317000    291.51298   -3742.2488   -3242.6056   -3742.2488            0    10963.311    16.929323    19.940507    20.653735    6972.2731    10525.734    11947.155    10417.045    -1690.867    207.10567    230.63563 
  317500    288.36495   -3735.2772   -3241.0295   -3735.2772            0    9682.9407    16.943066    19.956694    20.670501    6989.2668    8330.1003    10518.952     10199.77   -151.92803    432.21594    786.61675 
  318000    294.33786   -3695.3855   -3190.9005   -3695.3855            0    10059.592    16.964658    19.982126    20.696843    7016.0217    8387.8918    12374.573    9416.3102    -117.3062   -859.70685      649.725 
  318500    311.45032   -3724.9469   -3191.1317   -3724.9469            0    10196.495    16.957408    19.973587    20.687998    7007.0303    10958.017    10171.327    9460.1394    848.54267    129.78296    487.00404 
  319000      307.104   -3709.7976   -3183.4319   -3709.7976            0    9401.0357    16.994779    20.017605    20.733591    7053.4596    9812.8287    11183.074    7207.2046    738.13053     1304.163     593.4813 
  319500    291.07583   -3707.1938   -3208.2998   -3707.1938            0    10521.454    17.009508    20.034954     20.75156    7071.8141    11387.236    11965.509    8211.6178    1984.3425   -832.17607   -227.48782 
  320000    311.09393   -3738.2681   -3205.0637   -3738.2681            0    9853.9605    17.017662    20.044557    20.761507    7081.9888    7680.4838    11137.615    10743.783   -134.94727    1082.5732   -1086.7325 
  320500    297.11501   -3750.1292   -3240.8842   -3750.1292            0    10411.799     16.90541     19.91234    20.624561    6942.7688    11593.369    8802.3779    10839.649   -3541.3585    1290.6571    1151.5229 
  321000    276.89307    -3702.849   -3228.2638    -3702.849            0    11093.163    16.914679    19.923258    20.635869    6954.1954    11173.547    9435.1028    12670.837    823.05448    496.63332   -255.85891 
  321500    286.63887   -3727.8486   -3236.5594   -3727.8486            0    9078.3567    16.977883    19.997704    20.712978    7032.4426    9601.9587    8652.9953     8980.116    792.77278    697.38923    79.563933 
  322000    310.63001   -3727.5929   -3195.1837   -3727.5929            0    8589.6324    17.001435    20.025445    20.741711      7061.75    6957.2904     8060.287     10751.32   -1296.0779   -898.88875    990.02494 
  322500    294.63565   -3722.2132   -3217.2178   -3722.2132            0    9530.7005    17.051166    20.084021    20.802383    7123.9004    9308.5893    10098.851    9184.6612    1774.6042    649.98062    1272.6867 
  323000    306.75038   -3720.7965   -3195.0369   -3720.7965            0    10003.698    17.024994    20.053195    20.770453    7091.1475    10750.354    9602.3921    9658.3472    1080.4124   -17.589653    822.17334 
  323500    292.43057   -3716.7897   -3215.5737   -3716.7897            0    10168.511    16.911631    19.919667     20.63215    6950.4358    10626.785    9278.2138    10600.534   -268.95761    469.06121    691.75707 
  324000    293.42934   -3771.0428    -3268.115   -3771.0428            0    9272.8286     16.92185    19.931704    20.644617    6963.0434    5143.0329     12455.52    10219.933    860.66051    1212.9564    -1438.543 
  324500    316.38419   -3763.4447   -3221.1731   -3763.4447            0    11627.057    16.931744    19.943358    20.656688    6975.2641    12015.082    11840.228    11025.862   -1047.6953    161.86405   -1260.5204 
  325000    306.94542   -3772.2942   -3246.2002   -3772.2942            0    9419.6245    16.965635    19.983277    20.698035    7017.2334    7603.3926    10728.786    9926.6947     509.7927   -1477.4619   -1156.3159 
  325500    310.15895   -3752.1689    -3220.567   -3752.1689            0    8125.8624    17.016219    20.042858    20.759747    7080.1877    7128.7127    9516.1776    7732.6968    1094.9043    1104.0202    1545.3023 
  326000     296.3075   -3753.7189    -3245.858   -3753.7189            0    10188.638    16.890718    19.895035    20.606637     6924.684     11258.42    9231.2002    10076.294    1254.4324   -2545.9138   -1214.1025 
  326500    302.28905   -3753.1453   -3235.0322   -3753.1453            0    8137.4609    16.960616    19.977365    20.691911    7011.0073     7838.384    8663.1679    7910.8309   -880.20764   -589.01753   -1524.0455 
  327000    304.65254   -3695.4398   -3173.2758   -3695.4398            0    12296.053    16.875975    19.877669     20.58865    6906.5661    12873.853    13048.975     10965.33    1471.9743    836.16405    2480.9948 
  327500     280.6376   -3756.9441   -3275.9408   -3756.9441            0    10494.212    16.952605     19.96793    20.682139    7001.0781    8432.8502    12414.926     10634.86    1025.3768    381.54771    1616.1467 
  328000    307.81112   -3762.1103   -3234.5326   -3762.1103            0    8367.9052    17.015223    20.041685    20.758533     7078.945    7623.3902    7620.4677    9859.8579   -1672.7044    1111.3912    83.821281 
  328500    296.63985   -3728.2616    -3219.831   -3728.2616            0    8813.6924    16.948935    19.963607    20.677662    6996.5327    9245.8786    8379.8728    8815.3257   -40.055692    11.728631   -589.46881 
  329000    301.43834   -3713.1522   -3196.4972   -3713.1522            0    9969.6266     16.94516     19.95916    20.673055    6991.8578    10828.412    10411.496    8668.9717    1296.9247    49.321507     265.6055 
  329500    292.81917   -3725.2549   -3223.3729   -3725.2549            0    10050.092    16.916486    19.925386    20.638073    6956.4238    8776.5718    10008.778    11364.928   -269.85548    85.683544    437.83559 
  330000    285.57916   -3702.1739    -3212.701   -3702.1739            0     8432.767    16.916352    19.925229     20.63791    6956.2591    7536.3323    8327.9385    9434.0301    218.96588   -339.74795   -1029.8175 
  330500    304.65315   -3733.9185   -3211.7534   -3733.9185            0    8607.3638    16.971823    19.990566    20.705584    7024.9148    9400.4877    8846.5782    7575.0256   -1014.7386   -471.70546    151.85408 
  331000    292.36465   -3734.1286   -3233.0256   -3734.1286            0    9862.8375    16.975521    19.994921    20.710096    7029.5077    10392.926    11260.715    7934.8716   -169.24029   -1281.2155   -182.05717 
  331500     305.8107   -3742.5922   -3218.4431   -3742.5922            0    9085.7827    16.988168    20.009818    20.725525    7045.2305    9895.4781     9445.975     7915.895     615.3281   -1409.0092   -1466.2022 
  332000    307.36417   -3713.9406    -3187.129   -3713.9406            0    8929.1157     16.98337    20.004167    20.719672    7039.2635    9769.6451     8776.345    8241.3571    1350.6698   -7.5463329    1109.9442 
  332500    304.17719   -3680.8881   -3159.5388   -3680.8881            0    10006.966    16.999178    20.022786    20.738957    7058.9375     9559.826    10597.283    9863.7898    341.78689   -1018.1847   -1110.7069 
  333000    291.54554   -3719.4124   -3219.7133   -3719.4124            0     7992.587    17.044766    20.076483    20.794575    7115.8817    8036.1061    8455.5172    7486.1375   -1023.7097   -165.01422    761.22302 
  333500    311.26824   -3681.2008   -3147.6977   -3681.2008            0    10631.009    16.961467    19.978368     20.69295    7012.0634    7309.5153    12547.286    12036.224    1765.3123    604.93083   -750.17538 
  334000    300.52057   -3720.6847   -3205.6028   -3720.6847            0    9814.2558    16.997701    20.021047    20.737156    7057.0984    9655.2299    10302.641    9484.8967    1223.9824    1723.5175   -158.28286 
  334500    298.74442   -3730.0715   -3218.0338   -3730.0715            0    7638.5522    17.021123    20.048635    20.765731    7086.3117    8382.9063    8471.9742    6060.7761   -1563.2157   -290.98547      -2123.4 
  335000    290.72117   -3755.5299   -3257.2438   -3755.5299            0    10410.743    16.966542    19.984345    20.699141    7018.3587    11072.673    8872.4111    11287.144    -669.1735    87.315773    353.64547 
  335500    312.64256   -3716.6117    -3180.753   -3716.6117            0    10022.761    16.947856    19.962336    20.676345    6995.1962    11433.025    10838.534    7796.7237    344.22705    981.12261   -2397.0989 
  336000    295.26556   -3694.6891   -3188.6141   -3694.6891            0    9196.9909    17.022024    20.049696    20.766829    7087.4364    7797.1393    8867.3262    10926.507    23.237664   -1182.9766    1335.7407 
  336500    312.89875   -3738.4747    -3202.177   -3738.4747            0    12136.751    16.885237    19.888579    20.599949    6917.9442    12493.027    11379.231    12537.996   -1897.7863   -54.891316   -629.19234 
  337000    303.14059   -3731.6799   -3212.1073   -3731.6799            0    9416.6104     16.98313    20.003884    20.719379    7038.9652    9485.5016    8178.4754    10585.854   -548.62967   -275.65054    470.79628 
  337500    299.28328   -3682.9568   -3169.9955   -3682.9568            0    11178.074      16.9178    19.926933    20.639676    6958.0446    10225.648    12447.462    10861.112    62.867003   -759.55551    1135.0044 
  338000    288.59548   -3711.7649   -3217.1221   -3711.7649            0    10685.927    16.880504    19.883004    20.594176     6912.129    10442.637    10170.635    11444.508    475.99357   -104.56875    1412.8861 
  338500    311.77471   -3740.5176   -3206.1464   -3740.5176            0    8324.5646    17.008153    20.033358    20.749907    7070.1247    8675.9604    8375.1198    7922.6135    866.23988    1703.7799    464.31679 
  339000    296.90244    -3687.171   -3178.2904    -3687.171            0    8492.6557    16.956388    19.972386    20.686754    7005.7666    8331.4561    10092.031    7054.4805    73.265709   -102.79773    517.40893 
  339500    296.19616   -3722.3551   -3214.6851   -3722.3551            0    10150.307    16.886271    19.889797    20.601211    6919.2155    11492.601    10056.079    8902.2398    701.66531    983.82498    -544.3988 
  340000    313.33517   -3702.1514   -3165.1056   -3702.1514            0    10247.495    16.971317     19.98997    20.704967     7024.287    12262.184    8533.6264    9946.6756   -292.93797    847.52021    432.94122 
  340500    301.84629    -3676.407   -3159.0528    -3676.407            0    11248.445    16.944774    19.958706    20.672585    6991.3808     12691.61    11296.515    9757.2105    1542.7088    555.07115   -971.22893 
  341000    299.15681   -3695.4667   -3182.7222   -3695.4667            0     11371.83    16.913674    19.922073    20.634642     6952.955    10594.316    11960.963     11560.21    1845.3751    324.00806    -25.46138 
  341500    299.17413   -3754.8173   -3242.0431   -3754.8173            0    11483.201    16.914381    19.922907    20.635506    6953.8281     11850.81    10961.051    11637.743   -658.85507   -236.52193    888.86213 
  342000    293.48717   -3724.4035   -3221.3765   -3724.4035            0    8219.5932    16.957133    19.973263    20.687663    7006.6894    8295.3156    7992.8331    8370.6308   -1449.1098    743.47487   -1204.3461 
  342500    298.42921   -3769.5061   -3258.0086   -3769.5061            0     10055.64    16.907532    19.914839     20.62715    6945.3837    9454.5223    11014.386    9698.0105     495.5614   -892.92438    128.04387 
  343000    290.88044   -3736.5976   -3238.0385   -3736.5976            0    11063.035    16.900031    19.906005    20.617999    6936.1444    11195.705    9868.0733    12125.327    278.50003   -1503.0848     54.51649 
  343500    301.43559   -3743.8121   -3227.1618   -3743.8121            0    10337.942     16.90506    19.911927    20.624133    6942.3375    9915.3736    10168.222    10930.232   -686.15171    993.53508    269.58581 
  344000    307.13533   -3740.0618   -3213.6423   -3740.0618            0    8750.7759    17.010038    20.035578    20.752206     7072.475    8629.6056    8333.3057    9289.4164   -458.98427   -315.72575   -363.30692 
  344500    288.35182    -3705.208   -3210.9828    -3705.208            0    11148.098    16.918392    19.927631    20.640399    6958.7762    12250.034    9371.2153    11823.044    1608.9679    2144.1526    191.29719 
  345000    301.95676   -3707.4805    -3189.937   -3707.4805            0    10259.018     16.91924     19.92863    20.641434    6959.8228    9880.6819    9439.6915    11456.681    105.27883    997.38468   -3002.6459 
  345500    300.57149   -3745.1755   -3230.0062   -3745.1755            0    9865.5655    16.988858    20.010631    20.726367    7046.0895    10602.928    10394.449    8599.3187   -596.36135    1008.7545    2348.0728 
  346000    291.55595   -3734.0182   -3234.3013   -3734.0182            0    11431.539    16.981971    20.002519    20.717965    7037.5242    11890.385    10204.005    12200.227    1035.7924   -60.632889    1322.8475 
  346500    298.28254   -3715.3335   -3204.0874   -3715.3335            0    10103.049    16.903597    19.910204    20.622348    6940.5349     10197.98    11812.111     8299.056   -1400.3918   -840.95117    899.53793 
  347000    291.59161   -3693.4025   -3193.6244   -3693.4025            0    10733.272    16.945036    19.959014    20.672904    6991.7041    10858.071    10849.246      10492.5     668.8213   -901.82222    1098.0548 
  347500    307.79192   -3744.4025   -3216.8577   -3744.4025            0    8458.1439    17.002378    20.026556    20.742862    7062.9253    8668.8632    7912.0616    8793.5068    724.74086   -1229.8002     2683.373 
  348000    279.67301   -3727.3977   -3248.0478   -3727.3977            0    9368.9696    16.925674    19.936208    20.649282    6967.7649    9317.5212    10497.296    8292.0915   -589.17188    2083.8257    1144.3664 
  348500    299.05133   -3736.3554   -3223.7916   -3736.3554            0    11597.315    16.952778    19.968134     20.68235    7001.2929    12332.002    10430.765    12029.177     864.2715   -239.80453    97.190606 
  349000    289.96799   -3774.8103   -3277.8151   -3774.8103            0    7841.6415    17.032691     20.06226    20.779843    7100.7692    7508.8515    8913.8488    7102.2242    394.03637    443.45982    234.77104 
  349500    314.17323   -3700.2356   -3161.7535   -3700.2356            0    9323.8317    17.020269    20.047629    20.764688    7085.2446    7765.2508    10069.017    10137.227    1383.0474    -160.3036    286.14966 
  350000    317.31782   -3737.2368   -3193.3649   -3737.2368            0    10840.405    17.002483     20.02668     20.74299    7063.0563    10819.827    10851.619    10849.769   -325.62219    197.12398   -138.52701 
  350500    298.27022   -3694.4174   -3183.1925   -3694.4174            0    8974.8788    16.972138    19.990936    20.705968    7025.3056    7376.3527    7911.8219    11636.462    411.53848      7.36211   -1385.5573 
  351000    312.17194   -3734.0232   -3198.9711   -3734.0232            0    11169.294    16.905016    19.911876     20.62408    6942.2837    9150.4005     12780.79    11576.692   -906.46728   -936.18612    557.88715 
  351500    303.40732   -3722.3971   -3202.3673   -3722.3971            0    8720.6984    17.008534    20.033806    20.750371     7070.599    9041.1425    8926.2884    8194.6643   -239.04518   -200.02901    49.471611 
  352000     290.4031    -3679.784   -3182.0431    -3679.784            0    12906.322    16.922174    19.932086    20.645013    6963.4439    13009.223    12042.372    13667.372   -409.34819   -12.401764     828.2026 
  352500     301.5113   -3726.4306   -3209.6506   -3726.4306            0    10605.751     16.88242    19.885261    20.596513    6914.4829    11334.133    11205.614     9277.505   -587.95018    90.767818   -396.04626 
  353000     289.7786   -3728.4388   -3231.7682   -3728.4388            0    9214.1442    16.938778    19.951643    20.665269     6983.961    11393.238    7638.4009    8610.7939   -2051.2772    384.67258    556.67992 
  353500    299.39671   -3732.3751   -3219.2194   -3732.3751            0    12031.102    16.829089    19.822444     20.53145    6849.1621    12800.159     13488.26    9804.8873    257.50692     1623.593    1632.4083 
  354000    296.00381    -3724.573   -3217.2326    -3724.573            0    10112.001    16.966834     19.98469    20.699498    7018.7222    10082.788    11475.679    8777.5351   -635.89912   -1122.4492    1321.4806 
  354500    303.62413   -3697.3905   -3176.9891   -3697.3905            0    9862.7977     16.99075    20.012859    20.728675    7048.4433    9111.2252    10589.358    9887.8093    192.79301    895.39071    -2130.675 
  355000    296.01027   -3723.0173   -3215.6658   -3723.0173            0    9696.1744    16.984906    20.005976    20.721546    7041.1737    11197.299     9965.744    7925.4801    451.93044   -892.24125   -978.61019 
  355500    297.47488   -3721.0054   -3211.1436   -3721.0054            0     8921.472    16.932741    19.944532    20.657905    6976.4968    10732.795    7284.5145    8747.1063    1079.9113   -914.92755    38.495332 
  356000    292.94163   -3689.7812   -3187.6893   -3689.7812            0    10436.823    16.948613    19.963228    20.677269    6996.1339    8818.6572    13556.823    8934.9878   -1019.1027   -758.43184    1514.1847 
  356500    298.52953   -3711.3666   -3199.6972   -3711.3666            0    10250.881    16.929387    19.940581    20.653812    6972.3512    8952.7557    10734.673    11065.214    746.30998    766.04466   -157.68637 
  357000    300.11982    -3687.434   -3173.0389    -3687.434            0    11909.756    16.926698    19.937414    20.650532    6969.0299    10661.754    11204.228    13863.288    684.37774    716.05257    969.48829 
  357500    305.59875   -3690.0494   -3166.2636   -3690.0494            0    9890.5197    17.023984    20.052004     20.76922    7089.8846    9832.9763    10228.467    9610.1153    -545.7166   -35.522298    327.73326 
  358000    304.44884   -3733.7667   -3211.9518   -3733.7667            0     11556.59    16.945222    19.959234    20.673132    6991.9353    12721.039    10749.825    11198.907     852.9589   -875.17734    1696.1152 
  358500    303.36157   -3708.1629   -3188.2115   -3708.1629            0    9148.7457    16.959698    19.976284    20.690792    7009.8698    9239.0506    7912.3295    10294.857   -708.25957     -1172.91    1848.2906 
  359000    318.86523   -3764.2359   -3217.7118   -3764.2359            0    10730.123    16.934515    19.946622    20.660068    6978.6893    10424.804    10667.881    11097.685   -1058.5923   -542.68383   -696.22018 
  359500    294.38504   -3695.0147   -3190.4488   -3695.0147            0    9119.0177    17.034518    20.064412    20.782072    7103.0547    8322.4765    9492.4633    9542.1133   -305.13162    250.25065   -326.87495 
  360000    297.88376    -3714.399   -3203.8365    -3714.399            0      10514.8    16.918965    19.928306    20.641098    6959.4827    10283.633    9424.3064    11836.462    538.30862   -201.06347    917.94222 
  360500    291.43755    -3695.239    -3195.725    -3695.239            0    9381.8935    16.999268    20.022892    20.739067    7059.0497    8367.0786    10820.169     8958.433    1355.3263    949.67186   -1199.9727 
  361000     297.1791   -3718.5618    -3209.207   -3718.5618            0    7725.0137     17.01852    20.045569    20.762555     7083.061    7807.2396    8421.9813    6945.8202    674.77086   -337.02239    398.03933 
  361500    302.81877   -3709.8693   -3190.8483   -3709.8693            0    11438.908    16.918804    19.928117    20.640902    6959.2844    9906.4637    12621.468    11788.792   -692.97415   -267.12351    1310.7077 
  362000    285.86802   -3716.1365   -3226.1685   -3716.1365            0     11450.39    16.918423    19.927667    20.640436    6958.8136     11471.89    11099.885    11779.395    -455.8448   -1334.3729     710.0049 
  362500    305.91854   -3685.6408   -3161.3069   -3685.6408            0    8903.6682    16.977705    19.997494    20.712761     7032.222    8580.5666    9058.6418    9071.7963   -190.43166   -853.31387    20.572672 
  363000    309.41716   -3684.6082   -3154.2778   -3684.6082            0    12755.952    16.945571    19.959645    20.673557    6992.3672    13281.332    12047.323    12939.202   -818.25092    352.00787   -1456.1846 
  363500    309.78798   -3682.4215   -3151.4555   -3682.4215            0     10916.06    16.958955    19.975409    20.689885     7008.948    10329.268    11204.596    11214.316    -572.9771    -952.4112   -1291.6784 
  364000    308.66256   -3714.2173   -3185.1803   -3714.2173            0    10619.208    16.961206     19.97806    20.692632    7011.7396     13131.64    8521.8151    10204.169   -354.01225    1009.7661   -582.91394 
  364500    291.17563   -3725.8404   -3226.7753   -3725.8404            0    11204.611    16.932343    19.944063    20.657418    6976.0041    12522.311    11461.402    9630.1201   -1537.5655    1377.2034    951.46589 
  365000    299.85403   -3708.2191   -3194.2796   -3708.2191            0    10310.276     16.93371    19.945674    20.659087    6977.6944    11957.987    9769.5768    9203.2639   -484.09172    716.02958    498.68359 
  365500    314.51601   -3739.1858   -3200.1161   -3739.1858            0     11992.22    16.956956    19.973054    20.687447      7006.47    9616.8494     11721.18    14638.629    458.35992    1175.8095   -523.44209 
  366000    306.82701   -3688.3017   -3162.4107   -3688.3017            0    11053.942    16.935155    19.947375    20.660849    6979.4803    10093.851    11135.951    11932.022   -350.97983    1190.1292     792.5978 
  366500    295.65513   -3706.0682   -3199.3254   -3706.0682            0    10193.107    17.024708    20.052858    20.770104    7090.7902    10594.618    8922.6255    11062.076    958.80052    858.61926    1145.7473 
  367000    304.28113   -3705.9071   -3184.3797   -3705.9071            0    9136.5574     16.98881    20.010574    20.726309    7046.0299    9623.1502    9455.5703    8330.9518   -423.38391   -856.35752   -13.233116 
  367500    318.11466   -3723.7353   -3178.4976   -3723.7353            0    9705.2754    16.925703    19.936242    20.649318    6967.8004    7854.6414    10005.202    11255.983   -133.14039   -25.406912   -435.62224 
  368000    306.10996   -3711.6235   -3186.9615   -3711.6235            0     8810.804    17.013096     20.03918    20.755937    7076.2902    7473.9749    9293.7865    9664.6507   -1960.0239   -1609.2472    1711.3032 
  368500    300.38317   -3723.9804    -3209.134   -3723.9804            0    9300.2037    16.941665    19.955043    20.668791    6987.5324    7929.4371    11247.598    8723.5756    524.12002    338.57885     -461.416 
  369000    304.16314   -3723.0416   -3201.7164   -3723.0416            0    9822.8317    16.956949    19.973046    20.687438    7006.4609    8570.7225    10090.901    10806.872    227.88151   -661.62584    614.19704 
  369500    289.14248   -3720.4031   -3224.8228   -3720.4031            0    8469.4446    16.979326    19.999403    20.714738    7034.2358    7157.5645    9565.4404    8685.3288    562.29962    2798.6001   -463.38812 
  370000    310.10337   -3713.7356   -3182.2291   -3713.7356            0    8970.2347     16.92886    19.939961    20.653169    6971.7002    7621.5946    8554.6211    10734.489   -1709.5651    904.44686   -2.7836402 
  370500     278.0494   -3731.8595   -3255.2923   -3731.8595            0    10043.138     16.95551    19.971351    20.685682    7004.6772    9807.9833    10817.237    9504.1947   -35.127641    899.74096   -904.95386 
  371000    293.22259   -3737.9347   -3235.3613   -3737.9347            0    10587.002    16.988544    20.010261    20.725984    7045.6989    10915.585     9934.378    10911.043   -1940.2822    305.87404   -556.65768 
  371500    302.84771   -3751.3861   -3232.3155   -3751.3861            0    9760.9121    16.940271    19.953402    20.667091    6985.8085    11335.332    9453.4031    8494.0014   -173.60408   -203.91729    685.28643 
  372000    268.98933   -3696.0174   -3234.9789   -3696.0174            0    9830.3033    17.002337    20.026508    20.742812    7062.8745    10018.315     11044.75    8427.8452    28.546136   -1302.1698    1157.7227 
  372500    300.81698   -3752.8824   -3237.2924   -3752.8824            0    9576.5526    16.944507    19.958391    20.672259    6991.0501    10046.125    9310.5424      9372.99   -908.33101    696.77913    378.78194 
  373000    285.65237   -3775.3817   -3285.7833   -3775.3817            0    11430.527    16.896848    19.902254    20.614115    6932.2249    10624.747    11245.704     12421.13   -1249.4069    1717.7189    870.35535 
  373500    306.85622   -3768.1979   -3242.2568   -3768.1979            0    10269.216    16.951084    19.966138    20.680283    6999.1941     10709.19    11024.461    9073.9976   -5.1553621    238.98452    1403.6327 
  374000    306.61788   -3718.0429   -3192.5104   -3718.0429            0    7917.9722    17.016287    20.042939    20.759831     7080.273    8818.3627    5700.3378    9235.2162    -76.13767   -419.46317    127.40431 
  374500    320.72853   -3695.9081   -3146.1904   -3695.9081            0    11538.997    16.952681    19.968019    20.682231    7001.1719    12078.699     10185.34    12352.953    1781.5305   -628.86842    1694.6489 
  375000     320.6251   -3687.1012   -3137.5607   -3687.1012            0    9408.9459    16.982666    20.003337    20.718813    7038.3878    8510.8389    11587.531    8128.4679   -2271.4529   -73.263489     501.6247 
  375500    293.98596   -3726.0238   -3222.1419   -3726.0238            0     10179.89    16.971076    19.989686    20.704674    7023.9879    8819.7914    10321.327    11398.551    -935.5411    1249.5921   -1413.3696 
  376000    297.88575    -3705.461    -3194.895    -3705.461            0    10357.625    17.002835    20.027094    20.743419    7063.4943    7631.7499    12957.605    10483.521   -165.64351   -212.73245   -642.33023 
  376500    295.65329   -3679.9183   -3173.1787   -3679.9183            0    11483.795    17.012594    20.038589    20.755325    7075.6644    14408.968    9918.8689    10123.547    1238.5118    1861.2277    511.43782 
  377000    297.21131   -3757.7669   -3248.3569   -3757.7669            0    12369.723    16.977564    19.997328    20.712589    7032.0465    11626.555    12518.748    12963.867    284.16891    1598.6967   -1077.3452 
  377500    292.56685   -3734.3428   -3232.8932   -3734.3428            0     11336.68    16.961309    19.978181    20.692757    7011.8667    13847.788    9250.1886    10912.063   -1179.6771    203.81757    756.89778 
  378000    308.14133   -3742.9681   -3214.8244   -3742.9681            0    10223.373    16.943836      19.9576     20.67144    6990.2189    9738.7479    11157.011    9774.3589     130.3939   -455.41584    197.10285 
  378500    306.25592   -3757.6344   -3232.7222   -3757.6344            0    10489.822    16.925414    19.935902    20.648965    6967.4437    10895.115    9309.9067    11264.444   -470.50298   -803.29607   -1722.2749 
  379000    304.88384   -3732.0045    -3209.444   -3732.0045            0    9593.2643    16.940285    19.953418    20.667108    6985.8251    9927.1465    7791.9165     11060.73   -367.18898   -440.41278   -1117.8031 
  379500      300.736   -3756.1804   -3240.7292   -3756.1804            0    8265.9442    17.013457    20.039605    20.756378    7076.7413    7311.0225    9500.5092     7986.301    723.87656   -2276.3223   -746.27815 
  380000    295.89911   -3767.5457   -3260.3847   -3767.5457            0    7744.4308    16.944986    19.958955    20.672843    6991.6426    8632.9775    7205.1422    7395.1727    -501.8032    1557.2232   -463.65895 
  380500    312.27096   -3710.0923   -3174.8705   -3710.0923            0    8961.7326    17.072621    20.109293    20.828558    7150.8259    9804.5837    9362.6973    7717.9167   -285.30999    700.17716    -1013.986 
  381000    303.71788   -3714.8892   -3194.3271   -3714.8892            0    10894.375    16.984164    20.005102    20.720641    7040.2508    9818.3105    10806.746    12058.067   -1099.5082    1003.9609    644.73659 
  381500    311.05879   -3686.1787   -3153.0345   -3686.1787            0    10827.386    16.982289    20.002894    20.718353    7037.9196    10392.437    11422.674    10667.046    942.42166    237.82501    757.46684 
  382000    295.26352   -3720.5394   -3214.4678   -3720.5394            0    9035.0237    16.962382    19.979446    20.694067    7013.1986    9320.1528    9186.3221    8598.5961    1127.5615   -322.35231    605.63308 
  382500    304.24089   -3700.5227   -3179.0642   -3700.5227            0    10497.545    16.960118    19.976779    20.691304    7010.3902    7899.3389    12925.074    10668.221   -1925.3253   -1115.4724   -2496.6786 
  383000    311.04567   -3708.2803   -3175.1586   -3708.2803            0    6997.6813     17.05811      20.0922    20.810854    7132.6069    7696.6585    6069.1782    7227.2071   -112.95328   -853.13545   -624.73965 
  383500    302.25119   -3665.9322    -3147.884   -3665.9322            0    10324.032    16.937291    19.949891    20.663455    6982.1217     8509.093    12094.269    10368.735   -888.87419   -607.61349   -1118.9203 
  384000    292.66811   -3741.0151    -3239.392   -3741.0151            0    10879.753    16.957906    19.974173    20.688606    7007.6477    10601.058    10578.846    11459.355    560.00432    -151.9008   -1974.0067 
  384500    302.32551   -3693.6964   -3175.5208   -3693.6964            0    8568.4829    17.062233    20.097057    20.815885     7137.781    7403.5613    8303.6432    9998.2441    451.19753    167.71514   -1185.4631 
  385000    307.71923   -3733.8476   -3206.4273   -3733.8476            0    9904.0504    16.984324    20.005291    20.720836      7040.45    10580.855    8841.7352    10289.561    65.383601   -2739.5688    326.32434 
  385500    306.46471   -3718.8504   -3193.5803   -3718.8504            0    10611.476    16.954511    19.970175    20.684464    7003.4399     10154.75    9999.2597    11680.417   -1621.0819    2499.6156    -1795.866 
  386000    314.72553   -3741.5777   -3202.1489   -3741.5777            0    10230.001    16.950054    19.964925    20.679027    6997.9182    10857.772    7994.7219    11837.509   -1014.4282    579.12224    1831.7766 
  386500    300.77738   -3739.7458   -3224.2237   -3739.7458            0     7840.938    17.002985    20.027271    20.743602    7063.6819    7646.2379    7845.7005    8030.8755    235.65233    344.65454   -948.98767 
  387000    308.53871   -3745.9459   -3217.1211   -3745.9459            0    11380.988    16.932567    19.944327    20.657692    6976.2813    9726.8573    12160.412    12255.693   -895.23779   -444.53617   -693.79383 
  387500     310.4623   -3723.6706   -3191.5489   -3723.6706            0    9783.1893    16.982586    20.003243    20.718716    7038.2887    9613.5775    9684.8643    10051.126    860.35539    1282.7194   -180.19317 
  388000    312.85671   -3764.4448   -3228.2192   -3764.4448            0    10900.265    16.891407    19.895847    20.607477    6925.5311    9781.1369    10660.391    12259.265   -398.52227   -523.06733    1024.1842 
  388500    286.24015   -3748.2446   -3257.6388   -3748.2446            0    10124.867    16.930459    19.941844     20.65512    6973.6757    9997.9916    10592.521    9784.0884    543.93504    32.305926    1239.9426 
  389000    292.75762   -3718.3229   -3216.5463   -3718.3229            0    10122.171    16.962519    19.979607    20.694234    7013.3685    9473.1783    10839.599    10053.736    1281.2241    174.32543   -382.52715 
  389500    297.10859   -3763.7089   -3254.4749   -3763.7089            0    9463.7888     17.00838    20.033625    20.750184    7070.4077    8409.9583    10984.925    8996.4836   -1274.3474    89.779718    1603.5693 
  390000    283.55927    -3748.012   -3262.0011    -3748.012            0    11654.901    16.869792    19.870386    20.581106    6898.9777    13560.543    9810.3588    11593.802   -1024.2467    149.79328    746.81467 
  390500    306.89719    -3697.263   -3171.2518    -3697.263            0    9495.9628    16.933906    19.945905    20.659326    6977.9368    9593.0179    8925.7931    9969.0776    321.68675    602.34369    629.25813 
  391000    299.74413   -3717.5455   -3203.7943   -3717.5455            0    9097.0185    16.949957     19.96481    20.678908    6997.7979    8764.0979    9555.7426    8971.2151   -2.7658914    1351.9712   -766.62899 
  391500     303.4658   -3703.3515   -3183.2216   -3703.3515            0    8370.2341    16.956804    19.972875    20.687261    7006.2811    7586.9626    9241.5226    8282.2172   -979.19394   -56.753546    -162.6408 
  392000      275.416    -3758.264   -3286.2104    -3758.264            0     9508.316    16.942068    19.955518    20.669283     6988.031     9425.446    8932.6788    10166.823    271.77077   -23.449398   -1689.1923 
  392500    302.49108   -3751.4423    -3232.983   -3751.4423            0     8549.788    16.971603    19.990306    20.705316    7024.6417    7214.2285    10001.381     8433.754    1770.0145    -189.2725    506.45067 
  393000    300.98978   -3725.6864   -3209.8002   -3725.6864            0    10898.679    16.940988    19.954247    20.667966    6986.6956    9901.7569    12465.986    10328.294    318.11703   -1124.7466   -1206.6468 
  393500    305.08079   -3731.6364   -3208.7384   -3731.6364            0    10654.814    16.965129    19.982681    20.697417    7016.6055    12108.732    9324.1096      10531.6   -352.22571   -1549.9302   -388.28131 
  394000    299.14907   -3765.2618   -3252.5305   -3765.2618            0    9438.5416    16.987594    20.009142    20.724825    7044.5166    10083.101    9512.8304    8719.6934   -1069.6736    302.34593    408.23745 
  394500    297.13259    -3735.893   -3226.6179    -3735.893            0    10441.478     16.93817    19.950927    20.664528    6983.2098    11407.904    10364.157    9552.3719    867.60926    360.46798     309.3166 
  395000    283.84191   -3712.1586   -3225.6633   -3712.1586            0    9606.4174    17.009855    20.035363    20.751984    7072.2475    12106.417    5674.1916    11038.643    1202.7755   -845.85172    577.15087 
  395500    284.44952     -3756.74   -3269.2033     -3756.74            0    10341.515    16.975974    19.995455    20.710648    7030.0704    8582.5434    10008.906    12433.096    337.01309   -646.93353    1143.1063 
  396000    297.82654   -3753.6467   -3243.1822   -3753.6467            0    10618.971    16.962935    19.980096    20.694741    7013.8836     10979.07    11702.582    9175.2625    384.74264    998.59813    -1640.292 
  396500    307.29122   -3751.3302   -3224.6435   -3751.3302            0     9367.332    16.932324    19.944041    20.657395    6975.9808    11007.774    9783.7324     7310.489   -787.49376   -514.31728    602.98949 
  397000    293.60236   -3742.6203   -3239.3959   -3742.6203            0    9945.0987    16.943436     19.95713    20.670953    6989.7248     8388.911    11249.125     10197.26   -956.83673   -969.01619    680.42476 
  397500    299.07386   -3733.6801   -3221.0777   -3733.6801            0     10852.54    16.940332    19.953473    20.667165     6985.883    9034.2758    10484.312    13039.031   -23.804482    388.74223   -1463.9143 
  398000    290.23766   -3740.2029   -3242.7455   -3740.2029            0    7926.6603     17.00646    20.031363    20.747841    7068.0131    7617.9296    7504.1854    8657.8659    1314.7012    307.69626    659.88136 
  398500     294.5876    -3678.387    -3173.474    -3678.387            0    12286.497    16.964911    19.982424    20.697152    7016.3353    11848.504    10758.256    14252.732     366.6038    1591.8527    -569.9263 
  399000    284.29354   -3748.7813   -3261.5119   -3748.7813            0    10151.944    16.995051    20.017926    20.733923    7053.7982     10739.42    9073.7531     10642.66   -1136.2025   -210.44641   -343.61513 
  399500     295.3138    -3730.283   -3224.1253    -3730.283            0    7846.8606    17.016935    20.043702    20.760621    7081.0822    8483.4547    8000.4281    7056.6991   -438.67345   -2229.9153    1512.6907 
  400000    326.39553   -3769.5072   -3210.0764   -3769.5072            0    12124.812    16.968231    19.986335    20.701202    7020.4554    13009.614    11642.855    11721.968    286.77632   -614.44287   -839.56207 
  400500    313.49575   -3722.3131   -3184.9921   -3722.3131            0    11450.434    16.940829    19.954058    20.667771    6986.4979    9868.6741    10896.811    13585.817    -185.0644   -349.35578    1097.9855 
  401000    314.52296   -3751.9027   -3212.8211   -3751.9027            0    10643.786    16.905178    19.912067    20.624278    6942.4832    11362.225    9791.5553    10777.577   -816.12181    569.81143    794.08517 
  401500    297.66401   -3718.5939   -3208.4079   -3718.5939            0     10990.31     17.01184      20.0377    20.754405    7074.7232    12538.461    11489.812     8942.658    709.06432    733.39405   -649.65063 
  402000    294.92044   -3735.7929   -3230.3093   -3735.7929            0    11854.215    17.058773    20.092981    20.811663    7133.4385    9370.4238    14573.686    11618.534    1414.8697   -841.56559    316.03026 
  402500    302.82659   -3740.5414    -3221.507   -3740.5414            0    11531.637    16.967648    19.985649    20.700491    7019.7324    11760.498    10366.624     12467.79    173.79578   -1645.1311    1032.9713 
  403000    291.82096   -3724.0511     -3223.88   -3724.0511            0    10737.474    16.982817    20.003515    20.718997    7038.5752    7951.9225    12061.056    12199.445   -938.74993    513.44476    1309.1595 
  403500    300.11735   -3752.3397   -3237.9489   -3752.3397            0    10169.852    16.954686     19.97038    20.684677    7003.6563    9559.8299    10307.404    10642.321   -833.03249   -1439.5423   -818.37259 
  404000    281.58135   -3770.7517   -3288.1309   -3770.7517            0     9425.657    16.988273    20.009942    20.725654    7045.3618    11653.989    8744.7503    7878.2321    1032.9865   -1253.4762   -317.29922 
  404500    294.01804   -3741.9675   -3238.0306   -3741.9675            0    10648.302    16.985339    20.006486    20.722074    7041.7121    9071.5509    11490.023    11383.333   -3129.4523    234.26003   -128.10009 
  405000    299.21822   -3733.2522   -3220.4024   -3733.2522            0     9393.086    16.970876     19.98945    20.704429    7023.7388    8341.0677    9197.8364    10640.354    358.74734     66.21811   -1673.7262 
  405500    328.51913   -3719.0784   -3156.0078   -3719.0784            0    10434.201    17.042949    20.074343    20.792359    7113.6068     11277.46    9447.0014     10578.14    1653.7264    455.03079    54.678688 
  406000     306.8696   -3710.5825   -3184.6185   -3710.5825            0     9269.664    17.033916    20.063704    20.781338    7102.3019    8374.3763    10080.946    9353.6699   -33.913577    200.70651   -246.60417 
  406500    303.63358   -3709.8198   -3189.4022   -3709.8198            0    10372.792    16.996758    20.019936    20.736005    7055.9232    9732.7643    9837.5316    11548.081   -829.60102   -196.44971   -1169.7554 
  407000    307.38194   -3764.2174   -3237.3753   -3764.2174            0    11378.286     16.91145    19.919454    20.631929    6950.2131    9666.1793    10620.856    13847.823   -701.81751    576.90043    553.38041 
  407500    309.88716   -3735.5708   -3204.4348   -3735.5708            0    8802.2198    16.988762    20.010517     20.72625    7045.9696    9500.6029    8009.0359    8897.0206    968.12776     570.7187    809.43045 
  408000    303.54002   -3742.3369   -3222.0797   -3742.3369            0    9180.4997    16.897409    19.902915    20.614799    6932.9155    7337.8715    9346.9045    10856.723    531.99314    1500.1174    2030.8595 
  408500    318.43433   -3767.6939   -3221.9083   -3767.6939            0    9227.9626    16.955777    19.971665    20.686008    7005.0084    12241.998    7293.9732    8147.9169   -1531.7269    69.903545    130.47646 
  409000    296.62556   -3700.4352   -3192.0291   -3700.4352            0    8988.5676    17.022954    20.050792    20.767964    7088.5987    9649.2672    8261.9362    9054.4993    1114.9007    626.60813   -160.70682 
  409500     304.7144   -3717.5642   -3195.2941   -3717.5642            0    9763.6401    16.924621    19.934968    20.647998    6966.4649    7445.6484    9960.2153    11885.057    -2315.078   -294.19395    410.52658 
  410000    293.85494   -3742.0032   -3238.3459   -3742.0032            0    10294.141    16.971637    19.990347    20.705358    7024.6841    11834.998    9627.4403    9419.9833   -220.00019    -21.49302   -1357.2138 
  410500    307.74174   -3751.6377   -3224.1789   -3751.6377            0    11630.908    16.892547    19.897189    20.608868    6926.9331    9397.7472    10958.437    14536.539   -223.00946    1187.3479    394.21287 
  411000     307.0383    -3711.465   -3185.2119    -3711.465            0    9999.2734    17.011378    20.037156    20.753842    7074.1471    11104.113    9139.1466    9754.5603    1638.8315    1704.0243   -33.877423 
  411500    314.01943   -3740.1341   -3201.9156   -3740.1341            0    10278.464    16.933939    19.945943    20.659366    6977.9771    10122.579    9282.5461    11430.268    936.93322    152.25127   -785.27492 
  412000    307.43409   -3756.4661   -3229.5346   -3756.4661            0    8673.3005     17.03385    20.063625    20.781257    7102.2182    6701.0971    8205.4909    11113.313    335.18831   -1183.4076    1405.5809 
  412500     305.6795   -3749.7586   -3225.8344   -3749.7586            0    10747.068    16.988658    20.010395    20.726123    7045.8404    12392.079    11518.851    8330.2735   -349.53933   -885.40969    296.40297 
  413000    314.99737   -3771.5338   -3231.6391   -3771.5338            0    10234.284    16.891215    19.895621    20.607243    6925.2953     9101.859    9799.4768    11801.518    2022.4869    2076.4097    765.50388 
  413500    295.42677    -3725.911   -3219.5596    -3725.911            0    12015.816    16.872517    19.873596    20.584431    6902.3217     11711.72    10701.223    13634.505    1998.0809   -16.889307    1073.6115 
  414000    297.36308   -3763.4162   -3253.7461   -3763.4162            0     10471.49    16.948074    19.962592     20.67661    6995.4656    10880.257    11316.914    9217.2992    1007.2493   -171.44746    1454.2683 
  414500    290.14674   -3732.1391   -3234.8375   -3732.1391            0    11830.684    16.890634    19.894936    20.606534      6924.58     11426.26    12361.254    11704.537   -212.86922    863.09889    292.57798 
  415000    299.04669   -3754.6457   -3242.0899   -3754.6457            0    11473.998    16.939647    19.952667     20.66633    6985.0365    10482.172     10716.78    13223.044   -333.09088    298.52617   -1294.1422 
  415500    300.22242   -3727.3571   -3212.7862   -3727.3571            0    10612.121    16.896354    19.901673    20.613512     6931.617    11712.342    8803.8638    11320.159    412.44579    469.60788    648.55672 
  416000    303.48608    -3730.584   -3210.4192    -3730.584            0    11835.277    16.898199    19.903846    20.615763    6933.8882    11706.399    10887.732      12911.7   -1554.1864    968.87084   -1467.6978 
  416500    290.52496   -3708.4892   -3210.5394   -3708.4892            0    8719.3679    16.955953    19.971873    20.686223    7005.2268    8619.7909     10131.64    7406.6728    1496.5076    384.56284    617.83849 
  417000    283.55413   -3742.9875   -3256.9854   -3742.9875            0    8978.0246    16.932073    19.943745    20.657089    6975.6709    8344.5201    7751.9258    10837.628     885.4195   -731.97302     1057.677 
  417500    310.18905   -3724.8134     -3193.16   -3724.8134            0    9724.2073    16.950077    19.964952    20.679054    6997.9464    11023.182    8781.3456    9368.0947   -915.24329    282.29741    742.19406 
  418000     271.2571   -3700.5993    -3235.674   -3700.5993            0     9133.913     17.00659    20.031517       20.748    7068.1753    9605.5054    10366.461    7429.7724    495.85839    282.04395    509.06819 
  418500     316.7068   -3703.9365   -3161.1119   -3703.9365            0    10628.184    16.909844    19.917562     20.62997    6948.2331    9134.2609    11293.188    11457.104   -1499.1077    -706.9328   -385.01357 
  419000      283.589   -3723.7469    -3237.685   -3723.7469            0    8883.2755    16.965559    19.983187    20.697942    7017.1389    8436.2688    9275.4588    8938.0988    412.56057   -742.26024   -191.96653 
  419500    327.20662   -3740.5001   -3179.6792   -3740.5001            0    9660.1651    16.966885    19.984749     20.69956    7018.7845    9110.2198    10179.819    9690.4567   -973.88356   -666.24134    1567.8829 
  420000    292.24467   -3721.3149   -3220.4175   -3721.3149            0    11475.094    16.869694    19.870271    20.580987    6898.8578    12718.027    10861.095    10846.161   -158.32881    186.87789   -144.59744 
  420500    315.29518   -3774.7442   -3234.3391   -3774.7442            0    8074.2153    17.022016    20.049687     20.76682    7087.4268     9180.701    8650.0809    6391.8638    524.60337    1129.7465   -227.17161 
  421000    299.38915    -3664.961   -3151.8182    -3664.961            0    10156.218    16.997964    20.021357    20.737477    7057.4261    11161.498     8565.925    10741.231   -1314.7601    1017.0546   -821.48351 
  421500    322.29486   -3736.6222   -3184.2198   -3736.6222            0    8836.0306    17.017409    20.044261      20.7612    7081.6741    9398.3721    9345.6894    7764.0303    349.09727   -1304.7474    945.20179 
  422000    296.65731   -3710.0422   -3201.5817   -3710.0422            0    10906.357    16.948675      19.9633    20.677344    6996.2098    13328.741    10221.774     9168.556    516.21743   -1038.8675   -1435.9949 
  422500    281.55384   -3719.0851   -3236.5114   -3719.0851            0    9096.7841    17.038762    20.069411     20.78725    7108.3645    7270.3325    9984.2945    10035.725   -1183.7236   -191.51232     535.5691 
  423000    302.11537   -3715.3086   -3197.4932   -3715.3086            0     7336.579    17.041703    20.072875    20.790838    7112.0463    7577.9849    8762.8868    5668.8653   -1030.2292    663.79492    150.83786 
  423500    301.32751   -3718.5517   -3202.0866   -3718.5517            0    9651.8364     16.92778    19.938689    20.651853    6970.3669    13307.976    7561.7175    8085.8152   -358.47876   -2150.4687   -892.86276 
  424000    292.44826   -3745.6163     -3244.37   -3745.6163            0    9606.4204    16.933401    19.945309    20.658709    6977.3118    11311.381     9459.685     8048.195   -910.50407   -1195.5736   -538.85846 
  424500    300.22878   -3684.5929   -3170.0111   -3684.5929            0    9918.5999    16.939848    19.952903    20.666575    6985.2845    9433.3867    10360.847    9961.5655   -1044.0985    230.73749   -1158.3923 
  425000    317.05517   -3714.1127    -3170.691   -3714.1127            0    9638.4267    16.986129    20.007417    20.723038    7042.6946    9949.7873     9014.662    9950.8309    1206.5354    279.57856   -1493.0833 
  425500    294.09161   -3741.2895   -3237.2265   -3741.2895            0    9896.1736    16.987903    20.009506    20.725202    7044.9014    9064.7608    11115.173    9508.5869   -1577.4505    884.66922   -50.391242 
  426000    303.71381   -3706.8986   -3186.3435   -3706.8986            0    7783.9282    17.048312    20.080659    20.798901    7120.3235    7483.4808    7301.2378    8567.0661    107.02577   -108.77306    556.00299 
  426500    299.75859    -3712.215    -3198.439    -3712.215            0     11418.25    16.888344    19.892238     20.60374    6921.7635    9456.4071    11476.538    13321.804    810.37074   -412.40821   -1110.8522 
  427000    293.48857   -3721.2013   -3218.1719   -3721.2013            0    9094.5772    16.966473    19.984265    20.699058    7018.2743    10093.888     7810.364      9379.48    523.61957   -170.98451    416.35623 
  427500    311.43381   -3704.3118   -3170.5249   -3704.3118            0    9198.3222     16.99263    20.015073    20.730969    7050.7833    9054.7651    10486.788    8053.4131      47.7141    230.08015   -1500.4574 
  428000    295.07814   -3699.2298    -3193.476   -3699.2298            0    10075.605    16.988703    20.010448    20.726177    7045.8959    10127.289     9058.258    11041.269   -1225.8853   -1083.3695   -1362.2113 
  428500    319.75601   -3685.8982   -3137.8473   -3685.8982            0    10734.633    16.937561     19.95021    20.663785     6982.456    10772.239    9288.1356    12143.524    600.21108      749.383    176.07597 
  429000    286.06251   -3700.5726   -3210.2712   -3700.5726            0    8070.1607    16.987101    20.008561    20.724223    7043.9029    9734.4978    5221.5958    9254.3886    309.12952   -1135.9814   -812.75286 
  429500    305.10412   -3736.0175   -3213.0795   -3736.0175            0    8982.5881    17.012294    20.038235    20.754959    7075.2894    5049.8371    10516.155    11381.772    -455.6624   -990.04783     600.3074 
  430000    285.64991   -3758.8945   -3269.3003   -3758.8945            0    10110.823    16.984839    20.005897    20.721464    7041.0899    9694.3918    8622.0653    12016.013   -403.63635    646.54522   -480.34427 
  430500     295.0113   -3736.5197   -3230.8804   -3736.5197            0    8253.5275    17.013649    20.039832    20.756613     7076.981    6980.4325    9031.6232    8748.5269   -2755.8694   -264.51114   -2164.1394 
  431000    310.69075   -3730.1177   -3197.6044   -3730.1177            0    9540.8516    17.017757     20.04467    20.761623    7082.1076    9568.3389    9751.9461    9302.2698   -1180.3222    663.60155   -1069.3335 
  431500    308.72778   -3744.3297   -3215.1808   -3744.3297            0    9607.9264    17.036151    20.066336    20.784065    7105.0979    10025.132    9985.4639    8813.1833    581.48894     37.78613    1576.9039 
  432000    300.93377   -3722.1511   -3206.3609   -3722.1511            0    12217.123    16.967079    19.984978    20.699796    7019.0254    11225.781    11253.221    14172.367   -961.31537   -153.09614   -1306.0249 
  432500     293.7751    -3715.957   -3212.4366    -3715.957            0    10678.793    16.917184    19.926208    20.638925     6957.285    12918.892    8112.0253    11005.462   -402.59241    462.55825   -454.01998 
  433000    306.68603   -3738.5491   -3212.8998   -3738.5491            0    8368.4823    17.016396    20.043067    20.759964    7080.4095    7022.6432    7544.8417    10537.962    -1318.592   -117.08835   -1491.0618 
  433500    297.17808   -3726.7935   -3217.4405   -3726.7935            0    9604.8565    16.921868    19.931725     20.64464    6963.0659    11540.788    8945.1222    8328.6597    -538.5062    1066.9294    572.49669 
  434000    309.05188   -3733.6546   -3203.9502   -3733.6546            0    10562.777    16.930492    19.941883     20.65516    6973.7167    8647.7522    11697.128     11343.45   -384.78396    471.08701    371.38438 
  434500    292.81843   -3693.9492   -3192.0684   -3693.9492            0     8068.277    17.006855    20.031828    20.748323    7068.5051    7908.1185    7455.3555    8841.3571    -458.2654    1051.3084    788.48239 
  435000     296.1949    -3731.325   -3223.6571    -3731.325            0    9826.6317    16.946995    19.961322    20.675294    6994.1299    8905.2219    11124.128    9450.5452    1326.6455    700.83763    2171.2808 
  435500     275.3352   -3733.0145   -3261.0994   -3733.0145            0    9409.9129    16.913763    19.922179    20.634752    6953.0658    9632.8862    9108.3322    9488.5202    131.66669    13.309803    645.64053 
  436000    281.27806   -3702.2877   -3220.1867   -3702.2877            0    8744.9433     16.99868    20.022199     20.73835     7058.317    9832.8193    8424.2759    7977.7348   -49.814021    257.58728    649.76267 
  436500    299.99049   -3724.0395   -3209.8661   -3724.0395            0    9743.4376    16.976896    19.996541    20.711773    7031.2159    11443.326    8766.4154    9020.5717    1047.5472    327.19516    3010.7577 
  437000    309.69288   -3714.4122   -3183.6092   -3714.4122            0    10403.021     16.90939    19.917028    20.629417    6947.6739    8933.9931    12094.831     10180.24   -71.961662    569.23208   -195.48445 
  437500    308.13994   -3722.0659   -3193.9246   -3722.0659            0    10853.187    16.959615    19.976186     20.69069    7009.7662     10744.65    10591.042    11223.868    773.68434    1381.5396     736.7698 
  438000    304.07793   -3723.7173   -3202.5381   -3723.7173            0    10756.755    16.963917    19.981254     20.69594    7015.1028    9500.8657    11553.968    11215.432    2371.5045   -956.85168    509.42002 
  438500    316.01321    -3747.482   -3205.8461    -3747.482            0    9776.8984    16.984473    20.005465    20.721017    7040.6345    8309.9515    8131.0804    12889.663    2437.9451    421.12486    1950.1625 
  439000    314.91104   -3726.3369   -3186.5902   -3726.3369            0    8779.1276    16.976719    19.996333    20.711558    7030.9968    10368.544     5681.413    10287.426    308.16207    472.57266    215.93522 
  439500    307.21585   -3726.3008   -3199.7434   -3726.3008            0     9538.151    16.958526    19.974904    20.689363    7008.4168    11364.001    6603.3442    10647.108    263.98523    1296.1175   -2075.3901 
  440000    295.71464   -3740.0706   -3233.2258   -3740.0706            0    9123.1817    16.968687    19.986871    20.701758    7021.0209    9496.8618    9571.1856    8301.4977     -66.0241    1610.8667   -1216.1574 
  440500    282.61553   -3761.7995   -3277.4061   -3761.7995            0    11022.158    16.929449    19.940654    20.653888    6972.4278    10460.749    13076.732    9528.9933    2013.5308   -1340.1915   -2661.4114 
  441000    283.69004   -3743.8138   -3257.5788   -3743.8138            0     9745.132    16.874531    19.875969    20.586889    6904.7942    11991.628    6854.6736    10389.094   -285.97019   -1185.4033   -924.05224 
  441500    292.26055   -3790.7216    -3289.797   -3790.7216            0    9942.5685    16.915283    19.923969    20.636605    6954.9397    9802.6567    8709.0871    11315.962    626.88665    1566.4488    693.42614 
  442000    296.19501   -3734.6113   -3226.9432   -3734.6113            0    10396.716    17.005569    20.030314    20.746754    7066.9019    12594.598    9186.6242    9408.9255    19.765494   -1362.4928   -561.32769 
  442500    293.29767   -3709.6319   -3206.9297   -3709.6319            0    10712.105    16.931335    19.942876    20.656189    6974.7588    11485.466    11091.754    9559.0953   -1296.0222   -88.059029    71.644947 
  443000    294.84378   -3696.2377   -3190.8856   -3696.2377            0    9407.7151    17.010826    20.036506    20.753168    7073.4582    8288.8464    11584.595    8349.7045   -1343.7927    718.67438   -53.644424 
  443500    312.25717   -3715.0366   -3179.8384   -3715.0366            0    9516.0881    17.015176     20.04163    20.758475     7078.886    10504.895    8145.9061    9897.4634    611.27418    1714.0362   -1076.9532 
  444000    287.13871   -3719.8612   -3227.7153   -3719.8612            0    7720.0849    16.968757    19.986954    20.701843    7021.1078      8657.24    6582.1144    7920.9004   -772.60945    34.792058    1099.1275 
  444500    297.85891    -3806.138    -3295.618    -3806.138            0     9645.282    16.956934    19.973028     20.68742    7006.4428    8802.8531     10075.44    10057.552    570.15179   -2221.5744     520.0923 
  445000    289.25816   -3729.3482   -3233.5696   -3729.3482            0    12873.743    16.839952    19.835239    20.544702    6862.4336    13545.065    10979.923    14096.239    865.51157    480.64619     439.6788 
  445500    306.66379    -3710.928   -3185.3167    -3710.928            0    10626.114    16.940518    19.953693    20.667393     6986.114    10889.766    12160.422     8828.154    1220.9269   -713.19708    661.11025 
  446000    298.06614   -3693.6668   -3182.7917   -3693.6668            0    9954.6427    16.941888    19.955307    20.669064    6987.8093    9873.5729    9000.9096    10989.446    511.45503    420.15282   -2065.8024 
  446500    305.02922   -3725.2687    -3202.459   -3725.2687            0    9306.7622    17.005084    20.029743    20.746163     7066.298    10109.699    6591.6436    11218.944   -1608.1672    246.47333   -2239.6699 
  447000    298.13226   -3704.1784   -3193.1899   -3704.1784            0    10423.314    16.967444    19.985408    20.700242    7019.4786     10055.65    9810.2466    11404.044    784.06482   -518.40005    70.467159 
  447500    305.57876   -3669.6115   -3145.8599   -3669.6115            0    12298.914    16.839131    19.834272      20.5437    6861.4292    11426.079    14327.777    11142.886    387.05774    712.49469    216.57847 
  448000    303.42228    -3718.463   -3198.4076    -3718.463            0    8178.0884    16.977213    19.996915    20.712161    7031.6104    6810.5996    7909.9386    9813.7271   -1450.0974   -214.21413   -1007.4257 
  448500    295.70023   -3751.1201      -3244.3   -3751.1201            0    9866.9388    16.988755    20.010509    20.726241    7045.9607    9645.1829    10428.956     9526.677    128.52664   -762.25899   -296.60119 
  449000    285.51937   -3711.5858   -3222.2153   -3711.5858            0    9479.4307    16.956841    19.972919    20.687307     7006.328    8774.8388    9837.6405    9825.8127    1054.2945   -253.36628    1392.0564 
  449500    299.44738   -3699.6563   -3186.4137   -3699.6563            0     9316.155    16.988636    20.010369    20.726096    7045.8129    7630.4457    10084.971    10233.049   -444.23566   -1389.7445   -489.35014 
  450000    297.34747   -3745.0127   -3235.3693   -3745.0127            0    9203.4027    16.996918    20.020124      20.7362    7056.1228    10783.554     8492.864      8333.79    689.65594     474.7176    919.25001 
  450500    292.56242   -3737.8739    -3236.432   -3737.8739            0    9535.1858    16.937079    19.949642    20.663197    6981.8599     10216.07     8784.514     9604.973    166.29135    204.76163    903.79029 
  451000     290.5467   -3759.5044   -3261.5173   -3759.5044            0      8786.98    16.980587    20.000889    20.716277    7035.8034    8588.9369    9340.7599    8431.2433    783.29686   -1.7526213   0.44020925 
  451500    300.52247   -3705.9538   -3190.8686   -3705.9538            0    9089.0815    17.008546     20.03382    20.750386    7070.6142    8451.6663    11211.246    7604.3321    -640.5521    1114.5983   -488.59411 
  452000    299.02901   -3737.2622   -3224.7367   -3737.2622            0    10740.685    16.967181    19.985098    20.699922    7019.1527       9837.3    10052.029    12332.726   -612.14403   -1766.5546    1583.7882 
  452500    298.39761   -3713.4383   -3201.9951   -3713.4383            0     9681.908    16.990328    20.012362     20.72816    7047.9182    9738.3374    7655.9602    11651.426    910.26228    1913.3827   -1059.6237 
  453000    292.51703   -3733.5671   -3232.2029   -3733.5671            0    9524.9614     17.03505    20.065039    20.782721    7103.7199    9319.1546    10624.407    8631.3231   -215.02092   -385.32401   -505.93961 
  453500    297.81943   -3656.3756   -3145.9233   -3656.3756            0    11124.363    16.960218    19.976896    20.691426    7010.5137    12344.474    9878.9319    11149.685    114.72789    3.7689363    340.71188 
  454000     325.9225   -3686.6393   -3128.0193   -3686.6393            0    10138.898    16.975521    19.994922    20.710096    7029.5084    9807.3867    11042.344    9566.9645    1233.7107     2049.997    1789.7161 
  454500    303.19013   -3723.8792   -3204.2217   -3723.8792            0    9271.6814    16.970697    19.989239    20.704211    7023.5169    10097.673      8016.16    9701.2108   -1568.2453    1304.3944   -777.27876 
  455000    304.63802   -3703.2868   -3181.1477   -3703.2868            0    11069.615      16.9373    19.949902    20.663466    6982.1327    12048.802    11480.104    9679.9389    -435.0947    1430.3571    118.00271 
  455500    287.09875   -3723.9485   -3231.8711   -3723.9485            0    8651.8997    16.955956    19.971876    20.686226    7005.2302    8149.7008    8830.7553     8975.243   -16.156111   -404.25773    567.07287 
  456000    293.81244   -3704.2634   -3200.6789   -3704.2634            0    11287.876    16.971566    19.990263    20.705271    7024.5959    9677.5863    15526.359    8659.6822    1021.0607   -128.12504   -162.74661 
  456500    293.79426   -3724.8089   -3221.2556   -3724.8089            0    9109.3695    16.949169    19.963883    20.677947    6996.8222    9194.7032    8258.4713     9874.934   -1996.5165    809.09607    335.60221 
  457000    300.75712   -3734.6003   -3219.1129   -3734.6003            0     10122.96    16.997371    20.020658    20.736753    7056.6867    11352.868    8904.5119      10111.5     532.6386   -472.93183   -991.16167 
  457500    300.11319   -3703.6195   -3189.2358   -3703.6195            0    10992.605    16.970085    19.988518    20.703464    7022.7566    11323.944    10165.013    11488.856   -426.63787    309.58888   -668.47474 
  458000    305.34989   -3727.1628   -3203.8036   -3727.1628            0    10740.592    16.960288    19.976979    20.691512    7010.6013    10174.018    8888.8488     13158.91    1296.2766   -491.83284   -993.48108 
  458500    298.78809   -3729.5895    -3217.477   -3729.5895            0    10482.792    16.991506    20.013749    20.729597    7049.3844     9549.037    9427.5015    12471.837    193.46329   -1080.3899    101.56523 
  459000    281.07568   -3720.3802   -3238.6261   -3720.3802            0    9810.6319    17.024656    20.052796    20.770041    7090.7248    11455.293    8418.6204    9557.9823    4.1879709   -1824.2581   -688.49677 
  459500     289.5717   -3766.9638   -3270.6478   -3766.9638            0    11006.155    16.889605    19.893724    20.605279    6923.3152    9820.2014    10433.765    12764.499    1203.9094   -107.86897    140.37319 
  460000    302.65697   -3688.0001   -3169.2564   -3688.0001            0    11100.287    17.024898    20.053081    20.770335    7091.0268    11269.104    11289.538    10742.219    422.68553   -503.65126   -414.03228 
  460500    297.84519   -3702.5711   -3192.0747   -3702.5711            0    9023.2996    16.957078    19.973198    20.687595     7006.621    8669.7445    8085.2332    10314.921      33.8796    172.46488    130.14656 
  461000    296.02346   -3711.3534   -3203.9793   -3711.3534            0    9889.9102    16.956584    19.972616    20.686992    7006.0084    9970.7021    10704.163    8994.8659     448.3829    236.59622   -333.45068 
  461500    295.22008   -3712.2063   -3206.2092   -3712.2063            0    11716.159    16.891782    19.896288    20.607934    6925.9917    10832.638    13035.091    11280.748   -847.47623    452.64858   -392.13331 
  462000     304.7867   -3678.2252   -3155.8312   -3678.2252            0    9412.4855    16.928378    19.939393    20.652581    6971.1049    9132.5595    10600.558    8504.3386    747.47904    1238.7599   -1490.5217 
  462500    315.08001   -3668.7213    -3128.685   -3668.7213            0    11223.929    16.837257    19.832064    20.541414    6859.1389    12225.158    10733.658    10712.971   -1355.3466    803.82291    347.18362 
  463000    299.05685   -3722.5549   -3209.9817   -3722.5549            0    9026.9918    16.936675    19.949166    20.662704    6981.3602    9545.0446    8790.3746    8745.5564   -1173.5917     945.8289    938.45212 
  463500    314.48653   -3713.5102    -3174.491   -3713.5102            0    10886.692    16.880553    19.883062    20.594236    6912.1894    11838.844    10349.426    10471.806   -134.32786    1475.1432    1592.0096 
  464000    306.92307   -3703.7445   -3177.6889   -3703.7445            0    10068.445    16.899888    19.905836    20.617824    6935.9676    9752.1615    9053.7258    11399.448    -1508.955    2147.3513   -651.10676 
  464500    287.67351   -3789.2139   -3296.1514   -3789.2139            0    10104.364    16.933982    19.945995    20.659419    6978.0312    10367.245    9466.3801    10479.465   -2133.1389    354.23253   -1093.5025 
  465000    285.59547   -3736.7699    -3247.269   -3736.7699            0    9946.6311    16.934212    19.946265    20.659699    6978.3152    10143.735    10362.704    9333.4543    1224.2109   -1740.2128   -113.64974 
  465500    289.76319   -3729.9032    -3233.259   -3729.9032            0    10563.176     16.93698    19.949525    20.663076    6981.7373    9145.3562    11573.573    10970.599     1039.076    1565.1747   -352.54719 
  466000    312.82255    -3780.771   -3244.6039    -3780.771            0    9430.6002     16.93924    19.952187    20.665833    6984.5324     5268.025     10936.97    12086.806     188.8647   -39.230431    36.976408 
  466500    281.20942   -3721.1244   -3239.1411   -3721.1244            0    8290.4196    17.011074    20.036798    20.753471    7073.7677    7682.6884    10205.962    6982.6088   -188.65395   -769.12185   -792.25977 
  467000    305.16395    -3720.342   -3197.3014    -3720.342            0    10111.029    16.959848    19.976461    20.690975    7010.0554    10166.111    9689.6876    10477.288    2226.9421   -756.34082   -425.76302 
  467500    312.60237   -3766.3232   -3230.5335   -3766.3232            0    11279.484     16.84781    19.844495    20.554289    6872.0443    10608.549    11586.744    11643.158   -374.03342    1096.9107   -218.44831 
  468000    289.05774   -3711.7473   -3216.3122   -3711.7473            0    9011.6268    16.886933    19.890576    20.602019     6920.029    8653.8876    10753.817    7627.1753    386.01806   -590.45664   -1121.2414 
  468500    301.04017   -3739.7193   -3223.7467   -3739.7193            0     8716.098    16.949603    19.964393    20.678476    6997.3591    7485.0005    9968.1739    8695.1197   -564.45416    534.11664   -1323.9609 
  469000    297.31081    -3713.519   -3203.9384    -3713.519            0    9842.9534    16.987039    20.008489    20.724148    7043.8269    9976.4325     10714.27    8838.1573    -623.6895   -2269.6325   -238.67918 
  469500    292.58635    -3714.424    -3212.941    -3714.424            0    12815.342    16.888544    19.892474    20.603984    6922.0096    12593.618    14415.834    11436.574   -17.888307   -727.05074   -1153.5601 
  470000    309.71652    -3757.691   -3226.8475    -3757.691            0    9778.1815    17.008169    20.033377    20.749927    7070.1445    10301.915    10659.086    8373.5434   -1616.2354   -1526.2049    529.62059 
  470500    298.12286   -3766.6809   -3255.7085   -3766.6809            0    11272.781    16.903307    19.909863    20.621995    6940.1787    11225.222    11838.015    10755.105   -2564.0359    565.33967   -130.72554 
  471000    304.59704    -3694.941    -3172.872    -3694.941            0    8926.6838     17.01523    20.041693     20.75854     7078.953    9371.5337    8534.9202    8873.5974    -618.5078    1183.7845   -710.05657 
  471500    300.85674   -3693.2594   -3177.6013   -3693.2594            0     11758.63    16.921041    19.930751     20.64363    6962.0446     11309.93    11728.358      12237.6   -491.02606    424.69469   -359.18226 
  472000    312.26324   -3709.3352   -3174.1267   -3709.3352            0    6744.8265    17.089487    20.129158    20.849134     7172.039    7123.9098    7449.4287     5661.141    906.01045    1028.7962   -1299.3957 
  472500    291.74659    -3707.516   -3207.4723    -3707.516            0    10690.204    16.992474     20.01489    20.730779      7050.59    11541.265    9513.3852    11015.963   -525.70321   -1043.6839    1091.6291 
  473000     298.9068   -3717.0141   -3204.6981   -3717.0141            0    9048.2808    16.948093    19.962614    20.676633    6995.4889    9550.5933    9277.8346    8316.4146    371.83502    153.51125    233.75431 
  473500    301.70525   -3730.0925     -3212.98   -3730.0925            0    10616.149    16.906596    19.913737    20.626008    6944.2308    9630.0388    11421.889     10796.52    71.204947    57.897583   -364.35472 
  474000     292.9408    -3743.657   -3241.5665    -3743.657            0    10384.552    16.931005    19.942487    20.655786    6974.3505    9408.6767    10107.528    11637.451    2234.2016    206.34689   -1214.4402 
  474500    311.52291   -3743.3712   -3209.4316   -3743.3712            0    10625.712    16.981898    20.002433    20.717876    7037.4332    11884.781    10686.167      9306.19    1074.6971    -1570.673   -594.06523 
  475000     302.0787   -3720.1298   -3202.3772   -3720.1298            0    9911.3829    16.945358    19.959394    20.673297    6992.1035    8959.1725    12228.513    8546.4626    567.70577    288.08028    159.02343 
  475500    284.59563     -3741.06   -3253.2729     -3741.06            0    9706.4489    16.915283    19.923969    20.636606    6954.9404    9331.9342    9883.0491    9904.3635    772.46805   -1047.0448    970.10124 
  476000    307.16603    -3728.257    -3201.785    -3728.257            0    7652.2066    16.953488    19.968969    20.683216    7002.1718    6818.3027    7526.9899    8611.3272    213.35843   -281.41457     289.4316 
  476500    282.14604   -3746.6308   -3263.0422   -3746.6308            0    11438.135    16.972595    19.991475    20.706527     7025.874    11955.717    10315.404    12043.283   -597.18698    1056.2451   -796.73519 
  477000    310.13296   -3715.9936   -3184.4363   -3715.9936            0    8097.1156     17.03722    20.067594    20.785368    7106.4343     6601.071    9165.0252    8525.2508   -1249.8452    1490.3421    1911.0938 
  477500    300.75153   -3709.5314   -3194.0535   -3709.5314            0    10907.572    16.965372    19.982967    20.697714    7016.9076    10568.258    10681.864    11472.593    64.573697   -1031.0753   -368.78064 
  478000    287.88457   -3722.1838   -3228.7595   -3722.1838            0    8784.8536    16.951236    19.966317    20.680469    6999.3826    11064.175    6457.6775     8832.708   -507.62364   -22.251502   -1823.7118 
  478500    312.20317   -3725.9297   -3190.8241   -3725.9297            0    9533.7869    16.949248    19.963976    20.678043    6996.9199    9287.4211    10007.737     9306.203    24.802596    309.21306   -199.64946 
  479000    311.80166   -3756.7672   -3222.3498   -3756.7672            0    8908.2563     16.97089    19.989467    20.704447     7023.757    9992.9769    8924.3682    7807.4238    416.51151   -663.24132    952.17512 
  479500    272.04881   -3751.8718   -3285.5894   -3751.8718            0    8229.7193    16.967429     19.98539    20.700223    7019.4597    8330.6648    9517.4919    6841.0012   -1905.4292   -908.39151   -568.94552 
  480000    286.71363   -3707.9284   -3216.5111   -3707.9284            0    11241.605    16.906491    19.913613    20.625879    6944.1004      10540.9    10414.542    12769.372     2071.621     1278.021    1472.7421 
  480500    296.44566   -3716.9915   -3208.8938   -3716.9915            0    8280.4308    17.029515     20.05852    20.775969    7096.7982    6880.4849    9893.9812    8066.8262   -239.46831    96.629082    563.56426 
  481000    287.44575   -3761.7052    -3269.033   -3761.7052            0    8262.7581    17.004284    20.028801    20.745187     7065.301    8427.6785    8984.2565    7376.3394   -1027.0366   -542.85227    678.69766 
  481500    288.80413   -3725.1168   -3230.1164   -3725.1168            0    10703.176    16.868065    19.868353       20.579    6896.8602    12500.675    11720.646    7888.2066   -1152.6662   -531.30327    256.39726 
  482000    283.35404   -3744.8103   -3259.1511   -3744.8103            0    11118.826    16.933204    19.945078    20.658469    6977.0689     8278.727    12791.882     12285.87    1300.9014   -464.20502    362.58253 
  482500    308.82181   -3726.2757   -3196.9657   -3726.2757            0    11106.886    16.962434    19.979507     20.69413    7013.2629    11318.291    9317.7659    12684.603   -122.77754    1475.9704   -64.200943 
  483000    279.07646   -3722.4256   -3244.0981   -3722.4256            0    9105.3611    16.985273    20.006409    20.721994    7041.6303    9673.1546    8715.0886    8927.8401    632.53904   -1081.5506      156.241 
  483500    307.28986   -3737.0149   -3210.3306   -3737.0149            0    9337.6049    16.924276    19.934562    20.647578    6966.0391    9866.6835    7312.1264    10834.005   -361.61251   -1808.0435   -1643.1358 
  484000    298.96832   -3746.1922   -3233.7708   -3746.1922            0    9523.7711    16.937834    19.950531    20.664118    6982.7939    9132.5457    8902.7373     10536.03    51.442233   -1863.7586   -1600.0362 
  484500     302.1691   -3738.7448   -3220.8373   -3738.7448            0    10234.529    16.928528     19.93957    20.652765    6971.2906    9663.1937    11136.211    9904.1812     169.0942    384.86418    196.11923 
  485000     301.8646   -3736.3374   -3218.9518   -3736.3374            0    9881.7569    16.957259    19.973411    20.687816    7006.8453    11101.807     8344.456    10199.007   -613.72502    880.65635   -1449.4771 
  485500    314.38439   -3730.2561    -3191.412   -3730.2561            0    9762.7701    16.960338    19.977038    20.691573    7010.6632    9393.2817    8711.3405    11183.688    860.05331   -628.31852   -443.07201 
  486000    309.83532   -3754.6274   -3223.5803   -3754.6274            0    9373.2402    16.979515    19.999626    20.714969    7034.4711    8129.5788    9796.5841    10193.558    1080.0547    927.83268    1355.9527 
  486500    290.98209   -3696.7317   -3197.9984   -3696.7317            0    10199.165    16.935245    19.947482    20.660959     6979.592    10089.348    9954.0883     10554.06    745.04887    50.159394    1875.8581 
  487000    307.67367   -3739.7602   -3212.4181   -3739.7602            0    10216.653    17.010003    20.035537    20.752164    7072.4319    9284.1869    10028.153    11337.618   -254.89491    550.25946   -186.85127 
  487500    300.03347   -3750.2609   -3236.0138   -3750.2609            0    9942.3577    16.967182    19.985099    20.699922     7019.153    10491.478    9844.7584    9490.8363   -545.98965   -790.18486    25.426142 
  488000    310.87719   -3744.6163   -3211.7834   -3744.6163            0    9818.2523    16.902602    19.909033    20.621135    6939.3103    8652.1249    11887.682    8914.9497   -474.05205   -456.57826   -739.46012 
  488500    308.39226   -3716.7025   -3188.1287   -3716.7025            0    11999.044    16.895248    19.900371    20.612163    6930.2568    10688.948    12093.359    13214.825    -1016.528   -333.95249    1319.6033 
  489000    285.32172   -3728.1648   -3239.1331   -3728.1648            0    10844.817    16.980282    20.000529    20.715904     7035.424    10688.239    10382.996    11463.217    827.82712    1276.1475    845.21098 
  489500    317.69709    -3728.502     -3183.98    -3728.502            0     10758.58    16.939195    19.952134    20.665779    6984.4772    8983.1223     12066.08    11226.538   -1608.8923    1.5865442    119.94891 
  490000    303.48075   -3733.9227    -3213.767   -3733.9227            0    7298.7567    17.082267    20.120654    20.840325    7162.9525    6658.1533    6745.4584    8492.6583   -286.33572    1049.2674    453.71058 
  490500    292.10075   -3722.5422   -3221.8915   -3722.5422            0     10327.86    17.014961    20.041377    20.758213    7078.6179    10144.775     10288.06    10550.746   -291.07568   -2595.7246   -996.20401 
  491000      307.785   -3748.2657   -3220.7327   -3748.2657            0    9133.2373    17.068666    20.104634    20.823733     7145.857    8852.8691    8914.1016    9632.7413   -1996.8774    239.39322    592.81723 
  491500    310.06007   -3742.4609   -3211.0286   -3742.4609            0    9427.3644     16.95141    19.966522    20.680681    6999.5976    8166.3493    9859.0666    10256.677   -563.02586    57.152663   -1498.3747 
  492000    303.74464   -3698.2774   -3177.6695   -3698.2774            0    10890.809    16.915373    19.924075    20.636716    6955.0514    9032.6405    12647.904    10991.884    177.76327   -516.03827    575.48684 
  492500     291.2711   -3743.5214   -3244.2927   -3743.5214            0    9006.5234    16.971989    19.990762    20.705787    7025.1214    9964.5713     8500.217     8554.782   -1425.4994   -1117.6572     1144.729 
  493000    294.71353   -3739.0365   -3233.9075   -3739.0365            0    10070.521     16.93533    19.947582    20.661063    6979.6974    10155.151    9046.7923    11009.621   -870.84543    559.10937    471.66894 
  493500     288.9282   -3702.6346   -3207.4215   -3702.6346            0    9241.6355    16.992084    20.014431    20.730303    7050.1043     9963.772    8926.0024    8835.1319    701.15447    376.59717    -1674.088 
  494000    310.86375   -3703.3926   -3170.5828   -3703.3926            0    9557.9643    16.954724    19.970425    20.684723    7003.7032    11273.152    7683.3477    9717.3937   -547.90756    76.059658   -289.18096 
  494500    291.04981   -3687.6575   -3188.8081   -3687.6575            0    10252.982     17.00007    20.023837    20.740045    7060.0486    10315.718    8311.7398    12131.487    962.59617    230.40233    1260.0924 
  495000    303.09913   -3738.2609   -3218.7594   -3738.2609            0    10748.117    16.983893    20.004783     20.72031    7039.9136    11249.051    11370.867    9624.4329    748.87493    1129.7869   -611.11574 
  495500    295.33989   -3785.2471   -3279.0447   -3785.2471            0    8080.8306    16.975365    19.994737    20.709905    7029.3136    9205.6834    7362.8139    7673.9944    547.64982    250.49754    898.51283 
  496000    303.29626   -3724.1611   -3204.3217   -3724.1611            0    7314.2244    17.034078    20.063893    20.781535    7102.5033    7522.9206    7749.3779    6670.3749    3.2782281   -1392.1736   -310.94967 
  496500    298.68758   -3727.5291   -3215.5888   -3727.5291            0    7350.8389    17.031141    20.060435    20.777953    7098.8311    9115.6813    6561.6663    6375.1691   -38.420061    1273.1094    27.409399 
  497000    308.40271   -3764.7685   -3236.1768   -3764.7685            0    10917.754    16.948584    19.963194    20.677233     6996.098    12293.395    9278.9667      11180.9   -1350.7557   -830.19636   -1476.5107 
  497500    300.33538   -3727.0082   -3212.2436   -3727.0082            0    10578.297    16.923677    19.933856    20.646846    6965.2988    11516.226    9855.0522    10363.613    19.077186   -800.17668   -306.35124 
  498000    316.14146   -3709.8032   -3167.9476   -3709.8032            0    10553.901    16.888191    19.892058    20.603553    6921.5758    9654.6819    10593.943    11413.076   -50.039137    625.69311   -602.21785 
  498500    293.96471   -3703.0467   -3199.2012   -3703.0467            0    9401.9425     17.08799    20.127396    20.847308    7170.1553    10210.348    8733.1612    9262.3178   -70.748542    -1063.894   -146.50124 
  499000    290.92253   -3718.6506   -3220.0193   -3718.6506            0    11909.059    16.933703    19.945666    20.659079    6977.6862    10751.563    12711.007    12264.607    2149.6757   -398.82099   -314.62076 
  499500    298.57198   -3737.3386   -3225.5964   -3737.3386            0    9586.0047    16.992222    20.014593    20.730471    7050.2753    11755.238     8672.994    8329.7819     369.2318   -72.089805    159.74072 
  500000    311.19965   -3750.6055   -3217.2199   -3750.6055            0    11483.251    16.935906     19.94826    20.661765    6980.4091    10491.788    11917.297    12040.668    487.20922    -1021.169   -96.841446 
Loop time of 1758.14 on 32 procs for 500000 steps with 864 atoms

Performance: 49.143 ns/day, 0.488 hours/ns, 284.391 timesteps/s
3161.3% CPU use with 1 MPI tasks x 32 OpenMP threads

MPI task timing breakdown:
Section |  min time  |  avg time  |  max time  |%varavg| %total
---------------------------------------------------------------
Pair    | 202.11     | 202.11     | 202.11     |   0.0 | 11.50
Bond    | 26.093     | 26.093     | 26.093     |   0.0 |  1.48
Kspace  | 1023.2     | 1023.2     | 1023.2     |   0.0 | 58.20
Neigh   | 24.784     | 24.784     | 24.784     |   0.0 |  1.41
Comm    | 92.217     | 92.217     | 92.217     |   0.0 |  5.25
Output  | 2.7947     | 2.7947     | 2.7947     |   0.0 |  0.16
Modify  | 385.16     | 385.16     | 385.16     |   0.0 | 21.91
Other   |            | 1.762      |            |       |  0.10

Nlocal:        864.000 ave         864 max         864 min
Histogram: 1 0 0 0 0 0 0 0 0 0
Nghost:        7553.00 ave        7553 max        7553 min
Histogram: 1 0 0 0 0 0 0 0 0 0
Neighs:        282929.0 ave      282929 max      282929 min
Histogram: 1 0 0 0 0 0 0 0 0 0

Total # of neighbors = 282929
Ave neighs/atom = 327.46412
Ave special neighs/atom = 2.0000000
Neighbor list builds = 35342
Dangerous builds = 8

unfix		3
unfix		2
unfix		1

write_data	data.final.${pid}
write_data	data.final.0
System init for write_data ...
PPPM initialization ...
  extracting TIP4P info from pair style
  using 12-bit tables for long-range coulomb (../kspace.cpp:340)
  G vector (1/distance) = 0.3744516
  grid = 24 24 24
  stencil order = 5
  estimated absolute RMS force accuracy = 0.0031393925
  estimated relative force accuracy = 9.4541874e-06
  using single precision MKL FFT
  3d grid and FFT values/proc = 31713 13824
  generated 0 of 1 mixed pair_coeff terms from geometric mixing rule
Last active /omp style is kspace_style pppm/tip4p/omp
WARNING: Not all mixed pair coeffs generated from mixing. Use write_data with 'pair ij' option to store all pair coeffs. (../write_data.cpp:309)

write_restart   restart.lmp.${pid}
write_restart   restart.lmp.0
System init for write_restart ...
PPPM initialization ...
  extracting TIP4P info from pair style
  using 12-bit tables for long-range coulomb (../kspace.cpp:340)
  G vector (1/distance) = 0.3744516
  grid = 24 24 24
  stencil order = 5
  estimated absolute RMS force accuracy = 0.0031393925
  estimated relative force accuracy = 9.4541874e-06
  using single precision MKL FFT
  3d grid and FFT values/proc = 31713 13824
  generated 0 of 1 mixed pair_coeff terms from geometric mixing rule
Last active /omp style is kspace_style pppm/tip4p/omp
Total wall time: 0:29:18
