#include		in.partitions
include		in.temp
variable        temperature equal 68.97
variable	tempDamp equal 100.0
include		in.pressure
variable        pressure equal 6829.2
variable        pressureDamp equal 1000.0 # This is 1 ps
include		in.seed
variable        seed equal 745823

units		real
atom_style	full

read_restart	restart.lmp.${pid}
read_restart	restart.lmp.1
Reading restart file ...
  restart file = 30 Jul 2021, LAMMPS = 30 Jul 2021
  restoring atom style full from restart
  orthogonal box = (0.086768862 0.11627779 0.18785231) to (19.913232 19.883723 20.512146)
  4 by 2 by 4 MPI processor grid
  restoring pair style lj/cut/tip4p/long/omp from restart
  restoring bond style harmonic/omp from restart
  restoring angle style harmonic/omp from restart
  972 atoms
  648 bonds
  324 angles
Finding 1-2 1-3 1-4 neighbors ...
  special bond factors lj:    0        0        0       
  special bond factors coul:  0        0        0       
     2 = max # of 1-2 neighbors
     1 = max # of 1-3 neighbors
     1 = max # of 1-4 neighbors
     2 = max # of special neighbors
  special bonds CPU = 0.002 seconds
  read_restart CPU = 0.008 seconds
include 	in.setup
variable	out_freq equal 1000
variable	out_freq2 equal 10000
variable	out_freq3 equal 1000

timestep	2.0

neigh_modify    delay 7 every 1

include		in.tip4p
# This is TIP4P/Ice

# create groups ###
group ox type 2
324 atoms in group ox
group hy type 1
648 atoms in group hy

# set charges - beside manually ###
set group ox charge -1.1794
Setting atom values ...
  324 settings made for charge
set group hy charge 0.5897
Setting atom values ...
  648 settings made for charge

# ### TIP3P Potential Parameters ###
pair_style lj/cut/tip4p/long/omp 2 1 1 1 0.1577 8.5
pair_coeff 1 1*2 0.000 0.000
pair_coeff 2 2 0.21084 3.1668
bond_style  harmonic
bond_coeff  1 450 0.9572
angle_style harmonic
angle_coeff 1 55 104.52
kspace_style pppm/tip4p/omp 1.0e-5
pair_modify tail yes

thermo          ${out_freq}
thermo          1000
thermo_style    custom step temp pe etotal epair emol press lx ly lz vol pxx pyy pzz pxy pxz pyz enthalpy

restart 	${out_freq3} restart.lmp.${pid} restart2.lmp.${pid}
restart 	1000 restart.lmp.${pid} restart2.lmp.${pid}
restart 	1000 restart.lmp.1 restart2.lmp.${pid}
restart 	1000 restart.lmp.1 restart2.lmp.1


include         in.dump
dump            myDump all atom ${out_freq2} dump.water.${pid}
dump            myDump all atom 10000 dump.water.${pid}
dump            myDump all atom 10000 dump.water.1
dump            myDump2 all dcd ${out_freq2} dump.dcd
dump            myDump2 all dcd 10000 dump.dcd
dump_modify     myDump append yes
dump_modify     myDump2 append yes


variable natoms 	equal  "count(all)"                        # NUMBER ATOMS
variable H      	equal  "enthalpy/v_natoms"                 # ENTHALPY-per-atom
variable Vol      	equal  "vol/v_natoms"                 # volume-per-atom
fix AVG all 		ave/time ${out_freq} 1 ${out_freq} v_Vol v_H file vol_enthalpy.dat
fix AVG all 		ave/time 1000 1 ${out_freq} v_Vol v_H file vol_enthalpy.dat
fix AVG all 		ave/time 1000 1 1000 v_Vol v_H file vol_enthalpy.dat


timer           timeout 02:55:00 every 1000
New timer settings: style=normal  mode=nosync  timeout=02:55:00

fix 		1 all shake 1e-6 200 0 b 1 a 1
       0 = # of size 2 clusters
       0 = # of size 3 clusters
       0 = # of size 4 clusters
     324 = # of frozen angles
  find clusters CPU = 0.000 seconds
fix             2 all nph aniso ${pressure} ${pressure} ${pressureDamp}
fix             2 all nph aniso 6829.2 ${pressure} ${pressureDamp}
fix             2 all nph aniso 6829.2 6829.2 ${pressureDamp}
fix             2 all nph aniso 6829.2 6829.2 1000
fix             3 all temp/csvr ${temperature} ${temperature} ${tempDamp} ${seed}
fix             3 all temp/csvr 68.97 ${temperature} ${tempDamp} ${seed}
fix             3 all temp/csvr 68.97 68.97 ${tempDamp} ${seed}
fix             3 all temp/csvr 68.97 68.97 100 ${seed}
fix             3 all temp/csvr 68.97 68.97 100 745823


run             250000
PPPM initialization ...
  extracting TIP4P info from pair style
  using 12-bit tables for long-range coulomb (../kspace.cpp:340)
  G vector (1/distance) = 0.37244012
  grid = 24 24 24
  stencil order = 5
  estimated absolute RMS force accuracy = 0.0034759462
  estimated relative force accuracy = 1.0467709e-05
  using double precision FFTW3
  3d grid and FFT values/proc = 3211 432
Last active /omp style is kspace_style pppm/tip4p/omp
Neighbor list info ...
  update every 1 steps, delay 7 steps, check yes
  max neighbors/atom: 2000, page size: 100000
  master list distance cutoff = 10.8154
  ghost atom cutoff = 10.8154
  binsize = 5.4077, bins = 4 4 4
  1 neighbor lists, perpetual/occasional/extra = 1 0 0
  (1) pair lj/cut/tip4p/long/omp, perpetual
      attributes: half, newton on, omp
      pair build: half/bin/newton/omp
      stencil: half/bin/3d
      bin: standard
Per MPI rank memory allocation (min/avg/max) = 10.19 | 10.19 | 10.19 Mbytes
Step Temp PotEng TotEng E_pair E_mol Press Lx Ly Lz Volume Pxx Pyy Pzz Pxy Pxz Pyz Enthalpy 
38750000    72.023503   -5101.3382   -4962.4348   -5101.3382            0    7266.5217    19.826463    19.767445    20.324293    7965.4672    6522.5445    7745.5338    7531.4867   -22.966307    166.73774   -144.63127   -4118.2963 
38751000    66.022443   -5101.7332   -4974.4034   -5101.7332            0    6149.9697    19.683617    19.773345    20.434001    7953.1374     6132.315    6015.2302    6302.3638   -269.20968    460.62879    91.962505   -4261.0785 
38752000    70.040469   -5102.2686   -4967.1897   -5102.2686            0    6418.3197    19.686405    19.710734    20.435973    7929.8419    6039.8847    6851.0328    6364.0416    -446.9212   -776.14263    541.16663     -4224.92 
38753000    69.875955    -5108.049   -4973.2874    -5108.049            0    6987.7777    19.772501     19.81644    20.320439    7961.9662    6682.5941    7337.4246    6943.3145   -389.09949    888.94709    17.339729   -4161.8868 
38754000    64.326948   -5107.8215   -4983.7616   -5107.8215            0    6781.9172    19.704916    19.856441    20.359588    7966.0858    6186.2111    7468.2237    6691.3167    -199.9037   -176.19398     178.3762   -4195.8575 
38755000    70.394466   -5107.6043   -4971.8426   -5107.6043            0    6303.6569    19.740546    19.746771    20.413346    7957.3681    6267.7128    6303.2801    6339.9778    92.197151    488.97119   -52.344277   -4240.3029 
38756000    70.236607   -5104.3204   -4968.8632   -5104.3204            0    6391.6918    19.726772      19.7887    20.437693    7978.2043    6503.6942    6314.8607    6356.5206   -118.07841   -122.38021    -153.2164   -4225.1647 
38757000    65.539122   -5099.7478   -4973.3501   -5099.7478            0    6144.8561    19.927401    19.701369    20.318736    7977.0765    6018.0832     5748.076     6668.409   -402.88549     139.2351    587.19518   -4258.4731 
38758000    71.290618   -5099.7257   -4962.2358   -5099.7257            0    8741.6603     19.73523    19.719536    20.261008     7884.968    8294.5322    8857.5054    9072.9431    162.31715   -448.22373    422.49415   -3956.9958 
38759000    72.497428   -5098.5176   -4958.7002   -5098.5176            0    7088.4029    19.645866    19.740318     20.37715    7902.5776    7866.1147     6432.848    6966.2459     49.07653    606.88712    -957.1829   -4141.7548 
38760000     71.92159   -5108.0894   -4969.3825   -5108.0894            0    6325.8255    19.756236    19.760178    20.439455    7979.2919    5776.3369      6636.54    6564.5995   -197.74725    638.40851    434.55185   -4233.2476 
38761000    68.789307   -5106.6423   -4973.9763   -5106.6423            0    6616.8047    19.741648    19.801633    20.361354    7959.5966    7398.4209    5829.4286    6622.5645     233.9908    158.73659    156.74157   -4205.8807 
38762000    70.993958   -5094.9373   -4958.0195   -5094.9373            0    7126.1742    19.666326    19.794729    20.429805    7953.1107    6716.8305    8263.2844    6398.4078   -112.67028   -444.24018    219.15254    -4131.469 
38763000    71.215874   -5096.7073   -4959.3615   -5096.7073            0    6609.9216    19.700907    19.680011    20.484126    7941.9837    6080.9937    7585.9604    6162.8107   -233.16817    744.36233   -404.73382   -4193.7628 
38764000     65.56409   -5100.9167   -4974.4709   -5100.9167            0    6254.7411    19.712991    19.771437    20.413951    7956.4222    5870.2138    6400.3422    6493.6672    4.3378921    145.67746    119.60264   -4248.6941 
38765000    65.955676   -5101.7925   -4974.5915   -5101.7925            0    6379.6658    19.747543    19.815945    20.346374    7961.8662    6632.0307    5811.2866    6695.6802    19.362637    280.47012    561.79566   -4233.8124 
38766000    66.812408    -5100.926   -4972.0727    -5100.926            0    7711.8335    19.740004    19.747158    20.404012    7953.6668    7736.7646    7383.7332    8015.0026   -41.746516    185.32298   -365.26135   -4077.5303 
38767000    70.468199   -5106.4052   -4970.5014   -5106.4052            0    7082.4962    19.827255    19.706162    20.342508    7948.2064    6865.4782    7207.3056    7174.7047    113.58216     226.8207   -567.09529   -4149.5236 
38768000    67.111227   -5106.2398   -4976.8102   -5106.2398            0    7589.2019    19.795234    19.653612    20.395476     7934.816     6720.675    8559.4447     7487.486   -176.73651   -25.221373     566.1053    -4098.579 
38769000    71.236237   -5106.1089   -4968.7238   -5106.1089            0     7151.281    19.619819    19.792782    20.381755    7914.8634    7641.8549     6599.815    7212.1731    -104.8515    310.01137    90.695523   -4143.2503 
38770000    67.922575   -5099.8409   -4968.8465   -5099.8409            0    7895.1564    19.704731    19.735244    20.332016    7906.6669    8130.1483    7553.8478    8001.4731    145.92348    26.247381   -470.07938   -4058.4511 
38771000    66.258957   -5103.8536   -4976.0676   -5103.8536            0    7349.1856    19.672045    19.861791    20.315235    7937.6103    6938.4821    7508.3646      7600.71    -206.8083   -289.46365    213.91313   -4125.3119 
38772000    67.984249   -5101.5217   -4970.4084   -5101.5217            0    6905.0503    19.682224    19.839981    20.368686    7953.8687    6210.1054    8135.9536    6369.0919    278.27055    89.663395   -178.06565   -4169.4294 
38773000    66.630508   -5106.5895    -4978.087   -5106.5895            0    6687.5424     19.75399    19.782534    20.347716    7951.5612    6347.4488    7379.9611    6335.2174   -272.67541    125.26446   -194.96443   -4202.5637 
38774000      68.4171   -5092.2173   -4960.2692   -5092.2173            0    5936.5137    19.841404    19.770971      20.3406    7979.2883    6019.2382    5579.3665    6210.9364   -354.16311    643.73964    622.07039   -4269.4387 
38775000    68.388473     -5097.73   -4965.8371     -5097.73            0    6655.0185    19.749086    19.773106    20.444494    7983.5905    6988.6333    6174.5634    6801.8589   -32.945425   -58.257523    50.043698   -4190.9768 
38776000    70.517543   -5097.1907   -4961.1917   -5097.1907            0    6805.2895    19.663939    19.881118    20.329816    7947.7605    7042.5095    6566.7626    6806.5964   -176.81939   -81.155079    90.978509    -4172.391 
38777000    70.935823    -5099.695   -4962.8893    -5099.695            0     6964.144    19.675646     19.77365    20.502943    7976.8616    6351.9509    7857.8999    6682.5811   -4.1590747   -640.13519    689.16156   -4152.7202 
38778000    66.520717   -5105.0988    -4976.808   -5105.0988            0    5639.1178    19.660765    19.810678    20.414644    7951.3626    6311.9404    4611.6148    5993.7982    61.932127   -396.17874    284.76436    -4322.882 
38779000     69.21816   -5099.6684   -4966.1754   -5099.6684            0    6980.9946     19.74821    19.893542    20.197763    7934.9303    6303.8383    6914.3655      7724.78   -101.66532    -270.8646   -695.53868    -4158.315 
38780000    70.719522   -5101.5252   -4965.1366   -5101.5252            0    7223.3504    19.711599    19.774454    20.344009    7929.8119    7970.3489    6474.1911    7225.5113   -346.66012    834.81469    728.81743   -4129.7694 
38781000    72.066997   -5102.9059   -4963.9186   -5102.9059            0    6097.8701     19.68773    19.805986    20.392811    7951.8688    5759.5677    6787.8113    5746.2314   -568.41819   -267.42057   -171.98333   -4256.7495 
38782000    68.556119   -5100.1193    -4967.903   -5100.1193            0    6066.4017    19.773301    19.749841    20.415245    7972.5525    5623.9404    6315.9149    6259.3497    467.29476    455.46318    302.61279   -4262.5534 
38783000    69.855893   -5107.5095   -4972.7865   -5107.5095            0     6502.768    19.773474    19.830985     20.36786    7986.7973    6780.7051    5989.5549    6738.0438   -316.24133   -619.67041    353.37844    -4215.349 
38784000    68.732327   -5109.1825   -4976.6264   -5109.1825            0    6393.8011    19.707702    19.739511    20.472687    7964.2928    7824.8067    5398.8384    5957.7581   -109.78606   -379.95208   -218.60476   -4233.9798 
38785000      68.3021   -5111.2208   -4979.4945   -5111.2208            0    7410.9178    19.687855    19.768673    20.370523    7928.2639    7274.0303    7238.4024    7720.3205   -138.87592    421.34992   -176.67409   -4122.6027 
38786000    67.498586   -5109.4383   -4979.2616   -5109.4383            0    6292.7826    19.799826    19.717303    20.375109    7954.4257    5344.8588    7549.4005    5984.0886   -56.574802   -233.74596    372.19426   -4249.2539 
38787000    69.098157   -5099.7979   -4966.5362   -5099.7979            0    7431.4497    19.799984    19.695666    20.312529    7921.3556    6728.1496    7743.7264    7822.4732   -241.64806    49.835742    866.23351   -4108.0192 
38788000    70.515608    -5101.072   -4965.0767    -5101.072            0    6524.4524    19.703204    19.709554    20.472833    7950.4481    6124.1743    7140.8657    6308.3173    271.16054    86.762712    223.05021   -4208.5721 
38789000    68.742521   -5106.6148   -4974.0391   -5106.6148            0    7437.2925    19.752361    19.808891    20.298165     7942.111    7843.3785    7345.0189    7123.4801    -392.1401    594.25456    613.58491   -4112.5958 
38790000    65.504172   -5102.2681   -4975.9378   -5102.2681            0    5911.4343    19.711586     19.72956    20.520366    7980.3893    6149.1346    6465.9209    5119.2475   -28.829989    965.20977   -272.64885   -4287.9308 
38791000    69.047426   -5095.4818    -4962.318   -5095.4818            0    7759.5117    19.697058    19.702895     20.31004    7882.1045    7998.4162    7080.5329     8199.586   -108.91316    272.69996    22.369649   -4070.3434 
38792000    66.335931   -5100.4846   -4972.5502   -5100.4846            0    6617.3549    19.800923    19.731407    20.293826    7928.7996     5930.084    6491.0482    7430.9325   -119.51204   -129.28822    371.62374   -4207.3629 
38793000    71.573602   -5102.9263   -4964.8905   -5102.9263            0    7001.7209    19.728433     19.74227    20.413215    7950.6215    7179.3716    6771.1327    7054.6583    396.44301   -878.79127    119.96706   -4153.0294 
38794000    69.438543   -5113.0516   -4979.1335   -5113.0516            0    6835.8456    19.670293    19.822132    20.371395    7942.9521     7043.712    6354.0317    7109.7931    117.73543    592.72799    292.43838   -4187.2705 
38795000    67.170711   -5109.6275   -4980.0832   -5109.6275            0    7375.9288    19.765593    19.752282    20.304406     7927.156     7672.495    6993.3577    7461.9338   -33.986971    56.348078    167.77044   -4127.3562 
38796000    67.799735   -5106.0871   -4975.3296   -5106.0871            0    6579.3178    19.622414    19.827644     20.46373    7961.7465    7406.2842    6342.7976    5988.8715   -102.39448    337.56324    611.45768   -4211.3793 
38797000     71.59347   -5110.3213   -4972.2473   -5110.3213            0    6896.4668    19.654079    19.816667    20.390182    7941.5342    7263.9762    6275.4972    7149.9268    -384.7194    673.03073    806.82522   -4173.5045 
38798000    67.814123   -5116.3177   -4985.5325   -5116.3177            0    6027.6093    19.773414    19.779064     20.44987    7997.9359    5476.0208    6672.2498    5934.5572   -581.40692   -150.98581   -299.13927   -4282.4619 
38799000    68.500578   -5099.8386   -4967.7294   -5099.8386            0    6539.0187     19.71117    19.852417    20.308186     7946.885    7638.2637    5618.2372    6360.5552    474.69255    420.77658    496.22486   -4209.8757 
38800000    69.451736   -5114.3048   -4980.3613   -5114.3048            0    6243.0105    19.821522    19.718621    20.383711    7967.0357    6214.9912    6750.4184    5763.6218    -402.2232    40.514528   -574.19401   -4254.9794 
38801000    72.486764   -5093.7671   -4953.9703   -5093.7671            0    6592.5715    19.686048    19.768143    20.476503    7968.5666    6899.2533    6619.4367    6259.0245    -177.7322    1907.8029    279.56004   -4187.8254 
38802000    68.230358   -5105.5483   -4973.9603   -5105.5483            0    6748.2011    19.576271    19.839858    20.410439    7927.2194    7197.8289    6231.2079    6815.5663   -25.111221   -484.91556   -201.96837   -4193.7983 
38803000    67.490757   -5108.6871   -4978.5255   -5108.6871            0    7025.1588    19.739002     19.73791    20.360702    7932.6647    7192.1124    6632.8919    7250.4719   -326.37481    487.48438    696.99724   -4165.7864 
38804000    72.732446   -5101.5281   -4961.2574   -5101.5281            0    6653.9549    19.763853    19.682949    20.387383    7930.9143    7574.3606    6052.5209    6334.9832   -70.034496    222.90285    13.572352   -4191.6327 
38805000    66.630798   -5098.4487   -4969.9456   -5098.4487            0    7792.4712    19.660521     19.83425    20.397837    7954.1709    8560.7623    7400.5047    7416.1467   -205.76959    808.55286   -145.90451   -4065.9922 
38806000     73.21375   -5098.3799    -4957.181   -5098.3799            0    7715.2909    19.729983    19.723983    20.392613    7935.8639    8851.7632    6798.4653    7495.6442   -12.937798    789.52128     259.1296   -4064.2407 
38807000    66.858208   -5107.2429   -4978.3012   -5107.2429            0    6182.9033    19.770218    19.734938    20.329226    7931.7327    6024.9662    5385.0792    7138.6645   -225.15518    539.68907    791.05943   -4263.0865 
38808000    68.870342   -5101.3972    -4968.575   -5101.3972            0    6396.7434    19.800974    19.701629    20.391785    7955.0688    5426.7008    7398.8309    6364.6984    56.917888   -781.17009   -571.36384   -4226.4471 
38809000    65.223876   -5097.1146   -4971.3249   -5097.1146            0    7242.1672    19.790439    19.653092    20.386129    7929.0486    7906.0558    6933.5934    6886.8525   -189.58429    312.38621   -625.69342   -4133.8621 
38810000    69.311685    -5105.805   -4972.1316    -5105.805            0    6279.6184     19.65928    19.759871    20.458985    7947.5961     7139.768    6439.8621     5259.225   -224.28694    205.51535   -631.56542   -4244.2765 
38811000    69.733613   -5103.9347   -4969.4476   -5103.9347            0    6493.3043    19.684452    19.797025    20.412422    7954.5901    7139.5506    6801.5552    5538.8072    61.294359    189.46287   -619.79361   -4216.1624 
38812000    73.745993   -5102.5812   -4960.3559   -5102.5812            0     7249.469     19.80394    19.766089    20.348328    7965.2802    6829.4587    7075.3476    7843.6008    104.72448    157.02293   -52.802175   -4118.2181 
38813000    72.538728   -5104.4317   -4964.5347   -5104.4317            0    6473.4917     19.75843    19.777644    20.369764    7959.9986    5647.7912    6774.2731    6998.4107   -297.38905   -110.23378    259.48697   -4213.0373 
38814000    67.277527   -5097.9754   -4968.2251   -5097.9754            0      8336.46    19.774161    19.689348    20.321168      7911.85    7427.4053    9403.8499    8178.1249   -31.049566   -100.42318    253.25444   -4006.3125 
38815000    69.226411    -5102.395    -4968.886    -5102.395            0    7709.3264    19.643817      19.8533    20.271557    7905.7976    7929.5081    7058.5382     8139.933   -439.13336   -386.91359     118.8015   -4080.0165 
38816000    70.807181   -5100.2918   -4963.7342   -5100.2918            0    6148.5017    19.767106     19.76577    20.423442    7979.6853    5737.1885    6350.3359    6357.9808   -299.05328    274.78869    576.70446   -4248.1991 
38817000    67.551471   -5105.9034   -4975.6247   -5105.9034            0    6400.3783    19.828835    19.664971    20.382162    7947.6871     5496.018     6894.376    6810.7408    228.36633    37.260844   -40.982148   -4233.7641 
38818000    67.548537   -5103.2792   -4973.0062   -5103.2792            0    7277.8705    19.711463    19.681452    20.517048    7959.5933    8132.9427    6481.5552    7219.1134   -39.056415   -1163.6585     119.9137   -4128.1728 
38819000    67.655645   -5114.3077   -4983.8281   -5114.3077            0    6596.9104    19.683054    19.857239    20.405192    7975.3921    6681.5059    6502.7579    6606.4673   -208.21694   -368.55467    181.45294   -4216.5222 
38820000     68.07828    -5097.594   -4966.2993    -5097.594            0    7373.4174    19.780769    19.717009    20.332207    7929.9186    8339.5619    6413.6246    7367.0657   -253.76256   -234.67094   -5.7599693   -4113.5656 
38821000    68.057717   -5099.2772   -4968.0222   -5099.2772            0    6429.5032    19.645275    19.831008     20.38122    7940.2299    7015.0829    6147.7375    6125.6892   -116.57554    724.54194   -314.38988    -4223.485 
38822000    73.740489    -5099.735   -4957.5203    -5099.735            0    7026.0987    19.715916    19.714507    20.488869    7963.8091    7546.5571    7023.4742    6508.2647    287.73762    709.91707     234.7999   -4141.4811 
38823000    67.766485   -5112.1439   -4981.4506   -5112.1439            0    6355.5629    19.693496    19.696745    20.490235    7948.1167    5731.2366    7400.9017    5934.5503    11.427389    -191.5526    729.10946   -4244.7447 
38824000     66.15087   -5102.8076   -4975.2301   -5102.8076            0     6452.708    19.569055    19.771024     20.49756    7930.5109    6948.1686    6139.2201    6270.7355    391.95742    114.87632    776.64538   -4228.9204 
38825000    68.362457    -5104.674   -4972.8313    -5104.674            0    7159.2146    19.685993    19.745378    20.413602    7934.9174    6975.6059     7274.358    7227.6801    48.291045    754.19211     88.14115   -4144.3481 
38826000    69.958593   -5109.5102   -4974.5892   -5109.5102            0    7112.6008     19.80459    19.735395    20.350057    7953.8483    6750.9202    7317.2347    7269.6475    -241.0717   -625.81472   -410.25571   -4149.5366 
38827000    64.399912   -5104.7407     -4980.54   -5104.7407            0    6356.4855     19.64368    19.740192    20.459002    7933.3874    7225.4312    5597.7684    6246.2568    389.70682    225.03974    68.807902   -4245.0926 
38828000     72.80699   -5101.0749   -4960.6605   -5101.0749            0    6766.1665    19.732799    19.791436    20.326701    7938.3985    6642.1343    6803.6596    6852.7055    140.28626    274.67319   -203.46981   -4177.3184 
38829000    68.975947   -5111.0881   -4978.0622   -5111.0881            0    6908.0836    19.888671      19.7002    20.342113    7970.2597    5767.6972     7133.216    7823.3375   -163.43109   -71.223423    301.79554   -4175.0799 
38830000    71.383382   -5104.9968   -4967.3279   -5104.9968            0    6222.0869    19.711051    19.775014    20.428233    7962.6455    5784.2311    6803.5094    6078.5202    6.6305906   -516.03048   -219.27009   -4244.7755 
38831000    66.550889   -5097.1614   -4968.8124   -5097.1614            0     6886.893    19.719577    19.745872    20.408959    7946.8455    6292.4613    7146.8235    7221.3943    210.95185    457.95857    579.54908    -4170.645 
38832000    68.465175   -5111.2031   -4979.1622   -5111.2031            0    6860.3096    19.733455    19.826598    20.308371    7945.5946    7145.8907    6095.4289    7339.6093   -15.920242    -236.9697   -739.47215   -4184.2009 
38833000    69.455087   -5104.3735   -4970.4235   -5104.3735            0    7142.2193    19.805556    19.741759    20.367253     7963.525    7529.1499    6886.3917    7011.1163      177.899   -72.619525    141.71033   -4140.9273 
38834000     69.25799   -5097.2041   -4963.6343   -5097.2041            0    6659.0101    19.785593    19.756392    20.343571     7952.138    5743.0359    7829.1648    6404.8297   -34.115746    653.62164   -90.191633   -4191.3637 
38835000    66.940902   -5108.2508   -4979.1496   -5108.2508            0    6369.7994    19.702036    19.762921    20.475588    7972.5748    5830.6097    7190.5134    6088.2753   -473.45658   -137.23399     178.2971   -4238.5214 
38836000    66.281423   -5105.0891   -4977.2598   -5105.0891            0    6252.0292    19.767485    19.762456    20.421244    7977.6415    6009.6626    6540.2033    6206.2217    4.2347782   -457.56339    397.62493    -4249.863 
38837000    67.650908   -5108.5479   -4978.0774   -5108.5479            0    5646.6247    19.788382    19.781332    20.393627    7982.8928    4787.3322     6301.825     5850.717   -281.53458    18.367663    363.57179   -4320.6844 
38838000    68.515543   -5103.9271   -4971.7891   -5103.9271            0     6262.632    19.649454    19.780909    20.502268    7968.9049    7070.8612    6101.0027     5616.032    -87.07352     447.3586   -555.64633   -4243.9567 
38839000    65.380851   -5104.1221   -4978.0296   -5104.1221            0    8329.6736    19.660527    19.754133    20.323416    7893.1405    8211.9096    8693.9465    8083.1646   -167.91646   -72.978221    649.89892   -4019.1729 
38840000    65.953726   -5101.7915   -4974.5942   -5101.7915            0    6118.8116    19.839082    19.757492     20.28307    7950.3649    5858.1166    5924.1831    6574.1351    99.265981   -296.29671    345.28403   -4265.1308 
38841000    65.659577   -5105.3467   -4978.7166   -5105.3467            0    6200.9733    19.681607    19.861525    20.415564    7980.5811    5473.2617    6821.6734    6307.9849    197.33501    332.18446   -413.26565   -4256.9941 
38842000    66.680428   -5102.2881   -4973.6893   -5102.2881            0    7329.0923    19.662636    19.781586    20.420203     7942.604    8248.9962    6461.1395    7277.1412   -154.53617    590.02625     171.3553   -4124.7258 
38843000    70.703907   -5103.5963   -4967.2379   -5103.5963            0    6484.5508     19.75088    19.683545    20.452946    7951.4375    6272.0517     6794.153    6387.4475   -158.16928    119.69395    -137.3746   -4215.2663 
38844000     67.70263    -5102.748   -4972.1778    -5102.748            0    7281.3525    19.793991    19.763099    20.328804    7952.4373    7259.8417    6850.3937    7733.8221   -303.69579    348.35949   -176.37662   -4127.7001 
38845000     65.25187   -5109.9978   -4984.1541   -5109.9978            0    6422.6978    19.697421    19.636816    20.617487    7974.7336    5745.5766    7748.9915    5773.5253    -16.22639      236.286   -653.36851   -4237.1731 
38846000    68.674909   -5100.3915   -4967.9462   -5100.3915            0    7374.1613    19.728351    19.868006     20.25786    7940.3313    6596.1894    7584.3256    7941.9688   -195.16527    352.74622    126.84406   -4114.0066 
38847000    67.829545   -5104.2458   -4973.4308   -5104.2458            0    5612.3688    19.697523    19.768262    20.483892    7976.1366     5534.522     5544.387    5758.1974    298.48578    303.88302   -173.04442   -4320.5789 
38848000    70.125634   -5105.2405   -4969.9973   -5105.2405            0    7556.4359    19.674754    19.725282      20.4443    7934.2298    8416.8563    6947.9853    7304.4661    76.164034    324.95771    308.71256   -4095.6224 
38849000    67.828572   -5103.9177   -4973.1046   -5103.9177            0    7376.6627    19.747409    19.738311    20.371699    7940.4913    6607.8981    8076.8546    7445.2353    247.61793    759.44145   -586.61145   -4118.8581 
38850000    67.903441   -5102.5563   -4971.5988   -5102.5563            0    6103.9736    19.722821     19.83629     20.34466    7959.3923    5762.2946    6901.9303     5647.696   -400.58767   -287.28251   -542.25735   -4263.0521 
38851000    65.650545   -5109.5247   -4982.9121   -5109.5247            0    6813.5006    19.722823    19.800528    20.379116    7958.4994     6873.812     6333.959    7232.7309    101.20073    477.48931   -327.98245   -4192.0926 
38852000    68.807725      -5102.3   -4969.5985      -5102.3            0    7142.5335    19.660761    19.765576    20.389758     7923.588    7256.3173    6976.8321    7194.4509   -439.79611    429.52525    175.21491   -4144.2259 
38853000    68.000553   -5098.8275   -4967.6827   -5098.8275            0    7167.7191    19.769558    19.684857    20.460671    7962.4937    6966.3382    7823.2349    6713.5842   -269.33309    182.72166    266.40551   -4135.3328 
38854000    72.038815   -5108.5667   -4969.6338   -5108.5667            0    7058.6022    19.771457    19.730879      20.3859    7952.7071    5771.8503    8531.6739    6872.2824   -269.02649     41.38921    304.23848   -4150.9624 
38855000    68.923502   -5090.6824   -4957.7576   -5090.6824            0    7491.9386    19.651482    19.776232    20.407529     7931.024    7351.0242     7686.495    7438.2964   -394.71429    283.22098    605.96249   -4091.1961 
38856000    68.996313   -5113.3791   -4980.3139   -5113.3791            0    6864.5645    19.726344    19.718564    20.488157    7969.3843    7038.6274    7233.9551    6321.1112   -168.80454   -122.84686    643.22481   -4182.4778 
38857000    73.701141    -5112.866   -4970.7271    -5112.866            0    6767.0294    19.802546    19.783117    20.287101    7947.5953    6352.4336    6556.6662    7391.9884   -174.14065    252.14823   -173.61292   -4186.3775 
38858000    68.730258   -5095.3808   -4962.8287   -5095.3808            0    7093.0334     19.73517    19.698863    20.394335    7928.5097    7111.0793    7434.2873    6733.7336    -127.0935    232.11924    248.03129   -4142.6671 
38859000     70.56731   -5101.4045   -4965.3095   -5101.4045            0     7729.269    19.634752    19.665801    20.417884    7884.0215     7001.687    8765.1092    7421.0108    223.06036    397.74529    199.03764   -4076.5953 
38860000    68.196665    -5095.979    -4964.456    -5095.979            0    7313.5527    19.676401    19.720123    20.490338    7950.6826    8579.0969    6819.7221    6541.8391    -291.4079    210.52251   -254.62071   -4116.4309 
38861000    72.468226   -5104.4747   -4964.7136   -5104.4747            0    6003.3625    19.830508    19.812008    20.276193    7966.1549    6351.9764    4957.2085    6700.9025   -237.57812    374.04006    216.84106   -4267.2538 
38862000    70.654435   -5101.5603   -4965.2973   -5101.5603            0    6750.1468    19.647452    19.743472    20.446214    7931.2689    6413.7468    7554.7159    6281.9777   -121.81334    824.33365    642.91488   -4184.5117 
38863000    68.188743   -5108.5547   -4977.0469   -5108.5547            0    6423.6154    19.741307    19.768763    20.377352    7952.4899    6376.8315    6245.0372    6648.9777   -241.63893   -237.98312   -8.3707031    -4232.043 
38864000    69.556225   -5103.3801   -4969.2351   -5103.3801            0    6836.4942    19.732285    19.774779    20.432368    7972.7424    6739.3137    6978.0566    6792.1122    67.772112    229.61255   -347.85275   -4174.3268 
38865000    70.729549   -5106.8381   -4970.4302   -5106.8381            0    6371.1094    19.712263    19.799309    20.386039    7956.4507    7419.1293    5234.7281     6459.471   -115.45017   -46.782948   -472.76763   -4231.1478 
38866000    67.507835   -5106.9337   -4976.7392   -5106.9337            0    7343.8267    19.710367    19.720708    20.404483    7931.2713    7358.8174    7674.9495     6997.713   -57.647108    263.14398   -348.89365   -4127.2827 
38867000    65.436129   -5109.5134   -4983.3143   -5109.5134            0    6783.9802    19.791528    19.703358    20.477262    7985.3037    6690.4544    7082.8342    6578.6521   -90.890245    171.33503   -107.54104   -4193.2692 
38868000     68.99871   -5111.2919   -4978.2221   -5111.2919            0    6071.4863    19.724619    19.760567    20.468564    7978.0256    5549.9954    6749.6158    5914.8478   -333.22886    297.80722   -545.87746   -4271.7967 
38869000    67.160573    -5106.081   -4976.5562    -5106.081            0    6719.7003    19.809453    19.703046    20.336547     7937.488    6956.5026    6995.2615    6207.3366   -236.14216    131.82255   -778.49372   -4198.6828 
38870000    70.277423   -5107.8137   -4972.2778   -5107.8137            0    7285.5545    19.766287    19.735274    20.354224    7940.0418    6808.0499    6833.9946    8214.6189    -626.5136    59.445829    456.01189   -4128.6298 
38871000    66.570845   -5107.9782   -4979.5907   -5107.9782            0    6711.8188    19.618736    19.751955    20.485244    7938.2042     6965.325    7140.6993    6029.4322   -327.36522   -274.92241   -424.32418   -4202.5596 
38872000    71.483211   -5104.4937   -4966.6323   -5104.4937            0    6943.1723    19.748169    19.814969    20.373554    7972.3623    6811.7675      7077.27    6940.4794    -194.0164   -1195.3217   -728.94412   -4159.3585 
38873000     66.98588   -5102.0646   -4972.8767   -5102.0646            0    6764.1099    19.630142    19.763561    20.525134    7962.9619    7744.4157    6530.3443    6017.5696    28.952195    492.92064    -210.1367   -4187.3495 
38874000    68.523598   -5104.8659   -4972.7124   -5104.8659            0    6505.8562    19.706775    19.859188    20.392365    7980.7668    7394.6303    6082.5179    6040.4203   -229.20287   -563.93645    692.43301   -4215.4874 
38875000    70.113981   -5099.5755   -4964.3548   -5099.5755            0    6641.1001    19.748343    19.745973    20.413363    7960.1961    6527.6322     7517.091    5878.5771    72.760558    41.351773   -238.39948   -4193.3809 
38876000    66.792621   -5107.4463   -4978.6311   -5107.4463            0    7455.4103    19.524177    19.766557    20.505716    7913.6836    8803.3864    7160.5756    6402.2689   -468.53527     659.7805    -374.6639   -4118.1802 
38877000    68.774177   -5105.3628   -4972.7261   -5105.3628            0    6725.7109    19.693899    19.816056    20.354688     7943.527    6114.8421    7384.1728    6678.1177   -295.04211    222.58179    173.53666   -4193.5646 
38878000    67.149442   -5104.5433   -4975.0399   -5104.5433            0    6707.7043    19.816082    19.713207    20.319403     7937.542    6380.7285    6228.2607    7514.1237   -288.65981    200.01803   -301.54059     -4198.55 
38879000    72.484832     -5098.55   -4958.7569     -5098.55            0    7581.9908    19.738504    19.787706    20.312043    7933.4721     7431.823    7297.5261    8016.6233   -569.91116   -103.50756     77.48771   -4081.5088 
38880000    63.905089   -5106.8156   -4983.5693   -5106.8156            0    6153.0311    19.729263    19.659129    20.528232    7962.0826    6313.5373    6639.3783    5506.1777   -12.343954    75.850268   -241.21032   -4269.0867 
38881000    65.466092   -5109.3337   -4983.0768   -5109.3337            0    7441.9508    19.733508    19.786724    20.350875    7946.2326    6757.3403    8178.8002    7389.7119   -49.277641    425.50816   -59.906308   -4120.6466 
38882000     70.71577   -5097.8137   -4961.4324   -5097.8137            0    6841.1334    19.754548     19.71696    20.401124    7946.2303    5675.6616    7538.7688    7308.9698   -80.504312    80.828687   -67.825987   -4168.6297 
38883000    70.445618   -5099.9082   -4964.0479   -5099.9082            0    6253.3161    19.666302    19.797091    20.404878    7944.3448      6319.73    5908.5486    6531.6699   -294.12783    346.42868    868.96739   -4239.5379 
38884000    68.219047   -5107.9018   -4976.3356   -5107.9018            0     6749.414    19.687105    19.657709    20.565968    7959.0989    7733.0383    7116.5987    5398.6051   -141.11558   -464.70575   -522.95715   -4192.8954 
38885000    68.050179   -5102.2979   -4971.0574   -5102.2979            0    6772.2636    19.804615     19.71673    20.340272    7942.5152    6208.4186     6974.293    7134.0792    427.83299   -299.93432    366.73632   -4186.6028 
38886000      68.0663   -5103.4122   -4972.1406   -5103.4122            0    7347.7176    19.720421    19.803839     20.35177    7948.1808    7260.2701    7368.4414    7414.4412   -231.29869   -60.891739    838.14263   -4120.4221 
38887000    66.960814   -5102.9037   -4973.7641   -5102.9037            0    7173.6745    19.625331     19.79903     20.38669    7921.5036    7530.8016    6964.4768     7025.745    -755.3776    421.55534    -258.4787    -4145.011 
38888000     68.84165    -5109.401   -4976.6341    -5109.401            0    6949.4125    19.697839    19.753643    20.465041     7963.031    7227.6814    6961.9484    6658.6075     148.0571    995.94108    392.72311   -4169.5805 
38889000    64.555453   -5110.2497   -4985.7491   -5110.2497            0    6369.4773    19.762564    19.818352    20.340198    7966.4716    5959.1649    5460.9753    7688.2915   -143.10723   -611.65599    65.521102   -4245.7253 
38890000    70.636894   -5102.8167   -4966.5875   -5102.8167            0    6821.8372    19.559367    19.882686    20.423662    7942.6139    8444.9251    5875.5447    6145.0416   -273.38545    539.42745    612.41788   -4176.3808 
38891000    71.041506   -5111.9563   -4974.9468   -5111.9563            0    7022.6999    19.806442    19.811456    20.246837    7944.7466    6930.5239    7395.0955    6742.4802    -412.2219    481.21913   -236.27719   -4161.2548 
38892000    71.261534   -5112.2136   -4974.7797   -5112.2136            0    6435.2136    19.754522    19.759303    20.405443    7964.9704     6653.357    5843.9365    6808.3473   -78.554576   -363.51615     84.54092   -4227.2594 
38893000    70.237248   -5106.7492   -4971.2908   -5106.7492            0    6894.2513     19.62905    19.881169    20.286586    7916.8094    6769.5333    6529.4827     7383.738   -281.76404    269.41075    332.60175   -4175.2905 
38894000    67.853644   -5103.9188   -4973.0573   -5103.9188            0    6150.6518    19.699769    19.702324    20.528317    7967.6811    7315.5871    5181.0619    5955.3065    -359.1223    43.625855    6.8214195   -4258.3488 
38895000    69.536394   -5110.5921   -4976.4853   -5110.5921            0     6152.406    19.793419     19.78097    20.382333     7980.356     5981.353    6294.9468    6180.9182   -88.934718    1527.1682    150.76484   -4260.4356 
38896000    67.192332   -5108.7319   -4979.1458   -5108.7319            0    6216.2343    19.633556     19.82517    20.442171    7956.8814    6190.7955    6593.5591    5864.3482    185.81937    616.89717    677.69909   -4257.7956 
38897000    69.519212   -5115.9306   -4981.8569   -5115.9306            0    7123.7312    19.703377    19.886156    20.319555    7961.6982    6253.9632    6933.3579    8183.8725   -127.79964   -247.91747    139.43574   -4154.6977 
38898000    67.127483   -5105.7042   -4976.2432   -5105.7042            0    7067.2585     19.76192    19.661849    20.444451     7943.812    7140.4741    7538.6515      6522.65   -334.37016    13.774975    24.004839   -4157.4847 
38899000    71.209599   -5103.4044   -4966.0707   -5103.4044            0    6993.4737     19.76888    19.698592    20.386639    7938.9467    7474.7279    7514.3179    5991.3755    305.78295    10.721004   -332.83981   -4156.3566 
38900000    68.540594   -5106.7027   -4974.5164   -5106.7027            0    6729.8591    19.673381    19.703798    20.541173    7962.5871    6472.0325     7415.053    6302.4919    -49.54099    -627.9088   -130.54893   -4193.0037 
38901000      70.4046   -5096.0274   -4960.2462   -5096.0274            0    6897.9855    19.838169    19.778678    20.294544    7963.0264    5752.2122    7832.0018    7109.7426    25.768666    203.38906    466.28902   -4159.1654 
38902000    70.806595   -5102.7058   -4966.1494   -5102.7058            0    7594.5654    19.691591    19.825834    20.291703    7921.9259    6406.7416    8673.3584    7703.5962   -180.45647    635.92541     569.0404   -4088.7252 
38903000     66.35917   -5104.9507   -4976.9714   -5104.9507            0    6329.2689    19.684451     19.81165    20.471621    7983.5523    6348.7303     6775.371    5863.7054   -312.19029   -422.35861    330.00838   -4240.0425 
38904000    68.849089    -5104.085   -4971.3038    -5104.085            0    7258.9321    19.818957    19.638118    20.425017    7949.5596    6164.6358    8638.3288    6973.8318     149.4232   -845.80972     218.7701    -4129.731 
38905000    68.469093   -5106.8414    -4974.793   -5106.8414            0    6196.6106    19.728149    19.819871    20.343946    7954.6733    5686.6626     6583.319      6319.85    85.960852   -45.420898   -791.91871   -4255.9196 
38906000    65.078875   -5104.2999   -4978.7898   -5104.2999            0    6979.4895    19.595448    19.733757    20.563852    7951.8728    7462.1607    7915.7144    5560.5934    -244.9136    363.04651   -294.00773   -4169.3791 
38907000    72.844247   -5108.6553   -4968.1691   -5108.6553            0    7092.4886    19.697248    19.775082    20.397368    7945.0747    7726.5826    6843.7868    6707.0966   -332.62916    550.71109     372.1616    -4146.357 
38908000    66.091789   -5109.2121   -4981.7486   -5109.2121            0    7117.7736     19.73765    19.726197    20.413547    7947.9897    6488.5516    7831.5006    7033.2686   -210.33541   -28.823987   -417.89138   -4156.7041 
38909000    68.295975   -5109.5436    -4977.829   -5109.5436            0    6503.5424    19.752453    19.842655    20.313577    7961.7263    6291.0965    6438.4365    6781.0942    -267.4959    269.55417    73.319925   -4222.6793 
38910000     70.56119   -5108.8959   -4972.8127   -5108.8959            0    6143.7588    19.718686    19.772784    20.436378    7968.0072    6358.1914    5841.2571    6231.8278    105.40789   -758.25548   -419.56747   -4258.8759 
38911000    66.165341   -5102.9031   -4975.2977   -5102.9031            0    6820.2061    19.712466    19.817405    20.345205     7947.853    6364.4662    7429.8468    6666.3052    22.798266   -115.74249   -642.44194   -4184.7589 
38912000    67.599563   -5105.1818   -4974.8103   -5105.1818            0    6112.3541    19.820145    19.844136    20.333827    7997.5716    5739.2298    5934.6317    6663.2006   -212.07828    674.44598     48.00833   -4261.8875 
38913000    72.711402   -5110.1193   -4969.8892   -5110.1193            0    6851.4544    19.774707    19.752491     20.37917    7960.0981    6200.9191    7440.0081     6913.436   -108.30038    229.65189   -220.91559   -4174.5048 
38914000    67.276001   -5102.3634    -4972.616   -5102.3634            0    6849.7607    19.627515    19.609109    20.531723    7902.2105    5849.4842    8289.2157    6410.5823    -449.5702    591.37765    632.71528   -4183.2109 
38915000    68.931047   -5106.6256   -4973.6863   -5106.6256            0    6551.0342    19.737031    19.772298    20.384427    7954.9504    6294.8408    6490.9413    6867.3206    50.517976    246.52088   -313.79718   -4213.6695 
38916000    66.169749   -5094.9864   -4967.3725   -5094.9864            0    7141.7477    19.842313    19.745232    20.298543    7952.7879    6150.9634     7275.101    7999.1786    95.092561    260.20164   -740.65611   -4139.0494 
38917000    67.492677   -5102.0923    -4971.927   -5102.0923            0    6804.7646    19.777841    19.766953    20.367536    7962.6405     7195.081    6120.0005    7099.2125    -454.5235    246.36666    388.52137   -4181.7105 
38918000    70.027146   -5097.6812   -4962.6279   -5097.6812            0    6908.3071    19.834977    19.708509    20.325852    7945.7382    5607.7111    8513.6503    6603.5599   -242.56461    599.05686   -93.335495   -4162.0903 
38919000    72.824793    -5103.879   -4963.4303    -5103.879            0    6605.8107    19.690195    19.763719    20.401639     7939.328    6199.9842    6917.0483    6700.3996   -203.42334    926.69102    649.90499   -4198.5635 
38920000    68.428138   -5102.1658   -4970.1964   -5102.1658            0    6715.8577    19.768722    19.741812    20.329483    7933.9953    6356.5298    5831.2285    7959.8147 0.0077875877     307.5599   -482.83276     -4193.11 
38921000    67.699848   -5093.8331   -4963.2683   -5093.8331            0    8029.0754    19.762087    19.708269     20.33795    7921.1538    7803.6504    8465.7125    7817.8633   -53.098478    787.82936   -86.334612   -4035.7342 
38922000    67.795949   -5108.6148   -4977.8647   -5108.6148            0    6086.7469     19.68002    19.786765    20.450924    7963.6703    6370.8979    5282.8856    6606.4571    32.617032     296.4392   -8.9406225   -4270.9379 
38923000    68.457184   -5113.5489   -4981.5235   -5113.5489            0    6700.1955    19.738152    19.747223    20.413577    7956.6748    6772.5877    6177.5136    7150.4853    36.721652   -272.56224   -57.264136   -4204.0332 
38924000    69.671695   -5103.4333   -4969.0656   -5103.4333            0    7989.7884    19.826779     19.68851    20.324134    7933.7236     8702.043    7917.8928    7349.4293   -377.90077    20.922694    720.36762   -4044.6053 
38925000    67.328634   -5105.2174   -4975.3685   -5105.2174            0    6961.3561    19.666503    19.712613    20.524652    7956.9595    7565.5731    6537.9791    6780.5161   -124.66789    673.43769   -495.55574   -4167.5442 
38926000     71.09536   -5110.9402   -4973.8268   -5110.9402            0    6811.7546    19.760621     19.73204    20.304897     7917.232    6881.0442    7004.6502    6549.5694   -324.20604    968.61284   -459.01127   -4187.3095 
38927000    69.061523   -5107.8037   -4974.6127   -5107.8037            0    6235.8642    19.650775    19.815425    20.482223    7975.5411    6782.1894    6237.7639    5687.6392   -245.51127    200.58274    268.78668   -4249.2876 
38928000    67.024779   -5102.7704   -4973.5074   -5102.7704            0    6451.8093    19.735267    19.852376    20.377254    7983.6436    6675.6155    6358.0383    6321.7741    75.905526   -261.32847    1073.0928   -4222.3023 
38929000     68.30919   -5095.0845   -4963.3445   -5095.0845            0      7548.49    19.776462    19.610476    20.501417    7950.9789    6276.4165    9709.6488    6659.4048   -182.17781   -44.809355   -787.31372   -4088.0452 
38930000    71.451341   -5107.2447   -4969.4448   -5107.2447            0    6207.1961    19.774618     19.83485    20.309532    7965.9383    6418.7085    5445.8815    6756.9982   -41.572206   -278.18013    753.54409   -4248.3236 
38931000    70.958171   -5111.1217   -4974.2729   -5111.1217            0    7347.8928    19.706185    19.749886     20.39192    7936.4312    6997.8129    7454.6058    7591.2597   -101.46301   -91.645458     673.0098   -4123.7931 
38932000    68.577324    -5105.367   -4973.1099    -5105.367            0    7463.9953    19.699694    19.769434    20.414442    7950.4412    6853.6638    8046.9057    7491.4163   -294.54434    174.80543   -534.88035   -4107.6669 
38933000    68.083358   -5112.9515    -4981.647   -5112.9515            0    6116.6303    19.805338    19.756652    20.316134    7949.4423    6491.4607    5664.5732     6193.857   -184.50168    119.28446    517.46721   -4272.5187 
38934000    65.319106   -5106.9793   -4981.0059   -5106.9793            0    6168.8225    19.737631    19.775656    20.382246     7955.692    6529.1753    5642.3145    6334.9778    168.68414   -322.38926    949.35522   -4265.2645 
38935000      70.9003   -5101.1364   -4964.3992   -5101.1364            0    7397.2607    19.783708    19.809531     20.27402    7945.5097     7413.556    7384.0775    7394.1486    145.21262   -843.09128   -281.22353    -4107.226 
38936000    69.704176    -5101.547   -4967.1166    -5101.547            0    6284.8493    19.676953     19.74139     20.48671    7958.0707    5469.4718    7082.7446    6302.3314    190.61543   -770.35212    417.80211   -4237.6951 
38937000    67.992473    -5111.206   -4980.0768    -5111.206            0    5956.4663    19.799924    19.786916    20.391979    7989.1579    5795.0142    6561.3017     5513.083    215.19702    766.70075   -222.42432    -4286.067 
38938000     71.74117   -5105.4379    -4967.079   -5105.4379            0    7216.7289     19.74966    19.685409    20.428895    7942.3483    6324.0687    8947.6541    6378.4641    369.28331   -149.64816    1060.5011   -4131.1581 
38939000    64.796599   -5105.1887    -4980.223   -5105.1887            0    6253.1775    19.739556    19.853175    20.297998    7954.6405    6092.0213    5849.6592     6817.852    -431.1617   -334.06714    81.172107   -4254.7902 
38940000     69.24655   -5096.1242   -4962.5764   -5096.1242            0    6065.0268    19.609267    19.760691    20.563769    7968.3097    5389.6225    7084.7056    5720.7524    20.783422    1112.7912    14.327629    -4257.762 
38941000    69.003409   -5106.2322   -4973.1533   -5106.2322            0    6335.0011    19.807542    19.792669    20.327568    7969.3033    6611.6095    6073.3094    6320.0843    39.071993    383.46299   -800.15118   -4236.8734 
38942000    70.814355    -5105.861   -4969.2895    -5105.861            0    5971.1245    19.647832    19.837801    20.406095    7953.6792    5137.3195    6366.6993    6409.3548    -131.8165    814.15533    35.751161   -4276.6615 
38943000    71.163594   -5104.5283   -4967.2834   -5104.5283            0    7962.2715    19.722588    19.712681     20.34205    7908.6855    7995.0638    7225.8909      8665.86    375.22819    212.29657   -456.70485   -4048.9144 
38944000    69.229227   -5101.1486   -4967.6343   -5101.1486            0    6659.4027    19.839533    19.720394    20.389071    7977.0892    7462.4093    6352.0333    6163.7655   -16.063261    1062.6446   -122.40947   -4192.8949 
38945000    70.014784   -5102.6727   -4967.6433   -5102.6727            0     7321.184    19.641229     19.69252    20.453297    7911.0345    8834.0443    5702.9902    7426.5174   -282.53066    963.25384   -348.03695   -4122.9666 
38946000    69.195523   -5104.5165   -4971.0672   -5104.5165            0    6557.2723    19.629153    19.919609    20.291659    7934.1409    8134.9356    5408.8886    6127.9927    50.295969   -397.97397    166.86436   -4212.3166 
38947000     67.76547   -5099.6899   -4968.9985   -5099.6899            0    7449.7634    19.670961      19.7148       20.456    7933.0218    7664.9895    6857.7809    7826.5197   -418.57095    6.2358364    442.56899   -4107.0983 
38948000    71.762711   -5107.2619   -4968.8615   -5107.2619            0    6871.0222     19.72517    19.852022    20.292805    7946.3478    6278.7582    6277.8679    8056.4407   -383.54541    -277.1995    382.67772   -4172.5833 
38949000    70.346637   -5101.4404    -4965.771   -5101.4404            0    7152.2305    19.654275    19.824929    20.399093     7948.397     8338.087    6879.7372    6238.8672   -957.24241    568.63507   -16.894049   -4136.6901 
38950000    66.920437    -5102.117   -4973.0554    -5102.117            0    7778.3665    19.738639    19.775855    20.281245    7916.7527    7598.4993    7578.5258    8158.0743   -145.76033    599.90085     746.3482   -4074.9829 
38951000    70.868626   -5111.9257   -4975.2496   -5111.9257            0    6334.3482    19.695893    19.795387    20.403609    7955.1185    7198.1669    5562.8028    6242.0751   -117.44848    868.12881     1126.997    -4240.356 
38952000    68.801853   -5106.0272    -4973.337   -5106.0272            0    6657.1235    19.695804    19.743599    20.490967    7968.2411    6195.5385    7897.0792    5878.7528    174.55193    249.78995    67.639082   -4199.7219 
38953000    67.046138   -5104.7022    -4975.398   -5104.7022            0    7410.5735    19.699468    19.752079    20.360516    7922.3872    7889.3354    6959.9518    7382.4333   -94.137626    415.76912    468.45068   -4119.1812 
38954000    67.408811    -5111.439   -4981.4355    -5111.439            0    6191.1552    19.769041    19.718696    20.447282    7970.7537    5817.8719     6483.119    6272.4746    41.308128   -686.12373   -515.32096    -4261.743 
38955000    67.949647   -5110.3425   -4979.2959   -5110.3425            0    6130.0234    19.733974    19.718996    20.402755     7939.409    6022.6446    6272.4776    6094.9478    24.307659    878.43434    252.01429   -4269.5119 
38956000    65.471165   -5103.4421   -4977.1754   -5103.4421            0    6896.1165    19.743529    19.791342    20.294736    7930.1872    7792.5434    5585.8259    7309.9803    105.24423     139.6419    116.94086   -4179.6144 
38957000    70.646475   -5112.4467    -4976.199   -5112.4467            0     6882.233    19.669169    19.735509    20.487382    7952.8137    6225.0484    7721.2313    6700.4193    143.94298    188.29308   -92.266375   -4177.9727 
38958000     69.33209   -5103.0521   -4969.3393   -5103.0521            0    6400.3383    19.778382    19.806928    20.321741    7961.0218    5621.1969    6689.2765    6890.5415   -182.37168    877.68602   -113.61274   -4226.2387 
38959000    71.822742   -5110.2817   -4971.7655   -5110.2817            0    6340.5893    19.669465    19.769907    20.414333    7938.3891    5804.3941    7114.6439    6102.7298   -313.54498    258.76907   -223.81122   -4237.6948 
38960000    68.208947   -5094.5676   -4963.0209   -5094.5676            0    7081.7704    19.695311    19.710805     20.46522    7944.8117    6710.0755    7205.0479    7330.1878   -542.67829   -2.7059635    582.97469   -4142.4779 
38961000    67.868656   -5103.6508   -4972.7604   -5103.6508            0    6908.5434    19.742204    19.776998    20.389314    7960.8351    8369.1236    5929.2067       6427.3   -341.57037    372.11904   -137.48827   -4170.6743 
38962000    68.995694   -5102.4479   -4969.3839   -5102.4479            0    7698.6571    19.611656     19.89945    20.313781    7927.6803    8519.4976    6380.9999    8195.4739   -668.55121    -991.4154    1547.2841   -4079.2876 
38963000    69.272099   -5102.8663   -4969.2693   -5102.8663            0    6605.8907    19.713611    19.815156    20.417269    7975.5624    6070.3282     6940.494    6806.8498    214.49716   -981.84925   -290.81145   -4200.9025 
38964000    70.328328   -5109.0147   -4973.3806   -5109.0147            0    5834.9574    19.686399    19.830069    20.454603    7985.1221    5982.7376    6138.5437    5383.5909   -277.99235   -129.50051   -201.50062   -4293.8717 
38965000    65.474129   -5110.8622   -4984.5899   -5110.8622            0    6839.0146    19.742674    19.789499    20.383705    7963.8652    6552.5628    7378.3099     6586.171   -147.92467    -189.6563   -546.54001   -4190.2739 
38966000     68.79406   -5106.0898   -4973.4147   -5106.0898            0    6799.0936    19.682342    19.787789    20.326101    7916.4071     6946.646    6493.5029     6957.132   -656.34968    32.235583    922.87891   -4188.4411 
38967000    65.187923   -5105.8383   -4980.1179   -5105.8383            0    7582.0084    19.593151    19.787514    20.462575    7933.3357    8828.6495    6330.6275    7586.7482   -247.89362    346.46283    645.67514   -4102.8829 
38968000    71.143477   -5103.0884   -4965.8823   -5103.0884            0    7254.4576    19.685554    19.743379    20.473564    7957.2424    8603.5691    6603.2274    6556.5764   -97.971586    174.70068    187.80927   -4124.0154 
38969000    69.674984   -5102.1168   -4967.7428   -5102.1168            0    7528.6624     19.70272    19.760661    20.356491    7925.5712    6013.6914    8742.5869     7829.709   -168.31857    895.68152    -520.7718   -4097.5324 
38970000    66.648478   -5105.3823   -4976.8451   -5105.3823            0    6838.9657    19.604057    19.841186    20.375281    7925.3268    6121.2803    7121.1829     7274.434    -13.39777    577.89717    258.02439   -4186.3786 
38971000    68.561289   -5106.4739   -4974.2477   -5106.4739            0    5808.3288    19.781669    19.778107    20.351055    7962.2272    5858.9456    5727.7014    5838.3393   -391.92507    728.90681   -392.59348   -4299.7792 
38972000    68.759232    -5112.464   -4979.8561    -5112.464            0    6249.8784    19.744467    19.735054    20.474886    7978.2058    7541.2862    5575.9844    5632.3646   -612.29038    489.26372     308.2751   -4252.6581 
38973000     70.66847   -5111.7223   -4975.4323   -5111.7223            0    5886.7731    19.618442    19.758106    20.480055    7938.5459    5840.0106    6609.1865    5211.1221   -352.58921   -451.08796   -658.30873   -4293.8879 
38974000    67.241451   -5098.8573   -4969.1765   -5098.8573            0    8015.6049    19.778626    19.732275    20.280947     7915.193     8282.237    7509.3825    8255.1952    177.08819    587.94467    108.01569   -4043.8954 
38975000    67.290208   -5110.2729   -4980.4981   -5110.2729            0    5959.7206    19.742158    19.739728    20.459636    7973.2191    6464.5522    5224.3613    6190.2482    267.34573    318.80439   -625.30904   -4287.4945 
38976000     72.37875   -5115.1766   -4975.5881   -5115.1766            0    6012.6962    19.706177    19.825993    20.427895    7981.0667    6323.7128    5743.7296    5970.6461    2.6783732    561.00092    414.99879   -4275.7362 
38977000    72.591137   -5096.4567   -4956.4586   -5096.4567            0    6876.4776    19.751637    19.738396    20.440929    7969.2154    6831.7696    6806.2158    6991.4474    25.081503    651.51984     367.4174   -4157.2549 
38978000    70.388062   -5102.7839   -4967.0346   -5102.7839            0    6040.6288     19.73401    19.833357    20.336391    7959.4939    5759.1821     6053.977    6308.7272    206.59993    861.53057    25.534939    -4265.832 
38979000    70.002799   -5102.3004   -4967.2941   -5102.3004            0    7013.1116    19.657862    19.689932    20.540435    7950.4209    8534.9595    6527.1454      5977.23   -64.074746    991.84016    637.39841   -4154.1327 
38980000    71.470144   -5103.0562     -4965.22   -5103.0562            0    5939.0191    19.850286    19.806469    20.271758    7970.1268    4804.7709    6110.9329    6901.3534   -367.84943     44.02599    147.07056   -4274.8914 
38981000    71.870007   -5104.6429   -4966.0355   -5104.6429            0    7432.8467    19.746538    19.805943    20.332871    7952.1621    7334.2609    7355.5848    7608.6942   -366.27998    303.76044   -249.25509   -4104.0176 
38982000    66.577677   -5098.8279   -4970.4273   -5098.8279            0    7074.4671    19.704635    19.760617    20.402259    7944.1447    6495.8579    7350.9312    7376.6123   -51.644507     100.0321    245.96649   -4150.7993 
38983000    70.920577   -5111.9295   -4975.1532   -5111.9295            0     7791.145    19.623245    19.772729    20.438345    7930.1826    8171.7278    7778.7721     7422.935    -255.6998    919.61638    88.431711   -4074.0794 
38984000    68.542755   -5099.4127   -4967.2223   -5099.4127            0    7031.7746     19.79969    19.719692    20.360902    7949.7875    6175.0159    7287.9778      7632.33    218.09649    429.86476   -209.91832   -4151.9619 
38985000    64.905551   -5108.1254   -4982.9496   -5108.1254            0    6327.0257    19.656375     19.77308    20.500042    7967.6913    6566.2506    6595.4732    5819.3534   -145.62407   -655.14922    675.70255   -4247.7453 
38986000    67.326314   -5107.7153   -4977.8708   -5107.7153            0    6877.2609    19.722442    19.796147    20.381749    7957.6129    6592.5403    7439.0975    6600.1449   -276.18853   -205.54157   -746.87387   -4179.7398 
38987000      66.0784   -5099.3406   -4971.9028   -5099.3406            0    6620.7925    19.693971    19.688833    20.483025    7942.3199    6074.4394    7895.1059    5892.8322   -482.24475    290.23356   -269.31608   -4205.0125 
38988000    68.395728   -5099.8806   -4967.9737   -5099.8806            0    6620.2771    19.681529    19.728484    20.457787    7943.4871    7155.8001    6588.7633    6116.2678    70.415751    230.75959   -444.88525   -4201.0304 
38989000    67.610922   -5104.2705   -4973.8771   -5104.2705            0    5972.6515    19.904067    19.703119     20.33119    7973.3274    5159.1213    6089.4323    6669.4007   -241.98521   -24.970265   -152.85622   -4279.3605 
38990000    68.822741   -5100.6942   -4967.9637   -5100.6942            0    7255.7579    19.762303    19.720147    20.379741    7942.3018    6256.7898    8079.9963    7430.4875    1.3707816    1276.6555    683.98137   -4127.5269 
38991000    69.381346   -5112.8956   -4979.0879   -5112.8956            0    6546.6769    19.781796    19.705594    20.451635    7972.2935    6844.5098    6450.4006    6345.1203   -161.21279   -377.08826     247.4682   -4217.9207 
38992000    66.758614   -5101.1459   -4972.3963   -5101.1459            0    7120.4275     19.73186    19.747689    20.392869    7946.2571    6660.1887    6889.2633    7811.8304   -347.41304   -183.15549   -87.649868   -4147.2241 
38993000    69.880807    -5103.064    -4968.293    -5103.064            0    7298.1093    19.650599    19.894783    20.363964    7961.1779     8242.675    6101.3903    7550.2626    135.43676    287.53904   -198.54542   -4120.9415 
38994000    71.427739   -5104.7234    -4966.969   -5104.7234            0    6545.7415     19.75115    19.782833    20.342707    7948.5812    5575.9925    7177.2613    6883.9706   -291.51289   -425.30814   -209.80101   -4208.1742 
38995000    73.074693   -5099.7453   -4958.8146   -5099.7453            0    7821.8675    19.697243    19.698648    20.426941    7925.8383    8236.6163    7544.5348    7684.4513   -4.7647973   -8.5989574     332.9257   -4054.6832 
38996000    70.524227    -5102.397   -4966.3851    -5102.397            0    7476.2771    19.808074    19.767542    20.263608    7934.3561     7422.165    7586.9635    7419.7028   -38.190921    78.649469    203.38516   -4101.2718 
38997000    66.127468    -5104.552   -4977.0197    -5104.552            0    6765.8116     19.67364    19.765188    20.451443    7952.6089    6390.1667    7418.4952    6488.7729   -538.25559    -227.0362   -292.15886   -4192.3165 
38998000     68.86114   -5098.2688   -4965.4644   -5098.2688            0    6170.6638    19.707721    19.822449    20.360277    7953.8499    6630.6499    5834.9151    6046.4265   -34.685389   -127.78389    88.972469   -4249.6751 
38999000    63.356491   -5102.3569   -4980.1686   -5102.3569            0    6915.7154    19.789539    19.703715    20.443733    7971.5723    6982.7285    6956.8319    6807.5858   -440.06959    -540.0109   -11.614336   -4176.1669 
39000000    70.550421   -5099.8476   -4963.7852   -5099.8476            0    7422.2779    19.730719    19.694725    20.491325    7962.7463    8386.9717    6676.6893    7203.1727   -232.71803    330.29226    403.30113   -4101.8473 
Loop time of 363.909 on 64 procs for 250000 steps with 972 atoms

Performance: 118.711 ns/day, 0.202 hours/ns, 686.984 timesteps/s
195.1% CPU use with 32 MPI tasks x 2 OpenMP threads

MPI task timing breakdown:
Section |  min time  |  avg time  |  max time  |%varavg| %total
---------------------------------------------------------------
Pair    | 26.053     | 35.711     | 45.258     |  83.1 |  9.81
Bond    | 1.1146     | 1.2576     | 1.7455     |  12.6 |  0.35
Kspace  | 162.21     | 171.04     | 184.83     |  40.9 | 47.00
Neigh   | 0.11213    | 0.11852    | 0.13476    |   2.1 |  0.03
Comm    | 60.029     | 65.004     | 67.657     |  29.1 | 17.86
Output  | 0.50678    | 0.50805    | 0.50976    |   0.1 |  0.14
Modify  | 72.617     | 73.611     | 75.924     |   8.6 | 20.23
Other   |            | 16.66      |            |       |  4.58

Nlocal:        30.3750 ave          36 max          23 min
Histogram: 2 0 1 7 1 3 12 3 0 3
Nghost:        2754.81 ave        2791 max        2720 min
Histogram: 2 1 6 2 5 4 5 4 1 2
Neighs:        9868.88 ave       12204 max        7351 min
Histogram: 3 1 4 3 3 3 6 2 6 1

Total # of neighbors = 315804
Ave neighs/atom = 324.90123
Ave special neighs/atom = 2.0000000
Neighbor list builds = 330
Dangerous builds = 0

unfix		3
unfix		2
unfix		1

write_data	data.final.${pid}
write_data	data.final.1
System init for write_data ...
PPPM initialization ...
  extracting TIP4P info from pair style
  using 12-bit tables for long-range coulomb (../kspace.cpp:340)
  G vector (1/distance) = 0.37239696
  grid = 24 24 24
  stencil order = 5
  estimated absolute RMS force accuracy = 0.0034846458
  estimated relative force accuracy = 1.0493907e-05
  using double precision FFTW3
  3d grid and FFT values/proc = 3211 432
Last active /omp style is kspace_style pppm/tip4p/omp
WARNING: Not all mixed pair coeffs generated from mixing. Use write_data with 'pair ij' option to store all pair coeffs. (../write_data.cpp:312)

write_restart   restart.lmp.${pid}
write_restart   restart.lmp.1
System init for write_restart ...
PPPM initialization ...
  extracting TIP4P info from pair style
  using 12-bit tables for long-range coulomb (../kspace.cpp:340)
  G vector (1/distance) = 0.37239696
  grid = 24 24 24
  stencil order = 5
  estimated absolute RMS force accuracy = 0.0034846458
  estimated relative force accuracy = 1.0493907e-05
  using double precision FFTW3
  3d grid and FFT values/proc = 3211 432
Last active /omp style is kspace_style pppm/tip4p/omp
Total wall time: 0:06:04
