#include		in.partitions
include		in.temp
variable        temperature equal 103.97
variable	tempDamp equal 100.0
include		in.pressure
variable        pressure equal 6938.1
variable        pressureDamp equal 1000.0 # This is 1 ps
include		in.seed
variable        seed equal 745823

units		real
atom_style	full
read_restart    restart.lmp.${pid}
read_restart    restart.lmp.0
Reading restart file ...
  restart file = 30 Jul 2021, LAMMPS = 30 Jul 2021
  restoring atom style full from restart
  triclinic box = (-3.1585434 -0.023344942 0.030155260) to (14.768542 22.603344 19.199843) with tilt (-0.033022616 -6.5003506 -0.034712394)
  2 by 4 by 4 MPI processor grid
  restoring pair style lj/cut/tip4p/long/omp from restart
  restoring bond style harmonic/omp from restart
  restoring angle style harmonic/omp from restart
  1008 atoms
  672 bonds
  336 angles
Finding 1-2 1-3 1-4 neighbors ...
  special bond factors lj:    0        0        0       
  special bond factors coul:  0        0        0       
     2 = max # of 1-2 neighbors
     1 = max # of 1-3 neighbors
     1 = max # of 1-4 neighbors
     2 = max # of special neighbors
  special bonds CPU = 0.002 seconds
  read_restart CPU = 0.006 seconds

include 	in.setup
variable	out_freq equal 1000
variable	out_freq2 equal 10000
variable	out_freq3 equal 1000

timestep	2.0

neigh_modify    delay 7 every 1

include		in.tip4p
# This is TIP4P/Ice

# create groups ###
group ox type 2
336 atoms in group ox
group hy type 1
672 atoms in group hy

# set charges - beside manually ###
set group ox charge -1.1794
Setting atom values ...
  336 settings made for charge
set group hy charge 0.5897
Setting atom values ...
  672 settings made for charge

# ### TIP3P Potential Parameters ###
pair_style lj/cut/tip4p/long/omp 2 1 1 1 0.1577 8.5
pair_coeff 1 1*2 0.000 0.000
pair_coeff 2 2 0.21084 3.1668
bond_style  harmonic
bond_coeff  1 450 0.9572
angle_style harmonic
angle_coeff 1 55 104.52
kspace_style pppm/tip4p/omp 1.0e-5
pair_modify tail yes

thermo          ${out_freq}
thermo          1000
thermo_style    custom step temp pe etotal epair emol press lx ly lz vol pxx pyy pzz pxy pxz pyz enthalpy

restart 	${out_freq3} restart.lmp.${pid} restart2.lmp.${pid}
restart 	1000 restart.lmp.${pid} restart2.lmp.${pid}
restart 	1000 restart.lmp.0 restart2.lmp.${pid}
restart 	1000 restart.lmp.0 restart2.lmp.0


include         in.dump
dump            myDump all atom ${out_freq2} dump.water.${pid}
dump            myDump all atom 10000 dump.water.${pid}
dump            myDump all atom 10000 dump.water.0
dump            myDump2 all dcd ${out_freq2} dump.dcd
dump            myDump2 all dcd 10000 dump.dcd
dump_modify     myDump append yes
dump_modify     myDump2 append yes


variable natoms 	equal  "count(all)"                        # NUMBER ATOMS
variable H      	equal  "enthalpy/v_natoms"                 # ENTHALPY-per-atom
variable Vol      	equal  "vol/v_natoms"                 # volume-per-atom
fix AVG all 		ave/time ${out_freq} 1 ${out_freq} v_Vol v_H file vol_enthalpy.dat
fix AVG all 		ave/time 1000 1 ${out_freq} v_Vol v_H file vol_enthalpy.dat
fix AVG all 		ave/time 1000 1 1000 v_Vol v_H file vol_enthalpy.dat



fix 		1 all shake 1e-6 200 0 b 1 a 1
       0 = # of size 2 clusters
       0 = # of size 3 clusters
       0 = # of size 4 clusters
     336 = # of frozen angles
  find clusters CPU = 0.000 seconds
fix             2 all nph tri ${pressure} ${pressure} ${pressureDamp}
fix             2 all nph tri 6938.1 ${pressure} ${pressureDamp}
fix             2 all nph tri 6938.1 6938.1 ${pressureDamp}
fix             2 all nph tri 6938.1 6938.1 1000
fix             3 all temp/csvr ${temperature} ${temperature} ${tempDamp} ${seed}
fix             3 all temp/csvr 103.97 ${temperature} ${tempDamp} ${seed}
fix             3 all temp/csvr 103.97 103.97 ${tempDamp} ${seed}
fix             3 all temp/csvr 103.97 103.97 100 ${seed}
fix             3 all temp/csvr 103.97 103.97 100 745823


run             250000
PPPM initialization ...
  extracting TIP4P info from pair style
  using 12-bit tables for long-range coulomb (../kspace.cpp:340)
  G vector (1/distance) = 0.37952149
  grid = 24 27 32
  stencil order = 5
  estimated absolute RMS force accuracy = 0.0024392002
  estimated relative force accuracy = 7.3455791e-06
  using double precision FFTW3
  3d grid and FFT values/proc = 5355 672
Last active /omp style is kspace_style pppm/tip4p/omp
Neighbor list info ...
  update every 1 steps, delay 7 steps, check yes
  max neighbors/atom: 2000, page size: 100000
  master list distance cutoff = 10.8154
  ghost atom cutoff = 10.8154
  binsize = 5.4077, bins = 5 5 4
  1 neighbor lists, perpetual/occasional/extra = 1 0 0
  (1) pair lj/cut/tip4p/long/omp, perpetual
      attributes: half, newton on, omp
      pair build: half/bin/newton/tri/omp
      stencil: half/bin/3d/tri
      bin: standard
Per MPI rank memory allocation (min/avg/max) = 10.31 | 10.32 | 10.33 Mbytes
Step Temp PotEng TotEng E_pair E_mol Press Lx Ly Lz Volume Pxx Pyy Pzz Pxy Pxz Pyz Enthalpy 
31750000    104.99763   -5165.6477   -4955.6395   -5165.6477            0    7468.4698    17.927086    22.626689    19.169687    7775.8117    7540.9076    7558.4486    7306.0531   -276.52496   -255.26776   -558.93086   -4108.6983 
31751000    103.69207   -5178.8276   -4971.4307   -5178.8276            0     6682.136     17.72815    22.883046    19.175667    7779.0708    8218.2439    5635.9387    6192.2255     940.3976    525.67739   -9.3446082   -4213.3439 
31752000    100.86974   -5168.0143   -4966.2624   -5168.0143            0    7405.1701     17.78709    22.682102    19.207222    7749.1269    7697.6653    7734.0055    6783.8394   -166.46922    430.58713   -1280.4429   -4129.3814 
31753000    104.23554   -5177.4416   -4968.9576   -5177.4416            0     7776.303    17.895014    22.668206    19.076553     7738.363    7078.8068    7627.7409    8622.3612   -69.195091    -397.8243   -162.19722   -4091.3545 
31754000    98.983011   -5178.0966   -4980.1184   -5178.0966            0    8031.7807    17.833065    22.740184    19.081054    7737.8861    8668.8047    7383.5976    8042.9399    1242.5324    318.26996   -1030.0909   -4073.7389 
31755000      100.163    -5170.779   -4970.4407    -5170.779            0    6990.5003    17.901693    22.676084    19.170743    7782.1772    7402.3455    6411.2114     7157.944   -53.989162   -87.900704   -1393.8311   -4177.0533 
31756000    105.95769   -5174.4902   -4962.5617   -5174.4902            0    5685.4992    17.850861    22.889613    19.114405    7810.1327    5236.5935     5632.647     6187.257    -192.6368   -165.73011   -502.47318   -4314.9676 
31757000    104.35024   -5173.2025   -4964.4891   -5173.2025            0    7473.2064    17.770312    22.598004    19.294865     7748.308    8403.3373     7511.809    6504.4728    1229.2946    67.532916    488.28995   -4120.0084 
31758000    105.59361   -5172.5611   -4961.3608   -5172.5611            0    7719.3159    17.884895     22.65132    19.141716    7754.6245    7286.9019    7602.1877    8268.8581   -742.02996   -247.53637    646.39078   -4088.3583 
31759000    108.25429   -5171.4449    -4954.923   -5171.4449            0    7057.3839    17.792372    22.788623    19.197785    7784.0043    7916.5726    6242.1838    7013.3951   -399.03285   -434.12806    839.77107   -4153.7566 
31760000    107.03122   -5171.5797   -4957.5041   -5171.5797            0    7753.1768    17.750807    22.721068    19.192021    7740.4742    7318.3966    7644.3116    8296.8221    803.06345   -218.49878    291.33321   -4082.2722 
31761000    103.01465   -5179.9905   -4973.9485   -5179.9905            0    5754.6364    18.033896    22.600928     19.16595    7811.7112    5513.2508    6195.3424    5555.3158    990.27981    293.29047   -685.19259    -4318.347 
31762000    106.25097    -5160.834   -4948.3189    -5160.834            0    6916.0562    17.855469    22.768446    19.138052    7780.4081    6250.9912    7297.8973    7199.2801   -860.29045   -195.98804   -270.09151   -4163.5591 
31763000     107.1895   -5164.0187   -4949.6265   -5164.0187            0    6975.5377    17.918418    22.705259    19.085603    7764.8311    5485.6468    7479.3065    7961.6597   -79.243913   -142.77958   -1204.9442    -4159.702 
31764000    106.52743   -5183.2236   -4970.1556   -5183.2236            0     6398.285    17.904566     22.68669    19.140238    7774.6755    5539.6539    6723.8358    6931.3653    353.62054   -113.63696    1387.1064   -4244.6818 
31765000    106.04466   -5178.3051   -4966.2027   -5178.3051            0    6443.2947    17.807472     22.78894    19.153069    7772.5724    6347.1035    6467.0149    6515.7659   -578.07981   -898.90195   -1008.0911    -4235.823 
31766000    107.71382   -5175.4968   -4960.0558   -5175.4968            0    8188.0775    17.794734    22.682271    19.156401     7732.002    8346.2552    7840.1077    8377.8695    348.88117    77.094334    -468.3883   -4036.7411 
31767000     102.9223   -5175.2978   -4969.4405   -5175.2978            0     7594.644    17.907958    22.751319    19.059642    7765.4632    8428.9239    7314.6588    7040.3493    101.29993    1019.1312    493.71092   -4109.3371 
31768000    98.986117   -5173.6335    -4975.649   -5173.6335            0     6660.983     17.83032    22.651574    19.238384    7770.0914    6424.2243    7619.8618     5938.863    473.84005    257.39314    727.59711   -4220.8343 
31769000    102.65977   -5172.5243    -4967.192   -5172.5243            0    6355.7288    17.846983    22.863581    19.038489    7768.5782    6517.2863    5967.5122     6582.388    565.16574    -882.9292    1885.3823   -4247.1087 
31770000    108.92811   -5187.5514   -4969.6817   -5187.5514            0    6385.7139    17.906797    22.651684    19.179023    7779.3785    6555.2655    5875.6597    6726.2164    -126.1686    -535.0635   -954.25789   -4245.1953 
31771000    105.64535   -5188.7577   -4977.4539   -5188.7577            0    6691.9891    17.823776    22.752888    19.140587     7762.319    6364.9715    6295.9906    7415.0052   -525.31315    45.293712   -742.14638   -4219.8842 
31772000    104.85559   -5177.5355   -4967.8113   -5177.5355            0    6601.0094    17.908836    22.724667    19.105917    7775.5793    7363.6489    6440.9548    5998.4244    209.02889    201.42423   -335.96891   -4219.2645 
31773000     101.1754   -5176.1913    -4973.828   -5176.1913            0    8315.2896    17.845392     22.59733    19.179721      7734.38    8304.7553    8640.1314    8000.9821   0.10611248   -102.48796     1096.157     -4035.88 
31774000    108.05845   -5162.2029   -4946.0726   -5162.2029            0     7966.843     17.89212    22.827364     19.00998     7764.245    8095.3373     7644.909    8160.2827   -248.18996    217.35266   -559.76765   -4043.9587 
31775000    106.60255   -5165.2808   -4952.0626   -5165.2808            0    7913.6987    17.822206    22.694667    19.142717    7742.6361    8643.3178    7528.8459    7568.9323   -167.14364   -391.34533   -734.04649   -4058.4603 
31776000    102.98524   -5163.8969   -4957.9137   -5163.8969            0    7593.0299    17.841334    22.710817    19.165398    7765.6521    8070.8385    7066.0457    7642.2056   -594.67949   -16.915199    629.94379   -4097.9722 
31777000    105.61503   -5162.2144   -4950.9713   -5162.2144            0    8160.1833     17.86019    22.699994     19.11333    7749.0449    9234.7754    8200.6118    7045.1626    530.32227    706.75407    926.66976   -4028.7737 
31778000     100.6677   -5169.5285   -4968.1807   -5169.5285            0    7647.8215    17.830234    22.708082    19.118564    7740.9234     8722.159     6271.547    7949.7585    131.24412   -184.39373    968.07553   -4104.7919 
31779000    104.68609   -5173.9755   -4964.5904   -5173.9755            0    7304.9713    17.824637    22.680597     19.18547    7756.1754    7585.3306    7762.5262    6567.0572    8.7097053   -78.458916   -976.43278   -4138.2822 
31780000    105.47099   -5165.6311   -4954.6761   -5165.6311            0    7897.3044    17.699086    22.767783    19.225578    7747.3106    9638.7754    7357.3213    6695.8166   -322.33452   -1129.1351   -337.58299   -4062.3867 
31781000    107.71368    -5173.036   -4957.5954    -5173.036            0    6214.7168    17.953018    22.577702    19.212554    7787.5763    6487.2228    6917.2676    5239.6601   -131.49759    383.65145    345.83064   -4251.7663 
31782000    104.01407   -5164.8145   -4956.7735   -5164.8145            0    7629.0011    17.740858    22.848962    19.121922    7751.2658    7241.8771    7941.9014    7703.2247   -378.72499    677.35516   -40.059831   -4094.3587 
31783000    105.85338   -5176.8383   -4965.1185   -5176.8383            0    7324.6216    17.914174    22.674183    19.114206    7763.9852    7842.3916    7137.1793     6994.294   -643.55955   -151.87662   -1245.9212   -4135.7533 
31784000    100.66314   -5180.1795   -4978.8408   -5180.1795            0    6075.1335    17.775313    22.768454    19.234392    7784.4741    8148.2395    5303.3927    4773.7682   -103.62098    391.54551   -224.72179   -4289.1396 
31785000    103.77566   -5183.8746   -4976.3104   -5183.8746            0    8126.2069    17.833697    22.687722    19.138377    7743.5012    8392.4441    7731.6522    8254.5242    161.21536   -136.72736   -827.22204   -4058.6096 
31786000    103.10951   -5184.3888   -4978.1571   -5184.3888            0    5980.7301    17.899564    22.700703    19.163603    7786.7985    5994.6704    6132.4703    5815.0497   -419.77673    142.89951      -463.74   -4298.9706 
31787000    105.98503    -5178.319   -4966.3359    -5178.319            0    6552.2454    17.744674    22.760404     19.25057    7774.8425    7187.7066    6358.1338    6110.8956    498.43668    87.046918    57.434088   -4223.3892 
31788000    103.94353   -5177.9738   -4970.0739   -5177.9738            0      6640.59    17.953225    22.579425    19.198701    7782.6447    6465.8837    6927.5329    6528.3536    149.52578   -606.93358   -286.09826   -4216.3544 
31789000    102.24466   -5170.7629    -4966.261   -5170.7629            0     6794.998     17.74259    22.949178    19.069259    7764.5802    7386.1692    6140.7244    6858.1004    339.34998   -304.62255    984.19049    -4196.806 
31790000    105.68115   -5176.5571   -4965.1817   -5176.5571            0    6657.9722    17.785005     22.79073    19.147952    7761.3011    6122.7832    6707.8697    7143.2635    -288.2738    97.508613   -1440.6365   -4211.5618 
31791000    102.58735   -5170.0345   -4964.8471   -5170.0345            0    6724.5971    18.071473     22.50715    19.130365    7781.0339    6366.2878    6862.3149    6945.1886   -203.03263    16.505644   -221.47159   -4201.7506 
31792000     103.8393   -5177.7365   -4970.0451   -5177.7365            0     5920.394    17.782629    22.891102      19.1104    7779.1551    6011.9122    5446.8528    6302.4169    1367.0475   -268.19896    1274.6514   -4298.3705 
31793000    107.89024   -5174.6428    -4958.849   -5174.6428            0    6136.7593    17.845758    22.663017    19.296399    7804.2108    6143.7731    6867.3797    5399.1252   -1229.5511    508.57579    139.95043   -4260.3851 
31794000    105.43946   -5184.1266   -4973.2346   -5184.1266            0    8161.1333    17.940271    22.459841     19.18162    7728.9583    7596.8327    9207.1586    7679.4085    757.22277    1002.4635     99.49195   -4053.3204 
31795000    102.83017   -5183.3026   -4977.6295   -5183.3026            0    6578.9578    17.829316    22.743669    19.139475    7761.1349    6002.5665    6631.6788    7102.6282    -322.9728   -1171.9716     136.3173   -4232.9692 
31796000    100.71606   -5179.2374   -4977.7929   -5179.2374            0    7701.0616    17.861967    22.603863    19.184303    7745.6522    6608.1505    8348.2958    8146.7385   -100.82612    112.70068      860.422   -4107.8625 
31797000    101.42683   -5166.5431    -4963.677   -5166.5431            0    8231.4511    17.940872    22.634381    19.041359     7732.325    8032.2763    8460.1215    8201.9554    468.31054   -136.88712    16.593818   -4035.4324 
31798000    104.58205   -5188.0098   -4978.8328   -5188.0098            0    6266.0053    17.982363    22.546932    19.242454    7801.7979    6344.1687    6926.6839    5527.1635   -260.85427    380.81762     1302.484   -4265.8791 
31799000    106.63242   -5174.3441   -4961.0661   -5174.3441            0      5671.03    17.877434    22.772823    19.132207    7789.0973    5540.6207    6005.7374    5466.7319    474.69782   -150.19137   -2.8388738   -4316.8598 
31800000     103.7929   -5182.2444   -4974.6458   -5182.2444            0    6942.4665    17.937462    22.731421    19.039544    7763.2601    6119.2566    6966.2975    7741.8455   -968.04327   -848.19706   -1149.5912   -4188.6254 
31801000    110.28526   -5160.1209   -4939.5368   -5160.1209            0    7552.9547    17.801575    22.629042    19.232145    7747.3345    8293.5142    7899.2796    6466.0703    70.322626    86.142901    861.53295   -4086.1517 
31802000    103.66584   -5179.6882   -4972.3437   -5179.6882            0    7840.4896    17.883673    22.692471    19.083201     7744.435    7694.5409     6972.644     8854.284   -505.51327   -1157.3555   -1193.5069   -4086.8025 
31803000    99.762261   -5182.0197   -4982.4828   -5182.0197            0    7286.9976    17.859234    22.710409    19.146032    7765.4489    6478.6797    7647.1253    7735.1878    38.658069    278.14609   -113.70077   -4157.2223 
31804000    110.20566   -5181.6526   -4961.2276   -5181.6526            0    6366.9185    17.830351    22.756989    19.201161    7791.1612    7744.2206    6142.9265    5213.6084   -314.42661   -943.38516   -864.48481   -4237.7795 
31805000    109.71406   -5179.5377    -4960.096   -5179.5377            0    7273.0725    17.899571    22.581899    19.212563    7765.8394    6848.5637    7634.7099    7335.9437   -1511.0554    540.32485    962.60835   -4136.3711 
31806000    111.23215   -5171.5179   -4949.0399   -5171.5179            0     6483.404    17.860174    22.770775    19.113193    7773.1444     5688.068    6535.1711    7226.9731    311.12414     652.5865    985.57992   -4214.0595 
31807000    96.889321   -5173.5755   -4979.7849   -5173.5755            0    7198.7966    17.803607    22.672855    19.229751    7762.2542    6145.7183    7852.6518    7598.0197   -639.57283    413.76774   -517.43296   -4164.8486 
31808000    101.65335   -5170.7512    -4967.432   -5170.7512            0    6398.0836    17.893476    22.679475    19.186548    7786.1822    5806.5238    6576.9487    6810.7783    1388.9317   -222.93166    1061.0691   -4240.9073 
31809000    104.94673   -5175.6048   -4965.6984   -5175.6048            0    7804.6465    17.806272    22.781623    19.075493     7738.084     7355.676    7405.6022    8652.6613   -225.88305   -84.810072   -1039.5503   -4084.9283 
31810000    105.41588    -5177.282   -4966.4372    -5177.282            0     7782.302    17.787268    22.668158    19.206883    7744.3034    7570.4616    7985.1382    7791.3062    630.68357    231.31549   -920.89936   -4087.4829 
31811000    106.44955   -5166.1756   -4953.2633   -5166.1756            0    7602.8427    18.020179    22.562173    19.050021    7745.2507    6518.6267    7961.6966    8328.2049   -1409.1963    283.87538    406.87924   -4094.4725 
31812000    109.24529   -5162.2776   -4943.7736   -5162.2776            0     7148.751    17.816247    22.703206    19.175113    7756.0631    6414.5247    7978.2538    7053.4746   -472.47605   -270.80919   -451.73989   -4135.1481 
31813000    112.64181   -5180.0801   -4954.7826   -5180.0801            0    6668.5997    17.869071    22.830474    19.046902    7770.3619    6680.5808    6176.5808    7148.6374   -204.67445   -83.861085   -432.30061   -4199.0785 
31814000    103.87306    -5184.652    -4976.893    -5184.652            0    5614.1125    17.993058    22.543154    19.276857     7819.084    5403.1746    6143.3056    5295.8573    556.08045     550.9717    1120.4827   -4336.6971 
31815000    100.21215   -5177.3046    -4976.868   -5177.3046            0    7314.6053    17.818374    22.732756    19.184909    7771.0536    8155.7884    7104.7381    6683.2895    -179.2938   -226.94059    170.81618   -4147.8829 
31816000    107.04257   -5169.1676   -4955.0692   -5169.1676            0    7213.6238    17.802748    22.751822    19.204281    7778.5971    7508.9571    6448.7381    7683.1761    636.91879   -681.24816    647.16347   -4136.7351 
31817000    101.95684   -5175.1644   -4971.2381   -5175.1644            0    7842.6132    17.904362    22.622666    19.146357    7755.1246    7004.0335    8470.2375    8053.5685   -909.33621    570.21328   -1548.1001   -4084.2343 
31818000    104.05967   -5171.7545   -4963.6223   -5171.7545            0    7012.3493    17.860536     22.71743     19.15097    7770.4197    6897.0234    6584.7632    7555.2613    411.12998   -842.16121    1574.2077   -4168.9577 
31819000    103.33357   -5184.3654   -4977.6855   -5184.3654            0    7844.5826    17.793232      22.6244    19.221081    7737.6614    7813.1478     8215.056    7505.5439    175.46979   -771.32528    1082.5656   -4092.4569 
31820000    106.14011   -5177.9051   -4965.6118   -5177.9051            0    6334.7705    17.890244    22.631701    19.224631    7783.7965    7530.1063    6615.4877    4858.7174    148.39225    316.96184   -97.318396   -4246.4969 
31821000    105.73955   -5176.7255   -4965.2334   -5176.7255            0     7036.281    17.849353    22.802443    19.081699    7766.4205    6338.2195    7210.2694    7560.3541    294.21398    721.22035    2344.1453    -4168.267 
31822000    106.29897    -5161.414   -4948.8029    -5161.414            0    6573.4514    17.873857    22.668095    19.252923    7800.6354    6099.4809    6563.2203     7057.653   -671.18431    272.81421    153.74663   -4200.9791 
31823000    102.29981   -5189.9695   -4985.3573   -5189.9695            0    6715.9149    17.830196    22.786471    19.107154    7762.9932    7246.4906    6225.8848    6675.3692    550.27599    64.889173   -1238.3582    -4225.013 
31824000    101.12196   -5180.4422   -4978.1858   -5180.4422            0    7540.6192    17.813552    22.579397    19.260536    7746.9583    6543.1009    8076.3225    8002.4341   -99.229061    506.39062   -1291.1759   -4126.2358 
31825000    101.87257   -5177.7791   -4974.0213   -5177.7791            0    5862.2117    17.917327    22.908009    18.973381    7787.6296    5231.8379      5090.84    7263.9572   -483.86873   -841.41613   -190.34645    -4308.223 
31826000    105.41208   -5176.0481   -4965.2109   -5176.0481            0    6578.3851    17.786175    22.677757    19.286325    7779.1497    6277.6373    7269.8897    6187.6284    31.715266    387.36853    -330.4842   -4218.8871 
31827000    99.355958    -5186.049   -4987.3248    -5186.049            0    6405.7851    17.966385    22.653202     19.09989    7773.5818    6867.8058    6430.8087    5918.7407   -18.587355    392.09096    268.06823   -4261.1028 
31828000    109.76888   -5168.8186   -4949.2673   -5168.8186            0    7551.4605    17.760533    22.776774    19.163559    7752.1895    8876.0021    6664.5037    7113.8755    -266.8118   -338.93028   -391.21858   -4095.5163 
31829000    104.07371   -5184.7742    -4976.614   -5184.7742            0     7158.097    17.866182    22.643197    19.185698    7761.5257    6835.3185    7364.8932    7274.0792   -292.85183   -510.07109   -82.571421   -4166.3611 
31830000    107.78004   -5172.9588   -4957.3854   -5172.9588            0    6589.0536    17.856704    22.862435    19.064021    7782.8435    6364.3397    5669.4871    7733.3341   -671.13185   -153.43421   -332.97344   -4209.4963 
31831000    104.14638   -5176.1141   -4967.8084   -5176.1141            0    6852.0391    18.012379    22.503801      19.2386    7798.3087    6722.2854     7594.093     6239.739   -32.915132      -179.98    39.291528   -4188.5237 
31832000    105.72939   -5191.9883   -4980.5164   -5191.9883            0    6630.0217    17.971949    22.699232    19.078777    7783.1763    5389.1851    7170.3591    7330.5208    752.36097    376.47806   -5.2420915    -4227.945 
31833000     104.4286   -5166.7836   -4957.9135   -5166.7836            0    8293.6493    17.746161    22.759427    19.131252    7726.9681    8682.9685    8186.5222    8011.4573    480.89077    522.54323    1.9681063   -4023.3029 
31834000    106.65707   -5166.3875   -4953.0602   -5166.3875            0    6802.0317    18.008431    22.616011     19.11093    7783.4776    6338.2988    7079.8559    6987.9404   -670.32468   -283.47456    1030.1797   -4180.9341 
31835000    100.35642   -5170.8932    -4970.168   -5170.8932            0    7925.4068    17.860427    22.674307    19.105416    7737.1744    8129.5473    8226.0515    7420.6215    656.20169    33.281667   -2.7555665    -4075.875 
31836000    102.77364   -5180.3046   -4974.7447   -5180.3046            0    6538.6344     17.81587    22.638992    19.272678    7773.3136    8823.5875    6405.4127    4386.9031    266.35646    146.94864    1351.3132   -4233.4871 
31837000    101.83888   -5175.3695   -4971.6792   -5175.3695            0     6892.498    17.952208    22.639345    19.113329    7768.1582    6843.3931    6405.9018     7428.199    57.388714   -738.99255    413.25095   -4190.8238 
31838000    102.38007   -5174.9651   -4970.1924   -5174.9651            0    4981.0242    17.742848    22.995519    19.153012     7814.544    5049.8407    4344.9656    5548.2664    1210.3571   -391.23291    -311.3716   -4402.5194 
31839000    96.783438   -5178.3812   -4984.8023   -5178.3812            0     7502.885    17.961147    22.575987    19.107908    7748.0776    6478.9386      7746.11    8283.6065   -202.43429   -286.55466    2148.6936   -4136.9931 
31840000    102.67315   -5173.6295   -4968.2705   -5173.6295            0    7882.5008    17.883887    22.553922    19.217358    7751.3559     7569.462    7888.4486    8189.5918    561.16978   -120.41026   -1471.8715   -4077.1887 
31841000    98.990577   -5172.9161   -4974.9228   -5172.9161            0    6512.1381    17.803686    22.854606    19.115906    7778.1903    5874.7989    6144.6419    7516.9735   -873.30693    459.37944   -396.56352   -4236.2058 
31842000    106.11683   -5182.2896   -4970.0428   -5182.2896            0    6857.9419    17.871945    22.732324    19.090619    7755.9622     6389.141    7313.1834    6871.5013   -92.758396   -289.02889    449.39018   -4194.3221 
31843000    102.96403   -5162.9906   -4957.0498   -5162.9906            0    7104.5972    17.960454    22.534322     19.17608    7761.0708    6810.3527    7444.9389       7058.5    876.71988   -112.96824    705.08335   -4152.8999 
31844000    102.50107   -5176.9941   -4971.9793   -5176.9941            0     5872.592    17.761106    22.821099    19.259726    7806.5053    7347.9138    5317.2306    4952.6317   -941.95929   -141.15026   -1765.0481   -4303.3855 
31845000    101.72865   -5189.6793   -4986.2094   -5189.6793            0    5784.9756    17.792359    22.801674    19.225554    7799.7216    5611.3023    5455.9845    6287.6398    317.71613     -1401.42    478.99968    -4328.163 
31846000    107.54371   -5178.9959   -4963.8952   -5178.9959            0     6954.202    17.903591    22.698609    19.152105    7783.1588    6459.6478    6895.8959    7507.0622   -893.20557    125.57329   -958.10952    -4174.528 
31847000     101.9877   -5177.2448   -4973.2568   -5177.2448            0    6764.2656    17.850021    22.690932    19.235488    7791.0194    7124.7941    6627.3866    6540.6161    698.26144    912.40235    946.78232   -4204.6737 
31848000    100.02198    -5165.177   -4965.1207    -5165.177            0    6551.8722    17.814942    22.696262    19.181686    7755.7808    7236.3209    6496.6208     5922.675   -1247.7966   -234.28723   -1812.0023   -4224.0377 
31849000    103.26071   -5175.2633   -4968.7291   -5175.2633            0    6870.2867    17.820307    22.834722    19.083614    7765.5375    7265.7046    6788.4909    6556.6648    812.27288    626.60292   -228.37779   -4190.6527 
31850000    104.70745   -5176.7574   -4967.3296   -5176.7574            0    8157.6996    17.885482    22.716862    19.070273    7748.2909    7687.3477    7758.0247    9027.7264    176.30095    51.934193    668.72901   -4045.5024 
31851000    96.778856   -5178.8129   -4985.2432   -5178.8129            0    6907.4653    17.922252    22.593725    19.195031    7772.6526    6633.0447    7046.4247    7042.9265   -1001.5933   -376.23495   -882.07104   -4202.2394 
31852000     103.3496   -5170.4765   -4963.7646   -5170.4765            0     7468.578    17.813299    22.756364    19.118376    7749.9383    7290.1528     7232.857    7882.7243    963.96013   -525.04548    678.59923   -4119.6293 
31853000    103.98879   -5162.7466   -4954.7561   -5162.7466            0     7655.466    17.855625    22.848522    18.981133    7743.8209    6887.1956    7813.5854     8265.617   -646.12496     364.8895   -1199.7664   -4090.1808 
31854000     104.3303   -5174.4153   -4965.7418   -5174.4153            0    5613.6863      17.8048    22.751193    19.288101    7813.2322    5797.7928    5702.9626    5340.3036    229.98523   -678.19198   -450.63801   -4326.0736 
31855000    110.89103    -5171.614   -4949.8182    -5171.614            0    6683.9079    17.869649    22.753762     19.10782     7769.273     6255.054    6388.3548    7408.3149    862.97789    426.28253    230.40548   -4192.4855 
31856000    99.895276   -5179.3759    -4979.573   -5179.3759            0    7346.4604    17.902198    22.546873     19.19044    7746.0022    7032.7699    7678.3604    7328.2509   -651.82537     261.6567   -1162.3777   -4149.6617 
31857000    101.77291   -5168.2808   -4964.7225   -5168.2808            0    6927.7199    17.828697    22.780456    19.128481    7768.9534    7568.7746    6441.1974    6773.1877    75.299506   -437.35333   -1239.5589   -4179.7964 
31858000    103.07395   -5167.7848   -4961.6242   -5167.7848            0    7532.4278    17.826448    22.750839    19.149721    7766.4881    6696.5493    8042.9182     7857.816    283.76376    504.28356   -1174.9921   -4108.4542 
31859000    102.71376   -5178.6171   -4973.1769   -5178.6171            0    6909.3617    17.864334    22.678816    19.204362    7780.4925    7197.1612     6646.152    6884.7718   -870.88255    200.99533    720.00224   -4189.1681 
31860000    107.30038   -5169.8643   -4955.2503   -5169.8643            0    7321.6144    17.910443    22.728416    19.078124    7766.2462    6638.2446     7250.102    8076.4965   -241.74605    108.48258    621.07641   -4125.9842 
31861000    106.21021   -5161.3051   -4948.8716   -5161.3051            0    7141.2062    17.794046    22.882299    19.074358    7766.4811    6522.1503    6893.3647    8008.1037    344.31195    456.12743    136.59542   -4140.0146 
31862000     104.7123   -5178.1543   -4968.7167   -5178.1543            0    6077.2546    17.922819    22.757562    19.120215    7798.7467    7039.2367    5336.0059    5856.5212   -594.91749    402.63019   -384.42173   -4277.5097 
31863000    103.98216   -5185.3961   -4977.4189   -5185.3961            0    6556.2078    17.841601    22.750261    19.177284    7784.0801    6844.1939    6299.3758    6525.0536    235.57639   -375.61635    -538.2305   -4233.1397 
31864000    104.30476   -5168.0805   -4959.4581   -5168.0805            0    6503.5795    17.819525    22.786624    19.088706    7750.9084    7538.5885    5717.2036    6254.9465    297.03013   -389.85537    999.44731   -4224.2997 
31865000    104.50694   -5181.7043   -4972.6775   -5181.7043            0    5889.5731    17.919701    22.644822    19.227406    7802.2588    5412.8767    6162.8045    6093.0381    247.89093    116.13637   -736.73527   -4302.5151 
31866000    104.24138   -5187.4751   -4978.9795   -5187.4751            0    6429.8392    17.741626    22.822391    19.197876    7773.3418     6982.622    6001.2263    6305.6693    717.43542   -224.86224    -506.1453   -4250.0529 
31867000     100.2195   -5180.7895   -4980.3381   -5180.7895            0    7753.6458    17.722371    22.756303     19.21068    7747.5833    8922.3212    7125.8762    7212.7399    324.83077   -510.57589    458.39392   -4104.2494 
31868000    101.99823   -5177.2006   -4973.1915   -5177.2006            0    7266.8369    17.983252    22.412696    19.244354    7756.4977    7492.8331    7652.1029    6655.5746   -731.61411    59.018252   -1597.8579   -4151.1628 
31869000    100.16985   -5178.1484   -4977.7964   -5178.1484            0    6692.4503    17.714515    22.859063    19.173252    7763.9633    7435.4737    6130.7882    6511.0892    313.47273   -119.85399    687.11865    -4220.014 
31870000    105.58413   -5183.8685   -4972.6872   -5183.8685            0    6782.8201    17.839208    22.716443    19.151846    7761.1582    7476.5514    7253.0124    5618.8965   -940.86447   -86.113843   -62.510215   -4204.9498 
31871000    101.09211   -5177.7426   -4975.5459   -5177.7426            0    7369.2808    17.902317    22.661083    19.126757    7759.4558    7269.1796     7787.857    7050.8059    686.37075   -377.45296     620.8487   -4141.6108 
31872000    104.42891   -5165.3098    -4956.439   -5165.3098            0    7263.9803    17.789261    22.870657    19.108124    7774.1801      7821.39    6492.9325    7477.6183    237.17964    630.77901   -701.10285   -4132.8603 
31873000    98.894605   -5167.3531   -4969.5516   -5167.3531            0    6917.0498    17.902113    22.776909    19.066627    7774.5086    6745.4581    6239.9074     7765.784   -392.96909    38.780696    583.77547   -4185.2742 
31874000    106.25485   -5172.7548   -4960.2319   -5172.7548            0    7473.2322    17.865719    22.619333    19.191207    7755.3709    7346.1803    8150.1007    6923.4158   -515.61419   -157.95015    824.50164   -4114.9785 
31875000    106.38382   -5166.3124   -4953.5316   -5166.3124            0    7977.6746    17.808568    22.779585     19.06439    7733.8852     7559.545    7749.1959     8624.283     947.0318   -176.19608   -886.66398   -4053.7234 
31876000    103.00279   -5181.4097   -4975.3914   -5181.4097            0    7012.8273    17.874232    22.520185    19.308903    7772.4324    7051.0742    7941.1502    6046.2576   -627.08126    760.10884    46.797525   -4180.4667 
31877000    103.78047   -5182.1027    -4974.529   -5182.1027            0    7163.5745    17.818718    22.668866    19.201829     7756.197    7682.4555    7233.0191    6575.2488   -14.346485   -190.72803   -327.94881   -4164.2128 
31878000    101.00253   -5177.3544   -4975.3369   -5177.3544            0    6710.3799    17.846712    22.780461    19.110693    7769.5727    6465.6054    6226.2091    7439.3252   -102.67587   -864.70255    1490.9826   -4214.9753 
31879000    109.20432   -5169.2166   -4950.7945   -5169.2166            0    6560.2426     17.84916    22.615178     19.28579    7784.9389    5925.2321    7393.5074    6361.9882    1523.4452   -139.82984    43.192858   -4205.9751 
31880000    96.134187   -5170.7364   -4978.4562   -5170.7364            0    7277.4365    17.764941    22.823735    19.126324    7755.0033    8319.6242    7769.5095    5743.1758   -923.24403   -12.605237    -1350.217   -4155.3871 
31881000    101.19832   -5189.2734   -4986.8643   -5189.2734            0    5496.7138     17.89381    22.636525    19.254421    7799.0741    5273.9377    5645.7205    5570.4832    269.22159   -793.28398    1298.1984   -4361.6599 
31882000    110.14434    -5178.451   -4958.1487    -5178.451            0    6518.5722    17.870458    22.697117    19.188847    7783.1471    6052.2669    7090.5064    6412.9434    20.623016    8.6298446    443.06182   -4218.2307 
31883000    108.42055   -5171.2751   -4954.4206   -5171.2751            0    8230.0443    17.855788    22.694407     19.12024    7748.0278    9600.6428    7504.5249    7584.9653   -128.54262   -661.39278    333.70782     -4024.45 
31884000     105.1496   -5190.3883   -4980.0761   -5190.3883            0    6450.0332    17.873986    22.648784    19.180075    7764.5556    6513.1916    7253.6441    5583.2641   -314.12302    435.82536     25.86084   -4249.6867 
31885000    102.46039   -5176.9047   -4971.9712   -5176.9047            0    6825.2822    17.847321    22.815192    19.045705    7755.2214    7067.2626    6176.3104    7232.2735    61.202502    383.89467    1328.5819   -4200.0185 
31886000    105.92608   -5169.2033   -4957.3381   -5169.2033            0    7505.3356    17.826021    22.724006    19.150227    7757.3475    7678.3549    6500.2395    8337.4123    55.031557    -171.1885    1109.4397   -4108.2373 
31887000    97.191903   -5169.9648    -4975.569   -5169.9648            0    6775.3635    17.921643     22.59501    19.230498     7787.192    6640.6625    7336.7543    6348.6736    635.94767    850.85794    589.79024   -4206.1031 
31888000    102.51261   -5176.4506   -4971.4128   -5176.4506            0    6436.3107     17.87666    22.821346      19.0441    7769.4107    6334.3464    5932.8409    7041.7447   -73.857336    334.27769   -133.25214   -4242.1216 
31889000    102.46602    -5184.049   -4979.1043    -5184.049            0    7380.6629    17.815405    22.684815    19.199194    7759.1464    8159.1141    6907.5176     7075.357    229.67255   -69.891675     620.1353   -4143.9145 
31890000    107.96667   -5173.1593   -4957.2127   -5173.1593            0    8025.4858    17.992198    22.611246    19.046271    7748.5185    7162.1892    8194.5903     8719.678   -992.90421   -63.465877   -611.61392   -4050.2991 
31891000    105.26325   -5182.6581   -4972.1186   -5182.6581            0    6474.7906    17.753955    22.768419    19.229734    7773.2255    6476.3392    6813.7406     6134.292    1085.8335    584.84453    88.642187    -4238.107 
31892000    103.82033   -5177.6725    -4970.019   -5177.6725            0    6143.9047    17.936735    22.761379    19.089839    7793.7095    5063.4657    5945.4621    7422.7864   -1025.4366   -201.71746   -735.60518   -4271.6827 
31893000    97.752512   -5167.7871     -4972.27   -5167.7871            0    7528.5347    17.775946    22.671238    19.263055    7763.0629    9532.2976    7052.9541    6000.3525    -488.1685   -540.70819   -512.73738    -4119.917 
31894000    103.28183    -5173.634   -4967.0576    -5173.634            0    7432.3448    17.779022    22.793196    19.150169    7760.4286    6525.1601    7578.7154    8193.1591    191.25427     463.8056   -402.10778   -4125.8804 
31895000    104.69185   -5180.3488   -4970.9522   -5180.3488            0    6953.7209     17.95933    22.588414    19.157338    7771.6107    7108.5699    7277.4391    6475.1537   -606.67543   -110.84345   -616.19939   -4182.8107 
31896000     104.8126   -5179.6368   -4969.9986   -5179.6368            0    7930.2276    17.760714    22.731125    19.185828    7745.7216    7169.3136    8292.1491    8329.2201     165.7064   -99.932725   -945.88533   -4074.1731 
31897000    101.98516   -5187.0671   -4983.0842   -5187.0671            0    6495.1212    17.869108    22.868735    19.043035      7781.82      7154.99     5373.606    6956.7675   -252.63444   -23.624943   -78.330935   -4245.9538 
31898000    102.56391   -5179.3512   -4974.2107   -5179.3512            0    6856.3467    17.879666    22.424538    19.387663    7773.3525    6648.7138    7716.8834    6203.4429   -253.92331    320.83666    454.22592   -4196.9316 
31899000    106.45605   -5169.5953     -4956.67   -5169.5953            0    7233.5232    17.873828    22.855489    18.991396    7758.2719    7124.5514    7078.8466    7497.1716   -540.01201    757.60421     873.0744   -4138.2226 
31900000    102.25277   -5178.9318   -4974.4137   -5178.9318            0    6880.5375    17.863786    22.604024    19.249373    7772.7708    7021.5538    6823.8889    6796.1699   -93.805361   -891.17458    481.30511   -4194.4504 
31901000    108.49375   -5168.7467   -4951.7458   -5168.7467            0    5453.0443    17.903535    22.693003    19.192291    7797.5394    5188.6216    5157.5897    6012.9214    190.43439   -196.30484    47.493416   -4331.6304 
31902000    102.57154   -5170.5559   -4965.4001   -5170.5559            0    6976.8359    17.863065    22.860575    19.050561    7779.4859    7299.9564    6725.7205    6904.8308   -502.89609    451.68495    532.32021   -4173.8375 
31903000      105.592    -5174.058   -4962.8609    -5174.058            0    6721.4714    17.928693    22.587916    19.241152    7792.1241    5971.3277    7023.6319    7169.4545   -311.15216   -8.9870153    -454.5847    -4199.032 
31904000    100.28929   -5170.5008   -4969.9098   -5170.5008            0    7124.3407    17.761224    22.966315    19.069586    7778.6722    7992.8879    6325.2904    7054.8438    237.22675    188.29163     198.5963   -4161.6964 
31905000    101.03854    -5175.869   -4973.7795    -5175.869            0    7437.3041    17.936902    22.569861    19.154669    7754.4497    7033.0702    7841.0747    7437.7674    4.9124729   -92.183364    732.39763   -4132.6896 
31906000      100.276   -5181.9202   -4981.3559   -5181.9202            0     6606.287    17.873911    22.678541    19.187455     7777.716    7104.3313    6537.1779    6177.3518    597.35091    474.03079     36.61413   -4232.0046 
31907000    101.24151   -5175.6445    -4973.149   -5175.6445            0    6668.7276    17.866755     22.69766    19.178849    7777.6665    5847.5274    7379.2935     6779.362    -729.4198    613.44017   -908.34942   -4216.7199 
31908000    102.61005   -5183.8866   -4978.6539   -5183.8866            0    7200.9971    17.859788    22.668702    19.180536    7765.3976    6208.7003    8014.3845    7379.9064    526.22395    86.311085    125.62369   -4163.1384 
31909000    101.91884    -5178.504   -4974.6537    -5178.504            0    8408.5426    17.756279    22.668802     19.21205    7733.1106    8936.0904    8069.2378    8220.2995    466.14298    64.926219    1070.7079   -4026.3426 
31910000    104.97205   -5174.2349   -4964.2779   -5174.2349            0    6671.1894    17.881938    22.867162    19.031859    7782.3018     5502.675    5964.9655    8545.9276    898.67564    -240.7924   -1225.5113   -4207.1186 
31911000    103.57908   -5188.4556   -4981.2846   -5188.4556            0    6770.1526    17.880868    22.626972     19.23736    7783.2417    6542.0191    7225.4777    6542.9611    46.253507   -505.88417    349.89793   -4212.8005 
31912000    105.90213   -5175.4006   -4963.5833   -5175.4006            0    7948.1845    17.879138    22.677427    19.076155    7734.4814    7134.0595    8195.2102    8515.2837   -742.12996    706.31386   -1018.1947   -4067.0322 
31913000    101.34999   -5176.2127   -4973.5002   -5176.2127            0    6937.9288    17.918165    22.702726    19.095436    7767.8552    6334.4821    7108.6505    7370.6537    1359.9413    161.52626     870.9317   -4187.5286 
31914000    100.82787   -5177.8958   -4976.2276   -5177.8958            0    7524.8061    17.922339    22.523085    19.258944    7774.1875    7497.1063    8280.4248    6796.8871   -618.53051   -174.59425   -398.47962    -4123.076 
31915000    98.663664   -5171.7384   -4974.3988   -5171.7384            0    7201.7084    17.809383    22.912933    19.057951    7776.8866    7489.9385    6433.4858    7681.7011    609.09402   -269.86779     -12.8339   -4157.5961 
31916000    112.68042   -5174.3701   -4948.9953   -5174.3701            0    7945.9652    17.750135    22.648388    19.258309    7742.0705    9459.5184    7635.3191    6743.0581    186.77144     565.7708   -341.97971   -4051.8151 
31917000    101.24317   -5170.1317   -4967.6329   -5170.1317            0    7661.1215    18.010349    22.366436    19.232085    7747.2088    6641.0453    8601.1214    7741.1977   -983.20314    589.56754   -1039.5057   -4102.0404 
31918000    107.42467   -5176.8683   -4962.0057   -5176.8683            0    5915.3005    17.774676    22.857837    19.178153    7791.9044    5889.7855    5894.9362    5961.1798    369.87935    177.70909    93.232389   -4289.8091 
31919000    106.35924   -5166.5212   -4953.7896   -5166.5212            0    7894.9797    17.919197    22.625222    19.164314    7769.7074    6809.1014    8029.8349    8846.0029    -261.9494    19.840047    526.01173   -4059.1841 
31920000    102.86647   -5175.1676   -4969.4219   -5175.1676            0    6256.5357    17.923016    22.672953    19.169361     7789.809    6153.5341    5779.3748     6836.698    69.230433   -39.612152    343.41378   -4258.6396 
31921000    104.42353   -5170.8669   -4962.0069   -5170.8669            0    7108.9828    17.787239    22.758383    19.157486    7755.1186    8333.3178    6580.9581    6412.6724    84.403338   -537.03674    572.22008   -4157.9778 
31922000    100.60201   -5175.6109   -4974.3944   -5175.6109            0    7122.5596    17.772824    22.831008    19.123071    7759.5969    8020.1326    6331.7283    7015.8178    822.70571   -33.343485   -213.03596   -4168.3646 
31923000    102.89638   -5187.1256   -4981.3201   -5187.1256            0    6505.9381     17.84116    22.761554    19.169448    7784.5696    7230.2951    6564.7265    5722.7927   -248.85461     54.85469   -1256.7853   -4242.7012 
31924000      101.426   -5182.0762   -4979.2116   -5182.0762            0    4964.6961    17.885095    22.672416    19.303082    7827.3672    6355.8362    4477.5726    4060.6794    1.4828665   -735.21768   -393.95189   -4412.4711 
31925000    106.12589   -5185.3766   -4973.1117   -5185.3766            0    6947.1803    17.896817    22.710899    19.090873    7759.5391    6279.2728    7504.9237    7057.3443    718.81192    16.736834    1136.7748   -4186.9346 
31926000    101.71251   -5177.5217   -4974.0841   -5177.5217            0    5761.8007    17.889588    22.715291    19.181269    7794.6382    5282.7979    5798.3318    6204.2723    851.86797    184.61425    765.89882    -4319.101 
31927000    110.67506   -5184.0951   -4962.7313   -5184.0951            0    5676.7093    17.909508    22.638841    19.229106    7796.4504     5963.672     5750.915    5315.5408   -712.93882   -115.28157   -1341.4729   -4317.2711 
31928000    104.07989   -5173.4025   -4965.2299   -5173.4025            0    6212.4224    17.866287    22.757765     19.17661    7797.1475      5574.78    6374.0307    6688.4566    585.98863   -715.16641   -211.67619   -4258.7942 
31929000    110.03215   -5178.1405   -4958.0626   -5178.1405            0    7421.0538    17.898595    22.633281    19.128643    7749.0886    7636.1777    7290.2074    7336.7765   -155.76289   -198.71632   -892.13587   -4119.3907 
31930000    104.17397   -5173.1475   -4964.7867   -5173.1475            0    6284.9841    17.759821    22.903121    19.132077     7782.074    7765.6174    5225.8316    5863.5034     15.13486   -477.22339    -216.8535   -4251.4814 
31931000    100.80038   -5174.9211   -4973.3079   -5174.9211            0      7135.07    17.930778     22.50143    19.220027    7754.6686    6320.7459    7889.5858    7194.8782   -1499.3681   -143.23808   -1272.7887   -4166.3751 
31932000    102.97716   -5165.9521   -4959.9851   -5165.9521            0     8310.568    17.757461    22.705752    19.153287    7722.5382    8979.1806    9229.8613    6722.6623    1177.9698    1575.8243    540.54723   -4024.0049 
31933000    103.58892   -5185.5245   -4978.3339   -5185.5245            0    7509.9378    17.923628    22.523483    19.204722     7752.995    7671.9823    7315.9779    7541.8532   -1149.7917   -254.58236   -408.65826   -4129.1892 
31934000    95.771966   -5173.5333   -4981.9776   -5173.5333            0    6622.1899    17.868865    22.738881    19.117304    7767.7045    7040.7041     6446.771    6379.0946    354.90882   -258.45071    260.00067   -4231.7894 
31935000    103.67791    -5164.345   -4956.9764    -5164.345            0      6805.99    17.795444    22.857859    19.102507    7770.2454    6822.2229     6589.719    7006.0282   -614.65553    573.84816   -822.64385   -4185.7144 
31936000    100.68018   -5166.1178    -4964.745   -5166.1178            0    6412.8104    18.037449    22.512641    19.211804    7801.3492    6875.8497    6771.0294    5591.5522    144.46612     59.15558    760.72848   -4235.1296 
31937000    104.64193   -5186.6614   -4977.3646   -5186.6614            0    5074.6439    17.830106    22.849259    19.154104    7803.4724    4926.7901    5348.2567     4948.885   -1382.1969    592.37422   -131.75863   -4399.8415 
31938000    105.81052   -5174.6763   -4963.0422   -5174.6763            0     5896.237     17.92657    22.701255    19.141805    7789.8649    6298.9477    5616.2086    5773.5547   -97.862606    255.85904     915.5865   -4293.1873 
31939000    101.20458   -5186.1971   -4983.7755   -5186.1971            0    7228.5636    17.847751    22.641662    19.200785    7759.0901    7645.9978     7025.209    7014.4839   -328.41046   -312.55067   -555.80535    -4165.803 
31940000    105.76848   -5164.0853   -4952.5352   -5164.0853            0    6190.7075    17.862711     22.96322    19.028143    7805.0658    5859.1317    5561.7698    7151.2211    1189.7228   -6.7084548    1082.3043   -4247.8539 
31941000    104.98238   -5180.4204   -4970.4426   -5180.4204            0    4971.7099    17.993038    22.533961     19.32779    7836.5379    4569.6771    5106.1854    5239.2672   -1340.6672   -426.04722   -2056.0913   -4402.2365 
31942000    103.15569   -5166.3959   -4960.0718   -5166.3959            0    8446.2871    17.779217    22.734767    19.122122    7729.2834    9955.7471    7856.5385    7526.5758    596.90276   -456.22951    409.47979   -4007.9753 
31943000    102.80478   -5177.6637   -4972.0414   -5177.6637            0    7266.0872    17.837644    22.722627    19.194361    7779.8228    8171.5345    6496.7966    7129.9304   -1665.5405   -579.37218   -347.99629   -4147.6258 
31944000    107.57794   -5182.6005   -4967.4313   -5182.6005            0    6739.8527    17.923949    22.623485    19.193643    7783.0643    7283.4384    6804.7314    6131.3885    1240.2413     76.97503    198.99895    -4202.404 
31945000     105.8416   -5178.7272    -4967.031   -5178.7272            0    6900.0778    17.819405    22.845147    19.078426    7766.5778    6638.8285    6174.1325    7887.2724    232.99857   -397.19301   -795.16019   -4185.4759 
31946000    108.00793   -5191.4262    -4975.397   -5191.4262            0    5591.7102    18.005554    22.624869    19.117835    7788.0955    3979.9291    6091.2735     6703.928   -358.11506    -165.8134   -289.04694   -4340.2828 
31947000    101.44314   -5170.4381   -4967.5393   -5170.4381            0    5624.9525    17.941968    22.713321    19.117329    7790.7264    5645.2121    5756.3179    5473.3276   -262.45641   -931.76223   -395.82136   -4328.4336 
31948000    104.91773   -5177.6519   -4967.8035   -5177.6519            0    6726.9844    17.847022    22.807725    19.086942     7769.339    6864.1004    6008.1607    7308.6921   -1033.1162    534.71493   -685.68897   -4205.5834 
31949000     107.7481   -5179.7693   -4964.2598   -5179.7693            0    6045.5955     17.90418    22.672595     19.19687    7792.6666    6445.2548    5612.1728    6079.3588    1082.9941   0.35191138   -310.62575   -4277.1897 
31950000    103.65518   -5177.3344   -4970.0112   -5177.3344            0    7259.6707    17.962321    22.436317    19.237903    7753.0347     6266.072     8657.178    6855.7623   -1126.6699    290.04793   -1196.1902   -4149.1598 
31951000    102.21708   -5172.4017   -4967.9549   -5172.4017            0    6309.1722    17.804394    22.767262       19.186    7777.1854    6484.8425    6653.5062    5789.1681    443.92293   -119.43196    -969.6836   -4252.3543 
31952000     100.2028   -5172.1674   -4971.7495   -5172.1674            0    6848.9138    17.883639    22.809633    19.067845    7778.1406    6639.1512    7343.7521     6563.838    -585.0707    816.25847    213.64309   -4194.8347 
31953000    101.60089   -5186.2947   -4983.0803   -5186.2947            0     5677.898    17.841004     22.70013    19.231486    7788.6193    6183.9027    5072.3284    5777.4629     50.01412   -646.62992   -482.27663   -4338.1334 
31954000    96.868979   -5176.4791   -4982.7292   -5176.4791            0    7148.6606    17.894088    22.679503     19.12524    7761.5777    7097.9253    7248.4652    7099.5913    480.27315   -788.49743    -141.1854    -4173.539 
31955000    100.92116    -5183.529   -4981.6742    -5183.529            0    6362.6936    17.878175    22.651512    19.213883     7781.002    7440.0064    6520.1073    5127.9672   -617.54238    1009.8467     1017.614   -4259.6489 
31956000    104.12533   -5181.9594   -4973.6959   -5181.9594            0    6565.4733    17.841254    22.656376    19.223932    7770.6622    6777.9633    6926.4989    5991.9578   -108.17954   -265.11114   -1058.7184   -4229.6496 
31957000    103.19569   -5173.7326   -4967.3285   -5173.7326            0    7408.5533    17.798928    22.739257    19.144531    7748.4501    8972.2072    6377.8814    6875.5713   -418.35053   -509.94484    816.53285   -4130.1383 
31958000    105.47759   -5172.5907   -4961.6225   -5172.5907            0    5790.6582    17.736796    22.741193    19.341169    7801.3747    7573.4895     5009.203    4789.2822   -632.59124   -135.62204   -539.10705     -4302.79 
31959000    103.88978   -5173.0361   -4965.2437   -5173.0361            0    7786.0681    17.869037    22.690139    19.110175    7748.2383    8009.5696    7627.9303    7720.7045   -351.97184   -596.95847    636.21164   -4085.4171 
31960000    106.81577   -5178.4214   -4964.7767   -5178.4214            0    5940.3045    17.835453    22.790507    19.196667    7803.0423    6933.4373    5773.1365    5114.3396   -168.94973    887.81144    340.56631   -4288.7738 
31961000    108.05795   -5180.9268   -4964.7975   -5180.9268            0    7052.8401    17.825474    22.674792    19.186112    7754.8137    7453.9881    6737.0726    6967.4597      232.971   -583.74172    -830.8941   -4167.1495 
31962000    102.30942   -5173.7546   -4969.1231   -5173.7546            0     7621.584    17.822463    22.697906    19.199044    7766.6392     7775.125    7171.0857    7918.5414   -1252.2459   -404.77565    544.15648    -4105.838 
31963000    102.57731   -5172.4975   -4967.3303   -5172.4975            0    7027.2015    17.736152    22.724812    19.296752    7777.5698    8387.1365    7377.2209    5317.2472    54.242646    191.62453   -1227.4934   -4170.2497 
31964000    101.23305   -5174.2826    -4971.804   -5174.2826            0    5940.2884    17.848085    22.752697    19.178296    7788.1542    5557.7221    5968.1728    6294.9702   -104.24174   -268.23397    116.14762   -4297.0927 
31965000    98.404358   -5183.1404   -4986.3195   -5183.1404            0    7410.8525     17.80492    22.663966    19.214666    7753.6961    7392.9324    7993.8894    6845.7357    100.94514    366.57657   -26.262779   -4148.3025 
31966000    104.13129   -5177.0773   -4968.8019   -5177.0773            0    7447.1918    17.798955    22.775482    19.145174    7761.0663    8123.8433    6360.0498    7857.6822    632.09104    154.72463    442.08275   -4125.8752 
31967000    98.811332    -5180.283   -4982.6481    -5180.283            0     7031.687    17.805705    22.703344    19.225098    7771.7276    7835.7549    7062.9539    6196.3521   -427.39427     -877.917     333.2255   -4185.6579 
31968000     107.3713   -5173.8814   -4959.1255   -5173.8814            0    7124.6082     17.84732     22.74138    19.099107    7751.8059    7595.2874    6630.9564    7147.5809   -516.79299    3.7952772   -179.98475   -4153.6733 
31969000    100.60136   -5173.5472    -4972.332   -5173.5472            0    6837.0936    17.894574    22.806577    19.063554    7780.1029    6736.6214    6549.8225     7224.837     997.5224    134.16997    740.99777   -4196.5625 
31970000    98.728629   -5179.6995   -4982.2301   -5179.6995            0    6771.6216    17.837973     22.58994    19.282452     7770.033     6388.839    7697.6832    6228.3426      -568.26    484.81718    257.40116   -4214.8837 
31971000    100.48195   -5172.0101   -4971.0338   -5172.0101            0    7392.1121    17.792905    22.908253    19.026853    7755.4282    7165.2524    7172.3852    7838.6987    793.78489    1001.2316    88.651208   -4134.9492 
31972000    100.14287   -5183.6032   -4983.3051   -5183.6032            0     7682.859     17.89435    22.523359    19.209148    7742.0715     7494.615    7810.6153    7743.3466    1359.8735    -1089.086    1091.3458   -4115.8322 
31973000    97.398913   -5176.2684   -4981.4586   -5176.2684            0    7317.2981     17.81912     22.80959    19.074415    7752.7354    7823.3329    6888.4144    7240.1469   -298.11253   -441.51609   -100.17594   -4154.1232 
31974000     107.1314   -5186.6111   -4972.3351   -5186.6111            0    6361.6337    17.802248    22.776204    19.164721    7770.6742    7765.4589    5261.2982    6058.1441    233.01995       -372.7    933.08417   -4251.3882 
31975000    98.408079   -5176.3388   -4979.5105   -5176.3388            0    6927.4999    17.932194    22.579392    19.231306    7786.7179    7483.7781      6383.54    6915.1817   -61.195882   -5.5962927    63.037862   -4192.8147 
31976000    101.31216     -5171.66   -4969.0232     -5171.66            0    7274.4715    17.715851    22.847637    19.108064     7734.282    7630.2748    6702.6495    7490.4902   -196.60522    -557.5099    315.69142   -4148.4878 
31977000    108.84729   -5164.6495   -4946.9414   -5164.6495            0    6052.5166    17.840779    22.768384    19.216323    7805.7797    5211.7904     6414.419    6531.3403     541.8657    499.57447    362.41054   -4257.9272 
31978000    102.63443   -5168.2197   -4962.9382   -5168.2197            0    6486.7769    17.984567    22.503572    19.233839    7784.2617    5439.9729    6995.5095    7024.8483   -948.81225   -56.951018   -355.79923   -4226.5238 
31979000     108.1143   -5174.8485   -4958.6065   -5174.8485            0    6310.3714    17.774911    22.852666    19.105867    7760.8815     6500.282    5828.4021    6602.4301   -411.88462    -927.7508   -855.92356   -4244.3703 
31980000    105.16255   -5163.7483   -4953.4102   -5163.7483            0    7328.6214    17.861744      22.6009    19.285761    7785.4976     7934.797    7687.2538    6363.8134   -1315.8334     646.5838   -363.78595   -4121.2929 
31981000    106.53936   -5171.1866   -4958.0947   -5171.1866            0    7156.3651     17.88868    22.695668    19.096026    7752.9013    7617.1523    6782.2497    7069.6933    1578.6722   -399.09429   -815.04879    -4148.938 
31982000     108.9106   -5188.6318   -4970.7972   -5188.6318            0    6601.6674    17.768695    22.747861    19.255638    7783.1255    7295.2171    6432.3334    6077.4518   -174.27392    277.30348   -891.49473   -4221.4491 
31983000    99.134133   -5172.1861   -4973.9056   -5172.1861            0    7776.6624    17.830784    22.612639     19.22377    7751.0445    8282.0143    7872.6735    7175.2993   -160.90293     125.6339   -597.44571   -4094.8237 
31984000    110.40735   -5181.5061   -4960.6778   -5181.5061            0    7243.9632    17.876396    22.741387     19.11304    7770.1011     6792.576    7329.6236      7609.69    815.38658    -240.7389    525.72583   -4139.7995 
31985000    101.64247    -5183.846   -4980.5485    -5183.846            0    6180.5871    17.818394    22.692373    19.261309    7788.1495    6535.9839    6310.5589    5695.2184    975.53361   -145.51744    1261.6792    -4278.544 
31986000    109.04084   -5193.1628   -4975.0676   -5193.1628            0    7635.7696     17.90024    22.669997    19.115472    7757.0276    7573.7326    7530.1074    7803.4687    544.84536    59.880901   -199.83702   -4111.2461 
31987000    95.442703   -5166.0473   -4975.1501   -5166.0473            0    6087.8322    17.758674    22.843759     19.20277    7790.0811    7695.7348    5239.5098    5328.2521    384.61375   -7.1843104    86.865168   -4283.5094 
31988000    104.14013   -5171.2202   -4962.9271   -5171.2202            0    6606.4885    17.883556    22.731128    19.189129    7800.6377     6396.942    6314.1943    7108.3294   -81.674071    415.05406    606.54561   -4211.3445 
31989000    105.44685   -5178.8937    -4967.987   -5178.8937            0    6646.8199    17.898769    22.693177    19.182014    7791.3494    5483.0008     7511.625    6945.8339     1199.151    391.33573    4.3016023   -4212.7166 
31990000    108.66507   -5180.7787   -4963.4351   -5180.7787            0    6496.4492     17.83501    22.797871    19.154564    7788.2507    6043.9473    6637.1091    6808.2913    48.859981    970.10912    982.65116   -4225.5447 
31991000     103.3381   -5182.2703   -4975.5814   -5182.2703            0    7551.6221    17.858525    22.654327    19.170398    7755.8229    7139.4025    7729.4397     7786.024   -1067.0946    94.012009      384.779   -4121.4119 
31992000    101.84351   -5175.6311   -4971.9315   -5175.6311            0    7220.4952    17.885632    22.687057     19.10676    7752.9949    6570.2765    8103.7891    6987.4202   -29.114412    256.26129   -821.68594   -4155.5138 
31993000    106.63145   -5170.6776   -4957.4015   -5170.6776            0    5994.6834    17.712976    22.837487    19.274396    7796.8761    6855.6849    5683.7834     5444.582    88.864907   -334.28137   -83.907133   -4275.7495 
31994000    105.61685   -5171.6924   -4960.4456   -5171.6924            0    6752.4829    17.952456    22.634569    19.140964    7777.8565    6016.1441    6869.8431    7371.4615    672.87435   -243.55524    801.64011   -4194.4976 
31995000    104.51635   -5162.5436    -4953.498   -5162.5436            0    7195.1181    17.763578    22.816904    19.115524    7747.7102    6579.7796     7361.895    7643.6797    658.17766     113.8999    1070.2304   -4140.5043 
31996000    103.43225   -5178.5841   -4971.7068   -5178.5841            0    6468.1925    17.912927     22.71365    19.138865     7786.991     6418.306    6667.1308    6319.1407    -809.4533    460.91417   -65.866543   -4237.1448 
31997000    105.94766   -5179.6403   -4967.7319   -5179.6403            0    7394.4349    17.858717    22.747844    19.104681    7761.2254     7790.798     7098.472    7294.0348    602.62815    73.894519   -436.80482   -4130.7594 
31998000    109.21425   -5178.6947   -4960.2527   -5178.6947            0    6997.0444    17.863273    22.655941     19.23576      7784.89    7448.8743    7159.8745    6382.3843   -606.92372   -213.12622     823.0428   -4165.8458 
31999000    105.91471   -5187.9553   -4976.1128   -5187.9553            0    6264.7475    17.944149    22.771591    19.052403    7785.1324    5770.9878     5528.638    7494.6166   -850.45178   -94.318461   -115.76349   -4264.8248 
32000000    108.14169    -5172.189   -4955.8922    -5172.189            0    6403.5491    17.842693    22.723341     19.22453    7794.5011    7540.8077    6648.5995      5021.24   -68.304146    684.89231   -1072.8701     -4227.97 
Loop time of 444.169 on 64 procs for 250000 steps with 1008 atoms

Performance: 97.260 ns/day, 0.247 hours/ns, 562.849 timesteps/s
195.0% CPU use with 32 MPI tasks x 2 OpenMP threads

MPI task timing breakdown:
Section |  min time  |  avg time  |  max time  |%varavg| %total
---------------------------------------------------------------
Pair    | 37.032     | 40.491     | 46.37      |  36.9 |  9.12
Bond    | 1.0012     | 1.2384     | 1.605      |  12.0 |  0.28
Kspace  | 216.44     | 223.83     | 234.04     |  27.9 | 50.39
Neigh   | 1.1218     | 1.2117     | 1.3749     |   7.0 |  0.27
Comm    | 65.69      | 73.756     | 79.76      |  42.5 | 16.61
Output  | 0.51017    | 0.51045    | 0.51182    |   0.0 |  0.11
Modify  | 86.767     | 88.869     | 91.222     |  12.5 | 20.01
Other   |            | 14.26      |            |       |  3.21

Nlocal:        31.5000 ave          37 max          27 min
Histogram: 1 3 2 3 5 8 6 2 1 1
Nghost:        2958.25 ave        2978 max        2933 min
Histogram: 2 2 4 2 2 4 4 3 5 4
Neighs:        10721.5 ave       12595 max        9244 min
Histogram: 4 1 4 4 7 7 3 0 1 1

Total # of neighbors = 343087
Ave neighs/atom = 340.36409
Ave special neighs/atom = 2.0000000
Neighbor list builds = 2710
Dangerous builds = 0

unfix		3
unfix		2
unfix		1

write_data	data.final.${pid}
write_data	data.final.0
System init for write_data ...
PPPM initialization ...
  extracting TIP4P info from pair style
  using 12-bit tables for long-range coulomb (../kspace.cpp:340)
  G vector (1/distance) = 0.37999495
  grid = 24 27 32
  stencil order = 5
  estimated absolute RMS force accuracy = 0.0023738109
  estimated relative force accuracy = 7.1486611e-06
  using double precision FFTW3
  3d grid and FFT values/proc = 5355 672
Last active /omp style is kspace_style pppm/tip4p/omp
WARNING: Not all mixed pair coeffs generated from mixing. Use write_data with 'pair ij' option to store all pair coeffs. (../write_data.cpp:312)

write_restart   restart.lmp.${pid}
write_restart   restart.lmp.0
System init for write_restart ...
PPPM initialization ...
  extracting TIP4P info from pair style
  using 12-bit tables for long-range coulomb (../kspace.cpp:340)
  G vector (1/distance) = 0.37999495
  grid = 24 27 32
  stencil order = 5
  estimated absolute RMS force accuracy = 0.0023738109
  estimated relative force accuracy = 7.1486611e-06
  using double precision FFTW3
  3d grid and FFT values/proc = 5355 672
Last active /omp style is kspace_style pppm/tip4p/omp
Total wall time: 0:07:24
