#include		in.partitions
include		in.temp
variable        temperature equal 264.70
variable	tempDamp equal 100.0
include		in.pressure
variable        pressure equal 8500.0
variable        pressureDamp equal 1000.0 # This is 1 ps
include		in.seed
variable        seed equal 745823

units		real
atom_style	full
read_restart	restart.lmp.${pid}
read_restart	restart.lmp.0
Reading restart file ...
  restart file = 30 Jul 2021, LAMMPS = 30 Jul 2021
  restoring atom style full from restart
  orthogonal box = (-0.11371916 -0.11159999 -0.11258608) to (24.843720 24.841601 22.922586)
  4 by 4 by 2 MPI processor grid
  restoring pair style lj/cut/tip4p/long/omp from restart
  restoring bond style harmonic/omp from restart
  restoring angle style harmonic/omp from restart
  1920 atoms
  1280 bonds
  640 angles
Finding 1-2 1-3 1-4 neighbors ...
  special bond factors lj:    0        0        0       
  special bond factors coul:  0        0        0       
     2 = max # of 1-2 neighbors
     1 = max # of 1-3 neighbors
     1 = max # of 1-4 neighbors
     2 = max # of special neighbors
  special bonds CPU = 0.002 seconds
  read_restart CPU = 0.007 seconds
include 	in.setup
variable	out_freq equal 1000
variable	out_freq2 equal 10000
variable	out_freq3 equal 1000

timestep	2.0

neigh_modify    delay 7 every 1

include		in.tip4p
# This is TIP4P/Ice

# create groups ###
group ox type 2
640 atoms in group ox
group hy type 1
1280 atoms in group hy

# set charges - beside manually ###
set group ox charge -1.1794
Setting atom values ...
  640 settings made for charge
set group hy charge 0.5897
Setting atom values ...
  1280 settings made for charge

# ### TIP3P Potential Parameters ###
pair_style lj/cut/tip4p/long/omp 2 1 1 1 0.1577 8.5
pair_coeff 1 1*2 0.000 0.000
pair_coeff 2 2 0.21084 3.1668
bond_style  harmonic
bond_coeff  1 450 0.9572
angle_style harmonic
angle_coeff 1 55 104.52
kspace_style pppm/tip4p/omp 1.0e-5
pair_modify tail yes

thermo          ${out_freq}
thermo          1000
thermo_style    custom step temp pe etotal epair emol press lx ly lz vol pxx pyy pzz pxy pxz pyz enthalpy

restart 	${out_freq3} restart.lmp.${pid} restart2.lmp.${pid}
restart 	1000 restart.lmp.${pid} restart2.lmp.${pid}
restart 	1000 restart.lmp.0 restart2.lmp.${pid}
restart 	1000 restart.lmp.0 restart2.lmp.0


include         in.dump
dump            myDump all atom ${out_freq2} dump.water.${pid}
dump            myDump all atom 10000 dump.water.${pid}
dump            myDump all atom 10000 dump.water.0
dump            myDump2 all dcd ${out_freq2} dump.dcd
dump            myDump2 all dcd 10000 dump.dcd
dump_modify     myDump append yes
dump_modify     myDump2 append yes


variable natoms 	equal  "count(all)"                        # NUMBER ATOMS
variable H      	equal  "enthalpy/v_natoms"                 # ENTHALPY-per-atom
variable Vol      	equal  "vol/v_natoms"                 # volume-per-atom
fix AVG all 		ave/time ${out_freq} 1 ${out_freq} v_Vol v_H file vol_enthalpy.dat
fix AVG all 		ave/time 1000 1 ${out_freq} v_Vol v_H file vol_enthalpy.dat
fix AVG all 		ave/time 1000 1 1000 v_Vol v_H file vol_enthalpy.dat




fix 		1 all shake 1e-6 200 0 b 1 a 1
       0 = # of size 2 clusters
       0 = # of size 3 clusters
       0 = # of size 4 clusters
     640 = # of frozen angles
  find clusters CPU = 0.001 seconds
fix             2 all nph aniso ${pressure} ${pressure} ${pressureDamp}
fix             2 all nph aniso 8500 ${pressure} ${pressureDamp}
fix             2 all nph aniso 8500 8500 ${pressureDamp}
fix             2 all nph aniso 8500 8500 1000
fix             3 all temp/csvr ${temperature} ${temperature} ${tempDamp} ${seed}
fix             3 all temp/csvr 264.7 ${temperature} ${tempDamp} ${seed}
fix             3 all temp/csvr 264.7 264.7 ${tempDamp} ${seed}
fix             3 all temp/csvr 264.7 264.7 100 ${seed}
fix             3 all temp/csvr 264.7 264.7 100 745823


run             250000
PPPM initialization ...
  extracting TIP4P info from pair style
  using 12-bit tables for long-range coulomb (../kspace.cpp:340)
  G vector (1/distance) = 0.37435712
  grid = 30 30 30
  stencil order = 5
  estimated absolute RMS force accuracy = 0.0032820118
  estimated relative force accuracy = 9.883681e-06
  using double precision FFTW3
  3d grid and FFT values/proc = 5400 960
Last active /omp style is kspace_style pppm/tip4p/omp
Neighbor list info ...
  update every 1 steps, delay 7 steps, check yes
  max neighbors/atom: 2000, page size: 100000
  master list distance cutoff = 10.8154
  ghost atom cutoff = 10.8154
  binsize = 5.4077, bins = 5 5 5
  1 neighbor lists, perpetual/occasional/extra = 1 0 0
  (1) pair lj/cut/tip4p/long/omp, perpetual
      attributes: half, newton on, omp
      pair build: half/bin/newton/omp
      stencil: half/bin/3d
      bin: standard
Per MPI rank memory allocation (min/avg/max) = 10.54 | 10.55 | 10.55 Mbytes
Step Temp PotEng TotEng E_pair E_mol Press Lx Ly Lz Volume Pxx Pyy Pzz Pxy Pxz Pyz Enthalpy 
 6000000    272.11471   -9066.9761   -8029.5507   -9066.9761            0    8999.6474    24.957439    24.953201    23.035172    14345.568    8857.9873    9388.1814    8752.7735   -564.04846   -741.73645    1420.4069   -6146.6859 
 6001000    270.51125   -9118.8851   -8087.5729   -9118.8851            0    8235.6748    24.895251    24.869193    23.193316    14359.557    7923.9562     9819.908    6963.1601   -53.064539     1113.847    313.19334   -6362.8627 
 6002000     271.3788   -9108.7766   -8074.1568   -9108.7766            0    8119.8323    24.975203     25.09646    22.890145    14347.296    8466.8617    7448.5947    8444.0406   -1099.4716   -1135.6111    42.422001   -6375.1583 
 6003000    257.15649    -9050.435   -8070.0372    -9050.435            0    9154.6859    24.952721    24.952905    23.023206    14335.235    8950.9655    9566.0624    8947.0299   -595.94029    46.716581    990.59705   -6156.1155 
 6004000    262.63386   -9125.1546   -8123.8746   -9125.1546            0    7402.6916    24.985559    24.950187    23.078156    14386.792    6043.6767    8003.6422    8160.7558    403.62459  -0.73985401    1411.7969    -6570.667 
 6005000    254.52503   -9043.1335    -8072.768   -9043.1335            0    7169.3674    25.037535    25.031062    23.047677     14444.35    6488.7775    6849.6675    8169.6572    237.75322   -499.64569    151.83562   -6562.4976 
 6006000    272.16337   -9077.5193   -8039.9084   -9077.5193            0    7547.9126    24.962521    25.171547    22.985799    14443.018    7928.8896    6976.9098    7737.9385   -40.085502   -955.41717   -118.76931   -6450.0417 
 6007000     258.1175   -9090.8565   -8106.7949   -9090.8565            0    7701.7376    24.866883    25.078815     23.08522    14396.681     8373.347    7151.0207     7580.845    494.81857   -302.41505    385.27409   -6489.7316 
 6008000    258.68222    -9095.112   -8108.8974    -9095.112            0    7169.1142    24.943991    25.105697    23.024415    14418.724    6839.8939    7335.5682    7331.8806   -1453.9676    228.42342    405.88096   -6601.3596 
 6009000    261.24866   -9025.4275   -8029.4285   -9025.4275            0    8887.5063    24.946295    25.074574    22.989217    14380.162    7776.8571    9016.5976    9869.0643    381.30856    189.61792   -88.508538   -6165.5414 
 6010000    269.43035   -9084.3688   -8057.1775   -9084.3688            0    8885.9023    24.874761     24.99656    23.055913    14335.786    8886.7386    9532.0469    8238.9215    440.95525   -462.03797   -82.952972   -6199.3776 
 6011000    262.54216   -9094.0704     -8093.14   -9094.0704            0    8352.4938     24.97546    25.081247    22.921233     14358.22    7890.3541    8102.2782    9064.8491   -1365.1474    164.79543    -164.7003   -6344.1285 
 6012000    269.96954   -9073.9862   -8044.7392   -9073.9862            0    7860.9498    24.920672    24.998798    23.142956    14417.757    7500.6987    7841.9813    8240.1694   -269.27363   -985.50231   -13.992165   -6391.8314 
 6013000    268.05153   -9080.8039   -8058.8692   -9080.8039            0    8457.1887    25.009175    25.054751     22.92632    14365.601    8211.9147    8727.1897    8432.4616    478.82345    253.89589   -589.70945   -6287.0243 
 6014000    260.38906   -9116.7543   -8124.0324   -9116.7543            0    9066.0016     24.97407    24.951515    22.942786    14296.588    8875.3748    8814.8024    9507.8275   -403.75296    393.68554   -382.84462   -6233.7614 
 6015000    265.87691   -9088.7022   -8075.0581   -9088.7022            0    8682.1869    24.980884    25.035497     22.92824    14339.524    8574.4307    8072.4851     9399.645     239.7902    145.82964   -561.38907   -6259.3762 
 6016000    269.98106   -9090.6277   -8061.3368   -9090.6277            0    8578.9344    24.865015    24.963392    23.111734    14345.802    8970.6352    8919.9305    7846.2375    45.259606    212.24871   -1024.3168   -6266.4624 
 6017000    266.43573   -9084.5515    -8068.777   -9084.5515            0     9543.625    24.933731    24.998287    22.935336    14295.608     9490.634    9976.9541    9163.2871    133.92742    858.87183    1491.2109   -6079.0574 
 6018000    263.48428   -9110.3188   -8105.7965   -9110.3188            0    7866.5348    25.028624    24.999978    22.936945    14351.991    8165.1964     7723.258      7711.15    298.58291   -1825.2769    121.07195   -6459.2595 
 6019000    266.12428   -9098.1344   -8083.5472   -9098.1344            0    8057.9062    24.878395    24.974204    23.142015    14378.553    7258.2192    8143.3606    8772.1389   -61.372239    869.70587    122.12133   -6393.8329 
 6020000    261.36867   -9095.3603   -8098.9037   -9095.3603            0    8201.8125    24.986177     24.94947    23.036674    14360.876     7660.377    8750.3457    8194.7147    960.44946     769.5394   -358.02082   -6381.1273 
 6021000    270.30333   -9122.0568   -8091.5373   -9122.0568            0    8007.1834    25.121006    25.064887    22.822348    14370.209    6964.6244    7832.0884    9224.8373    433.11161    406.71541    266.67351   -6413.4337 
 6022000    265.61636   -9056.4982   -8043.8475   -9056.4982            0    8209.4721    25.030206    24.965648    22.982125    14361.422    8432.7364    8233.1677    7962.5122   -285.46024   -20.430838   -314.05725   -6324.4014 
 6023000    256.05573   -9091.0404   -8114.8392   -9091.0404            0    9339.6516    24.920521    24.852455    23.097521     14305.13    9107.1876    10241.752    8670.0149   -1589.9528   -338.53269    252.76175   -6166.3484 
 6024000    273.06358   -9053.1155   -8012.0726   -9053.1155            0    7714.3749    25.107321    24.983969    22.999487     14427.13    7211.2096    8222.4865    7709.4287    -35.52838   -970.63324    309.32332   -6388.9303 
 6025000    264.54938   -9076.6868   -8068.1039   -9076.6868            0    7042.5277    24.976287    24.985221    23.129065    14433.416     7343.199    7162.2471     6622.137    576.29217   -211.77606   -198.43851   -6585.6759 
 6026000    269.08896   -9074.8161   -8048.9262   -9074.8161            0    7728.5817    24.980198    24.991726    23.143801    14448.635    7435.1307    8225.6133     7525.001    722.52988    714.37108    781.20385    -6420.371 
 6027000    266.99373    -9086.021   -8068.1192    -9086.021            0    6935.7935    25.014465    25.135465    22.949675    14429.613    6830.5178    6409.2199    7567.6427    390.60709   -189.00573    642.32765   -6608.5431 
 6028000    264.71013   -9098.1063   -8088.9105   -9098.1063            0     7639.442    24.966118    25.036269    23.014253    14385.253    7114.2251    7724.3223    8079.7785   -256.09985    25.029051    185.02108   -6486.2003 
 6029000    264.78379    -9105.661   -8096.1845    -9105.661            0    7200.7061    24.939452    25.047641    23.053106    14400.686    7271.2987    7221.2463    7109.5732   -32.261977    28.151725   -969.60124   -6583.8977 
 6030000    268.70233   -9065.3547   -8040.9389   -9065.3547            0    7859.4537    24.904612    25.134808    23.027832    14414.793    8828.9549    6409.8858    8339.5204    1043.3216    375.64391    1080.5285   -6388.6855 
 6031000     274.2166   -9074.0989   -8028.6601   -9074.0989            0    6964.5884    25.016084     25.09822    23.054958    14475.267    6493.5357    6499.8815    7900.3482   -360.11164   -556.82416    242.78292   -6558.3873 
 6032000    276.18562   -9104.7763   -8051.8308   -9104.7763            0    7491.8303    25.030537    24.977163    23.035991    14401.912    7632.4981    7711.3493    7131.6433    72.393789    356.93303    691.40927   -6478.2683 
 6033000    267.49976   -9091.6748   -8071.8437   -9091.6748            0     7258.991    25.017945     25.10559    22.977025    14431.646    6230.4227    7407.0059    8139.5446    -355.8017     680.0211   -15.177499   -6544.0384 
 6034000    258.48827   -9114.9085   -8129.4333   -9114.9085            0    7614.4187    24.993142    25.062171    22.998947    14406.136    6615.2497    6652.4168    9575.5895   -114.60043   -18.673218    470.67036   -6529.6538 
 6035000    251.27979   -9094.3563   -8136.3632   -9094.3563            0    7596.0865    24.863932     25.00924    23.075289    14348.862    8860.2911    7751.9336    6176.0349   -669.23966   -203.14646   -167.89674   -6546.7801 
 6036000    256.73432    -9080.106   -8101.3177    -9080.106            0     7205.322    24.940057    25.174921    22.899571    14377.816    7799.4963    5499.1779    8317.2919    425.78735   -262.03324    621.42129   -6590.4648 
 6037000    267.80214    -9097.878   -8076.8941    -9097.878            0    9593.8848    24.887442    25.042735      22.9657    14313.363      9768.34    8611.8898    10401.425   -129.88302   -554.90122    -146.9247   -6074.2117 
 6038000    269.00631    -9079.204   -8053.6292    -9079.204            0     9262.323    24.865636    25.048216    23.035063    14347.154    10450.028    8004.2226    9332.7181    982.56089    75.997446    6.9825645   -6115.5944 
 6039000    259.31207   -9090.0983   -8101.4824   -9090.0983            0    8839.0681    24.845156    25.161097    22.920631    14328.406    8959.7841    7399.4276    10157.993    666.35991    309.26335   -83.970446   -6254.4257 
 6040000    264.43028   -9103.9595   -8095.8306   -9103.9595            0    8915.3221    24.829844    25.043202    23.032024    14321.746    9367.5605    8566.0949    8812.3109    427.77626    1035.1997    67.729343   -6233.7054 
 6041000    256.81546   -9115.4215   -8136.3238   -9115.4215            0     8765.472    24.898548    25.138744    22.868007    14313.502    9033.4146    7772.6188    9490.3826   -205.71276     701.5979    845.47901   -6306.5513 
 6042000    262.57243   -9088.2402   -8087.1944   -9088.2402            0    7635.8989    24.879757    25.110451    23.035596    14391.302    8637.4574    6919.4291    7350.8103    481.97822   -1426.5061   -515.40679   -6484.5537 
 6043000    256.80032   -9028.7193   -8049.6794   -9028.7193            0    9011.4315    24.780028    25.075045    23.100645    14353.824    10794.036    8504.5302    7735.7288    416.17665    538.86173    868.88917   -6163.2641 
 6044000     266.9276   -9107.6552   -8090.0054   -9107.6552            0    8150.9565    24.945196    25.019205    23.001379    14355.367    8768.8541    8119.2204    7564.7949   -629.37571     821.0154   -199.38524    -6383.535 
 6045000    255.38574   -9131.7095   -8158.0626   -9131.7095            0    8103.4007    25.023948    25.012604    22.902343      14334.9    7479.8441    7624.3362    9206.0219    362.85566   -338.73561    323.15797   -6463.9672 
 6046000    269.73761   -9059.4649   -8031.1021   -9059.4649            0      8600.98    24.923583    24.883864    23.136692    14349.262     9422.459    9460.1695    6920.3113   -611.15361   -200.61159   -1035.9281   -6231.1813 
 6047000    259.99346   -9075.6439   -8084.4302   -9075.6439            0    10203.455    25.064944    24.875835    22.892775    14273.906    9280.7135    11107.253    10222.397   -621.81588   -338.67419    1084.4804   -5960.3742 
 6048000    254.67954   -9074.7249   -8103.7703   -9074.7249            0    7715.8691    25.056986    24.871746    23.084355    14386.424    7822.5385    8236.2133    7088.8554   -455.89157    52.158271    240.80994   -6484.8943 
 6049000    266.84339   -9075.6677    -8058.339   -9075.6677            0    7243.8724    25.025871    25.005549    22.991972    14388.046    7410.5031     7479.519    6841.5949   -400.02549    175.60925   -277.95844   -6538.3218 
 6050000    279.56141   -9113.7344   -8047.9188   -9113.7344            0     8955.709    24.916704    25.108915    22.894794    14323.703    9691.8905    7958.3963    9216.8403    610.29115    1361.0819    67.324825   -6177.1024 
 6051000    265.57749   -9079.6627   -8067.1602   -9079.6627            0    8203.8809    24.865624     25.02985    23.083801    14366.962    9092.0799    8367.8729    7151.6899   -164.84336   -381.73931     218.3892   -6348.2223 
 6052000    269.03149   -9112.1808   -8086.5101   -9112.1808            0    7719.1054    24.819389    25.058455    23.075587    14351.528    9641.5206    6840.6533    6675.1424    780.07805    580.93912   -272.92231   -6470.8834 
 6053000    257.42473   -9073.2238   -8091.8033   -9073.2238            0    8614.2835    24.969299    25.051573    22.962175    14363.305    8928.7794    8096.8504    8817.2208    698.52999   -598.79706    395.36119   -6287.3343 
 6054000     259.8606   -9052.2823   -8061.5751   -9052.2823            0    7954.8987    25.022685    25.032116    22.945289    14372.258    8408.6822    7242.3527    8213.6611   -68.321964   -182.13703   -873.16814   -6394.1915 
 6055000    266.30748   -9067.4321   -8052.1466   -9067.4321            0    8459.5975    24.917788    24.986737    23.075101    14366.886    9334.5644    7673.8863    8370.3417   -225.16838   -151.56926    49.859024   -6279.6385 
 6056000    272.94589   -9087.0958   -8046.5016   -9087.0958            0    7975.2448    24.973334    25.049224    22.991751    14382.781    7597.2763    7767.0933    8561.3648   -442.31493   -1189.2594   -382.00039   -6373.6293 
 6057000    263.40004   -9075.9983   -8071.7972   -9075.9983            0    9496.4522    24.942702    25.011382    22.977768    14334.714    8328.5624    10725.999    9434.7955   -394.70658     210.1684   -38.400232   -6086.4965 
 6058000    255.83002   -9077.2749   -8101.9342   -9077.2749            0    8467.3586    24.903457    24.935919    23.128693      14362.7    8357.9018    9189.6075    7854.5665    313.93699    1272.4257    1442.8996   -6328.3168 
 6059000    262.13296   -9075.4523   -8076.0819   -9075.4523            0    9191.7079    24.968387    24.998359    22.925121    14309.143    8213.7253    8738.1652    10623.233    711.24393   -665.77467   -398.77945   -6157.9179 
 6060000    266.30413   -9129.8216   -8114.5488   -9129.8216            0    9036.5881    24.966236    25.054887    22.877596    14310.536    7254.1248    10026.683    9828.9565   -233.25915   -714.60558    333.62693   -6228.5722 
 6061000    262.78751   -9101.6024   -8099.7366   -9101.6024            0    8462.7934    24.834344    24.922482    23.193164    14355.026    9404.2034    8384.2219     7599.955   -582.44416    338.70174    221.02426   -6328.0226 
 6062000    265.08205   -9077.2478   -8066.6341   -9077.2478            0    9099.7042    25.024598    25.004998    22.923992    14344.459    8566.3965    8954.9735    9777.7425   -79.399418    165.74864    376.93424   -6162.9831 
 6063000     267.1644   -9045.9549   -8027.4024   -9045.9549            0    8650.8845    24.997441    25.011526    22.983891    14370.084     8753.282    8148.8318    9050.5396   -58.266256    259.82377   -228.27642   -6214.4112 
 6064000    271.28181   -9092.3522   -8058.1022   -9092.3522            0    9720.9347    24.825381    25.009531    23.034189    14301.263    9829.2928    9116.9633    10216.548   -127.37912   -516.76309    693.94038   -6030.6141 
 6065000    255.43946   -9104.5127    -8130.661   -9104.5127            0    7568.8842    24.850533    25.082005    23.058634    14372.474    8162.1335    6882.4807    7662.0384    190.11052    271.21192   -152.93525   -6544.1639 
 6066000    270.34732   -9038.8587   -8008.1714   -9038.8587            0     8687.324    24.938077    25.045737     23.05047    14397.151    9396.8988     7850.762    8814.3114    122.27136   -1112.6638    1055.9438   -6184.1142 
 6067000    258.67426   -9113.8124   -8127.6282   -9113.8124            0     7099.132    25.037625    25.114934    22.918944    14411.851    6919.4177    6951.7251    7426.2532   -666.45743   -1003.9474    36.379848    -6635.518 
 6068000    259.10994   -9099.7086   -8111.8634   -9099.7086            0    8618.8516    24.884284    25.013446     23.05216    14348.625    9209.3195    8414.1012     8233.134     613.6205    1322.9815    825.36269   -6308.2826 
 6069000    259.61432   -9104.5065   -8114.7383   -9104.5065            0    9533.2029    24.757839    25.006904    23.096811    14299.626    9725.8576    9708.6559    9165.0953    131.03253   -754.02442    -186.8323   -6126.6328 
 6070000    254.57887   -9072.4749   -8101.9041   -9072.4749            0     8965.414     25.01417    25.086293    22.819567    14319.571    7850.0684    9074.2654    9971.9083   -142.80053   -486.78799    886.88206   -6229.6007 
 6071000    259.39919   -9063.0705   -8074.1225   -9063.0705            0    8107.9987    24.947633    24.961255    23.090827    14379.217    8720.4321    8340.4168    7263.1472     564.2205   -116.82246    -62.88167   -6373.8254 
 6072000    272.19941   -9073.9697   -8036.2214   -9073.9697            0    8562.5815    24.957754    25.114887    22.877558    14339.909    8728.3263    8467.6391     8491.779   -97.115796   -530.98174   -600.69185   -6245.5042 
 6073000    254.99808   -9127.0544   -8154.8854   -9127.0544            0    7806.7223    24.898428    25.046822    22.997347    14341.755    8416.7284    7899.2548    7104.1837    157.53682   -566.44288   -205.65511   -6522.0331 
 6074000    270.76115   -9094.7244   -8062.4594   -9094.7244            0    7370.8165    24.837984    25.137455    23.036814     14383.35    9138.9456    6298.3201    6675.1838   -493.47418   -95.578025   -28.326136   -6516.3097 
 6075000    269.78468   -9056.3541   -8027.8119   -9056.3541            0    8154.3005    24.997466    25.158941    22.895312    14399.086    9128.5442    5944.5704    9389.7869    153.77297   -869.44449   -4.1300524   -6315.4423 
 6076000    275.65766   -9119.8355   -8068.9028   -9119.8355            0    9260.5431    24.792226    24.940525    23.135343    14305.303    9788.8266    9223.0553    8769.7474    238.16824   -374.06848   -196.96825   -6136.8926 
 6077000    261.50791   -9115.7957   -8118.8083   -9115.7957            0    8623.0796    24.867602    25.056394    22.994111    14327.456    9225.9582    8204.7975    8438.4832   -1028.7032    1028.7192    1495.8508    -6317.005 
 6078000    264.37108   -9053.6304   -8045.7273   -9053.6304            0    8458.3793    24.878536    25.062545    23.084077     14393.37     9552.051    7698.1501    8124.9369   -1235.4863    188.56706    246.74292   -6270.2074 
 6079000    258.34896   -9089.1768   -8104.2328   -9089.1768            0    7567.8295     24.97303    24.980609    23.069018     14391.41    7471.4862    7786.3797    7445.6225   -905.62281    250.12848    650.89921   -6515.8668 
 6080000    257.68371    -9070.281   -8087.8732    -9070.281            0    8025.9323    25.020333    25.059855    22.955012    14392.928    7438.8381     7861.274    8777.6846   -997.05878     153.7184   -1064.6959   -6403.1811 
 6081000    265.66083   -9061.1956   -8048.3754   -9061.1956            0    9050.0302    24.827291    24.815886    23.316797    14365.741    9648.5175    9307.2948    8194.2783   -22.230739   -1431.6232    526.29973   -6152.3072 
 6082000    263.01929   -9087.1371   -8084.3876   -9087.1371            0     7673.311    24.988237    24.997847    23.026535    14383.574    8117.4497    7837.9431      7064.54   -138.24346    147.04075   -658.21745   -6474.7596 
 6083000    256.34545   -9112.8495   -8135.5438   -9112.8495            0    9149.8626    25.039248    25.050819    22.783849    14291.253    9370.5974    7275.2697    10803.721    260.53107    522.64508    626.15939   -6228.4996 
 6084000    269.99467   -9064.4259   -8035.0831   -9064.4259            0    8179.6777    24.911659    24.988365    23.119456    14391.898    8142.1773    8393.0446    8003.8114   -220.31325   -582.31335    885.09401   -6318.2417 
 6085000    259.49094   -9081.3876   -8092.0898   -9081.3876            0    8544.9722    24.835489    25.041865    23.095886    14363.954    9930.4405    7787.8016    7916.6743    75.337666    59.313812   -46.207152   -6302.0588 
 6086000    263.58513   -9058.5022   -8053.5954   -9058.5022            0    8387.0303    24.981116    25.076761    22.915579     14355.36    7838.6772    7996.6431    9325.7708    514.86155   -1527.8633    1035.6707   -6297.7018 
 6087000    257.29514   -9048.5732   -8067.6468   -9048.5732            0    11134.499    24.785389    24.922943    23.097897    14268.144    12436.659     10984.21    9982.6296   -97.053952   -578.54012    1688.9594   -5750.7106 
 6088000     269.3522   -9054.4899   -8027.5965   -9054.4899            0    9487.1042    24.921337    25.029057    22.950123    14315.313    9761.2202    9073.8113    9626.2812      -679.44   -135.69642   -491.46374   -6046.9343 
 6089000    260.93643   -9118.2014   -8123.3927   -9118.2014            0    11022.829    24.776032     24.89347    23.058329    14221.487     11137.97    10994.796    10935.721   -80.643516    568.98737    180.96808   -5837.1939 
 6090000    267.49504   -9087.8711    -8068.058   -9087.8711            0    9431.2176    24.907415    25.043382    22.947433    14313.826    8935.5266    9391.6904    9966.4358    61.233986    175.76047   -811.56549    -6099.268 
 6091000    255.00761     -9089.13   -8116.9247     -9089.13            0    8383.5187    24.972086     25.01305    22.981823    14355.091    9319.9565    7826.4947    8004.1047    457.38972   -51.458583   -453.13792   -6361.7992 
 6092000     263.5717   -9088.6955     -8083.84   -9088.6955            0     7736.557      24.9201    24.901295    23.185905    14387.846    8457.7188    8379.2814    6372.6708    292.78967   -1297.9365   -520.27018    -6460.463 
 6093000    268.18802   -9085.1123   -8062.6572   -9085.1123            0    8082.9117    25.075409    24.957546    22.999109    14393.318    6572.4345    9183.1743    8493.1262    435.29817    331.73945   -81.462906   -6365.9588 
 6094000    259.96919   -9075.4757   -8084.3546   -9075.4757            0     7981.576    25.069132    24.938974    22.992972     14375.17    7272.9991    8039.8373    8631.8915    448.31447   -507.94355    875.57152   -6411.0403 
 6095000    251.80675   -9109.5833   -8149.5811   -9109.5833            0    8514.2814    24.938974    24.848184    23.174725    14361.104    9111.6005    8998.5465    7432.6972    221.43755   -987.97054    235.67714   -6366.3333 
 6096000    257.61535   -9061.1411   -8078.9939   -9061.1411            0    7476.8584    25.068907    24.977539    23.030618    14420.842    6156.5192    8368.3281     7905.728    871.56939    -512.1135   -656.12444   -6506.5119 
 6097000    266.16112   -9075.9281   -8061.2005   -9075.9281            0    8897.7296    25.043455    25.045671    22.877244    14349.297    8589.6234    8357.7711    9745.7942   -108.13159     553.7332    1728.3764   -6199.1746 
 6098000    262.15468   -9150.9017   -8151.4485   -9150.9017            0    7995.1354    24.955516    24.931265    23.084339    14362.443    7691.5513    8036.9079    8256.9471   -200.62491    647.98538    961.19921   -6476.7754 
 6099000    256.48447   -9044.3091   -8066.4733   -9044.3091            0    7756.7387    24.997898    25.035624    23.014905    14403.602    7915.5159    7547.0054    7807.6949    -422.6419    436.82912    466.86815   -6437.0791 
 6100000    253.72939   -9092.6554   -8125.3233   -9092.6554            0    8354.0175    25.020534    25.006952    22.926318    14344.705    7661.6682    8674.4014    8725.9828   -689.54253   -135.65986    132.17257   -6377.6393 
 6101000    261.25713   -9078.2848   -8082.2535   -9078.2848            0    10434.449    24.797465    24.838606    23.175746     14274.74    11464.821    11140.934    8697.5915   -302.40137   -859.13158   -184.02877   -5909.9844 
 6102000    271.11016   -9085.0132   -8051.4176   -9085.0132            0    7613.7462    24.922423    25.025057    23.077209     14392.91    7772.9156     7717.095    7351.2281    247.21984    1194.2105    580.33813   -6453.2479 
 6103000    268.26736   -9086.3348   -8063.5773   -9086.3348            0    8248.0219     24.99709    25.112549    22.878352    14361.671    7587.2479    7569.8664    9586.9516   -497.46357   -106.89142    41.634632   -6336.0271 
 6104000    269.80527   -9125.2051   -8096.5844   -9125.2051            0    7398.0132     24.81422      25.1122    23.111789    14401.872    10016.659    6906.5823    5270.7986   -516.80358   -707.40785   -59.593766   -6542.7313 
 6105000    263.43972   -9074.3384    -8069.986   -9074.3384            0    7071.7133    24.941266    25.096591    23.052793    14429.683    7919.6814    5672.7761    7622.6823   -752.82911   -726.22583    396.72346   -6581.7997 
 6106000    263.59372   -9098.9774   -8094.0379   -9098.9774            0    9385.8664    25.108436    24.966475    22.763488    14269.728    8677.2205    9292.3003    10188.078    23.625335    -1179.501    13.638695   -6140.7514 
 6107000    272.81665   -9121.0036   -8080.9021   -9121.0036            0     7822.344    25.023609     24.88345    23.069001    14364.461    7028.6377    8415.3148    8023.0796    297.02107   -450.06763   -264.03774    -6442.192 
 6108000    274.26132   -9118.8479   -8073.2387   -9118.8479            0    9041.8122      25.0136    24.927128    22.935461    14300.654    9241.1067    9191.2691    8693.0607   -3.6106124   -635.90681   -52.397162    -6187.475 
 6109000    267.09737   -9106.7545   -8088.4575   -9106.7545            0    8200.5173    25.065287    24.980408    22.949587     14369.68    7624.9331    9120.3955    7856.2232   -307.17769    547.75351    815.41735   -6369.8994 
 6110000    264.74772    -9117.702    -8108.363    -9117.702            0    7308.0297    24.945363    24.963554    23.094937    14381.792    8060.3789    7122.1657    6741.5444   -323.80882   -630.37682   -144.66907   -6575.5498 
 6111000    267.06865   -9089.4575     -8071.27   -9089.4575            0    7930.6305    24.986732    24.904801     23.09645     14372.68    8187.6224    8772.6413     6831.628   -321.66853   -559.32063   -595.99292   -6408.9242 
 6112000    268.14688     -9084.88   -8062.5818     -9084.88            0    8364.1731    25.078868    25.009814    22.867561    14342.942    6548.3371    9073.9492    9470.2331   -218.82099    -1045.041    437.85549   -6312.9883 
 6113000    270.22186   -9113.0644   -8082.8554   -9113.0644            0    6374.0829    25.124803     24.99132    22.977322    14427.507    5089.7763    7813.6367    6218.8359   -1207.6901   -560.64239   -777.36907   -6741.6822 
 6114000    266.70314   -9036.9741   -8020.1801   -9036.9741            0    9102.8295    24.986875    24.902828    23.107963    14378.787    8872.0409    9375.9394    9060.5082   -636.04891    73.271461    1301.7629    -6111.318 
 6115000    270.57741   -9065.6757   -8034.1113   -9065.6757            0    9272.9289     25.03574    24.981403    22.881162    14310.517    8816.6469    9045.8554    9956.2843    78.292713    87.492474   -1072.7167    -6098.812 
 6116000     257.0809   -9079.4813   -8099.3716   -9079.4813            0    9843.2727    24.992423    24.821772    23.053198    14301.195    8542.3983    10770.813    10216.607   -453.67697   -1060.8188     770.6039   -6046.3774 
 6117000    256.71826   -9119.7913   -8141.0642   -9119.7913            0    9760.4683    24.995098    24.861903    22.949902    14261.659     9214.111    9678.7865    10388.507   -700.49985   -591.43656   -576.71047   -6110.9682 
 6118000    254.02883   -9105.6399   -8137.1662   -9105.6399            0    8760.0635    24.999805    24.887215    23.005947    14313.737    8449.4326    9593.4375    8237.3203    261.14992   -1157.3286    691.03302   -6308.4927 
 6119000    259.26806   -9073.0653   -8084.6172   -9073.0653            0     8933.849    24.996144    24.868702    23.090729    14353.697    8392.1816    10275.834    8133.5318   -1056.2058    194.18221   -431.63936   -6214.4592 
 6120000    253.67902   -9060.7437   -8093.6036   -9060.7437            0    8540.2535    25.006274    24.996536    22.971635    14358.885    9208.6914    7587.5218    8824.5473   -620.34472    33.808266    91.731637   -6305.1924 
 6121000    266.11734    -9111.309   -8096.7484    -9111.309            0    8491.9113    24.958349       25.018    22.947464    14328.579    8211.3651    8897.6179    8366.7508     621.1777     -312.968    657.70148   -6322.2138 
 6122000    261.80179   -9061.2131   -8063.1052   -9061.2131            0    8261.0154    24.813924    25.047655    23.155723     14391.99    10272.607    7321.8593    7188.5803    93.571046    290.29097    909.25899   -6329.1808 
 6123000    261.71867   -9102.9243   -8105.1334   -9102.9243            0     8210.696    24.948754    25.027369    23.005027    14364.378    8948.0397    6896.0548    8787.9934    367.71104    172.05083    103.96557    -6385.077 
 6124000    271.08115   -9066.8452   -8033.3602   -9066.8452            0    9455.0393    25.081622    24.987162    22.832243    14309.391    8410.0983    10007.786    9947.2339   -857.93946    -412.8117    740.99225    -6060.209 
 6125000    265.55839   -9030.3812   -8017.9515   -9030.3812            0    9621.8309     24.98656    24.949591    22.972579    14321.208    9604.0826    9055.5171    10205.893     -46.0625    1297.5672    1012.4236   -6008.3346 
 6126000    269.18433   -9107.8432   -8081.5898   -9107.8432            0    9215.4016    24.880321    24.936225    23.072606    14314.736    9113.1086    9548.9324     8984.164    97.268583   -1325.3543   -494.32048   -6157.7296 
 6127000    267.38245    -9074.312   -8054.9282    -9074.312            0    9689.9333    25.061752    24.891658     22.94924    14316.392    9512.4788    9493.0497    10064.271   -128.57158     61.43646    1332.1893   -6031.7681 
 6128000    265.60635      -9110.8   -8098.1874      -9110.8            0    7927.3344    25.092968    24.782316    23.061404    14341.008      6886.61    9458.1897    7437.2035   -310.95739   -461.73192    1377.0434   -6440.1942 
 6129000    265.20572   -9066.2454   -8055.1603   -9066.2454            0    9020.3628    25.017941    24.953508    22.961625    14334.607    8864.5644    8455.1892    9741.3349   -635.29698    61.771041   -44.416818   -6169.4035 
 6130000    265.13819   -9126.0659   -8115.2382   -9126.0659            0    8695.7266    25.044435    24.847234    22.998169    14311.414     7897.957    10164.763    8024.4596    171.52629    1323.6258   -313.78508   -6300.2896 
 6131000    263.53463   -9120.9327   -8116.2185   -9120.9327            0    9377.3401    24.959117    24.984374    22.904604    14283.034    9497.7862    8521.5097    10112.724   -122.90667   -657.83557   -137.32421   -6162.8866 
 6132000    265.87857   -9101.5879   -8087.9375   -9101.5879            0    6764.1351    24.983428     25.08357    23.067311    14455.674    6986.2683    6946.6719    6359.4652     36.35592    899.61427    139.02296   -6661.9145 
 6133000    257.21693   -9066.5916   -8085.9634   -9066.5916            0    7927.3288    24.928019    24.992421    23.120366    14404.255    8848.2402    7411.6239    7522.1223   -143.56153    107.39861   -536.67032   -6420.6593 
 6134000    260.03074   -9120.2439   -8128.8881   -9120.2439            0    7070.4544    24.971224    25.064892    23.007898    14400.668    7216.8831    6137.4321    7857.0481   -4.8770923    62.922173   -304.94358   -6643.9586 
 6135000    263.20473   -9142.9713   -8139.5149   -9142.9713            0     8269.296    24.868527    25.026948    23.025622    14330.763    8228.6529    8126.9307    8452.3044    2.0823254    1067.6826     871.5737   -6411.2363 
 6136000    265.08176   -9095.5802   -8084.9676   -9095.5802            0    8084.3815    24.946641     25.05746    22.973499    14360.722    8730.0191    7371.5864     8151.539    107.34109    105.08198    1167.2677   -6391.8039 
 6137000    255.44176   -9080.8231   -8106.9626   -9080.8231            0    8484.0998    24.897262    25.018773    23.050574    14358.178     9114.225    7783.2196    8554.8547   -169.95019    18.394619    616.49002   -6330.3981 
 6138000    265.58928   -9098.1646   -8085.6172   -9098.1646            0    6729.8016    24.912996    25.120137    23.049871    14425.021    5952.8371    6781.6079    7454.9597    269.49508   -332.12722   -319.38545   -6669.8409 
 6139000    254.17894   -9092.2929   -8123.2468   -9092.2929            0    8626.1277    24.823218    24.947469    23.169907    14348.578    10832.825    8199.0389    6846.5191    87.788466    548.54463   -142.37881   -6318.1495 
 6140000    262.83755   -9081.8636   -8079.8069   -9081.8636            0    9416.8662    24.947262     24.97918    22.964972    14310.902    9607.5352     8601.132    10041.931   -398.78534   -135.58447   -158.63764   -6114.4145 
 6141000    256.37301   -9094.6804   -8117.2696   -9094.6804            0    8422.0319    24.963649    25.028786    22.931831    14328.033      9753.56      8086.73    7425.8057   -694.84851   -402.72709    572.03773   -6357.4046 
 6142000    260.39942   -9106.1672   -8113.4059   -9106.1672            0     8761.362    24.769314    25.036389    23.135135    14346.888    10069.645     8287.636    7926.8049    146.81474    734.96746   -732.71715   -6280.2254 
 6143000    267.78804    -9108.007   -8087.0769    -9108.007            0    7763.7899    24.966446    24.929096    23.123945    14392.133    8913.3991    7456.7972    6921.1733    118.94556   -303.86083    -622.6549   -6457.5001 
 6144000    260.29099   -9081.7185   -8089.3706   -9081.7185            0    7954.7121    25.037637    25.045249    22.923389    14374.658    6922.0604    8547.6141    8394.4618   -633.48409    264.37371    429.00085   -6421.7476 
 6145000    271.67364   -9054.4221   -8018.6782   -9054.4221            0    8683.0693     24.89231    24.974688    23.063396    14337.999    9298.2167    9434.7542    7316.2369   -632.77307    1635.3962    -345.7517    -6203.005 
 6146000    263.54766   -9112.9133   -8108.1494   -9112.9133            0    7493.3772    24.947275    25.009857    23.050267    14381.701    8110.5774    7005.5629    7363.9914    310.71449    121.84254    512.08264   -6536.4708 
 6147000    257.93932   -9084.7727   -8101.3904   -9084.7727            0    8226.1388    24.905274    25.127106    22.956135    14365.891     9065.748    7751.5473    7861.1212   -696.29796   -15.346549   -386.44643   -6377.9173 
 6148000    259.04405   -9116.7793   -8129.1853   -9116.7793            0    8884.9767    24.878165    25.025187    23.003842    14321.748    8599.2525    10196.694    7858.9834   -441.14487   -703.59294   -535.95383   -6273.3979 
 6149000    268.71184   -9105.4347   -8080.9826   -9105.4347            0    8787.7761      24.8171    25.058598    23.086287     14356.94    10204.744    7186.2563    8972.3282   -655.04256   -562.39408    408.52151   -6240.9872 
 6150000    265.42422   -9108.3651    -8096.447   -9108.3651            0    9019.8146    24.925645    25.125578     22.83236     14299.25    9655.0368    8285.8241    9118.5829    796.31155    160.01822     192.3072   -6215.4558 
 6151000    271.64973   -9100.5336    -8064.881   -9100.5336            0    8991.3494    24.882653    24.991252    23.013236     14310.75    8829.7464    8939.3559    9204.9458    -546.8624    1170.0007   -63.540859   -6188.3179 
 6152000    266.27449    -9119.345   -8104.1852    -9119.345            0    8457.8044    24.873062    24.969518     23.10247    14348.214    9134.2334    8773.8639    7465.3158   -585.92707    775.28649    441.66787   -6334.3559 
 6153000    262.13594    -9057.749   -8058.3673    -9057.749            0    8098.3817    25.028619    25.100981    22.876186    14371.801    6831.0725    7647.5864    9816.4862   -670.50335   -1411.4009   -1117.0715   -6360.9629 
 6154000    259.43836   -9106.7794   -8117.6821   -9106.7794            0    8535.6977    24.840567    24.972533    23.114339    14338.561    9335.0481    8589.4539    7682.5911   -34.626631   -133.94895   -1022.4997   -6332.7549 
 6155000    250.48335   -9044.3906   -8089.4338   -9044.3906            0    8065.4667    24.892214     24.94563    23.158862    14380.541    10077.433    7082.8564    7036.1108    673.67478   -96.102818    885.94584   -6397.9003 
 6156000    256.26952   -9154.2665   -8177.2502   -9154.2665            0    8199.3369    24.991513    25.002868    22.938394    14333.273    8147.9696    6459.9822    9990.0589    378.23392   -69.553716    914.30673   -6463.2929 
 6157000    257.33851   -9069.0336   -8087.9419   -9069.0336            0    9016.1375     24.98244    25.078122      22.9195    14359.357    7636.9547    10284.861     9126.597   -1108.6103   -1134.3535   -1147.6168    -6199.814 
 6158000    265.59631   -9095.4036   -8082.8293   -9095.4036            0    8569.2245    24.859014    25.008507    23.114631    14370.061    9580.2931    8268.7159    7858.6644   -473.80554    1191.3967    753.33133   -6286.9546 
 6159000    272.52948   -9096.8691   -8057.8624   -9096.8691            0    7142.3806    24.906433    25.108554    23.073863    14429.575    8007.0657     7200.134    6219.9422    351.34125   -507.85214    581.34019   -6554.8159 
 6160000    260.01665   -9078.2909   -8086.9888   -9078.2909            0    8290.4609    25.001327    25.000469    22.888791    14306.522    8463.7402    8092.4508    8315.1917    -105.7355   -145.68274    100.70551   -6357.2177 
 6161000    259.47976    -9113.981   -8124.7258    -9113.981            0    10028.125    24.870544    24.997532     22.93703    14260.002    9993.9727    9456.5924     10633.81   -527.16953   -1055.4384     1278.135   -6039.2016 
 6162000    258.91735   -9076.5977   -8089.4867   -9076.5977            0    8464.1084    24.996599    24.974398    22.983324    14347.915    8084.6053    8380.6129    8927.1071    120.42844     409.4509    1204.6917   -6318.3752 
 6163000    266.14253   -9087.7918   -8073.1351   -9087.7918            0     8667.413     24.89021    25.021332    23.018685     14335.72    8342.2736    9170.9309    8489.0345   -325.43253   -920.25735   -929.92538   -6261.0236 
 6164000    260.58431   -9096.8803    -8103.414   -9096.8803            0    9213.6071    24.896782    25.039506    22.928717    14293.834    10019.753    8636.5322    8984.5358    319.69817   -1082.3842    45.549627   -6182.7371 
 6165000    270.61248   -9106.5143   -8074.8161   -9106.5143            0    8663.5023    24.866252    25.064136    22.988747    14327.763    8659.9014    8137.1648    9193.4408   -542.10432    124.93241     -858.683   -6264.5277 
 6166000    271.39693   -9078.0194   -8043.3306   -9078.0194            0    9206.2539    24.751753    25.073936    23.079616     14323.76    10901.003    7833.9089    8883.8497    245.33867   -657.12838   -361.38938   -6120.1685 
 6167000    254.97225   -9117.4718   -8145.4013   -9117.4718            0    7583.4303     24.88821    25.129247    22.954532    14356.268    8304.9553    7077.0078     7368.328    -256.9729    204.72015    1096.7788   -6557.6475 
 6168000     268.6932   -9063.5784   -8039.1974   -9063.5784            0    8061.1569    24.915126    25.041732    23.132816    14432.978    8474.0161    8201.3126     7508.142    90.942042   -172.80484    129.43697    -6342.403 
 6169000    264.88734   -9103.3917   -8093.5203   -9103.3917            0    6719.2588    25.013312    25.030892    23.028506    14418.275    7249.7158    6429.7112    6478.3495   -195.23254    -232.5233    1155.1981   -6680.6231 
 6170000    265.46808   -9099.2388   -8087.1534   -9099.2388            0    9037.2734    24.834641    24.940124    23.122776    14321.763    9858.5921    8165.0192    9088.2089    633.77444    1401.3844    315.45115   -6199.5542 
 6171000    259.33252   -9088.1778   -8099.4839   -9088.1778            0    8671.9398    24.973326    25.067018    22.908194    14340.686    8595.4919    8934.3402    8485.9872   -752.72215   -861.82896    1259.4423   -6285.7981 
 6172000    259.61556   -9072.1348   -8082.3618   -9072.1348            0    8528.3012    24.803739    24.982746    23.103797    14316.627    9562.3705    9895.8446    6126.6886    169.52529    129.86284    755.95048   -6301.7096 
 6173000    264.44337   -9096.8583   -8088.6796   -9096.8583            0    8693.7531      24.9088    24.975031    23.032402    14328.413    9452.0266    7768.9903    8860.2423    575.38428    848.32825    -491.0975   -6271.9877 
 6174000    261.26188   -9106.9852   -8110.9357   -9106.9852            0    7460.0587     25.00765    25.172969     22.83429    14374.569    8353.6164    5829.0503    8197.5094   -29.782189    -116.8028    1061.9014   -6547.0214 
 6175000    269.59667   -9134.1658   -8106.3403   -9134.1658            0     7997.973    24.929934    24.938805    23.087831     14354.23    8104.2431    8775.7882    7113.8878   -574.99611    573.45839    16.493169   -6432.0309 
 6176000    267.39841   -9129.5105   -8110.0658   -9129.5105            0    7922.1915    25.047203     25.03277     22.86086    14333.779    8144.9272    6239.6066    9382.0405    683.69659    110.19775    828.98536   -6453.9835 
 6177000    266.95312   -9097.3336   -8079.5865   -9097.3336            0    7632.9614    25.054368    24.929095    23.021799    14379.017    7887.2594    8007.2469     7004.378   -267.93388   -107.20522    619.07426   -6478.9299 
 6178000    260.19641   -9094.2834    -8102.296   -9094.2834            0    7913.9866    25.036742    24.876459    23.141031    14412.823    7548.4782    9277.6394    6915.8423    -203.6613   -22.255956     549.2955   -6438.8058 
 6179000    261.83428   -9101.4592   -8103.2276   -9101.4592            0    7690.6822    24.999207    24.983534    23.016341    14375.282    7099.3931    8105.5176    7867.1359    383.75708    438.75626   -229.17675   -6490.8857 
 6180000    257.89988   -9094.6872   -8111.4552   -9094.6872            0    6455.5395    25.099437    24.996954    23.030087    14449.295    5792.0891    6373.0352    7201.4942    -638.8181   -971.72663   -282.20671   -6751.0913 
 6181000    272.91407   -9135.1525   -8094.6796   -9135.1525            0    8851.3319    24.921685    24.944209    23.006094    14301.778    8218.3101    9951.0887    8384.5969    15.353212    1160.4833     887.8561   -6248.4974 
 6182000     263.1539   -9053.4463   -8050.1836   -9053.4463            0    9503.2441    24.996471    24.951675    22.954188    14316.614    10357.829    9170.5326    8981.3711   -319.56999   -817.97215    -431.7744   -6065.9714 
 6183000    266.35871   -9104.6797   -8089.1989   -9104.6797            0    8593.7413    25.033458    24.927113    23.003202     14354.27    7598.7551    8988.0442    9194.4248   -1922.1021    465.09484   -330.03779   -6290.1653 
 6184000    275.53659   -9119.6275   -8069.1563   -9119.6275            0    9545.9079     24.87472    24.924177    23.036898     14282.46    10279.278    9543.8507    8814.5946   -411.52527   -767.94916    960.27458   -6080.7911 
 6185000    272.15598   -9062.3161   -8024.7334   -9062.3161            0    9923.1463    24.989366    24.981249    22.943935    14323.109    9045.9767    10348.794    10374.668   -25.534792   -16.883604     1203.155   -5951.9087 
 6186000    265.81231    -9053.686   -8040.2883    -9053.686            0    8560.9134    24.952094    24.911172    23.141514    14384.439    8734.8408    9137.9441    7809.9554   -109.80095    270.16785    119.48252   -6244.3602 
 6187000    253.97303   -9112.4003   -8144.1393   -9112.4003            0    8013.0324     24.99158    24.923143     23.03317    14346.641    7781.9691    9612.5583    6644.5699   -213.94033   -113.31316   -155.58793   -6467.5641 
 6188000    268.79168   -9064.2245    -8039.468   -9064.2245            0    9646.6179    25.137229    24.949862    22.772947    14282.518    8304.7979    9646.7172    10988.339    192.64522    239.35131   -215.22193   -6030.1174 
 6189000      254.835   -9113.3659   -8141.8187   -9113.3659            0    8459.1342     24.98195    24.932815    23.017693    14337.038    7840.3341    9194.9305    8342.1379   -431.98881   -455.34198    1024.6688   -6373.0899 
 6190000     273.8452   -9086.2381   -8042.2153   -9086.2381            0    7631.1575    24.981966    24.877871    23.156663    14391.823    7640.0972    7669.9347    7583.4407    715.66096    -502.4301   -722.21054   -6440.5119 
 6191000    272.89385     -9127.52   -8087.1242     -9127.52            0      6696.93    25.063979    25.013715    22.986969    14411.525    6337.0387    7347.1102    6406.6413    -6.472095    125.95321   -523.89451   -6679.5815 
 6192000    261.55588   -9056.2039   -8059.0336   -9056.2039            0    6424.7297    25.083077    25.035662    23.075371    14490.674    5876.4357    7450.8431    5946.9104   -604.95574   -1232.1367   -725.17204   -6701.2851 
 6193000    262.20938   -9082.4209   -8082.7592   -9082.4209            0    8154.2498    25.032631    24.900822    23.074569    14383.142    7720.4514    8710.3161    8031.9818   -46.750578   -548.79357   -888.31107   -6372.2962 
 6194000    257.03392   -9083.9166   -8103.9861   -9083.9166            0    7400.0139    25.098389    24.952488    23.026352     14420.65    7516.4494    7006.3014     7677.291    809.11005   -203.15284    57.124058   -6547.6863 
 6195000     261.0069   -9085.1191   -8090.0418   -9085.1191            0    8475.8993    25.033714    24.972349    22.984507    14368.779    9537.5255    7798.4582    8091.7141   -79.871894    303.49862    443.27404    -6313.884 
 6196000    263.97888   -9075.3837   -8068.9758   -9075.3837            0    8627.4677    24.987256    24.988454     22.95681    14334.069    8860.4361    8056.2384    8965.7288    669.43007   -812.46183    316.01673   -6265.4236 
 6197000    261.57059   -9080.3624    -8083.136   -9080.3624            0     8087.949    24.894608    25.019277    23.083018    14377.145    9426.8758    7137.7898    7699.1814   -16.296296    677.89139   -1150.0054    -6387.288 
 6198000    264.78256   -9067.4743   -8058.0024   -9067.4743            0    8243.1647    24.894876    25.084776    23.020556    14375.932    9267.3659    7757.4464    7704.6819    1278.4984    663.05107   -36.101986   -6329.7552 
 6199000    265.98778   -9047.5392   -8033.4724   -9047.5392            0    9955.0773    24.878691    25.035429    22.966473    14304.638    10760.763    9335.8658    9768.6031    637.83158   -502.06238    146.40476   -5956.6595 
 6200000    272.67833   -9118.2605   -8078.6863   -9118.2605            0    8310.1335     24.94421    25.021557    22.948705    14323.273    8394.1843    7773.8604    8762.3557    228.90807   -1633.2913   -35.008037   -6342.7805 
 6201000    273.24155   -9077.9439   -8036.2225   -9077.9439            0    9466.7293    24.939018    24.856907    23.077534    14305.921    10345.712    10315.532    7738.9442   -524.42968    454.36833    252.86839   -6061.1107 
 6202000    263.11677   -9092.2339   -8089.1128   -9092.2339            0    9134.2427    25.033093    24.954001    22.891139    14299.541     9097.081    9657.4748    8648.1722   -284.32902   -750.03044   -513.01388     -6184.22 
 6203000    259.49442   -9121.4664   -8132.1553   -9121.4664            0    8972.3095    25.035294    24.829273    23.029347     14315.23    8747.9334    9821.3386    8347.6566    15.065072    770.84724   -758.15179   -6258.9798 
 6204000    268.84512   -9090.1486   -8065.1884   -9090.1486            0    8346.8576    25.030652    24.919008    23.018815    14357.733    9029.8406    8396.2179    7614.5143    -534.1664    104.43528    553.19528   -6317.4164 
 6205000    261.39024   -9116.2458    -8119.707   -9116.2458            0    8224.5305    25.113481     24.85882    22.983623     14348.48    7589.5696    8996.3189    8087.7031    372.89431    1162.5512    607.85705   -6398.6593 
 6206000      253.196   -9141.0363   -8175.7377   -9141.0363            0    7945.2045    25.029175    24.890551    23.062124    14367.472    7429.4455    9255.4168    7150.7513   -141.79857    134.67991   -383.55772   -6510.9405 
 6207000     266.0103   -9095.6311   -8081.4785   -9095.6311            0    8945.9719    25.061961    24.831343    23.001236    14314.179    8284.1029    9903.5912    8650.2215    574.45432     40.04575    1101.6816   -6213.9387 
 6208000    263.15937   -9088.0545    -8084.771   -9088.0545            0    8674.7048    24.992211    24.977464    22.941322    14320.938    8675.5921    9032.1585     8316.364   -346.44007   -888.25067    379.01962   -6273.0051 
 6209000    261.06433   -9045.3915   -8050.0952   -9045.3915            0    7576.6871    25.040693    24.916917    23.131227    14432.426    7595.0638    9026.0121    6108.9855   -370.81049   -120.50991    280.07396    -6455.338 
 6210000    263.85732   -9077.7359   -8071.7915   -9077.7359            0    7939.9614    25.012594    24.944109    23.080321    14400.202    6759.4135    8632.9549    8427.5159   -277.81699    -967.2878    1064.5424   -6404.3029 
 6211000    265.32773   -9072.0982   -8060.5479   -9072.0982            0    8372.3244    25.020994    24.951947     23.02292    14373.727      8005.94    8481.6876    8629.3456    307.19553   -63.856886    952.08512   -6305.4905 
 6212000    261.93794   -9100.5535   -8101.9266   -9100.5535            0    8456.0417    25.059057    24.936939    22.955199    14344.616    7927.9452    8507.9627    8932.2171    83.535826    278.34379   -111.10152   -6332.9099 
 6213000    257.01382   -9078.6791   -8098.8252   -9078.6791            0    8665.6932    25.070295    24.933459    22.962627    14353.689    8137.1273    9457.3348    8402.6176   -278.48751   -807.88425   -412.52699   -6284.8024 
 6214000    281.04625   -9132.9817   -8061.5053   -9132.9817            0    10017.461     25.00592    24.804844    23.035326    14288.074     9057.806    11449.913    9544.6628   -123.37876   -861.80755   -907.37101   -5974.0978 
 6215000    258.73441   -9087.7758   -8101.3623   -9087.7758            0    9036.4198    25.013424    24.916371     22.96409    14312.226    8881.4686    9543.4608      8684.33    382.96771   -1785.1227   -762.73353   -6215.1982 
 6216000     258.9525   -9115.2055   -8127.9605   -9115.2055            0    8012.7905    25.019933    24.903021    23.012056    14338.166    7416.7225    8775.5886    7846.0605   -6.6207765   -692.97593    -198.0084   -6452.4263 
 6217000    262.87748    -9070.809   -8068.6001    -9070.809            0    7970.5719    25.027436     25.07312    22.919193    14382.158    7459.4282    7530.3978    8921.8899    447.19173    587.91805    292.87392   -6396.7804 
 6218000    273.66639   -9122.2478   -8078.9067   -9122.2478            0    8212.5294    24.907428     24.95546     23.13859      14382.4    8648.7876    8100.9805      7887.82    441.29933   -599.72708    1164.2457   -6356.3078 
 6219000    259.62687   -9116.0472   -8126.2312   -9116.0472            0    8241.8236    24.930903    25.031864    22.978387    14340.052    9133.2537    7815.2044    7777.0126   -279.79952    312.11168   -1233.3056   -6402.5778 
 6220000    262.09423   -9097.2378   -8098.0151   -9097.2378            0    7079.9253    24.944465    25.114122    23.008446    14413.833    7212.8792    6865.3711    7161.5256    -444.3614   -683.00715     -181.893   -6609.7372 
 6221000    271.54557   -9125.6374   -8090.3818   -9125.6374            0    8205.1415    24.829518    24.989146    23.096871     14330.88    9432.8335    7400.2863    7782.3048   -270.97166   -456.16361    403.32253   -6375.4976 
 6222000    267.12173   -9116.5072   -8098.1174   -9116.5072            0    9687.4223    24.910543    25.063355    22.826477    14251.524    10661.053    8670.1358    9731.0785    2.9876526   -638.69069    714.75899   -6084.6462 
 6223000    269.18475    -9118.931    -8092.676    -9118.931            0    9613.4059    24.876456    24.923982    22.999206    14259.975    9217.5905    11138.285    8484.3426   -631.72122    1.0557202   -226.93707   -6093.4037 
 6224000    269.53735   -9029.2328   -8001.6335   -9029.2328            0    10556.151    24.915148    24.987286    22.918243    14268.026     10735.82    9933.8749    10998.759   -743.25446   -228.68332    346.13773   -5805.0618 
 6225000    267.98662   -9121.5486   -8099.8613   -9121.5486            0    8587.6248    25.029301    24.965101    22.932195     14329.39    7950.4142    8428.4956    9383.9647    454.93658   -410.04807    58.038548   -6305.2242 
 6226000    262.79558   -9080.1858   -8078.2892   -9080.1858            0    9430.5275    25.050468    24.990526     22.83857    14297.501    8989.3754    9305.5021    9996.7049    285.87871   -549.87129   -267.32298   -6111.8885 
 6227000    265.45522   -9069.9537   -8057.9174   -9069.9537            0    7919.8633    24.989534     24.91837    23.142119    14410.561    7287.2474    9352.5038    7119.8385   -364.64451   -160.01361    502.31966   -6393.4531 
 6228000    265.66089   -9072.2391   -8059.4186   -9072.2391            0     7823.856    25.055542    24.942843    23.062858    14413.282    7734.6712    8636.8055    7100.0915   -113.24088    527.68935     1783.486   -6414.8211 
 6229000    255.00088   -9079.4503   -8107.2707   -9079.4503            0     8536.946    25.051955    25.011421    22.937349    14372.199    6585.0419    9052.5818    9973.2142    -298.7516    364.23953    23.090383   -6317.8946 
 6230000    257.78867   -9043.9605   -8061.1525   -9043.9605            0      9725.28    24.924222    24.913721    23.127741    14361.289    10036.339    8948.7349    10190.766   -656.84537   -1640.0303   -258.40365   -6024.2444 
 6231000    271.29234   -9082.8293   -8048.5391   -9082.8293            0    8028.3863    24.990537    24.991494    23.055499    14399.331     7898.746    8280.9415    7905.4714    374.75191    518.67578    27.789993   -6362.5822 
 6232000    258.72389   -9041.4339   -8055.0604   -9041.4339            0      9132.54    25.013552    25.029397    22.925942    14353.339    9302.4003    7465.5028    10629.717    113.67361   -423.19738   -1935.6871   -6143.3574 
 6233000     276.0355   -9105.5116   -8053.1384   -9105.5116            0    8394.6087    24.880324    24.963441    23.055629    14319.817    9858.1158    7613.3251    7712.3854    -38.03568   -91.569066    383.75725   -6300.0097 
 6234000    271.42474    -9104.605   -8069.8101    -9104.605            0    7837.1012    24.941252    24.946185    23.113954     14381.25    7994.2801    7917.7029    7599.3208   -321.66957   -283.57531   -154.36546   -6426.0895 
 6235000    255.04939   -9093.3334   -8120.9688   -9093.3334            0    8288.0199    24.970938    25.039527    22.976422    14366.249    8398.4437    7605.3451    8860.2708    135.36447   -4.4200069    531.98524   -6384.4877 
 6236000    269.91018   -9090.0222   -8061.0015   -9090.0222            0    8465.8518    25.020654    24.949353    22.967283    14337.307    8096.1119    9432.7086    7868.7349    487.95082    1205.7504    355.23704   -6290.8349 
 6237000    269.41105   -9126.1303   -8099.0125   -9126.1303            0     8346.777    24.882164    25.082587    22.986578    14346.131     7912.177    7744.7415    9383.4124   -744.06177   -1011.8441   -496.84962   -6352.6698 
 6238000    277.05769   -9076.6501   -8020.3798   -9076.6501            0    8612.5038    24.963978    25.002102    23.031747    14375.309    8289.8343     9040.254    8507.4231   -123.03696   -103.53608    920.58789   -6214.7758 
 6239000    267.30091   -9102.0622   -8082.9893   -9102.0622            0    8019.1648    24.940945    24.873053    23.228545        14410    8234.2381    8004.9586    7818.2976   -631.20014   -1073.9873    -532.4964   -6397.7211 
 6240000    264.73931   -9049.7712   -8040.4642   -9049.7712            0    8673.7896    24.953871    25.004053    23.011692    14358.097    8738.9251     8976.767    8305.6765    1081.9564    45.460694    260.82991    -6224.189 
 6241000    264.96562   -9072.6706   -8062.5009   -9072.6706            0    8819.1645    25.018972    25.029262    22.875867    14325.014     9783.566     7562.829    9111.0986   -295.11219   -1035.4271    772.58049   -6220.0395 
 6242000    273.37963   -9091.0225   -8048.7747   -9091.0225            0    8939.4976    24.875061    24.969522    23.053637    14319.038    9165.2492    8712.5908    8940.6529   -668.96457   -1746.4958    664.88072   -6181.9529 
 6243000    261.95532   -9080.5035   -8081.8104   -9080.5035            0    8605.2891    24.907882    25.099965    22.944758    14344.764    8858.5041    7836.5089    9120.8543   -715.92871   -857.34705      520.798   -6281.5523 
 6244000    263.42816   -9113.6027   -8109.2944   -9113.6027            0    8294.4852    24.942288    25.036602    22.976608    14348.206    9206.8624    8204.0499    7472.5433   -108.22839   -10.320211    625.25877   -6373.6413 
 6245000    273.36875   -9114.3264     -8072.12   -9114.3264            0    7970.9749    24.917978     25.02202    23.038505    14364.465    8836.2237    6581.6658    8495.0351    158.71291   -883.66059    524.71465   -6402.2726 
 6246000    267.59042   -9125.1329   -8104.9562   -9125.1329            0    8697.0206    24.930294    24.999301    23.005478    14337.932    9872.2981     7692.706    8526.0576    -666.6935    118.57273    1457.2534   -6286.3741 
 6247000    272.20597   -9064.9937   -8027.2204   -9064.9937            0    9907.0184    24.837422    24.913266     23.12417    14308.804    10339.668    10103.285    9278.1023    194.42928    11.261105    366.13761   -5959.8314 
 6248000    251.79692   -9091.2256   -8131.2609   -9091.2256            0    9022.7093    24.967279    24.956193    23.031257    14350.506     8209.806    9967.9651    8890.3568    369.31565   -600.86786   -183.63741   -6242.9215 
 6249000    262.73578   -9142.6228   -8140.9541   -9142.6228            0    8960.9743    25.018645    24.944918    22.912858    14299.642    8879.2522    8507.5967    9496.0741    -665.4489   -243.66543   -95.848386   -6272.1823 
 6250000    272.51885   -9085.5785   -8046.6124   -9085.5785            0    7929.2383    25.048505    24.916491    23.034669    14376.417    6239.9608    9743.5804    7804.1737     -12.3322   -1310.6946   -204.78312   -6384.1263 
Loop time of 514.285 on 64 procs for 250000 steps with 1920 atoms

Performance: 84.000 ns/day, 0.286 hours/ns, 486.112 timesteps/s
194.0% CPU use with 32 MPI tasks x 2 OpenMP threads

MPI task timing breakdown:
Section |  min time  |  avg time  |  max time  |%varavg| %total
---------------------------------------------------------------
Pair    | 68.513     | 75.016     | 80.06      |  31.2 | 14.59
Bond    | 0.80947    | 1.2362     | 1.748      |  19.2 |  0.24
Kspace  | 229.68     | 237.6      | 247.34     |  28.3 | 46.20
Neigh   | 4.9263     | 5.5242     | 6.1873     |  18.5 |  1.07
Comm    | 79.692     | 87.748     | 94.892     |  45.1 | 17.06
Output  | 0.62952    | 0.62994    | 0.63155    |   0.0 |  0.12
Modify  | 84.005     | 91.011     | 95.116     |  32.7 | 17.70
Other   |            | 15.52      |            |       |  3.02

Nlocal:        60.0000 ave          65 max          56 min
Histogram: 3 3 3 3 6 5 4 4 0 1
Nghost:        3361.88 ave        3406 max        3328 min
Histogram: 3 1 9 2 2 8 1 2 3 1
Neighs:        21121.2 ave       23252 max       19595 min
Histogram: 3 3 4 6 5 4 3 3 0 1

Total # of neighbors = 675880
Ave neighs/atom = 352.02083
Ave special neighs/atom = 2.0000000
Neighbor list builds = 11551
Dangerous builds = 0

unfix		3
unfix		2
unfix		1

write_data	data.final.${pid}
write_data	data.final.0
System init for write_data ...
PPPM initialization ...
  extracting TIP4P info from pair style
  using 12-bit tables for long-range coulomb (../kspace.cpp:340)
  G vector (1/distance) = 0.37428727
  grid = 30 30 30
  stencil order = 5
  estimated absolute RMS force accuracy = 0.0032909343
  estimated relative force accuracy = 9.9105509e-06
  using double precision FFTW3
  3d grid and FFT values/proc = 5400 960
Last active /omp style is kspace_style pppm/tip4p/omp
WARNING: Not all mixed pair coeffs generated from mixing. Use write_data with 'pair ij' option to store all pair coeffs. (../write_data.cpp:312)

write_restart   restart.lmp.${pid}
write_restart   restart.lmp.0
System init for write_restart ...
PPPM initialization ...
  extracting TIP4P info from pair style
  using 12-bit tables for long-range coulomb (../kspace.cpp:340)
  G vector (1/distance) = 0.37428727
  grid = 30 30 30
  stencil order = 5
  estimated absolute RMS force accuracy = 0.0032909343
  estimated relative force accuracy = 9.9105509e-06
  using double precision FFTW3
  3d grid and FFT values/proc = 5400 960
Last active /omp style is kspace_style pppm/tip4p/omp
Total wall time: 0:08:34
