#include		in.partitions
include		in.temp
variable        temperature equal 278.31
variable	tempDamp equal 100.0
include		in.pressure
variable        pressure equal -2500.0
variable        pressureDamp equal 1000.0 # This is 1 ps
include		in.seed
variable        seed equal 745823

units		real
atom_style	full
#include		in.box
read_restart	restart.lmp.${pid}
read_restart	restart.lmp.0
Reading restart file ...
  restart file = 30 Jul 2021, LAMMPS = 30 Jul 2021
  restoring atom style full from restart
  orthogonal box = (-0.21438751 -0.051737154 0.0060990599) to (18.421960 23.680915 22.207097)
  2 by 4 by 2 MPI processor grid
  restoring pair style lj/cut/tip4p/long/omp from restart
  restoring bond style harmonic/omp from restart
  restoring angle style harmonic/omp from restart
  864 atoms
  576 bonds
  288 angles
Finding 1-2 1-3 1-4 neighbors ...
  special bond factors lj:    0        0        0       
  special bond factors coul:  0        0        0       
     2 = max # of 1-2 neighbors
     1 = max # of 1-3 neighbors
     1 = max # of 1-4 neighbors
     2 = max # of special neighbors
  special bonds CPU = 0.001 seconds
  read_restart CPU = 0.004 seconds
include 	in.setup
variable	out_freq equal 1000
variable	out_freq2 equal 10000
variable	out_freq3 equal 1000

timestep	2.0

neigh_modify    delay 7 every 1

include		in.tip4p
# This is TIP4P/Ice

# create groups ###
group ox type 2
288 atoms in group ox
group hy type 1
576 atoms in group hy

# set charges - beside manually ###
set group ox charge -1.1794
Setting atom values ...
  288 settings made for charge
set group hy charge 0.5897
Setting atom values ...
  576 settings made for charge

# ### TIP3P Potential Parameters ###
pair_style lj/cut/tip4p/long/omp 2 1 1 1 0.1577 8.5
pair_coeff 1 1*2 0.000 0.000
pair_coeff 2 2 0.21084 3.1668
bond_style  harmonic
bond_coeff  1 450 0.9572
angle_style harmonic
angle_coeff 1 55 104.52
kspace_style pppm/tip4p/omp 1.0e-5
pair_modify tail yes

thermo          ${out_freq}
thermo          1000
thermo_style    custom step temp pe etotal epair emol press lx ly lz vol pxx pyy pzz pxy pxz pyz enthalpy

restart 	${out_freq3} restart.lmp.${pid} restart2.lmp.${pid}
restart 	1000 restart.lmp.${pid} restart2.lmp.${pid}
restart 	1000 restart.lmp.0 restart2.lmp.${pid}
restart 	1000 restart.lmp.0 restart2.lmp.0


include         in.dump
dump            myDump all atom ${out_freq2} dump.water.${pid}
dump            myDump all atom 10000 dump.water.${pid}
dump            myDump all atom 10000 dump.water.0
dump            myDump2 all dcd ${out_freq2} dump.dcd
dump            myDump2 all dcd 10000 dump.dcd
dump_modify     myDump append yes
dump_modify     myDump2 append yes


variable natoms 	equal  "count(all)"                        # NUMBER ATOMS
variable H      	equal  "enthalpy/v_natoms"                 # ENTHALPY-per-atom
variable Vol      	equal  "vol/v_natoms"                 # volume-per-atom
fix AVG all 		ave/time ${out_freq} 1 ${out_freq} v_Vol v_H file vol_enthalpy.dat
fix AVG all 		ave/time 1000 1 ${out_freq} v_Vol v_H file vol_enthalpy.dat
fix AVG all 		ave/time 1000 1 1000 v_Vol v_H file vol_enthalpy.dat


timer           timeout 23:50:00 every 1000
New timer settings: style=normal  mode=nosync  timeout=23:50:00

fix 		1 all shake 1e-6 200 0 b 1 a 1
       0 = # of size 2 clusters
       0 = # of size 3 clusters
       0 = # of size 4 clusters
     288 = # of frozen angles
  find clusters CPU = 0.000 seconds
fix             2 all nph aniso ${pressure} ${pressure} ${pressureDamp}
fix             2 all nph aniso -2500 ${pressure} ${pressureDamp}
fix             2 all nph aniso -2500 -2500 ${pressureDamp}
fix             2 all nph aniso -2500 -2500 1000
fix             3 all temp/csvr ${temperature} ${temperature} ${tempDamp} ${seed}
fix             3 all temp/csvr 278.31 ${temperature} ${tempDamp} ${seed}
fix             3 all temp/csvr 278.31 278.31 ${tempDamp} ${seed}
fix             3 all temp/csvr 278.31 278.31 100 ${seed}
fix             3 all temp/csvr 278.31 278.31 100 745823


run             250000
PPPM initialization ...
  extracting TIP4P info from pair style
  using 12-bit tables for long-range coulomb (../kspace.cpp:340)
  G vector (1/distance) = 0.37041023
  grid = 24 27 25
  stencil order = 5
  estimated absolute RMS force accuracy = 0.0032907319
  estimated relative force accuracy = 9.9099413e-06
  using double precision FFTW3
  3d grid and FFT values/proc = 5700 1296
Last active /omp style is kspace_style pppm/tip4p/omp
Neighbor list info ...
  update every 1 steps, delay 7 steps, check yes
  max neighbors/atom: 2000, page size: 100000
  master list distance cutoff = 10.8154
  ghost atom cutoff = 10.8154
  binsize = 5.4077, bins = 4 5 5
  1 neighbor lists, perpetual/occasional/extra = 1 0 0
  (1) pair lj/cut/tip4p/long/omp, perpetual
      attributes: half, newton on, omp
      pair build: half/bin/newton/omp
      stencil: half/bin/3d
      bin: standard
Per MPI rank memory allocation (min/avg/max) = 12.22 | 12.25 | 12.27 Mbytes
Step Temp PotEng TotEng E_pair E_mol Press Lx Ly Lz Volume Pxx Pyy Pzz Pxy Pxz Pyz Enthalpy 
10250000    289.15954   -4133.6207   -3638.0112   -4133.6207            0   -3806.5454    18.636347    23.732652    22.200998    9819.2782   -4565.0022   -3710.8438   -3143.7901   -503.88332     735.7119    1030.4039   -4183.1241 
10251000    278.51862   -4156.4442   -3679.0728   -4156.4442            0   -3025.3811    18.353372    23.766577    22.426219    9782.2458   -3906.2856   -3250.6504   -1919.2073   -268.66272   -559.46787    -590.8989   -4110.6858 
10252000    271.50152   -4138.2199   -3672.8756   -4138.2199            0     -3687.69    18.186625    24.093587    22.507709     9862.451   -2547.2397   -4662.9566   -3852.8736    525.70311   -666.02727   -107.11152   -4203.2898 
10253000    269.86526   -4163.1881   -3700.6483   -4163.1881            0   -2900.0306     18.40584    23.848567    22.172037    9732.4799   -2926.7015   -3571.3219   -2202.0682   -935.53752   -400.05832   -289.09838   -4112.2735 
10254000    269.29063   -4193.9583   -3732.4033   -4193.9583            0   -2045.2511    18.286745       23.495    22.509807    9671.2727   -2066.8398   -784.66465   -3284.2488    381.85755   -291.45962   -14.156834    -4020.877 
10255000    276.56437   -4146.5601   -3672.5382   -4146.5601            0   -2202.3047     18.33291     24.01031     22.11132    9732.9351    -1605.748   -3732.7128   -1268.4533   -562.52535   -539.49276   -385.37405   -3985.1441 
10256000    285.02924   -4156.3023   -3667.7719   -4156.3023            0   -2796.8469      18.2118    23.807211    22.497455    9754.2705   -2163.6287   -2498.0112   -3728.9009    454.48172    -65.12397    679.34667   -4065.6403 
10257000    286.33245    -4169.131    -3678.367    -4169.131            0   -3559.7462    18.325015    23.689455    22.565309    9795.8173   -3166.4537   -3700.5461   -3812.2387    261.64142   -619.95586   -576.14075   -4186.9193 
10258000    288.38411   -4151.7072   -3657.4267   -4151.7072            0   -3279.5261    18.494353    23.731092     22.24308    9762.2922   -3643.8912   -3539.3045   -2655.3825    1007.1199    -324.3209    270.40572   -4124.3427 
10259000    281.38064   -4133.9145   -3651.6377   -4133.9145            0   -2488.2261    18.212352    23.485108    22.731008    9722.4853   -1311.0224   -2843.3974   -3310.2585   -1274.3218   -347.02022   -97.400458   -4004.4494 
10260000    266.38696   -4131.2616   -3674.6835   -4131.2616            0   -2699.0163    18.321067    23.954975    22.363451     9814.887   -4778.6823   -2055.0296   -1263.3368    644.88237    83.951729    535.47276   -4061.0208 
10261000    286.91733   -4178.6925    -3686.926   -4178.6925            0   -2402.4491    18.366977    23.697836    22.373802    9738.3671   -3111.3153   -2387.4448   -1708.5873    311.58406    204.64503    762.56892   -4028.1317 
10262000    289.35555   -4129.3895    -3633.444   -4129.3895            0   -2258.9387    18.391817    23.625349    22.463432    9760.6554   -3925.1172   -34.371191   -2817.3277   -904.68436   -211.77225    253.47184    -3955.002 
10263000    286.16077    -4145.679   -3655.2092    -4145.679            0    -2708.357    18.438611    23.860497    22.293877    9808.2904   -3663.0117   -1905.9687   -2556.0906   -508.96946    563.02552   -466.05021   -4042.6231 
10264000    278.43429   -4181.5034   -3704.2766   -4181.5034            0    -2979.541    18.180247     23.85895    22.491625    9756.0031   -3222.9252   -3188.0004   -2527.6973    14.739777   -175.49929    63.115588   -4128.2095 
10265000     270.1323   -4137.8142   -3674.8166   -4137.8142            0   -3310.0503    18.312488    24.015429    22.393728    9848.3645   -3831.8319   -4010.4602   -2087.8586    207.89389   -117.30098   -171.76536   -4150.2335 
10266000    281.54612     -4165.32   -3682.7596     -4165.32            0   -2356.7582    18.456356    23.645543    22.316532    9739.1702   -2524.2775   -2239.5077   -2306.4894    1028.4909    106.79026    418.76464   -4017.5037 
10267000    275.35692   -4141.7182   -3669.7659   -4141.7182            0   -1748.3421    18.392631    23.611409    22.444004    9746.8911   -3496.4302   -795.25749   -953.33872   -1106.1717    207.01972     278.6507     -3918.29 
10268000    269.76559   -4184.6931   -3722.3242   -4184.6931            0   -2570.9208    18.436878     23.98812     22.07986    9765.1724   -5357.9982    -3174.553    819.78877      922.245   -428.78373   -359.49301   -4088.4619 
10269000    278.19606   -4154.2437   -3677.4252   -4154.2437            0   -3001.3977    18.200934    23.827557    22.630465    9814.4659   -2561.2093   -1422.0009    -5020.983   -708.59351   -272.60189    820.61979    -4107.027 
10270000    264.97301   -4158.2543   -3704.0996   -4158.2543            0    -4226.725    18.553013    23.837292    22.313832    9868.3724   -4033.6417   -3951.7569   -4694.7762    556.84348    72.806427   -471.30429   -4312.4102 
10271000    264.10778    -4149.829   -3697.1573    -4149.829            0   -3613.2989    18.378913    23.812019    22.582299    9882.8951   -2967.0522    -3060.591   -4812.2536   -1268.0719    173.43972   -230.11238   -4217.9489 
10272000    275.40696   -4122.9465   -3650.9084   -4122.9465            0   -3527.7438    18.339031    23.919098    22.520468    9878.6723   -3720.4676   -3613.0697    -3249.694   -524.08834   -458.96581   -197.69588   -4159.1515 
10273000    273.22545   -4189.1878   -3720.8887   -4189.1878            0   -1977.4373    18.249576    23.928967    22.283661      9731.13   -2133.4359   -2735.0366   -1063.8393   -334.93028   -720.17176    -68.75522   -4001.5238 
10274000    304.69881   -4152.9818   -3630.7385   -4152.9818            0   -1208.6727    18.103676    23.617268    22.621199    9671.9059   -727.19711   -710.32612   -2188.4948   -282.73656   -358.26507    1123.6536   -3801.2276 
10275000    285.38511   -4159.6031   -3670.4628   -4159.6031            0   -1723.6435    18.367487    23.752541    22.205311    9687.6109   -1044.1831   -1822.4014   -2304.3462   -97.936768   -128.54718   -223.33541   -3913.9858 
10276000    289.52147   -4144.8428   -3648.6129   -4144.8428            0   -2981.9795    18.348434    23.758218     22.45961    9790.7306   -4249.2182   -3528.9372   -1167.7832   -261.58704    517.86761   -201.00474   -4074.4031 
10277000    293.98542   -4162.5361   -3658.6552   -4162.5361            0   -1875.1188    18.270727    23.718471    22.457884    9732.2076   -2641.7321   -1434.3014   -1549.3229   -126.73364   -179.21376    459.82459   -3924.7988 
10278000    274.52525   -4176.8417   -3706.3148   -4176.8417            0   -2112.2848    18.336047    23.960937    22.124574    9720.4066   -2065.3491   -2604.6659   -1666.8395     376.3434    374.44004    578.81336   -4005.7569 
10279000    273.66545   -4184.3419   -3715.2887   -4184.3419            0   -2589.1752    18.258895    23.794501    22.454123    9755.4471    -3682.403   -2823.5458   -1261.5768   -125.24905   -136.57737   -104.39843   -4083.6589 
10280000    266.75614   -4119.2025   -3661.9916   -4119.2025            0   -1688.0567    18.261398     23.90245    22.345788    9753.7613   -134.40984   -3252.2875   -1677.4729    184.60322   -711.13718    648.05029   -3902.1153 
10281000    280.91662   -4127.0314   -3645.5499   -4127.0314            0   -3482.9304    18.377086    23.799283    22.414567    9803.2681   -4873.5406   -3609.1419   -1966.1088   -1234.5663   -625.09715   -198.20051   -4143.5066 
10282000    264.33148   -4110.6093   -3657.5542   -4110.6093            0   -3188.4007    18.345091    23.740771    22.582176    9835.1381   -3942.8512   -2332.8093   -3289.5414     307.1799    -660.3127   -540.64119   -4114.8837 
10283000    281.46101   -4156.7968   -3674.3823   -4156.7968            0   -2155.3468    18.464936    23.806214    22.132022    9728.7993    -2364.863   -3966.9029   -134.27446    -952.8281   -429.81153     327.5337   -3980.1927 
10284000    276.69321   -4190.6533   -3716.4106   -4190.6533            0    -1873.751    18.249058    23.626554    22.491205    9697.3607   -656.37984   -1245.5279   -3719.3452   -268.87941   -278.37913    152.71175   -3981.4078 
10285000    266.30952   -4188.6105   -3732.1651   -4188.6105            0   -2076.2719    18.339572    23.841895    22.191347      9703.17   -2478.8784   -1634.5874   -2115.3498   -314.52549   -142.50489   -626.27559   -4025.9799 
10286000     280.4354   -4190.7071   -3710.0504   -4190.7071            0   -1407.8344    18.095681    23.693806    22.518666     9655.003   -996.83567   -2486.1819   -740.48579    105.64545   -366.27634    226.41653   -3908.2852 
10287000    279.12063   -4150.2079   -3671.8047   -4150.2079            0   -2816.4396    18.347446    23.909083    22.350732    9804.6093   -2327.7998   -2484.6564   -3636.8625     161.4386   -334.25943    108.26422   -4074.5279 
10288000    288.95779   -4178.6967   -3683.4329   -4178.6967            0   -2200.3118    18.442638    23.843115    22.127295     9730.034   -2426.5047   -1563.9921   -2610.4387    72.555643   -615.95816   -275.21563   -3995.6628 
10289000    273.78164   -4156.0312   -3686.7788   -4156.0312            0   -1133.7043    18.238039    23.583853    22.533366     9692.124     -848.986   -1348.1188   -1204.0082   -29.726194    106.47619   -502.16317   -3847.0276 
10290000    291.64718   -4195.4864   -3695.6131   -4195.4864            0   -2243.6025    18.279862    23.887743    22.192508    9690.6833   -1463.0298   -3407.1777      -1860.6    906.57204   -452.00349    299.03222   -4012.6985 
10291000    276.86985   -4163.6252   -3689.0797   -4163.6252            0   -2563.8619    18.347334    23.689389    22.567197    9808.5418   -2733.1936   -2600.5885   -2357.8037    716.46206    267.26081     855.8956   -4055.8338 
10292000    275.44743   -4163.8337   -3691.7263   -4163.8337            0   -3488.1061    18.454169    23.765385    22.399287    9823.6649   -2903.6021   -3891.6183    -3669.098   -1083.3224    420.23063    598.80773   -4191.4605 
10293000    282.71009   -4149.5505   -3664.9951   -4149.5505            0   -2399.4494      18.3369    23.646078    22.586053     9793.217   -1534.4101   -878.95487   -4784.9833    55.372881    -229.9836    51.693269   -4007.6941 
10294000     280.6426   -4164.2135   -3683.2016   -4164.2135            0    -1990.637    18.188221    23.901562    22.409986    9742.2235   -2210.7006   -1623.6978   -2137.5126   -12.233945    37.169937   -290.65144    -3966.032 
10295000    267.48955   -4201.5468   -3743.0789   -4201.5468            0   -2764.1657     18.35593    23.871283    22.277514    9761.5523   -3230.1052   -3881.0992   -1181.2929   -264.60604   -375.04921    249.44018   -4136.5917 
10296000    284.56783   -4154.7935    -3667.054   -4154.7935            0    -2750.026     18.35137    23.514409    22.608422     9756.023   -2548.6724   -2506.7738   -3194.6318    -222.6233   -107.76701   -11.077854   -4058.3321 
10297000    278.93462   -4168.4328   -3690.3484   -4168.4328            0     -3988.83    18.498621    24.002635     22.33409    9916.6855   -4209.2985   -5568.2807   -2188.9107    824.96067   -598.97119   -295.35587   -4267.2316 
10298000    277.88455   -4146.9399   -3670.6553   -4146.9399            0   -3550.8503    18.398386    23.766376    22.570102    9869.0696   -2846.2441   -3194.9441   -4611.3626   -323.23128    800.90162   -130.30179   -4181.7301 
10299000    273.94741   -4125.1847   -3655.6482   -4125.1847            0   -2983.9387    18.396605    23.792356    22.433977    9819.3198   -2754.3681   -3452.5222   -2744.9258   -432.39746   -301.75427    109.26634   -4082.9622 
10300000    267.79433    -4166.201   -3707.2106    -4166.201            0   -1623.2742    18.188903    23.711109    22.502785    9704.9802    -2097.252   -981.07021   -1791.5003    191.19208   -333.98038    1288.2319   -3936.9643 
10301000    284.63197   -4145.8993   -3658.0498   -4145.8993            0   -2327.3992    18.208465    23.935625    22.388318    9757.5234   -3068.2306   -1531.1993   -2382.7678     -374.494   -466.02071   -184.80298   -3989.2468 
10302000    265.80581   -4151.5537   -3695.9717   -4151.5537            0    -2193.849    18.373386    23.737947     22.40053     9769.912   -1632.5381   -2710.7865   -2238.2223    305.62291    546.57416   -56.704816   -4008.5604 
10303000    271.78136    -4173.691   -3707.8671    -4173.691            0   -2002.2071    18.506141    23.443088    22.416687    9725.2801   -2091.1419   -1961.1364   -1954.3429    528.29619   -2.2089673    165.54488   -3991.8466 
10304000    287.60803   -4155.6541   -3662.7037   -4155.6541            0   -2588.6225    18.373271    23.913459    22.265929    9782.9472   -1947.1177   -2609.5273   -3209.2225   -760.75734    93.707233    210.17324   -4032.0335 
10305000     273.3124     -4150.14   -3681.6919     -4150.14            0   -3072.9419    18.194447    24.039394    22.482847    9833.6261   -2037.4616   -3660.3056   -3521.0586   -508.73143   -172.77971    188.94989   -4122.3928 
10306000    293.02094   -4137.8176   -3635.5897   -4137.8176            0   -3436.7488    18.376174    23.817412     22.50657     9850.516   -3105.0093   -3264.6376   -3940.5995   -867.33141   -378.72423   -226.78938   -4129.3119 
10307000    297.22749   -4198.4196   -3688.9819   -4198.4196            0   -3076.3502    18.466943    23.667516    22.422887    9800.2962   -4727.2476   -3084.4694   -1417.3335   -91.369103     -304.739   -158.02416   -4128.6762 
10308000    272.26152   -4144.2308   -3677.5839   -4144.2308            0   -3809.4526    18.432082    23.949356    22.423645    9898.6155   -1837.3797   -4141.8151   -5449.1631    367.92998   -631.30198    741.04973   -4227.5209 
10309000    288.59041   -4168.5104   -3673.8763   -4168.5104            0   -3255.5838    18.140286    23.965147    22.400176    9738.1319   -2123.2858   -4350.9251   -3292.5404   -48.691927   -661.12678    44.364905   -4136.2365 
10310000    267.51781   -4166.7909   -3708.2746   -4166.7909            0   -3331.8185    18.339298    23.740557    22.566491    9825.1152   -3864.5962    -3373.648   -2757.2114    14.048439   -130.64065    432.90611   -4185.6883 
10311000    260.33806   -4127.2119   -3681.0014   -4127.2119            0   -2046.9646    18.513641     23.74713    22.159161    9742.1829    -2296.779    -2909.532   -934.58278   -680.84723    573.59558   -211.41803   -3971.8336 
10312000    277.82731   -4124.3824   -3648.1959   -4124.3824            0   -3792.2344     18.35746    23.797654    22.608311    9876.7686    -4547.077   -2730.4529   -4099.1734   -503.06839   -14.085968   -1221.9335    -4194.439 
10313000    285.19621    -4126.379   -3637.5624    -4126.379            0   -2817.8093    18.409235     23.96728    22.310394    9843.7762   -3453.0509   -2256.9157   -2743.4614    -836.7866    186.68535   -415.51482    -4042.091 
10314000    278.99998   -4164.8668   -3686.6704   -4164.8668            0   -1622.6061    18.229814    23.705879    22.499018    9723.0355   -1602.6868   -2026.6926    -1238.439   -2099.5934    682.22132   -183.18669   -3916.7567 
10315000    270.74668   -4190.7272   -3726.6766   -4190.7272            0   -1562.4057     18.41335    23.715008    22.179832     9685.328   -3561.0348   -1289.0801    162.89772   -1137.9882   -120.33628     554.7749   -3947.3673 
10316000    277.32087   -4123.1075    -3647.789   -4123.1075            0   -2659.1989    18.328403      23.8799    22.440151    9821.6148   -2665.2544   -2603.0913   -2709.2508   -88.194924   -258.25707    706.85655   -4028.6878 
10317000    276.48643   -4186.2569   -3712.3686   -4186.2569            0   -3060.3711    18.282636    23.887071     22.45782    9807.7487   -3923.6603   -2921.3738   -2336.0792    350.60026    379.40508    621.34772   -4150.1117 
10318000     271.1716   -4151.6257   -3686.8469   -4151.6257            0   -2290.1482     18.38358    23.834122    22.256881    9751.9971   -1298.1479   -3041.6251   -2530.6716    284.08065    532.96895   -367.94327   -4012.5583 
10319000    265.66993   -4182.4633   -3727.1141   -4182.4633            0   -2731.8633    18.237522    23.481954    22.761376    9747.6193   -989.44512     -2154.92   -5051.2249    -553.3035    127.22519    539.14041   -4115.4732 
10320000     288.3325   -4176.0895   -3681.8975   -4176.0895            0    -2537.464    18.504276    23.823407    22.155682    9766.9975   -3612.2035   -3474.8779   -525.31052   -544.60741   -163.62682    111.78513    -4043.338 
10321000    278.82268   -4176.5946   -3698.7021   -4176.5946            0   -2124.9329    18.283186    23.832264    22.357248    9741.7172   -911.00165   -2059.9673   -3403.8297   -719.63486    -430.3476     127.4707   -4000.5976 
10322000    280.91121   -4096.7601   -3615.2879   -4096.7601            0     -3022.96    18.316604    23.707346     22.73827    9873.8227   -2919.1893   -2216.4158   -3933.2749    851.37732    -502.1153    688.58783   -4050.5928 
10323000    264.18533   -4181.3007   -3728.4961   -4181.3007            0   -2085.5113    18.366486    23.994874    22.191131    9779.6655   -1980.2977   -1894.5171    -2381.719    174.05982    487.60292     198.5442    -4025.945 
10324000    284.11226   -4182.4565   -3695.4979   -4182.4565            0   -3027.6278    18.212835    23.859273    22.565847     9805.876   -1442.2889   -3527.2676   -4113.3268   -1027.0611    238.10849    209.84449   -4128.4748 
10325000    270.98335   -4150.7552    -3686.299   -4150.7552            0   -2198.0843     18.34123    23.788754    22.349079    9751.2382     -1653.34    -2928.859   -2012.0538   -677.14507   -756.37856    522.71418   -3998.8925 
10326000     262.4309   -4121.4923   -3671.6947   -4121.4923            0   -2865.7296    18.289342     23.96101    22.497427     9859.072   -2651.0116   -2777.9807   -3168.1965   -669.66076   -820.12158   -123.72031   -4083.7421 
10327000    265.50614   -4158.9792   -3703.9108   -4158.9792            0   -2654.2382     18.28562     23.82913     22.46524    9788.7884   -2211.6671   -2619.4727   -3131.5747    436.25308    -129.2565    608.89747   -4082.8283 
10328000    307.76418   -4152.1825   -3624.6853   -4152.1825            0   -3509.1712    18.612299    23.945906    22.125863    9861.2396   -3345.6604   -3564.0887   -3617.7645    -267.2084   -271.33203    543.95099   -4129.3605 
10329000    271.21768   -4157.1303   -3692.2725   -4157.1303            0   -2215.8935    18.212869    23.660845    22.543019    9714.5051   -1957.7904    -3813.681   -876.20916    150.20149    560.49519    723.15227   -4006.2116 
10330000    287.93351   -4120.4129   -3626.9048   -4120.4129            0   -2546.8208    18.460724    24.040558     22.11894     9816.521   -1992.2364    -3425.027   -2223.1989   -226.70946   -220.55844    378.15306   -3991.5175 
10331000    278.40739   -4163.2628    -3686.082   -4163.2628            0   -2398.7233    18.258548    23.725841    22.391239    9699.8715   -2225.9994   -1847.4529   -3122.7175   -104.10137   -48.475532   -412.37922   -4025.4118 
10332000    285.61917   -4210.6544   -3721.1129   -4210.6544            0   -1460.3289    18.248722    23.584119    22.408143    9644.0176   -2656.0919   -2002.7577    277.86288    737.73587    48.580954    911.72184   -3926.5054 
10333000     265.0832   -4159.8529   -3705.5094   -4159.8529            0   -1761.7508    18.505378    23.675522    22.216399    9733.5484   -3607.3816   -899.85061   -778.02024   -774.56181   -287.90684    236.37763   -3955.5966 
10334000    295.14855   -4142.5204   -3636.6459   -4142.5204            0    -2341.192    18.214307    23.868173    22.446319    9758.3628   -2761.8184   -1155.5924   -3106.1652   -106.77204    257.56683    63.198168   -3969.8343 
10335000    287.77297   -4184.9828   -3691.7498   -4184.9828            0   -675.76295    18.145939    23.831868    22.303258    9645.0803    106.87191   -368.07164   -1766.0891   -127.24273    865.73732    92.785335    -3786.805 
10336000    274.82453   -4154.0004   -3682.9605   -4154.0004            0   -2429.6856    18.368981    23.708681    22.460609    9781.6924   -3972.8751   -2056.6314   -1259.5504   -592.92606   -27.834047    175.97151   -4029.5697 
10337000    265.58992   -4161.2112   -3705.9992   -4161.2112            0   -421.18716    18.294893    23.445641    22.403741    9609.7595   -199.59658    144.39613    -1208.361     1379.273   -484.22695    -113.5558   -3765.0279 
10338000    285.78323   -4142.1029   -3652.2802   -4142.1029            0   -1405.3302    18.322411    23.906197    22.230809    9737.5208   -2315.1518   -2186.6792    285.84041   -678.10042   -769.11684    479.56788   -3851.8536 
10339000    259.30462   -4163.3426   -3718.9034   -4163.3426            0    -1274.092    18.009998    23.861555    22.538582    9685.8784    870.72062   -3125.9955   -1567.0012    655.12137   -206.67856   -290.42019   -3898.8798 
10340000    278.25715   -4151.0872   -3674.1639   -4151.0872            0   -1839.8698    18.430356    23.749617    22.296237    9759.3729   -3527.1559   -934.29535   -1058.1582    525.02639   -275.46015     879.2822   -3936.0334 
10341000    268.52626   -4176.3253   -3716.0805   -4176.3253            0   -1753.2702    18.336379    23.521916    22.385992    9655.2298   -2471.6292   -1195.5823    -1592.599     17.69786   -699.38445    991.69209   -3962.9613 
10342000    285.89695   -4156.1938   -3666.1762   -4156.1938            0   -2068.3588    18.248373    23.880395    22.319468    9726.3408   -2794.0455   -1721.8515   -1689.1795   -384.51863   -176.70541   -397.20103   -3959.5702 
10343000    271.75163   -4186.1761   -3720.4032   -4186.1761            0   -1439.8581    18.159458     23.90244    22.310498     9683.991   -800.38713   -811.01728   -2708.1698     272.5358    165.00762   -194.12103   -3923.7559 
10344000    275.21379   -4175.1813   -3703.4742   -4175.1813            0   -2725.7593     18.28588    23.730438    22.487463    9758.0287   -3292.7579   -1874.2104   -3010.3096     511.9554     537.2202    58.720225   -4091.3793 
10345000    279.55179   -4186.1806   -3707.0384   -4186.1806            0   -3390.2331    18.598374     23.64334    22.257302     9787.152   -5045.3554    -2931.453    -2193.891   -223.06998    187.21596     366.9741   -4190.9452 
10346000    279.77937   -4146.3944   -3666.8621   -4146.3944            0   -2584.1182     18.36405    23.564293    22.515008    9743.0515   -2328.5157   -2060.0616   -3363.7772    -686.7347    238.17749    128.02802   -4034.0457 
10347000    289.22235   -4180.0607   -3684.3435   -4180.0607            0   -1435.7487    18.135266    23.902168    22.268276    9652.6781   -1242.6245   -2489.6793   -574.94237    523.67138   -158.25321    283.34337   -3886.4601 
10348000     271.2639   -4188.4809   -3723.5438   -4188.4809            0    -2116.295    18.207488    23.852543    22.266214    9670.1035   -2430.1661   -2545.9043   -1372.8144   -192.43234   -313.62878    -375.4929   -4022.0018 
10349000    291.46645   -4180.2674   -3680.7039   -4180.2674            0   -1432.0842    18.244605    23.567925    22.453653    9654.7903   -1086.7246   -1403.3068   -1806.2211    786.54884    6.9610119    627.56574   -3882.3488 
10350000    275.50513    -4177.535   -3705.3287    -4177.535            0    -2073.004    18.341828     23.67554    22.388776    9722.3855   -2803.8729   -1306.0367   -2109.1023   -135.07561   -5.5792443    38.214777    -3999.262 
10351000    271.78731   -4187.6433   -3721.8092   -4187.6433            0   -1296.8637    18.234464    24.058521    22.046108    9671.5005   -1105.3383    -1755.897   -1029.3557    231.80727    -81.10422    175.69018   -3904.7304 
10352000    276.67051   -4138.4916   -3664.2878   -4138.4916            0   -2783.5311    18.149133    23.922854    22.571599    9800.1154   -1606.9997   -2796.6143   -3946.9792    147.86248   -1084.7041    439.76727    -4062.123 
10353000    285.31017   -4151.2191   -3662.2072   -4151.2191            0   -3192.2417    18.429687    23.970832    22.291179    9847.6835   -4504.0474    -1996.982   -3075.6956    234.56429    640.97042   -29.290534   -4120.6717 
10354000    272.72304    -4151.902    -3684.464    -4151.902            0   -2633.2692     18.46951    23.685752    22.383781    9792.1036   -3331.2496   -2308.2847   -2260.2734   -57.110277   -146.83078    140.52417   -4060.5154 
10355000    275.91935   -4122.9946   -3650.0783   -4122.9946            0   -3345.9288    18.346021    23.862509    22.532401    9864.2819   -2469.7689   -3257.8264    -4310.191     676.8298    345.78677     637.1321    -4131.425 
10356000     269.7792   -4177.4343    -3715.042   -4177.4343            0   -3444.0433     18.19629    24.079878    22.270985    9758.3536   -3149.0413    -5149.396   -2033.6925    -87.04471   -29.314541   -34.750479    -4205.183 
10357000    271.02811   -4173.2047   -3708.6718   -4173.2047            0   -2339.7711    18.303783    23.700747    22.507714    9764.1464   -1270.3151   -1165.9324   -4583.0657   -5.3244592    537.80201   -280.93226   -4041.8554 
10358000    278.31782   -4155.7721   -3678.7449   -4155.7721            0   -2288.5484    18.495403    23.631647    22.345498    9766.6996   -2522.3539   -2027.0371   -2316.2542    768.53521    356.15647    86.547726   -4004.7195 
10359000    283.42535   -4185.8235   -3700.0422   -4185.8235            0   -1893.6734    18.286517    23.680849    22.420977    9709.1857   -2016.7822   -1223.6997   -2440.5384   -506.96725    884.62155   -661.67954   -3968.1835 
10360000       287.06   -4182.1682   -3690.1572   -4182.1682            0   -2068.1327    18.101953    24.217574    22.286948    9770.2719   -2170.8454    -2902.436   -1131.1167   -1420.1003    954.27326   -472.37046   -3984.8442 
10361000    279.94885   -4157.1355   -3677.3128   -4157.1355            0   -3337.6442    18.241585    23.860063    22.426766    9761.1462    -4881.761    -3389.905   -1741.2666   -653.64332    -158.3463    1206.0553   -4152.4475 
10362000    280.05064   -4171.2848   -3691.2876   -4171.2848            0   -2556.8265    18.631379    23.667139    22.173316    9777.3556   -2537.8562   -2763.5044   -2369.1189    -518.5156    510.83468    118.76408   -4055.8724 
10363000    264.54968   -4142.6295   -3689.2004   -4142.6295            0   -3298.8727    18.409866    23.764851    22.485769    9837.6977   -3697.9781    -3768.288   -2430.3519   -563.01227   -111.76493    503.96867   -4162.4986 
10364000    277.20161   -4108.4388   -3633.3247   -4108.4388            0   -3491.7138    18.176024    23.935851     22.78049    9910.8482   -2121.9155    -3995.734    -4357.492   -46.128689    682.02947   -354.37241   -4138.0155 
10365000    293.12568   -4163.3463   -3660.9389   -4163.3463            0   -1999.7086    18.222858    24.025447    22.278702    9753.8903   -2161.8052   -2472.1207   -1365.1999   -736.31569   -504.67577   -345.54697   -3945.3984 
10366000    290.66826   -4207.5774    -3709.382   -4207.5774            0   -3102.2607    18.468308    23.675767    22.361818    9777.7351   -4907.8764   -1371.0962   -3027.8094     -275.865     146.5675   -407.59419   -4151.7589 
10367000    255.27444   -4147.2041   -3709.6725   -4147.2041            0   -2734.0169    18.416959    23.568344    22.613847    9815.7042   -3198.9016   -2877.3207   -2125.8285   -678.88707   -502.01624    479.32892   -4101.0524 
10368000    275.31012   -4180.8501   -3708.9779   -4180.8501            0   -2975.6302    18.244957    24.040744    22.253809    9761.0173   -2276.9687   -2710.5503   -3939.3716   -141.30984    245.38294   -231.73683   -4132.5721 
10369000    265.26793   -4132.1108   -3677.4506   -4132.1108            0   -1985.5361    18.161275    24.004826     22.37812    9755.9257   -2130.1871   -2329.6982   -1496.7229   -1178.0157    899.01024    124.60437    -3959.953 
10370000    278.29461   -4173.9757   -3696.9882   -4173.9757            0    -3116.896    18.445258    23.770042    22.531426    9878.7811   -2556.6677   -3295.5288   -3498.4916    466.61912   -187.41015   -652.56182   -4146.0453 
10371000    274.62361    -4168.315   -3697.6195    -4168.315            0   -3342.4382    18.637697    23.641417     22.37199    9857.5812   -4093.9972   -2395.3379   -3537.9794   -672.92539    232.55007   -887.33576   -4178.1375 
10372000     285.0143   -4138.6005   -3650.0957   -4138.6005            0   -2958.4403    18.267207    23.827712    22.601352    9837.5942    -3190.416   -2024.5269    -3660.378    164.00557    497.92907    -320.1705   -4074.5468 
10373000    271.25323   -4192.7834   -3727.8647   -4192.7834            0   -2768.8706    17.987857     24.24342    22.274931    9713.8117   -2490.9003   -2464.7827   -3350.9287    428.57179   -101.76789    599.22421   -4120.1194 
10374000    291.41361   -4165.9841   -3666.5112   -4165.9841            0   -1765.6408    18.315681    23.669957    22.316178    9674.7635   -75.185532   -3415.4396   -1806.2974    357.83025    632.16575   -132.49156   -3915.6369 
10375000    298.13307   -4158.6177   -3647.6278   -4158.6177            0   -1022.7174    18.317281    23.588711    22.394038    9676.0395   -1128.4969   -869.01297   -1070.6423   -633.35809    220.60796    454.53119   -3791.9487 
10376000    284.68058     -4174.71   -3686.7773     -4174.71            0   -1230.5595    18.335089    23.719119    22.279646    9689.2432   -2468.7541   -333.09903   -889.82544    -445.8048   -8.5380373   -845.74107   -3860.6648 
10377000    275.17698   -4150.1348   -3678.4909   -4150.1348            0   -56.219593    18.097698    23.702429     22.41949    9617.0515   -441.87348   -82.298499     355.5132   -822.66673    113.75652   -909.21107    -3686.376 
10378000     283.9351   -4172.2698   -3685.6148   -4172.2698            0   -1692.8654    18.157773    24.045589    22.278779    9727.2345   -2452.7834   -1900.2846   -725.52834   -752.30572   -184.13112   -921.03255   -3925.7676 
10379000    292.22174   -4156.8656   -3656.0076   -4156.8656            0   -2674.4536    18.347949    23.682686    22.379325    9724.4596   -3025.5714    -1960.025   -3037.7645    381.17427    208.23589   -361.71289    -4035.302 
10380000    278.04413   -4192.6814   -3716.1233   -4192.6814            0   -1529.6368    18.444774    23.545183    22.306286    9687.2983   -1712.1357   -656.61992   -2220.1549   -63.699788    669.70271    -550.8882   -3932.2293 
10381000    277.41407   -4201.7862    -3726.308   -4201.7862            0   -2123.6821    18.232291    23.727703    22.506211    9736.4208   -1034.5342   -3277.9765   -2058.5356    293.88107    133.13822   -114.33294   -4027.8618 
10382000     275.5483   -4113.9143    -3641.634   -4113.9143            0   -2175.2403    18.150006    24.021136    22.400482    9766.2467   -2175.8116   -1190.6367   -3159.2726    137.45442    288.50322    467.81643    -3951.455 
10383000    277.05047    -4172.385     -3697.53    -4172.385            0   -2462.0528     18.21219    23.909031    22.293762    9707.5025   -2054.6625   -2622.9449   -2708.5509   -291.47419   -283.40628   -365.41569   -4046.0925 
10384000    271.39399   -4178.9184   -3713.7584   -4178.9184            0   -2670.8083    18.447919    23.628561    22.348817    9741.7998   -3768.1909   -1333.5257   -2910.7081   -223.53355    261.56432    251.69713   -4093.2112 
10385000    260.00317   -4177.7671   -3732.1305   -4177.7671            0   -2885.8695    18.364813    23.661765    22.472481    9765.2795   -2741.3206   -2549.5808   -3366.7073   -1253.7867    78.608819   -96.001628   -4143.1262 
10386000    272.52477   -4143.6813   -3676.5831   -4143.6813            0   -3572.7965    18.129977    24.115634    22.445789    9813.6557   -2502.3852    -4051.978   -4164.0262    364.55123   -338.95681    396.75253   -4187.9293 
10387000    272.92743   -4179.1763    -3711.388   -4179.1763            0   -2600.7011    18.326175    23.974052    22.293744    9794.8154   -3047.1684    -3822.265   -932.66985    436.60115    98.151142    -509.6649   -4082.8912 
10388000    275.98613   -4152.6915   -3679.6607   -4152.6915            0   -2443.8273     18.49115    23.324828    22.527393    9716.1298   -3945.0968   -923.64396   -2462.7412     716.5833     579.1298    875.34743   -4025.9505 
10389000    261.77352   -4192.9686   -3744.2977   -4192.9686            0   -2619.2809    18.417921    23.728385    22.256061    9726.5113   -3636.8548   -3114.3069   -1106.6808   -450.30466    -357.6856    132.11872   -4115.8458 
10390000     266.9646   -4134.0985   -3676.5303   -4134.0985            0   -2413.2668    18.037634    24.037488    22.648212    9819.7984   -2002.6972   -2303.1619   -2933.9412   -50.487976   -198.46082    209.05423   -4022.1383 
10391000    270.99329   -4190.1845   -3725.7113   -4190.1845            0   -3146.2626    18.336423    23.891082    22.337118    9785.3775   -2810.4206   -3705.0295   -2923.3377   -195.98165   -274.95494   -508.69618   -4174.7135 
10392000    262.69209   -4158.7265   -3708.4813   -4158.7265            0   -2900.7603    18.434116    23.728617     22.41824    9806.0987   -3536.7232   -1278.1076     -3887.45    910.07254   -404.47672   -271.44507   -4123.3245 
10393000    275.75694   -4182.1158   -3709.4779   -4182.1158            0    -3326.497    18.467157    23.565322    22.634156    9850.0339   -3389.1778   -3156.4096   -3433.9036    1014.1619   -478.92098     573.9938   -4187.3379 
10394000    272.54201   -4164.5554   -3697.4277   -4164.5554            0   -2290.0608    18.359816      23.8887    22.318895    9788.8921   -3363.6938   -1844.9141   -1661.5744   -227.58495    166.03506    649.78549    -4024.359 
10395000    289.99553   -4150.0318   -3652.9894   -4150.0318            0   -3801.9308    18.155179    24.145375    22.543313    9882.1682   -4321.2205   -3918.2607   -3166.3111   -814.71002   -82.744149    574.72818   -4200.9286 
10396000    270.81419   -4173.8815   -3709.7153   -4173.8815            0   -2942.8951    18.309011    23.742397    22.483237    9773.4589   -2766.0055   -2161.1133   -3901.5663    162.26149   -207.69381     790.5078   -4129.1834 
10397000    262.78742   -4173.4912   -3723.0826   -4173.4912            0    -2648.252    18.535187    23.575601    22.273742    9733.1388   -2996.2621   -2712.5257   -2235.9682    50.936337   -278.88344    142.09109   -4098.9963 
10398000    271.33484    -4186.083   -3721.0244    -4186.083            0   -2261.9901    18.181316    23.801189    22.550243    9758.3229   -1209.6782   -3013.9233   -2562.3687    219.10672    126.00314   -616.20177   -4042.9398 
10399000     269.5994   -4103.6526   -3641.5685   -4103.6526            0   -2816.6519    18.299257    24.041856    22.305276    9813.1643   -896.32974   -3685.6549   -3867.9711    318.31917    319.20329    8.4313725   -4044.6735 
10400000    284.10617   -4188.3872   -3701.4389   -4188.3872            0   -2917.0791     18.38046    23.651208    22.614637    9831.0371   -1578.2283   -2388.1815   -4784.8274   -76.467661   -576.63342    584.77385   -4119.6768 
10401000     278.8106    -4127.327   -3649.4552    -4127.327            0   -3353.4508    18.479293    23.737133    22.458783    9851.4427   -4260.6119    -3054.061   -2745.6794   -587.19369     887.2092   -9.5714998   -4131.2561 
10402000    261.46912   -4163.5125   -3715.3634   -4163.5125            0   -3499.6113    18.500182    23.919676    22.236731    9840.1619   -3477.0537   -4741.7577   -2280.0226   -167.13259    698.97033    811.94587   -4217.5879 
10403000    276.98985   -4150.7611   -3676.0099   -4150.7611            0   -2711.9896    18.129948    23.781167    22.640316    9761.4021   -1749.2589   -3467.1469   -2919.5631    538.86096   -40.156468   -596.20329   -4062.0889 
10404000    268.01078   -4170.5224   -3711.1611   -4170.5224            0   -3096.0905    18.498789    23.905656     22.21926    9825.9274   -3899.3452   -4060.3855   -1328.5407    703.37666    250.44162   -687.28016   -4154.8342 
10405000    270.22074   -4161.8644   -3698.7153   -4161.8644            0   -2895.3452    18.344761    23.672443    22.519631    9779.4949   -3857.7327   -2161.8366   -2666.4662    605.66955    145.73619   -325.20984   -4111.6607 
10406000    261.80249   -4192.8157   -3744.0952   -4192.8157            0   -2948.3649    18.261955    23.859222    22.482512    9795.9909   -2814.9627   -3529.5026   -2500.6294    -400.6668    394.17098    764.63408   -4165.3118 
10407000    269.60954   -4158.7627   -3696.6611   -4158.7627            0   -3071.5026     18.35343    24.051013    22.307177    9846.8025   -3879.0424    -4023.014   -1312.4513   -192.85671    286.70208     469.7517   -4137.7458 
10408000    282.06603   -4181.4149   -3697.9634   -4181.4149            0   -1936.4085    18.376993     23.52725    22.556537    9752.5463   -1620.8501   -801.06667   -3387.3088    -330.3243    -115.5802   -199.62031   -3973.3805 
10409000    269.02523   -4152.6709   -3691.5708   -4152.6709            0   -2846.2766    18.454858    23.655358    22.433955    9793.6843    -2928.515   -2304.4842   -3305.8307   -1141.9008   -121.71111   -19.801029   -4098.1069 
10410000    300.41894   -4173.8598    -3658.952   -4173.8598            0   -2567.9418    18.373471    23.977679    22.159992    9762.6551   -1062.2371   -3740.7455    -2900.843   -367.78367   -226.16596   -238.71285   -4024.5713 
10411000    262.70769   -4181.2462   -3730.9742   -4181.2462            0   -2321.3823    18.173242    23.858986    22.568856    9785.7462    -1369.465   -1596.9822   -3997.6997    108.31876    -794.8541    198.18791   -4062.2705 
10412000    272.97823    -4167.743   -3699.8676    -4167.743            0    -2445.867     18.36726    23.940276    22.214937    9768.2913   -2855.9037   -4144.2656   -337.43182    27.760954    1210.9405   -357.25868   -4048.3071 
10413000    277.49515   -4165.1291   -3689.5119   -4165.1291            0   -3078.9073    18.492829    23.747652    22.355747    9817.7785   -3104.4781   -2621.7786   -3510.4653   -645.26626   -1036.7396    66.472549   -4130.3568 
10414000    274.77437   -4171.4674   -3700.5136   -4171.4674            0   -3324.9009    18.316144    23.712746    22.600914    9816.1662   -3257.7709   -2906.8772   -3810.0545    605.14011   -106.60396    127.89196   -4176.5021 
10415000    277.24213   -4180.6688   -3705.4853   -4180.6688            0   -2435.6818    18.319984    23.879865    22.281113    9747.5131   -1990.5274   -3054.6038    -2261.914   -358.29443    357.31509   -43.054043   -4051.7357 
10416000    281.81008   -4150.7519    -3667.739   -4150.7519            0   -2094.7712    18.136531    23.671878    22.726042    9756.8749   -1241.7116   -2008.6155   -3033.9864    564.45913   -454.31983   -299.15061   -3965.8124 
10417000    274.64986   -4193.1432   -3722.4027   -4193.1432            0    -1129.007    18.359185    23.792136    22.224847    9707.9075   -1453.6606   -755.70566   -1177.6547   -433.05562    253.45329    -494.6854   -3882.2474 
10418000    289.31027   -4150.6868   -3654.8189   -4150.6868            0   -851.42101    18.266686    23.590755    22.340393    9627.0324   -1874.4078   -2012.5255    1332.6703    8.7133906    31.143285   -245.45335   -3774.3587 
10419000    287.67146   -4151.2744   -3658.2154   -4151.2744            0   -2163.1152     18.32159    23.749153     22.43501    9761.9717    -3548.925   -2471.6414   -468.77909   -340.83996    348.65281     1341.448   -3966.1745 
10420000    279.13612   -4154.6313   -3676.2015   -4154.6313            0   -4453.9598    18.409062    24.106336    22.218505    9860.0183   -4596.5733   -5174.2694   -3591.0368    817.09113    432.65749   -353.41817   -4316.6732 
10421000    265.40178   -4132.9524   -3678.0628   -4132.9524            0   -3807.3908    18.313196    23.904612    22.572216    9881.4355   -4475.8414   -4360.3632   -2585.9678   -590.33388      120.247   -422.59324   -4226.7482 
10422000    278.04568   -4177.4283   -3700.8675   -4177.4283            0   -2595.4328    18.348057    23.763784    22.399296    9766.5242    -3116.364   -1600.9463   -3068.9879   -796.19913   -185.70546   -1385.4786   -4070.5473 
10423000    282.77175   -4189.9733   -3705.3122   -4189.9733            0   -1990.0332     18.47426    23.433609    22.400378    9697.5397   -3556.9167   -1526.0522   -887.13078   -887.47279   -505.40911   -292.53858     -3986.76 
10424000    276.97811   -4182.1793   -3707.4483   -4182.1793            0   -2975.7611    18.254225    23.865438    22.377728    9748.7466   -1995.5204   -3596.0311   -3335.7319    206.75126    144.41767   -119.21234   -4130.5286 
10425000    290.98007   -4170.3777   -3671.6478   -4170.3777            0   -2302.4219    18.067684      24.1618    22.423976    9789.1368   -905.41952   -3538.2888   -2463.5575   -588.15595   -378.33133    661.83303   -4000.3519 
10426000    273.53376   -4184.1232   -3715.2957   -4184.1232            0   -1697.5425    18.223913    23.648698    22.464436     9681.539    -2385.788   -1761.8509   -944.98871    666.22274   -45.363388    361.16983   -3954.9807 
10427000    283.40676   -4144.6037   -3658.8542   -4144.6037            0   -2336.4712    18.547082    23.593232    22.327526    9770.2043   -1904.7937   -2628.6526   -2475.9673     1026.541   -837.68668   -355.86661   -3991.7743 
10428000    275.05797   -4136.0748   -3664.6349   -4136.0748            0   -2942.6001    18.462431    23.834258    22.321217    9822.1914   -3774.9118   -2192.2981   -2860.5905   -361.14138   -1176.5413   -436.89637   -4086.1523 
10429000    280.90779   -4173.0442   -3691.5779   -4173.0442            0   -3322.8141    18.221771    23.991885    22.562198    9863.6205   -2187.7582    -3208.304   -4572.3799    822.03436   -624.49835    531.76862   -4169.5673 
10430000    274.80105   -4166.8752   -3695.8756   -4166.8752            0     -3376.44    18.377148    23.988467    22.369784    9861.4864     -3598.65   -3245.0739   -3285.5961    14.300626   -948.30457    438.06476   -4181.4741 
10431000    274.83488   -4135.7133   -3664.6557   -4135.7133            0   -3901.9607    18.409564    23.669028     22.79333     9931.886   -3885.0483   -3237.2233   -4583.6104   -484.27128    156.71628    397.10349   -4229.8405 
10432000    295.81867    -4151.105    -3644.082    -4151.105            0   -3184.4645    18.431951    24.001419    22.320149    9874.2775   -3499.7224   -3531.2477   -2522.4234   -201.69545     131.1287   -335.98099   -4102.6646 
10433000    264.61726   -4154.1862   -3700.6412   -4154.1862            0    -2127.207    18.106328    24.085269    22.544084    9831.3799   -928.88305   -2272.1944   -3180.5434   -2177.4021   -96.524165   -251.80375   -4005.6414 
10434000    280.14827   -4202.3771   -3722.2126   -4202.3771            0   -1550.4834    18.252961    23.677326    22.408641     9684.596   -821.90529   -2456.9151   -1372.6299   -449.85326   -87.249713   -897.62051   -3941.2027 
10435000     280.1067   -4141.6822   -3661.5889   -4141.6822            0   -1776.1055    18.457549    23.731156    22.205014    9726.2177   -2479.9527   -2161.0825   -687.28134   -963.15256    1140.8207   -510.83092    -3913.524 
10436000    289.57344   -4159.9136   -3663.5946   -4159.9136            0    -3231.713    18.456102    23.602983    22.486746     9795.655   -2612.3985   -2736.7252   -4346.0153   -9.8384599   -237.76573    309.25803   -4125.2758 
10437000    276.31648   -4173.3055   -3699.7086   -4173.3055            0   -2826.1592    18.351096     23.85498    22.336474    9778.1275   -4180.1764   -2585.2968   -1713.0043   -26.072893   -140.71328    150.99825     -4102.73 
10438000    291.74588   -4153.1926   -3653.1502   -4153.1926            0   -2656.6883    18.186656    24.070909     22.32946    9775.1531   -1020.6473   -3081.2451   -3868.1726    15.710927    260.54221   -56.162475   -4031.8892 
10439000    278.51619   -4196.1626   -3718.7954   -4196.1626            0   -3638.4094    18.316733    23.697141    22.569983    9796.5958   -4368.2671   -2081.9899   -4464.9711     273.2447   -462.13225    301.38221    -4238.627 
10440000    291.05233   -4133.7124   -3634.8587   -4133.7124            0   -3517.6963    18.681389    23.762676    22.259621    9881.4863   -3164.5767   -3935.0844   -3453.4277     -88.5937    50.869607    536.81111   -4141.7986 
10441000    280.41009   -4159.2907   -3678.6774   -4159.2907            0   -3420.2936    18.164029    23.818837    22.672099    9808.9939   -3375.6637   -3987.5086   -2897.7084   -423.28129   -247.99703   -69.805925   -4167.9645 
10442000    277.28944   -4148.9731   -3673.7085   -4148.9731            0   -2003.2024    18.335542    24.081897    22.165846    9787.4324   -1661.5347   -2592.2406   -1755.8318    9.8049871   -401.97972   -616.11736   -3959.6449 
10443000    291.27908   -4174.2771   -3675.0347   -4174.2771            0   -2646.0648    18.395008     23.82008    22.347911    9792.1967   -1350.3702   -2433.3404   -4154.4838   -707.20006   -309.52312   -264.19444   -4052.9169 
10444000     281.7228   -4145.4105   -3662.5472   -4145.4105            0   -1917.3955    18.317661    23.547744    22.619798    9756.8145   -2127.8464   -979.63534   -2644.7047    274.97349    231.11713    217.22153   -3935.3794 
10445000    265.98312   -4147.2938   -3691.4078   -4147.2938            0   -1809.4563    18.394204    23.902638    22.146904    9737.3296   -3480.6418   -1390.4799   -557.24728    717.93573   -154.39386   -52.688114   -3948.3669 
10446000    277.67148   -4147.3174    -3671.398   -4147.3174            0   -2942.5915    18.063235    23.660107     22.86766    9773.1362   -1670.6707   -3006.6423   -4150.4614   -1021.0987    446.27226   -275.36668    -4090.809 
10447000    276.19267   -4155.2892   -3681.9044   -4155.2892            0   -2916.7076    18.379871    23.931217     22.25501    9788.9258   -2698.9038   -3837.9599   -2213.2592    640.35573    528.73511   -83.070565   -4098.2978 
10448000    288.71835   -4159.3479   -3664.4945   -4159.3479            0   -4383.4434    18.509081     23.83877    22.451554    9906.3827   -4561.4566   -5182.4262   -3406.4474   -470.64379   -135.25335     44.11194     -4297.79 
10449000    277.04792   -4128.1565   -3653.3058   -4128.1565            0   -2692.3193    18.378629    23.753044    22.509094    9826.3085    -3529.599   -975.83512   -3571.5237   -848.25168    209.53873   -373.23843    -4039.133 
10450000    283.85777     -4175.85   -3689.3275     -4175.85            0   -2506.5016    18.265515    24.081634    22.130688    9734.4809   -1430.4315   -4631.9968   -1457.0763    570.46392   -78.742168    121.53518    -4045.169 
10451000    283.84478   -4158.4312   -3671.9309   -4158.4312            0   -2456.6674    18.240054    23.759142    22.592277    9790.7706   -3363.0689   -2112.4837   -1894.4496   -103.65514     241.7257   -427.76166   -4022.7144 
10452000     275.5453   -4134.9447   -3662.6695   -4134.9447            0   -3253.2535    18.496317    23.817024    22.336502    9839.8369   -3852.4217   -2449.8248   -3457.5139   -397.28262    13.235468    45.454553   -4129.5241 
10453000    266.01511   -4170.4674   -3714.5266   -4170.4674            0   -3152.0463    18.289036    23.744299    22.486881    9765.1602   -2715.0536   -3395.0639   -3346.0213     49.37155    -789.5238    346.42033   -4163.4248 
10454000    274.21193   -4177.9152   -3707.9253   -4177.9152            0   -3567.8915    18.223138    24.000229    22.481252     9832.389   -3522.1786   -3544.0405   -3637.4553    -460.3558   -145.33171    947.89292   -4219.5442 
10455000    266.34046   -4183.2857   -3726.7872   -4183.2857            0   -2868.6614    18.247797    24.041669    22.268947    9769.5538   -2541.8934   -4151.6571   -1912.4338     193.1789   -75.309778    394.13644    -4135.511 
10456000    283.72441   -4201.2869    -3714.993   -4201.2869            0   -2916.5992    18.311672    23.646925    22.517003    9750.1941   -2681.5642   -2601.4917   -3466.7417    575.12695   -107.96156   -7.5167597   -4129.7234 
10457000    271.82192   -4151.5613   -3685.6679   -4151.5613            0   -4674.2343    18.586557    23.804283    22.410194    9915.1586   -4400.3544   -4479.9825   -5142.3661    31.569385   -207.59696    749.36847   -4361.5734 
10458000    274.51901   -4137.4027   -3666.8865   -4137.4027            0   -2530.8145    18.324919    23.836745    22.377585    9774.6729   -3493.3319    -2057.698   -2041.4136    445.59728    231.79352    753.84536   -4027.6632 
10459000    278.58789   -4167.7189   -3690.2288   -4167.7189            0    -2618.073    18.129281    23.991408    22.319132     9707.639    -2229.137   -1853.1458   -3771.9362    1416.0482    392.43898   -181.62378   -4060.8849 
10460000    281.39743   -4134.5457   -3652.2401   -4134.5457            0    -1880.281    18.337151    23.624661      22.3761    9693.5272   -2118.1942   -1245.8001   -2276.8487    524.14457    -780.3896    283.45235   -3918.0557 
10461000    268.38774   -4158.5596   -3698.5522   -4158.5596            0   -2729.2133    18.573261    23.512495    22.417507    9789.8086   -2952.1057   -2544.2292    -2691.305   -867.97163   0.50568288    250.95139   -4088.2137 
10462000    271.94792   -4143.8364    -3677.727   -4143.8364            0   -2107.8819    18.262168    24.008246    22.256391    9758.1504   -1220.0921   -1884.4889   -3219.0645    612.31978    617.24579   -665.89828   -3977.7051 
10463000     283.7201   -4149.3429   -3663.0564   -4149.3429            0   -2140.2187    18.062072    23.984144    22.511017    9751.8476   -1459.3002   -2743.5154   -2217.8404    482.41928   -528.21894     753.6629   -3967.4398 
10464000    275.32961   -4161.3897   -3689.4841   -4161.3897            0   -3356.0975    18.479434    23.803338     22.27656    9798.8398   -3854.4181   -3066.0367   -3147.8377    530.96351    633.98692    -214.0226   -4169.0907 
10465000    269.88895   -4220.8987   -3758.3183   -4220.8987            0   -2650.6533    18.394572    23.613568    22.335818    9701.8192   -1442.2196   -2835.2194   -3674.5209   -1540.3751    290.14097   -898.50995   -4133.3621 
10466000    273.43855   -4181.3105   -3712.6461   -4181.3105            0   -2931.8925    18.233845    23.644911    22.524187    9711.0253   -3144.2558   -2166.3413   -3485.0804   -406.85579    54.812499    -546.5928   -4127.8764 
10467000    266.41154   -4182.6293   -3726.0091   -4182.6293            0   -1809.9555    18.131996    24.077028    22.124053    9658.5778   -1171.2474   -3948.3236   -310.29546    365.44628   -121.67735    358.75591   -3980.9602 
10468000    281.28543   -4159.5522   -3677.4386   -4159.5522            0   -2439.7956     18.23401    23.663248    22.560532     9734.326   -3399.8705    34.761049   -3954.2773    -403.7276    209.72618   -622.66972   -4023.8046 
10469000    285.28113   -4154.2348   -3665.2727   -4154.2348            0   -2270.3245    18.654027    23.553612    22.216057    9761.0625   -3064.2282   -1162.4411   -2584.3043    214.05152    130.45391   -446.97387    -3988.465 
10470000    268.61688   -4179.0023   -3718.6022   -4179.0023            0   -2498.9887    18.340264    23.663027    22.419566    9729.7815    -1957.045   -2482.2008   -3057.7203    1293.5043   -454.37366   -870.38942   -4073.2059 
10471000    280.60922   -4170.4492   -3689.4946   -4170.4492            0   -2786.1313    18.237608     23.74879    22.558673    9770.6378   -1468.7384   -3349.3503   -3540.3053   -1005.6512   -523.78742     166.8183   -4086.5037 
10472000    283.32722   -4191.9243   -3706.3112   -4191.9243            0   -2840.9683    18.368814    24.050503    22.165302    9792.1698   -2666.1106   -3694.4578   -2162.3364   -760.16629   -49.016674    254.66401   -4112.0263 
10473000     268.0807   -4170.7347   -3711.2535   -4170.7347            0   -2099.8849    18.178567    23.657861     22.56374     9703.898   -1249.6841   -2411.2479   -2638.7228    74.484019    -270.7055   -310.70019   -4008.4322 
10474000    276.82518   -4149.3706   -3674.9017   -4149.3706            0   -4423.5784    18.558036    23.977881    22.275203     9912.073   -3595.1839   -5659.6761   -4015.8752    491.39121    101.52723   -6.0096042   -4314.3628 
10475000    282.31144   -4193.5498   -3709.6777   -4193.5498            0   -2584.9956    18.331583    23.814697    22.369992    9765.8682   -2837.1709   -2989.3711   -1928.4448   -552.52832    187.45038   -35.262414   -4077.8461 
10476000    291.99981   -4183.1397    -3682.662   -4183.1397            0   -2209.9363    18.048494    23.813945    22.491466    9666.9636   -1870.0375   -1999.4062   -2760.3652   -385.99823    358.37523    505.18724   -3994.2249 
10477000    291.47909   -4115.1671    -3615.582   -4115.1671            0   -3141.5617    18.366361    23.855157    22.309863    9774.6746   -3738.6384   -3107.6568   -2578.3898    385.06032   -155.39081     -307.421   -4063.4229 
10478000    286.66562   -4148.0606   -3656.7255   -4148.0606            0   -1895.9209    18.272003    23.509204    22.577991    9698.6071   -1977.2934   -1802.3506   -1908.1186   -431.06922    30.322968   -6.6973266   -3924.8926 
10479000    280.38135   -4160.9629   -3680.3988   -4160.9629            0   -1618.6005    18.477591    23.758917    22.098805    9701.5424    -1637.523     -1954.54   -1263.7384    198.78068      126.541    346.47629   -3909.4098 
10480000    277.66626   -4117.0947   -3641.1843   -4117.0947            0   -2886.8504    18.167027    23.726543    22.717922    9792.3503   -3082.6814   -3140.6672   -2437.2024   -1342.5525   -708.57502     270.8482   -4053.4594 
10481000    290.25735   -4167.8689   -3670.3777   -4167.8689            0   -2581.6801    18.275633    23.996463    22.280845    9771.2769    -2184.248    -3124.947   -2435.8453     1599.064   -29.212269    482.52463   -4038.2776 
10482000    273.85302   -4162.8586   -3693.4839   -4162.8586            0   -2393.9463    18.317898    23.845487    22.330488    9753.9392   -2430.9251    -2518.492    -2232.422    974.95234    728.58369    894.91766   -4034.0256 
10483000    273.50393   -4178.2892   -3709.5128   -4178.2892            0   -2796.4029    18.358117    23.623131       22.494    9755.1124   -2876.3599   -2218.7221   -3294.1268   -598.62542   -281.18191   -185.01624   -4107.3524 
10484000    276.50384   -4132.8217   -3658.9035   -4132.8217            0   -2962.6829    18.564162    23.729311    22.285935    9817.2833   -4091.3373   -3272.2816   -1524.4297    -844.8946   -454.77618    57.300934   -4083.0857 
10485000    262.78397   -4155.7416   -3705.3388   -4155.7416            0   -1881.3033    18.156953    23.860617    22.501612    9748.5106   -1931.3628   -1109.5301   -2603.0171    96.622069   -211.60435    294.86618   -3972.8075 
10486000    271.84485   -4162.5789   -3696.6462   -4162.5789            0   -3233.6145    18.288978      24.0759    22.346809    9839.8278   -2088.9108   -4652.7242   -2959.2086    10.579124   -122.33872   -180.08206   -4160.6821 
10487000    285.66254   -4187.3741   -3697.7583   -4187.3741            0   -2227.5491     18.33664    23.653678    22.364087    9699.9524   -2490.8561   -863.56384   -3328.2274   -512.32401   -449.93233   -164.18675   -4012.8759 
10488000    275.63929   -4139.5522   -3667.1159   -4139.5522            0   -3321.2403    18.484623    23.671735    22.410779    9806.1298   -3546.9348   -2388.4822    -4028.304   -471.60196    994.65904    307.71268   -4142.0943 
10489000    278.23155    -4149.685   -3672.8057    -4149.685            0   -3827.2698     18.58939    23.803334    22.299261    9867.1882   -5359.2824   -2812.1533   -3310.3737   -204.22142    -789.4973    465.83047   -4223.5606 
10490000    286.28975   -4172.8218    -3682.131   -4172.8218            0   -2240.0272    18.214333    23.898259    22.498848    9793.5427   -2214.3566   -1571.6933   -2934.0319   -513.74506   -832.61916    223.08861   -4002.0714 
10491000    266.48958   -4161.7718   -3705.0178   -4161.7718            0   -2682.8727    18.274288    24.226438    22.088079    9778.8539   -2143.7066   -3222.5343   -2682.3773    1173.2878   -585.78907   -374.44407   -4087.6345 
10492000    274.40435   -4148.4945   -3678.1749   -4148.4945            0   -2889.2153    18.450672    23.630829    22.438694    9783.3761   -3137.4915   -2832.4253   -2697.7292    390.22057   -258.17318    122.99994   -4090.4096 
10493000    291.60332    -4156.276   -3656.4779    -4156.276            0   -2358.2264    18.521343    23.631282    22.308093     9763.875     -3766.98   -1388.0109   -1919.6883   -886.08103   -588.08441    335.19384   -3992.2802 
10494000    284.67932   -4165.2578   -3677.3272   -4165.2578            0   -1436.4987    18.174588    23.847798    22.353465    9688.5256   -1110.0468   -2412.8808   -786.56848    477.45382   -430.40919     506.5317   -3880.3005 
10495000    272.92132   -4115.0868    -3647.309   -4115.0868            0   -1732.1567    18.018299    24.080103    22.404796     9721.049   -1506.5126    -2811.729   -878.22852    309.60053    72.748686   -1.8262708   -3892.8795 
10496000    257.77401   -4131.4059   -3689.5901   -4131.4059            0   -3411.4535    18.462648    23.783755    22.237342    9764.6641   -3640.5669   -3123.1673   -3470.6263    1202.7517   -77.360975   -414.14766    -4175.407 
10497000    271.64113   -4166.2203   -3700.6367   -4166.2203            0   -2344.4604    18.470972     23.22171    22.704296    9738.4982   -3393.2855   -397.02231   -3243.0734    50.281372    87.025699    124.42457    -4033.611 
10498000    284.65881   -4143.7824   -3655.8869   -4143.7824            0   -2174.4685    18.357725    23.901247    22.188962     9735.907   -2766.4929   -3315.3886   -441.52398   -363.80031    20.886425    481.96122   -3964.6358 
10499000    267.00587   -4167.8894   -3710.2505   -4167.8894            0   -2708.6663    18.213769    23.883355    22.472149     9775.518    -2245.832   -2791.2774   -3088.8895   -69.396294   -612.92107    614.30565   -4096.4139 
10500000    285.15247   -4128.8339   -3640.0924   -4128.8339            0   -2525.6519    18.367071    23.837613    22.419799    9815.9967   -2704.7013   -3418.1027   -1454.1516     649.8022    173.52281    18.546088   -4001.6552 
Loop time of 452.591 on 64 procs for 250000 steps with 864 atoms

Performance: 95.450 ns/day, 0.251 hours/ns, 552.375 timesteps/s
363.2% CPU use with 16 MPI tasks x 4 OpenMP threads

MPI task timing breakdown:
Section |  min time  |  avg time  |  max time  |%varavg| %total
---------------------------------------------------------------
Pair    | 24.805     | 27.403     | 29.828     |  27.5 |  6.05
Bond    | 1.6891     | 1.9047     | 2.4049     |  14.9 |  0.42
Kspace  | 226.17     | 230.43     | 240        |  26.1 | 50.91
Neigh   | 2.1954     | 2.3187     | 2.5461     |   7.9 |  0.51
Comm    | 67.808     | 73.573     | 78.863     |  40.7 | 16.26
Output  | 0.57942    | 0.57973    | 0.58124    |   0.1 |  0.13
Modify  | 74.859     | 83.407     | 91.017     |  47.4 | 18.43
Other   |            | 32.97      |            |       |  7.28

Nlocal:        54.0000 ave          63 max          44 min
Histogram: 1 1 3 2 1 0 2 2 2 2
Nghost:        2444.81 ave        2482 max        2378 min
Histogram: 2 0 0 1 2 1 2 2 2 4
Neighs:        12414.8 ave       14401 max       10008 min
Histogram: 1 1 2 2 1 1 0 5 1 2

Total # of neighbors = 198636
Ave neighs/atom = 229.90278
Ave special neighs/atom = 2.0000000
Neighbor list builds = 7783
Dangerous builds = 0

unfix		3
unfix		2
unfix		1

write_data	data.final.${pid} nocoeff
write_data	data.final.0 nocoeff
System init for write_data ...
PPPM initialization ...
  extracting TIP4P info from pair style
  using 12-bit tables for long-range coulomb (../kspace.cpp:340)
  G vector (1/distance) = 0.37014641
  grid = 24 27 25
  stencil order = 5
  estimated absolute RMS force accuracy = 0.0033382532
  estimated relative force accuracy = 1.005305e-05
  using double precision FFTW3
  3d grid and FFT values/proc = 6300 1296
Last active /omp style is kspace_style pppm/tip4p/omp

write_restart   restart.lmp.${pid}
write_restart   restart.lmp.0
System init for write_restart ...
PPPM initialization ...
  extracting TIP4P info from pair style
  using 12-bit tables for long-range coulomb (../kspace.cpp:340)
  G vector (1/distance) = 0.37014641
  grid = 24 27 25
  stencil order = 5
  estimated absolute RMS force accuracy = 0.0033382532
  estimated relative force accuracy = 1.005305e-05
  using double precision FFTW3
  3d grid and FFT values/proc = 6300 1296
Last active /omp style is kspace_style pppm/tip4p/omp
Total wall time: 0:07:32
