LAMMPS (30 Jul 2021)
  using 1 OpenMP thread(s) per MPI task
package omp 0
using multi-threaded neighbor list subroutines
echo both

include		in.partitions
variable        pid world 0
include		in.temp
variable        temperature equal 232.25
variable	tempDamp equal 100.0
include		in.pressure
variable        pressure equal 0.0
variable        pressureDamp equal 1000.0 # This is 1 ps
include		in.seed
variable        seed world 745823

units		real
atom_style	full
read_restart	restart.lmp.${pid}
read_restart	restart.lmp.0
Reading restart file ...
  restart file = 30 Jul 2021, LAMMPS = 30 Jul 2021
  restoring atom style full from restart
  orthogonal box = (-0.17048721 0.89071986 -0.20799399) to (18.378060 22.738458 22.421190)
  4 by 4 by 4 MPI processor grid
  restoring pair style lj/cut/tip4p/long/omp from restart
  restoring bond style harmonic/omp from restart
  restoring angle style harmonic/omp from restart
  864 atoms
  576 bonds
  288 angles
Finding 1-2 1-3 1-4 neighbors ...
  special bond factors lj:    0        0        0       
  special bond factors coul:  0        0        0       
     2 = max # of 1-2 neighbors
     1 = max # of 1-3 neighbors
     1 = max # of 1-4 neighbors
     2 = max # of special neighbors
  special bonds CPU = 1.418 seconds
  read_restart CPU = 1.601 seconds
include 	in.setup
variable	out_freq equal 1000
variable	out_freq2 equal 10000
variable	out_freq3 equal 1000

timestep	2.0

neigh_modify    delay 7 every 1

include		in.tip4p
# This is TIP4P/Ice

# create groups ###
group ox type 2
288 atoms in group ox
group hy type 1
576 atoms in group hy

# set charges - beside manually ###
set group ox charge -1.1794
Setting atom values ...
  288 settings made for charge
set group hy charge 0.5897
Setting atom values ...
  576 settings made for charge

# ### TIP3P Potential Parameters ###
pair_style lj/cut/tip4p/long/omp 2 1 1 1 0.1577 8.5
pair_coeff 1 1*2 0.000 0.000
pair_coeff 2 2 0.21084 3.1668
bond_style  harmonic
bond_coeff  1 450 0.9572
angle_style harmonic
angle_coeff 1 55 104.52
kspace_style pppm/tip4p/omp 1.0e-5
pair_modify tail yes

thermo          ${out_freq}
thermo          1000
thermo_style    custom step temp pe etotal epair emol press lx ly lz vol pxx pyy pzz pxy pxz pyz enthalpy

restart 	${out_freq3} restart.lmp.${pid} restart2.lmp.${pid}
restart 	1000 restart.lmp.${pid} restart2.lmp.${pid}
restart 	1000 restart.lmp.0 restart2.lmp.${pid}
restart 	1000 restart.lmp.0 restart2.lmp.0


include         in.dump
dump            myDump all atom ${out_freq2} dump.water.${pid}
dump            myDump all atom 10000 dump.water.${pid}
dump            myDump all atom 10000 dump.water.0
dump            myDump2 all dcd ${out_freq2} dump.dcd
dump            myDump2 all dcd 10000 dump.dcd
dump_modify     myDump append yes
dump_modify     myDump2 append yes


variable natoms 	equal  "count(all)"                        # NUMBER ATOMS
variable H      	equal  "enthalpy/v_natoms"                 # ENTHALPY-per-atom
variable Vol      	equal  "vol/v_natoms"                 # volume-per-atom
fix AVG all 		ave/time ${out_freq} 1 ${out_freq} v_Vol v_H file vol_enthalpy.dat
fix AVG all 		ave/time 1000 1 ${out_freq} v_Vol v_H file vol_enthalpy.dat
fix AVG all 		ave/time 1000 1 1000 v_Vol v_H file vol_enthalpy.dat


timer           timeout 23:50:00 every 1000
New timer settings: style=normal  mode=nosync  timeout=23:50:00

fix 		1 all shake 1e-6 200 0 b 1 a 1
       0 = # of size 2 clusters
       0 = # of size 3 clusters
       0 = # of size 4 clusters
     288 = # of frozen angles
  find clusters CPU = 0.443 seconds
fix             2 all nph iso ${pressure} ${pressure} ${pressureDamp}
fix             2 all nph iso 0 ${pressure} ${pressureDamp}
fix             2 all nph iso 0 0 ${pressureDamp}
fix             2 all nph iso 0 0 1000
fix             3 all temp/csvr ${temperature} ${temperature} ${tempDamp} ${seed}
fix             3 all temp/csvr 232.25 ${temperature} ${tempDamp} ${seed}
fix             3 all temp/csvr 232.25 232.25 ${tempDamp} ${seed}
fix             3 all temp/csvr 232.25 232.25 100 ${seed}
fix             3 all temp/csvr 232.25 232.25 100 745823

run             250000
PPPM initialization ...
  extracting TIP4P info from pair style
  using 12-bit tables for long-range coulomb (../kspace.cpp:340)
  G vector (1/distance) = 0.37237777
  grid = 24 25 27
  stencil order = 5
  estimated absolute RMS force accuracy = 0.003062753
  estimated relative force accuracy = 9.2233897e-06
  using double precision FFTW3
  3d grid and FFT values/proc = 2730 384
Last active /omp style is kspace_style pppm/tip4p/omp
Neighbor list info ...
  update every 1 steps, delay 7 steps, check yes
  max neighbors/atom: 2000, page size: 100000
  master list distance cutoff = 10.8154
  ghost atom cutoff = 10.8154
  binsize = 5.4077, bins = 4 5 5
  1 neighbor lists, perpetual/occasional/extra = 1 0 0
  (1) pair lj/cut/tip4p/long/omp, perpetual
      attributes: half, newton on, omp
      pair build: half/bin/newton/omp
      stencil: half/bin/3d
      bin: standard
Per MPI rank memory allocation (min/avg/max) = 9.207 | 9.214 | 9.223 Mbytes
Step Temp PotEng TotEng E_pair E_mol Press Lx Ly Lz Volume Pxx Pyy Pzz Pxy Pxz Pyz Enthalpy 
16250000    235.28754    -4027.795   -3624.5202    -4027.795            0    -1398.438    18.548547    21.847738    22.629184    9170.3363    -1537.049   -1479.1781   -1179.0867    414.27729     615.3672   -671.56924   -3811.5472 
16251000    226.71876   -4040.4965   -3651.9083   -4040.4965            0   -610.80446    18.531508    21.827668    22.608396    9145.0875   -560.05714    812.11424   -2084.4705    545.56994   -1090.3217   -174.55155   -3733.3724 
16252000    233.93751   -4056.0691   -3655.1082   -4056.0691            0   -1289.8634    18.535588    21.832474    22.613374    9151.1288   -1569.4748    -797.7657   -1502.3498   -1079.0118   -501.48876   -1229.2413   -3827.2532 
16253000    237.59883   -4075.9214   -3668.6851   -4075.9214            0    -649.9362    18.558462    21.859417     22.64128    9185.0504   -2077.6792   -229.85412    357.72476    627.24772   -448.95859   -110.92314    -3755.747 
16254000    220.45675   -4081.1128   -3703.2575   -4081.1128            0    228.48606    18.516117     21.80954     22.58962    9122.3211    186.03433    535.93791   -36.514063    932.19401    325.11948    657.46404   -3672.8598 
16255000    235.02865   -4059.0595   -3656.2284   -4059.0595            0   -178.67044    18.506886    21.798667    22.578358    9108.6844     278.0612   -895.64212    81.569587    433.58257    134.47915   -1075.7937   -3679.9631 
16256000    227.89431   -4035.6367   -3645.0336   -4035.6367            0    1043.4288    18.433803    21.712585    22.489197    9001.2005    2146.1605    54.882598    929.24322    743.59709   -865.38247    296.30597   -3508.0593 
16257000    233.02125   -4066.2785   -3666.8881   -4066.2785            0   -158.12718    18.520297    21.814463    22.594719    9128.4996    841.03414   -1351.4029    35.987211    434.17523    479.69927   -564.97844   -3687.9395 
16258000    253.78327   -4085.3362   -3650.3604   -4085.3362            0   -152.78081    18.535844    21.832776    22.613687    9151.5089    531.18514   -1517.4316    527.90406   -954.43193   -594.75529    179.10548   -3670.7514 
16259000    238.48533   -4037.7257   -3628.9701   -4037.7257            0   -5.3327035    18.577696    21.882072    22.664746    9213.6387   -862.55545    578.67071    267.88663    239.84704    479.17524   -532.14438   -3629.6866 
16260000     226.2366   -4047.2122   -3659.4504   -4047.2122            0    759.73089    18.443173    21.723622    22.500628    9014.9336    1318.6283    1118.6203   -158.05586       244.18    621.20064   -326.81694   -3559.5659 
16261000    230.16052   -4065.0661   -3670.5789   -4065.0661            0    19.271383    18.512093      21.8048     22.58471    9116.3743    742.47519   -1802.6302    1117.9691    809.66638    1306.3433   -560.82665   -3668.0167 
16262000    241.73207   -4037.4162   -3623.0957   -4037.4162            0    272.42968    18.477382    21.763916    22.542363    9065.1904    1390.2196   -1872.4123    1299.4818   -783.08403   -848.71115   -1420.2565   -3587.0787 
16263000     239.8607   -4054.6193   -3643.5063   -4054.6193            0    1127.5856    18.484448    21.772238    22.550983    9075.5937    1281.8431    646.70761     1454.206    617.21055    77.632966   -637.32392   -3494.2611 
16264000    227.37314   -4075.1945   -3685.4848   -4075.1945            0    1743.9778    18.432244    21.710749    22.487295    8998.9164    1896.2546    1237.1019     2098.577    1272.6629   -377.96953   -659.86187   -3456.6052 
16265000    222.30706    -4039.719   -3658.6923    -4039.719            0    285.70821    18.423426    21.700362    22.476536    8986.0068    41.198149     -143.873    959.79948    150.92809    484.21027    133.80172   -3621.2497 
16266000    231.03328    -4054.195   -3658.2119    -4054.195            0    57.493902    18.528459    21.824077    22.604676    9140.5738   -11.226853    80.683472    103.02509   -241.77382    1031.7647    563.17341   -3650.5476 
16267000     245.9262   -4075.3792   -3653.8701   -4075.3792            0   -73.896047    18.481993    21.769346    22.547988    9071.9779    211.72882   -244.92719   -188.48977   -12.876534   -263.37146    352.00785    -3663.647 
16268000    219.47979   -4065.2514   -3689.0706   -4065.2514            0   -206.60592    18.463486    21.747548     22.52541    9044.7528   -1192.5736    265.54002    307.21583   -355.47489   -562.05078   -532.55877   -3716.3236 
16269000    231.72438   -4060.4748   -3663.3072   -4060.4748            0    383.22731    18.506665    21.798407    22.578088    9108.3581    1341.0108   -1536.3003    1344.9714    502.05197    1691.5255   -624.58406   -3612.4008 
16270000    227.28698   -4074.5442   -3684.9821   -4074.5442            0    1317.0377    18.471817    21.757361    22.535574     9057.002    747.44128    2234.7982    968.87367    246.44988   -620.25289   -1708.9134   -3511.0184 
16271000     231.8127   -4081.6684   -3684.3494   -4081.6684            0   -1352.0825    18.587301    21.893385    22.676463    9227.9355   -855.22256   -1756.9306   -1444.0943   -134.39396   -325.61728   -504.78713   -3866.3126 
16272000    241.56533   -4068.8117    -3654.777   -4068.8117            0   -824.83072    18.564614    21.866664    22.648786    9194.1883   -458.40285   -1386.1376   -629.95165    335.29586    1911.0039    390.20372   -3765.3767 
16273000    222.01888    -4069.418   -3688.8853    -4069.418            0    152.63081    18.500175    21.790762     22.57017    9098.7781    348.54367   -154.42846    263.77723   -81.835217    638.20844   -966.47742   -3668.6317 
16274000    250.82813   -4039.0365   -3609.1256   -4039.0365            0    485.95793    18.508762    21.800876    22.580646    9111.4537    402.64274    -87.47159    1142.7026   -110.04252   -631.02023   -297.27096   -3544.5509 
16275000    230.40174   -4051.2513   -3656.3506   -4051.2513            0   -170.12309    18.533328    21.829812    22.610617    9147.7824   -463.61998   -731.33291     684.5836    974.31766   -578.71481    641.63311   -3679.0469 
16276000    237.61626   -4044.1637   -3636.8976   -4044.1637            0    544.36707    18.514673    21.807839    22.587858    9120.1867   -39.421353    1363.1791    309.34349   -233.40657    499.32447    169.45887   -3564.4921 
16277000    237.63813   -4042.8575   -3635.5539   -4042.8575            0    477.55269    18.549882     21.84931    22.630812    9172.3162    843.08516    585.57285    4.0000791   -911.25426    857.45702   -755.64977   -3571.6723 
16278000    236.34172   -4069.4145   -3664.3329   -4069.4145            0   -2181.8617    18.557889    21.858742    22.640582    9184.1999   -2946.9657   -2002.2749   -1596.3445   -697.30119   -763.47622   -521.35412   -3956.5761 
16279000    226.23089   -4086.3469   -3698.5949   -4086.3469            0   -19.043967    18.480701    21.767824    22.546412    9070.0752   -2.2986068    287.98883   -342.82212    801.02068   -128.75214   -479.12362    -3701.114 
16280000    233.97631   -4039.0069   -3637.9795   -4039.0069            0   -835.17488    18.540323    21.838052    22.619151    9158.1446   -844.97323   -2296.2971    635.74564   -59.076671   -859.28605   -605.37866   -3749.5273 
16281000    233.58547   -4042.0378   -3641.6803   -4042.0378            0     845.7278    18.507575    21.799479    22.579198    9109.7016      374.168     796.5351    1366.4803   -286.60938    154.14152   -529.50767   -3529.3206 
16282000    240.35706   -4052.1793   -3640.2155   -4052.1793            0    65.338194     18.49738     21.78747     22.56676    9094.6553     31.03014    143.91904    21.065406    20.136096    1307.7117    615.27194   -3631.5493 
16283000     237.3505    -4056.642   -3649.8314    -4056.642            0    485.97731    18.548758    21.847987    22.629441    9170.6494    193.85221    1299.3663   -35.286568    184.03484    413.92594    944.74748   -3584.8346 
16284000    227.15145   -4074.3516   -3685.0218   -4074.3516            0   -199.96392    18.563692    21.865577    22.647661     9192.818   -1299.3777   -583.15466    1282.6406    -316.9147   -548.09123    154.61546   -3711.8305 
16285000    221.82593   -4084.0005   -3703.7985   -4084.0005            0   -1219.6627    18.602768    21.911603    22.695333    9250.9914   -182.09769   -2749.8959   -726.99454    268.16613    -1657.505   -531.85992   -3868.3508 
16286000     226.2735   -4072.8742   -3685.0492   -4072.8742            0    618.61483    18.550083    21.849547    22.631058    9172.6145    606.39072   -440.42772    1689.8815   -482.21303   -768.28761    952.47273   -3602.2951 
16287000    245.20845   -4088.8062   -3668.5273   -4088.8062            0   -1144.7613    18.573059     21.87661    22.659089    9206.7404   -860.17768   -1743.0568   -831.04927    430.23485   -463.33192   -817.58964   -3822.2354 
16288000    228.62954   -4061.1026   -3669.2394   -4061.1026            0    329.66341    18.542917    21.841107    22.622315    9161.9886   -1108.2854    985.45874    1111.8168   -165.72616   -1181.5466   -534.00776   -3625.1904 
16289000    223.77201   -4046.0654   -3662.5278   -4046.0654            0    337.76499    18.536141    21.833126    22.614049    9151.9486   -241.69778   -154.05215    1409.0449   -167.41471    618.47866   -771.80157   -3617.4458 
16290000    225.90705   -4062.9612   -3675.7642   -4062.9612            0   -1510.5072    18.594513     21.90188    22.685262    9238.6814    -1855.805   -2172.9762   -502.74041   -678.80901   -566.94769   -647.24677    -3879.285 
16291000    227.72052   -4065.3581   -3675.0529   -4065.3581            0    310.80878    18.579077    21.883699    22.666431     9215.693   -265.17402   -671.03448    1868.6348   -53.315055   -254.72043    574.58822   -3633.2798 
16292000    228.20937   -4071.4142   -3680.2711   -4071.4142            0    79.440378    18.560842     21.86222    22.644183    9188.5839    39.416976    182.24103    16.663129    790.96475   -404.94965   -82.197468   -3669.6256 
16293000    233.59506   -4064.6536   -3664.2797   -4064.6536            0    800.26406    18.480867     21.76802    22.546614    9070.3197    1646.0896    431.50499    323.19754   -56.000935   -801.99877    684.78579   -3558.4197 
16294000    242.78202   -4087.1465   -3671.0264   -4087.1465            0    -289.0888    18.544962    21.843515     22.62481    9165.0199    7.0423118   -338.49353   -535.81516    -359.5563   -81.013667    605.25172   -3709.6667 
16295000    228.73025   -4103.6739    -3711.638   -4103.6739            0   -776.30374    18.585769    21.891581    22.674595    9225.6554    -1079.728   -542.97601   -706.20717    619.56887    334.75118   -163.03841   -3816.0872 
16296000    233.37551    -4054.003   -3654.0053    -4054.003            0   0.97105141    18.582989    21.888306    22.671203    9221.5149   -499.32068    850.35385   -348.12002   -668.84955   -338.53516   -88.683208   -3653.8747 
16297000    220.93812   -4076.6107   -3697.9303   -4076.6107            0    871.03822    18.519459    21.813477    22.593697    9127.2618    724.18865   -210.43703     2099.363   -329.03387    105.61984   -117.59239   -3581.9849 
16298000    228.89643    -4057.999   -3665.6784    -4057.999            0     849.5527    18.558566    21.859539    22.641407    9185.2042    981.95939    1947.6822   -380.98352     1061.137   -787.69518   -642.44096    -3551.875 
16299000    241.83851   -4075.8084   -3661.3054   -4075.8084            0   -248.69203    18.657873     21.97651    22.762562    9333.4455   -286.15921   -48.873574    -411.0433    36.869416   -250.17563   -378.81708   -3695.1571 
16300000    231.87611   -4080.7955   -3683.3678   -4080.7955            0   -318.01059    18.571757    21.875077      22.6575    9204.8047      437.701   -1291.6792   -100.05361   -920.05196     634.5336   -857.83953   -3726.0584 
16301000    235.57155   -4052.5499   -3648.7883   -4052.5499            0   -402.40149    18.639886    21.955323    22.740617    9306.4776   -165.27009   -530.12751   -511.80688    504.74675    258.74198   -316.87152   -3703.4044 
16302000    231.23244   -4076.7099   -3680.3854   -4076.7099            0   -368.50831    18.558902    21.859935    22.641817    9185.7033    202.04567   -429.75929   -877.81132    418.27597   -978.97775     824.3616   -3729.7523 
16303000    233.97292   -4091.0613   -3690.0397   -4091.0613            0   -797.93011    18.580318     21.88516    22.667944     9217.539    -1568.439   -702.44532   -122.90602    978.00217    36.606863    1944.3032   -3797.3042 
16304000    244.76918   -4082.0832   -3662.5572   -4082.0832            0    161.47622    18.581012    21.885977    22.668791    9218.5723    931.93887   -262.60834   -184.90188    92.098612    960.24687    1320.0018   -3640.8478 
16305000    237.69959   -4077.6547   -3670.2457   -4077.6547            0    104.14693    18.594296    21.901624    22.684998    9238.3582    -423.9051    362.65674    373.68916   -180.99389   -156.59748     185.5924   -3656.2138 
16306000    241.99322    -4048.721   -3633.9529    -4048.721            0   -395.61894    18.534074    21.830691    22.611527    9148.8867   -1115.4267   -442.93063    371.50051   -908.12271   -293.81144    694.59216   -3686.7392 
16307000    238.59551   -4081.0688   -3672.1242   -4081.0688            0    929.58201    18.531486    21.827643     22.60837    9145.0553    914.07625    1274.9044    599.76538    719.10138   -192.54748   -165.79372   -3548.1447 
16308000    226.50401   -4060.0834   -3671.8633   -4060.0834            0   -1038.3161     18.59666    21.904409    22.687882    9241.8822   -2386.3608    58.161453   -786.74893    49.890593   -36.533153   -113.70636    -3811.811 
16309000    228.18452   -4060.7107   -3669.6103   -4060.7107            0    754.20621    18.507998    21.799977    22.579714    9110.3258    1514.2146   -1004.0126    1752.4166    385.62922    274.81047   -183.08863   -3569.4028 
16310000    231.31166   -4106.3662   -3709.9059   -4106.3662            0   -408.46429    18.507404    21.799277     22.57899    9109.4489    158.42679   -1036.3161    -347.5036   -29.215427   -11.903444    304.31824   -3764.1712 
16311000    228.10696   -4059.4766    -3668.509   -4059.4766            0   -206.50791    18.590443    21.897086    22.680296     9232.616     640.0814   -1020.2535   -239.35167   -662.43908    1026.3063    338.54058    -3696.315 
16312000    243.81579    -4062.899   -3645.0071    -4062.899            0    222.99927    18.547076    21.846006    22.627389     9168.155   -224.04183    1329.3396   -436.29996   -1036.1435    552.95185   -168.55328   -3615.1903 
16313000    252.32281   -4063.7864   -3631.3137   -4063.7864            0    835.12933    18.517419    21.811073    22.591207    9124.2447     1441.005   -230.76289    1295.1459   -1017.8944    1105.0365    963.06527   -3520.1849 
16314000    236.61059   -4066.6624   -3661.1199   -4066.6624            0   -356.54113    18.554431    21.854669    22.636363    9179.0667   -389.12475    30.764239   -711.26288   -472.10916    -487.7422    786.17971   -3708.8491 
16315000    222.67707   -4074.8128   -3693.1519   -4074.8128            0   -310.59109    18.566622    21.869029    22.651236    9197.1717    -1423.422    644.24803   -152.59927   -657.88908   -332.71203   -341.91586   -3734.8119 
16316000    244.14356   -4051.5188   -3633.0651   -4051.5188            0    556.98439    18.564767    21.866843    22.648972    9194.4144   -549.83165    1700.5963    520.18847   -854.15588    -1517.092    446.38102   -3558.3785 
16317000    233.52564   -4091.6443   -3691.3894   -4091.6443            0   -93.494643     18.59076     21.89746    22.680684    9233.0894    756.16389    100.98842   -1137.6362   -958.72303     382.3246    -28.88973   -3703.9789 
16318000    231.73231   -4066.3628   -3669.1815   -4066.3628            0   -227.87957    18.494932    21.784587    22.563774    9091.0453    13.725658   -348.46386    -348.9005    -202.5206   -466.30919   -37.808938   -3699.3946 
16319000    227.20198   -4076.5162   -3687.0998   -4076.5162            0    1011.2325    18.498095    21.788313    22.567633    9095.7101    789.53341    1767.5926    476.57148   -550.25756   -317.78049    1126.4136   -3552.9582 
16320000    220.88858    -4015.893   -3637.2975    -4015.893            0   -372.73976    18.590256    21.896866    22.680069    9232.3382     6.687513    480.70822    -1605.615   -78.330071    1097.5568   -930.30771   -3687.4847 
16321000    224.40701   -4030.4411   -3645.8152   -4030.4411            0   -125.77437    18.561735    21.863272    22.645273    9189.9108   -490.69976    125.66898   -12.292326    14.858764   -901.48796    281.95681   -3662.6721 
16322000    244.37628   -4011.2412   -3592.3886   -4011.2412            0    51.064937    18.572539    21.875997    22.658454    9205.9665   -392.85245    1237.3124   -691.26516    689.54363    1367.3546      1114.51   -3585.5327 
16323000    215.27848   -4043.3307   -3674.3507   -4043.3307            0    -1770.198    18.609972    21.920089    22.704122    9261.7431   -1584.9758   -1881.4263   -1844.1921    118.52234    907.60505    731.99313   -3913.4568 
16324000     227.6335   -4058.5059   -3668.3499   -4058.5059            0    450.17609     18.53533     21.83217    22.613059    9150.7469    10.702498    9.9780219    1329.8478   -740.46145    884.32414    842.18579    -3608.272 
16325000    226.59704   -4037.3761   -3648.9966   -4037.3761            0    2090.0833    18.462492    21.746377    22.524198    9043.2924    1728.6825    1696.1284     2845.439   -1263.3459   -70.014543    1200.4654   -3373.3415 
16326000    226.55298   -4026.6419   -3638.3379   -4026.6419            0   -316.58321    18.562759    21.864478    22.646522    9191.4314   -1224.7383    325.49077   -50.502096   -435.81255    897.69262    692.47335   -3680.7751 
16327000    229.51967   -4060.1291   -3666.7402   -4060.1291            0    76.745496    18.484187     21.77193    22.550664    9075.2087   -108.37171   -429.56339    768.17159    354.78414    2222.8317    459.47072   -3656.5828 
16328000    251.00961   -4023.1551   -3592.9332   -4023.1551            0   -527.93478    18.568928    21.871745    22.654049    9200.5993   -1247.3031   -956.08492     619.5837   -618.75227    31.766691    567.47428   -3663.7722 
16329000    216.78611   -4026.4277   -3654.8637   -4026.4277            0   -668.85785    18.558456     21.85941    22.641273    9185.0413   -2665.2639    1094.8622   -436.17185    408.75269   -13.473032    95.578407   -3744.4602 
16330000    244.83051   -4031.0845   -3611.4534   -4031.0845            0   -353.48452    18.585735    21.891541    22.674553    9225.6039   -527.16568   -1604.3269     1071.039    586.08679    1686.4631    1122.2163   -3659.0133 
16331000    233.65211   -4040.9964   -3640.5247   -4040.9964            0    158.63213    18.545244    21.843848    22.625155    9165.4387    934.11206    339.94606   -798.16173   -59.313838    7.0203015    142.81461   -3619.3206 
16332000    225.82776   -4044.3011     -3657.24   -4044.3011            0   -163.48543    18.512552    21.805341     22.58527    9117.0529    305.21463    146.98019    -942.6511   -856.80965    888.90078    56.657221   -3678.9775 
16333000    225.21976   -4053.3632   -3667.3443   -4053.3632            0    888.50923    18.508644    21.800738    22.580502    9111.2798    339.87004    -254.7358    2580.3935   -1457.8494    259.94955   -142.32364   -3549.2803 
16334000    235.34428   -4017.6359   -3614.2639   -4017.6359            0   -95.062559    18.539922    21.837579    22.618662    9157.5501    346.80394   -2221.0183    1589.0266   -428.06369    300.59705    -289.4912   -3626.9598 
16335000    230.84799   -4045.2912   -3649.6257   -4045.2912            0   -36.116681     18.60931    21.919309    22.703314    9260.7546    112.14563   -606.86235    386.36667   -307.56112   -209.20846   0.53091517   -3654.5036 
16336000     240.8664   -4063.0574   -3650.2206   -4063.0574            0    729.68743     18.56493    21.867036    22.649172    9194.6575    1371.0326    1318.8103   -500.78062   -939.52014   -155.70674   -581.07307   -3552.3735 
16337000    225.50012   -4062.6931   -3676.1936   -4062.6931            0   -157.46613    18.609277     21.91927    22.703274    9260.7053    -975.2217    2.3343728    500.48895    181.45402     937.1527   -163.07333   -3697.4606 
16338000    235.04931   -4014.3426   -3611.4761   -4014.3426            0   -70.301724    18.587922    21.894116    22.677221    9228.8605   -708.79572    529.98692   -32.096377   -64.345253    73.906269    1109.5244   -3620.9382 
16339000    233.63689   -4082.8028   -3682.3571   -4082.8028            0    313.26054    18.539597    21.837196    22.618265    9157.0678   -123.21895    393.32995    669.67062    974.67119    876.09044    2334.5272   -3640.5223 
16340000    234.75687   -4054.9982   -3652.6329   -4054.9982            0    1376.9348    18.485564    21.773553    22.552345     9077.238    1228.2311    2220.6652    681.90816   -1043.2855    759.53892    912.03457   -3470.3512 
16341000    229.51209    -4067.933   -3674.5571    -4067.933            0   -727.10783    18.565735    21.867984    22.650154    9195.8539   -175.67272   -1282.3377   -723.31305   -1969.4059    41.423857   -567.27451   -3772.0711 
16342000    227.87498   -4029.8824   -3639.3125   -4029.8824            0   -1332.9047    18.637678    21.952723    22.737923    9303.1706   -1779.5326   -1455.2605   -763.92111   -1594.5779   -354.15422    875.57476   -3820.1573 
16343000    218.91501   -4054.0403   -3678.8275   -4054.0403            0    747.02394    18.549678     21.84907    22.630563    9172.0136    1226.5537     4.396542    1010.1216   -218.64889   -500.06638    540.60504   -3578.9023 
16344000    220.18704   -4035.6089   -3658.2158   -4035.6089            0   -762.72305    18.621176    21.933286    22.717791    9278.4817   -362.12003   -1789.4014    -136.6477   -761.00109    250.56953   -974.95605   -3761.4253 
16345000    235.73654   -4072.7479   -3668.7035   -4072.7479            0    1047.1611    18.496408    21.786325    22.565575    9093.2216   -343.91059    670.95271    2814.4413   -1301.5931   -22.695424   -6.6715981   -3529.8339 
16346000    235.72744   -4028.3508    -3624.322   -4028.3508            0   -300.39883    18.581118    21.886103    22.668921    9218.7303   -927.04116   -790.37671     816.2214   -1319.1098   -154.85009    599.53233   -3664.7093 
16347000    228.11576   -4040.2032   -3649.2206   -4040.2032            0   -100.16622    18.517621    21.811311    22.591454    9124.5435   -291.57221   -126.87025    117.94378   -302.56382   -465.76397    174.21687   -3662.5499 
16348000    219.44323   -4051.6926   -3675.5744   -4051.6926            0    118.58812    18.532999    21.829425    22.610216    9147.2953   -238.40399   -831.64559    1425.8139   -651.37415    682.21729   -291.55868   -3659.7542 
16349000    236.72155   -4054.3357   -3648.6031   -4054.3357            0    710.28561    18.511245    21.803802    22.583676    9115.1221    994.50246    690.05364    446.30073    498.05328    638.72275   -396.71823   -3554.1815 
16350000    237.00933   -4074.1903   -3667.9645   -4074.1903            0    1486.4523    18.483591    21.771229    22.549938    9074.3314    898.41263    2251.2235    1309.7207   -1198.9038    483.67222   -163.90625   -3471.2476 
16351000     226.2772   -4061.1104    -3673.279   -4061.1104            0    272.38049    18.513216    21.806123    22.586081    9118.0341    2025.7016   -990.22399    -218.3361   -1433.7417    780.28873    403.29921   -3637.0586 
16352000    236.00751    -4032.436   -3627.9272    -4032.436            0      1959.62    18.411526    21.686346    22.462019    8968.6062    2084.5092    896.82057    2897.5302   -344.08391    987.00983    883.15359    -3371.613 
16353000    220.24442   -4016.7998   -3639.3084   -4016.7998            0    1406.9674    18.490083    21.778875    22.557858    9083.8959    109.94605    2423.4866    1687.4696   -313.45919    954.73315   -164.16585   -3452.9144 
16354000    227.21941   -4055.0942   -3665.6479   -4055.0942            0   -1240.9219    18.599416    21.907655    22.691244    9245.9914    -1987.995   -1474.1012   -260.66953   -502.27823   -155.14325     1020.897   -3832.9779 
16355000     236.1056   -4037.8525   -3633.1755   -4037.8525            0   -1068.0178    18.559882     21.86109    22.643013    9187.1591   -1640.1196   -402.96701   -1160.9666   -879.98883    960.07692    -127.7869   -3776.2742 
16356000     228.2444   -4065.1798   -3673.9767   -4065.1798            0     473.7679    18.553809    21.853936    22.635604    9178.1433   -617.29735     1026.366    1012.2351   -158.88431    1231.7592   -142.66084    -3610.561 
16357000     231.0591   -4060.9441   -3664.9167   -4060.9441            0   -297.02273    18.581444    21.886487    22.669319    9219.2161   -1032.8441   -130.89667    272.67262   -196.60818    1029.1973   -116.44607   -3704.8522 
16358000    238.07743   -4063.0722   -3655.0156   -4063.0722            0   -307.89187    18.459231    21.742536    22.520219     9038.501   -2052.3719    22.814794    1105.8815    6.9255558    466.23841    732.75984   -3695.6011 
16359000    244.57563   -4082.7921   -3663.5978   -4082.7921            0   -1049.3645    18.447998    21.729305    22.506515    9022.0109   -555.59347   -2514.3142   -78.185902    -753.6687    623.50395     129.5878   -3801.6698 
16360000    222.65226   -4035.5201   -3653.9017   -4035.5201            0   -1621.2685     18.57666    21.880851    22.663481    9212.0962   -2456.7677   -1364.4023   -1042.6357   -166.75209    671.03354    1101.4653   -3871.7175 
16361000    231.42052   -4045.9292   -3649.2824   -4045.9292            0    1023.5108     18.46167    21.745409    22.523194    9042.0841    632.03918    720.66856    1717.8245    152.54132   -327.61039    643.53758   -3514.3125 
16362000    242.60247     -4074.74   -3658.9276     -4074.74            0   -250.58145    18.507152     21.79898    22.578682    9109.0762    870.46415    -522.3135    -1099.895    236.58322    7.4915099   -132.54728   -3692.2165 
16363000    238.33676   -4077.1124   -3668.6113   -4077.1124            0   -34.248697    18.538717     21.83616    22.617192    9155.7652   -1989.6051    1633.8014    253.05767   -835.60764   -78.471208    1614.7307   -3673.1845 
16364000    232.87571   -4029.1663   -3630.0253   -4029.1663            0    87.046251    18.536597    21.833663    22.614605    9152.6242   -890.09629    332.49122    818.74382   -626.53053   -80.891912    423.97647   -3618.4062 
16365000    240.02514   -4050.1896   -3638.7947   -4050.1896            0   -642.49219    18.602811    21.911654    22.695386    9251.0557   -1346.8829    -1064.969    484.37538   -91.151263    34.596952    748.06532   -3725.4779 
16366000    229.77795   -4069.3424   -3675.5109   -4069.3424            0     177.0664    18.601712     21.91036    22.694046    9249.4171   -290.56321   -334.49822    1156.2606   -784.76117   -283.83937    11.928153   -3651.6258 
16367000    216.90336   -4069.4265   -3697.6615   -4069.4265            0   -910.42524    18.641188    21.956857    22.742206    9308.4285    219.65556   -786.83776   -2164.0935   -1180.1089    4.9469143    96.221811   -3821.2553 
16368000     227.2332   -4074.0366   -3684.5667   -4074.0366            0    24.971667    18.517707    21.811413    22.591559    9124.6709   -715.54267    469.52719    320.93048    178.45188    551.99367    395.55882   -3681.2436 
16369000    239.35813    -4067.065   -3656.8134    -4067.065            0   -575.49869    18.581153    21.886144    22.668963    9218.7821    28.127478   -502.70524   -1251.9183   -1821.0192    1370.1991    522.22542   -3734.1871 
16370000    228.99264   -4069.6102   -3677.1246   -4069.6102            0   -460.26833    18.492808    21.782085    22.561183    9087.9132    -797.5325   -568.28885   -14.983639    706.71952    549.33431   -37.538284   -3738.1276 
16371000    233.67667   -4087.8447   -3687.3309   -4087.8447            0     1631.925    18.475055    21.761174    22.539524     9061.765    589.74613    1272.4525    3033.5764    8.3897627    55.057563     1133.952   -3471.6613 
16372000    236.22382   -4045.4171   -3640.5376   -4045.4171            0   -181.09087    18.553909    21.854054    22.635726    9178.2922   -590.54123   -153.50027    200.76889   -144.74981    828.87879    1326.6253   -3664.7777 
16373000    218.26961   -4075.2873   -3701.1807   -4075.2873            0     382.0894    18.475709    21.761945    22.540322    9062.7281    415.80215    524.37294    206.09312    98.057674   -100.12791   -42.773897   -3650.6797 
16374000    231.24962   -4051.4857   -3655.1317   -4051.4857            0    839.85518     18.51892    21.812841    22.593039    9126.4641    39.430904    762.44679    1717.6879   -787.83822    386.44871   -607.44953   -3543.3469 
16375000    248.61353   -4060.0506   -3633.9355   -4060.0506            0   -603.73806     18.57592     21.87998    22.662579    9210.9963   -73.690297   -399.56251   -1337.9614    421.68473   -189.82684    94.929974   -3715.0375 
16376000    234.13538   -4075.5804   -3674.2804   -4075.5804            0    824.17091    18.523941    21.818756    22.599165      9133.89    369.34026    309.98116    1793.1913   -1313.6605   -321.49277   -116.33121   -3564.4939 
16377000    241.97791   -4067.7464   -3653.0045   -4067.7464            0    1765.2343    18.487632    21.775989    22.554868    9080.2847    3481.6412    -130.0742    1944.1359    644.57304   -1600.2072     623.1587   -3419.2405 
16378000    243.20284   -4083.8223   -3666.9809   -4083.8223            0    427.95791    18.536108    21.833086    22.614008    9151.8988     512.1485    147.75899    623.96623   -414.34329    228.22593    198.95025   -3609.8609 
16379000    234.93575    -4037.436   -3634.7642    -4037.436            0    -1169.025    18.553491    21.853562    22.635216    9177.6721   -1021.2597   -1474.4465   -1011.3689   -82.420096    876.50294    935.79083   -3791.2346 
16380000    223.88145   -4074.2925   -3690.5673   -4074.2925            0     303.5872    18.589156    21.895571    22.678727    9230.6999    544.20985   -897.43403    1263.9858   -1512.0317    1106.0034    271.46279   -3649.6983 
16381000    226.01238   -4073.5719   -3686.1945   -4073.5719            0   -466.21336     18.53063    21.826634    22.607325    9143.7876   -653.16073   -954.51663    209.03726   -1612.9137    8.5328127     809.6734   -3748.3653 
16382000    235.06066   -4034.3979    -3631.512   -4034.3979            0   -145.80293    18.458653    21.741855    22.519514     9037.652    83.050204    97.612609   -618.07161     124.5728    200.18782    755.89837   -3650.7296 
16383000    231.62507   -4064.7815   -3667.7841   -4064.7815            0   -1674.9496    18.585712    21.891514    22.674525    9225.5699   -1562.7343   -750.42493   -2711.6897    -279.5118   -225.06541    665.53441    -3893.141 
16384000    228.57141   -4081.0683   -3689.3047   -4081.0683            0      80.0661    18.537574    21.834813    22.615797    9154.0706   -144.14156   -1065.4659    1449.8057    652.12231   -899.69363    502.97168   -3678.6156 
16385000    222.92743   -4086.3988   -3704.3088   -4086.3988            0   -1475.9918    18.583507    21.888917    22.671835     9222.287   -2285.5982   -1641.3873   -500.98973    210.24652    222.31157    398.14727   -3902.8261 
16386000     227.1815   -4056.2318   -3666.8505   -4056.2318            0    727.96154    18.489953    21.778722    22.557699    9083.7046    1844.9534   -665.15658    1004.0878   -343.88137    97.197663 -0.066374036   -3570.4127 
16387000    230.42026    -4073.338   -3678.4056    -4073.338            0   -763.87639    18.546623    21.845472    22.626837    9167.4834   -901.90989   -1037.7236    -351.9957    1048.2394   -92.565086   -118.09546   -3780.5346 
16388000    224.58265   -4056.5677   -3671.6407   -4056.5677            0   -311.91772    18.531895    21.828124    22.608869    9145.6606    98.237352   -2188.6295     1154.639    582.27311   -107.82191   -209.70864   -3713.2443 
16389000    217.76439   -4091.1749   -3717.9342   -4091.1749            0   -1031.0159    18.556636    21.857266    22.639053    9182.3397   -1456.7708   -1101.2717   -535.00506    264.10948    219.57714    91.022141   -3856.0027 
16390000     232.2911   -4061.9627   -3663.8237   -4061.9627            0   -267.12623    18.551885    21.851671    22.633257     9175.289   -189.86616    193.89493   -805.40745    26.590236    -370.2523    1060.4846   -3699.5684 
16391000    224.02146   -4070.4129   -3686.4477   -4070.4129            0   -1179.5732    18.609117    21.919081    22.703079    9260.4666   -1323.2061   -776.30899   -1439.2044   -1039.5298   -536.86256   -9.1950415   -3845.7543 
16392000    224.40005   -4068.7354   -3684.1214   -4068.7354            0    256.91706    18.477752    21.764351    22.542814    9065.7342    689.91511    33.085237    47.750832    277.38579   -927.20428    -1132.714   -3650.1532 
16393000    225.17141   -4068.1403   -3682.2042   -4068.1403            0    31.704464    18.559559    21.860709    22.642619    9186.6794    447.96872   -850.36726    497.51194    197.96869   -626.70012   -369.59159   -3677.9565 
16394000    235.18253   -4079.2963   -3676.2015   -4079.2963            0   -3.8383494     18.52447    21.819378     22.59981    9134.6716   -751.15837   -1052.3543    1791.9976   -425.15745    -143.3171   -611.27978   -3676.7128 
16395000     233.3075   -4051.3194   -3651.4384   -4051.3194            0    769.53328    18.540487    21.838245    22.619351    9158.3875    1010.9029    592.17426    705.52264   -125.37437   -341.48167    431.41537   -3548.6551 
16396000    226.53568   -4074.2789   -3686.0045   -4074.2789            0   -829.18421    18.541843    21.839841    22.621005    9160.3962   -1322.7567   -1479.5023    314.70645     19.03251   -767.98866     2078.163   -3796.7793 
16397000     229.8177   -4086.1388   -3692.2392   -4086.1388            0    197.10639    18.496138    21.786007    22.565245    9092.8233    710.45078     243.6512    -362.7828    656.90208    213.88372    1398.5074    -3666.101 
16398000     211.1737   -4062.1456   -3700.2011   -4062.1456            0   -8.1073192     18.54108    21.838943    22.620075    9159.2663    61.884529   -1107.3495     1021.143    -85.99926    360.38025    500.50145   -3701.2841 
16399000    236.87175   -4039.3018   -3633.3117   -4039.3018            0   -81.187425    18.562758    21.864477    22.646522    9191.4309    82.103866   -148.05507   -177.61107    342.88357   -526.75368    137.24138   -3644.1947 
16400000    229.02612   -4073.9605   -3681.4176   -4073.9605            0     677.9793     18.50428    21.795597    22.575178    9104.8363   -57.414739    315.46572    1775.8869    43.820333   -982.40652    839.05566   -3591.3923 
16401000    233.21836    -4051.787   -3652.0587    -4051.787            0   -403.84052    18.565211    21.867366    22.649514    9195.0745   -1288.5278   -2203.3042    2280.3104    173.44182   -20.108205     489.4916    -3706.214 
16402000    218.82972   -4069.5118   -3694.4451   -4069.5118            0    432.74037    18.535912    21.832856    22.613769    9151.6094    1419.3944   -794.80651    673.63321   -334.31346   -585.50782    296.43669   -3636.6887 
16403000    247.57902   -4087.9737   -3663.6317   -4087.9737            0   -801.20135    18.618165    21.929739    22.714118    9273.9815   -543.07311    -1437.078    -423.4529    99.016294   -566.42291    754.65601   -3771.9954 
16404000    228.81971   -4086.7231   -3694.5339   -4086.7231            0   -1163.2038    18.606479    21.915974    22.699861    9256.5291   -1762.9073   -1505.5021   -221.20205    329.41505   -1805.6108    387.04336   -3851.5629 
16405000    231.03398   -4068.8799   -3672.8956   -4068.8799            0   -2285.9493     18.64763    21.964445    22.750065    9318.0823   -2704.6865   -3384.4209   -768.74048    552.91095    131.18426    223.48322   -3983.5439 
16406000    219.41635   -4087.0844   -3711.0123   -4087.0844            0    938.84593    18.502578    21.793593    22.573102    9102.3253     1109.084   -322.84064    2030.2944    -343.8749   -138.70098   -133.83306   -3586.3823 
16407000    229.83049   -4072.2247   -3678.3031   -4072.2247            0    117.81345    18.482386    21.769809    22.548468    9072.5569    868.07969   -1223.6925    709.05312   -131.86134    467.45295     184.1854   -3662.7148 
16408000    225.79603   -4069.8214   -3682.8148   -4069.8214            0   -1016.8585    18.552666     21.85259     22.63421    9176.4476   -444.34868   -1759.9176    -846.3092    160.20712    346.09138    1488.3116      -3818.9 
16409000    234.86815   -4083.3943   -3680.8383   -4083.3943            0    621.99778    18.517036    21.810622     22.59074    9123.6788     13.80256    565.22577     1286.965    441.88137    146.39894    1463.0545   -3598.0756 
16410000    244.25949   -4065.3702   -3646.7178   -4065.3702            0    957.24615    18.507165    21.798996    22.578698    9109.0963     1830.024   -392.65614    1434.3706   -35.217218    826.15858   -327.84107   -3519.5507 
16411000    221.71961   -4086.9856   -3706.9658   -4086.9856            0   -479.26702    18.541942    21.839959    22.621126    9160.5442   -593.81434   -700.39559   -143.59115   -11.913135   -276.88142    550.04764   -3770.9945 
16412000    220.59995   -4062.8138    -3684.713   -4062.8138            0   -671.44338    18.598611    21.906707    22.690261    9244.7909   -782.60385   -511.56835   -720.15794    548.58551    340.86877    93.006498   -3775.2409 
16413000    227.06349    -4059.679   -3670.4999    -4059.679            0    477.16762    18.540132    21.837827    22.618918    9157.8614    1504.4751    194.15618   -267.12837    605.63727   -127.32405    645.36306   -3606.7704 
16414000    222.58276    -4066.171   -3684.6717    -4066.171            0   -774.23727    18.534806    21.831553     22.61242    9149.9712    48.618777   -1482.9353    -888.3953    132.13723    738.65527    704.67721   -3787.9882 
16415000    226.83022   -4077.0391   -3688.2598   -4077.0391            0    894.53864    18.500497    21.791142    22.570564    9099.2544    590.04752    1111.6999    981.86855    360.11148   -405.18349    504.74303   -3569.5516 
16416000    226.89373   -4044.3091    -3655.421   -4044.3091            0    348.58061    18.543555    21.841859    22.623094     9162.935   -421.10647    1872.1042   -405.25589    544.60489   -703.01975    604.62049   -3608.8394 
16417000    219.72844   -4069.1268   -3692.5197   -4069.1268            0   -930.88334    18.538015    21.835333    22.616335    9154.7246    246.84696   -1213.1154   -1826.3816   -34.873164   -1070.8437    1369.4786   -3816.8041 
16418000    243.24109   -4045.4453   -3628.5384   -4045.4453            0   -343.45201       18.472    21.757577    22.535797    9057.2714   -134.94824   -361.77832   -533.62946    371.71101   -815.15569   -312.59909   -3673.9053 
16419000    241.73766   -4054.7998   -3640.4697   -4054.7998            0   -589.24947    18.612683    21.923282    22.707429     9265.791   -648.44603   -748.53659   -370.76579    305.76024    801.21909     496.5819   -3720.0962 
16420000    231.76906   -4063.2413   -3665.9971   -4063.2413            0   -1123.6857    18.631814    21.945815    22.730769    9294.3918   -1063.8237   -1866.8417   -440.39179    622.79946   -726.46267    820.44275   -3818.3118 
16421000    226.09081   -4065.0961   -3677.5841   -4065.0961            0   -921.42596    18.544124    21.842529    22.623788    9163.7783   -1174.3398   -246.51443   -1343.4237   -56.704559   -468.07832    1489.7433   -3800.7275 
16422000     232.4903   -4081.6462   -3683.1658   -4081.6462            0    1229.1573    18.500383    21.791008    22.570424    9099.0861    364.38204    2123.5628    1199.5271   -107.51536   -15.495937   -174.12095   -3520.0556 
16423000    225.95501   -4071.3776   -3684.0985   -4071.3776            0    542.93698    18.537732    21.834999    22.615989    9154.3048    962.28446     209.8847    456.64178    305.24386   -329.64585    1182.2106    -3611.613 
16424000    220.69923   -4070.9456   -3692.6747   -4070.9456            0   -136.55047    18.545652    21.844328    22.625652    9166.0429    470.20309   -1681.6443    801.78978    582.40559    190.68916    2307.6131   -3710.9284 
16425000    240.41581   -4072.9669   -3660.9025   -4072.9669            0   -740.47561    18.558677     21.85967    22.641543    9185.3697   -972.79209    192.90339   -1441.5381    204.37219   -48.728198    671.06707    -3760.096 
16426000    226.31683   -4067.5556   -3679.6563   -4067.5556            0    561.52528    18.484504    21.772304    22.551051    9075.6755    514.11783   -1021.0634    2191.5214    126.31471    851.71931   -295.83871   -3605.3332 
16427000    249.33504   -4068.2712   -3640.9195   -4068.2712            0    628.11577    18.584737    21.890366    22.673336    9224.1183    1350.8328    210.54655    322.96791    242.55075   -146.72732   -271.77519   -3556.4226 
16428000    240.02809    -4065.352   -3653.9521    -4065.352            0    305.94413    18.527938    21.823464    22.604041    9139.8037    1027.8953   -153.97673     43.91379   -695.99363   -841.90085    214.68322   -3613.1713 
16429000     236.0199   -4075.4127   -3670.8827   -4075.4127            0     496.1421    18.529533    21.825343    22.605987    9142.1645    396.89673    733.42911    358.10044   -857.02385   -515.87892    291.97961   -3604.7325 
16430000    231.31223   -4068.2624   -3671.8012   -4068.2624            0    2101.3936    18.490386    21.779233    22.558228    9084.3436    3625.4935    2289.9316    388.75575     72.13805    1573.1487   -114.23978   -3393.3963 
16431000    227.06329   -4050.4576   -3661.2788   -4050.4576            0    520.63524    18.523814    21.818606     22.59901     9133.702    897.94405   -24.136527    688.09818    283.47583   -198.07705   -329.89155   -3591.9273 
16432000    239.91845   -4048.0612   -3636.8492   -4048.0612            0   -1355.6285    18.621721    21.933928    22.718456    9279.2963   -2429.1675   -823.24863   -814.46932    777.51087   -3.3529749    535.96014    -3820.305 
16433000    233.44408   -4084.0588   -3683.9436   -4084.0588            0   -382.70697    18.561058    21.862475    22.644448    9188.9059   -572.87369     452.5258    -1027.773   -634.92927   -702.26077   -26.932094   -3735.2305 
16434000    223.59165   -4059.2531   -3676.0246   -4059.2531            0    448.42292    18.555636    21.856088    22.637832    9180.8542    1639.1618    147.38634   -441.27944    12.560394    31.934486   -145.21073   -3615.9838 
16435000    237.26401   -4057.8562   -3651.1938   -4057.8562            0    662.51335    18.528779    21.824454    22.605067    9141.0477      913.943    1150.2865   -76.689454    726.51779   -505.44847   -89.623126   -3562.8723 
16436000    234.56814   -4041.2306   -3639.1888   -4041.2306            0   -844.67432    18.623874    21.936463    22.721082    9282.5147   -1845.9193   -1556.8115    868.70787   -669.51973    1013.7521   -610.56612   -3753.5374 
16437000    223.65482   -4060.5118   -3677.1751   -4060.5118            0    774.57178    18.515247    21.808516    22.588558    9121.0353   -256.72675    754.52092    1825.9212   -228.66667   -169.66379    1376.0944   -3574.1408 
16438000    242.15824   -4044.5917   -3629.5408   -4044.5917            0     488.5682    18.546798    21.845678     22.62705    9167.7422   -285.05818    778.94503    971.81775   -940.19306    873.78765   -234.54686   -3564.2182 
16439000    212.85678   -4059.1422    -3694.313   -4059.1422            0    1007.1083    18.513674    21.806662    22.586639      9118.71    1421.0601    29.440022    1570.8246    335.05244    517.55754    1482.2422   -3560.3807 
16440000    236.25592   -4035.0922   -3630.1576   -4035.0922            0    340.38794     18.49413    21.783642    22.562795    9089.8624   -1519.7819    561.04296    1979.9028   -211.21638   -846.15622   -1120.1718   -3585.0336 
16441000    233.73847   -4061.3814   -3660.7616   -4061.3814            0   -51.767919    18.574262    21.878027    22.660556     9208.529    325.37038    516.86168   -997.53582    1079.9156    820.08933   -200.38915   -3667.7139 
16442000    233.95091   -4050.6724   -3649.6885   -4050.6724            0    706.53409    18.472503    21.758168     22.53641    9058.0102    1648.6465    435.20243    35.753355   -110.23772   -1259.5547   -223.50033   -3556.3541 
16443000     226.4482   -4037.1571   -3649.0326   -4037.1571            0    -692.7618    18.589619    21.896116    22.679292    9231.3894   -972.16565   -574.28635   -531.83342   -49.023765   -195.58875   -477.98859   -3742.2994 
16444000    247.75602   -4057.7882   -3633.1429   -4057.7882            0   -359.59232     18.49255    21.781781    22.560867    9087.5325   -914.53002   -721.42896    557.18203   -285.31257     -623.366    431.81509   -3680.8005 
16445000     231.1659    -4066.611   -3670.4005    -4066.611            0    954.37611    18.457595    21.740608    22.518222    9036.0972    236.04927    1217.2939    1409.7851   -32.626995    1076.0618    1006.2234   -3544.6307 
16446000    237.16142   -4067.4975    -3661.011   -4067.4975            0   -1277.7133    18.514776    21.807961    22.587984    9120.3391   -1832.3366   -819.57961   -1181.2236    179.78255   -216.92743    420.19782   -3830.9606 
16447000    233.58671   -4040.3981   -3640.0385   -4040.3981            0   -976.66829    18.523368    21.818081    22.598466    9133.0426   -746.27746   -1712.2197   -471.50769   -819.64618   -402.43718    1108.5881   -3770.1268 
16448000    239.01622   -4054.3921   -3644.7265   -4054.3921            0    330.11869    18.441438    21.721578    22.498511    9012.3891   -789.94152     1467.998    312.29963   -977.05671    -769.1791    1445.9232   -3601.3369 
16449000    251.34886    -4083.577   -3652.7737    -4083.577            0   -266.92884    18.575927    21.879988    22.662588    9211.0062   -964.00662   -131.90439    295.12448    876.87348    893.92936    -79.45031    -3688.631 
16450000    226.30215   -4058.9725   -3671.0984   -4058.9725            0   -238.96937    18.520217     21.81437    22.594622    9128.3826    546.38331    -2643.542    1380.2506    343.59215   -1320.7303   -646.80052   -3702.9119 
16451000    228.64219   -4053.1234   -3661.2385   -4053.1234            0   -300.98695      18.5219    21.816352    22.596675    9130.8711    263.88644   -1568.9925    402.14521   -1001.9887   -333.44142    505.90121   -3701.3192 
16452000    220.57522   -4035.3869   -3657.3285   -4035.3869            0    830.49115    18.468875    21.753895    22.531984    9052.6744    938.60619    899.08108    653.78617    383.83133   -61.811182    847.61845   -3547.6837 
16453000    224.85175   -4077.7624   -3692.3742   -4077.7624            0   -371.22367    18.579408    21.884089    22.666835    9216.1857   -433.28347   -432.79772   -247.58982   -936.50123   -401.16023     343.8702   -3742.2699 
16454000    230.12854   -4083.5915   -3689.1591   -4083.5915            0   -135.14618    18.493827    21.783286    22.562426    9089.4162    711.86524   -1089.9002    -27.40355    1170.4616   -224.54127    635.98438    -3707.074 
16455000     223.9348    -4078.063   -3694.2464    -4078.063            0   -997.93305    18.590323    21.896945    22.680151    9232.4378   -616.64482   -837.32939    -1539.825    133.84754   -282.79149    235.40104   -3828.6137 
16456000     217.8219   -4060.2673   -3686.9281   -4060.2673            0   -375.79069    18.548474    21.847653    22.629095    9170.2288    183.49413   -1120.4291   -190.43714   -622.69709    776.01163    1563.0892   -3737.1857 
16457000    219.33522   -4043.0036   -3667.0705   -4043.0036            0   -375.01662    18.487911    21.776317    22.555208    9080.6949    23.332914   -1385.7286    237.34584    570.24859   -678.20895    673.41432    -3716.735 
16458000    229.55602   -4042.1051   -3648.6539   -4042.1051            0   -1544.7538     18.60169    21.910333    22.694018     9249.383   -1309.7698   -1909.3794   -1415.1122    481.36722    -1105.257    761.21318     -3857.03 
16459000    227.67491   -4054.9094   -3664.6824   -4054.9094            0    1414.2177     18.48488    21.772748    22.551511    9076.2308    2807.1497    842.91546    592.58796    643.23974   -1318.5513    911.20633   -3477.4859 
16460000    239.06981    -4055.438   -3645.6805    -4055.438            0    590.02451    18.481258    21.768481    22.547092     9070.896    896.37678   -498.48968    1372.1864    1301.1324   -479.74497    1258.3543   -3567.6263 
16461000     215.8228   -4054.3326   -3684.4197   -4054.3326            0   -2444.7223    18.596973    21.904777    22.688263    9242.3488   -2605.5358   -3159.8215   -1568.8097   -219.25243   -78.235384    218.83734   -4013.9442 
16462000    244.24644   -4097.4214   -3678.7914   -4097.4214            0    4.6154361    18.519858    21.813946    22.594183    9127.8504    222.13693   -2012.2571    1803.9665    1402.2874    464.64526    423.61534    -3678.177 
16463000    238.10036   -4058.7837   -3650.6879   -4058.7837            0   -1386.2357    18.563149    21.864938    22.646999    9192.0117   -1715.7455   -2470.3457    27.384274    766.31575   -179.83467    543.50943   -3836.5212 
16464000    239.41746   -4092.5422   -3682.1889   -4092.5422            0   -924.17631    18.532477     21.82881    22.609578    9146.5219   -1005.6255   -2249.8167    482.91333   -270.96331   -108.49598    328.20842   -3805.4672 
16465000    210.55559   -4093.4863   -3732.6013   -4093.4863            0    848.04773    18.488596    21.777124    22.556044    9081.7046    1715.4814   -827.92056    1656.5823   -188.40279    1490.2333    153.82918   -3620.2796 
16466000    232.87841   -4100.5988   -3701.4532   -4100.5988            0   -372.10022    18.580891    21.885835    22.668643    9218.3919    -42.31979    -335.6031   -738.37776    731.02762    192.84202    706.43616   -3751.4786 
16467000    221.69121   -4082.5612   -3702.5901   -4082.5612            0   -208.57611    18.609138    21.919107    22.703105    9260.4984  -0.55411468   -1284.7504    659.57618   -18.461786    191.12703    38.323566   -3730.7593 
16468000    235.41555    -4066.691   -3663.1968    -4066.691            0    53.626139    18.594862    21.902292    22.685689    9239.2026    582.48082   -1266.9383    845.33588     712.3243   -654.97892    133.42576    -3655.971 
16469000    237.33023   -4066.3461   -3659.5702   -4066.3461            0    729.40424     18.50462    21.795998    22.575593    9105.3381    1633.0629    33.047311    522.10248    975.79955   -1338.8679   -77.464068   -3562.7112 
16470000    231.93178   -4097.9343   -3700.4112   -4097.9343            0    739.35989    18.537782    21.835058     22.61605    9154.3789    763.95412    1743.1793   -289.05372    1078.4622    917.37392      578.728   -3601.7013 
16471000    220.45205   -4053.0766   -3675.2293   -4053.0766            0    52.923839    18.578563    21.883093    22.665804    9214.9284     517.0092    1584.9169   -1943.1546   -256.08695    341.64597   -1830.8903   -3668.1169 
16472000    235.31143   -4096.6125   -3693.2968   -4096.6125            0    1515.8909    18.515983    21.809382    22.589456    9122.1222     1756.704    2149.1515    641.81719    -226.8663   -213.06416    406.66703   -3491.6275 
16473000    225.79163    -4069.113   -3682.1139    -4069.113            0     388.7315    18.539864     21.83751     22.61859    9157.4634    238.96215     527.3331    399.89925    299.99812   -236.96897    472.14103   -3630.1979 
16474000    240.89536   -4092.6598   -3679.7734   -4092.6598            0   -714.36246    18.577916    21.882332    22.665015     9213.966   -769.47565    -1714.995    341.38329    290.59628   -1011.0383   -228.65315   -3775.7667 
16475000    228.30316   -4086.1342   -3694.8304   -4086.1342            0   -9.8149654     18.59027    21.896882    22.680086    9232.3585   -1299.0885    571.66321    697.98043    618.49173    39.652666    1098.4668   -3696.1519 
16476000    237.15895   -4080.7432   -3674.2609   -4080.7432            0   -560.74169    18.604385    21.913509    22.697307    9253.4052   -166.77942   -1194.9347   -320.51098    1360.7654    1143.1344   -134.14938   -3749.9338 
16477000    243.90782   -4041.7903   -3623.7406   -4041.7903            0    553.84455    18.574957    21.878846    22.661405    9209.5638    1314.0495    1197.3805   -849.89635    1388.5142     1174.058     1160.623   -3549.3526 
16478000    237.87697   -4061.3663   -3653.6534   -4061.3663            0   -8.5461755    18.637956     21.95305    22.738263    9303.5875   -1979.8699    866.42116    1087.8102     320.2918    76.309661   -609.26637   -3654.8129 
16479000    243.48642   -4077.5352   -3660.2078   -4077.5352            0   -181.94805    18.527356    21.822779    22.603332    9138.9427    -830.4706    419.11027   -134.48383    26.395504    64.084493    48.550905   -3684.4582 
16480000    229.37824   -4033.0553   -3639.9089   -4033.0553            0    50.706609    18.606807    21.916361    22.700261    9257.0187   -342.95432    1132.7054   -637.63127   -120.49928    723.40317    258.48206   -3633.0633 
16481000      232.068   -4060.6666     -3662.91   -4060.6666            0    1198.4248    18.498686    21.789009    22.568354    9096.5822    1319.5704     1179.145    1096.5589     556.5008    1132.6468    602.94774   -3503.9218 
16482000     225.6295    -4058.287   -3671.5657    -4058.287            0    1415.7333    18.522369    21.816904    22.597247    9131.5645    276.62585    2073.2421    1897.3318    429.90554    413.26084   -329.00091   -3483.0261 
16483000    227.24221   -4082.3166   -3692.8312   -4082.3166            0   -688.04192    18.614434    21.925345    22.709566    9268.4073   -1147.1301   -130.39098   -786.60469    478.18848    755.89971    500.88187    -3785.834 
16484000    230.70826   -4045.0374   -3649.6113   -4045.0374            0   -771.12482    18.586096    21.891966    22.674993    9226.1413   -2726.8208    178.37629    235.07011    454.88194    398.66249   -148.38063   -3753.3691 
16485000    228.32009   -4086.7532   -3695.4204   -4086.7532            0    1139.1383    18.560384    21.861681    22.643625    9187.9043    117.49032    1423.1716    1876.7531    33.252682   -698.76123    521.85977   -3542.7802 
16486000    240.51871   -4093.1913   -3680.9505   -4093.1913            0    83.888835    18.590572    21.897238    22.680454    9232.8089   -398.36306    1623.2506   -973.22106   -94.964507    269.46861    -479.2976   -3669.6548 
16487000    234.57941   -4065.5645   -3663.5034   -4065.5645            0   -609.01809     18.58501    21.890687    22.673669     9224.525   -882.13309    643.40289   -1588.3241   -31.529272   -778.89411    253.28992   -3745.4348 
16488000    238.94561   -4060.8025   -3651.2579   -4060.8025            0   -583.82432    18.605183    21.914448    22.698279    9254.5948   -1282.6659    1084.5064   -1553.3135   -447.73475    -436.8346    125.93751    -3730.056 
16489000    235.96855   -4066.5397   -3662.0977   -4066.5397            0   -447.72944    18.615559    21.926669    22.710938     9270.087    667.73512    461.34438   -2472.2678    268.90251    531.62744    437.40314   -3722.6284 
16490000    233.05079   -4058.8921    -3659.451   -4058.8921            0   -374.77184    18.581942    21.887074    22.669926    9219.9575   -1370.7758    484.66211   -238.20187    1729.9165    450.62949   -71.918432   -3709.8442 
16491000    218.03176   -4060.5242   -3686.8253   -4060.5242            0   -103.83309    18.622617    21.934984     22.71955    9280.6364   -786.10733    274.67498     199.9331   -296.80914    284.88107    488.51023   -3700.8789 
16492000     231.0975   -4055.5248   -3659.4316   -4055.5248            0   -841.89508     18.58728    21.893361    22.676439    9227.9053   -936.10383   -857.56671   -732.01469  -0.58151688    290.22958    219.85049   -3772.7334 
16493000    239.19148   -4037.9135   -3627.9475   -4037.9135            0    -138.3466    18.582827    21.888115    22.671005    9221.2737   -1524.6289    1540.3459   -430.75684    1334.1517    249.48453   -982.75185   -3646.5528 
16494000     234.3133   -4051.5348   -3649.9298   -4051.5348            0    294.06158    18.582104    21.887264    22.670123    9220.1977     530.2287    739.64751   -387.69146    353.75299    553.91634   -315.93841   -3610.3882 
16495000    244.55257    -4039.736   -3620.5813    -4039.736            0   -1340.6512    18.636576    21.951425    22.736579    9301.5209   -1546.1248   -1659.7165   -816.11217    165.84334     585.5678    989.63519   -3802.4448 
16496000    236.69324   -4053.8234   -3648.1393   -4053.8234            0   -666.56494    18.489886    21.778643    22.557617    9083.6056   -320.58819    -1143.018   -536.08861   -121.56063   -886.87949    831.57152   -3736.4425 
16497000    223.37852   -4042.5505   -3659.6874   -4042.5505            0    123.06491    18.457408    21.740388    22.517994    9035.8227   -34.629412    1672.6978   -1268.8736    908.77715    -292.2312   -470.29207   -3643.4701 
16498000    238.10796   -4041.2041   -3633.0952   -4041.2041            0    133.35973    18.568459    21.871192    22.653477    9199.9016   -112.40678    238.25907    274.22691    588.70417   -766.33526    199.76032   -3615.2022 
16499000    225.49481   -4064.9117   -3678.4213   -4064.9117            0   -935.72368    18.598353    21.906403    22.689947    9244.4071   -798.78491   -1596.5227   -411.86344   -657.47989   -141.42893    1115.4964   -3804.5758 
16500000    233.90973   -4014.8722    -3613.959   -4014.8722            0    463.81865    18.566453    21.868829    22.651029    9196.9202   -73.519448    399.64492    1065.3305    9.2842393    635.46522   -90.291494   -3551.7481 
Loop time of 420.401 on 64 procs for 250000 steps with 864 atoms

Performance: 102.759 ns/day, 0.234 hours/ns, 594.670 timesteps/s
99.2% CPU use with 64 MPI tasks x 1 OpenMP threads

MPI task timing breakdown:
Section |  min time  |  avg time  |  max time  |%varavg| %total
---------------------------------------------------------------
Pair    | 14.172     | 20.3       | 25.218     |  58.1 |  4.83
Bond    | 0.26416    | 0.27942    | 0.29325    |   1.0 |  0.07
Kspace  | 194.41     | 208.5      | 225.41     |  41.7 | 49.60
Neigh   | 2.275      | 2.8785     | 3.8094     |  21.5 |  0.68
Comm    | 74.546     | 87.915     | 100.69     |  58.5 | 20.91
Output  | 0.82484    | 0.82587    | 0.82761    |   0.1 |  0.20
Modify  | 85.973     | 90.189     | 93.835     |  20.7 | 21.45
Other   |            | 9.512      |            |       |  2.26

Nlocal:        13.5000 ave          19 max           5 min
Histogram: 2 0 1 2 8 17 14 12 4 4
Nghost:        1819.30 ave        1873 max        1744 min
Histogram: 2 1 3 10 5 12 11 7 7 6
Neighs:        3349.22 ave        4545 max        1050 min
Histogram: 2 0 0 2 8 10 18 6 12 6

Total # of neighbors = 214350
Ave neighs/atom = 248.09028
Ave special neighs/atom = 2.0000000
Neighbor list builds = 8042
Dangerous builds = 0

unfix		3
unfix		2
unfix		1

write_data	data.final.${pid}
write_data	data.final.0
System init for write_data ...
PPPM initialization ...
  extracting TIP4P info from pair style
  using 12-bit tables for long-range coulomb (../kspace.cpp:340)
  G vector (1/distance) = 0.37229804
  grid = 24 25 27
  stencil order = 5
  estimated absolute RMS force accuracy = 0.0030715328
  estimated relative force accuracy = 9.2498299e-06
  using double precision FFTW3
  3d grid and FFT values/proc = 2730 384
Last active /omp style is kspace_style pppm/tip4p/omp
WARNING: Not all mixed pair coeffs generated from mixing. Use write_data with 'pair ij' option to store all pair coeffs. (../write_data.cpp:312)

write_restart   restart.lmp.${pid}
write_restart   restart.lmp.0
System init for write_restart ...
PPPM initialization ...
  extracting TIP4P info from pair style
  using 12-bit tables for long-range coulomb (../kspace.cpp:340)
  G vector (1/distance) = 0.37229804
  grid = 24 25 27
  stencil order = 5
  estimated absolute RMS force accuracy = 0.0030715328
  estimated relative force accuracy = 9.2498299e-06
  using double precision FFTW3
  3d grid and FFT values/proc = 2730 384
Last active /omp style is kspace_style pppm/tip4p/omp
Total wall time: 0:07:03
