#include		in.partitions
include		in.temp
variable        temperature equal 128.94
variable	tempDamp equal 100.0
include		in.pressure
variable        pressure equal 6418.8
variable        pressureDamp equal 1000.0 # This is 1 ps
include		in.seed
variable        seed equal 745823

units		real
atom_style	full
box tilt large
read_restart	restart.lmp.${pid}
read_restart	restart.lmp.0
Reading restart file ...
  restart file = 30 Jul 2021, LAMMPS = 30 Jul 2021
  restoring atom style full from restart
  triclinic box = (-10.610961 -9.0799242 0.11745054) to (12.590961 12.069922 21.742548) with tilt (-8.9767544 1.9543360 2.8892243)
  4 by 4 by 4 MPI processor grid
  restoring pair style lj/cut/tip4p/long/omp from restart
  restoring bond style harmonic/omp from restart
  restoring angle style harmonic/omp from restart
  1296 atoms
  864 bonds
  432 angles
Finding 1-2 1-3 1-4 neighbors ...
  special bond factors lj:    0        0        0       
  special bond factors coul:  0        0        0       
     2 = max # of 1-2 neighbors
     1 = max # of 1-3 neighbors
     1 = max # of 1-4 neighbors
     2 = max # of special neighbors
  special bonds CPU = 0.008 seconds
  read_restart CPU = 0.022 seconds
include 	in.setup
variable	out_freq equal 1000
variable	out_freq2 equal 10000
variable	out_freq3 equal 1000

timestep	2.0

neigh_modify    delay 7 every 1

include		in.tip4p
# This is TIP4P/Ice

# create groups ###
group ox type 2
432 atoms in group ox
group hy type 1
864 atoms in group hy

# set charges - beside manually ###
set group ox charge -1.1794
Setting atom values ...
  432 settings made for charge
set group hy charge 0.5897
Setting atom values ...
  864 settings made for charge

# ### TIP3P Potential Parameters ###
pair_style lj/cut/tip4p/long/omp 2 1 1 1 0.1577 8.5
pair_coeff 1 1*2 0.000 0.000
pair_coeff 2 2 0.21084 3.1668
bond_style  harmonic
bond_coeff  1 450 0.9572
angle_style harmonic
angle_coeff 1 55 104.52
kspace_style pppm/tip4p/omp 1.0e-5
pair_modify tail yes

thermo          ${out_freq}
thermo          1000
thermo_style    custom step temp pe etotal epair emol press lx ly lz vol pxx pyy pzz pxy pxz pyz enthalpy

restart 	${out_freq3} restart.lmp.${pid} restart2.lmp.${pid}
restart 	1000 restart.lmp.${pid} restart2.lmp.${pid}
restart 	1000 restart.lmp.0 restart2.lmp.${pid}
restart 	1000 restart.lmp.0 restart2.lmp.0


include         in.dump
dump            myDump all atom ${out_freq2} dump.water.${pid}
dump            myDump all atom 10000 dump.water.${pid}
dump            myDump all atom 10000 dump.water.0
dump            myDump2 all dcd ${out_freq2} dump.dcd
dump            myDump2 all dcd 10000 dump.dcd
dump_modify     myDump append yes
dump_modify     myDump2 append yes


variable natoms 	equal  "count(all)"                        # NUMBER ATOMS
variable H      	equal  "enthalpy/v_natoms"                 # ENTHALPY-per-atom
variable Vol      	equal  "vol/v_natoms"                 # volume-per-atom
fix AVG all 		ave/time ${out_freq} 1 ${out_freq} v_Vol v_H file vol_enthalpy.dat
fix AVG all 		ave/time 1000 1 ${out_freq} v_Vol v_H file vol_enthalpy.dat
fix AVG all 		ave/time 1000 1 1000 v_Vol v_H file vol_enthalpy.dat


timer           timeout 10:00:00 every 1000
New timer settings: style=normal  mode=nosync  timeout=10:00:00

fix 		1 all shake 1e-6 200 0 b 1 a 1
       0 = # of size 2 clusters
       0 = # of size 3 clusters
       0 = # of size 4 clusters
     432 = # of frozen angles
  find clusters CPU = 0.001 seconds
fix             2 all nph tri ${pressure} ${pressure} ${pressureDamp}
fix             2 all nph tri 6418.8 ${pressure} ${pressureDamp}
fix             2 all nph tri 6418.8 6418.8 ${pressureDamp}
fix             2 all nph tri 6418.8 6418.8 1000
fix             3 all temp/csvr ${temperature} ${temperature} ${tempDamp} ${seed}
fix             3 all temp/csvr 128.94 ${temperature} ${tempDamp} ${seed}
fix             3 all temp/csvr 128.94 128.94 ${tempDamp} ${seed}
fix             3 all temp/csvr 128.94 128.94 100 ${seed}
fix             3 all temp/csvr 128.94 128.94 100 745823


run             250000
PPPM initialization ...
  extracting TIP4P info from pair style
  using 12-bit tables for long-range coulomb (../kspace.cpp:340)
  G vector (1/distance) = 0.36896125
  grid = 30 36 32
  stencil order = 5
  estimated absolute RMS force accuracy = 0.0041903723
  estimated relative force accuracy = 1.2619182e-05
  using double precision FFTW3
  3d grid and FFT values/proc = 4896 600
Last active /omp style is kspace_style pppm/tip4p/omp
Neighbor list info ...
  update every 1 steps, delay 7 steps, check yes
  max neighbors/atom: 2000, page size: 100000
  master list distance cutoff = 10.8154
  ghost atom cutoff = 10.8154
  binsize = 5.4077, bins = 7 5 4
  1 neighbor lists, perpetual/occasional/extra = 1 0 0
  (1) pair lj/cut/tip4p/long/omp, perpetual
      attributes: half, newton on, omp
      pair build: half/bin/newton/tri/omp
      stencil: half/bin/3d/tri
      bin: standard
Per MPI rank memory allocation (min/avg/max) = 9.423 | 9.433 | 9.439 Mbytes
Step Temp PotEng TotEng E_pair E_mol Press Lx Ly Lz Volume Pxx Pyy Pzz Pxy Pxz Pyz Enthalpy 
17500000    138.06211   -6683.4887   -6328.3323   -6683.4887            0    6800.3525    23.201922    21.149846    21.625098    10611.805    6447.0741    7168.0141    6785.9695    -666.5482   -409.33223   -193.82155   -5275.8941 
17501000    130.69995   -6685.5761   -6349.3584   -6685.5761            0    5853.7217    23.406193    21.129304    21.468648    10617.461    4765.7003    6852.0012    5943.4635   -36.118457     405.8736    633.08703   -5442.9401 
17502000    126.41706   -6673.5083   -6348.3081   -6673.5083            0    6844.0736    23.271573    21.098835    21.600365    10605.846    6354.3164    7533.1795    6644.7249     667.3714   -396.88966    170.71509   -5289.6984 
17503000    124.32511   -6671.3674   -6351.5487   -6671.3674            0    5442.7279    23.303741    21.254426    21.495095    10646.684    4948.6492    6456.0583     4923.476   -331.57051    229.66018   -543.68342    -5506.451 
17504000     124.6443   -6688.9826   -6368.3427   -6688.9826            0    5871.0295    23.246496    21.276487    21.490339    10629.203    5542.8774     6024.076    6046.1351    465.19263   -617.92432    211.58758   -5458.2391 
17505000    132.35663   -6690.2166   -6349.7373   -6690.2166            0    5819.2917    23.073723    21.338094    21.572108    10621.012    6610.7691    4792.7816    6054.3244   -698.08508    83.672681     -189.224    -5448.349 
17506000    135.46708   -6683.7784   -6335.2976   -6683.7784            0    6654.4035     23.09053    21.366138    21.494544    10604.451    6939.2578    6285.5572    6738.3954   -250.72736    208.99291   -535.84037   -5306.1606 
17507000    128.41976   -6683.7452   -6353.3932   -6683.7452            0    6839.2277    23.003401    21.506886    21.420681    10597.486    7696.7738    5147.6981    7673.2113   -455.66117   -693.71805    855.83215   -5296.3669 
17508000    134.03242   -6683.1382    -6338.348   -6683.1382            0    7010.8434    22.926737    21.411792    21.537292    10572.711     8147.549    6439.8908    6445.0905    102.65389    346.91586   -251.16221    -5257.331 
17509000    138.34608    -6682.602   -6326.7151    -6682.602            0    6368.7885    23.053116    21.449756    21.423755    10593.697    7280.7538    5753.5129    6072.0988   -769.69707   -596.97402   -333.10117   -5342.7487 
17510000    133.57585   -6686.2556   -6342.6399   -6686.2556            0    6452.2821    23.094828    21.336818    21.493187    10591.201    6679.8656    6154.9063    6522.0743   -196.13153    401.33473   -577.28789   -5346.0088 
17511000    132.87475   -6687.1043   -6345.2921   -6687.1043            0     7122.621    22.992424    21.331814    21.586703    10587.633    8125.3002    6274.7802    6967.7825   -450.23865    598.34278   -168.66263   -5245.4899 
17512000    124.07162   -6646.9506   -6327.7839   -6646.9506            0    5844.5355    23.238633    21.335656     21.45223    10636.262    5478.2249    6160.1975     5895.184    1187.8928   -300.80365    -643.8922   -5421.1856 
17513000    131.73734   -6680.7721   -6341.8858   -6680.7721            0    5001.9083     23.18902    21.307949    21.587646    10666.682     5602.682    4697.3919     4705.651   -52.708741   -77.320144    257.15386   -5563.7759 
17514000    128.91049   -6696.7033   -6365.0889   -6696.7033            0    6384.5066    23.214143    21.204044    21.532952    10599.245    6245.8592    6332.1547    6575.5058   -639.25129   -196.45689    136.20809   -5378.1775 
17515000    132.65197   -6688.4825   -6347.2434   -6688.4825            0    6678.8337    23.198519    21.220677     21.53636    10602.097    7206.5005    6291.3826    6538.6179     319.5431   -746.42876    269.76954   -5314.5574 
17516000    127.43552   -6677.8934   -6350.0733   -6677.8934            0    6528.2933    23.228335    21.181148    21.578001    10616.437     6952.394    6496.3042    6136.1818    -1388.556   -330.43695     101.1631   -5339.2986 
17517000    130.99663   -6680.1236   -6343.1428   -6680.1236            0    7782.5597    23.276339    21.167544    21.451526     10569.23    6750.5516    8032.0416     8565.086   -1177.8719    1358.1549    11.598832   -5143.5283 
17518000    132.55142   -6705.5565    -6364.576   -6705.5565            0    7022.2676    23.213459    21.124256    21.543457    10564.202    6472.6923    7259.5075    7334.6029    195.24466    285.48846     342.6967    -5282.669 
17519000    130.24946   -6689.1275   -6354.0687   -6689.1275            0    6344.3106    23.180438    21.242745     21.51609     10594.87    6041.7229    7203.9516    5787.2573   -860.18204    664.72109    502.22907   -5373.7755 
17520000    129.88722    -6694.073    -6359.946    -6694.073            0    5381.8015     23.18211    21.330763    21.520849     10641.89    5578.5576    5227.3226    5339.5243    531.19765   -128.92749   -638.18308   -5524.6848 
17521000    123.30862   -6686.1312   -6368.9273   -6686.1312            0    6249.8034    23.054703    21.362803    21.563042    10620.081    6039.1787    6520.8296    6189.4017    184.74537    -229.6622   -102.98764   -5400.9391 
17522000    129.16469   -6674.7896   -6342.5213   -6674.7896            0     6677.133      23.0326    21.427662    21.423965    10573.472    8165.4747    5976.6103    5889.3138   -588.90044   -25.874828   -230.03131   -5312.8857 
17523000    130.78796   -6695.7668   -6359.3227   -6695.7668            0    5663.7279    23.072141    21.442395     21.51423    10643.562    6351.5907    5099.0811    5540.5118    1214.3853    355.42002   -364.93587   -5480.1681 
17524000     136.5189   -6663.4316   -6312.2451   -6663.4316            0    6347.6458    23.049547    21.381907    21.565068    10628.198    6372.7265    6279.3986    6390.8123    441.05242    66.689862     320.6609   -5328.3513 
17525000    135.53062   -6675.6926   -6327.0484   -6675.6926            0    6443.4219    23.196043    21.275815    21.469808    10595.666    5915.2819     7185.244    6229.7397     670.5721   -48.907469    422.19401   -5331.3662 
17526000    131.41054   -6670.0792   -6332.0336   -6670.0792            0    6032.6347    23.189234    21.259526    21.563339    10630.556    6427.0299    6291.5765    5379.2976    304.81305    -624.8643   -926.57088   -5396.7596 
17527000    130.47737   -6673.8628   -6338.2177   -6673.8628            0    7063.6404    23.211792    21.175843    21.551381    10593.134    7458.0847    6759.2329    6973.6037   -260.88234   -108.78813    34.257309    -5246.956 
17528000    126.67024   -6691.3201   -6365.4686   -6691.3201            0    5809.6309    23.166842    21.262191    21.539599    10609.928    5579.4092    5863.7038    5985.7797   -69.372242    179.43112    935.85359   -5466.5158 
17529000     128.5852   -6691.4965   -6360.7189   -6691.4965            0    6607.7356    23.176293    21.237756    21.550877     10607.61    5958.7451    7208.0352    6656.4266    1127.9302   -733.37435   -12.519548   -5338.4948 
17530000    133.36984   -6674.1364   -6331.0506   -6674.1364            0    6306.6761    23.172625     21.26537    21.542551    10615.618    5723.1169    6351.1777    6845.7336    19.126975   -229.97713   -303.37111   -5354.6642 
17531000     128.5085   -6664.2734   -6333.6931   -6664.2734            0    6913.5677    23.166785    21.275617    21.484016    10589.206    6755.6054    6873.5621    7111.5355     622.3726    649.06488    552.65624   -5266.0121 
17532000    132.07796   -6677.0942   -6337.3317   -6677.0942            0    6182.5135    23.060951    21.344006    21.570571    10617.317    6757.8717    6217.0165    5572.6523    -144.9246    69.805889   -811.18275   -5380.0147 
17533000    130.46221   -6680.8278   -6345.2217   -6680.8278            0    7432.8542    23.142819    21.252515     21.48409    10566.801     7555.558    7939.1395    6803.8653    323.68602    820.67569   -950.00488   -5199.7746 
17534000    134.07588   -6699.5555   -6354.6534   -6699.5555            0    6345.1524    23.168278    21.276855    21.497725    10597.262    7014.3028      6162.06    5859.0942     64.37692   -188.78161    -288.1961   -5374.0089 
17535000    126.38602   -6685.6654   -6360.5451   -6685.6654            0     6052.549    23.196002      21.2753    21.519715    10620.021    6130.4342    6347.3589     5679.854   -265.81144   -361.87535   -1292.0027   -5423.1135 
17536000    127.30126   -6686.9597   -6359.4849   -6686.9597            0    6326.0132    23.076375    21.259958    21.612419    10603.113     6884.877    6645.5547    5447.6077   -120.25212   -223.33929   -284.42828   -5381.2586 
17537000    128.54124   -6679.3406   -6348.6761   -6679.3406            0    6027.3966    23.156109    21.289819    21.554195    10625.989    5946.4271    6889.9395    5245.8233   -101.69855    988.19809    89.136935   -5414.6156 
17538000    128.22848   -6680.2428   -6350.3828   -6680.2428            0    6342.4519     23.20312    21.380358    21.400957    10616.822    6318.8776    6549.9832     6158.495    232.47439   -974.23607   -1041.2649   -5368.3463 
17539000    128.18155   -6681.7035   -6351.9643   -6681.7035            0    5292.5055    23.144466    21.328354    21.559299    10642.389    5522.9354    4951.7615    5402.8195    182.09998    169.97324    684.80226   -5530.5233 
17540000    123.77012   -6676.3001    -6357.909   -6676.3001            0    6493.0966    23.125075    21.314642    21.479881    10587.491    5923.7554    7134.4242    6421.1101    277.99161    176.46156   -19.243747   -5355.3249 
17541000    128.54676   -6688.2712   -6357.5925   -6688.2712            0    6820.5963    23.134506    21.313355    21.500508     10601.34    6855.3875     6641.295    6965.1063   -609.57561   -14.753787   -934.67491   -5303.0623 
17542000    126.91929   -6673.7903   -6347.2981   -6673.7903            0    7217.4025    23.097577      21.2668    21.513159    10567.512    7933.8475    7536.2008    6182.1592   -461.99896    650.24786   -848.72471   -5234.9786 
17543000    129.81944   -6675.7473   -6341.7947   -6675.7473            0    6720.8264    23.131166    21.306573    21.485962    10589.268    7234.9737    6310.1317    6617.3739    103.92356    17.050916    286.95949   -5303.8732 
17544000    128.72817   -6679.4409   -6348.2955   -6679.4409            0    5878.2219    23.135383    21.328396     21.59501    10655.855    6549.5668    5818.8167    5266.2823     237.3383   -981.93723   -1049.1369   -5434.7922 
17545000    119.68569   -6692.2679   -6384.3838   -6692.2679            0    5655.2172    23.169347    21.340471    21.524941    10642.895    6005.9124    4887.5567    6072.1825     244.5615   -154.98664    337.57421   -5506.6053 
17546000    134.74724   -6691.0344   -6344.4053   -6691.0344            0    6726.7162    23.152317    21.252941    21.530872    10594.369    7019.1077    6395.3704    6765.6704    177.48794   -459.05948    412.93388   -5305.0738 
17547000    127.99834   -6691.1187   -6361.8508   -6691.1187            0    6410.3175    23.120246    21.349121    21.498314    10611.502    7028.8403    6673.5083     5528.604   -483.01773   -704.77355   -692.61349   -5369.8037 
17548000    134.52408   -6685.2068   -6339.1518   -6685.2068            0    6349.2516    23.169858    21.236927    21.532669    10595.292    6318.9954     6414.941    6313.8184    603.27792    469.75007    922.85309   -5358.0562 
17549000    127.09678   -6669.8203   -6342.8716   -6669.8203            0    5664.4522    23.242101    21.269005    21.533954    10645.017    4689.4832    6233.0346    6070.8389    137.84819   -315.24839    530.78608   -5463.4843 
17550000    121.81131   -6662.3248   -6348.9726   -6662.3248            0    5849.4538    23.337273    21.212787    21.511427    10649.201    5779.8643    5913.7907    5854.7063   -696.24515   -354.55254   -279.68121   -5440.5075 
17551000    128.61673   -6666.5999   -6335.7412   -6666.5999            0    6779.3811    23.241451    21.170407    21.537268    10597.003    6676.3314    7420.7285    6241.0834   -408.95923   -741.67522    27.665761   -5288.0121 
17552000    127.76213   -6689.4503     -6360.79   -6689.4503            0    6473.9468    23.303502    21.227675    21.469295    10620.413    5788.9405    7629.4271    6003.4729   -436.02728   -587.92434    167.07969   -5358.0544 
17553000    128.77784   -6689.3931   -6358.1199   -6689.3931            0    6826.9506    23.125248    21.266332    21.527193    10586.841    7784.8203    5879.5909    6816.4405   -735.62784   -323.56866    155.62121   -5304.0509 
17554000    128.14977   -6665.4342   -6335.7768   -6665.4342            0    6554.9613    23.210585    21.252715    21.455903    10583.938     7391.589    5907.4085    6365.8865    -57.59871    373.90057    13.781743   -5323.9799 
17555000    132.41729   -6688.7001   -6348.0647   -6688.7001            0    5677.5281    23.112894    21.356573    21.557848    10641.217    5921.8416      5523.12    5587.6228   -650.72887    893.93436   -132.12418   -5466.9621 
17556000    129.96974   -6660.9585   -6326.6192   -6660.9585            0    6650.9809    23.141861    21.301791    21.509324    10603.303    6045.8881    7388.7861    6518.2683   -497.25392    1004.6685   -526.60821   -5298.1229 
17557000    132.44391    -6684.505   -6343.8011    -6684.505            0     6761.542    23.093805    21.285564     21.50671    10571.939    6591.6943    7028.8474    6664.0841    252.70553    27.639703    227.33066   -5301.3006 
17558000    131.60865   -6688.2757   -6349.7205   -6688.2757            0    7374.0566    23.098575    21.317452    21.488573    10581.033    8310.5971    6668.2329      7143.34    1067.1785   -847.58764    196.46185   -5211.8039 
17559000    129.55934   -6677.5647   -6344.2812   -6677.5647            0    6889.0129    23.157487    21.308884    21.463799    10591.531    6748.9434    6178.3122     7739.783   -563.00885    683.63368    928.73623   -5280.1587 
17560000    123.71629   -6690.7179   -6372.4653   -6690.7179            0    4595.1242    23.205212     21.20859    21.688927    10674.202    4826.2363    5307.1143     3652.022    13.181092    880.96789    190.20991   -5657.1318 
17561000    132.79551   -6689.1974    -6347.589   -6689.1974            0    7304.1959    23.187257    21.250419    21.454718    10571.575    7823.8674    5951.7455    8136.9748   -530.78548   -283.52943    291.69993   -5221.4604 
17562000    134.25157   -6687.3113   -6341.9573   -6687.3113            0    6370.0402    23.183431    21.333078    21.445936    10606.601    7144.4817    5063.6841    6901.9549   -1124.3408     116.3998   -646.50394   -5356.5988 
17563000    134.86795   -6669.5903   -6322.6507   -6669.5903            0    6989.6999    23.068391    21.331454    21.520797    10590.003    6493.2844    6910.4134    7565.4019    778.18144    740.83108    1083.6985   -5243.1311 
17564000    130.46308   -6691.4788   -6355.8705   -6691.4788            0    5824.6641     23.08014    21.366092    21.501039    10602.859       6465.8    5252.1241    5756.0681    191.75104    558.70297   -310.41565    -5455.192 
17565000    122.26389   -6687.4467   -6372.9303   -6687.4467            0    6761.0615    23.141441    21.316367    21.489795    10600.732    7850.9221    5528.8837    6903.3786     824.2613     -1447.08    550.37359   -5327.6647 
17566000    132.95991    -6674.427   -6332.3957    -6674.427            0    6278.5304     23.19108    21.248831    21.512905    10601.201    6236.2617    6086.3421    6512.9872    555.98495    204.68961    1328.5508   -5361.6869 
17567000    125.59292   -6692.6961    -6369.616   -6692.6961            0    6900.2964    23.123109    21.254053      21.5529    10592.384    6968.4794    6656.7529     7075.657   -75.509764    248.26153    962.30818   -5303.6647 
17568000    126.73746   -6691.2171   -6365.1927   -6691.2171            0    5537.9086    23.224478    21.288435    21.525722    10642.592    4705.7353    6166.4151    5741.5753    546.12008   -18.038632   -169.73798   -5505.6468 
17569000      125.517   -6697.9672   -6375.0823   -6697.9672            0    6162.4753    23.287119    21.271499    21.452593    10626.583    5675.5739    5703.7464    7108.1055     132.2797    400.14199    794.20515   -5420.0354 
17570000    128.27636    -6685.722   -6355.7389    -6685.722            0    6211.5135    23.155306    21.214058    21.658271    10638.933    6401.9594    7103.9833    5128.5979   -761.10401    281.07422   -987.19321   -5391.9733 
17571000     128.7344   -6669.5818   -6338.4204   -6669.5818            0    7310.3662    23.270339    21.202298    21.411477    10564.094    6677.5871    7429.2956    7824.2159   -715.14566   -33.595247    53.773518    -5212.138 
17572000    135.90269   -6668.2989   -6318.6975   -6668.2989            0    7089.0797    23.190936    21.216712    21.511669    10584.503    7805.0907    6024.5918    7437.5566    -658.2078    578.01296     56.81636    -5224.398 
17573000    127.74336   -6693.1892   -6364.5772   -6693.1892            0    6044.2351    23.184306    21.191863    21.589851    10607.496    6317.4829     7293.415    4521.8075   -702.84558    114.00302   -1073.7793   -5429.5373 
17574000     130.8208   -6691.2664   -6354.7379   -6691.2664            0     5937.172    23.254164    21.276101    21.485418    10630.081    5236.8509    6390.0725    6184.5926    303.23603   -755.07354    409.00481   -5434.3051 
17575000    128.06505   -6688.2978   -6358.8583   -6688.2978            0    4930.9661    23.206584    21.261842    21.648427    10681.652    5199.8522    5523.1572    4069.8889   -709.55458   -180.67324   -75.286583   -5590.7077 
17576000    129.13898   -6687.9451   -6355.7429   -6687.9451            0    5651.1023    23.207117    21.375784    21.473934    10652.581     5347.505    5247.6862    6358.1157    388.11377   -100.56013    327.48964   -5477.8048 
17577000    125.13292   -6684.3558    -6362.459   -6684.3558            0    6105.6714    23.096903    21.354088    21.517337    10612.637    6900.0454    4661.4296    6755.5394    908.99383   -320.29845    384.18124   -5417.4572 
17578000    136.26324   -6678.7588   -6328.2299   -6678.7588            0    6947.3403    23.084341    21.401737    21.452335    10598.419    7327.1959    6883.2144    6631.6105    232.59178    206.73982   -469.74403   -5254.3999 
17579000    128.58791     -6692.78   -6361.9955     -6692.78            0    6906.8128      23.0407    21.343003    21.526962     10586.05    7281.3542    6532.5313    6906.5529   -870.33721    579.17122     122.4871   -5295.6756 
17580000    135.91421   -6678.7931    -6329.162   -6678.7931            0    6231.6583      22.9319    21.432681    21.633026    10632.461    7659.2129    4664.6517    6371.1103   -1267.6424    230.06482    196.69482    -5362.859 
17581000    124.96262   -6683.8034   -6362.3447   -6683.8034            0    5466.6275    23.157179    21.405078    21.426546    10620.737    5216.0834    4723.7447    6460.0543    -412.4689    772.88375   -771.69929   -5515.6048 
17582000    128.77872   -6687.0729   -6355.7975   -6687.0729            0    6959.8019    23.038842    21.306079    21.553568    10579.943       7398.9    6339.7863    7140.7195    169.45792   -139.33444    216.87768   -5281.9166 
17583000    128.00253   -6682.9884   -6353.7097   -6682.9884            0    5746.2141    23.163309    21.305677    21.541176    10630.785    5832.9254    4540.2036    6865.5133    241.65331   -124.91971    66.380999   -5462.8218 
17584000    135.84532   -6673.3391   -6323.8853   -6673.3391            0    6568.2245     23.18147    21.333023    21.443727    10604.584    6096.1424    6678.3368    6930.1944      201.986   -273.41892    585.47251   -5308.0635 
17585000    127.89032   -6685.1151   -6356.1251   -6685.1151            0    6065.4049    23.201032    21.182589    21.584254    10607.753     6313.671     6032.063    5850.4809    335.43551    -322.3626     928.2765   -5417.7875 
17586000    131.18215   -6695.7021    -6358.244   -6695.7021            0    5448.0077    23.259728    21.202417    21.553662    10629.457    4904.9324    5825.4282    5613.6624   -230.68039   -4.9650463    176.48908   -5513.6954 
17587000    127.01626   -6687.4318   -6360.6902   -6687.4318            0    6887.0748    23.260653    21.150177    21.484706    10569.765    6548.8697    7024.6069    7087.7476   -1080.8453    182.94384    126.15891   -5299.0533 
17588000    127.81889   -6674.7744   -6345.9681   -6674.7744            0    6695.0781      23.2829    21.156689    21.513337    10597.235    5168.5724    7004.9281     7911.734    179.57064   -244.04328    243.83596   -5311.2451 
17589000    121.78117   -6689.6166   -6376.3419   -6689.6166            0    6278.8285    23.222193    21.162813     21.58113     10605.98    5851.1418    7274.3154    5711.0284   -1511.1438    719.20358    480.57215   -5405.1494 
17590000    124.95346   -6678.8412   -6357.4061   -6678.8412            0    6776.4412    23.256554    21.154785    21.540171    10597.493    7020.4039    6410.7009    6898.2187    74.151667   -38.681382    394.07144   -5310.0829 
17591000    128.48819   -6694.5603   -6364.0323   -6694.5603            0    6536.8268    23.115301    21.304001    21.509644     10592.39    7446.8582    6057.5339    6106.0883   -221.97512   -447.36846    359.34003   -5354.2289 
17592000    131.24908   -6687.1765   -6349.5462   -6687.1765            0    6074.5757     23.22359    21.348092    21.401674    10610.508    6083.5083    4661.6869     7478.532   -281.29437    10.544041    898.64548   -5409.5459 
17593000    127.67652   -6681.6482   -6353.2081   -6681.6482            0    6247.0279    23.103803     21.28985    21.575018    10612.244    6851.9947    5862.6651    6026.4239    134.61968   -392.37654    359.86622   -5386.3637 
17594000    128.27162   -6676.4517   -6346.4808   -6676.4517            0    6381.7289    23.184963    21.263839    21.494125    10596.632    6671.7253    7009.1086    5464.3527   -1497.5378    225.45822   -790.77794    -5360.242 
17595000    125.75823   -6699.1826   -6375.6772   -6699.1826            0    6745.8619     23.11217    21.298848    21.535172     10600.96    7426.9138    6655.9297    6154.7423    463.18278   -1025.1397     40.82977   -5332.7392 
17596000    133.41071   -6681.6883   -6338.4974   -6681.6883            0    6119.7793    23.250437     21.28011    21.488304    10631.808    4617.8011     6539.776    7201.7607     1045.466    608.33824    866.65694   -5389.6011 
17597000    126.79017   -6678.4111   -6352.2511   -6678.4111            0    6034.6913    23.253213    21.210048    21.532284     10619.76    5412.0393    6004.0808    6687.9539    71.495322   -418.31956     249.3732   -5417.6083 
17598000    122.56197   -6687.5765   -6372.2933   -6687.5765            0    6011.3279    23.265711    21.113802    21.599979    10610.506    5567.2962    6950.9728    5515.7147    565.73621    576.45465    258.03611   -5442.0803 
17599000    131.09142   -6680.9042   -6343.6795   -6680.9042            0    6466.8916    23.279589    21.162938    21.472498    10578.738    5876.3105    7052.1156    6472.2488   -86.778274   -1120.5239    263.74306   -5345.9672 
17600000    129.08737   -6689.9306   -6357.8612   -6689.9306            0    7528.2259    23.237123    21.180448    21.455133     10559.63    8195.9196     7443.047     6945.711    -1026.215    352.93129   -475.03527   -5198.5041 
17601000    129.31173   -6695.4646   -6362.8181   -6695.4646            0    6449.9787    23.195903    21.196749    21.496397      10569.3    6419.4287    6873.8067    6056.7008   -525.94777   -830.17714   -233.50049   -5368.6029 
17602000    125.03378   -6675.2269   -6353.5852   -6675.2269            0    7084.9442    23.181691     21.17159     21.56663    10584.757    6846.5677    8554.7636    5853.5013   -53.715399   -234.04092   -586.89316   -5259.8978 
17603000    124.65464   -6660.1365     -6339.47   -6660.1365            0    5574.8849    23.265478    21.321623    21.473056    10651.876    4980.6589    5465.7311    6278.2645    147.91596    274.04155    769.99496   -5473.4301 
17604000    128.25531   -6678.2994   -6348.3704   -6678.2994            0    6084.2729    23.146611    21.257911    21.606301     10631.35    6468.1976    6544.3799    5240.2412   -241.13261    496.00276    -305.3816   -5405.0201 
17605000     127.0308   -6669.9794   -6343.2004   -6669.9794            0    5794.7607    23.114156    21.388029     21.51431    10635.949    5867.6901    5394.7334    6121.8587   -365.97421    41.852067   -83.488566   -5444.3496 
17606000    129.91597   -6694.9614   -6360.7605   -6694.9614            0    7289.3308    23.053918    21.350202     21.46478    10565.089    7440.2203     7036.851     7390.921    680.04774     848.8554    455.02203   -5237.6132 
17607000    128.25057   -6684.7906   -6354.8738   -6684.7906            0    6093.6078    23.083143    21.341839    21.542722    10612.736    7345.0625    4969.2402    5966.5207   -856.19745   -208.29721     359.8976   -5411.7304 
17608000    126.57082   -6679.2338   -6353.6381   -6679.2338            0    6608.6921    23.135156    21.381005    21.394549    10582.876    6605.8824    6204.4256    7015.7684    457.80789    443.00218   -324.66247     -5333.65 
17609000    128.31781   -6686.7936   -6356.7038   -6686.7936            0    7432.9179    22.958652    21.362993    21.529029    10559.246    7349.1459    7788.0129     7161.595   -346.98571    318.45459   -47.399577   -5212.0658 
17610000    126.60668   -6687.2688   -6361.5808   -6687.2688            0    5531.9368    23.129562    21.388751    21.496349    10634.512     5077.338    5647.6126    5870.8597    388.44705    1226.5777    77.940098   -5503.6137 
17611000    128.05793    -6681.408   -6351.9868    -6681.408            0    5482.7232    23.150857    21.372918    21.518802    10647.533    5903.8015    4506.5349    6037.8333    47.395809   -80.422575   -177.83462   -5500.6112 
17612000    126.74167   -6676.7963    -6350.761   -6676.7963            0    5874.4752     23.19795    21.234369    21.573482    10626.964    6901.9724    5680.1223    5041.3309   -330.78615    389.28698   -232.12291   -5440.3151 
17613000    133.15668   -6685.4317   -6342.8943   -6685.4317            0    7022.1188    23.212881    21.248937    21.432953    10571.783    7459.4677    6369.2523    7237.6365   -332.68114   -288.36116    1243.7181   -5260.2337 
17614000    130.30657   -6676.2469   -6341.0412   -6676.2469            0    6622.0391    23.343698    21.078023     21.54442    10600.695    6229.7358     7481.897    6154.4844     973.2526   -295.37197   -344.78761   -5317.2723 
17615000    135.14487   -6690.5835   -6342.9315   -6690.5835            0    6824.9336    23.286068    21.133053    21.525089    10592.619    6845.7232    6581.6147    7047.4631   -244.26307   -28.842518    472.78834   -5288.5988 
17616000    123.91942   -6687.0148   -6368.2396   -6687.0148            0    6925.6162    23.428181    21.016536    21.475237     10573.96    6056.2359    8640.8771    6079.7355   -1199.1765    287.84524   -654.36151   -5300.2379 
17617000    122.05846   -6696.2492   -6382.2613   -6696.2492            0     6693.925    23.250802     21.10843    21.584312     10593.32    6480.0986    7005.4603    6596.2163    167.70698   -216.79934   -410.80318   -5348.0987 
17618000    128.64544   -6696.1147   -6365.1821   -6696.1147            0    6283.9838    23.301694     21.17128    21.486117    10599.675    5487.7385    6192.9175    7171.2954   -232.22349   -189.04701    88.426648   -5393.7701 
17619000    124.31677    -6676.855   -6357.0577    -6676.855            0    6153.2904    23.279696    21.167773    21.568509    10628.515    5811.2493    6513.5498     6135.072   -943.38925    523.23196   -183.06488   -5403.2608 
17620000    129.77905   -6687.7685   -6353.9198   -6687.7685            0    6944.5108    23.162461    21.240197    21.540781    10597.531    7268.2891     6686.057    6879.1863   -434.58106    415.20194    511.75691    -5280.617 
17621000    130.36261   -6693.5974   -6358.2475   -6693.5974            0    6205.0642    23.194372    21.317351    21.455099    10608.314    5009.6887    7083.9682    6521.5357     597.0281   -82.566244    155.88937   -5398.2535 
17622000    135.26938   -6680.8884   -6332.9161   -6680.8884            0    6646.8839    23.032299    21.357675    21.559512    10605.477    6532.5118    6924.8963    6483.2437   -346.64688    117.15817    240.19745   -5304.8426 
17623000     130.0743   -6692.4458   -6357.8376   -6692.4458            0    6083.0867    23.000848    21.364168    21.577951    10603.275    7345.4784    5414.4431    5489.3384    354.88275      480.174   -398.80163   -5417.1619 
17624000    126.84497   -6670.8706   -6344.5696   -6670.8706            0    6665.1866    23.093554    21.404207    21.427782    10591.736     6221.839    7130.1953    6643.5254    562.20538    144.58716    -158.2567   -5315.0009 
17625000    128.08243    -6668.535   -6339.0508    -6668.535            0    5784.9228     23.14264    21.310054    21.569158    10637.282    7427.2829    4770.8434    5156.6422   -521.57955   -80.628857   -918.81035   -5441.6135 
17626000    136.41624   -6700.3814   -6349.4589   -6700.3814            0    7376.9246    23.114673    21.297737    21.424784    10547.212    7428.1902    6425.1522    8277.4315   -745.55713   -167.60212    346.35407   -5214.7384 
17627000    127.32942   -6681.2617   -6353.7146   -6681.2617            0    6077.9007    23.154038    21.232854    21.569922    10604.341    6734.5549    5876.9075    5622.2398    302.01125   -785.44142   -914.16203   -5413.7463 
17628000    129.52657   -6679.0967   -6345.8975   -6679.0967            0    7002.6845    23.114295    21.296846    21.488489    10577.957    7102.8672    6956.5906    6948.5957   -254.02409   -0.9260093    -267.2272   -5265.6028 
17629000    131.06851   -6666.3029   -6329.1372   -6666.3029            0    7349.7524    23.180206    21.171388    21.562165    10581.786    6790.4018     7951.596    7307.2594    114.88455    613.63521     141.4877   -5194.8903 
17630000     126.5613   -6696.5757   -6371.0045   -6696.5757            0    6805.8396    23.248478    21.247293    21.400197    10570.996    5311.9966    7803.3163    7302.2058    123.61003   -41.017819     301.0906   -5321.7677 
17631000    124.29854    -6688.877   -6369.1266    -6688.877            0    6970.6121    23.183193    21.171367    21.572834    10588.376     6537.448    8017.5002     6356.888   -325.01918     162.7913   -1036.7085   -5292.7204 
17632000    130.69602   -6668.1723   -6331.9647   -6668.1723            0      7266.42    23.274316    21.221099    21.414709    10576.865    7048.9674    7313.3429    7436.9497    2.1791974   -581.99966   -173.88569   -5211.0996 
17633000    127.92659   -6676.2717   -6347.1883   -6676.2717            0      5936.78     23.22425    21.174814    21.623759    10633.898    4975.0605    6336.9975    6498.2819    985.58032   -365.12599    958.80126   -5426.4857 
17634000    125.52408   -6696.0805   -6373.1775   -6696.0805            0    5954.6116    23.163085    21.303449    21.528862    10623.494    6471.7732    6359.3442    5032.7173    -589.5121   -121.92737   -183.06049    -5450.613 
17635000    125.73068   -6693.1821   -6369.7476   -6693.1821            0    6322.8717    23.232776    21.292103    21.417429    10594.659    5360.8071    6238.9936    7368.8143    634.04403   -134.33963    78.096281   -5392.7865 
17636000    125.77857   -6658.0677     -6334.51   -6658.0677            0    6965.5943    23.044288    21.246847    21.664416    10607.298    7523.2248    7663.4691    5710.0889    511.71213   -422.69577   -1089.0863   -5256.9565 
17637000     134.2084   -6697.3404   -6352.0975   -6697.3404            0    6460.3777    23.244839    21.296395    21.351136     10569.48    6340.7107    5742.2172    7298.2051   -417.25649    361.13101   -37.499542   -5356.2624 
17638000    125.11595   -6690.4412    -6368.588   -6690.4412            0    7057.9667    23.122885    21.232672    21.596837    10603.196    8043.2781    7601.9157    5528.7065    146.29004    -830.5589   -233.40245    -5277.167 
17639000     129.3155   -6691.3776   -6358.7214   -6691.3776            0      6344.55     23.17694    21.325009    21.477194    10615.069    6199.1557    7112.1603    5722.3341    -241.0625     468.7466   -1232.5309   -5376.5222 
17640000    128.60737   -6681.4361   -6350.6015   -6681.4361            0    6300.5685    23.173906    21.305891     21.46892     10600.08     7013.495    5961.5419    5926.6685   -41.598185   -216.68134    425.65922   -5376.5884 
17641000    124.47647   -6685.0794   -6364.8712   -6685.0794            0    6416.9451    23.063724    21.310604    21.607135    10619.947    7635.6506    5962.5797    5652.6049    -173.9624      238.192    805.69229   -5371.0081 
17642000    127.06668   -6676.2792   -6349.4079   -6676.2792            0    6899.8444     23.03812    21.393035    21.502257    10597.501    8050.6311    5921.3829    6727.5192   -137.84713    -526.2022   -528.66568   -5283.0116 
17643000    128.27616    -6676.917   -6346.9344    -6676.917            0    7309.3641    23.064788    21.323357    21.464466    10556.626     7535.145    7189.1936    7203.7537    879.28582    1053.2385    335.65367   -5221.6025 
17644000    130.74115   -6692.7431   -6356.4195   -6692.7431            0    5831.3717    23.067336    21.360309    21.537552    10612.099    5712.3684    6208.4012    5573.3456    47.532804    570.86602    494.56372    -5453.918 
17645000    130.66987   -6668.4807   -6332.3404   -6668.4807            0    5463.1735     23.24819    21.326045    21.454603     10637.02    4557.3969    5467.1495    6364.9742    194.19902    492.24435     31.56608   -5484.8381 
17646000    128.55447   -6680.8837   -6350.1851   -6680.8837            0    8480.3179    23.191964    21.154347    21.474176    10535.464    7996.6864    9553.1089    7891.1585    772.48272   -557.30806   -245.52861   -5047.1933 
17647000    130.81748   -6702.9276   -6366.4076   -6702.9276            0    5509.0298     23.28354    21.164193    21.542573    10615.691    5271.5751    6191.9307    5063.5837    83.724852    272.31474   -125.88001   -5513.5053 
17648000     122.0652    -6681.583   -6367.5777    -6681.583            0    6072.1707    23.229469    21.189799    21.570441     10617.57    5441.2237    6638.9572    6136.3313   -659.29126    294.88728    202.83451   -5427.3241 
17649000    132.90669   -6673.4826   -6331.5882   -6673.4826            0    6776.5869    23.388802    21.099209    21.449328    10584.927    6040.4313    7407.6837    6881.6458    219.73555    129.09788    933.07544   -5285.4845 
17650000    125.01652   -6683.2404   -6361.6431   -6683.2404            0    6392.6705    23.259471    21.157283    21.591226    10625.198    6557.6544    6775.2111    5845.1459   -356.88002    207.76616     389.7148   -5371.0501 
17651000    132.02511   -6680.6144   -6340.9878   -6680.6144            0    5812.5604    23.258476    21.191946    21.559682    10626.603    6037.8024    6086.2272    5313.6518    367.19563     750.5973   -711.10911   -5440.1683 
17652000    124.61728    -6684.298   -6363.7276    -6684.298            0      6713.98    23.227272    21.259064    21.431859    10582.839    6556.5893    6963.5184    6621.8322   -21.666472   -211.87762    655.68457    -5327.493 
17653000    136.93062     -6680.42   -6328.1744     -6680.42            0    7107.5862    23.169885    21.233567    21.533153    10593.866    7469.7862     7482.466    6370.5063   -635.61929   -346.54631     -811.842   -5230.0476 
17654000    125.70135   -6673.5606   -6350.2016   -6673.5606            0    7218.8607    23.139099    21.331261    21.428217    10576.671    6701.3292    6655.5133    8299.7396   -385.28955    134.31016    327.33448   -5236.6931 
17655000    126.55758   -6690.9717     -6365.41   -6690.9717            0    6028.0321    23.044038    21.336037    21.541075    10591.067    6189.3142    6275.4768    5619.3054    490.63348    891.17767    787.35517   -5434.3211 
17656000    120.18749   -6690.9166   -6381.7416   -6690.9166            0    6881.7609    23.054963    21.372253    21.497612    10592.658    6812.6361    7029.1327     6803.514    125.47727   -337.64618   -457.30442   -5318.6262 
17657000    128.01732   -6686.0487   -6356.7319   -6686.0487            0    7748.5713    23.013531    21.352146    21.488209    10559.054    9395.3366    6438.8789    7411.4985    195.41222   -646.73575   -961.02166   -5163.5064 
17658000     129.1562   -6695.6741   -6363.4277   -6695.6741            0    6395.9443    23.131397    21.327301    21.478465    10595.977     5414.842    7009.2808      6763.71    762.68795    1452.2526    741.78414   -5375.0531 
17659000    131.46836   -6692.4206   -6354.2263   -6692.4206            0    5474.1995    23.142684    21.301944    21.588957    10643.014     5604.305    6441.7133    4376.5803   -278.15994    258.54101    -771.5615    -5504.535 
17660000    125.28415   -6675.4963   -6353.2105   -6675.4963            0     7359.838    23.201701    21.247146     21.44686    10572.657    5788.4647    8971.7844    7319.2651   -281.61875    1055.6487   -1429.1931    -5218.387 
17661000    123.31749   -6690.0311   -6372.8043   -6690.0311            0    5526.7885    23.249186    21.246373    21.517393     10628.75    5221.0078    5275.3855    6083.9722    1227.5595   -8.7987251    431.54972   -5516.1001 
17662000    127.61762   -6675.3931   -6347.1045   -6675.3931            0    6519.1798    23.188601    21.240339    21.490271    10584.684    6399.9713    6410.5231    6747.0452   -397.44991   -518.10574   -186.83909   -5340.7599 
17663000    124.13323   -6675.1545   -6355.8293   -6675.1545            0    6542.7121    23.188124    21.263531    21.495954    10598.825    6754.5676     6905.017    5968.5518   -303.08664   -657.03673   -1535.4675   -5344.5027 
17664000     126.5178   -6691.7873    -6366.328   -6691.7873            0    6072.5335    23.215291    21.264769    21.516858     10622.18    5075.0214    6980.7149    6161.8642    666.76994   -350.20197   -175.20203     -5425.61 
17665000    127.38516   -6677.8005     -6350.11   -6677.8005            0    6445.8919    23.162129    21.211774    21.589594     10607.18    6521.1627    6657.0569     6159.456   -565.07356     794.4877    1337.6455   -5352.9638 
17666000       129.84   -6670.0835    -6336.078   -6670.0835            0    6484.0321    23.223809    21.276267    21.488517    10617.819    6836.8345    6167.5266    6447.7352     876.9811   -1048.2028   -1402.2761   -5332.0256 
17667000    125.98536   -6680.8776    -6356.788   -6680.8776            0    6804.6133    23.120285    21.308673    21.512113    10598.213    6929.0621    6556.7258    6928.0519    11.023629    165.33342    218.11023   -5305.0392 
17668000    131.56741   -6671.4688   -6333.0197   -6671.4688            0     6719.047    23.079762    21.230491    21.611426    10589.483    6958.5538    8094.7118    5103.8753   -356.05644    490.67674   -1087.2389   -5295.3519 
17669000    135.44199   -6673.0903    -6324.674   -6673.0903            0    6213.9955     23.14428    21.429272    21.419063    10623.107    6722.6322    5733.5132    6185.8411   -358.83186   -424.56336   -1195.3329   -5361.9576 
17670000    127.98454   -6688.4401   -6359.2076   -6688.4401            0    6169.6297     23.18769     21.28607    21.508649    10616.127    5942.1209    5998.9287    6567.8396    260.08731   -352.33456   -25.494026   -5403.9927 
17671000     130.9095   -6692.1033   -6355.3466   -6692.1033            0    6235.8029    23.145258     21.27571    21.547355    10610.603    6650.3641    6194.0672    5862.9774   -822.58241    188.83964    471.90749   -5390.3888 
17672000    132.88461   -6688.4347   -6346.5972   -6688.4347            0    6259.0792    23.363132    21.270686    21.338547    10604.188    4408.1217    6921.1527    7447.9633    452.57141    230.22506   -550.07861   -5378.6231 
17673000    126.05103   -6685.2597   -6361.0011   -6685.2597            0    6686.5157    23.195009    21.171202    21.599669    10606.868    6236.8886    6936.6307    6886.0278   -168.28652    293.40233    819.61881    -5326.662 
17674000    124.92063   -6687.1152   -6365.7645   -6687.1152            0       5784.4    23.264219    21.217106    21.526655    10625.544    5391.5765    6162.8209    5798.8025   -1196.3516    388.71459    225.32951   -5469.3985 
17675000    128.17729   -6684.0755   -6354.3473   -6684.0755            0    5749.6142    23.300198    21.210371    21.538832    10644.617    6268.5462    5131.6526    5848.6437   -423.28941   -846.68478    63.096451   -5461.7724 
17676000    122.27423   -6679.2538   -6364.7108   -6679.2538            0    6079.6594     23.25664    21.186477    21.547644     10617.09    5640.3237    6274.1821    6324.4722   -38.880163    848.97568    382.85147   -5423.3402 
17677000    133.97977   -6672.4569   -6327.8021   -6672.4569            0    7451.1689      23.2273    21.162517    21.510041     10573.22    6491.3227    8136.6452    7725.5388    613.20273   -536.23383    369.64274   -5178.8351 
17678000    129.73714   -6680.0984   -6346.3575   -6680.0984            0    6020.6041     23.24729    21.162061    21.641211    10646.623    5072.9439    7520.0207    5468.8478    483.26659    464.66555    316.85066   -5411.5379 
17679000    129.82317   -6684.3983   -6350.4361   -6684.3983            0    6268.6838    23.254636    21.221666    21.496975    10608.803    6037.0505    6354.7349    6414.2662   -27.267877   -71.501874   -601.53767   -5380.5547 
17680000     129.5011    -6680.687   -6347.5533    -6680.687            0    6387.0814    23.211923      21.2245    21.524612    10604.347    6446.4082    6877.8869     5836.949    49.073084     578.1138    19.000234   -5359.7686 
17681000    125.47619   -6679.9025   -6357.1227   -6679.9025            0     6628.708    23.077283    21.265916    21.599535    10600.178    7217.6432    7168.6088    5499.8721    152.00609   -352.68683    219.61619   -5332.3726 
17682000    130.79824   -6677.7697   -6341.2992   -6677.7697            0    6079.7586     23.16975    21.316755    21.464876    10601.586    5913.4823    6924.0515    5401.7421    476.96337   -74.927119   -1006.4477   -5401.2879 
17683000    126.24158   -6689.7233   -6364.9745   -6689.7233            0    6391.9006    23.101459    21.372687    21.491094    10611.019    5789.7357    6372.2236    7013.7424   -201.33002   -114.96664    58.881022   -5375.8226 
17684000    124.86845   -6687.9398   -6366.7233   -6687.9398            0    5195.4669    23.142846    21.390052    21.547789    10666.731    5941.1381    4950.9995     4694.263   -162.85586    423.70636   -171.40825   -5558.4992 
17685000    128.39597   -6669.2302   -6338.9394   -6669.2302            0     7208.939    23.116027    21.289678    21.504286    10582.964    7262.6089    6682.0516    7682.1565   -733.65392    464.27811    917.97329   -5226.2997 
17686000    131.83156   -6682.4262   -6343.2976   -6682.4262            0    5503.2643    23.185418    21.388924    21.511405    10667.746    4741.6125     5508.307    6259.8734    750.16051   -1189.8869    453.87082     -5487.11 
17687000    121.72804   -6685.5227   -6372.3848   -6685.5227            0    6592.2327    23.228164    21.245795    21.499622    10610.081    6572.3519    6246.9935    6957.3528    73.233782    309.79518    57.084797   -5352.3215 
17688000    130.23881   -6670.1921   -6335.1607   -6670.1921            0    6132.6626    23.150321    21.217049    21.607035    10612.976    5787.0226    7064.8562    5546.1091   -503.47163    335.32935     417.8825   -5385.9511 
17689000    120.94998   -6684.7118   -6373.5754   -6684.7118            0    6307.5668    23.231782     21.24665    21.509268    10616.922    5276.6305     5801.945    7844.1249    -197.2306    436.88497    394.03865   -5396.9311 
17690000    135.28079   -6666.6858   -6318.6843   -6666.6858            0    7470.0296     23.13447     21.31048    21.437099    10568.632    7910.3223    6663.4543    7836.3123   -735.48418   -782.19735   -599.72086   -5167.3087 
17691000    129.63016   -6676.0913   -6342.6256   -6676.0913            0    6132.8085    23.205981    21.260179    21.519107    10616.737    5394.9708    6712.2043    6291.2504    1282.1718    365.36117     99.25645    -5393.057 
17692000    127.79707   -6672.9927   -6344.2425   -6672.9927            0    6446.2067    23.052463     21.30254    21.636622    10625.226    7465.4438    6431.4818    5441.6947   -180.77851   -503.66363   -519.29975    -5345.351 
17693000    128.97122   -6687.3885   -6355.6179   -6687.3885            0    6447.7346    23.222485    21.361991    21.350788    10591.667    5846.6033    5722.5903      7774.01   -187.41727    669.31879   -117.30212   -5359.6453 
17694000    128.01979    -6677.059   -6347.7359    -6677.059            0    6447.2484    23.061617    21.309436    21.602128    10615.935      6729.04    6651.2244    5961.4808    -827.9829    13.509491     162.1845   -5349.5567 
17695000     126.0271   -6667.1523   -6342.9552   -6667.1523            0    6177.3943    23.197167    21.326035    21.479705    10626.087    6244.4794    6491.1003    5796.6033     169.6024    320.61182   -837.11713   -5385.6408 
17696000    126.61713   -6687.1724   -6361.4575   -6687.1724            0    5345.5163    23.154826    21.384534    21.497219    10644.459    5309.3214    5505.4467    5221.7807   -373.51031   -931.79098   -601.97566   -5531.6275 
17697000    127.85633   -6679.6484   -6350.7458   -6679.6484            0    5399.4396    23.162975    21.298117      21.5738    10642.954    5382.2073    4520.2661    6295.8455    279.54633    1137.7705    165.13688   -5512.6633 
17698000    133.50164   -6682.8997   -6339.4748   -6682.8997            0    6853.1347     23.14572    21.377543    21.390703     10584.09     6722.895    5844.7027    7991.8064   -184.72348    -612.3212    72.984528    -5281.638 
17699000    134.01779   -6687.0879   -6342.3353   -6687.0879            0    6480.4608    23.068882     21.27675    21.621314    10612.408    6809.3935     7003.725    5628.2637   -233.93261    71.233548   -732.02024   -5339.3474 
17700000    127.60776   -6691.2071   -6362.9439   -6691.2071            0    6083.4015    23.210679    21.311641    21.454775    10612.769    6970.0461    5574.2093    5705.9491    217.08267   -312.42969   -50.733239   -5421.3772 
17701000    128.44509   -6676.4021   -6345.9849   -6676.4021            0    6781.1358    23.249991    21.232318    21.487416    10607.289    6739.6884      6559.87    7043.8488   -65.946085    29.478943   -14.748284   -5296.9674 
17702000    125.78669    -6683.565   -6359.9864    -6683.565            0    5032.8034    23.193307    21.220887    21.671475    10666.322    4202.8514    6132.4263    4763.1325    118.45655    633.05829    614.20986   -5577.0968 
17703000    124.60507    -6695.689   -6375.1501    -6695.689            0    7409.1349    23.263653    21.197556     21.43155    10568.596    7009.1576    7830.4678    7387.7795    674.71562     114.4846    830.01488   -5233.1643 
17704000    125.70164   -6675.1889   -6351.8291   -6675.1889            0    7565.7127     23.15601    21.137039    21.569859    10557.356    7853.1642    8212.9824    6630.9914    501.17839    -581.1063    159.95013   -5186.9499 
17705000    127.60213   -6687.1982   -6358.9495   -6687.1982            0    6536.5946    23.217343    21.146038    21.547411    10578.805    6052.0653    7025.1814    6532.5371    413.24402   -394.07114   -438.49186    -5350.477 
17706000    124.72098   -6690.5083   -6369.6712   -6690.5083            0     6198.543     23.20037    21.298306    21.460325     10604.16    5855.4203    5912.8377    6827.3708   -126.71074   -362.56555    526.92677   -5411.0615 
17707000    126.48665   -6692.4346   -6367.0554   -6692.4346            0     6635.578     23.08702    21.247075    21.581799    10586.556      7056.13     7813.787     5036.817   -646.50826    636.31374   -351.51855   -5342.5616 
17708000    129.56027   -6681.4891   -6348.2032   -6681.4891            0    6762.9664    23.146264     21.40689     21.32641    10567.013    5833.9563    6502.9461    7951.9967    773.91298    -883.0357    -384.1038    -5305.969 
17709000    127.98192    -6672.816   -6343.5903    -6672.816            0    6438.0945    22.986327    21.342001    21.651296    10621.568    6891.7979    5271.7545    7150.7311   -488.00417    746.75098    617.77631   -5346.2994 
17710000    124.89905   -6673.4056   -6352.1104   -6673.4056            0    6870.3697     23.00531    21.414109    21.478721    10581.239      7026.76    6605.4531     6978.896   -13.908958   -356.40312    -22.51933   -5291.8989 
17711000    127.90059   -6673.8001   -6344.7836   -6673.8001            0    5919.0467    23.041084    21.410549    21.490017    10601.504     6663.759    5645.8593    5447.5217   -113.04733    7.2395187   -1194.8913   -5429.6276 
17712000    131.82867   -6702.9837   -6363.8624   -6702.9837            0    6157.8161    23.050058     21.38459    21.542355    10618.573    6639.2968    5511.0577    6323.0939    50.824086   -126.15538   -178.74411   -5410.2569 
17713000    122.95397   -6671.8547   -6355.5631   -6671.8547            0     6453.029    23.105306     21.40156    21.454367    10608.961    6066.9364    6367.4626    6924.6879   -341.26257    1060.8934   -803.46281   -5357.1452 
17714000    130.89642   -6686.4296   -6349.7065   -6686.4296            0    7245.3594    23.040814    21.405953     21.46185    10585.212    8085.5208    6030.6806    7619.8767   -864.51026    37.095881    15.294732   -5231.2081 
17715000    123.07272   -6691.4386   -6374.8415   -6691.4386            0    6503.7284     23.13169    21.318385    21.507627    10606.062    7085.5918    5235.2486    7190.3449    214.11556   -277.73455    601.69323   -5368.8543 
17716000     125.9611   -6678.0994   -6354.0721   -6678.0994            0     7117.992    23.176797    21.303443    21.431521    10581.719    6081.2635    7110.0331    8162.6793   -195.92695    619.62491    465.87678   -5255.5986 
17717000    126.09899   -6680.1152   -6355.7332   -6680.1152            0    6344.9586    23.247917    21.137438    21.645788    10636.771    6904.0941    6732.7759    5398.0059   -363.79208   -153.21573   -547.94251   -5371.4627 
17718000    129.04297   -6675.1993   -6343.2441   -6675.1993            0    6571.8402    23.284671    21.194746    21.505464    10613.219    6215.1101    5988.8744    7511.5361   -512.19037   -324.28287    1553.3615   -5326.0355 
17719000     128.3752   -6690.9008   -6360.6634   -6690.9008            0    5385.7441    23.304132    21.134757    21.638788    10657.691     4379.254      6792.07    4985.9085   -325.96775    455.98864    393.29792   -5523.5492 
17720000    126.40564   -6700.5991   -6375.4283   -6700.5991            0    6357.6176    23.252498     21.26299     21.44702    10603.785    5448.3901    7087.0081    6537.4546   -534.69733    184.07288    -236.2217   -5392.2525 
17721000    122.60058   -6677.1541   -6361.7715   -6677.1541            0    6301.6599    23.204876    21.239696    21.542238    10617.405    6937.2394    5590.3033    6377.4369     691.6566   -683.84486    55.533168   -5385.9976 
17722000    128.45544   -6693.9387   -6363.4949   -6693.9387            0    6579.8183     23.09038    21.242433    21.582192    10585.975     6741.365    7078.9143    5919.1756    1231.3239   -212.89361   -572.49302   -5347.6658 
17723000    129.04851   -6693.2786   -6361.3092   -6693.2786            0     6402.475    23.198442    21.344077    21.395309    10593.873    6657.5915    6286.4145     6263.419    198.92417    278.94751   -617.12813   -5372.1219 
17724000    134.56059   -6685.8259   -6339.6769   -6685.8259            0    6109.1983    23.040237    21.279712     21.68285    10630.876    6971.6273    6023.8742    5332.0933    597.65049   -28.177501    107.09742   -5392.5043 
17725000    124.12894   -6678.0737   -6358.7596   -6678.0737            0    6607.3003    23.087211    21.399039    21.448558    10596.534    6836.7009    6141.6197    6843.5803    29.226927    114.69436    12.779227   -5337.6702 
17726000     129.0183   -6684.4213   -6352.5296   -6684.4213            0    7453.6465    23.056034    21.357988    21.475707    10575.293    7239.8282    8110.4263     7010.685    336.40838   -609.13937   -658.70391   -5202.9552 
17727000    135.71742   -6672.2919   -6323.1672   -6672.2919            0    6567.1606    23.004663    21.306531    21.593533    10584.061    7338.3894    7111.7272    5251.3652   -345.50902   -990.91055   -700.97713   -5309.4755 
17728000    129.49262   -6662.3826   -6329.2707   -6662.3826            0    7145.8087     23.19849    21.291539    21.435269    10587.556    7732.1136    5958.3422    7746.9702    -188.5472   -299.51997    734.50284   -5225.8961 
17729000    135.42601   -6694.6277   -6346.2525   -6694.6277            0    5811.3801     23.21786    21.239535    21.566797    10635.376     5414.647    6706.4122    5313.0811    422.90433    105.46962   -455.78684   -5444.8723 
17730000    133.10066   -6672.9055   -6330.5121   -6672.9055            0    7084.0611    23.223662    21.181404     21.49924    10575.686    5968.0321    8231.6747    7052.4765    209.22782    6.5509697    649.60046   -5237.8982 
17731000    129.09435   -6666.4047   -6334.3174   -6666.4047            0    6569.2738    23.208371    21.217689    21.542601     10608.18    7003.1238     5994.212    6710.4855   -1324.9811    19.356975   -520.04892   -5317.9888 
17732000    130.67484   -6680.3312   -6344.1781   -6680.3312            0    6755.7288    23.266031    21.216756    21.443379    10585.089    6116.6227    6696.9573    7453.6064 -0.054142083    229.31874   -256.93221   -5301.2782 
17733000    126.89852   -6687.7077    -6361.269   -6687.7077            0    6253.9539    23.171088    21.244344    21.522971    10594.781    6114.6626    7343.3305    5303.8685   -731.04674    959.69194   -692.03522   -5394.9455 
17734000    126.82108   -6676.6461   -6350.4066   -6676.6461            0     7805.696    23.111851    21.251914    21.542409    10581.008    7570.7993    7804.7648     8041.524   -589.59463   -138.93852   -47.340664   -5145.8851 
17735000    129.64174   -6692.3723   -6358.8768   -6692.3723            0    5277.1807    23.306002    21.345399    21.382161     10637.11     5616.258    3808.2039    6407.0801   -19.622546   -295.47988    283.64422   -5540.2207 
17736000    128.84909   -6689.7281   -6358.2716   -6689.7281            0    6000.3349     23.06713    21.267134    21.663599    10627.549    6279.8371    7158.2283    4562.9394   -764.98321    237.16167    345.23464   -5428.2683 
17737000    130.67069   -6695.7982   -6359.6559   -6695.7982            0     7090.321    23.171463    21.330201    21.385312    10569.732    6156.7894    6817.8519    8296.3218    397.00561    759.33992    198.76033   -5266.6921 
17738000    135.05836   -6683.5359   -6336.1065   -6683.5359            0    6226.3194    23.061985    21.367615    21.528946    10609.026    6503.0187    5287.3329    6888.6067    420.15984   -327.45965     182.8279   -5372.7594 
17739000    124.85614   -6680.9864   -6359.8016   -6680.9864            0    5931.2407    23.123771    21.309529    21.569037    10628.287    4548.5492    6947.8404    6297.3325   -405.81718    906.80054   -15.594966   -5440.4435 
17740000    126.94654   -6672.8494   -6346.2871   -6672.8494            0     6701.044    23.166921    21.380998    21.403765    10601.967    7313.8443    5276.8088     7512.479   -622.57455   -161.46691   -692.54701   -5310.1797 
17741000    126.41657   -6687.5103   -6362.3114   -6687.5103            0    6537.4367    23.132085    21.264144    21.589495    10619.527    6004.6808    6851.2201    6756.4092   -651.00328   -318.16485   -547.51055   -5349.8265 
17742000    126.29658   -6682.8222   -6357.9319   -6682.8222            0    6833.9101    23.143328    21.258811    21.542946    10599.121    6722.8321     6780.944    6997.9541   -775.78849    444.62756    80.859717   -5301.5644 
17743000    122.37579   -6663.3836   -6348.5794   -6663.3836            0    5318.7241    23.243717    21.288585    21.569728    10673.259    4088.4068    7162.8667    4704.8988    -239.1653    65.955413   -813.14094   -5520.6746 
17744000    127.00532   -6675.4282   -6348.7148   -6675.4282            0    6946.7622    23.179405    21.307501    21.393741    10566.266    6625.9923    7538.0389    6676.2553     -104.801   -215.38301   -802.18307   -5278.2316 
17745000     136.3715   -6681.7006   -6330.8932   -6681.7006            0     5982.453    23.087241    21.336427    21.595416    10637.885    6668.0494    6007.9384    5271.3711   -28.747188   -178.90952   -861.92005   -5402.7596 
17746000    128.33851   -6688.0843   -6357.9413   -6688.0843            0    6568.7876    23.122046    21.341735    21.455218     10587.39    6691.2314    6111.4499    6903.6816   -199.29554   -868.36622   -28.293056   -5343.6795 
17747000    126.75571   -6678.2813     -6352.21   -6678.2813            0    6134.5581    23.179531    21.349537     21.46374     10621.81    5758.4168    6185.9322    6459.3254     175.9829   -290.45699   -576.23326   -5401.9166 
17748000    128.69897   -6680.8319   -6349.7617   -6680.8319            0    5720.0195    23.111297    21.305247    21.607191    10639.205    6134.1331    5240.4095    5785.5159   -499.46422   -46.301349    290.17471   -5462.2326 
17749000    130.04288   -6689.0529   -6354.5255   -6689.0529            0    7299.3533    23.266627    21.259502     21.36071    10565.795    6868.3043    7968.1385     7061.617     305.8877   -123.63727   -548.62448   -5229.7588 
17750000    132.61076    -6663.996   -6322.8629    -6663.996            0    7118.7166    23.170896    21.143693    21.641025    10602.334    7670.0932    7588.8945    6097.1622   -313.57781   -286.62198    -519.4188   -5222.1373 
Loop time of 495.204 on 64 procs for 250000 steps with 1296 atoms

Performance: 87.237 ns/day, 0.275 hours/ns, 504.842 timesteps/s
99.1% CPU use with 64 MPI tasks x 1 OpenMP threads

MPI task timing breakdown:
Section |  min time  |  avg time  |  max time  |%varavg| %total
---------------------------------------------------------------
Pair    | 30.176     | 41.428     | 53.151     | 111.6 |  8.37
Bond    | 0.27935    | 0.28724    | 0.29999    |   0.7 |  0.06
Kspace  | 239.21     | 250.99     | 262.24     |  45.6 | 50.68
Neigh   | 1.7767     | 1.7968     | 1.8195     |   0.8 |  0.36
Comm    | 89.246     | 90.198     | 91.22      |   5.0 | 18.21
Output  | 0.73847    | 0.74329    | 0.74504    |   0.1 |  0.15
Modify  | 96.062     | 99.349     | 102.24     |  24.4 | 20.06
Other   |            | 10.42      |            |       |  2.10

Nlocal:        20.2500 ave          27 max          12 min
Histogram: 2 2 6 4 13 5 12 9 8 3
Nghost:        2634.05 ave        2662 max        2601 min
Histogram: 2 2 6 4 15 6 16 7 5 1
Neighs:        6589.33 ave        8828 max        3936 min
Histogram: 2 4 4 10 7 8 9 13 4 3

Total # of neighbors = 421717
Ave neighs/atom = 325.39892
Ave special neighs/atom = 2.0000000
Neighbor list builds = 3357
Dangerous builds = 0

unfix		3
unfix		2
unfix		1

write_data	data.final.${pid}
write_data	data.final.0
System init for write_data ...
PPPM initialization ...
  extracting TIP4P info from pair style
  using 12-bit tables for long-range coulomb (../kspace.cpp:340)
  G vector (1/distance) = 0.37020274
  grid = 30 36 32
  stencil order = 5
  estimated absolute RMS force accuracy = 0.0039232669
  estimated relative force accuracy = 1.1814802e-05
  using double precision FFTW3
  3d grid and FFT values/proc = 4896 600
Last active /omp style is kspace_style pppm/tip4p/omp
WARNING: Not all mixed pair coeffs generated from mixing. Use write_data with 'pair ij' option to store all pair coeffs. (../write_data.cpp:312)

write_restart   restart.lmp.${pid}
write_restart   restart.lmp.0
System init for write_restart ...
PPPM initialization ...
  extracting TIP4P info from pair style
  using 12-bit tables for long-range coulomb (../kspace.cpp:340)
  G vector (1/distance) = 0.37020274
  grid = 30 36 32
  stencil order = 5
  estimated absolute RMS force accuracy = 0.0039232669
  estimated relative force accuracy = 1.1814802e-05
  using double precision FFTW3
  3d grid and FFT values/proc = 4896 600
Last active /omp style is kspace_style pppm/tip4p/omp
Total wall time: 0:08:15
