LAMMPS (30 Jul 2021)
  using 1 OpenMP thread(s) per MPI task
package omp 0
using multi-threaded neighbor list subroutines
echo both

include		in.partitions
variable        pid world 0
include		in.temp
variable        temperature equal 273.27
variable	tempDamp equal 100.0
include		in.pressure
variable        pressure equal 9750.0
variable        pressureDamp equal 1000.0 # This is 1 ps
include		in.seed
variable        seed world 745823

units		real
atom_style	full
read_restart	restart.lmp.${pid}
read_restart	restart.lmp.0
Reading restart file ...
  restart file = 30 Jul 2021, LAMMPS = 30 Jul 2021
  restoring atom style full from restart
  orthogonal box = (-0.091858293 -0.15608791 -0.071416320) to (24.821859 24.886089 22.881416)
  4 by 4 by 4 MPI processor grid
  restoring pair style lj/cut/tip4p/long/omp from restart
  restoring bond style harmonic/omp from restart
  restoring angle style harmonic/omp from restart
  1920 atoms
  1280 bonds
  640 angles
Finding 1-2 1-3 1-4 neighbors ...
  special bond factors lj:    0        0        0       
  special bond factors coul:  0        0        0       
     2 = max # of 1-2 neighbors
     1 = max # of 1-3 neighbors
     1 = max # of 1-4 neighbors
     2 = max # of special neighbors
  special bonds CPU = 1.810 seconds
  read_restart CPU = 2.121 seconds
include 	in.setup
variable	out_freq equal 1000
variable	out_freq2 equal 10000
variable	out_freq3 equal 1000

timestep	2.0

neigh_modify    delay 7 every 1

include		in.tip4p
# This is TIP4P/Ice

# create groups ###
group ox type 2
640 atoms in group ox
group hy type 1
1280 atoms in group hy

# set charges - beside manually ###
set group ox charge -1.1794
Setting atom values ...
  640 settings made for charge
set group hy charge 0.5897
Setting atom values ...
  1280 settings made for charge

# ### TIP3P Potential Parameters ###
pair_style lj/cut/tip4p/long/omp 2 1 1 1 0.1577 8.5
pair_coeff 1 1*2 0.000 0.000
pair_coeff 2 2 0.21084 3.1668
bond_style  harmonic
bond_coeff  1 450 0.9572
angle_style harmonic
angle_coeff 1 55 104.52
kspace_style pppm/tip4p/omp 1.0e-5
pair_modify tail yes

thermo          ${out_freq}
thermo          1000
thermo_style    custom step temp pe etotal epair emol press lx ly lz vol pxx pyy pzz pxy pxz pyz enthalpy

restart 	${out_freq3} restart.lmp.${pid} restart2.lmp.${pid}
restart 	1000 restart.lmp.${pid} restart2.lmp.${pid}
restart 	1000 restart.lmp.0 restart2.lmp.${pid}
restart 	1000 restart.lmp.0 restart2.lmp.0


include         in.dump
dump            myDump all atom ${out_freq2} dump.water.${pid}
dump            myDump all atom 10000 dump.water.${pid}
dump            myDump all atom 10000 dump.water.0
dump            myDump2 all dcd ${out_freq2} dump.dcd
dump            myDump2 all dcd 10000 dump.dcd
dump_modify     myDump append yes
dump_modify     myDump2 append yes


variable natoms 	equal  "count(all)"                        # NUMBER ATOMS
variable H      	equal  "enthalpy/v_natoms"                 # ENTHALPY-per-atom
variable Vol      	equal  "vol/v_natoms"                 # volume-per-atom
fix AVG all 		ave/time ${out_freq} 1 ${out_freq} v_Vol v_H file vol_enthalpy.dat
fix AVG all 		ave/time 1000 1 ${out_freq} v_Vol v_H file vol_enthalpy.dat
fix AVG all 		ave/time 1000 1 1000 v_Vol v_H file vol_enthalpy.dat




fix 		1 all shake 1e-6 200 0 b 1 a 1
       0 = # of size 2 clusters
       0 = # of size 3 clusters
       0 = # of size 4 clusters
     640 = # of frozen angles
  find clusters CPU = 0.363 seconds
fix             2 all nph aniso ${pressure} ${pressure} ${pressureDamp}
fix             2 all nph aniso 9750 ${pressure} ${pressureDamp}
fix             2 all nph aniso 9750 9750 ${pressureDamp}
fix             2 all nph aniso 9750 9750 1000
fix             3 all temp/csvr ${temperature} ${temperature} ${tempDamp} ${seed}
fix             3 all temp/csvr 273.27 ${temperature} ${tempDamp} ${seed}
fix             3 all temp/csvr 273.27 273.27 ${tempDamp} ${seed}
fix             3 all temp/csvr 273.27 273.27 100 ${seed}
fix             3 all temp/csvr 273.27 273.27 100 745823


run             250000
PPPM initialization ...
  extracting TIP4P info from pair style
  using 12-bit tables for long-range coulomb (../kspace.cpp:340)
  G vector (1/distance) = 0.37436571
  grid = 30 30 30
  stencil order = 5
  estimated absolute RMS force accuracy = 0.0032834058
  estimated relative force accuracy = 9.887879e-06
  using double precision FFTW3
  3d grid and FFT values/proc = 3600 512
Last active /omp style is kspace_style pppm/tip4p/omp
Neighbor list info ...
  update every 1 steps, delay 7 steps, check yes
  max neighbors/atom: 2000, page size: 100000
  master list distance cutoff = 10.8154
  ghost atom cutoff = 10.8154
  binsize = 5.4077, bins = 5 5 5
  1 neighbor lists, perpetual/occasional/extra = 1 0 0
  (1) pair lj/cut/tip4p/long/omp, perpetual
      attributes: half, newton on, omp
      pair build: half/bin/newton/omp
      stencil: half/bin/3d
      bin: standard
Per MPI rank memory allocation (min/avg/max) = 9.330 | 9.339 | 9.344 Mbytes
Step Temp PotEng TotEng E_pair E_mol Press Lx Ly Lz Volume Pxx Pyy Pzz Pxy Pxz Pyz Enthalpy 
 1000000    285.64872    -9057.398   -7968.3748    -9057.398            0    9367.4467    24.913718    25.042177    22.952833    14320.128    9971.4695    8421.7493    9709.1214   -489.80156    405.04974   -23.320643   -6012.0362 
 1001000    274.39961   -9051.0716   -8004.9352   -9051.0716            0    10968.302    24.866035    24.963448    22.944466    14242.593    11828.133    10657.541    10419.233    486.42887    -1051.068    874.12581   -5726.6695 
 1002000    276.05206    -9047.415   -7994.9786    -9047.415            0    10570.411    24.896012    25.011601    22.936809    14282.501    11709.449    9416.8095    10584.974   -673.90696    1522.7399    417.48678   -5793.2083 
 1003000    280.20632   -9062.7977   -7994.5235   -9062.7977            0    10455.057    24.862109     24.88676    23.066225    14271.935    10321.752    11039.003    10004.418   -1166.6314   -102.24251    1438.9881   -5818.3918 
 1004000    269.35603   -9085.1221    -8058.214   -9085.1221            0    8207.5763    25.047799    24.946372     23.00093     14372.17    6595.9554    9677.1803    8349.5931    245.72779   -927.64929   -1036.1764   -6337.8785 
 1005000    271.81676   -9041.2643   -8004.9748   -9041.2643            0    8994.0151    25.014658    24.912809    23.034243    14354.604    8175.4694     9388.308     9418.268    546.60204    1141.5567    648.78543   -6122.1032 
 1006000     287.1511   -9066.4813   -7971.7303   -9066.4813            0    9025.4947    25.097125     25.03049    22.836651    14345.832    8658.3247    8222.0919    10196.068   -145.24275   -54.013455    -770.5379   -6083.4231 
 1007000    274.71829   -9081.3865   -8034.0351   -9081.3865            0    9191.8573    24.940238    24.921898    23.043028     14322.58    8888.0205    8935.8915    9751.6598   -757.47014    875.87739    46.172366   -6114.0386 
 1008000     264.3488   -9039.6424   -8031.8242   -9039.6424            0    8995.0675    25.065016    25.016511    22.865635     14337.65    9300.8817    8936.3851    8747.9357   -424.76062    95.057383   -2.7439249   -6150.9562 
 1009000    278.07315   -9019.8848   -7959.7431   -9019.8848            0    9471.0448    24.940573    25.019505    22.956054    14324.596    10065.494    8981.5549    9366.0854    -144.3736    1062.0512   -519.29622   -5981.1515 
 1010000    284.83386   -9064.3511   -7978.4345   -9064.3511            0    10111.228    24.763727    25.023745    23.038478    14276.511    12291.178    9326.8483     8715.658   -499.67279    374.81128    744.09538   -5873.1931 
 1011000    271.29196   -9046.8924   -8012.6037   -9046.8924            0    9812.6385    24.902701     25.10021    22.902476    14315.491     10237.02    9296.3889    9904.5064    341.66661   -923.84768    280.45571   -5963.9529 
 1012000    274.96613    -9016.529   -7968.2327    -9016.529            0    9405.2434    24.932574    25.025067    23.070905    14394.845    10093.586    8199.1295    9923.0149   -742.34834    514.14668    135.98052   -5993.7518 
 1013000     273.8482   -9029.9007   -7985.8664   -9029.9007            0    8106.1896    24.938252    24.937619    23.145431    14394.158    8884.3139    8940.4423    6493.8125   -291.42867   -142.67275    446.53849   -6284.1824 
 1014000      250.233   -9013.7084   -8059.7061   -9013.7084            0     9628.251    25.055043    24.990398    22.908525    14343.841    9455.9071    9340.5837    10088.262   -9.9541708    58.449231    127.94182   -6045.5703 
 1015000    271.21334    -9053.144    -8019.155    -9053.144            0    9557.7586    24.912806    24.989338     23.00505    14321.898    10231.951    9801.3123    8640.0123   -194.21383     978.7249   -327.94929   -6022.8241 
 1016000    286.27062   -9089.4936   -7998.0994   -9089.4936            0    9385.0821    24.934154    24.897288    23.050738    14309.732    11014.105    9023.3806    8117.7608   -721.24229    82.933607    846.80321   -6039.5006 
 1017000    273.42124   -9048.9252   -8006.5187   -9048.9252            0     9819.664    25.054442     24.98317     22.85093    14303.297     8937.406    9416.4573    11105.129   -1263.5341   -39.816416    632.40441   -5958.1475 
 1018000    269.04013   -9075.0793   -8049.3757   -9075.0793            0    9281.6534    24.944933    24.746298    23.197023      14319.4     9829.356    10524.254    7491.3498    -288.2493   -75.949386    1161.8896   -6111.0531 
 1019000    267.13351   -9033.3296   -8014.8948   -9033.3296            0    11009.469    24.937467    24.919989    22.922486    14244.982    11571.587    9955.6971    11501.123   -39.876015    161.96312    185.15317   -5727.6947 
 1020000    267.98989   -9045.2921   -8023.5925   -9045.2921            0     11429.28     24.91905    24.843461    22.941872     14202.75    10667.659    12401.791    11218.389   -21.973747     750.9128   -12.316781   -5656.2167 
 1021000    270.73128   -9049.3237   -8017.1726   -9049.3237            0    10866.126     24.92271    24.885949    22.944587    14230.813    12042.784    11068.605    9486.9895   -402.65491   -1114.5222     309.8746    -5761.997 
 1022000    275.47654   -9023.9108   -7973.6686   -9023.9108            0      10110.5    24.969461    25.011088    22.858525    14275.455    9366.0916    9493.0113    11472.397    1119.0462    683.42162    65.201134   -5868.7346 
 1023000    263.99942    -9062.154   -8055.6678    -9062.154            0    9014.4104    24.928985    24.874772    23.106036    14328.118    8608.8696    9554.6951    8879.6666   -1081.2282   -534.04689   -1224.2809   -6172.0085 
 1024000    280.43016   -9007.6164   -7938.4887   -9007.6164            0    9338.4046    24.997779    25.031568    22.950211    14360.718    9616.2045    8917.3377    9481.6715    335.81228    -681.9793    943.05604   -5982.6874 
 1025000    270.08255   -9029.7831   -8000.1053   -9029.7831            0    8368.1066    24.991431    25.132831    22.929939    14402.419    7753.6191    8063.8479    9286.8529    239.82355   -926.88255   -89.922483   -6242.4304 
 1026000    275.26471   -9020.4649   -7971.0303   -9020.4649            0    10025.691    24.840699    24.917329    23.165465    14338.585    10818.301    9442.5536    9816.2172    113.08296    521.76891   -1110.6545   -5874.5224 
 1027000    267.35643   -9020.3937    -8001.109   -9020.3937            0    7998.9748    25.002553    25.010432    23.034454    14404.012    7903.4672    7604.0236    8489.4335   -342.60815    233.53405    326.10255   -6320.7825 
 1028000    273.18546     -9075.97   -8034.4624     -9075.97            0    9029.8112    25.103304    24.948749    22.919899    14354.642    8297.5005    9667.0946    9124.8384   -450.71515     302.4256    487.85058    -6144.092 
 1029000    266.63168   -9056.9208   -8040.3992   -9056.9208            0    8176.5593    25.030575    24.933217    23.050175    14385.448    7002.1388    9885.3392       7642.2     157.3473   -995.84777    695.93483   -6324.9816 
 1030000    279.41967   -9039.3621   -7974.0869   -9039.3621            0    8517.6565    24.934094     24.94687    23.108354    14374.034    8112.6479    9407.9937    8032.3278    40.485123   -173.00527    444.22331    -6188.526 
 1031000    271.50103   -8994.0053   -7958.9196   -8994.0053            0    8322.5429    25.084168    25.103459    22.904759    14423.113     7529.444    8265.5095    9172.6753   -229.15982    1332.0588    101.73699   -6208.3034 
 1032000    284.95176   -9059.6193   -7973.2533   -9059.6193            0    8396.8623     25.05651    24.979514     22.99008    14389.478    7484.3263    8138.9859    9567.2746    10.231527   -136.70902     1036.835   -6211.1232 
 1033000     282.7247   -9076.6098   -7998.7343   -9076.6098            0    9271.6064    25.009697    24.885362    23.062129    14353.301    9827.1899    8878.6711    9108.9582    -436.9477   -130.51688   -127.09738   -6057.9259 
 1034000    262.69241   -9063.7741   -8062.2708   -9063.7741            0    9627.9022    24.982962    24.953818    22.990294    14332.615    9029.9531    11078.077     8775.677    273.09973   -53.629092    628.76435   -6049.7841 
 1035000    263.89937   -9090.4253   -8084.3205   -9090.4253            0     8745.073    24.993439    24.957755    22.954945    14318.838     8383.709    8495.9583    9355.5516   -444.19857    435.25316   -581.37628   -6258.1257 
 1036000    272.88918    -9072.426    -8032.048    -9072.426            0    9589.2906    24.879815    24.912065    23.103392    14319.657    9308.4322    9256.3989    10203.041   -168.02666   -802.68826    80.027041   -6029.4443 
 1037000     274.7333   -9054.9583   -8007.5496   -9054.9583            0    10029.243    24.988631    24.894432    22.936684    14268.402     10082.47    10602.088    9403.1714   -160.91791   -267.31588   -429.38303   -5920.5643 
 1038000    289.04071   -9072.1345   -7970.1795   -9072.1345            0    10555.012     25.05559    24.833167    22.892612    14244.004    9237.9016    11765.139    10661.997   -669.08982   -1327.7708   -1460.9992   -5777.5425 
 1039000    265.60933   -9036.9465   -8024.3226   -9036.9465            0    9932.0501     24.99262     24.86899     23.00985     14301.57    8815.6335    9946.2285    11034.288    324.83032   -490.44464   -396.28466   -5952.7579 
 1040000    275.17464   -9064.0098   -8014.9185   -9064.0098            0    10865.428    24.914056    24.861595     22.98291    14235.687    11363.314    10932.722    10300.249   -548.82603   -337.44984   -324.01722   -5759.1156 
 1041000    271.80589   -9087.2568   -8051.0088   -9087.2568            0    9915.8694    24.936266    24.819698    23.068047    14277.059    9665.9613    11296.036    8785.6111   -176.83045   -790.33411    575.10435   -5986.3636 
 1042000    272.51335   -9065.6138   -8026.6686   -9065.6138            0    8657.5208    25.066324    24.939724    22.939346    14340.468    7863.1597    9055.0834    9054.3193   -1483.3069    648.14826   -16.193504   -6216.0259 
 1043000    269.68008   -9019.1224    -7990.979   -9019.1224            0     9692.961    24.961854    24.921245    23.078804    14356.873    9954.2206    9795.7792    9328.8833    351.12982   -657.47187    149.66247   -5961.4642 
 1044000    270.11002   -9050.2895   -8020.5069   -9050.2895            0    9950.0996    24.964719    24.894287    22.998132    14292.853    9728.7316    11275.642    8845.9254   -413.57556   -570.43778    867.42491   -5946.4424 
 1045000     262.1797   -9069.6064   -8070.0578   -9069.6064            0    10121.537    25.061274    24.918962    22.826211     14254.99    9092.6003    11022.171    10249.841    -1025.561     256.2175   -296.08027   -5965.8469 
 1046000     283.1638   -9034.1524   -7954.6029   -9034.1524            0    9877.8291    24.971975    24.877062    23.048521    14318.418    11155.658    10173.398    8304.4306    1068.2874    117.88557    41.609849   -5891.9201 
 1047000    274.40761   -9069.2068   -8023.0398   -9069.2068            0    10305.236    25.000566    24.868034    22.918735     14248.92    10610.451    9914.1463    10391.111     717.1446   -445.51761   -732.10996   -5881.5513 
 1048000     271.5403   -9069.9557   -8034.7203   -9069.9557            0    9176.3865    24.957351     24.98536    22.986254    14333.502    8682.6829    9974.0043    8872.4724     48.33705   -64.037449   -528.22326   -6116.4937 
 1049000    278.66629   -9051.8091   -7989.4061   -9051.8091            0    7943.1234     24.98275    25.015878    23.022055    14387.988    7763.4916    9033.2473    7032.6312   -1307.3974    319.37835   -612.51287   -6322.6683 
 1050000     279.4963   -9030.7583    -7965.191   -9030.7583            0    10551.296    24.914742    25.114034    22.807274    14270.732     10108.23    10276.213    11269.444   -1025.8791   -279.40069   -426.79597   -5769.2132 
 1051000    274.56102   -9046.6828    -7999.931   -9046.6828            0    8762.6992    24.929569    25.035109    22.985567    14345.625    10117.635    7181.9595    8988.5034   -555.29437    355.98082    929.14231   -6166.6322 
 1052000    269.08697   -9043.9764   -8018.0942   -9043.9764            0    10418.667    24.867678    25.028134    22.987125    14306.993    12354.503    8595.5876    10305.911    -182.1461    219.49989    -266.5021   -5844.2099 
 1053000    267.77308   -9041.5046   -8020.6315   -9041.5046            0    9408.8304    24.772763    25.173216    22.970617    14324.709     11285.64    9202.3376    7738.5137   -392.64618   -384.76047    218.19358   -6055.0216 
 1054000    269.34368   -9018.8867   -7992.0258   -9018.8867            0    9691.5303    24.864088    25.073012    22.985177    14329.364    10087.886    9216.1734    9770.5321   -1239.7915   -670.17052   -1287.9599   -5966.6988 
 1055000    271.08921   -9016.6465   -7983.1309   -9016.6465            0    10493.519    24.752332    24.981585     23.09485    14280.758    11459.764    9777.6128    10243.181   -235.91998   -473.36732    75.802215   -5797.6434 
 1056000      287.766   -9056.0327   -7958.9375   -9056.0327            0    10303.109    24.961725    25.037242    22.859367    14286.481    9682.3578    9456.9658    11770.002   -452.58591    1064.4774   -877.97582    -5812.247 
 1057000    271.23795   -9034.4552   -8000.3724   -9034.4552            0    10396.315    24.891958     24.90773    23.050466    14291.339    11410.783    9006.7533    10771.408    259.08812   -569.94837   -1218.0386   -5833.5255 
 1058000    269.05161   -9054.9557   -8029.2083   -9054.9557            0    10002.619    24.970956     24.92778    22.956579    14289.794    10861.929    9935.8938    9210.0348   -551.33882    675.98776   -1076.0288   -5944.6426 
 1059000    272.36226   -9038.6531   -8000.2839   -9038.6531            0    10078.535    25.036164    24.911456    22.887042    14274.357    8274.4944    11614.741    10346.369    222.92814    -377.3853    150.14606   -5902.1662 
 1060000    270.27735   -9090.9143   -8060.4938   -9090.9143            0    9382.3114     24.91176    24.912109    23.079209     14323.06    10104.399    9381.7859     8660.749   -37.807666   -185.93475   -1071.1576   -6100.6496 
 1061000    272.04646   -9058.7113   -8021.5461   -9058.7113            0    8309.6929    25.013012    24.977622     23.01906    14381.516    8913.6713    8558.2905     7457.117   -14.517262   -437.52482   -300.01051    -6278.674 
 1062000     275.4124   -9057.5847   -8007.5871   -9057.5847            0    9583.7635    24.984056     24.91417    22.976276    14301.744    10028.175     9145.946    9577.1691   -33.553307   -653.22023    295.95082   -6008.6414 
 1063000    280.80202   -9023.6067   -7953.0614   -9023.6067            0    9601.7756    24.897096    24.980932    23.047972    14334.748    9854.8831    10328.638    8621.8053   -772.27226    258.01091    776.99477   -5945.7373 
 1064000    279.38047   -9051.1984   -7986.0726   -9051.1984            0    9639.1614    24.968144    25.029021     22.92037    14323.586    10312.076    8502.6024    10102.806    -47.29311    161.31334   -421.71225   -5972.5019 
 1065000     258.5838   -9053.6807   -8067.8413   -9053.6807            0    9583.7609    24.834352    24.970681    23.056757    14298.203    10645.646    9044.9886    9060.6479    100.40434   -466.32642      363.225   -6069.3912 
 1066000    278.24574   -9001.0201   -7940.2205   -9001.0201            0    9280.9208    25.013297    25.069528    22.947559    14389.762    8538.1883     8792.912    10511.662   -720.42836   -361.14667   -386.35374   -5992.5273 
 1067000    274.87329   -9103.9825   -8056.0401   -9103.9825            0    9720.2588    24.990646    24.865109    22.954447    14263.781    8127.8991    11332.448    9700.4292   -230.68485   -1162.0578    -424.7517   -6034.0065 
 1068000    271.09916     -9076.23   -8042.6764     -9076.23            0    10129.181    24.966053    24.783954    23.111384    14300.342    9695.5909    10371.521    10320.429   -124.99517   -503.82054    257.55571   -5930.1768 
 1069000    270.60769   -9071.9281   -8040.2482   -9071.9281            0    10901.518    25.027696    24.819195    22.917233    14235.435    10401.039     11662.27    10641.244   -293.51445   -5.7881845    -484.6074   -5776.9925 
 1070000    268.33924   -9059.9596    -8036.928   -9059.9596            0    10036.633    25.014428    24.889641    22.931162    14276.944    9131.8547     10761.29    10216.753    -1003.914   -1316.9224    1496.8701   -5947.1547 
 1071000    274.84648   -9057.2094   -8009.3693   -9057.2094            0    8655.0922      25.0401    24.856469    23.082093     14366.49    7916.4318    9663.9676    8384.8771   -366.77766    167.75888    345.92752   -6195.9499 
 1072000     265.8236    -8983.365   -7969.9242    -8983.365            0    9165.5907     25.05484    25.007075    22.933729    14369.088    8020.0752    9296.9287    10179.768    673.72739    466.19684    92.314664   -6049.1976 
 1073000    262.08688    -9091.109   -8091.9143    -9091.109            0    8107.7679    24.979722    24.952232    23.072991    14381.391    7599.2632    8171.3126     8552.728     244.7459    751.48275    1165.3757   -6391.4085 
 1074000    281.68956   -9071.7802   -7997.8511   -9071.7802            0     9185.456    25.071223    24.909299    22.972469    14346.458    7690.7219    10171.399    9694.2471   -717.82384   -1113.0367    1174.2041   -6075.9931 
 1075000    279.91773   -9044.2747   -7977.1006   -9044.2747            0    9241.6847    25.110001    24.885255    22.951687    14341.792    7547.0738    9985.1642    10192.816    1107.8233   -1409.2442    16.314648   -6044.1068 
 1076000    278.98051    -9072.191   -8008.5901    -9072.191            0    9790.0733    24.874035    24.883404    23.080667    14285.794    10071.434     10395.53    8903.2554   -269.04509   -648.85908   -595.17499   -5968.8904 
 1077000    261.19247   -9050.6812   -8054.8964   -9050.6812            0    10529.011    25.001356    24.942126    22.892629    14275.545     11506.95    9167.7446    10912.339    296.53804    1152.5055    333.55732   -5862.8176 
 1078000    274.30232   -9012.7664   -7967.0008   -9012.7664            0    9869.6155    24.992036    25.083873      22.8977      14354.5    10481.295     9319.334    9808.2174   -58.289958    170.20103    213.32912   -5900.8396 
 1079000     269.3588   -9059.1296   -8032.2111   -9059.1296            0    9566.3532    24.913613    24.930958    23.046699    14314.772    10840.674    8974.8996    8883.4864     529.8131    -420.1197    -927.0343   -6035.0793 
 1080000    271.72724   -9054.8366   -8018.8884   -9054.8366            0    8904.0287    24.995367    24.983109    22.969353    14343.488    9412.3413    8845.1019    8454.6428   -1.2688026   -1128.4713    -139.9981   -6156.2987 
 1081000    284.82427   -9066.8819   -7981.0019   -9066.8819            0    9246.9313    24.878558    25.033649    23.034613    14345.982    9706.7291    8431.4894    9602.5752    134.90196    94.032271    149.42112   -6046.3457 
 1082000     265.2167    -9032.454    -8021.327    -9032.454            0    9473.2238    24.875432    24.970962    23.076334    14334.176    9868.0365    9582.9929     8968.642   -228.92677   -157.98926   -1036.3726   -6040.9567 
 1083000    273.72306   -9106.0663   -8062.5091   -9106.0663            0    9247.4225    24.949859    25.061784    22.824219     14271.71    9603.8812    8735.0874    9403.2988   -1151.8649   -130.42977   -218.67696   -6137.7668 
 1084000    277.52015   -9010.1805   -7952.1471   -9010.1805            0    9881.6543    24.850153    24.897313    23.180677    14341.932    11506.296    10081.485    8057.1821    8.7630691   -525.78109    189.96501   -5885.2768 
 1085000     269.8333   -9054.9846    -8026.257   -9054.9846            0     9800.154    24.960702    25.015271    22.916955    14309.318     10758.61    8585.6425     10056.21   -745.87859    342.46281   -262.66267    -5981.095 
 1086000    278.87186   -9065.8229   -8002.6362   -9065.8229            0    8998.2441    25.057987    25.040531    22.928535     14386.86    8555.0773    7674.1967    10765.458   -58.027412   -111.84559   -278.70265   -6114.6462 
 1087000    277.48311   -9071.8635   -8013.9714   -9071.8635            0    9727.5938    24.855446    24.912303    23.071478    14286.007    9282.6899    10579.268    9320.8236   -13.913814    221.40734    695.09553   -5987.2588 
 1088000    290.13609   -9063.8188   -7957.6877   -9063.8188            0    10796.869    24.861571    24.979284      22.9513    14253.314    10426.537    10925.311    11038.759    416.09156   -481.57727    65.251933   -5713.3429 
 1089000    263.56237   -9066.3456   -8061.5256   -9066.3456            0    12054.976    24.890347    24.883421    22.884038    14173.389    11861.195    12692.463    11611.269   -96.577994   -41.388008   -710.02173   -5569.7099 
 1090000     278.7412   -9049.5911   -7986.9025   -9049.5911            0    11627.148    24.888006    24.845269    23.040545    14247.103    11259.817    12978.869    10642.758    171.87082    399.71486     220.9006   -5571.0208 
 1091000    266.80019   -9058.4914   -8041.3274   -9058.4914            0    10269.632    25.004704    24.918301    22.893247    14264.204    9921.3848    10168.148    10719.363     260.8048    927.60372   -1167.9862   -5904.9483 
 1092000    279.97411   -9071.8001   -8004.4111   -9071.8001            0    9444.5357    25.067884    24.865966    22.977981    14323.029    8082.8326    10286.477    9964.2974    -31.74395   -934.92387   -850.57071   -6031.5733 
 1093000    270.13346   -9030.9556   -8001.0836   -9030.9556            0    8925.5643     25.01519    24.952871    23.019636    14368.875    8921.2177    8781.3336    9074.1416   -275.19774   -296.21872   -637.09543   -6130.6843 
 1094000    264.48204   -9032.1844   -8023.8582   -9032.1844            0    10437.302    24.933132    25.117836    22.808323    14284.085    10458.703    9491.0396    11362.164    777.41923   -1074.2665    986.67032   -5849.5727 
 1095000     266.6864   -9097.0292    -8080.299   -9097.0292            0    10218.456    24.887157     24.92622    22.952879    14238.652    11366.654     9285.438    10003.275    73.477569   -531.22446    -1135.861    -5958.374 
 1096000    273.15561    -9053.827   -8012.4333    -9053.827            0    10046.556    24.865775    24.910757    23.059554    14283.671    10292.037    10161.517    9686.1146    115.72676    1120.1988    367.62708   -5919.6082 
 1097000    281.40595   -9069.8956   -7997.0478   -9069.8956            0      9645.69    24.998198    24.915098    22.984937    14315.767    8816.0417    11283.271     8837.757   -215.42186   -200.63028    116.67042   -5983.2131 
 1098000    261.48703   -9070.2384   -8073.3306   -9070.2384            0    8707.3019    25.087327    24.927083    22.948602    14350.997    8133.1446    8773.9178    9214.8432    14.505926    1105.5665    918.69482   -6250.9395 
 1099000    281.67241      -9072.2   -7998.3363      -9072.2            0    8617.4255    24.952019    24.934105    23.103291    14373.858    7980.3038    9897.2155    7974.7573    -923.0699   -541.28347   -245.22009   -6191.8829 
 1100000    272.88562   -9085.9981   -8045.6336   -9085.9981            0    10275.928    24.914943    25.044522    22.899126    14288.661    11020.826    8830.5246    10976.434    31.675813   -245.32785    1422.1431   -5904.2795 
 1101000    279.75974   -9088.9652   -8022.3934   -9088.9652            0     9610.772    24.891421    24.953787     22.97649    14271.507    9951.0897    9360.7191    9520.5072    5.6591545   -1080.2198   -1129.9852   -6022.0526 
 1102000    269.68445   -9003.0867   -7974.9266   -9003.0867            0    9251.6226    24.944463    25.001041    23.051989    14376.086    9287.3531    9117.3629    9350.1518   -875.21174     210.9384    1396.2079   -6035.2271 
 1103000    273.72473    -9048.275   -8004.7115    -9048.275            0    8063.8247    24.904969     25.13619    23.034853    14420.187    8337.0508    5904.9381    9949.4851    487.92838    -809.6063   -549.89625   -6308.8598 
 1104000    273.83959     -9064.88   -8020.8786     -9064.88            0    7934.7478    24.992367    25.169359    22.920889    14418.198    8412.5492    6732.4826    8659.2118   -143.25857    -1409.172   -164.77579   -6352.4024 
 1105000    277.63456   -9059.4092   -8000.9396   -9059.4092            0    7986.4038     24.94735    24.974043      23.1291    14410.266    9681.2312    7116.6241    7161.3561    402.60172   -166.53816    680.72427   -6322.5254 
 1106000     262.5981   -9042.7537   -8041.6099   -9042.7537            0    9496.1867    25.076047    25.031832    22.809581     14317.56    8716.3397    9279.4082    10492.812    65.915187   -971.87629   -328.25398   -6058.7403 
 1107000    276.89423   -9059.3199   -8003.6728   -9059.3199            0     9113.039    24.972955    24.951035    22.995148    14328.301    8615.6212    9798.6218     8924.874    198.26477   -451.23022     1333.613   -6099.3795 
 1108000    276.29449   -9060.5509   -8007.1903   -9060.5509            0     9953.316    24.919812    24.800953    23.167415    14318.275    10076.582    11260.077    8523.2887    -603.6779    106.85999   -316.33846   -5928.7652 
 1109000    267.97736   -9056.7333   -8035.0814   -9056.7333            0    8524.8674    25.053431    25.037183    22.880891    14352.435    8189.1653     9477.254    7908.1831    490.61713   -1240.6184   -697.64389   -6250.6941 
 1110000    265.33491   -9049.7832   -8038.2055   -9049.7832            0    8868.6154    24.828102    24.898959     23.19632    14339.823    9931.8026    9473.3788    7200.6646   -879.09046   -927.71202   -108.18255   -6183.4976 
 1111000    271.53021   -9044.9185   -8009.7215   -9044.9185            0    9516.4118    24.970911    24.969639    22.974891     14325.18    9687.9055    9815.7426    9045.5872   -650.29275   -307.96531   -511.25793   -6021.5712 
 1112000    281.72179   -9070.4271   -7996.3752   -9070.4271            0    8943.4615    25.136243    24.917558    22.856829    14316.005     8241.542    9603.4009    8985.4417   -30.960117   -9.2528016    1031.2855   -6129.1213 
 1113000    269.59068   -9045.2394   -8017.4367   -9045.2394            0    9172.6526    24.918869    24.877157    23.142608    14346.349    9865.9852    9173.7312    8478.2414    75.871662    1539.1765   -134.77818   -6098.2722 
 1114000    276.29672   -9000.6138   -7947.2447   -9000.6138            0    9420.6341    25.050953    25.031206    22.873624    14343.033    9465.1276    8802.2633    9994.5115   -240.68587    900.48623    322.06084   -5976.6512 
 1115000    282.60145   -9031.1278   -7953.7222   -9031.1278            0    9410.8991    24.889071     24.87589    23.149371    14332.651    10869.396    9049.0024    8314.2993   -248.55589   -761.94044   -718.63075   -5986.5901 
 1116000    274.04033   -9078.6315   -8033.8648   -9078.6315            0      11029.1    24.936743    24.899564    22.911246    14225.914    10693.933    11439.821    10953.548   -64.936627    524.91626   -491.73226   -5745.6533 
 1117000    264.25579    -9075.547   -8068.0834    -9075.547            0    10920.655    24.860477    25.013142    22.893126     14235.83    10851.016    10250.346    11660.603    256.97408    550.51052    282.16043   -5800.7919 
 1118000    268.89442   -9089.6565   -8064.5083   -9089.6565            0     10212.77    24.814621    24.929074    23.066908    14269.317    9308.4237    11357.569    9972.3161    630.36286    -31.31904   -187.77778   -5939.1967 
 1119000    266.09057   -9015.0405   -8000.5819   -9015.0405            0     11303.42    24.869325    25.039894    22.836287    14220.733    11290.944    10371.734    12247.583   -600.77966   -1065.5783   -274.08294   -5656.3113 
 1120000    271.21648   -9065.0171   -8031.0162   -9065.0171            0    9835.2827    24.844684    24.997419    23.022088    14297.936    10948.823    8774.3957    9782.6291     66.98718   -217.86684    145.90934   -5980.1558 
 1121000    272.61903    -9073.024   -8033.6759    -9073.024            0    9850.2538    24.860579    25.136117    22.898432    14309.194    11234.341    8536.9938    9779.4269   -3.4077889    509.84094    81.621344   -5978.0766 
 1122000     275.7168   -9042.2636   -7991.1054   -9042.2636            0    8848.6119    24.936266     24.98768    23.062552    14370.263    9041.8804    8171.1096    9332.8459   -301.53144    339.89203      799.165   -6136.6527 
 1123000    275.63191   -9103.1435   -8052.3089   -9103.1435            0    8577.8358     25.02834    24.930315    22.933353    14309.596    8242.4887    9179.5641    8311.4545   -179.32502     1166.635    1349.7792   -6262.1936 
 1124000    281.51608     -9036.91   -7963.6423     -9036.91            0    10089.204    25.005829     24.75438    23.093091    14294.711    9789.6344    11738.772    8739.2043    795.88035   -1102.2677   -1181.4188   -5860.3088 
 1125000    274.22515   -8986.6415   -7941.1702   -8986.6415            0    11367.988    24.973417    24.872382    22.961423    14262.451     10966.68    12231.202    10906.083   -224.96447   -973.79354    138.76223    -5576.592 
 1126000    278.78157   -9071.2632   -8008.4207   -9071.2632            0    11402.662    24.835135    24.865803    23.011735    14210.795     11885.33    11370.112    10952.545   -284.19246   -705.63731    1061.0821   -5645.2204 
 1127000    272.25024   -9022.3192   -7984.3771   -9022.3192            0    11435.719    24.914649    24.976438     22.87475     14234.48    12380.668    10202.461    11724.026    769.90442   -1105.3796   -213.11977   -5610.3757 
 1128000    278.19346   -9072.8604     -8012.26   -9072.8604            0    11252.107     24.79824    24.897576    22.979821     14188.11    12438.711    11012.428    10305.182    704.43464   -119.96479    209.23209   -5683.9849 
 1129000    281.29103   -9054.7149   -7982.3052   -9054.7149            0    10919.203    24.864056    24.998168    22.944461    14261.264    11168.285    10883.553    10705.771    24.910028    344.22116   -275.93054   -5711.2648 
 1130000    268.33535   -9070.7454   -8047.7287   -9070.7454            0    10655.691    24.737185    25.051771    23.020454    14266.013    12128.446     9302.119    10536.509    616.49707   -936.89449    667.94106   -5830.7571 
 1131000     260.1068   -9035.8315   -8044.1857   -9035.8315            0    10958.615    24.963387    24.983114    22.849724    14250.531    11051.409    10651.245     11173.19   -352.96441     477.4046    1114.9882   -5766.6636 
 1132000    267.09898   -9031.3696   -8013.0665   -9031.3696            0    9233.9659     25.01727      24.8396    23.125975     14370.92    7672.2483    12270.207    7759.4422   -875.03247    645.24188    655.25343   -6077.7646 
 1133000     263.8562   -9034.2823   -8028.3422   -9034.2823            0    8086.6451      25.0521    25.002039     23.01805    14417.438    7405.7634    9069.1079    7785.0642    -323.9313    169.34731   -1170.1785   -6328.0155 
 1134000     264.3199    -9065.718     -8058.01    -9065.718            0    8366.8609    24.988824    24.913443    23.063952     14358.64    7266.9294    8994.7118    8838.9414   -619.60132   -900.71987    446.38613   -6305.9389 
 1135000    277.43887   -9132.0775    -8074.354   -9132.0775            0      9493.74    25.072983    24.926443    22.803339    14251.637    8090.7413    10387.575    10002.904    457.54259   -606.67142    -662.8618   -6101.1228 
 1136000    278.93873   -9065.7751   -8002.3334   -9065.7751            0    9814.2677    24.898059    24.845588    23.137651    14313.111    9121.5955    10630.724    9690.4838   -361.67257    182.92097   -472.92141   -5953.6831 
 1137000    262.56991   -9038.4093   -8037.3731   -9038.4093            0    9738.9369     25.02501    25.063087    22.814522    14309.359    10062.395    8014.2674    11140.149   -1257.3792    235.05485    33.235253   -6004.9803 
 1138000    278.47054   -9072.3128   -8010.6562   -9072.3128            0     9607.345    24.948056    24.859271    23.074896    14310.831    8846.1253     10716.96    9258.9492   -313.26702   -1016.1512    979.75786   -6005.5188 
 1139000    267.13688   -9076.2689   -8057.8213   -9076.2689            0    10108.429    24.863733    24.902115    23.040335    14265.643    10491.725    11220.148    8613.4155   -73.249964   -4.8183695    1104.1578   -5954.7648 
 1140000    278.04553   -9062.4137   -8002.3773   -9062.4137            0    10403.267    24.906055    25.052614    22.845523    14254.733    12159.005    8245.6395    10805.157   -1025.5002     183.9227    300.15159   -5839.6352 
 1141000    265.94861    -9071.746   -8057.8286    -9071.746            0    8241.0474    24.816745     25.07041    23.086941    14363.909    9898.1969    7060.6456    7764.2996   -797.68206   -3.2141024   -576.77911   -6331.4702 
 1142000    267.05691   -9073.5926   -8055.4499   -9073.5926            0    8866.1269    24.908566    24.994917    22.969177    14300.323     9185.265    8471.0114    8942.1042    579.53243    1165.2182    722.94989   -6206.3699 
 1143000    267.63693   -9033.1785   -8012.8244   -9033.1785            0    9481.4123    25.074345    24.996958    22.887534    14345.502    8016.9295    9884.6791    10542.628    1191.7469   -1056.1214    717.01806   -6029.1761 
 1144000    269.16072   -9049.8861   -8023.7226   -9049.8861            0    9915.7092    24.899586    24.800567     23.15344    14297.801    9961.0375    10122.521    9663.5692   -197.78129    245.90493   -62.947328   -5956.1112 
 1145000    277.98733   -9012.7977   -7952.9833   -9012.7977            0    9958.0055    25.063694    24.953595    22.925778    14338.452    8129.8246    10532.236    11211.956    500.25931   -704.82175    1339.8245   -5870.6486 
 1146000    271.15161   -9068.1733   -8034.4197   -9068.1733            0      9233.82    25.004127    24.953322    22.966161    14329.415    9162.6641    9389.2107    9149.5852   -1221.4762   -352.71197    252.54141   -6104.7376 
 1147000    268.97493   -9046.4597   -8021.0046   -9046.4597            0    10634.763    24.810163    24.864085    23.124187    14264.895    10914.644    10740.451    10249.195   -562.55575   -50.489765   -689.16297   -5808.5606 
 1148000    269.15471    -9077.712   -8051.5716    -9077.712            0    10785.879    24.958134    24.950495    22.861756    14236.422    9429.2162    11729.717    11198.702   -685.97619   -388.98384   -125.64852   -5812.1685 
 1149000    275.09943    -9052.704   -8003.8996    -9052.704            0    9242.1758    24.939516    24.938645    23.039055    14329.319    9269.2122    9556.4157    8900.8994   -275.46649    600.70747    970.63711   -6072.4843 
 1150000    274.39432    -9082.457   -8036.3408    -9082.457            0    9574.3036    25.022523    24.958344    22.927105    14318.452    8595.6958    10108.999    10018.216    201.65108   -970.66051    258.54596   -6037.0352 
 1151000    283.60225   -9082.6328   -8001.4116   -9082.6328            0    9447.0392    24.982865    25.068219     22.87427    14325.605    9252.3765    8475.0418    10613.699    494.22002   -521.16923   -828.85677    -6027.696 
 1152000    276.48377   -9108.5175   -8054.4352   -9108.5175            0    8934.0472    24.814005    24.956658    23.133085    14325.733    10707.976    8103.6493    7990.5166    214.59183    -677.4318   -429.40181   -6187.8795 
 1153000    277.78125   -9053.7812   -7994.7524   -9053.7812            0    10518.144    24.938344    25.060095    22.862552    14288.118    9259.9452    10400.303    11894.183   -409.89236    708.23009    216.34138   -5803.0075 
 1154000    274.98202   -9104.8589    -8056.502   -9104.8589            0    9297.9416    24.868886    25.024293    22.963775    14290.961    9854.6562    9168.4876     8870.681    626.48755    153.43199   -101.77431   -6118.6343 
 1155000    269.60267   -9049.3771   -8021.5287   -9049.3771            0    10511.158    24.914668    24.942876    23.016384    14303.381    11199.981    9971.8184    10361.674    1453.4385    437.34594    -922.6576   -5828.8997 
 1156000    262.03167   -9107.5816   -8108.5974   -9107.5816            0    10221.818     25.02775    24.829606    22.924863    14246.178    9524.4894    10709.505    10431.461   -1002.4589   -934.38867    84.027024   -5984.8521 
 1157000    272.41283   -9074.8249    -8036.263   -9074.8249            0     9300.136    24.989146    24.959222    22.983048    14334.749    8609.6934    9098.0328    10192.682   -1074.5907   -386.99681    292.90082   -6091.9988 
 1158000    273.10131   -9062.4673   -8021.2806   -9062.4673            0     9045.948    24.992155    24.923481    23.036878    14349.475     8502.245    9593.1863    9042.4128    188.33916   -370.30115    486.53214   -6128.2135 
 1159000    282.65453   -9065.2772   -7987.6692   -9065.2772            0      9041.29    24.902571    24.895159    23.127463    14337.951     10568.34    8638.3171    7917.2134    701.59909   -278.57674    559.19171   -6097.0965 
 1160000    266.83454    -9034.185     -8016.89    -9034.185            0    10410.303    25.012951    24.993956    22.841583    14279.932    10017.938    10789.619    10423.351    124.71058   -1155.7014    250.60426   -5848.8595 
 1161000    271.52087    -9103.004   -8067.8426    -9103.004            0    10826.195    24.870995    24.874785    22.978437    14215.854     11387.06    10722.983    10368.542     390.7428      25.7204    145.54268   -5823.3162 
 1162000    273.92879   -9060.3914   -8016.0499   -9060.3914            0    10242.349    24.930699    24.855407    23.051904    14284.404    9800.6424    11477.684    9448.7214   -242.12038    -539.6941   -202.86667    -5882.329 
 1163000    277.79436   -9067.9225   -8008.8437   -9067.9225            0    9911.5657    25.117588    24.998489    22.774561    14300.187     9553.811    9090.7146    11090.171   -421.47457     1455.259    48.153085   -5941.7515 
 1164000    267.34266   -9060.1258   -8040.8936   -9060.1258            0    9688.9663    24.902916    24.944823    23.007563    14292.271    9632.3197    9646.6911     9787.888   -129.84185   -84.201161   -211.93546   -6021.3438 
 1165000    269.51131   -9029.5916   -8002.0915   -9029.5916            0    11721.817    24.811052    24.945067    22.970789    14216.928    11734.459    12069.947    11361.046    814.27738    188.89867   -80.099518   -5571.6981 
 1166000     288.0269   -9079.6204   -7981.5305   -9079.6204            0    9697.2847    24.964614     24.98517    22.904576    14286.618    9575.1529    9562.2412    9954.4601    228.11285   -678.07904   -675.92467   -5961.0463 
 1167000    257.30364   -9075.4104   -8094.4516   -9075.4104            0    8888.6766    24.975036    24.885393     23.06408    14334.638    8294.2159     9441.975    8929.8388    512.19861   -1265.9333    177.98093   -6236.2204 
 1168000    270.93495   -8998.0901   -7965.1625   -8998.0901            0    9980.3449     25.02173    24.959729    22.953746    14335.432    9195.5952    10224.451    10520.989   -536.75262    -883.8174   -489.51915    -5878.596 
 1169000    272.14586   -9052.5757   -8015.0316   -9052.5757            0     9559.268    25.036795    24.927807    22.956774    14327.607    9420.1274    8987.0326    10270.644   -197.22729   -235.29553    146.14323   -6017.5895 
 1170000    265.87072   -9032.6199   -8018.9995   -9032.6199            0    10967.259    24.844111    24.840894    23.118765    14267.745    11791.014    11609.385    9501.3782   -909.56507    473.74254   -689.71214   -5736.9276 
 1171000     270.5257   -9055.7386   -8024.3713   -9055.7386            0    10361.107    24.976262    24.973563    22.877401    14269.694    11246.609    9500.6643    10336.049   -292.43166   -775.67627    11.999481   -5868.1332 
 1172000    271.24462   -9061.7978   -8027.6896   -9061.7978            0    9607.6195     25.02058    24.905389    22.950429    14301.497    7715.7684    11169.714    9937.3759    -695.1334    353.15568   -1205.7492   -6023.8028 
 1173000    267.45785   -9031.1522   -8011.4809   -9031.1522            0    10944.884    24.973197    24.833107    23.007073    14268.114    11211.145    12012.664    9610.8419    120.05203   -1045.3013    598.93831    -5734.006 
 1174000    276.20442   -9081.3798   -8028.3625   -9081.3798            0     10663.66    24.952251    24.922743    22.839984    14203.696    10312.021    10641.406    11037.552    1024.2586   -1487.2005    466.58688   -5819.4245 
 1175000    268.80915   -9048.7309   -8023.9078   -9048.7309            0    10323.354    24.880872    24.931391    23.021616    14280.648    11752.353    10442.297    8775.4115   -559.07779   -473.40586    901.59954   -5873.8774 
 1176000    272.90469   -9070.8262   -8030.3891   -9070.8262            0    11754.364    24.925913    24.965242    22.804271    14190.675    12346.885    9471.1439    13445.062    417.72818    388.15166   -207.01448   -5597.7478 
 1177000    271.73029   -9040.7999     -8004.84   -9040.7999            0    10197.363    24.826049    24.993371    23.033962    14292.266    11206.481    8976.3916    10409.216   -889.20316   -210.26817   -56.136421   -5879.3218 
 1178000     271.4482   -9069.8986   -8035.0143   -9069.8986            0    8835.0975      24.8786    25.161376    22.899943    14334.902     9936.536    6984.6669    9584.0895    834.66337   -443.00919   -77.417718   -6187.9502 
 1179000    267.12091   -9061.8161   -8043.4294   -9061.8161            0    8052.0991    25.002195    25.070118    22.960563    14391.864    7510.5492    7431.0327    9214.7156    465.26639    431.03067   -432.70662   -6353.3697 
 1180000    273.29587   -9086.6714   -8044.7429   -9086.6714            0    9202.0339    24.893258    24.933594    23.020684     14288.44     9727.641    8721.0386    9157.4223    938.19731    592.57397    1043.9343   -6127.2023 
 1181000     277.2752   -9075.2235    -8018.124   -9075.2235            0     9961.151    24.896442    24.937713    23.036634    14302.532    9227.4427    9934.8369    10721.173    253.01579   -92.759375   -247.92244   -5940.3498 
 1182000    269.94776   -8992.9039     -7963.74   -8992.9039            0    10446.715    25.118703    24.868356     22.84504    14270.402    9916.2179    10151.187    11272.741    19.352686   -1379.8895   -777.93771   -5789.5782 
 1183000    275.33606   -9068.2097    -8018.503   -9068.2097            0    10038.868    24.945857    24.853424    23.035359    14281.691    8662.1359    11659.207    9795.2608   -562.43808    194.45428    -772.9359   -5927.5693 
 1184000    278.39778    -9062.432   -8001.0527    -9062.432            0    10195.754    24.897494    24.944782    22.957296    14257.917    9857.6054    9949.3026    10780.353   -447.92369   -479.86318    -176.4219   -5880.9773 
 1185000    272.82832   -9002.3878   -7962.2418   -9002.3878            0    10073.204    25.118939    25.007898     22.80948    14328.274    8100.7322    10478.682    11640.198   0.56657122   -1168.3818    189.67829    -5857.313 
 1186000    275.08818   -9027.1754   -7978.4139   -9027.1754            0    9229.8453    24.974766    24.916598    23.054639    14346.583    9673.9513    8539.5532    9476.0314    288.16093   -29.845277   -508.61003   -6047.2514 
 1187000    269.92929   -9109.8057   -8080.7121   -9109.8057            0    9543.3832    25.066356    24.797917     22.99593    14294.119    8500.6363    10604.174     9525.339    66.543138   -26.259456    826.69873   -6091.2501 
 1188000     274.8448   -9032.2878   -7984.4541   -9032.2878            0    9527.6571     24.90962    24.995421    22.976079    14305.514    9383.2025    8456.3053    10743.463    -571.6153    750.23753   -1179.9517   -5996.6871 
 1189000    270.79273   -9103.7049   -8071.3195   -9103.7049            0    9605.1136    24.932487    25.075162    22.824823    14269.764    9290.5958    8610.1686    10914.576    504.03604   -268.87049   -57.553438   -6072.4006 
 1190000    279.28096   -9033.9258   -7969.1794   -9033.9258            0    10216.134     24.80187    25.061854      22.9853    14287.223    11008.072    9081.8765    10558.454    248.45074     -468.847   -409.80111   -5840.4999 
 1191000    263.92302   -9013.1213   -8006.9263   -9013.1213            0    9937.7843    24.845787    25.001499    23.070399    14330.915    12689.401    8582.5503    8541.4018    481.53435   -57.467887    434.38714   -5929.9126 
 1192000    273.75618   -9025.2631   -7981.5797   -9025.2631            0    10311.976     24.93959    25.045387    22.839095    14265.794    11189.435    9514.3447    10232.148     398.9825   -547.06652    1357.2975   -5836.1527 
 1193000    273.59406   -9049.7402   -8006.6749   -9049.7402            0    11411.408    24.936526     24.90963    22.895188    14221.567    11503.477    11070.085    11660.662   -65.219079    128.86106   -947.41358   -5639.8695 
 1194000    265.99763   -9045.4383   -8031.3341   -9045.4383            0     10302.65    24.987303    24.832883    23.034087    14292.807    9795.7726    10912.765    10199.412   -182.31818   -919.54564   -279.61414   -5883.7886 
 1195000    262.54425   -9019.0357   -8018.0973   -9019.0357            0    9766.5619    25.087766    24.816779    22.997478    14318.173    9452.8751    9582.2987    10264.512   -633.94251   -302.66585   -586.29411   -5978.6842 
 1196000    272.09252   -9035.6608     -7998.32   -9035.6608            0     9818.805     25.02166    25.005323    22.904604    14330.831    9593.6643    9925.5772    9937.1735   -348.11845   -349.33898    257.32773   -5946.1851 
 1197000    265.69367   -9036.3513   -8023.4059   -9036.3513            0    9160.8012    24.948798    24.934953    23.092058    14365.502     10060.16    8901.6045    8520.6392    433.55734    401.97412   -160.34965    -6104.162 
 1198000    271.63374   -9030.3076   -7994.7159   -9030.3076            0    9286.5283    24.960273    24.995001    22.967118    14328.772    9087.2988    9450.4189    9321.8672    915.95825    -60.57445     75.90726   -6054.1059 
 1199000    269.74161   -9005.3937   -7977.0157   -9005.3937            0    9405.2396    25.044909     24.90231    23.047259    14374.025    9202.3659    10331.735    8681.6174   -389.89137   -249.73729    170.48085   -6005.3915 
 1200000    271.75261   -9055.5254   -8019.4805   -9055.5254            0    9321.3081    25.024677     24.84273     23.10063    14361.229    9142.4031    11323.528    7497.9929    714.97993   -201.70056    495.98478   -6067.1903 
 1201000     278.0278   -9038.8378   -7978.8691   -9038.8378            0    9787.3538    25.063187    24.950546     22.91841    14331.803    6820.3368    10643.139    11898.586   -755.64103   -125.41055   -147.47973   -5933.1687 
 1202000    272.35025    -9060.445   -8022.1217    -9060.445            0    9992.0981    25.050989    24.773066    23.014215    14282.387     9222.499    10610.277    10143.519   -57.608876   -263.52559    32.443557   -5940.8279 
 1203000     273.4449     -9110.85   -8068.3533     -9110.85            0    9130.7582    25.044524    24.898384     22.92263    14293.823    7925.8762    9677.4507    9788.9477   -294.66398   -1150.6171    1073.9272   -6164.9487 
 1204000    279.96978   -9065.8358   -7998.4633   -9065.8358            0    8781.1053     25.02883    24.944385    23.004678    14362.482    7852.6844       9528.5    8962.1316    319.58821    349.70771    243.51808   -6159.1548 
 1205000    264.67798    -9062.639   -8053.5658    -9062.639            0     9365.117    24.916279    24.986179    22.958339    14293.004    10398.528    7958.7415    9738.0814     239.0952   -880.37566    1189.8235   -6101.4184 
 1206000    253.45922   -9077.9603   -8111.6582   -9077.9603            0    9069.0871    24.848946     24.97594    23.071049    14318.488    9520.1883    9177.4728    8509.6002    -637.3579   -1108.4241    111.32939   -6217.8473 
 1207000    271.82213    -9054.126   -8017.8161    -9054.126            0    9728.8238    24.993813    25.082193    22.797493     14291.74    9974.9228    8751.4966    10460.052   -261.13903   -794.56865   -642.13629   -5990.0337 
 1208000     281.6031   -9086.0279   -8012.4285   -9086.0279            0    10150.006    24.841151     24.80089    23.194442    14289.694    9653.1473    12422.215    8374.6547    890.64993    223.68062   -1705.9996    -5897.162 
 1209000    274.42728   -9026.5167   -7980.2748   -9026.5167            0     9453.082    24.979025    25.012287    22.932857    14328.049    9491.0984    9519.7351    9348.4124   -109.50501   -591.20721   -587.60488   -6004.9598 
 1210000    274.76502    -9045.984   -7998.4544    -9045.984            0    8479.9979    25.042069    25.065477     22.92198     14387.93    8124.1179     9054.514    8261.3617     1127.041    843.53178    624.00682   -6219.0694 
 1211000    276.97923   -9041.1493   -7985.1782   -9041.1493            0    10189.731    24.817696    24.951468    23.073676    14288.095    11664.105    9861.0622    9044.0274    382.29292   -290.15243   -841.79412   -5861.8704 
 1212000     268.5932   -9052.8415   -8028.8417   -9052.8415            0    9839.0458    24.852632     25.13455    22.861894    14280.904    10639.795    9024.2554    9853.0867   -974.78125   -1251.8546   -144.17915   -5979.6407 
 1213000    277.19742     -9085.48    -8028.677     -9085.48            0    9721.6815    24.793369    25.120575    22.944427    14290.333    10611.755    7285.5802     11267.71    151.52953   -699.17962    766.11062   -6002.5829 
 1214000    272.40022   -9033.5206   -7995.0068   -9033.5206            0    11601.127    24.907626    24.948734    22.899047    14229.782    11781.355    12083.996     10938.03    173.81645    197.08607   -1956.0571   -5587.4623 
 1215000     275.4997   -9078.0664   -8027.7359   -9078.0664            0    11474.356    24.971799    24.866266    22.884212    14210.075    12158.007    10712.473    11552.589   -317.26425       1212.2   -1000.0661   -5649.7975 
 1216000    269.44863   -9076.8835   -8049.6224   -9076.8835            0    10490.328    24.895788    24.832152    23.065624    14259.538    10890.553    9971.3988    10609.033   -814.06796    -1575.887    723.95362    -5868.046 
 1217000    276.92251   -9046.6193   -7990.8644   -9046.6193            0    9630.5864    25.099957    25.013076    22.832166    14334.653    9135.6196    10305.399    9450.7402   -1032.9821    -456.3079   -477.25941   -5977.5305 
 1218000    270.11482   -9032.7198   -8002.9189   -9032.7198            0    10443.584    24.923823    24.900271    22.993115    14269.756    9707.4861    11168.873    10454.394    391.77471    -386.5531    -163.3328   -5829.5071 
 1219000    271.20023   -9094.8247   -8060.8858   -9094.8247            0    9580.9652    24.902957    24.916388    23.021404    14284.591      9399.88    9847.7923    9495.2231   -270.44889    65.541169   -546.97964   -6064.9206 
 1220000    266.44047   -9037.9347   -8022.1421   -9037.9347            0    9485.7199    25.062273    24.935477    22.933483    14332.045    7892.0022    10494.393    10070.764   -281.23345    669.33109    -743.4026   -6039.4543 
 1221000    266.41183   -9033.8535   -8018.1702   -9033.8535            0    10346.359    25.026758    24.823335    22.997219    14286.967    10563.268    11392.845    9082.9626   -600.64859   -758.95888    46.135944   -5862.3949 
 1222000    262.77543    -9036.508   -8034.6882    -9036.508            0    11362.379    24.882843    24.967657    22.901942    14228.205    11160.771    11843.647    11082.721   -497.24474   -52.177429   -859.32632   -5676.9517 
 1223000    274.86952   -9073.0439   -8025.1159   -9073.0439            0    10150.029    24.823356    24.989768    23.047187    14296.859    9807.1628    10254.146    10388.778     783.8722   -1119.4918   -39.981028   -5908.7837 
 1224000    285.77303   -9020.4176   -7930.9204   -9020.4176            0    10736.864    24.894569    25.038254    22.872539    14256.832    10202.413    10104.958    11903.221      275.683   -428.35582     321.0332    -5698.498 
 1225000    269.88425   -9064.4017   -8035.4799   -9064.4017            0    8692.4727    24.868476    24.926267    23.155162    14353.382    9868.3912    9030.4546    7178.5723   -176.08622    94.221556    1570.1119   -6215.8901 
 1226000    272.03427   -9054.3139   -8017.1951   -9054.3139            0    10155.009    24.968027    24.913471    22.980658    14294.893    9805.5032    10459.989    10199.536    501.89309   -799.46155   -69.692534   -5900.1158 
 1227000    271.82869   -9041.5785   -8005.2436   -9041.5785            0    7274.3745    25.026958    25.098575    22.986242    14438.601    6668.7792    7116.4252     8037.919    574.81499    184.09457   -440.34106   -6473.4627 
 1228000    276.16402   -9045.1954   -7992.3322   -9045.1954            0    8902.3357    24.866893    25.008661     23.10755    14370.301    9518.8778    8489.9495    8698.1798   -734.02717    389.52818    816.18661   -6126.6154 
 1229000    271.62199   -9066.0912   -8030.5443   -9066.0912            0    9688.5697    24.898083    24.970368    23.017357    14310.219    9925.5694    10088.931    9051.2087    109.40141    272.64767    774.24929   -6008.5411 
 1230000    270.26571   -9029.0702   -7998.6941   -9029.0702            0    10194.603    24.998702     25.00371    22.873092    14297.062    9754.5555    9011.6049    11817.649     502.2434   -263.28446   -174.77635   -5873.0379 
 1231000    281.62533   -9042.5033   -7968.8191   -9042.5033            0    9356.0456    24.993288    24.846945    23.045613    14311.484      9820.27    9492.1919     8755.675    241.55139   -1248.5788    200.24022   -6016.0411 
 1232000    276.04964   -9060.4932   -8008.0661   -9060.4932            0    8658.2181    24.979599    24.873313     23.07909    14339.624    7955.8312    9994.9783    8023.8448   -420.15587   -501.13102    591.14341   -6197.3841 
 1233000    264.45066   -8990.6487   -7982.4422   -8990.6487            0    10878.946    24.945867    24.936528    22.951452    14277.257    10629.399    11744.443    10262.996    189.30831   -348.32447   -501.79946   -5717.2373 
 1234000    269.65243   -9029.2991    -8001.261   -9029.2991            0    10391.005    24.948812    24.908352    23.019422    14305.047    10481.579    10937.672    9753.7651   -694.28033   -45.220581   -524.66648   -5833.4434 
 1235000    266.15763   -9064.0831   -8049.3688   -9064.0831            0    10057.032    24.883055    25.004633    22.985667     14301.49    11518.696     8813.413    9838.9862    266.33764    628.96036   -5.3211725   -5951.7479 
 1236000    279.84397   -9056.7531   -7989.8603   -9056.7531            0    11650.816    24.843857     24.94316     22.95019    14221.872    11278.848    12338.521    11335.079    357.21925    -238.6027   -858.30592    -5573.348 
 1237000    279.66114   -9091.7363   -8025.5405   -9091.7363            0    10248.275    24.881188    25.005484    22.911732    14254.904    10890.395    9895.1094    9959.3216    -125.8293   -54.657157    -14.84452   -5894.9942 
 1238000     268.3399   -8973.4119   -7950.3779   -8973.4119            0    10262.835    24.861048    24.997078    23.016972    14303.979    10626.143    10121.167    10041.196    588.93811   -396.06497    221.43444   -5809.4594 
 1239000    274.17876   -9045.6928   -8000.3983   -9045.6928            0    9653.0461    24.877438    24.973618    22.983715    14279.314    10189.843    9343.5032    9425.7927    138.92305   -876.59578    1093.3793   -5990.1597 
 1240000    279.92554    -9036.721   -7969.5172    -9036.721            0    9349.4193    25.025611    24.953263    22.959412    14337.479    8946.4404     9427.228    9674.5896    435.45022   -933.41499   -283.51147   -6014.5776 
 1241000    278.79717   -9058.3974   -7995.4955   -9058.3974            0    9478.5867    24.880866    24.977709    23.059264    14330.572    10199.245    10001.453    8235.0614   -374.05129   -57.162076   -839.77056   -6014.5022 
 1242000    274.77741   -9035.0785   -7987.5017   -9035.0785            0    8717.7093    24.960622    25.033437    22.984381    14361.794    8699.8622    8638.2427     8815.023    510.41255   -1923.3284    934.62966   -6161.5597 
 1243000    271.26682   -9056.3992   -8022.2064   -9056.3992            0    10079.958    24.868152    25.124606    22.843669    14272.782    9908.1584    9874.5373    10457.179   -389.39271    574.26032    607.02277   -5924.0239 
 1244000    267.21547   -9069.6946   -8050.9474   -9069.6946            0    9346.5913    24.904457    24.922816    23.123583    14352.558    9092.8313    10527.313    8419.6299   -927.72942   -39.803359     861.1772   -6094.5437 
 1245000    280.77202   -9068.9745   -7998.5435   -9068.9745            0    10181.816    25.038349    24.888048    22.903022    14272.147    8465.1192    12018.715    10061.612    650.56496   -709.39703    -57.66248   -5879.2532 
 1246000    265.60557   -9040.0302   -8027.4206   -9040.0302            0    10069.617    24.980809    24.883808    22.996093    14294.777    10561.928    10383.624    9263.2973   -784.36977    1262.8716    900.59493   -5928.1607 
 1247000    283.95137   -9032.0918   -7949.5397   -9032.0918            0     9813.561     24.99424    24.873532    23.031829    14318.774     9637.713    10269.551    9533.4192   -659.42225    399.39798   -139.17078   -5900.2264 
 1248000    258.13114   -9041.9207   -8057.8071   -9041.9207            0    9667.1158    25.013902    24.925534    22.965017     14318.34    8377.8962    10833.012    9790.4395    58.684236    1129.3204    1216.2562   -6039.1364 
 1249000    260.63047   -9067.2493   -8073.6071   -9067.2493            0    9715.6913    25.008858    24.886071    22.997999    14313.315    8290.5165    10240.898    10615.659     382.8046   -217.66405   -418.23533   -6045.5049 
 1250000    275.42486   -9018.9457   -7968.9005   -9018.9457            0    9563.9475    25.051202    24.920936    22.957801    14332.541    8673.6801    9147.0517    10871.111   -1024.2404   -7.0146624   -603.75471   -5969.7925 
Loop time of 595.806 on 64 procs for 250000 steps with 1920 atoms

Performance: 72.507 ns/day, 0.331 hours/ns, 419.600 timesteps/s
99.1% CPU use with 64 MPI tasks x 1 OpenMP threads

MPI task timing breakdown:
Section |  min time  |  avg time  |  max time  |%varavg| %total
---------------------------------------------------------------
Pair    | 62.334     | 64.537     | 66.705     |  13.5 | 10.83
Bond    | 0.27045    | 0.28067    | 0.29597    |   0.8 |  0.05
Kspace  | 255.74     | 265.11     | 277.18     |  31.9 | 44.50
Neigh   | 6.614      | 7.4492     | 8.7669     |  21.0 |  1.25
Comm    | 109.36     | 122.4      | 134.43     |  56.4 | 20.54
Output  | 1.2001     | 1.2008     | 1.2058     |   0.1 |  0.20
Modify  | 118.7      | 126.91     | 133.48     |  32.1 | 21.30
Other   |            | 7.906      |            |       |  1.33

Nlocal:        30.0000 ave          34 max          27 min
Histogram: 4 8 11 0 19 10 0 8 3 1
Nghost:        2802.73 ave        2840 max        2776 min
Histogram: 2 6 14 13 8 7 7 3 2 2
Neighs:        10592.5 ave       11830 max        9414 min
Histogram: 5 4 5 9 9 8 11 7 3 3

Total # of neighbors = 677921
Ave neighs/atom = 353.08385
Ave special neighs/atom = 2.0000000
Neighbor list builds = 12565
Dangerous builds = 1

unfix		3
unfix		2
unfix		1

write_data	data.final.${pid}
write_data	data.final.0
System init for write_data ...
PPPM initialization ...
  extracting TIP4P info from pair style
  using 12-bit tables for long-range coulomb (../kspace.cpp:340)
  G vector (1/distance) = 0.37434095
  grid = 30 30 30
  stencil order = 5
  estimated absolute RMS force accuracy = 0.0032863944
  estimated relative force accuracy = 9.8968791e-06
  using double precision FFTW3
  3d grid and FFT values/proc = 3600 512
Last active /omp style is kspace_style pppm/tip4p/omp
WARNING: Not all mixed pair coeffs generated from mixing. Use write_data with 'pair ij' option to store all pair coeffs. (../write_data.cpp:312)

write_restart   restart.lmp.${pid}
write_restart   restart.lmp.0
System init for write_restart ...
PPPM initialization ...
  extracting TIP4P info from pair style
  using 12-bit tables for long-range coulomb (../kspace.cpp:340)
  G vector (1/distance) = 0.37434095
  grid = 30 30 30
  stencil order = 5
  estimated absolute RMS force accuracy = 0.0032863944
  estimated relative force accuracy = 9.8968791e-06
  using double precision FFTW3
  3d grid and FFT values/proc = 3600 512
Last active /omp style is kspace_style pppm/tip4p/omp
Total wall time: 0:09:59
