LAMMPS (30 Jul 2021)
  using 1 OpenMP thread(s) per MPI task
package omp 0
using multi-threaded neighbor list subroutines
echo both

include		in.partitions
variable        pid world 0
include		in.temp
variable        temperature equal 255.75
variable	tempDamp equal 100.0
include		in.pressure
variable        pressure equal 6375.0
variable        pressureDamp equal 1000.0 # This is 1 ps
include		in.seed
variable        seed world 745823

units		real
atom_style	full
read_restart	restart.lmp.${pid}
read_restart	restart.lmp.0
Reading restart file ...
  restart file = 30 Jul 2021, LAMMPS = 30 Jul 2021
  restoring atom style full from restart
  orthogonal box = (0.49076156 1.6695836 0.59872795) to (17.716811 21.959594 21.614468)
  4 by 4 by 4 MPI processor grid
  restoring pair style lj/cut/tip4p/long/omp from restart
  restoring bond style harmonic/omp from restart
  restoring angle style harmonic/omp from restart
  864 atoms
  576 bonds
  288 angles
Finding 1-2 1-3 1-4 neighbors ...
  special bond factors lj:    0        0        0       
  special bond factors coul:  0        0        0       
     2 = max # of 1-2 neighbors
     1 = max # of 1-3 neighbors
     1 = max # of 1-4 neighbors
     2 = max # of special neighbors
  special bonds CPU = 0.957 seconds
  read_restart CPU = 1.094 seconds
include 	in.setup
variable	out_freq equal 1000
variable	out_freq2 equal 10000
variable	out_freq3 equal 1000

timestep	2.0

neigh_modify    delay 7 every 1

include		in.tip4p
# This is TIP4P/Ice

# create groups ###
group ox type 2
288 atoms in group ox
group hy type 1
576 atoms in group hy

# set charges - beside manually ###
set group ox charge -1.1794
Setting atom values ...
  288 settings made for charge
set group hy charge 0.5897
Setting atom values ...
  576 settings made for charge

# ### TIP3P Potential Parameters ###
pair_style lj/cut/tip4p/long/omp 2 1 1 1 0.1577 8.5
pair_coeff 1 1*2 0.000 0.000
pair_coeff 2 2 0.21084 3.1668
bond_style  harmonic
bond_coeff  1 450 0.9572
angle_style harmonic
angle_coeff 1 55 104.52
kspace_style pppm/tip4p/omp 1.0e-5
pair_modify tail yes

thermo          ${out_freq}
thermo          1000
thermo_style    custom step temp pe etotal epair emol press lx ly lz vol pxx pyy pzz pxy pxz pyz enthalpy

restart 	${out_freq3} restart.lmp.${pid} restart2.lmp.${pid}
restart 	1000 restart.lmp.${pid} restart2.lmp.${pid}
restart 	1000 restart.lmp.0 restart2.lmp.${pid}
restart 	1000 restart.lmp.0 restart2.lmp.0


include         in.dump
dump            myDump all atom ${out_freq2} dump.water.${pid}
dump            myDump all atom 10000 dump.water.${pid}
dump            myDump all atom 10000 dump.water.0
dump            myDump2 all dcd ${out_freq2} dump.dcd
dump            myDump2 all dcd 10000 dump.dcd
dump_modify     myDump append yes
dump_modify     myDump2 append yes


variable natoms 	equal  "count(all)"                        # NUMBER ATOMS
variable H      	equal  "enthalpy/v_natoms"                 # ENTHALPY-per-atom
variable Vol      	equal  "vol/v_natoms"                 # volume-per-atom
fix AVG all 		ave/time ${out_freq} 1 ${out_freq} v_Vol v_H file vol_enthalpy.dat
fix AVG all 		ave/time 1000 1 ${out_freq} v_Vol v_H file vol_enthalpy.dat
fix AVG all 		ave/time 1000 1 1000 v_Vol v_H file vol_enthalpy.dat


timer           timeout 23:50:00 every 1000
New timer settings: style=normal  mode=nosync  timeout=23:50:00

fix 		1 all shake 1e-6 200 0 b 1 a 1
       0 = # of size 2 clusters
       0 = # of size 3 clusters
       0 = # of size 4 clusters
     288 = # of frozen angles
  find clusters CPU = 0.002 seconds
fix             2 all nph iso ${pressure} ${pressure} ${pressureDamp}
fix             2 all nph iso 6375 ${pressure} ${pressureDamp}
fix             2 all nph iso 6375 6375 ${pressureDamp}
fix             2 all nph iso 6375 6375 1000
fix             3 all temp/csvr ${temperature} ${temperature} ${tempDamp} ${seed}
fix             3 all temp/csvr 255.75 ${temperature} ${tempDamp} ${seed}
fix             3 all temp/csvr 255.75 255.75 ${tempDamp} ${seed}
fix             3 all temp/csvr 255.75 255.75 100 ${seed}
fix             3 all temp/csvr 255.75 255.75 100 745823

run             250000
PPPM initialization ...
  extracting TIP4P info from pair style
  using 12-bit tables for long-range coulomb (../kspace.cpp:340)
  G vector (1/distance) = 0.37461171
  grid = 24 24 25
  stencil order = 5
  estimated absolute RMS force accuracy = 0.0030332809
  estimated relative force accuracy = 9.1346354e-06
  using double precision FFTW3
  3d grid and FFT values/proc = 2730 288
Last active /omp style is kspace_style pppm/tip4p/omp
Neighbor list info ...
  update every 1 steps, delay 7 steps, check yes
  max neighbors/atom: 2000, page size: 100000
  master list distance cutoff = 10.8154
  ghost atom cutoff = 10.8154
  binsize = 5.4077, bins = 4 4 4
  1 neighbor lists, perpetual/occasional/extra = 1 0 0
  (1) pair lj/cut/tip4p/long/omp, perpetual
      attributes: half, newton on, omp
      pair build: half/bin/newton/omp
      stencil: half/bin/3d
      bin: standard
Per MPI rank memory allocation (min/avg/max) = 9.239 | 9.244 | 9.251 Mbytes
Step Temp PotEng TotEng E_pair E_mol Press Lx Ly Lz Volume Pxx Pyy Pzz Pxy Pxz Pyz Enthalpy 
 9750000    271.58474   -3909.3145   -3443.8275   -3909.3145            0     6190.592    17.226049    20.290011     21.01574    7345.3526    6502.0831    5536.4943    6533.1985   -1028.3561   -229.30643    275.44594   -2780.6639 
 9751000    248.72209    -3881.187   -3454.8859    -3881.187            0    6030.5747    17.151882    20.202652    20.925256    7250.8838    6379.1569    5164.7872    6547.7799    -19.00016    418.69788    196.36352   -2817.1725 
 9752000    258.53546   -3890.7549   -3447.6339   -3890.7549            0    7723.2632    17.154222    20.205407     20.92811    7253.8511    8500.8953    5682.2379    8986.6564    34.360369   -574.52433    405.98067   -2630.5901 
 9753000    254.64977   -3906.2039   -3469.7429   -3906.2039            0    5020.0464    17.221511    20.284665    21.010203    7339.5489    6422.5003    4087.0688      4550.57    316.82123   -472.70387    735.19539   -2932.3982 
 9754000    245.81058   -3925.3976   -3504.0866   -3925.3976            0    6806.8712    17.178737    20.234284     20.95802    7284.9959     6292.516    6097.1675    8030.9301    -366.2852   -1117.3891    242.78147   -2780.8961 
 9755000    252.00853   -3875.4795   -3443.5455   -3875.4795            0    5140.5426    17.234162    20.299566    21.025637    7355.7352    4655.5996    4541.3137    6224.7144   -1049.6038    57.422035   -112.85695   -2892.0894 
 9756000    250.67551   -3851.0965   -3421.4472   -3851.0965            0    6709.8968    17.196201    20.254853    20.979325    7307.2357    7385.4136    5181.5466    7562.7302     85.49077   -1666.6807    574.73467   -2706.3833 
 9757000    253.14508   -3877.6671   -3443.7851   -3877.6671            0    6230.0502    17.194097    20.252375    20.976758    7304.5539    7416.4581    3956.0031    7317.6894   -460.65101    -679.3215    80.561041   -2780.1015 
 9758000    257.88633   -3895.9363    -3453.928   -3895.9363            0    5233.8143    17.184897    20.241539    20.965534    7292.8351    4397.3386    6190.6355    5113.4689    -196.1941   -1016.6603   -1061.0037   -2897.2673 
 9759000    262.20615   -3877.4377   -3428.0253   -3877.4377            0    6877.1902    17.184147    20.240655    20.964619    7291.8799    6654.2331    6074.9104     7902.427    -1123.288    569.28986   -1670.1305   -2696.6734 
 9760000    258.05955   -3872.5112    -3430.206   -3872.5112            0    6054.4045    17.231828    20.296817     21.02279    7352.7474    5335.6718     6642.113    6185.4287    921.52576    119.31915   -1010.3293   -2780.9784 
 9761000    249.69652   -3883.9913   -3456.0201   -3883.9913            0    6619.4249    17.184824    20.241453    20.965445     7292.742    7247.2251     5421.679    7189.3707   -1015.4041   -212.56333    1185.8546   -2751.9968 
 9762000    261.02237   -3859.0827   -3411.6993   -3859.0827            0    5026.6868    17.321293    20.402196    21.131938    7467.8666    4184.2695    5344.8222    5550.9686   0.11038106   -1409.9507    684.31677    -2864.237 
 9763000    264.61596   -3872.6016   -3419.0589   -3872.6016            0    7140.4962    17.114016     20.15805     20.87906    7202.9665     8972.596    4043.1369    8405.7557    522.86339   -485.28464    281.90659   -2668.9649 
 9764000    253.74291   -3889.8719   -3454.9652   -3889.8719            0    7145.8653    17.131338    20.178453    20.900192    7224.8597     8786.194    6028.0268    6623.3752   -1543.6335    1833.2317   -1059.2727   -2702.0256 
 9765000    255.71138   -3894.9223   -3456.6417   -3894.9223            0    6655.4291    17.208374    20.269191    20.994176    7322.7645    6793.9664    5704.3267    7467.9944   -864.65975    1890.1481   -212.13521   -2745.8751 
 9766000     259.2745   -3904.3139   -3459.9263   -3904.3139            0    7103.5299    17.217405    20.279829    21.005194    7334.3002    8946.3105    7330.4007    5033.8785   -349.01827   -17.519058    885.78202   -2700.1097 
 9767000    259.73494   -3902.8452   -3457.6684   -3902.8452            0    7195.6373    17.161877    20.214424     20.93745     7263.567    7168.0825     7550.744    6868.0856   -2282.2558    31.355357   -291.74969   -2695.4225 
 9768000    246.16238   -3886.2093   -3464.2954   -3886.2093            0    5064.7595    17.149149    20.199432    20.921921    7247.4175    4992.1249    6023.8984    4178.2551   -378.34032   -487.59432    -1290.492   -2928.9698 
 9769000    257.52408   -3862.4847   -3421.0972   -3862.4847            0    5249.1206    17.160299    20.212565    20.935525    7261.5634    4713.1484    6053.0406    4981.1728   -1219.1368   -172.16039   -189.92516   -2865.2024 
 9770000    248.20044   -3890.5869   -3465.1799   -3890.5869            0     5150.007    17.186774    20.243749    20.967824    7295.2248    6655.6558    5871.2312    2923.1342    1054.6156    754.55036    174.41641   -2917.2533 
 9771000    254.55345   -3916.6516   -3480.3557   -3916.6516            0    5814.8009    17.183126    20.239453    20.963374    7290.5806    5125.3699    7122.0513    5196.9815   -299.64688    -907.9523     277.3635   -2862.0933 
 9772000    264.62793   -3878.5471   -3424.9838   -3878.5471            0     5167.963    17.184945    20.241595    20.965592    7292.8958    5565.9949    4812.6975    5125.1966     1087.747    1106.2428    1166.8583   -2875.3224 
 9773000    249.07273   -3911.7961    -3484.894   -3911.7961            0    6142.2747    17.109689    20.152954    20.873781    7197.5044    6888.7119    5303.0418    6235.0705   -34.624971    821.21408    536.43442   -2840.1504 
 9774000    274.72906   -3871.8221   -3400.9459   -3871.8221            0    5496.4707    17.132434    20.179745     20.90153    7226.2474    7813.9858     3731.849    4943.5773     740.5579    -1526.213   -260.24164   -2821.6871 
 9775000    248.26836   -3864.2537   -3438.7302   -3864.2537            0     5393.179    17.122191    20.167679    20.889033    7213.2932    4941.4828    5755.2424    5482.8118   -1085.9861    1736.9868   -1067.8769    -2871.376 
 9776000    252.08269   -3852.3858   -3420.3247   -3852.3858            0    4641.8381    17.223713    20.287259     21.01289    7342.3649    3908.1777    4964.0443    5053.2923   -22.491026   -479.97247   -444.74768   -2923.2727 
 9777000     266.5257   -3884.6215   -3427.8056   -3884.6215            0     8646.323    17.114535    20.158662    20.879693    7203.6222    8476.6544    9245.3442    8216.9703    582.00766    1108.5455    157.87609    -2519.445 
 9778000    246.91874   -3904.1396   -3480.9293   -3904.1396            0    7576.5283    17.202056     20.26175    20.986468    7314.7027    7735.8098    6610.8941    8382.8812   -552.98769    1520.6524   -716.13311   -2672.6847 
 9779000    254.17018   -3916.6251   -3480.9861   -3916.6251            0    5320.5635    17.185878    20.242694    20.966731    7294.0836    5923.5556    5217.2836    4820.8514   -593.09047   -738.10442   -1331.2083    -2915.002 
 9780000    268.03777   -3847.0052   -3387.5977   -3847.0052            0    5871.7754    17.171375    20.225612    20.949037    7275.6333    6020.6173    4679.0573    6915.6516    283.61236    1069.5016    1096.7339   -2764.5574 
 9781000    239.82067     -3814.39   -3403.3456     -3814.39            0    6117.6226    17.196842    20.255609    20.980108    7308.0536    5857.3672    6127.4141    6368.0865   -432.93139   -1492.8177   -1809.7625   -2751.3266 
 9782000    251.08591    -3859.474   -3429.1213    -3859.474            0    5942.5272    17.155592    20.207021    20.929782    7255.5897    6184.4338    7771.5228    3871.6249     869.3173   -353.98999     1052.045   -2800.3108 
 9783000    255.29885   -3885.0913   -3447.5178   -3885.0913            0    6295.7193    17.104262    20.146562     20.86716     7190.658    7801.4958    5506.5559    5579.1063   -86.540296   -581.42492   -745.74017   -2787.2959 
 9784000     245.7189   -3905.4826   -3484.3288   -3905.4826            0    5147.3028    17.164849    20.217925    20.941076    7267.3415    3998.5328    5373.4505    6069.9251   -1255.4754    283.05284    877.56478    -2938.783 
 9785000    240.59399   -3895.9758    -3483.606   -3895.9758            0    4913.2369    17.145839    20.195534    20.917884    7243.2229    6853.8301    4322.6733    3563.2074    447.91821   -311.28303   -725.21106   -2964.5963 
 9786000    263.97854   -3914.8168   -3462.3666   -3914.8168            0    6280.0487    17.172186    20.226567    20.950027    7276.6642    7099.5305    5752.8407    5987.7748   -1900.6268   -484.05887   -568.76323    -2795.911 
 9787000    256.48339    -3867.472   -3427.8683    -3867.472            0    6855.8634    17.134262    20.181897     20.90376    7228.5602    7066.2603    6621.1014    6880.2285    743.72126   -800.96324     -1522.86   -2705.1154 
 9788000    257.79842   -3886.5679   -3444.7103   -3886.5679            0    7989.0042    17.119408    20.164402    20.885638     7209.777    7952.2254    8476.5227    7538.2645   -668.56395   -372.30272    479.01321   -2604.6888 
 9789000    244.59639   -3868.5173   -3449.2874   -3868.5173            0    5010.7624    17.196541    20.255254     20.97974    7307.6696    3897.3913    4580.3852    6554.5107    659.93783   -565.57544    1729.8092   -2915.2661 
 9790000    250.57988   -3879.5215   -3450.0361   -3879.5215            0    6331.8885    17.203702    20.263689    20.988477    7316.8029    4136.3716    6647.0332    8212.2608    533.75397   -624.01545   -722.73279   -2774.3725 
 9791000    251.39579   -3875.1489   -3444.2651   -3875.1489            0    6800.5963    17.174602    20.229412    20.952974    7279.7357    7678.1593    5352.8339    7370.7958      1017.35    38.353327    398.58186   -2722.2629 
 9792000    253.88179   -3895.1868   -3460.0421   -3895.1868            0    7402.5513    17.096925    20.137919    20.858209    7181.4083    7512.9968    9353.3192    5341.3379    53.605193   -539.35535   -436.10485   -2684.7472 
 9793000    259.11005   -3864.7729   -3420.6672   -3864.7729            0    5132.1359    17.155834    20.207306    20.930077    7255.8966    5297.7574    5552.1547    4546.4955    806.13245    844.38252   -423.22241   -2877.5855 
 9794000    259.08909   -3882.4357   -3438.3659   -3882.4357            0    5695.5193    17.196447    20.255144    20.979626    7307.5501    5288.1848    6259.9887    5538.3844    1330.2894   -1154.3224    1953.6677   -2831.3766 
 9795000    235.66271   -3885.9622   -3482.0444   -3885.9622            0    8163.4729    17.104051    20.146312    20.866902     7190.391    8636.9073    4145.6123    11707.899   -1464.8098   -1636.4186    478.25001   -2625.9861 
 9796000    270.13079   -3892.1107   -3429.1158   -3892.1107            0    5683.5081    17.144668    20.194154    20.916455    7241.7384    6012.5247    3691.6267     7346.373   -974.36388   -722.60174    263.69436   -2828.8616 
 9797000    253.52233   -3894.7037   -3460.1751   -3894.7037            0    6677.9443     17.13202    20.179256    20.901024    7225.7226    6206.5513    8383.7882    5443.4934   -1248.3153   -924.93482    574.77564    -2756.455 
 9798000     259.1078   -3863.7936   -3419.6917   -3863.7936            0    7198.1857    17.161294    20.213738    20.936739    7262.8271    7641.2157    6952.0807    7001.2608   -798.80933   -1043.5012   -1337.4938   -2657.2535 
 9799000    264.33611   -3871.6049   -3418.5419   -3871.6049            0    5830.0195    17.117486    20.162137    20.883292    7207.3481    4154.2002    7233.8932    6101.9649    219.35974   -364.64958   -743.02295   -2805.7382 
 9800000    254.12468   -3877.5801   -3442.0191   -3877.5801            0    5443.8537    17.134615    20.182313    20.904191    7229.0072    5530.8811    5144.8299    5655.8503    482.10282   -402.58662    1043.5402   -2868.0864 
 9801000    259.20536    -3849.439   -3405.1699    -3849.439            0    5905.3285    17.185034      20.2417    20.965701    7293.0091    6098.6664    5759.8971    5857.4221   -295.26285   -528.17076    2201.5778   -2777.0729 
 9802000    250.43917   -3857.6308   -3428.3866   -3857.6308            0    5588.1544     17.15351    20.204569    20.927242    7252.9482    4606.1805    7528.8955    4629.3871     1975.681   -20.548764    1641.4775   -2837.2895 
 9803000     243.3765    -3845.759     -3428.62    -3845.759            0     7746.202    17.083124    20.121664    20.841372    7164.0314    7278.7893    7864.2666    8095.5502    729.56612   -730.58814    206.36724   -2619.2964 
 9804000    270.01363   -3902.1677   -3439.3736   -3902.1677            0    4297.2045    17.192794    20.250841    20.975169    7302.8941    3768.5814    2598.2544    6524.7775    62.050933   -163.67355    786.70723   -2981.6989 
 9805000    248.44377   -3901.6209   -3475.7968   -3901.6209            0    6039.1545    17.219165    20.281902    21.007342    7336.5501    6687.1683     5243.384    6186.9112   -572.51801    775.47788    495.40948   -2829.6311 
 9806000    265.23095   -3870.5155   -3415.9187   -3870.5155            0    8399.1992    17.143253    20.192488    20.914729    7239.9453     7960.877    6319.4011    10917.319    -939.7143    869.76088   -253.40451    -2529.071 
 9807000    260.49839   -3886.8231   -3440.3377   -3886.8231            0    6476.7123    17.193001    20.251084    20.975421    7303.1572    7373.7232    7454.2691    4602.1446   -754.26904   -112.80197    219.38001   -2750.5092 
 9808000    261.48947     -3895.61    -3447.426     -3895.61            0    7275.4717     17.14958     20.19994    20.922447     7247.964    7865.6595    6798.3563    7162.3994   -331.35439   -1607.8343   -746.40923   -2678.3787 
 9809000    257.14648   -3899.0412   -3458.3009   -3899.0412            0    4239.6797    17.189354    20.246788    20.970972    7298.5108    5035.3495    3698.5073    3985.1823   -915.36218   -651.74289    -466.9576   -3007.0239 
 9810000    241.75644   -3913.0153   -3498.6531   -3913.0153            0    5495.9982    17.179746    20.235472     20.95925    7286.2793    5308.7715    5013.2485    6165.9745   -466.76118   -1265.5445    1299.4296   -2914.6323 
 9811000    249.86244    -3880.462   -3452.2064    -3880.462            0    6208.9968    17.180986    20.236932    20.960762    7287.8564    7226.0488    6094.7191    5306.2225    -390.1101     219.8886   -389.48366   -2792.2775 
 9812000    261.74747   -3858.7915   -3410.1653   -3858.7915            0    6234.7772    17.179182    20.234807    20.958561     7285.561     6436.243     6600.966    5667.1225    904.33302    1169.1124   -40.091351    -2747.705 
 9813000    262.71781   -3861.6321   -3411.3427   -3861.6321            0    7558.5492    17.158548    20.210504    20.933389    7259.3414     7141.095    6963.9657    8570.5869   -145.35508    231.81839   -1153.8042   -2611.1188 
 9814000    248.30674   -3882.9591   -3457.3698   -3882.9591            0    7014.6404    17.142302    20.191367    20.913568    7238.7402    6388.8433    7336.0099     7319.068    587.53136   -7.8809553   -362.92622    -2716.837 
 9815000        257.2   -3950.2895   -3509.4575   -3950.2895            0    5457.7352    17.192361     20.25033     20.97464    7302.3415    4354.2254    5143.7281    6875.2522    845.58228    1449.5086    -1409.213   -2928.2242 
 9816000    269.51468   -3895.7948   -3433.8558   -3895.7948            0    4978.0383     17.17128    20.225499    20.948921    7275.5124    4572.7874    5646.2232    4715.1041    501.48901    -289.5099    505.43056   -2905.6567 
 9817000    244.80366   -3923.3767   -3503.7916   -3923.3767            0    5953.3328    17.210957    20.272234    20.997328    7326.0633    5221.2485    7319.9123    5318.8376     129.4974    1512.0798    1180.5275    -2867.719 
 9818000    246.68296    -3883.321   -3460.5148    -3883.321            0    7410.0631    17.164624     20.21766    20.940802    7267.0558    6610.0258    7361.6019    8258.5615   -757.92889   -1509.5389    394.35842   -2675.1774 
 9819000    246.34339   -3926.8852    -3504.661   -3926.8852            0    6701.2008    17.133017     20.18043     20.90224     7226.984    4737.6819    7986.4483    7379.4722   -326.90525    -955.9572   -769.46789   -2798.3668 
 9820000    251.33276   -3890.2749   -3459.4992   -3890.2749            0    6313.1107    17.210738    20.271976     20.99706    7325.7834    5243.0197    7178.9955    6517.3167    258.58731   -1372.6103    -740.8858   -2785.0125 
 9821000    251.92624   -3882.1004   -3450.3075   -3882.1004            0    7083.1198    17.146453    20.196256    20.918632    7243.9998    7752.1464    5286.3187    8210.8945   -532.24817    617.64493    667.87967    -2702.002 
 9822000    267.12253   -3845.0216   -3387.1827   -3845.0216            0    6851.2159     17.16142    20.213886    20.936892    7262.9864    7552.9004    5976.7564    7023.9908    387.63562   -1457.5993   -1658.6408     -2661.48 
 9823000    248.36558   -3927.2069   -3501.5168   -3927.2069            0    5537.7307    17.188296    20.245542     20.96968    7297.1626    5602.2561    5001.5778    6009.3582    -439.5978   -85.621335   -901.21334   -2912.1825 
 9824000      263.244   -3915.7533   -3464.5621   -3915.7533            0    5709.2965    17.122344    20.167859     20.88922    7213.4868    4702.1263    5740.0409    6685.7223    875.04551    564.99186    634.43304   -2863.9366 
 9825000    257.18638   -3906.6622   -3465.8536   -3906.6622            0     6931.418    17.107512     20.15039    20.871125    7194.7574    5681.6576    7844.2032    7268.3933    53.858186    574.29839   -386.05556   -2738.5527 
 9826000    254.01756   -3907.7903   -3472.4129   -3907.7903            0    5087.9295    17.186839    20.243826    20.967903    7295.3074    5148.5373    5205.4355    4909.8157   -1272.5191       832.76    1428.6099   -2931.0848 
 9827000    249.82099   -3913.3412   -3485.1566   -3913.3412            0    7917.2425    17.115197    20.159441      20.8805    7204.4575    7989.9928    6640.7127     9121.022   -104.88678   -354.04171     2177.979   -2653.2949 
 9828000    259.51306   -3847.3569   -3402.5604   -3847.3569            0    7164.0949    17.129533    20.176327     20.89799    7222.5766    8135.1706    7661.5285    5695.5855    1622.8045    174.37096    739.31205   -2647.9386 
 9829000    246.64529    -3899.051   -3476.3094    -3899.051            0    6338.2399    17.166502    20.219872    20.943093    7269.4415    6331.2313    6962.2067    5721.2817    263.97924    1199.7963   -810.55756    -2804.346 
 9830000     267.7682   -3881.8643   -3422.9187   -3881.8643            0    6447.3938    17.109017    20.152163    20.872961    7196.6569     5835.871    6733.9046    6772.4058   -406.06814    1240.7816    729.33365    -2746.227 
 9831000    254.52693   -3884.6328   -3448.3824   -3884.6328            0    5881.1302    17.112544    20.156316    20.877264    7201.1078    6541.5252    5921.8421    5180.0233    67.584321   -2448.3944    502.04246   -2830.7416 
 9832000    256.07725   -3901.4728   -3462.5652   -3901.4728            0     7435.848    17.063471    20.098515    20.817395    7139.3344    8532.3296     6215.075    7560.1395    -436.3442   -85.276267    83.311949   -2688.3456 
 9833000    258.56522   -3890.7467   -3447.5748   -3890.7467            0    5694.8992    17.044398    20.076049    20.794126    7115.4206    3194.1481    8018.3004    5872.2492    158.18442    335.84806   -536.97989   -2856.6088 
 9834000    271.96322   -3852.6339   -3386.4983   -3852.6339            0    7802.5049    17.009927    20.035447    20.752071    7072.3363    5811.0145    9912.6576    7683.8427   -503.92246    -674.9521    46.619659   -2581.7263 
 9835000    256.61128   -3864.0451   -3424.2221   -3864.0451            0     6576.982    17.083636    20.122266    20.841996     7164.675    5747.2032    6503.9678    7479.7751   -444.68338    238.14079    699.35194    -2736.997 
 9836000    264.10445   -3873.8292   -3421.1632   -3873.8292            0    5508.7699    17.094581    20.135158    20.855349    7178.4545    7109.8718    5264.0429    4152.3951    747.07864    -226.0524    808.34091   -2844.4479 
 9837000    248.30298    -3878.176   -3452.5932    -3878.176            0    6591.9191     17.15073    20.201294     20.92385    7249.4222    5595.4699    6920.5269    7259.7605   -346.65401    1785.7422    1348.3563     -2755.66 
 9838000    260.23529   -3849.4382   -3403.4039   -3849.4382            0    7293.2753     17.08438    20.123143    20.842904    7165.6117    6594.3053    7302.3956    7983.1249    -921.6063   -456.19771   -223.59514    -2641.234 
 9839000    251.46969   -3918.1195   -3487.1091   -3918.1195            0    7663.2417    17.095946    20.136766    20.857014    7180.1741     7579.988    8401.7426    7007.9945   -622.58007    -1107.681   -1147.1796   -2684.6491 
 9840000    266.13988   -3916.0172   -3459.8626   -3916.0172            0     7070.526    17.142716    20.191855    20.914074    7239.2653    7291.9328    6126.2862    7793.3592    976.91664   -500.62154   -376.68241   -2713.3758 
 9841000    239.56526    -3901.702   -3491.0954    -3901.702            0    8372.8236    17.152836    20.203776     20.92642    7252.0941    6747.6659    9996.8827    8373.9223    2100.0232    1867.0452    1749.5587   -2605.5491 
 9842000    264.05528   -3907.5933   -3455.0116   -3907.5933            0    6804.6183    17.196979     20.25577    20.980274    7308.2279    7083.5027    6358.7583    6971.5938    542.13722   -1562.8139    385.53194   -2729.7549 
 9843000     243.8401   -3908.0367   -3490.1031   -3908.0367            0    7007.4374    17.149289    20.199598    20.922093     7247.596    6721.7884    7462.1986    6838.3253   -301.96829   -1827.8798   -58.596437   -2749.4257 
 9844000    246.21943   -3891.0164   -3469.0047   -3891.0164            0    5789.0237    17.162214    20.214822    20.937862    7263.9954     4657.009    7199.4305    5510.6316    1310.2281     951.3422    1426.7933   -2855.7276 
 9845000    242.71487   -3907.9361   -3491.9311   -3907.9361            0    8026.2399    17.080715    20.118826    20.838433    7161.0012    7821.1455    10010.467    6247.1077    966.14963    379.92773     1977.978   -2653.7038 
 9846000    252.26081   -3877.3612   -3444.9948   -3877.3612            0    6419.7623    17.170271    20.224311     20.94769    7274.2296     5910.836    6197.6395    7150.8115    1507.1849   -920.70327    812.19791   -2763.9403 
 9847000     259.6146    -3899.154   -3454.1835    -3899.154            0    3892.3082    17.197321    20.256172    20.980691    7308.6634    3534.3767    3818.0607    4324.4873   -798.60047    299.45525   -1242.0202   -3039.3048 
 9848000    242.29916   -3929.7981   -3514.5057   -3929.7981            0    6328.9808    17.204493     20.26462    20.989441    7317.8118    8239.0668    5166.9473    5580.9284    151.85861   -2881.3102   -133.03071   -2839.0592 
 9849000     245.9871    -3898.383   -3476.7696    -3898.383            0    5700.0966    17.190589    20.248243    20.972479    7300.0842    5653.2371    5622.2328      5824.82    2124.0934   -306.86662    1150.0066   -2869.9131 
 9850000     243.9671    -3900.811   -3482.6598    -3900.811            0    7269.0745    17.115057    20.159277     20.88033     7204.281    6100.7192     7874.494    7832.0102   -457.12043    262.04696    32.677053   -2718.9196 
 9851000    248.64976   -3920.1781   -3494.0009   -3920.1781            0    7253.7571    17.180317    20.236145    20.959947    7287.0062    8025.1209    6189.6251    7546.5252    330.90673    -913.9234    -2353.287   -2723.1187 
 9852000    259.37188   -3904.2407   -3459.6862   -3904.2407            0     6184.488    17.259028    20.328855    21.055974    7387.6207    9256.1393    6197.9227    3099.4021    33.158725    303.87921   -97.964017   -2793.3641 
 9853000    257.65262   -3898.9117   -3457.3039   -3898.9117            0    6055.9592    17.207206    20.267816    20.992752    7321.2746     5806.817    7047.7813    5313.2794    203.86991    1687.5574    518.83015   -2810.6893 
 9854000    260.07646   -3915.6536   -3469.8915   -3915.6536            0    5475.7061     17.22308    20.286514    21.012118    7341.5554    4723.7915    5425.4213    6277.9056    296.49773    2684.6516   -914.57521   -2883.6128 
 9855000    257.16945   -3881.7163   -3440.9367   -3881.7163            0     5723.235    17.176779    20.231977     20.95563    7282.5047    7166.4665    4829.7298    5173.5088   -463.99843   -541.74082   -445.07091   -2833.0841 
 9856000    254.73029   -3933.5509   -3496.9519   -3933.5509            0     5567.902     17.14988    20.200293    20.922814    7248.3448    5344.7525    5548.9726    5809.9807   -217.13966    255.67042   -301.25814   -2908.3708 
 9857000    243.77763   -3900.1745    -3482.348   -3900.1745            0    6030.4944    17.117414    20.162053    20.883205    7207.2579    4872.6491    6499.7814    6719.0528    198.17226    112.56986   -211.09061   -2848.4799 
 9858000    252.84836   -3902.6741   -3469.3006   -3902.6741            0    6624.0304    17.145907    20.195613    20.917966    7243.3079    6654.1455    5587.4601    7630.4857    427.19611    334.97914    615.09493   -2769.5631 
 9859000    252.35031   -3906.9786   -3474.4588   -3906.9786            0    4685.4782    17.149559    20.199915    20.922422    7247.9379    4008.0201    6297.8102    3750.6044    654.05667    485.71835   -330.93437   -2979.1863 
 9860000    247.76676   -3882.9298   -3458.2661   -3882.9298            0    6445.4378    17.083897    20.122574    20.842314    7165.0033    6335.9095      6484.82    6515.5839    50.029989    770.51686     389.3133   -2784.7551 
 9861000    261.70764   -3896.0433   -3447.4854   -3896.0433            0    7916.3183    17.127655    20.174115    20.895699    7220.2012    7846.5046    8256.7253     7645.725   -74.265483    305.66687   -702.98494   -2613.9032 
 9862000    256.21165   -3904.3659   -3465.2279   -3904.3659            0    6220.8089     17.14208    20.191106    20.913298    7238.4594    6404.4933    7365.9356    4891.9977   -477.03908    1663.0263    110.99366    -2808.525 
 9863000    250.77462   -3897.4958   -3467.6767   -3897.4958            0    5460.1217     17.12478    20.170728    20.892191    7216.5654    5859.3546    4290.6725     6230.338   -1216.0059    2398.2958   -56.884222   -2893.0196 
 9864000     271.9352   -3881.8774   -3415.7898   -3881.8774            0    5835.1132    17.192183     20.25012    20.974423    7302.1144    5264.7397    6575.5544    5665.0454    1715.2912     76.01708    1411.2879   -2794.3861 
 9865000    258.74264   -3884.4615   -3440.9854   -3884.4615            0    8262.5517    17.161034    20.213431    20.936421    7262.4965    6722.6818    8243.9845    9820.9889   -229.67464    1095.4523    889.86694   -2565.8485 
 9866000    250.48187   -3911.1243    -3481.807   -3911.1243            0    7056.1403    17.127603    20.174054    20.895635    7220.1353    7282.9049    8045.0254    5840.4905   -890.59061   -108.22522   -572.22626   -2738.8076 
 9867000    239.10187   -3901.1347   -3491.3223   -3901.1347            0     6163.703    17.108152    20.151143    20.871905    7195.5643    5103.5872     5564.731    7822.7908    794.81944   -2.6700531    610.38537   -2844.5037 
 9868000    252.40619   -3925.3935    -3492.778   -3925.3935            0    4838.5078    17.161453    20.213924    20.936932    7263.0283     6621.247    3653.7399    4240.5364    217.00613     159.7174    839.63503   -2980.2647 
 9869000    258.01985   -3882.1081   -3439.8709   -3882.1081            0    6639.0451    17.131959    20.179184     20.90095    7225.6455    7900.4103     5579.188     6437.537   -257.75647   -834.63592   -1090.5086   -2740.2574 
 9870000    255.54887   -3905.9665   -3467.9644   -3905.9665            0    6246.3263    17.172133    20.226505    20.949962    7276.5972     7660.824    4277.4531    6800.7018   -4.5501637    731.05668    1822.5147   -2805.0936 
 9871000    262.58482   -3894.9714     -3444.91   -3894.9714            0    7329.9721    17.123301    20.168987    20.890387    7214.6967    9351.7371    6319.1795    6318.9995    882.80419    155.10774    1624.5995    -2673.658 
 9872000    271.79416   -3863.6268   -3397.7809   -3863.6268            0    6255.3371    17.144807    20.194318    20.916625    7241.9147     5720.136    6489.6783    6556.1971    94.354034    -2649.763  -0.93092835   -2737.1178 
 9873000     238.5374   -3875.4559   -3466.6109   -3875.4559            0    2730.7933    17.268595    20.340123    21.067645    7399.9123    2727.5392    3879.7719    1585.0687    1926.6318    1215.5245    1265.6123   -3171.9034 
 9874000    263.04785   -3839.5039   -3388.6489   -3839.5039            0    5377.4644     17.21868     20.28133    21.006749    7335.9292     6055.338    4828.2598    5248.7955    603.80068    801.11403     215.5638   -2813.3301 
 9875000    276.25588   -3858.9364   -3385.4433   -3858.9364            0    7070.1091    17.130633    20.177622    20.899332    7223.9676    7209.9174     8335.049    5665.3607   -443.71644    2160.9676    859.61795   -2640.5779 
 9876000    262.35431   -3874.6443    -3424.978   -3874.6443            0    8093.7724    17.032735    20.062313    20.779898    7100.8248    7210.0155    8554.3194    8516.9821    1053.2586   -388.75073   -261.27535   -2586.8011 
 9877000    263.17685   -3863.8456   -3412.7695   -3863.8456            0    6436.5316    17.089724    20.129438    20.849424    7172.3383    5494.1833    5030.6478    8784.7637    431.63099    309.66797   -378.74113   -2739.5006 
 9878000    263.88177   -3896.8992   -3444.6149   -3896.8992            0    5381.2353    17.158367     20.21029    20.933168    7259.1116    5013.6253    4908.1177    6221.9629    50.368022    2200.9545   -406.75161   -2874.9213 
 9879000    263.15445   -3861.8344   -3410.7967   -3861.8344            0     6740.849    17.216769     20.27908    21.004418    7333.4876    5461.2666     6105.093    8656.1874   -726.89211    57.215366   -629.35054   -2689.8535 
 9880000    246.56167   -3897.7985   -3475.2003   -3897.7985            0      4964.31    17.209753    20.270815    20.995858    7324.5253    5955.4745    4262.5475     4674.908    965.70282   -157.43553     707.1904   -2944.9093 
 9881000    249.41082   -3919.4431   -3491.9615   -3919.4431            0    5950.8504    17.140842    20.189647    20.911787    7236.8908    4877.8596    6442.2469    6532.4447    1173.6741    1658.4172   -556.40119   -2863.8931 
 9882000    260.24601   -3868.0482   -3421.9955   -3868.0482            0    7233.8261    17.165687    20.218912    20.942098    7268.4055    7433.7482     7339.541    6928.1891    634.19135    225.46933     1954.364   -2655.1937 
 9883000    247.02327    -3872.255   -3448.8656    -3872.255            0    6380.7346    17.141491    20.190413    20.912579    7237.7137    7990.1861    6466.8469    4685.1708    2018.7622    576.50321    841.25641   -2775.3495 
 9884000     247.3744   -3889.8788   -3465.8876   -3889.8788            0    7093.7821    17.142007     20.19102    20.913208    7238.3667    8790.5557    6870.9616     5619.829   -574.47238     1282.254    727.91718   -2717.0385 
 9885000     247.4381     -3908.74   -3484.6396     -3908.74            0    4473.7175     17.11529    20.159551    20.880614     7204.575     4501.151    3159.2755    5760.7259   -652.35616    799.62971    807.44339   -3014.5801 
 9886000    264.09478   -3920.9653   -3468.3158   -3920.9653            0    5436.8458    17.142197    20.191244    20.913441    7238.6079    4344.3547    4608.7725    7357.4103   -228.59686    1201.9841    931.28972   -2894.3607 
 9887000    258.88558   -3924.6807   -3480.9597   -3924.6807            0     7288.385    17.050943    20.083758     20.80211    7123.6203    7836.1839    7308.7292    6720.2418    26.043244   -478.18528      365.061   -2723.7643 
 9888000     258.2763   -3916.4728   -3473.7961   -3916.4728            0    7865.7706    17.058873      20.0931    20.811786    7133.5651     8212.347    8330.9649         7054   -363.35414    1328.3992    749.66205   -2655.4749 
 9889000    246.80131   -3946.4159   -3523.4069   -3946.4159            0    7282.5374    17.058913    20.093146    20.811834    7133.6148    6836.9325    7398.2424    7612.4372    1255.2724   -998.10297    1199.0155   -2765.7576 
 9890000    252.77301   -3915.2119   -3481.9676   -3915.2119            0    4429.0567    17.183669    20.240092    20.964036    7291.2716    4873.7645     1450.838    6962.5676    1158.9181   -1494.4948     3586.535   -3011.0007 
 9891000    260.24208   -3943.8958   -3497.8498   -3943.8958            0    6605.1235    17.161975     20.21454     20.93757    7263.6919    6942.1812    6200.0502    6673.1391    537.47905   -782.46087    180.40061    -2798.146 
 9892000    241.65159   -3915.7131   -3501.5305   -3915.7131            0     5138.815    17.201104    20.260629    20.985307    7313.4883    4401.5167    5506.3577    5508.5707   -473.05018   -1371.3314    50.327911   -2953.4259 
 9893000    242.80476    -3893.911    -3477.752    -3893.911            0    7090.9377    17.116649    20.161151    20.882272    7206.2913    6765.3021    7401.2012    7106.3099   -252.77316   -834.65077    1096.7389   -2732.5202 
 9894000    251.73482   -3891.2425   -3459.7776   -3891.2425            0    6307.8076    17.107156     20.14997     20.87069    7194.3081    7531.2411    4146.3877    7245.7939    70.062353   -913.09046    1668.5853   -2797.9523 
 9895000    276.40996   -3901.1153    -3427.358   -3901.1153            0    7405.7501    17.079675    20.117602    20.837164    7159.6934    7888.9241    6506.4834    7821.8427    1285.0569   -728.60879    265.19437   -2654.0734 
 9896000     251.3775   -3897.2697   -3466.4173   -3897.2697            0     7289.604    17.214575    20.276496    21.001741    7330.6842     8939.816    6199.1142    6729.8817   -359.35011   -27.273957   -787.30637    -2687.082 
 9897000     247.2653   -3915.5017   -3491.6975   -3915.5017            0     6040.882    17.185194    20.241889    20.965897    7293.2134    6955.1574    4347.3932    6820.0952   -192.81272   -570.82704    161.78805   -2849.1649 
 9898000    251.57607   -3912.2546   -3481.0618   -3912.2546            0    6597.3326    17.186901      20.2439     20.96798    7295.3872    6098.3263    6650.6339    7043.0377    -1114.475   -2330.1758   -1593.9624   -2779.1337 
 9899000     265.2352   -3876.2552   -3421.6512   -3876.2552            0    6353.9159    17.191726    20.249583    20.973866    7301.5328    5827.0299    6872.0503    6362.6676   -763.23784   -1077.7275      836.827   -2745.0521 
 9900000    245.10582   -3888.1746   -3468.0717   -3888.1746            0    6809.6802     17.11617    20.160587    20.881687    7205.6862    6772.2622    5436.2252    8220.5533   -538.02619   -1109.1832    102.63912   -2752.4591 
 9901000    260.55086   -3869.7601   -3423.1849   -3869.7601            0    8177.1391    17.129982    20.176856    20.898538     7223.145    10033.259    6535.9204    7962.2373    187.48476   -764.09678    498.01991   -2561.7874 
 9902000    249.60603   -3906.8234   -3479.0072   -3906.8234            0    7429.3957    17.097034    20.138048    20.858341    7181.5454    8167.6002    6257.6398    7862.9472    1555.4284   -179.27183    -40.51547   -2700.8859 
 9903000    255.83287   -3883.1719   -3444.6831   -3883.1719            0    6707.7905    17.159717     20.21188    20.934815     7260.825    5805.9768    8182.7506     6134.644   -353.71421    -424.3144   -97.521285   -2734.3839 
 9904000    248.37334   -3885.3503    -3459.647   -3885.3503            0     6986.918    17.059978      20.0944    20.813133    7134.9507     5711.293    7203.6046    8045.8564    99.123918     356.5007    334.55472   -2732.6166 
 9905000    259.20677   -3899.9438   -3455.6723   -3899.9438            0    6937.9728    17.111667    20.155283    20.876193    7200.0004    6131.7942    6872.1073    7810.0168     1025.238    108.94346   -1506.4709   -2727.1531 
 9906000    232.24699   -3901.2195   -3503.1561   -3901.2195            0    6607.8409       17.122    20.167454      20.8888    7213.0521    5886.7459    6390.1877    7546.5891    853.51113    1374.1103   -845.82851   -2808.0445 
 9907000    256.85756   -3920.7159   -3480.4708   -3920.7159            0    5903.2858    17.102972    20.145042    20.865586    7189.0309    6215.8722    5336.8896    6157.0957    1480.1222    622.02504    63.563071   -2861.5429 
 9908000    250.68881   -3890.6819   -3461.0099   -3890.6819            0    7509.9746     17.13287    20.180258    20.902062     7226.799    6526.3133    6347.3268    9656.2836    826.98948   -1577.6471   -727.87508   -2669.4927 
 9909000    255.93801    -3900.287   -3461.6181    -3900.287            0    7730.6028     17.15095    20.201554    20.924119    7249.7017    8458.3308    7546.7059    7186.7716    1374.2082   -213.20421    97.336822   -2644.2656 
 9910000    267.94809   -3874.2942   -3415.0403   -3874.2942            0    7556.0785    17.160699    20.213037    20.936013    7262.0713    5689.1183    8600.1067    8379.0104   -1237.4293   -871.41009    829.78725   -2614.7771 
 9911000    243.75335   -3907.6585   -3489.8736   -3907.6585            0     5406.687    17.173858    20.228536    20.952067    7278.7902    2619.8496    7871.1814      5729.03    403.48506   -1688.4731   -199.25988   -2915.9338 
 9912000    239.43092   -3880.3471   -3469.9707   -3880.3471            0    5155.2039    17.201507    20.261103    20.985799    7314.0023    5076.0435    4055.1523     6334.416   -1227.0951   -1398.4998   -843.59179   -2920.0795 
 9913000    248.86206   -3869.6186   -3443.0775   -3869.6186            0    7275.5632    17.069431    20.105535    20.824666    7146.8178    5759.4614    8622.8117    7444.4167    270.72664   -1655.4021    682.82815   -2684.7528 
 9914000    247.72755   -3884.3372   -3459.7406   -3884.3372            0    8984.2836    17.034798    20.064742    20.782414     7103.405    8991.4185    9325.5987    8635.8336   -1946.0824   -480.02857    -648.4894   -2529.0059 
 9915000    254.59904   -3891.0299   -3454.6559   -3891.0299            0    6515.2507    17.095173    20.135856    20.856071    7179.2009    5534.8458    7573.6937    6437.2125    243.95269    481.63705    321.27847   -2772.5008 
 9916000    259.56155    -3888.523   -3443.6434    -3888.523            0    6144.5608     17.06512    20.100457    20.819407    7141.4046    7840.8712    5718.9979    4873.8132   -359.44536    512.78505     813.7561   -2803.6871 
 9917000    244.22876   -3906.9215   -3488.3217   -3906.9215            0    6601.4887    17.072165    20.108755    20.828001    7150.2524    5986.0441    7705.5512    6112.8708    788.34892    260.49253    -176.5217   -2799.9244 
 9918000    268.47131     -3895.51   -3435.3594     -3895.51            0    7757.4233    17.124094     20.16992    20.891354    7215.6985      8235.34    8196.4812    6840.4487   -1158.7528    2415.1613    325.75038   -2619.0181 
 9919000    274.54784   -3904.3892   -3433.8236   -3904.3892            0    5895.1924    17.082231    20.120612    20.840282    7162.9083    5954.6624    6856.8523    4874.0626    10.098273    616.39965   -684.05091   -2817.9902 
 9920000    256.34627   -3889.9888   -3450.6201   -3889.9888            0    4917.9624    17.112145    20.155847    20.876777    7200.6047    4908.6744    5988.5784    3856.6345   -268.12354   -489.41826     1046.847    -2934.168 
 9921000    253.78333   -3889.2962   -3454.3203   -3889.2962            0    6528.3214    17.099937    20.141467    20.861883    7185.2043    5521.5957    6243.6003    7819.7682    243.58807    111.00556    33.610069   -2770.2251 
 9922000    255.52251    -3903.518   -3465.5611    -3903.518            0    6407.4624    17.146084    20.195822    20.918182    7243.5326    5866.3573    7219.3401    6136.6898    -1399.274   -1105.2534   -187.59809   -2788.6801 
 9923000    247.42519   -3885.1936   -3461.1153   -3885.1936            0    9574.9236    17.141039    20.189879    20.912027    7237.1401    11365.398    9055.4707    8303.9022   -650.34467   -325.32983   -1100.4315   -2450.5179 
 9924000    239.41955   -3885.2796   -3474.9227   -3885.2796            0    5349.9727    17.285692    20.360262    21.088503    7421.9133    4240.6897    4655.1661    7154.0624   -722.59182   -538.15711    1224.0712   -2895.8363 
 9925000    261.24987   -3888.7354   -3440.9621   -3888.7354            0    5076.5432    17.294908    20.371118    21.099748    7433.7916    5432.0384    5950.6188    3846.9723   -881.00536    99.562614   -332.67086   -2890.5926 
 9926000    262.43714   -3905.0447   -3455.2365   -3905.0447            0    6265.8651    17.214006    20.275825    21.001047    7329.9571    6950.0846    7749.1907    4098.3199   -685.62633     197.4664    725.58036   -2785.4161 
 9927000    259.00518    -3874.134    -3430.208    -3874.134            0    7005.2572     17.20012     20.25947    20.984106    7312.2331    8171.3451    7170.2299    5674.1966    467.32188    659.10179   -901.47567   -2683.1574 
 9928000    254.40541   -3883.5358   -3447.4936   -3883.5358            0    4535.0305    17.251097    20.319513    21.046298    7377.4407    4093.7969    4838.6355    4672.6591    297.51678   -889.95744    112.40168   -2959.5588 
 9929000    245.74862   -3902.6286   -3481.4238   -3902.6286            0    4551.3696    17.276888    20.349892    21.077763    7410.5785    4523.1512    4281.4572    4849.5004    27.956563   -317.64305   -1469.7981   -2989.5314 
 9930000    258.61204   -3922.4955   -3479.2433   -3922.4955            0    5804.9046    17.173105     20.22765    20.951149    7277.8333    8559.9122    4167.5476     4687.254    1087.9246    273.92516    1220.7859   -2863.1123 
 9931000    268.92505   -3898.0498   -3437.1215   -3898.0498            0    8023.3619     17.10969    20.152954    20.873781    7197.5052    8845.1453    6916.1363    8308.8041   -55.155329    399.68532   -209.14154   -2594.9234 
 9932000    260.46286   -3871.0139   -3424.5895   -3871.0139            0     8281.262    17.156741    20.208375    20.931184    7257.0482    8045.0233     7813.933    8984.8298    473.71447   -824.04329   -1201.9515   -2548.1288 
 9933000     244.2152   -3890.5538   -3471.9773   -3890.5538            0    5987.6233    17.160058    20.212282    20.935231    7261.2579    8401.6286    3678.2434    5882.9978    550.29742    578.39077   -3227.6045   -2837.8999 
 9934000    252.70683   -3905.9672   -3472.8364   -3905.9672            0    7659.4745    17.106641    20.149363    20.870062    7193.6579    7601.5652    6565.0971    8811.7611    1109.6736   -1283.3931    1191.9561   -2669.2647 
 9935000    258.24797   -3880.1251    -3437.497   -3880.1251            0    4850.6473    17.141336     20.19023     20.91239    7237.5169    3581.7152    5572.0362    5398.1907    1089.4474    -244.1236   -98.654805   -2925.5026 
 9936000     260.9223   -3870.1004   -3422.8885   -3870.1004            0    4966.8817    17.130013    20.176892    20.898575    7223.1833    4833.2388    5541.0456    4526.3606    64.127611   -662.78532   -1202.4483   -2899.6637 
 9937000     244.2948   -3880.6668   -3461.9539   -3880.6668            0    6572.5524    17.200576    20.260007    20.984663     7312.815    8834.0939    6161.2616    4722.3016   -1027.6309    1293.7926    1340.1633   -2760.9918 
 9938000    266.05205   -3865.1409   -3409.1368   -3865.1409            0    5322.9545    17.243257    20.310279    21.036733    7367.3872    4459.9213    6630.3928    4878.5495   -621.86266   -339.68753   -370.04203   -2837.2078 
 9939000    255.10655   -3894.1007   -3456.8568   -3894.1007            0    6044.8639    17.179713    20.235433     20.95921    7286.2371    4919.4331     8375.338    4839.8207   -45.963987   -770.22513   -206.63074   -2814.5157 
 9940000    267.19512   -3846.3838   -3388.4205   -3846.3838            0    6492.5373    17.203727    20.263718    20.988507    7316.8347    6189.8765      5655.95    7631.7852    502.66481    50.234576   -1399.5876   -2695.6114 
 9941000    254.45982   -3850.3364    -3414.201   -3850.3364            0    8119.0477    17.138224    20.186564    20.908593    7233.5755    7234.7401    8603.0733    8519.3296    443.34527   -347.36841   -202.81964   -2557.6879 
 9942000    254.84191   -3853.8332   -3417.0429   -3853.8332            0    6812.9743    17.219075    20.281796    21.007231    7336.4346    6037.0851    6185.4133    8216.4245   -249.82895   -110.42788    1351.6838   -2688.0929 
 9943000    262.05323   -3864.2151   -3415.0648   -3864.2151            0    5371.1663    17.155374    20.206764    20.929516    7255.3128    6338.5254    5080.6677    4694.3059    697.48104    620.44006    265.46114   -2846.7348 
 9944000    263.53693   -3840.5943    -3388.901   -3840.5943            0    7057.2859    17.072228    20.108829    20.828078    7150.3312    8202.8553    5607.2192    7361.7831   -281.08567    553.99106   -123.39174   -2652.9655 
 9945000    242.87143   -3857.7981   -3441.5248   -3857.7981            0    5405.6066    17.203789    20.263791    20.988583    7316.9137    5972.3503    4951.8085    5292.6611    354.10007    732.78515    1298.5501   -2864.6942 
 9946000    247.82509   -3882.3405   -3457.5768   -3882.3405            0    4304.7162    17.185623    20.242393    20.966419    7293.7589    5600.6169    3579.1433    3734.3884    98.829813    475.92703       342.57   -2999.6756 
 9947000    252.24775   -3872.3094   -3439.9654   -3872.3094            0    6015.5833    17.098367    20.139618    20.859968    7183.2253    5352.8747    5477.3527    7216.5224   -963.04965   -273.88754    18.829578   -2809.7731 
 9948000    257.60432   -3893.9773   -3452.4523   -3893.9773            0    5304.4083    17.160128    20.212364    20.935316    7261.3461    5089.6377    4513.4585    6310.1286    -325.6976    956.65529    1092.0486   -2890.7193 
 9949000    268.61993   -3918.6999   -3458.2946   -3918.6999            0    7095.2921    17.192987    20.251068    20.975405      7303.14    7536.5614    5534.2824    8215.0323    1239.0395    1663.1831    2126.9724   -2702.5835 
 9950000    249.79935    -3892.266   -3464.1185    -3892.266            0    6716.0914    17.155694    20.207142    20.929907    7255.7195    5708.8039    7184.5014     7254.969    805.03144    693.75305    454.30483   -2753.4403 
 9951000    257.94894   -3921.8315   -3479.7158   -3921.8315            0    5395.6907    17.143569     20.19286    20.915114    7240.3457    5111.9226    5686.8145    5388.3349   -647.33797    32.484263    1181.7767   -2909.9686 
 9952000    245.62774    -3871.591   -3450.5934    -3871.591            0    6219.8484    17.137958    20.186251    20.908269     7233.239    5509.5044     7259.387    5890.6536    1122.0789   -2133.9464    402.98996   -2794.4655 
 9953000    248.81554   -3917.0168   -3490.5555   -3917.0168            0    7932.2893    17.077741    20.115323    20.834804    7157.2607    9238.6141    7714.3878    6843.8661   -2.8982856    313.61791    -723.9363   -2662.5728 
 9954000    252.57538   -3895.4792   -3462.5737   -3895.4792            0    4797.8749    17.139848    20.188477    20.910574     7235.632     4406.492    4010.4022    5976.7306    9.1535802   -777.70638   -1031.9752   -2956.2814 
 9955000    253.55248    -3914.486   -3479.9058    -3914.486            0     5080.568     17.11886    20.163756     20.88497    7209.0849    5986.6763    4242.3531    5012.6747   -749.93713   -787.87986   -168.19117   -2945.7495 
 9956000    246.52255   -3889.5382    -3467.007   -3889.5382            0    5779.2759    17.125254    20.171288     20.89277    7217.1659    5676.9408    4657.3011    7003.5857   -36.954389   -1398.1737    1078.8111   -2858.7095 
 9957000     246.6875   -3855.6305   -3432.8166   -3855.6305            0    6787.3646    17.113182    20.157068    20.878043     7201.914    7625.8317    6057.2721    6678.9899   -222.79775    490.55926     268.7905   -2719.9225 
 9958000     254.3102    -3861.834    -3425.955    -3861.834            0    7364.5996     17.12459    20.170505     20.89196    7216.3262    7488.1317     7285.695    7319.9721   -1588.6328   -698.26811    1709.3119   -2650.8846 
 9959000    253.78495   -3882.7902   -3447.8115   -3882.7902            0    8025.8822    17.064112     20.09927    20.818177    7140.1394     5860.661    10394.292    7822.6936   -996.48901   -603.16569    571.56402   -2612.0634 
 9960000     263.2184   -3858.3438   -3407.1965   -3858.3438            0    8177.9467    17.070711    20.107042    20.826227    7148.4256    9957.9977    7806.1169    6769.7256    685.57636   -264.26018    236.09524   -2554.6255 
 9961000      248.673   -3887.8492   -3461.6322   -3887.8492            0    5510.3851    17.127736     20.17421    20.895797    7220.3032    5229.9482    5817.0251     5484.182   -48.611902   -1743.9368   -548.83053   -2881.3847 
 9962000    254.96597   -3880.4491   -3443.4462   -3880.4491            0    6889.7785    17.144336    20.193764     20.91605     7241.318    6022.2291    8295.4898    6351.6165   -692.36738   -726.58951    712.91575    -2715.836 
 9963000    266.13178   -3886.5409   -3430.4002   -3886.5409            0    5696.8528    17.136321    20.184323    20.906272    7231.1667    7982.5566    3566.7574    5541.2445    548.80686   -1660.2387    1538.7445   -2829.6149 
 9964000    243.62082   -3855.3075   -3437.7498   -3855.3075            0    6466.2576    17.080328     20.11837     20.83796    7160.5137    6453.6973    6474.7575    6470.3181    117.33678    641.32336    1046.5687   -2762.4866 
 9965000     248.2982    -3940.556   -3514.9813    -3940.556            0    6855.4406    17.103318    20.145449    20.866008    7189.4668    7415.0172    6768.4158    6382.8888   -445.57046   -1137.3177    388.34484   -2796.1816 
 9966000    255.57757   -3888.0196   -3449.9684   -3888.0196            0    7153.8787    17.159788    20.211963    20.934901    7260.9146    6696.1936    7894.3751    6871.0675    868.85437     208.6147    716.65008   -2692.4228 
 9967000    242.93289    -3885.318   -3468.9394    -3885.318            0    6241.9119    17.192977    20.251056    20.975392     7303.127    5711.2698    7273.1344    5741.3315    2218.2425   -1333.1126   -580.15336    -2804.122 
 9968000    253.15552   -3852.1406   -3418.2407   -3852.1406            0    7282.2782    17.088352    20.127822     20.84775    7170.6107    7029.7724    7845.4537    6971.6086    702.08496   -1363.6027   -736.81653   -2656.6892 
 9969000    251.52111   -3868.5277   -3437.4291   -3868.5277            0    7401.2684     17.13303    20.180447    20.902257    7227.0013     7785.011    7772.5292    6646.2649   -439.70118    -530.4746    736.07991   -2657.3473 
 9970000    232.58894   -3880.7235   -3482.0741   -3880.7235            0    5843.4328    17.216392    20.278636    21.003958    7333.0057    6058.6205    6316.7185    5154.9594   -87.811937   -1724.1693   -1946.8823   -2857.1518 
 9971000    258.16891   -3897.4658   -3454.9731   -3897.4658            0    5878.0845    17.155068    20.206404    20.929143    7254.9247    5699.0897    5606.3112    6328.8527   -363.39764      1493.16    560.66499   -2833.0386 
 9972000    245.41396   -3907.9751   -3487.3439   -3907.9751            0    3813.6185    17.198168     20.25717    20.981725    7309.7438    3670.5839     4062.203    3708.0686    463.20082     624.5853   -616.91471   -3080.7927 
 9973000    243.67831   -3870.1082   -3452.4519   -3870.1082            0    6001.0079     17.15638     20.20795    20.930744    7256.5896    5223.6948     6931.281    5848.0478    1127.4571   -293.43623    842.03625   -2817.3657 
 9974000    257.71454   -3902.1775   -3460.4636   -3902.1775            0    6672.4927    17.157826    20.209652    20.932507    7258.4241     7057.771    6939.5033    6020.2037   -1161.6575    -948.4442    179.99259   -2754.1357 
 9975000    257.08698   -3910.9477   -3470.3094   -3910.9477            0    8131.8382     17.07077    20.107113      20.8263    7148.5005    6400.6096    7833.1089    10161.796   -262.80016    193.74936   -689.27004   -2622.5364 
 9976000      263.082   -3883.0204   -3432.1068   -3883.0204            0    5161.4378     17.15137    20.202048    20.924631    7250.2338    4214.9171    5020.3463      6249.05   -1337.8112   -1475.6987    810.10688   -2886.3507 
 9977000    258.84301   -3827.6787   -3384.0306   -3827.6787            0    6687.0975    17.156043    20.207552    20.930332    7256.1619    5557.9245    6345.2022    8158.1658   -502.17233   -1483.0817    1616.2296   -2676.3774 
 9978000    275.70511   -3891.1411    -3418.592   -3891.1411            0    6396.2125    17.134208    20.181834    20.903694    7228.4923    7062.9389    6372.9112    5752.7875   -236.89411   -1608.1949     222.9539   -2744.3023 
 9979000    257.43704   -3882.4489   -3441.2106   -3882.4489            0    5801.8596    17.169859    20.223825    20.947187     7273.706    5995.7443    4543.5504    6866.2841   -332.09414    -852.3751    713.32242    -2825.752 
 9980000    262.89954   -3891.0504   -3440.4496   -3891.0504            0    5312.1592    17.111499    20.155086    20.875989    7199.7893    5757.6909    4337.2218     5841.565   -127.59652   -142.21993    353.60063   -2882.6647 
 9981000    260.55511   -3882.8744   -3436.2918   -3882.8744            0    6976.4646     17.08554     20.12451    20.844319    7167.0717    6169.3371    6309.1033    8450.9536   -1291.5534   -1494.0138   -195.07855   -2707.0811 
 9982000     251.4161   -3908.3303   -3477.4117   -3908.3303            0     5863.311    17.148236    20.198357    20.920808     7246.261    5845.3981    6128.6001    5615.9348    631.45041   -327.68184    628.84437   -2857.7812 
 9983000    251.56208   -3905.6928    -3474.524   -3905.6928            0     8717.816    17.013629    20.039808    20.756588    7076.9556    6080.1398    9840.9411    10232.367    1235.8659    394.64842     2456.585    -2574.757 
 9984000    256.74995   -3909.4328   -3469.3722   -3909.4328            0    5732.5363    17.082814    20.121298    20.840993    7163.6406    7444.3461    4727.6192    5025.6436   -285.85902   -787.26611    428.15582   -2870.4692 
 9985000     253.7175   -3951.5776   -3516.7145   -3951.5776            0    5465.1254    17.094052    20.134536    20.854704    7177.7887    6584.7199    2652.5403     7158.116    288.28015   -794.15762    975.99275   -2944.6214 
 9986000    253.60009   -3936.8029   -3502.1411   -3936.8029            0    5356.4606    17.104022    20.146279    20.866867    7190.3549    5327.4783    5241.6615    5500.2419   -980.34603    416.32893   -992.99561   -2940.4415 
 9987000    256.37854   -3933.5731    -3494.149   -3933.5731            0     5750.154    17.098019    20.139208    20.859543    7182.7869    5339.2872     7240.492    4670.6829   -381.47767   -309.04461    1103.2687   -2891.7998 
 9988000    261.31883   -3910.6077   -3462.7162   -3910.6077            0    6163.2522    17.095381    20.136101    20.856325    7179.4625     5291.004    5485.0542    7713.6984   -217.89481    92.565881   -322.30989   -2817.3923 
 9989000    252.52885   -3917.8119   -3484.9861   -3917.8119            0    4355.5187    17.166179    20.219491    20.942698    7269.0307    5377.0328    4329.0041    3360.5192   -675.87486    894.59535    -658.2911   -3023.2516 
 9990000    250.35418   -3898.9969   -3469.8985   -3898.9969            0    7803.1521    17.081668    20.119949    20.839595    7162.1995    7635.2109    9274.8073    6499.4381   -726.88421   -1239.7091     318.4454   -2654.8332 
 9991000    246.56111   -3927.0536   -3504.4563   -3927.0536            0    6407.0427    17.129173    20.175903    20.897551    7222.1215    6659.4547    7053.2651    5508.4083    350.09166    1717.8867    307.88811   -2829.6202 
 9992000    270.17396   -3945.2716   -3482.2027   -3945.2716            0    3876.1983    17.164435    20.217438    20.940571    7266.8159    3559.2244    3879.3865    4189.9839    -615.1857    75.687726   -922.93335   -3071.4069 
 9993000    270.42221   -3908.3878   -3444.8934   -3908.3878            0     6365.119    17.106193    20.148835    20.869515    7193.0929    6773.9966    6887.6786    5433.6818   -533.08805   -176.94673   -336.01866   -2777.1677 
 9994000    257.47678   -3912.5364     -3471.23   -3912.5364            0    7830.3145    17.065856    20.101324    20.820304    7142.3284    7340.8579    7999.5758    8150.5099   -805.44087    463.63079    1010.5828   -2655.5968 
 9995000    259.59146   -3880.1372   -3435.2063   -3880.1372            0    7493.5823      17.1083    20.151317    20.872086    7195.7515    7949.9466    6201.9923     8328.808    226.87387   -3.8339692   -135.23291   -2648.8099 
 9996000    254.51021   -3927.0978    -3490.876   -3927.0978            0     5405.118      17.1406    20.189362    20.911492    7236.5843    6057.2307    4605.8491    5552.2743    578.85329    -775.1674   -1054.2057   -2920.4298 
 9997000    261.72682   -3936.5757   -3487.9848   -3936.5757            0    7207.6158    17.093571    20.133969    20.854117    7177.1831    8020.1587    5430.1599    8172.5288    182.10918    847.68741   -635.55739   -2733.5503 
 9998000    259.18484   -3893.8926   -3449.6586   -3893.8926            0    7953.6485    17.143655    20.192961    20.915219    7240.4542    8562.4265    6468.6663    8829.8528   -939.13763    81.917921   -436.62479   -2609.7963 
 9999000    243.04036   -3904.0155   -3487.4526   -3904.0155            0    5807.4726    17.113279    20.157182     20.87816    7202.0353    6705.8441    5581.0616    5135.5122    1345.1703    1100.5562    766.62014   -2877.4688 
10000000    254.24008   -3866.0428    -3430.284   -3866.0428            0    5670.3394    17.162165    20.214764    20.937801    7263.9329    8730.0835    4629.9053    3651.0293    1028.1646    782.14229     -426.278   -2829.5852 
Loop time of 414.184 on 64 procs for 250000 steps with 864 atoms

Performance: 104.302 ns/day, 0.230 hours/ns, 603.597 timesteps/s
99.1% CPU use with 64 MPI tasks x 1 OpenMP threads

MPI task timing breakdown:
Section |  min time  |  avg time  |  max time  |%varavg| %total
---------------------------------------------------------------
Pair    | 20.751     | 26.182     | 30.851     |  47.7 |  6.32
Bond    | 0.2673     | 0.28254    | 0.29366    |   1.0 |  0.07
Kspace  | 179.51     | 188.51     | 196.31     |  24.1 | 45.51
Neigh   | 4.8014     | 5.3137     | 6.1777     |  12.9 |  1.28
Comm    | 86.504     | 93.559     | 98.424     |  25.5 | 22.59
Output  | 1.2992     | 1.3106     | 1.3393     |   1.1 |  0.32
Modify  | 90.879     | 92.958     | 96.635     |  12.8 | 22.44
Other   |            | 6.068      |            |       |  1.47

Nlocal:        13.5000 ave          19 max           9 min
Histogram: 1 4 7 12 12 7 7 7 4 3
Nghost:        2199.22 ave        2238 max        2173 min
Histogram: 4 10 12 10 7 5 6 6 3 1
Neighs:        4246.73 ave        6089 max        2474 min
Histogram: 2 3 10 9 13 6 7 7 4 3

Total # of neighbors = 271791
Ave neighs/atom = 314.57292
Ave special neighs/atom = 2.0000000
Neighbor list builds = 13425
Dangerous builds = 0

unfix		3
unfix		2
unfix		1

write_data	data.final.${pid}
write_data	data.final.0
System init for write_data ...
PPPM initialization ...
  extracting TIP4P info from pair style
  using 12-bit tables for long-range coulomb (../kspace.cpp:340)
  G vector (1/distance) = 0.37335518
  grid = 24 24 24
  stencil order = 5
  estimated absolute RMS force accuracy = 0.0032659806
  estimated relative force accuracy = 9.8354037e-06
  using double precision FFTW3
  3d grid and FFT values/proc = 2535 216
Last active /omp style is kspace_style pppm/tip4p/omp
WARNING: Not all mixed pair coeffs generated from mixing. Use write_data with 'pair ij' option to store all pair coeffs. (../write_data.cpp:312)

write_restart   restart.lmp.${pid}
write_restart   restart.lmp.0
System init for write_restart ...
PPPM initialization ...
  extracting TIP4P info from pair style
  using 12-bit tables for long-range coulomb (../kspace.cpp:340)
  G vector (1/distance) = 0.37335518
  grid = 24 24 24
  stencil order = 5
  estimated absolute RMS force accuracy = 0.0032659806
  estimated relative force accuracy = 9.8354037e-06
  using double precision FFTW3
  3d grid and FFT values/proc = 2535 216
Last active /omp style is kspace_style pppm/tip4p/omp
Total wall time: 0:06:56
