LAMMPS (30 Jul 2021)
Processor partition = 1
  using 2 OpenMP thread(s) per MPI task
using multi-threaded neighbor list subroutines
variable        pid world 0 1
variable        phase world IceV IceIII

shell cd ${phase}
shell cd IceIII
include Restart.lmp
echo both
log log.lammps
#include		in.partitions
include		in.temp
variable        temperature equal 71.47
variable	tempDamp equal 100.0
include		in.pressure
variable        pressure equal 6829.8
variable        pressureDamp equal 1000.0 # This is 1 ps
include		in.seed
variable        seed equal 745823

units		real
atom_style	full

read_restart	restart.lmp.${pid}
read_restart	restart.lmp.1
Reading restart file ...
  restart file = 30 Jul 2021, LAMMPS = 30 Jul 2021
  restoring atom style full from restart
  orthogonal box = (0.18824263 0.12453895 0.14120739) to (19.811758 19.875462 20.558791)
  2 by 4 by 4 MPI processor grid
  restoring pair style lj/cut/tip4p/long/omp from restart
  restoring bond style harmonic/omp from restart
  restoring angle style harmonic/omp from restart
  972 atoms
  648 bonds
  324 angles
Finding 1-2 1-3 1-4 neighbors ...
  special bond factors lj:    0        0        0       
  special bond factors coul:  0        0        0       
     2 = max # of 1-2 neighbors
     1 = max # of 1-3 neighbors
     1 = max # of 1-4 neighbors
     2 = max # of special neighbors
  special bonds CPU = 0.002 seconds
  read_restart CPU = 0.007 seconds
include 	in.setup
variable	out_freq equal 1000
variable	out_freq2 equal 10000
variable	out_freq3 equal 1000

timestep	2.0

neigh_modify    delay 7 every 1

include		in.tip4p
# This is TIP4P/Ice

# create groups ###
group ox type 2
324 atoms in group ox
group hy type 1
648 atoms in group hy

# set charges - beside manually ###
set group ox charge -1.1794
Setting atom values ...
  324 settings made for charge
set group hy charge 0.5897
Setting atom values ...
  648 settings made for charge

# ### TIP3P Potential Parameters ###
pair_style lj/cut/tip4p/long/omp 2 1 1 1 0.1577 8.5
pair_coeff 1 1*2 0.000 0.000
pair_coeff 2 2 0.21084 3.1668
bond_style  harmonic
bond_coeff  1 450 0.9572
angle_style harmonic
angle_coeff 1 55 104.52
kspace_style pppm/tip4p/omp 1.0e-5
pair_modify tail yes

thermo          ${out_freq}
thermo          1000
thermo_style    custom step temp pe etotal epair emol press lx ly lz vol pxx pyy pzz pxy pxz pyz enthalpy

restart 	${out_freq3} restart.lmp.${pid} restart2.lmp.${pid}
restart 	1000 restart.lmp.${pid} restart2.lmp.${pid}
restart 	1000 restart.lmp.1 restart2.lmp.${pid}
restart 	1000 restart.lmp.1 restart2.lmp.1


include         in.dump
dump            myDump all atom ${out_freq2} dump.water.${pid}
dump            myDump all atom 10000 dump.water.${pid}
dump            myDump all atom 10000 dump.water.1
dump            myDump2 all dcd ${out_freq2} dump.dcd
dump            myDump2 all dcd 10000 dump.dcd
dump_modify     myDump append yes
dump_modify     myDump2 append yes


variable natoms 	equal  "count(all)"                        # NUMBER ATOMS
variable H      	equal  "enthalpy/v_natoms"                 # ENTHALPY-per-atom
variable Vol      	equal  "vol/v_natoms"                 # volume-per-atom
fix AVG all 		ave/time ${out_freq} 1 ${out_freq} v_Vol v_H file vol_enthalpy.dat
fix AVG all 		ave/time 1000 1 ${out_freq} v_Vol v_H file vol_enthalpy.dat
fix AVG all 		ave/time 1000 1 1000 v_Vol v_H file vol_enthalpy.dat


timer           timeout 02:55:00 every 1000
New timer settings: style=normal  mode=nosync  timeout=02:55:00

fix 		1 all shake 1e-6 200 0 b 1 a 1
Finding SHAKE clusters ...
       0 = # of size 2 clusters
       0 = # of size 3 clusters
       0 = # of size 4 clusters
     324 = # of frozen angles
  find clusters CPU = 0.001 seconds
fix             2 all nph aniso ${pressure} ${pressure} ${pressureDamp}
fix             2 all nph aniso 6829.8 ${pressure} ${pressureDamp}
fix             2 all nph aniso 6829.8 6829.8 ${pressureDamp}
fix             2 all nph aniso 6829.8 6829.8 1000
fix             3 all temp/csvr ${temperature} ${temperature} ${tempDamp} ${seed}
fix             3 all temp/csvr 71.47 ${temperature} ${tempDamp} ${seed}
fix             3 all temp/csvr 71.47 71.47 ${tempDamp} ${seed}
fix             3 all temp/csvr 71.47 71.47 100 ${seed}
fix             3 all temp/csvr 71.47 71.47 100 745823


run             250000
PPPM initialization ...
  extracting TIP4P info from pair style
  using 12-bit tables for long-range coulomb (../kspace.cpp:340)
  G vector (1/distance) = 0.37257801
  grid = 24 24 24
  stencil order = 5
  estimated absolute RMS force accuracy = 0.0034615205
  estimated relative force accuracy = 1.0424266e-05
  using double precision FFTW3
  3d grid and FFT values/proc = 3211 432
Last active /omp style is kspace_style pppm/tip4p/omp
Neighbor list info ...
  update every 1 steps, delay 7 steps, check yes
  max neighbors/atom: 2000, page size: 100000
  master list distance cutoff = 10.8154
  ghost atom cutoff = 10.8154
  binsize = 5.4077, bins = 4 4 4
  1 neighbor lists, perpetual/occasional/extra = 1 0 0
  (1) pair lj/cut/tip4p/long/omp, perpetual
      attributes: half, newton on, omp
      pair build: half/bin/newton/omp
      stencil: half/bin/3d
      bin: standard
Setting up Verlet run ...
  Unit style    : real
  Current step  : 38000000
  Time step     : 2
  Walltime left : 2:54:59.93
Per MPI rank memory allocation (min/avg/max) = 10.19 | 10.19 | 10.19 Mbytes
Step Temp PotEng TotEng E_pair E_mol Press Lx Ly Lz Volume Pxx Pyy Pzz Pxy Pxz Pyz Enthalpy 
38000000     75.94243   -5083.3483   -4936.8869   -5083.3483            0    7884.0822    19.623516    19.750923    20.417583     7913.499    8027.1777    7383.0108    8242.0582    -258.3395    701.22743    151.24377   -4026.9829 
38001000    70.819264    -5102.214    -4965.633    -5102.214            0    6855.4724    19.677631    19.869125    20.408002    7979.0657    6976.5705    6612.7182    6977.1284   -169.94856      92.6566   -116.17248   -4167.8858 
38002000    70.512086   -5094.9936   -4959.0051   -5094.9936            0    7146.7071     19.73049    19.687213    20.466681    7950.0436    6117.0714    7896.5172    7426.5327   -65.781317   -17.465804    500.46662   -4130.3928 
38003000    72.580123    -5103.112   -4963.1352    -5103.112            0    6850.7512    19.692831    19.758248    20.436746    7951.8529    7119.2345    7096.2531    6336.7661    83.865579   -319.63689    734.64359   -4168.6562 
38004000    66.474558   -5102.5603   -4974.3585   -5102.5603            0    6696.8402    19.829288    19.756706    20.351382    7972.8862    6612.5213    6238.9176    7239.0818   -428.34738    756.94143   -505.44512   -4195.6743 
38005000    69.231038   -5093.1361   -4959.6183   -5093.1361            0    6913.7021    19.673926    19.706833    20.487216    7943.1144    6840.2878    7424.3044    6476.5141   -50.784953    734.47612   -502.75116     -4158.72 
38006000    69.906391   -5088.3071   -4953.4867   -5088.3071            0    6957.3796    19.704847    19.715117    20.423064    7934.0205    6928.6579     6994.388    6949.0929   -414.60798   -395.14278    442.92376   -4148.4514 
38007000    68.340449   -5093.8613    -4962.061   -5093.8613            0    5678.6171    19.786332    19.829124    20.347586    7983.2863    5546.4847    5600.9349    5888.4318   -523.93722   -224.73396    -330.1873   -4300.9107 
38008000     71.44702   -5099.8548   -4962.0632   -5099.8548            0    6665.6872    19.720112    19.728859    20.466829    7962.7281     7220.548    6454.2919    6322.2218   -94.853766     6.924076   -624.34191   -4187.9888 
38009000    71.948969   -5090.7471   -4951.9875   -5090.7471            0    7206.3675    19.757832    19.527107    20.589986    7943.8905    6849.8824    8318.0327    6451.1875   -308.95048    714.76342    671.25451   -4117.1046 
38010000    72.179041   -5099.7264   -4960.5231   -5099.7264            0    6615.6597    19.729592    19.769643    20.440712    7972.8383    6979.4808    6085.3434    6782.1549   -143.65976    216.65329   -91.478887   -4191.2828 
38011000    72.872655   -5100.8582   -4960.3171   -5100.8582            0    6648.1562    19.769598    19.770784    20.293243    7931.8264     7155.336    6315.2574    6473.8751    52.809168    1113.7576    749.00524   -4191.2747 
38012000    74.886187   -5090.7537   -4946.3294   -5090.7537            0    6947.4121    19.643937    19.807579    20.388047    7932.9656    7413.0503    6632.6453    6796.5407   -268.72791    417.99597     350.2559   -4142.5544 
38013000    74.264836   -5088.6925   -4945.4665   -5088.6925            0    7447.4965    19.605136    19.735609    20.450489     7912.689    7361.1181    8432.6713       6548.7    70.073424   -277.62192     39.34506   -4086.0369 
38014000    69.583851   -5097.9547   -4963.7564   -5097.9547            0    7660.3325    19.926594    19.712629    20.236433    7948.9833    7755.3811    7127.0006    8098.6159   -132.05605   -310.60384   -328.87136   -4075.7112 
38015000    68.930173   -5096.6362   -4963.6986   -5096.6362            0    6908.8399    19.739895    19.700713    20.449688    7952.6793    7266.5921    6801.2787    6658.6491    151.98986    57.873002    186.49836   -4162.3998 
38016000    70.451178   -5098.9413   -4963.0703   -5098.9413            0    6371.4578    19.724974    19.905483    20.316656    7977.0331    6325.3914    5979.5589    6809.4231   -160.43222    418.51958   -60.651056    -4221.835 
38017000    73.448354   -5104.4395   -4962.7882   -5104.4395            0     6736.014    19.636187    19.730107    20.550928    7961.9241    6845.9895    7299.9188    6062.1336    135.65409    246.74092   -191.54387   -4180.6258 
38018000    71.740057   -5111.3233   -4972.9666   -5111.3233            0    6446.8039    19.792643    19.747127    20.464542     7998.522    6828.1658    6457.5746    6054.6712    -376.0003    67.136141    235.04755   -4220.9454 
38019000    71.206548   -5098.2643   -4960.9365   -5098.2643            0    6847.9925    19.808257    19.747136    20.322403    7949.2369    7067.6438    6449.7861    7026.5477   -722.10686   -276.58306    879.07495   -4167.0387 
38020000    67.483843   -5089.5501   -4959.4019   -5089.5501            0    7548.4453    19.675059    19.767092    20.356501    7917.0236     7320.867    7470.4061    7854.0627   -598.66711   -414.14878    335.69717   -4087.8458 
38021000    70.355785   -5102.4169   -4966.7298   -5102.4169            0     7316.638     19.73405    19.767569    20.293848    7916.5121    6830.8793    7446.0963    7672.9383   -122.87711    618.79618    495.19356   -4121.9932 
38022000    69.369384   -5096.5262   -4962.7416   -5096.5262            0    6719.9229    19.655834     19.69945    20.527897    7948.5892    6734.3143    7233.7602    6191.6943   -697.36977   -539.71593    742.38087   -4183.7545 
38023000    70.805039   -5102.2791   -4965.7256   -5102.2791            0    6820.9939    19.842779    19.698918     20.30739    7937.7784     5683.717    7761.4805    7017.7843    27.171925    163.62072    512.32353   -4176.0976 
38024000    75.432017   -5088.3592   -4942.8822   -5088.3592            0    7998.7913    19.617751    19.804583    20.370695    7914.4505    8561.3831    7206.0077    8228.9831    177.17972    375.72986     25.86558   -4019.6286 
38025000    75.524666   -5100.7473   -4955.0916   -5100.7473            0    6262.7842    19.756957    19.702583    20.479401    7971.8747    5896.5098    7106.6332    5785.2096    32.899503    15.763501   -476.59763   -4226.9702 
38026000    76.907117   -5105.9929    -4957.671   -5105.9929            0    6087.2122    19.763484    19.764055    20.458291    7991.1432    5825.1102    6627.3081    5809.2185    25.235528    713.96677    0.6243673   -4248.2513 
38027000     73.79631   -5095.5893   -4953.2669   -5095.5893            0    6856.4471    19.776014    19.749033    20.385405    7961.6658    6294.8223    7191.5935    7082.9255   -345.33574    384.89771   -55.936774   -4157.1461 
38028000    71.470382   -5097.7732   -4959.9366   -5097.7732            0     7401.017    19.732909    19.789131    20.251015     7907.963    6598.4637    8021.0292     7583.558   -126.75874   -364.08974    -543.5777   -4106.3807 
38029000    71.329433   -5097.5652   -4960.0003   -5097.5652            0    7264.8511    19.753544    19.778208    20.353934    7952.0723    7474.4585    7170.5371    7149.5578   -461.46854    370.39367    827.82339   -4117.4751 
38030000    72.958092   -5099.8206   -4959.1148   -5099.8206            0    6638.0096    19.758968    19.623854    20.565605    7974.2535    6331.0028    7107.3657    6475.6603    111.43383   -290.82855    480.37378   -4187.1388 
38031000    72.134759    -5094.363    -4955.245    -5094.363            0    6253.7767      19.6562    19.716366    20.617275    7990.2006    5246.9537    7446.7129    6067.6636    40.595206    452.20733   -199.58699   -4226.4994 
38032000    73.499519   -5102.5664   -4960.8164   -5102.5664            0    5955.6961     19.72115    19.832697     20.44208      7995.38     6653.285     5270.709    5943.0942   -319.23188    917.83672   -498.73677    -4266.356 
38033000    72.670229   -5099.9323   -4959.7816   -5099.9323            0     6569.854    19.753736     19.89262    20.213841    7943.1006    6157.8543    6048.1843    7503.5234    548.59482    483.47871    722.69991   -4198.7167 
38034000     71.98553   -5106.3046   -4967.4745   -5106.3046            0    6758.7242    19.644248    19.843947    20.396908    7951.1103    7658.0655    6230.7541     6387.353   -78.749579    216.07393    323.10448    -4183.741 
38035000    68.886426   -5105.5117   -4972.6584   -5105.5117            0    7008.0723     19.63671    19.880688    20.344934    7942.4855    7528.7712    6257.3957      7238.05   -51.136826    659.12087   -678.60216   -4160.8924 
38036000    67.227995   -5099.9771   -4970.3222   -5099.9771            0    5702.7226    19.802887    19.683705    20.495365    7988.9737    5903.2205     6255.305    4949.6421   -178.00003    988.54021   -654.37233   -4305.8924 
38037000     69.83195   -5097.4197    -4962.743   -5097.4197            0    6360.8059    19.815832    19.730281    20.362939    7961.3374    6698.1423    6033.4596    6350.8159     116.7641    228.36461   -1026.0316   -4224.2029 
38038000    70.478326   -5091.6032   -4955.6798   -5091.6032            0    6733.2586     19.65585    19.802626    20.429206    7951.8118    7337.8159     6460.965    6400.9949   -450.80143     266.5503    319.53589   -4174.8305 
38039000    69.672827   -5103.8455   -4969.4756   -5103.8455            0    7001.2793    19.752299    19.754307    20.385192    7954.1588    8101.8701    5852.5503    7049.4174   -297.42452   -50.419964   -248.81746   -4157.3045 
38040000    72.499791   -5103.5279   -4963.7059   -5103.5279            0    5693.5139    19.731311     19.76052    20.486327    7987.6391    5651.0533    6704.5283      4724.96    97.523925    341.98134   -238.69741   -4300.4598 
38041000    72.944453   -5099.8614   -4959.1819   -5099.8614            0    7157.5966    19.688062    19.778484    20.412698    7948.7052    6948.3222    7647.5755    6876.8921    140.66112     589.6894   -159.56051   -4129.4467 
38042000    73.238351   -5106.9885   -4965.7422   -5106.9885            0    6417.8141    19.738583    19.796189    20.384825    7965.3443    7460.4002    5110.4736    6682.5683   -36.046073   -68.397952    74.325942    -4220.208 
38043000     75.52614   -5100.7533   -4955.0948   -5100.7533            0    7078.2164    19.690271    19.800562    20.372882     7942.947    8161.7639    5822.5921    7250.2932    162.59856    407.00213    105.15366   -4135.1561 
38044000    70.795847   -5109.5912   -4973.0555   -5109.5912            0    5912.0139     19.83066     19.67332    20.462147    7982.9982    5574.3959    6885.8482    5275.7975    17.617982   -136.67299    -315.3256   -4284.7561 
38045000     69.42203    -5103.959   -4970.0727    -5103.959            0     6894.022    19.830195    19.841826    20.182614    7941.1979    6241.0455    6680.0096    7761.0107    -379.2114   -670.63668    869.60407   -4171.6469 
38046000    72.105236   -5101.4696   -4962.4086   -5101.4696            0    7288.3153    19.646428    19.724576    20.421149    7913.5518     7832.435    6539.9364    7492.5746   -311.73659     160.6765    511.01354   -4121.2566 
38047000    70.025455   -5096.5139   -4961.4639   -5096.5139            0    6593.7907    19.786664     19.75373    20.342631    7951.1296    4882.6294    7937.2456    6961.4972    119.90886    -233.8987    819.32079   -4196.8541 
38048000    71.504198   -5107.2604   -4969.3585   -5107.2604            0    7600.1358    19.640138    19.745985    20.491368    7946.8366    7933.2145    7175.1172    7692.0756    271.73408    1006.8516   -543.16346   -4088.5297 
38049000     72.63464   -5103.4147   -4963.3327   -5103.4147            0    6169.0281    19.734172    19.803774    20.415347    7978.5438    7177.4071    5233.1412    6096.5358   -184.02598    363.07635   -1075.2605   -4245.5115 
38050000    68.848448   -5102.1292   -4969.3492   -5102.1292            0    6530.7636     19.81283    19.755628     20.29315    7943.0409    6830.2989    6287.2712    6474.7207   -100.88688   -703.20837    173.59041   -4212.8183 
38051000    73.189901   -5085.3412   -4944.1883   -5085.3412            0    6764.9719    19.735448    19.791001    20.395754    7966.2606    6301.8992    7635.2436     6357.773   -356.96618    127.98326    383.50778   -4158.2356 
38052000    68.857035   -5100.5747   -4967.7781   -5100.5747            0    7554.5456    19.636073    19.749699    20.494995     7948.093    7511.7196    7883.9146    7268.0025    165.59956   -70.983176   -836.81369   -4092.0946 
38053000    66.326197   -5101.5254   -4973.6097   -5101.5254            0    5828.3231    19.631277    19.764847    20.548996    7973.1995    6505.2843    5670.0922    5309.5929   -66.925156   -499.71651   -23.791745   -4295.8868 
38054000     70.88005     -5091.67   -4954.9718     -5091.67            0    6784.0412    19.749231    19.865668    20.256588     7947.301    6194.1705    6510.9327    7647.0204   -10.672185   -440.08432    -3.114953   -4168.6795 
38055000    68.879662   -5094.3737   -4961.5335   -5094.3737            0    6394.8142    19.738074    19.786776    20.388585    7962.8201    7063.1023    5536.2421    6585.0984   -241.05015    737.45816   -260.24383   -4218.9065 
38056000    72.554751   -5090.4394   -4950.5115   -5090.4394            0    6564.7075    19.784142    19.798912    20.344951    7969.2083     6484.257    6765.7466    6444.1191     130.8564   -36.906854   -219.26962   -4187.5432 
38057000    70.242456   -5103.0339   -4967.5654   -5103.0339            0    7881.3642    19.664194    19.691563    20.435422    7912.9778     7763.852    8440.2523    7439.9882     170.7374   -483.35494    352.38672    -4058.035 
38058000    71.604583   -5098.7235    -4960.628   -5098.7235            0    7118.3892    19.682737    19.789932    20.365113    7932.6195     7579.553    6431.6862    7343.9284   -330.00396    172.13801    257.00042   -4137.1079 
38059000    70.825971    -5095.447   -4958.8532    -5095.447            0    6836.3843     19.59453    19.778484    20.437813    7920.6763    7488.3516    6037.8761    6982.9254    47.123559   -371.55513   -112.99059   -4169.1487 
38060000    72.420775   -5099.8629   -4960.1934   -5099.8629            0    7388.4965    19.804864     19.73171      20.3362    7947.0581    5883.5761    8437.4466    7844.4668    63.766699    428.03082    492.26735   -4103.8689 
38061000    71.450623   -5100.0106    -4962.212   -5100.0106            0    6783.1837    19.674816    19.799372    20.501304    7986.2624    7851.3915     6379.503    6118.6567   -150.80107     965.0042    411.32831   -4172.1648 
38062000    72.498414   -5090.6331   -4950.8138   -5090.6331            0    7025.7606     19.63378    19.830855    20.425289     7952.681    7046.3104     7741.819    6289.1523   -210.40934   -676.58502     358.9457   -4135.9541 
38063000    72.213199   -5095.5013   -4956.2321   -5095.5013            0    5883.4618    19.785094    19.819957     20.30334    7961.7456    5526.2204     6115.715    6008.4501    83.935824    575.58195    54.527679   -4273.0804 
38064000    70.736298   -5100.1469    -4963.726   -5100.1469            0    6363.8633    19.758428    19.785157    20.380646    7967.2754    5349.6822    7396.8181    6345.0897   -124.22436    1127.8825   -66.503576   -4224.2798 
38065000    69.543498   -5100.5453   -4966.4248   -5100.5453            0    6877.3317    19.763465    19.738122    20.422185    7966.5651    7349.2489    6471.7777    6810.9683    199.16332    283.99311    436.99457   -4167.3876 
38066000    75.899883   -5095.9387   -4949.5594   -5095.9387            0     6618.711    19.685702    19.746557    20.457926    7952.5036    6936.4963    6636.9401    6282.6967   -475.91989    367.58909   -108.70216   -4181.9272 
38067000    68.997106   -5093.2137   -4960.1469   -5093.2137            0    7644.5875    19.755205    19.745445    20.275975    7909.1574    8142.6767    7362.1561    7428.9296   -107.13097   -379.24855   -378.95168   -4078.3671 
38068000    68.558425   -5092.6052   -4960.3846   -5092.6052            0    7234.8882    19.698209    19.698816    20.446684    7933.9552    7552.3957     7658.771    6493.4979   -230.88465    1246.6949   -85.314675   -4123.2458 
38069000    68.300568   -5104.1039   -4972.3805   -5104.1039            0    6913.7905    19.781779    19.703313    20.427781    7962.0661     6443.261    7452.9208    6845.1896   -51.468379    377.87562   -742.82228   -4169.5611 
38070000    72.099528   -5094.0433   -4954.9933   -5094.0433            0    7660.8881    19.750758    19.718686    20.351138     7925.934     7361.517       7430.7    8190.4472   -163.39905    754.81776   -567.06033   -4069.4589 
38071000    74.986175   -5105.0003   -4960.3832   -5105.0003            0    6487.9077     19.66905    19.769053    20.478879    7962.9762    6014.9307    7232.8358    6215.9565   -540.18926   -215.55666    386.43597   -4206.9305 
38072000    75.553211   -5090.0702   -4944.3595   -5090.0702            0    6699.4184    19.931332    19.624654    20.308587    7943.6126    4749.9476    7786.0042    7562.3035   -26.527199    386.40211   -1237.1727   -4168.2356 
38073000    69.482712   -5110.1433   -4976.1401   -5110.1433            0    5948.0823    19.775407     19.69577    20.481308    7977.3027    5890.3378    6304.4729    5649.4362    48.349937    16.791469    266.21409   -4284.1355 
38074000     72.55296   -5105.1865    -4965.262   -5105.1865            0    7819.9678    19.678661    19.822209    20.303486    7919.8727    6943.1715    8080.6173    8436.1145   -277.59188   -172.64181    573.98488   -4062.0306 
38075000    69.434584   -5099.1867   -4965.2762   -5099.1867            0    5975.7247    19.850487    19.775695    20.278074    7960.3033    5471.9564    6042.3325    6412.8851    -199.0535    176.79897   -454.56107   -4271.5373 
38076000    74.974371   -5110.1475   -4965.5531   -5110.1475            0    6519.6618    19.744745    19.800656    20.382342     7968.658    7402.5781    5667.3411    6489.0661    148.91749    266.84111    284.20598   -4207.8726 
38077000    66.675235    -5104.185   -4975.5962    -5104.185            0    5664.9968    19.713357    19.829777    20.365096    7960.9498    5414.3925    5467.7819    6112.8162    116.20006    511.33507   -142.73409   -4317.8771 
38078000    75.317693   -5093.5954   -4948.3389   -5093.5954            0    6547.4554    19.792587    19.635133    20.431225    7940.1884    6322.6714    7988.1516    5331.5432     63.46354    607.83888   -353.59942   -4190.1468 
38079000    71.632662   -5104.1159   -4965.9663   -5104.1159            0    7755.9868    19.767451    19.806258     20.26557    7934.3603    7802.3861    6833.0651    8632.5091   -185.62623   -579.68232    360.76523   -4068.4861 
38080000    72.349178   -5097.1005    -4957.569   -5097.1005            0    6518.8977    19.701446    19.755796    20.468681    7966.7738    6989.2933    6881.1155    5686.2844    19.805804    313.87722   -300.78408   -4200.1564 
38081000    73.551923    -5099.264   -4957.4129    -5099.264            0    7215.8151     19.58704    19.805546    20.412754    7918.7606    7661.2323     7145.405    6840.8081    105.57992   -6.6151142   -269.10949   -4124.0801 
38082000    67.591796   -5097.5253   -4967.1688   -5097.5253            0    6912.1129    19.729818    19.822971    20.314658    7945.1362    7620.7092    6044.0732    7071.5563    86.110758    238.42313   -342.24764   -4166.2508 
38083000    70.877728   -5096.7497   -4960.0561   -5096.7497            0    6425.2897    19.747329    19.732977    20.430503    7961.2277    8039.8382    5067.3869     6168.644   -390.98344    240.21602   -46.905937   -4214.0392 
38084000    73.582645   -5093.8733    -4951.963   -5093.8733            0    6915.9478    19.790411    19.651577     20.45156    7953.8731    6418.8815    7441.4481    6887.5138    325.76934    203.01431    281.78443   -4149.7194 
38085000    71.458474   -5107.5241   -4969.7104   -5107.5241            0    6089.7447    19.838627    19.725358    20.426423    7993.3498    4894.6227    7316.2712    6058.3402    -194.5831     373.4403   -368.37553   -4259.7996 
38086000    73.168402   -5111.1383   -4970.0268   -5111.1383            0    5768.4913    19.646369    19.862734    20.481507    7992.5108      6579.78    5464.8361    5260.8579   -164.06871    329.51257    789.34556   -4297.6366 
38087000    71.995982   -5102.2378   -4963.3875   -5102.2378            0    6733.5504    19.740545     19.83997    20.232585    7924.1289    6577.0381    6489.2138    7134.3994   -369.76046    68.292144    238.40884   -4185.2228 
38088000    72.060748   -5101.2617   -4962.2865   -5101.2617            0     7268.899     19.82292    19.757888    20.326986    7961.2474    7227.2214    7364.4166     7215.059    71.763176    -252.0924   -390.65492   -4118.3191 
38089000    69.018925   -5105.9437   -4972.8349   -5105.9437            0    7388.6499    19.687889    19.674803    20.440708    7917.8174    7574.9324    7447.0391    7143.9783   -4.7962424    80.021903   -11.622149   -4119.6435 
38090000    70.415157   -5095.4759   -4959.6744   -5095.4759            0    7400.7457    19.737868    19.674495    20.418619    7929.2151    6748.0148    7968.6574    7485.5649    294.97831    84.730783    645.40641   -4103.8561 
38091000    69.202887   -5101.8926   -4968.4291   -5101.8926            0    6059.3122    19.781631    19.752778    20.443462    7988.1228    5034.2906    6690.8228    6452.8232     -118.249   -386.49873    571.09922   -4262.5278 
38092000    73.961176   -5103.2624    -4960.622   -5103.2624            0    7020.8506    19.542406    19.827889    20.399357    7904.4379    7227.2885    6457.7165    7377.5468    147.78471    973.34731   -145.04312   -4151.2716 
38093000    73.509467   -5092.8463   -4951.0771   -5092.8463            0    7265.3219    19.644542    19.777111    20.380607    7918.1162    6928.7623    8235.0312    6632.1721   -2.6514092    743.17301   -509.27886   -4112.0952 
38094000    73.206987   -5100.7801   -4959.5943   -5100.7801            0    6827.1968    19.767708    19.697911    20.360323    7927.9545    6489.3593    6756.7957    7235.4355   -247.88351    365.26642   -392.73208   -4170.2264 
38095000    68.389804   -5104.7709   -4972.8754   -5104.7709            0    6455.2402    19.653025    19.814432    20.414468      7949.67    6450.3685    5803.1119    7112.2403   -57.558336    903.54353   -503.12644   -4224.4691 
38096000    75.006622   -5103.5031   -4958.8465   -5103.5031            0    6566.3001    19.698545    19.771423    20.391571    7941.8693     6206.215    6666.4852    6826.2001    27.609618   -59.683011   -486.06743   -4198.3112 
38097000    71.326534   -5097.9674   -4960.4082   -5097.9674            0      6652.45    19.684686    19.796812    20.365035    7936.1322    6260.1614    6672.9483    7024.2404   -174.69006    164.35474   -94.068737   -4190.4513 
38098000    74.496354   -5108.8518   -4965.1793   -5108.8518            0    5741.3614    19.617803    19.933148    20.421143    7985.5772    7078.0507    4609.5476    5536.4859    35.432423   -230.66337   -303.56867    -4296.532 
38099000    72.276033   -5102.2197   -4962.8293   -5102.2197            0    7395.7045    19.776431    19.707661    20.368788    7938.6778    8637.0356    5832.1254    7717.9524    92.052685    157.53811    466.19392   -4106.5733 
38100000    71.256869   -5103.0812   -4965.6563   -5103.0812            0    6600.1221    19.716167    19.803542    20.397543    7964.2196    6388.1989    6734.6546    6677.5128    45.733385    44.151646    830.98024   -4199.0523 
38101000    67.634453    -5105.106   -4974.6672    -5105.106            0    6834.7676    19.655434    19.783161    20.429998    7944.1357    6652.7891     7653.023    6198.4906   -209.60381    304.34442     45.56953   -4182.8111 
38102000    72.009769   -5096.8492   -4957.9724   -5096.8492            0    7566.2265    19.695905    19.651281    20.525719    7944.4748     8035.377    7966.8937    6696.4086   -309.62693    659.29265   -57.616081   -4081.3341 
38103000    73.812755   -5100.0205   -4957.6664   -5100.0205            0    6491.7769    19.731635    19.782748    20.354976    7945.4826     6851.885    6441.9069    6181.5386   -622.79519   -271.47413   -31.664819   -4205.4207 
38104000    71.861142   -5092.0858   -4953.4955   -5092.0858            0    6511.1297    19.594277    19.892304    20.328483    7923.5411    6397.1278    5615.4363    7520.8249   -41.034036    261.33568    156.15813   -4201.0907 
38105000    72.290733   -5088.3559   -4948.9371   -5088.3559            0    6691.2467     19.78059    19.779466    20.319849    7950.1308    5755.0919    7497.4128    6821.2355   -273.94251    259.63001   -23.972986   -4173.1238 
38106000    70.977264   -5109.2359   -4972.3503   -5109.2359            0    6709.5195    19.699639     19.85491    20.386839    7973.9971    7711.4967    5695.5116    6721.5503   -108.41347    132.43566   -124.42524   -4192.0831 
38107000    71.436819   -5097.7469    -4959.975   -5097.7469            0    6523.6773    19.653928    19.807827    20.422493    7950.5093    7234.6198    5907.8005    6428.6117   -216.29986    738.11142    29.237718   -4203.5544 
38108000    75.095807   -5101.5711   -4956.7426   -5101.5711            0    6566.9497    19.707498    19.780918    20.421364    7960.9093    6553.1476    6647.0635    6500.6381    102.95647    874.32156     564.6961   -4194.3085 
38109000     73.69007   -5099.7112   -4957.5937   -5099.7112            0    7281.1656    19.598927    19.805719     20.38659    7913.4798    6852.0751    8496.4364    6494.9852    52.022595    194.86387   -523.68225   -4117.2745 
38110000    73.441825   -5098.2557    -4956.617   -5098.2557            0    7168.7508    19.718646    19.777857     20.43094    7967.9141     7950.053    6431.3492    7124.8502    -267.8971    90.436238    204.90342   -4123.5805 
38111000     73.74296   -5100.3192   -4958.0997   -5100.3192            0    5846.3137    19.722358    19.819844    20.481119     8005.948    6657.6986    5417.2762    5463.9664    160.94775    366.38021   -696.40363   -4275.4926 
38112000    69.445519   -5090.6176    -4956.686   -5090.6176            0    6649.3587    19.665457     19.81774    20.394703    7948.3236    6907.9631    5838.6245    7201.4886    84.068803   -55.301079    -132.8234   -4185.9047 
38113000    69.049808   -5104.0884   -4970.9201   -5104.0884            0    7040.6073    19.746205    19.777001    20.428306    7977.6767    7571.3388    6806.4001     6744.083   -299.95449   -197.59812    376.86006    -4151.772 
38114000    70.999024   -5093.0485   -4956.1209   -5093.0485            0    7627.9125    19.694862    19.795637    20.374503    7943.4548    8335.6879    6549.0589    7998.9907     134.6072    519.36441   -337.52591   -4072.4491 
38115000    71.663678   -5099.3714    -4961.162   -5099.3714            0    7492.8306    19.628385    19.787128    20.418063    7930.1584    7939.2657    6549.6524    7989.5736   -11.674886    85.112317    -123.4486   -4094.5919 
38116000    69.187775   -5104.9388   -4971.5043   -5104.9388            0    6464.4497    19.668548    19.852405    20.409592     7969.292    6612.6989    6276.5196    6504.1306   -41.304537    82.051822   -931.75932   -4220.1804 
38117000    68.702401   -5106.8024    -4974.304   -5106.8024            0    5490.8817    19.614767    19.921837    20.444584    7988.9702    6000.5719    4814.4506    5657.6226   -402.73461    391.57177   -39.082432   -4334.5563 
38118000    71.747706   -5109.7582   -4971.3867   -5109.7582            0    6218.2649    19.802859    19.829882    20.381882     8003.728    6287.8295    5458.8146    6908.1504   -8.5938544    820.42155    -282.9522   -4245.5525 
38119000    70.543342   -5107.3697   -4971.3209   -5107.3697            0    5882.5124    19.770942    19.761131    20.435935    7984.2414     5828.307    5841.3312     5977.899   -64.609298    500.35717    98.951046   -4286.3496 
38120000    70.995519   -5095.7079   -4958.7871   -5095.7079            0    7051.2966    19.641357    19.847369    20.361417     7937.476    7179.8762    7029.3349    6944.6786   -16.661344    1299.5743   -1085.4254   -4142.5294 
38121000    68.240105   -5100.8883   -4969.2815   -5100.8883            0    6781.1131    19.732485    19.772273    20.315471    7926.2044    6794.9352    6312.4448    7235.9593    81.747007   -334.98025   -687.75798    -4185.415 
38122000    71.277971   -5095.5566    -4958.091   -5095.5566            0    6238.4999    19.822407    19.702468    20.434275     7980.613    5953.3126    6175.6952     6586.492   -145.36448     3.601427    153.35632   -4231.9979 
38123000    71.973443   -5104.8247   -4966.0179   -5104.8247            0    6719.4851    19.739117    19.770133    20.467183    7987.2152    7059.6348    6205.0225    6893.7979   -77.468344   -855.69819   -470.80994   -4183.2963 
38124000    69.859974   -5094.8209     -4960.09   -5094.8209            0    7134.0273     19.71106    19.814276    20.340609     7944.236    6570.7617     7532.586    7298.7343   -152.65734   -412.94544    846.50256   -4133.5521 
38125000    72.913856   -5090.4839   -4949.8633   -5090.4839            0    7334.4715    19.680262     19.73947    20.379054    7916.8132    6279.2988    7949.4445    7774.6712     -103.011    496.84529    25.353275   -4103.0355 
38126000     68.17132   -5101.3085   -4969.8344   -5101.3085            0    6688.4667     19.57579    19.861017    20.410888    7935.6533    7050.5244    6243.7074    6771.1682   -480.62012   -290.56432    -714.9545   -4195.7556 
38127000    73.446706   -5104.5562    -4962.908   -5104.5562            0    6924.1403     19.78095    19.784553    20.285551    7938.8975    6661.9005    6834.0546    7276.4656   -90.712379    346.86462     532.9412   -4161.2264 
38128000    71.169408   -5094.6645   -4957.4083   -5094.6645            0    8012.0694    19.701879    19.625478    20.348456    7867.9094    7991.1012    8156.0621    7889.0451   -254.79754   -210.41722    361.81104   -4038.0603 
38129000    72.526211   -5091.9272   -4952.0543   -5091.9272            0      5836.79    19.689578    19.784255    20.453162     7967.399    5661.7695    5857.3835     5991.217   -265.93948   -751.49681   -201.17758   -4273.8407 
38130000    65.722931   -5100.4548   -4973.7026   -5100.4548            0    7125.8332    19.793904    19.814358    20.297069    7960.5812    7028.0455    6954.5135    7394.9406    -275.8795   -41.309308    898.76787   -4146.4154 
38131000    70.656679   -5107.3259   -4971.0585   -5107.3259            0    6802.6196    19.604044    19.799477    20.454181    7939.2867    6754.3241    6776.5761    6876.9585    157.69936    1017.6686   -88.709345    -4183.408 
38132000    76.887136   -5102.3973    -4954.114   -5102.3973            0    6499.0579     19.76919    19.793644    20.330665    7955.4768    6803.8409     6665.363    6027.9699    -294.4836    1099.5787    727.21871   -4200.0772 
38133000    72.478698   -5096.7452   -4956.9639   -5096.7452            0    6837.9561    19.871165    19.715799    20.392076    7989.1241     6632.841    7411.0739    6469.9535   -17.413619    268.89813   -15.040896   -4160.2519 
38134000    71.246266   -5103.7885   -4966.3841   -5103.7885            0    6458.7362    19.711483    19.756711    20.417419    7951.2387    5695.0304    6911.6166    6769.5616    280.66512   -49.851612   -9.2884909   -4217.4248 
38135000    74.737463   -5104.5103   -4960.3728   -5104.5103            0    7256.3545    19.713896    19.800293    20.279368    7915.8671    7233.6587    7581.7522    6953.6526   -244.53168    -145.2522    76.952713   -4122.6644 
38136000    72.954744   -5102.7749   -4962.0756   -5102.7749            0    6692.2617    19.752665    19.696289    20.477778    7966.9654    7211.8216    7351.2211    5513.7423    232.20545    140.79955    424.81138   -4184.5016 
38137000    68.403347   -5097.6877   -4965.7661   -5097.6877            0    7187.5516     19.70725    19.685015    20.521326    7960.9921     6754.981    8478.8416    6328.8321   -146.80584   -721.78241   -407.08091   -4131.2705 
38138000    70.140806   -5100.8255   -4965.5531   -5100.8255            0    7588.8199    19.661823    19.867543    20.340974    7945.8377    7906.6607    6766.3912    8093.4077   -109.49561   -202.76702   -227.80104   -4086.1463 
38139000    67.549413   -5103.3046   -4973.0298   -5103.3046            0    6931.9598    19.764695    19.787287      20.3257    7949.1719    7991.8644    5480.3195    7323.6956    280.10171    238.79855     637.5541   -4169.4041 
38140000    75.651544   -5102.5555   -4956.6551   -5102.5555            0    7426.7487    19.817285    19.692469    20.351051    7942.0232    6392.9528    8605.6965    7281.5966    212.02478    135.34566   -576.77528   -4096.4426 
38141000    70.492062   -5100.2746   -4964.3247   -5100.2746            0    6150.7714    19.746611    19.833993    20.339854    7966.1879    5036.0549    7145.6903     6270.569    24.419805    757.32412   -112.76481   -4249.7362 
38142000    72.493544   -5104.6078   -4964.7979   -5104.6078            0    6601.2086    19.686312    19.839709    20.369364    7955.6766    7846.9959    5637.2575    6319.3725    367.28808    662.38691   -165.87569   -4198.8901 
38143000    66.536732   -5090.8955   -4962.5738   -5090.8955            0    7417.5023    19.664917    19.731519    20.438364    7930.4669    7491.6994    7799.0314    6961.7759    -269.3015   -161.55937    43.243183   -4104.6824 
38144000    73.916833   -5107.3764   -4964.8216   -5107.3764            0    6378.5114    19.799158    19.682583    20.480362    7981.1676    5938.0064    7516.2708     5681.257   -143.01078    760.53319    135.82699   -4222.3811 
38145000    72.510769   -5102.2399   -4962.3968   -5102.2399            0    6216.9232    19.745864    19.868501    20.253261    7945.7739    7183.4797    4366.2105    7101.0794   -188.88866   -170.64952    109.29944   -4241.9737 
38146000    68.863974   -5101.6933   -4968.8833   -5101.6933            0     6281.224      19.6727    19.846755    20.409542    7968.6864    7097.7323     5499.853    6246.0867   -9.1065808   -646.58582     448.7877   -4238.9101 
38147000    68.865118   -5105.3932    -4972.581   -5105.3932            0    6519.0323     19.60096    19.804124    20.489991    7953.8014     6825.875    7108.5569    5622.6651   -292.38542     395.6012   -77.948956   -4216.3861 
38148000    68.945849   -5102.2861   -4969.3183   -5102.2861            0    6760.0159    19.701085    19.771114    20.438474     7961.039    7402.1924    6025.4073    6852.4481   -235.63595    283.66597    870.60716   -4184.4561 
38149000    74.366254   -5101.1651   -4957.7435   -5101.1651            0    6844.5298    19.888758    19.787697    20.222595    7958.6572    5952.3895    7289.0466    7292.1532   -600.55169    975.17591   -589.70584   -4163.3068 
38150000    69.070578   -5095.2859   -4962.0775   -5095.2859            0    6882.8885     19.62062    19.744483    20.476067     7932.408     7527.665    6589.6295     6531.371    145.99752    212.30402    1212.8814   -4165.8234 
38151000    71.696862   -5087.2718   -4948.9984   -5087.2718            0    6953.1418    19.779718    19.771459    20.310175    7942.7788     6432.738    6920.2636    7506.4238   -371.83872    705.40112    751.73303   -4143.5654 
38152000    69.243564   -5096.4038   -4962.8618   -5096.4038            0    6230.5989    19.766769    19.728061    20.523419    8003.3128    5641.4252    6683.2772    6367.0943    127.35856    316.95871    1218.9843   -4235.6256 
38153000    69.686181    -5093.705   -4959.3093    -5093.705            0    7509.1937    19.808167    19.698188    20.274994    7910.9988    7822.2302    7076.5949     7628.756    205.91092    532.65463    529.88892   -4092.9451 
38154000    70.935546   -5097.5427   -4960.7375   -5097.5427            0     6409.334    19.676453    19.767126      20.4052    7936.5401    5693.2686    7092.1513     6442.582   -136.21751    111.54241     173.6463   -4218.8808 
38155000    72.364083   -5097.3351   -4957.7749   -5097.3351            0    7594.1115    19.721461     19.79834    20.260013    7910.5661    7512.2097    7746.9711    7523.1537   -155.32844    165.31037   -300.40925   -4081.6613 
38156000    69.032748   -5102.4322   -4969.2967   -5102.4322            0    7215.6099    19.709714    19.663995    20.549283    7964.3209      8251.24    6769.2029    6626.3866    155.60844    729.24257    323.45741   -4131.1932 
38157000    70.572036   -5095.3277   -4959.2236   -5095.3277            0    7124.0453    19.838582    19.830147    20.218159    7953.8643    6630.3423    6484.0065    8257.7872    134.86762    633.82914    910.59935   -4132.8418 
38158000    68.549803   -5098.1661    -4965.962   -5098.1661            0    7759.3554    19.675427    19.711956    20.405938    7914.2624    6981.2378    8137.1244    8159.7041   -116.32016    229.42232   -525.29042   -4070.3663 
38159000    70.408335   -5100.2879   -4964.4995   -5100.2879            0    7949.4995    19.729882      19.8044    20.263838    7917.8608    7885.6645    7628.3441    8334.4899    -39.16695    180.77872   -513.11382   -4046.5399 
38160000    69.479465    -5098.758    -4964.761    -5098.758            0    6156.9294    19.801825    19.838006    20.321028    7982.6836    5642.4604    6271.8461    6556.4817   -247.60218    159.41564   -201.91386   -4247.9759 
38161000    68.644947   -5098.9651   -4966.5775   -5098.9651            0    7007.6172    19.765369    19.720232    20.415128    7957.3613    6791.0643    7408.7165    6823.0709   -33.092542    380.64795   -272.29891   -4153.3439 
38162000    72.543115   -5098.6835    -4958.778   -5098.6835            0    7104.6463    19.636337    19.787273    20.393747    7923.9814    7460.6819    7118.7164    6734.5405    293.63288   -213.51622     329.3874   -4137.7428 
38163000    73.087969   -5104.1475   -4963.1912   -5104.1475            0    5489.7376    19.868672    19.690723    20.469079    8008.0874    5183.5686    6314.9944    4970.6499   -188.78443    628.14423    1407.3618   -4322.0462 
38164000    69.520244    -5099.204   -4965.1284    -5099.204            0     7121.342    19.701272    19.732686    20.398481    7930.0933    7360.9207    6926.8721    7076.2334    -170.1055    -771.1602    441.42839    -4141.529 
38165000    70.823797   -5101.1454   -4964.5558   -5101.1454            0    6662.0599    19.736489    19.911569    20.257648    7960.9414    5802.2703    6096.1511    8087.7582    143.91741    969.12109    649.73281   -4191.0762 
38166000    69.889326   -5097.9983   -4963.2108   -5097.9983            0     6724.491    19.718816    19.794554    20.446167    7980.6535    6170.9437    7421.7221    6580.8071   -128.72702    129.68638   -1302.9474   -4180.5497 
38167000    72.818885   -5102.1917   -4961.7544   -5102.1917            0    7528.8893    19.714491    19.779999    20.410696    7959.2042     6604.289    7565.9804    8416.3985   -72.449636   -158.80415     1093.549   -4087.8248 
38168000    73.836832   -5095.4092   -4953.0087   -5095.4092            0    7232.7883    19.676923    19.739502     20.48659    7957.2511    7526.0157    7197.5148    6974.8345    120.03355    290.59251   -197.60164   -4113.6556 
38169000    77.600967   -5102.4915   -4952.8315   -5102.4915            0     6864.392     19.84105    19.627723    20.404692     7946.294    6171.6636    7843.3766    6578.1359   -61.609611    350.17069   -790.90375   -4157.3271 
38170000    71.091376   -5098.1945   -4961.0888   -5098.1945            0     6590.645      19.7668    19.735772    20.372001    7947.3839    6635.5974    6866.2326    6270.1049   -434.90719    405.42158   -609.96937   -4197.2038 
38171000    75.997103   -5104.1796   -4957.6128   -5104.1796            0    7307.3191    19.701017    19.760712    20.389423    7937.7271    7938.5966    7036.9033    6946.4573   -310.87646   -298.53408   -612.44319   -4111.6912 
38172000    70.627601   -5102.4234   -4966.2121   -5102.4234            0    7205.6591    19.825045     19.66789    20.406181    7956.7132    7511.3698    6601.1195    7504.4879   -103.02505    318.99782   -313.01836   -4130.0638 
38173000    69.780816   -5103.3488   -4968.7706   -5103.3488            0    6503.1078    19.748894    19.713625    20.414896    7947.9741    5622.4704     6897.291     6989.562   -318.94373   -496.92237    500.77866   -4214.9756 
38174000    71.858683   -5104.9961   -4966.4106   -5104.9961            0    6258.8517     19.69454    19.796422    20.458549    7976.4083    6978.0758    6371.0237    5427.4556   -252.98196    641.35128    143.62631   -4238.3325 
38175000    72.643108   -5100.0497   -4959.9514   -5100.0497            0    7531.7656     19.70816    19.778329    20.330379    7924.6698    9088.8462    6361.8812    7144.5694   -188.75699   -115.63691   -481.39412   -4089.4813 
38176000    64.642322   -5097.5395   -4972.8714   -5097.5395            0    5637.2388    19.747455    19.814251    20.391636    7978.8605    5972.1605    4599.1753    6340.3806   -338.47385    738.68678    287.80133   -4316.9025 
38177000    71.169666   -5099.3318   -4962.0751   -5099.3318            0    6190.3417    19.847482    19.745676    20.342654    7972.3255    6517.5215    5900.0198    6153.4837    53.392987    85.967847    421.13558   -4242.3353 
38178000    71.457357   -5097.4284   -4959.6169   -5097.4284            0      6519.45    19.613569    19.786967    20.445825    7934.8821     8335.003    4876.0544    6347.2926   -240.06549    112.32555    242.73037   -4205.1723 
38179000    75.264506   -5099.0947   -4953.9408   -5099.0947            0    6888.5716    19.754629    19.829902    20.317244    7958.9218    7197.9908    6089.9863    7377.7378    62.807305   -709.88384    119.47005   -4154.3656 
38180000    73.783438   -5102.9369   -4960.6394   -5102.9369            0    6188.1946     19.78786    19.799135    20.362149    7977.5339    6502.7028    5988.3744    6073.5065   -190.20715    671.03099    222.18794   -4240.6791 
38181000    69.183023   -5097.5206   -4964.0953   -5097.5206            0    7603.4716    19.671456    19.723437    20.496797    7952.5261    7340.8026    8645.4347    6824.1774   -238.13415   -53.768745    447.32045    -4082.249 
38182000    69.456416   -5094.7309   -4960.7784   -5094.7309            0    7239.2523     19.68389    19.763099    20.367776    7923.3635    7008.1125    7429.0827    7280.5618   -223.98023    91.221292    236.66394   -4124.2529 
38183000    70.141333   -5108.5552   -4973.2817   -5108.5552            0    5750.3786    19.771203    19.820614    20.312541    7960.0253    4412.8725    6968.1392    5870.1243   -81.896392    156.06258   -218.25657   -4305.7271 
38184000    68.757192     -5102.42    -4969.816     -5102.42            0    6838.8886     19.79695    19.740526    20.351088    7953.2499    6938.1657    7207.6103      6370.89    421.07948    85.116502   -399.36538   -4176.5734 
38185000    74.115809   -5105.2832   -4962.3447   -5105.2832            0    6149.6068    19.813266    19.814948    20.363548    7994.7053    6470.5396    5778.9941    6199.2868   -165.78458   -628.61895    275.93881   -4245.3339 
38186000    69.969142   -5093.0398   -4958.0984   -5093.0398            0     5779.106    19.720075    19.793054    20.461486    7986.5378    5692.1569    6053.1536    5592.0076   -435.98682    120.84924    -146.9691   -4284.9743 
38187000     68.43602   -5097.5583   -4965.5736   -5097.5583            0    6960.5116    19.656861    19.868595    20.305267    7930.3072    6190.6518     7565.029     7125.854   -438.05455    695.51602   -143.71961   -4160.5529 
38188000    73.127273   -5098.9012   -4957.8691   -5098.9012            0     7029.753    19.763869    19.733927    20.310205    7921.3602    7625.8467    6329.5627    7133.8496    294.00766    555.52083    -117.4996   -4145.7575 
38189000    68.461256   -5103.3104   -4971.2771   -5103.3104            0      6583.23    19.823117    19.674884    20.424453    7965.8947    7360.6581    6020.8493    6368.1826   -23.246427    -212.1447   -316.46372   -4206.4743 
38190000    75.935831   -5099.3161   -4952.8675   -5099.3161            0    6573.5025    19.638203    19.780455    20.496437    7961.8942    6916.7926    7009.7268    5793.9881     162.5442     636.7709    287.52383   -4189.5783 
38191000     71.92618   -5095.3679   -4956.6522   -5095.3679            0    7019.7561    19.714895    19.806324    20.264949    7913.0493    6649.7143    6991.0655    7418.4883   -311.41077    389.67468    183.08043   -4146.5463 
38192000    73.855852   -5102.0424   -4959.6052   -5102.0424            0    6427.3916    19.717699    19.779463    20.416475    7962.5377    6365.7484    6264.9185    6651.5077   -6.9613648   -120.67884    253.25521   -4213.2215 
38193000    69.986122   -5099.0242   -4964.0501   -5099.0242            0    6845.7813    19.756685    19.836436     20.39267    7991.9325    7902.4815    5761.8177    6873.0447   -487.13936     161.7397    670.44502    -4166.146 
38194000    74.941916   -5101.0831   -4956.5513   -5101.0831            0    6693.1233    19.631334    19.726305    20.581605    7970.3024    6622.1682    7179.7704    6277.4313   -189.29564    161.75034   -558.10628   -4178.5515 
38195000    71.347839   -5100.0734   -4962.4731   -5100.0734            0    6089.6588    19.671547    19.890272    20.353356    7963.7072     6498.102    5162.8115    6608.0631    94.045598    321.95099   -130.50159   -4255.2049 
38196000    72.117188   -5102.2727   -4963.1886   -5102.2727            0     7755.036    19.665245    19.858869    20.308015    7930.8793    7271.3012    6758.4889    9235.3177   -314.31061    210.05979    335.46891   -4066.2122 
38197000    67.598795   -5093.6961   -4963.3261   -5093.6961            0    7249.3481    19.718038     19.77881    20.445484    7973.7253    5977.8575    8633.1981    7136.9888   -175.44695    427.02899    179.35496   -4120.3095 
38198000    72.958455   -5102.9126   -4962.2061   -5102.9126            0    6171.9413    19.838711    19.634209    20.460415    7969.6876    6266.2361    6107.5505    6142.0373   -468.30595    355.52865   -220.52321   -4244.8431 
38199000    73.904942    -5095.268   -4952.7361    -5095.268            0    6862.9832    19.589475     19.79201    20.454934    7930.6862    6860.9554     7067.918    6660.0762   -396.19532   -37.093165   -391.88065   -4158.9571 
38200000    70.211634   -5104.0663   -4968.6572   -5104.0663            0    6814.1178     19.77477    19.760477    20.380931    7964.0301    6772.4827    6369.4799    7300.3909   -259.89677   -200.43951    503.72933   -4177.2164 
38201000    69.099742   -5099.4257    -4966.161   -5099.4257            0    6284.2966    19.751003    19.759092    20.417227    7968.0653    5782.8497     6550.019    6520.0213   -367.52917    290.79138   -300.66707   -4235.8877 
38202000    68.612718    -5098.321   -4965.9956    -5098.321            0    5261.2461    19.722249    19.772745    20.487206    7989.2523    5616.8921    5310.2783    4856.5679   -211.27703    469.42307    232.54105   -4352.9813 
38203000    71.704233   -5109.7834   -4971.4957   -5109.7834            0     6211.553    19.800045    19.817265    20.308743    7968.7998    6042.1404    6480.2423    6112.2765    -82.41547    128.43576    45.216799   -4249.6091 
38204000    68.068318   -5097.2219   -4965.9465   -5097.2219            0    6186.6346    19.687552    19.681097    20.476749    7934.1796    5949.3072    6993.3394    5617.2573    91.203093     168.8641     320.1148   -4250.0794 
38205000    66.165607   -5099.8454   -4972.2395   -5099.8454            0    6737.9935    19.759619    19.821226    20.269112    7938.5978    6745.1411     6654.585    6814.2543   -129.73678    634.15878   -132.08314   -4192.1395 
38206000    70.668994   -5104.6883   -4968.3972   -5104.6883            0    6611.4242    19.735923    19.819531    20.302007    7941.2671    7408.4421    5218.6618    7207.1686   -119.09576     370.5301    594.27253   -4202.6936 
38207000    70.694317   -5102.6726   -4966.3326   -5102.6726            0    6224.3223    19.686694    19.803373    20.494324    7989.9774    6291.4247    5735.9184    6645.6237   -57.230916   -71.937225   -89.128811   -4241.0396 
38208000    72.431352   -5097.0084   -4957.3185   -5097.0084            0    6806.4958     19.62669    19.780763    20.453046    7940.5046    6829.3635    7802.8335    5787.2902   -387.16127    311.30005   -576.55182   -4169.0983 
38209000    70.970654   -5101.3689    -4964.496   -5101.3689            0    7021.6441    19.719122    19.874873    20.278588    7947.4837    6299.4014    7525.8236    7239.7072   -367.36539    57.589769   -551.92323   -4150.6461 
38210000    75.386827   -5104.3561   -4958.9663   -5104.3561            0    5420.5466    19.733269    19.872372    20.409523    8003.5305    5341.0452    5470.6221    5449.9725   -437.37941    78.600081    300.56864   -4326.2623 
38211000     73.78839   -5105.6236   -4963.3165   -5105.6236            0    5906.7448    19.756253    19.724689    20.475923    7979.1797    5596.3408    5807.7898    6316.1039   -3.1877396   -59.353627    524.85071   -4275.9596 
38212000    73.587043    -5103.924   -4962.0052    -5103.924            0    7358.3216    19.779888    19.779923    20.333016    7955.1838    6554.7387    8337.4255    7182.8005    -55.76856    222.51464   -335.53698    -4108.306 
38213000    72.482626   -5094.0694   -4954.2805   -5094.0694            0    6413.6531    19.700997    19.951049    20.264989    7965.2668    6241.5574    5496.8415    7502.5605    -6.454336   -245.46176   -178.69515   -4209.2369 
38214000    77.294683   -5107.3135   -4958.2442   -5107.3135            0    7346.0542    19.632796    19.772266    20.497429    7956.7918    7195.1456    7805.8506    7037.1664    -429.4928    968.31399    320.79238    -4105.796 
38215000    67.606809   -5103.3458   -4972.9604   -5103.3458            0    7051.4568    19.773554     19.71176    20.360985    7936.1329    6917.0282    6948.4654    7288.8767    118.48133   -609.99164   -267.49455   -4156.8223 
38216000    70.304726   -5100.5458   -4964.9572   -5100.5458            0    6877.1049    19.690836    19.790387    20.362815    7935.1705    6243.8907    7461.5875    6925.8364    143.35396    470.32378    173.72252   -4169.0952 
38217000    66.374926   -5098.9566   -4970.9469   -5098.9566            0    6603.3136    19.636757     19.78514    20.397543    7924.7715    6186.6654    6893.5285    6729.7469   -680.30034    428.17148   -485.03345   -4207.7712 
38218000    75.128036   -5096.3935   -4951.5028   -5096.3935            0    7157.0921    19.673304    19.628631    20.505789    7918.5159     7687.596    7144.1969    6639.4835   -33.822213    176.91218   -322.74263   -4124.9772 
38219000    68.515449   -5087.8645   -4955.7267   -5087.8645            0    8120.0672    19.796572    19.691458    20.331384    7925.6484    8152.5645    8678.6033    7529.0338   -249.54633    115.26399      889.435   -4017.1488 
38220000     68.30402   -5101.9977   -4970.2677   -5101.9977            0    6269.6664    19.788222    19.734852    20.356263    7949.4795    5798.0958    6052.7981    6958.1054   -185.05924    233.20806   -330.97217   -4243.3939 
38221000    72.672696     -5103.27   -4963.1146     -5103.27            0    6275.1039    19.659425    19.823321    20.393895     7947.809    6255.4559    6304.3256    6265.5303    -62.78293    274.35916    116.84244   -4235.7633 
38222000    71.919308   -5103.1855    -4964.483   -5103.1855            0    7295.9654    19.621032     19.78307    20.379432    7910.5669    8686.5655    6393.9138    6807.4167     427.1934   -139.07838    776.74788   -4122.7657 
38223000    73.507572   -5107.7285   -4965.9629   -5107.7285            0    6907.5755    19.814025    19.750091      20.3459    7961.9368    7544.4735    6776.6251     6401.628   -316.07835    617.21361   -787.75217   -4163.8782 
38224000    71.668396    -5098.533   -4960.3144    -5098.533            0    7391.5947    19.795697    19.685544     20.32672    7921.1006    7100.6023    7180.4413    7893.7404   -13.813289    367.90788   -288.43801   -4106.4291 
38225000    70.089867    -5102.678   -4967.5038    -5102.678            0    6630.5175    19.662834    19.841162    20.382932     7952.064    5768.8827    7374.1873    6748.4824    126.16819   -206.95605    7.9264835   -4198.5448 
38226000     70.58872   -5098.2768   -4962.1405   -5098.2768            0    6688.1787    19.849398    19.717822    20.281212    7937.8004    5299.9318     7485.661    7278.9434   -469.99564   -64.587493    87.035347   -4187.8857 
38227000    76.885904   -5088.0526   -4939.7717   -5088.0526            0    7783.0902    19.730802    19.719422    20.349866    7917.7259    7780.8988    8517.3992    7050.9728    174.66605    660.05605    120.14631   -4041.0434 
38228000    71.631148   -5091.4496   -4953.3029   -5091.4496            0    7930.7111    19.707959    19.728461    20.398713    7931.1768    8746.1099    7531.2469    7514.7763   -200.18781   -281.66086   -201.53916   -4035.9728 
38229000    71.317332   -5096.0035    -4958.462   -5096.0035            0    7154.8128    19.689423    19.868319    20.346445    7959.4424     6715.314    7269.1548    7479.9695   -468.10387   -214.82769    1897.6264   -4127.9292 
38230000    74.359551    -5096.252   -4952.8434    -5096.252            0    6511.0851     19.75125    19.697956    20.434594     7950.268    7580.0145    6023.6634    5929.5773   -357.24229    316.59773    707.62043   -4197.9058 
38231000    74.414682   -5100.6768   -4957.1618   -5100.6768            0     6487.448    19.849361    19.755924     20.31017    7964.4802    6160.6807    5875.7431    7425.9201   -78.932619   -963.18297    -72.96612   -4203.6203 
38232000    75.225987   -5106.1796   -4961.0999   -5106.1796            0    7197.3763    19.767906     19.78211    20.343468    7955.3313    7615.1295    6756.0065     7220.993   -23.971412    -210.0607    176.40651   -4126.0578 
38233000     71.80599   -5101.3592   -4962.8753   -5101.3592            0    7197.0938    19.627842    19.812138    20.387513    7928.0821    7778.3204    6692.0073    7120.9536   -50.661373    1016.0568    120.71699   -4130.7261 
38234000     71.86121   -5092.8415   -4954.2511   -5092.8415            0    7870.8556    19.745981    19.781604    20.267603    7916.6714    7279.9389    8817.9257    7514.7022   -137.94244    -1527.749    116.33824   -4045.5094 
38235000    69.312489   -5102.1597   -4968.4848   -5102.1597            0     6799.438    19.758479    19.784071    20.341701    7951.6352    6319.3451    7604.7615    6474.2073   -191.35539    122.53985   -499.87729   -4179.9781 
38236000    70.824088   -5107.2717   -4970.6815   -5107.2717            0    6431.7112    19.735281    19.783739    20.407542    7967.8728    6546.0712    6314.2261    6434.8363    160.40658     461.9602    677.41181   -4223.2957 
38237000    70.359831    -5099.498   -4963.8031    -5099.498            0    5514.1385    19.706238    19.786248    20.458596    7977.0625    5600.7454    5562.2078    5379.4623    121.13742   -214.22201   -706.77061   -4322.3033 
38238000    68.964018   -5087.6852   -4954.6823   -5087.6852            0    7266.1341    19.670529    19.722673     20.42919    7925.6144    7105.0684    7789.2192    6904.1145    -93.99197    694.39695   -581.41324   -4114.8119 
38239000    69.676443   -5100.5758   -4966.1989   -5100.5758            0    5776.8037    19.715633    19.868313    20.385016    7985.1442    4653.8817    6601.9165     6074.613   -219.38873    321.48836    885.49637   -4293.4604 
38240000    72.076401   -5095.3168   -4956.3114   -5095.3168            0    7113.0318    19.686432    19.749994    20.432985    7944.4857    6975.2269    6752.1129    7611.7554    47.634606    239.20926    641.48956   -4132.1801 
38241000    69.208519     -5104.16   -4970.6855     -5104.16            0     6638.404    19.700372     19.92171    20.356584    7989.2486    7249.1087    5892.3452    6773.7582     355.0231   -2.3287402    608.55823   -4197.2119 
38242000    74.096171   -5106.4952   -4963.5945   -5106.4952            0    7405.8531    19.787969    19.720297      20.3711    7949.3045    7275.6025    7176.8947     7765.062    -237.9734    551.39086   -276.61351   -4105.0158 
38243000    73.781042   -5099.5109   -4957.2179   -5099.5109            0    7334.5293    19.683373    19.727992     20.41435    7927.1664    6967.8811    7659.1772    7376.5294     486.8077   -54.687009    407.96608    -4109.276 
38244000    75.560872   -5103.2685   -4957.5431   -5103.2685            0    6319.2542    19.757086    19.771466    20.372405    7958.0021    5496.3096    6517.2879    6944.1651   -166.59234    34.009528    169.48607   -4224.1348 
38245000    76.667437    -5100.327   -4952.4674    -5100.327            0    6367.1989    19.794082    19.662034    20.475198    7968.7814    6350.8008    6908.9756    5841.8204   -512.66054    574.03328   -760.44617   -4212.4938 
38246000    71.694837   -5092.5958   -4954.3263   -5092.5958            0    6782.9827    19.723629    19.792548    20.296777    7923.4734    5474.5285    6807.1472    8067.2723   -334.06795   -321.67022    785.65866   -4170.5138 
38247000    69.894713   -5098.0512   -4963.2533   -5098.0512            0    7010.2003    19.779431    19.692109    20.404684    7947.5983    7183.5223    7234.7822    6612.2964   -624.40126    513.05757    656.27727   -4150.7181 
38248000    69.287515   -5089.8249   -4956.1981   -5089.8249            0    6833.0282    19.885765    19.664507    20.325283    7948.0751    6483.5671    6494.9235     7520.594   -225.75137    95.414224   -310.56984   -4164.1509 
38249000    68.061672   -5097.8751   -4966.6124   -5097.8751            0    7261.9881    19.547452    19.805617    20.436744    7912.0717    7554.2435    7167.6079    7064.1128    29.281765    1213.1165   -1043.2964   -4128.6556 
38250000    74.886351   -5096.5412   -4952.1165   -5096.5412            0    6388.4239    19.735077    19.841335    20.361956    7973.1368    6198.6009    5869.8112    7096.8595   -110.49666     659.7519    1148.4434   -4209.2705 
Loop time of 343.683 on 64 procs for 250000 steps with 972 atoms

Performance: 125.697 ns/day, 0.191 hours/ns, 727.415 timesteps/s
195.7% CPU use with 32 MPI tasks x 2 OpenMP threads

MPI task timing breakdown:
Section |  min time  |  avg time  |  max time  |%varavg| %total
---------------------------------------------------------------
Pair    | 28.873     | 35.299     | 44.122     |  75.8 | 10.27
Bond    | 1.0066     | 1.1774     | 1.5972     |  11.4 |  0.34
Kspace  | 146.98     | 158.68     | 167.62     |  42.4 | 46.17
Neigh   | 0.11075    | 0.12058    | 0.1313     |   1.9 |  0.04
Comm    | 59.932     | 64.138     | 68.553     |  32.3 | 18.66
Output  | 0.43924    | 0.43989    | 0.44114    |   0.0 |  0.13
Modify  | 69.449     | 70.801     | 71.717     |   7.1 | 20.60
Other   |            | 13.03      |            |       |  3.79

Nlocal:        30.3750 ave          38 max          25 min
Histogram: 2 2 4 8 6 4 5 0 0 1
Nghost:        2710.41 ave        2728 max        2699 min
Histogram: 5 2 5 2 8 4 4 1 0 1
Neighs:        9853.62 ave       11980 max        8415 min
Histogram: 9 3 3 3 1 3 3 1 4 2

Total # of neighbors = 315316
Ave neighs/atom = 324.39918
Ave special neighs/atom = 2.0000000
Neighbor list builds = 392
Dangerous builds = 0

unfix		3
unfix		2
unfix		1

write_data	data.final.${pid}
write_data	data.final.1
System init for write_data ...
PPPM initialization ...
  extracting TIP4P info from pair style
  using 12-bit tables for long-range coulomb (../kspace.cpp:340)
  G vector (1/distance) = 0.37240454
  grid = 24 24 24
  stencil order = 5
  estimated absolute RMS force accuracy = 0.0034809449
  estimated relative force accuracy = 1.0482762e-05
  using double precision FFTW3
  3d grid and FFT values/proc = 3211 432
Last active /omp style is kspace_style pppm/tip4p/omp
WARNING: Not all mixed pair coeffs generated from mixing. Use write_data with 'pair ij' option to store all pair coeffs. (../write_data.cpp:312)

write_restart   restart.lmp.${pid}
write_restart   restart.lmp.1
System init for write_restart ...
PPPM initialization ...
  extracting TIP4P info from pair style
  using 12-bit tables for long-range coulomb (../kspace.cpp:340)
  G vector (1/distance) = 0.37240454
  grid = 24 24 24
  stencil order = 5
  estimated absolute RMS force accuracy = 0.0034809449
  estimated relative force accuracy = 1.0482762e-05
  using double precision FFTW3
  3d grid and FFT values/proc = 3211 432
Last active /omp style is kspace_style pppm/tip4p/omp
Total wall time: 0:05:43
