#include		in.partitions
include		in.temp
variable        temperature equal 95.77
variable	tempDamp equal 100.0
include		in.pressure
variable        pressure equal 8261.0
variable        pressureDamp equal 1000.0 # This is 1 ps
include		in.seed
variable        seed equal 745823

units		real
atom_style	full
read_restart	restart.lmp.${pid}
read_restart	restart.lmp.0
Reading restart file ...
  restart file = 30 Jul 2021, LAMMPS = 30 Jul 2021
  restoring atom style full from restart
  orthogonal box = (-0.0022528167 -0.0047772348 0.032882581) to (24.732254 24.734778 22.777117)
  2 by 4 by 2 MPI processor grid
  restoring pair style lj/cut/tip4p/long/omp from restart
  restoring bond style harmonic/omp from restart
  restoring angle style harmonic/omp from restart
  1920 atoms
  1280 bonds
  640 angles
Finding 1-2 1-3 1-4 neighbors ...
  special bond factors lj:    0        0        0       
  special bond factors coul:  0        0        0       
     2 = max # of 1-2 neighbors
     1 = max # of 1-3 neighbors
     1 = max # of 1-4 neighbors
     2 = max # of special neighbors
  special bonds CPU = 0.001 seconds
  read_restart CPU = 0.010 seconds
include 	in.setup
variable	out_freq equal 1000
variable	out_freq2 equal 10000
variable	out_freq3 equal 1000

timestep	2.0

neigh_modify    delay 7 every 1

include		in.tip4p
# This is TIP4P/Ice

# create groups ###
group ox type 2
640 atoms in group ox
group hy type 1
1280 atoms in group hy

# set charges - beside manually ###
set group ox charge -1.1794
Setting atom values ...
  640 settings made for charge
set group hy charge 0.5897
Setting atom values ...
  1280 settings made for charge

# ### TIP3P Potential Parameters ###
pair_style lj/cut/tip4p/long/omp 2 1 1 1 0.1577 8.5
pair_coeff 1 1*2 0.000 0.000
pair_coeff 2 2 0.21084 3.1668
bond_style  harmonic
bond_coeff  1 450 0.9572
angle_style harmonic
angle_coeff 1 55 104.52
kspace_style pppm/tip4p/omp 1.0e-5
pair_modify tail yes

thermo          ${out_freq}
thermo          1000
thermo_style    custom step temp pe etotal epair emol press lx ly lz vol pxx pyy pzz pxy pxz pyz enthalpy

restart 	${out_freq3} restart.lmp.${pid} restart2.lmp.${pid}
restart 	1000 restart.lmp.${pid} restart2.lmp.${pid}
restart 	1000 restart.lmp.0 restart2.lmp.${pid}
restart 	1000 restart.lmp.0 restart2.lmp.0


include         in.dump
dump            myDump all atom ${out_freq2} dump.water.${pid}
dump            myDump all atom 10000 dump.water.${pid}
dump            myDump all atom 10000 dump.water.0
dump            myDump2 all dcd ${out_freq2} dump.dcd
dump            myDump2 all dcd 10000 dump.dcd
dump_modify     myDump append yes
dump_modify     myDump2 append yes


variable natoms 	equal  "count(all)"                        # NUMBER ATOMS
variable H      	equal  "enthalpy/v_natoms"                 # ENTHALPY-per-atom
variable Vol      	equal  "vol/v_natoms"                 # volume-per-atom
fix AVG all 		ave/time ${out_freq} 1 ${out_freq} v_Vol v_H file vol_enthalpy.dat
fix AVG all 		ave/time 1000 1 ${out_freq} v_Vol v_H file vol_enthalpy.dat
fix AVG all 		ave/time 1000 1 1000 v_Vol v_H file vol_enthalpy.dat




fix 		1 all shake 1e-6 200 0 b 1 a 1
       0 = # of size 2 clusters
       0 = # of size 3 clusters
       0 = # of size 4 clusters
     640 = # of frozen angles
  find clusters CPU = 0.000 seconds
fix             2 all nph aniso ${pressure} ${pressure} ${pressureDamp}
fix             2 all nph aniso 8261 ${pressure} ${pressureDamp}
fix             2 all nph aniso 8261 8261 ${pressureDamp}
fix             2 all nph aniso 8261 8261 1000
fix             3 all temp/csvr ${temperature} ${temperature} ${tempDamp} ${seed}
fix             3 all temp/csvr 95.77 ${temperature} ${tempDamp} ${seed}
fix             3 all temp/csvr 95.77 95.77 ${tempDamp} ${seed}
fix             3 all temp/csvr 95.77 95.77 100 ${seed}
fix             3 all temp/csvr 95.77 95.77 100 745823


run             250000
PPPM initialization ...
  extracting TIP4P info from pair style
  using 12-bit tables for long-range coulomb (../kspace.cpp:340)
  G vector (1/distance) = 0.37515242
  grid = 30 30 30
  stencil order = 5
  estimated absolute RMS force accuracy = 0.0031912133
  estimated relative force accuracy = 9.6102442e-06
  using double precision FFTW3
  3d grid and FFT values/proc = 7920 1800
Last active /omp style is kspace_style pppm/tip4p/omp
Neighbor list info ...
  update every 1 steps, delay 7 steps, check yes
  max neighbors/atom: 2000, page size: 100000
  master list distance cutoff = 10.8154
  ghost atom cutoff = 10.8154
  binsize = 5.4077, bins = 5 5 5
  1 neighbor lists, perpetual/occasional/extra = 1 0 0
  (1) pair lj/cut/tip4p/long/omp, perpetual
      attributes: half, newton on, omp
      pair build: half/bin/newton/omp
      stencil: half/bin/3d
      bin: standard
Per MPI rank memory allocation (min/avg/max) = 12.56 | 12.56 | 12.57 Mbytes
Step Temp PotEng TotEng E_pair E_mol Press Lx Ly Lz Volume Pxx Pyy Pzz Pxy Pxz Pyz Enthalpy 
33750000     97.06613   -9794.8511   -9424.7908   -9794.8511            0    7552.8108    24.734507    24.739555    22.744235    13917.668    7647.4157    7057.7529    7953.2637   -455.21186   -369.09952    111.18492   -7891.7597 
33751000    96.769962   -9800.6121   -9431.6808   -9800.6121            0     7861.583    24.635641    24.840825    22.717707    13902.547    8211.3425     6816.748    8556.6585    425.31619    108.34389    968.11851   -7837.7103 
33752000    97.559431   -9798.8071   -9426.8661   -9798.8071            0    8780.0626    24.752298    24.702639    22.666062    13859.097     8239.343    8803.7356    9297.1092   -60.926947    414.08121   -20.515803   -7652.2336 
33753000    95.197037    -9798.576   -9435.6415    -9798.576            0    7832.5075    24.751661      24.6686    22.784159    13911.753    7215.0322    8063.7842     8218.706    2.2313236    555.96076    506.69293   -7846.5146 
33754000    96.355818   -9813.0033    -9445.651   -9813.0033            0    8013.3081     24.64326    24.769461    22.773733    13901.093    8034.3672    7423.9843    8581.5728   -96.636798    192.05397    275.89672   -7821.0876 
33755000     95.44562   -9788.2556   -9424.3733   -9788.2556            0    8342.8536    24.669638    24.665157     22.84639    13901.583    7861.9668    9588.0334    7578.5607     504.3348   -438.43812    643.61717   -7732.9405 
33756000    96.290009   -9780.6339   -9413.5325   -9780.6339            0    8163.9232    24.691698    24.692572    22.803515    13903.338    8354.5944     8410.271    7726.9042   -243.03153    594.09232    637.67255    -7758.167 
33757000    96.490981   -9798.0631   -9430.1955   -9798.0631            0    9104.4178    24.634707    24.691665    22.763945    13846.668    9757.6088    9166.2914    8389.3532   -588.39979    403.91549    419.39282   -7591.6544 
33758000    93.693641   -9791.3019    -9434.099   -9791.3019            0    8573.2684    24.661841    24.648799    22.824095    13874.419    8154.3294    9026.7776    8538.6982   -263.23004   -294.06238    555.45586   -7699.3481 
33759000    95.288386   -9775.3238    -9412.041   -9775.3238            0    8463.1405    24.718005    24.737593    22.711813    13887.455     7686.854    8534.3927    9168.1749   -508.56047    368.57928    630.79245   -7697.9649 
33760000     96.10866   -9784.0709   -9417.6608   -9784.0709            0    9462.7758    24.665767    24.728846    22.696564    13843.904    9412.2401    9286.4999    9689.5874    34.655619    267.08833   -720.73542   -7507.1346 
33761000    96.896684   -9798.2424   -9428.8281   -9798.2424            0    8779.9519    24.697867    24.709799    22.718226    13864.464    8248.2926      9321.25    8770.3131   -321.13064   -599.57106    1133.2403   -7653.5307 
33762000    101.14309   -9798.8774   -9413.2738   -9798.8774            0    8231.7502    24.720909    24.767015    22.672766    13881.698    7983.5652    7456.4255    9255.2599   -303.51399   -1124.9756    279.45026   -7746.7533 
33763000    95.311481   -9783.8527   -9420.4819   -9783.8527            0    7501.4325    24.723821    24.768681    22.741346    13926.264    7345.6954    7540.7431    7617.8592    113.17332    162.16414    963.64778   -7896.9389 
33764000    93.001726   -9800.0172   -9445.4522   -9800.0172            0    7842.5934    24.645378    24.739163    22.797979    13900.065    8252.9325    7716.5122    7558.3354   -818.76085   -473.17065   -145.57325   -7855.6159 
33765000    97.026175   -9802.1438   -9432.2358   -9802.1438            0    8643.7762    24.767551    24.639093    22.767671    13893.971    7406.2906    9559.1819     8965.856   -753.32398    87.515699   -84.589395   -7680.7533 
33766000    93.750839   -9783.9592   -9426.5382   -9783.9592            0    7953.7302    24.641517    24.751786    22.796076    13903.818    8560.8945    8268.3704    7031.9256   -293.98736   -332.54106   -252.07935   -7813.7371 
33767000    95.380031    -9787.152   -9423.5198    -9787.152            0     8107.732     24.69856    24.681468    22.786547    13890.604    7697.1876    8670.5871    7955.4214   -217.63208   -378.53618   -385.85142   -7781.0537 
33768000    98.622059   -9821.7173   -9445.7251   -9821.7173            0    8084.4992    24.728452    24.677358    22.770817    13895.501    7555.1734     8891.206    7807.1181   -150.63096   -697.91819    739.06304   -7807.3881 
33769000     94.92401   -9796.7186    -9434.825   -9796.7186            0    8037.7225     24.68852     24.71475    22.774157    13896.121    8138.4452    8495.0924      7479.63   -849.37979   -24.272079   -92.122119   -7805.8948 
33770000    94.025871   -9794.0884   -9435.6189   -9794.0884            0    8286.6065    24.748136    24.698606     22.73143    13894.461    7850.9579    8711.9381    8296.9235   -393.80966    352.03361    780.79628   -7756.4503 
33771000    97.853743   -9807.7356   -9434.6725   -9807.7356            0    7991.6336    24.667745    24.814303     22.70788    13899.787    8538.4902    7255.4536     8180.957   -383.39527   -483.98356    424.15933   -7814.6554 
33772000    95.621618   -9778.2346   -9413.6814   -9778.2346            0    9099.0744    24.795297    24.688667    22.641707    13860.411    8766.6175    8791.8024    9738.8034   -330.12376   -810.99859    339.69591   -7574.3956 
33773000    91.448439   -9795.6431        -9447   -9795.6431            0    7908.7336    24.705738    24.727088    22.746431    13895.816    7616.1221    7635.3633    8474.7154   -491.71002   -466.29975    433.26426   -7844.2459 
33774000     100.2468   -9784.1124   -9401.9259   -9784.1124            0    9195.2046    24.632988    24.742972    22.744134    13862.398    9904.9026    8380.6668    9300.0445   -507.34431    470.93606   -207.83587   -7542.9419 
33775000    95.162109   -9788.1377   -9425.3363   -9788.1377            0    8359.0991    24.692456    24.740069    22.742829    13893.437    7975.7777    7978.9611    9122.5585   -498.94976    302.90591    686.44529   -7731.6029 
33776000    94.707727   -9781.1244   -9420.0554   -9781.1244            0    7856.6058    24.698042    24.772843    22.730312     13907.33    7809.9683    8027.0698    7732.7792    207.15555   -567.55945    129.02029    -7826.546 
33777000    98.995871   -9802.1652   -9424.7478   -9802.1652            0    8676.8912    24.606105    24.807695    22.720677    13869.172     9101.144    7989.0217    8940.5079   -580.69812     -228.836    358.49881   -7669.6934 
33778000    95.021846    -9796.306   -9434.0394    -9796.306            0     8601.209    24.732621     24.71751    22.700086    13877.217     8138.765    8177.5747    9487.2873    411.24447   -156.21343    -488.3671   -7693.2839 
33779000    96.553101   -9805.9282   -9437.8238   -9805.9282            0    8210.8089    24.784898     24.72369    22.670088    13891.644     7173.486    8607.4027    8851.5381    303.95066    548.95358    274.85198   -7774.3519 
33780000     93.75772   -9774.9893   -9417.5421   -9774.9893            0    8572.6243    24.659382    24.747008    22.765974    13892.842    8256.1242    8533.6761    8928.0726   -368.95255   -537.49048    393.66674   -7680.6183 
33781000    98.914362   -9785.4665   -9408.3599   -9785.4665            0    8684.0715    24.744505    24.663124    22.742981    13879.514    8230.5068    8864.7702    8956.9375    258.86694   -1152.6301     772.6849   -7650.5434 
33782000    101.40072   -9803.7542   -9417.1685   -9803.7542            0    8111.7635     24.70752     24.76204    22.731851    13907.542    8117.9799    7487.2877    8730.0228   -374.47647    3.2147679    541.52093   -7771.8819 
33783000    97.086332   -9785.1339   -9414.9965   -9785.1339            0    9906.5946    24.698916    24.740915    22.622569    13824.059     9877.648    9307.2587    10534.877    50.212638   -154.44182    66.551772   -7417.7308 
33784000    93.792317   -9801.8461    -9444.267   -9801.8461            0     7996.952    24.717647      24.7602    22.710851    13899.356    7870.5672    7721.5734    8398.7152    73.783823   -406.52628    330.55354   -7823.2221 
33785000    91.904874   -9796.6782    -9446.295   -9796.6782            0    8439.1831      24.7386    24.746475    22.666808    13876.465    7688.0573    8501.2682    9128.2238    374.84621   -29.360392    60.427423   -7738.4236 
33786000    95.094087   -9794.8258   -9432.2838   -9794.8258            0    8024.5415    24.700691    24.753227    22.744849    13906.697    8163.0454    7628.6117    8281.9675   -268.94178   -630.74685   -594.91695   -7804.7871 
33787000    97.453609   -9800.7791   -9429.2415   -9800.7791            0    8132.0126    24.667681    24.761148    22.752337    13897.129    8303.3737    7896.5371    8196.1271    152.44325    691.20889    378.56399   -7781.0828 
33788000    97.009862   -9791.8575   -9422.0116   -9791.8575            0    7754.1045    24.665618    24.710018    22.828811    13913.883    8615.3123    7436.8686    7210.1326   -721.56954    -96.03347    68.572305    -7848.551 
33789000     94.06794   -9799.8499   -9441.2201   -9799.8499            0    8325.3414    24.643094    24.727512    22.794319    13890.001    8823.2005    7931.1723    8221.6515   -85.154718     235.0212    463.99763   -7754.7438 
33790000    97.240367   -9811.0476    -9440.323   -9811.0476            0     7711.592    24.665005    24.735395    22.802127    13911.547    7250.1187    7785.7929    8098.8644   -689.01808    333.05696    480.36913   -7875.7517 
33791000    92.696291   -9805.1006   -9451.7001   -9805.1006            0    8208.7715    24.702161    24.664908    22.795362    13888.679    8509.6637      8219.82    7896.8309    21.250275   -480.41387   -184.49397   -7788.9959 
33792000     93.28064   -9793.5387   -9437.9104   -9793.5387            0    7508.4102    24.725947    24.732425    22.755708    13915.858    7448.4113    7985.9784     7090.841   -198.08849   -341.36182   -68.559043   -7914.0897 
33793000    98.906836   -9794.7861   -9417.7081   -9794.7861            0    8743.6414    24.672902    24.751335    22.708173    13867.591      8933.16    8198.9816    9098.7827   -672.76724   -371.56962    240.83325   -7649.3539 
33794000    97.310006   -9801.3202   -9430.3301   -9801.3202            0    7946.4114    24.682645    24.735987    22.771448    13903.098    7535.1359    8171.1889    8132.9095    127.16685    346.91003    174.44756   -7819.0965 
33795000    93.142716    -9806.705   -9451.6025    -9806.705            0    8168.8683    24.743063    24.781885     22.64188    13883.542    7909.7994    7196.5319    9400.2736    185.64384    50.368709    671.80946   -7797.5927 
33796000    99.159676   -9788.5275   -9410.4856   -9788.5275            0    8841.2795    24.743557    24.727224    22.670602    13870.769    8444.3687    8394.5419    9684.9279   -508.28463   -134.29906    264.37647   -7621.9749 
33797000    93.130193   -9795.8586   -9440.8038   -9795.8586            0    8054.6468    24.745239    24.716523    22.732211     13903.39     7379.469    8556.7184    8227.7529   -582.42092   -45.164052    211.15947   -7807.5898 
33798000    93.938108   -9791.6911   -9433.5562   -9791.6911            0     8344.475    24.652377    24.784528    22.739084    13893.524    8878.7059    7476.5684    8678.1507    243.51091    -315.8596   -243.53029   -7742.7754 
33799000     97.18691   -9788.3513   -9417.8305   -9788.3513            0       8567.2    24.711153    24.710203    22.735421    13882.648     8474.393    8996.8239    8230.3833   -101.18773   -678.65546    298.10103   -7683.2793 
33800000    97.103864    -9784.568   -9414.3638    -9784.568            0     8748.105     24.63479    24.737371    22.759927    13869.898    9305.1273    8849.3382    8089.8496   -654.55451    113.85506   -410.00499   -7644.8126 
33801000    95.730336   -9791.8715   -9426.9038   -9791.8715            0    8657.9152    24.703938     24.68734    22.772993    13888.668    8612.0782    8427.3422    8934.3252    172.51956   -47.202157    290.22917   -7673.2259 
33802000    94.173677   -9794.5069   -9435.4739   -9794.5069            0    7346.7455    24.688355    24.742014     22.82146    13940.253     8071.755    7064.1923    6904.2891   -1.3644467    -360.8096    91.085652   -7941.8491 
33803000     93.90465   -9790.0843    -9432.077   -9790.0843            0    8261.6784     24.68045    24.744121    22.761386    13900.288    8612.8014    7924.0863    8248.1476   -153.11905   -645.30223   -230.92433   -7757.2575 
33804000    98.659411   -9802.4591   -9426.3244   -9802.4591            0    7878.0943    24.681965    24.721479    22.787999    13904.659    8764.4271    7303.3872    7566.4686   -178.31095    560.43594    36.824057   -7828.7635 
33805000    97.044709   -9791.5882   -9421.6095   -9791.5882            0    8107.3246    24.728281    24.728252     22.72397    13895.416    7562.5215    8349.8559    8409.5965   -351.42293    509.38651   -123.47719    -7778.657 
33806000    96.990088   -9789.6621   -9419.8916   -9789.6621            0    7875.1139    24.677884     24.79324    22.731787    13908.323    8007.6765    8004.1929    7613.4724    219.06508   -677.30495    180.01738   -7822.5143 
33807000    95.773528   -9798.3856   -9433.2533   -9798.3856            0    7699.4267    24.753649    24.715866    22.735575    13909.804    6878.0736    8282.1536     7938.053   -812.71038   -217.99319    74.812613   -7871.3459 
33808000    94.704863   -9803.9249   -9442.8668   -9803.9249            0    6902.6967    24.709898    24.792905    22.776155    13953.359    7006.9697    6270.0769    7431.0435   -453.75576   -35.583788   -809.97014   -8038.1995 
33809000    94.103225   -9790.7995   -9432.0351   -9790.7995            0    7739.6806    24.691345    24.723916    22.807001    13922.916    7615.0382    7873.0337    7730.9699    -583.2898    58.155021    19.674064   -7860.4817 
33810000    93.270561   -9802.9287   -9447.3388   -9802.9287            0     8757.966    24.725583    24.637583    22.773677    13873.237    8702.8785    8909.7647    8661.2548    169.59977   -409.51461    217.42379   -7675.3664 
33811000    94.552803   -9801.5311   -9441.0527   -9801.5311            0     8511.114     24.63729    24.748598    22.776416    13887.655    9381.3799    7882.0111    8269.9509    29.150251   -173.94604   -14.145902   -7717.2354 
33812000    94.091184   -9794.3194   -9435.6009   -9794.3194            0    7473.2096    24.715726    24.726329    22.799383    13933.368    7276.8546    7429.6467    7713.1276    515.20311   -325.35222    224.94607   -7917.0158 
33813000    99.595988   -9795.0871   -9415.3818   -9795.0871            0    8194.4352    24.699834    24.668181    22.830691    13910.739    8640.4482    7380.6178    8562.2397   -356.60021   -763.86185   -831.19755    -7752.945 
33814000    95.057841   -9791.7613   -9429.3574   -9791.7613            0     7737.536    24.672395    24.742742    22.792666    13914.073    8190.2562    7543.8614    7478.4905   -231.83046    24.632921    920.32534   -7859.2374 
33815000    92.287252   -9804.1154   -9452.2743   -9804.1154            0    7879.2436    24.655373    24.713971    22.852606    13924.828    7703.6417    7572.7884    8361.3008   -431.96541   -237.72846    68.836812   -7852.1627 
33816000    101.86798   -9793.6826   -9405.3154   -9793.6826            0    8153.6483    24.673201     24.68827    22.838518    13911.824    8840.6167    8065.1789    7555.1495   -807.53417   -109.64269    98.468919   -7751.0243 
33817000    95.761586   -9814.6199    -9449.533   -9814.6199            0    7690.5726    24.655327    24.708983     22.83708    13912.533    8053.3725    7767.4116    7250.9337    269.63246   -869.15504    299.52123   -7889.1156 
33818000    93.582323   -9802.3932   -9445.6147   -9802.3932            0    8085.3752    24.703147    24.584781    22.889908    13901.532    7479.3774    9167.9103    7608.8378    391.74824    181.15994    143.49852    -7806.389 
33819000    96.765369   -9815.7722   -9446.8585   -9815.7722            0    7330.9715    24.684539    24.709687    22.825109    13922.112    7143.6974    7803.1253    7046.0918    319.41379    235.93674    -31.13911     -7958.38 
33820000    93.641366   -9796.5105   -9439.5069   -9796.5105            0    8015.7652    24.636827    24.738791    22.795033    13893.238    8577.2592     7596.648    7873.3885    91.909902    228.60749    -98.00313   -7815.3636 
33821000    96.044102   -9794.2256   -9428.0617   -9794.2256            0    8335.3488    24.719231     24.60337     22.83653    13888.638    8132.9327    9247.4362    7625.6776    124.54455    181.62012    108.20529   -7739.7239 
33822000    97.014539   -9789.5499   -9419.6863   -9789.5499            0    8258.3669    24.671673    24.711564    22.786444     13892.34    8747.0163    7610.2218    8417.8627   -299.02763    655.17156   -22.156516   -7746.4955 
33823000    92.514526    -9811.178   -9458.4704    -9811.178            0    8118.9934    24.705729    24.658266     22.80999    13895.856    8166.1417    8486.3012    7704.5373    -428.6032    760.18101    612.42729   -7813.1012 
33824000    96.709838   -9792.1424   -9423.4404   -9792.1424            0    8353.5957    24.664103    24.643101     22.87139     13901.23    8426.2805    8971.1347    7663.3719   -645.15439   -268.31304     263.5246   -7729.8726 
33825000      97.1021   -9783.6535    -9413.456   -9783.6535            0    8992.7549    24.631405    24.772704    22.735266    13872.753    9244.5601    8818.3456    8915.3589   -871.29828   -468.29997   -63.853398    -7594.043 
33826000    99.703239    -9809.462   -9429.3478    -9809.462            0    8207.5388    24.719931    24.709664    22.741591    13891.045    7642.3035    8491.6314    8488.6814   -564.63576   -251.80752    194.26636   -7766.6101 
33827000     94.53574   -9808.5661   -9448.1527   -9808.5661            0    7075.3276     24.69146    24.759539    22.793351    13934.696    7474.7899    6429.1442    7322.0487    102.61422   -52.680599   -1007.5371   -8010.2816 
33828000    96.261098   -9783.3061   -9416.3149   -9783.3061            0    8700.3389    24.633176    24.702946    22.830675     13892.74    9216.4655    8305.9169    8578.6342   -382.43076    22.015674    751.85196   -7653.5274 
33829000    95.594157   -9794.5013   -9430.0528   -9794.5013            0    9326.1909    24.638364     24.68591    22.771043    13849.814    8803.6169    9857.2981    9317.6579    359.03108   -302.80136    372.42363   -7546.2991 
33830000    94.919336   -9796.2737   -9434.3979   -9796.2737            0    8092.1007    24.724544    24.644354    22.815469    13901.931    7652.5826    8830.4318    7793.2878   -111.02434    382.26907    480.62375   -7793.7616 
33831000    97.835698   -9787.6591   -9414.6648   -9787.6591            0    8758.4032    24.613801    24.768867    22.776371     13885.75    9387.2925     8193.581    8694.3361    513.25792    107.60287    29.647183   -7641.0056 
33832000    94.267805   -9791.8593   -9432.4674   -9791.8593            0    8381.2009    24.695766    24.662731    22.793206    13882.545    8098.5387     8710.851    8334.2129    317.90297   -770.45296    297.63503   -7735.5871 
33833000    94.969767   -9815.0825   -9453.0145   -9815.0825            0     8002.746    24.706802    24.695411    22.795658    13908.648    8148.4649    8258.5749    7601.1982    57.541625   -187.14729    497.24634   -7829.7105 
33834000     99.30029   -9793.9598   -9415.3818   -9793.9598            0    8481.8045    24.664123    24.702247    22.793446    13887.118    8438.3221    9158.7317    7848.3596    59.332052    17.579503    773.17652   -7697.5673 
33835000    93.123937   -9799.1585   -9444.1276   -9799.1585            0     7039.075    24.712003    24.746964    22.813911    13951.779    7965.0723    6824.7322    6327.4206    11.021053   -261.52563    770.28453   -8011.8701 
33836000     98.62706   -9798.7766   -9422.7653   -9798.7766            0    8705.2277     24.63609    24.747009    22.746932    13868.112    9061.4532    8978.1803    8076.0495   -904.21481   -335.73004    752.88705    -7662.114 
33837000    97.918281   -9800.7646   -9427.4554   -9800.7646            0    9082.4555    24.689618     24.68826    22.728819    13854.208    9036.0835    9103.1455    9108.1376    83.476458   -566.08803    396.49842   -7592.3505 
33838000    98.108614   -9786.0889   -9412.0541   -9786.0889            0    8595.8484    24.708428    24.699884    22.736393    13875.914    8003.7519    9249.0569    8534.7365   -455.42512     70.30336   -4.0560562   -7672.5469 
33839000    92.859373   -9806.0377   -9452.0154   -9806.0377            0    7761.9648    24.664853    24.775479    22.763285    13910.269    7586.3305     7002.929    8696.6348   -211.37865   -391.00632    153.47655   -7877.3689 
33840000    98.401925   -9795.7843   -9420.6313   -9795.7843            0    8392.6835    24.750047    24.656539    22.747938     13881.94    7731.0073    9562.7219    7884.3213    299.69586   -452.96159    81.302999   -7721.5001 
33841000    92.069805   -9797.0579   -9446.0458   -9797.0579            0    7972.4698    24.656325    24.764334    22.766445    13901.134    7629.1688    7968.1424     8320.098    -154.3785   -79.440089    64.604224   -7829.7569 
33842000    95.702974   -9793.0315   -9428.1682   -9793.0315            0    8182.6913    24.716492    24.719572    22.760055    13905.963    8058.1319    7822.9607    8666.9812   -26.626014   -851.59937     -524.116   -7768.6839 
33843000     95.15008   -9789.0596   -9426.3041   -9789.0596            0    8382.9352    24.732063    24.684898    22.762289     13896.57    7755.4732    8364.3857    9028.9468    201.40747   -722.67775    343.01112   -7727.3579 
33844000    96.017124   -9795.5012   -9429.4401   -9795.5012            0    9029.2399    24.648657    24.741819    22.716921    13853.973    9662.7614    8657.7192    8767.2391   -207.69311    342.96437    718.30428   -7605.1184 
33845000    91.824974   -9801.5653   -9451.4866   -9801.5653            0    8913.6375    24.712081    24.696983    22.714597    13863.033    8091.8845    8849.0885    9799.9394    262.00181    4.4559909    73.555906   -7649.3442 
33846000    96.281935   -9793.2802   -9426.2096   -9793.2802            0    9076.5382    24.704907    24.762765    22.643975    13852.719    9447.7881    8601.4529    9180.3737    66.762948    258.42449    353.05075   -7592.4974 
33847000    99.638053   -9797.9219   -9418.0562   -9797.9219            0    8919.9777     24.69624    24.723355    22.688688    13853.121    8768.0464    9237.6309    8754.2558   -1164.5733    -281.4803    703.80894   -7615.9213 
33848000    91.221105   -9799.4418   -9451.6654   -9799.4418            0    8596.2853    24.740246    24.731473    22.670105    13870.992    8132.0064    8415.7862    9241.0634    187.10756   -258.65512   -136.46896   -7712.6868 
33849000    96.417045   -9787.8292   -9420.2435   -9787.8292            0    8557.0604    24.679846    24.786066    22.703235    13887.939    8523.1468    8210.2373    8937.7972 -0.089147658    338.70854    51.482789    -7687.085 
33850000    95.091131   -9800.1713   -9437.6405   -9800.1713            0    9855.7605    24.711325    24.652563    22.685885    13820.185    9162.0745    10518.854    9886.3528   -23.497231    305.86365    378.84144   -7451.1803 
33851000    94.064867    -9794.137   -9435.5188    -9794.137            0     8567.604    24.683009    24.698653    22.764662    13878.182    8411.1982    8472.9324    8818.6816    68.095068    370.75882   -349.79241   -7701.4439 
33852000    96.928747   -9784.3134   -9414.7768   -9784.3134            0    8847.0385     24.67118    24.789394    22.711882    13890.215     8948.489    8225.8443    9366.7824   -435.05735    -49.79275   -695.65468   -7622.5921 
33853000    97.253661   -9797.6846   -9426.9093   -9797.6846            0    8326.1363    24.716956    24.757817    22.696447    13888.816     8117.832    7737.7796    9122.7973    155.03315   -532.80037    20.890423    -7740.416 
33854000    95.954027   -9796.4836   -9430.6631   -9796.4836            0    8734.9318    24.770788     24.75409    22.621732    13871.155    8316.1294    8551.6747    9336.9912   -645.68106   -846.11443    638.01841   -7663.6163 
33855000    97.931868   -9799.6401   -9426.2792   -9799.6401            0    8025.5365    24.695782    24.751749    22.738498    13899.221    7999.4556    8543.6559     7533.498    1.8157869   -583.58842    75.856338   -7799.4558 
33856000    95.258606   -9807.5995   -9444.4302   -9807.5995            0    7623.5915    24.786836    24.734787     22.68834    13910.156    7240.1199    7181.0888    8449.5657   -585.01987   -651.24193   -61.900181   -7897.8676 
33857000    96.674792    -9797.055   -9428.4866    -9797.055            0    8647.9927    24.672904    24.740632    22.723401    13870.892    8609.4065    9029.1429    8305.4286   -138.26629    7.5960027   -299.87227   -7679.0605 
33858000    95.941291   -9793.0293   -9427.2574   -9793.0293            0    8991.9292    24.684374    24.707353    22.715462    13853.832    8777.2145    9194.5622     9004.011      603.492    64.692656   -211.16993   -7610.4927 
33859000    95.237908   -9794.8124    -9431.722   -9794.8124            0    9070.3333    24.680445    24.684869    22.740541    13854.301    8903.7656    9825.1087    8482.1255    38.393007   -1046.5966   -15.703842   -7599.0542 
33860000    94.701624   -9798.7993   -9437.7535   -9798.7993            0    9210.1716      24.5509    24.748686     22.79717    13851.618    10092.283    8896.5089    8641.7233   -158.89174    114.42678    313.16012   -7577.1916 
33861000    96.739269   -9798.2549   -9429.4407   -9798.2549            0    8119.2834    24.719941    24.692573    22.748426    13885.615    7957.2564    8160.3111    8240.2826   -363.19953    -261.2957   -12.508006   -7785.2253 
33862000    95.020268   -9784.2353   -9421.9747   -9784.2353            0    8854.8824    24.608207    24.687093     22.83949    13875.107    8997.3907    9546.1797    8021.0769   -47.048785    327.60383      638.497   -7630.1521 
33863000    95.112941   -9793.8317   -9431.2178   -9793.8317            0    7938.9095    24.686114    24.715907    22.791329    13905.895    8028.2529    8013.2989    7775.1766   -443.01349   -212.28391    621.53698   -7821.1815 
33864000    99.672789   -9794.3595   -9414.3613   -9794.3595            0    6953.3426     24.74939    24.743761    22.800674    13962.973    6638.0074    7772.2461    6449.7741   -572.93669   -287.89293   -497.03124    -7998.413 
33865000    98.694436   -9794.2723   -9418.0041   -9794.2723            0    7572.7885    24.688054    24.763551    22.782432    13928.357    8202.0898    7607.6448    6908.6308   -100.16716    276.76718    325.48501   -7879.7376 
33866000    94.267293    -9801.484   -9442.0941    -9801.484            0    7934.6342    24.721531    24.732672    22.756942    13914.266    7722.3697    8011.9275    8069.6052   -487.03772   -386.19765    502.38935   -7831.9561 
33867000    94.031921    -9809.195   -9450.7025    -9809.195            0    8721.1188    24.738308    24.609382    22.784796    13871.258    8062.3924    9263.5598    8837.4043    332.75679    453.03318    246.24518    -7686.437 
33868000    94.815826   -9810.8834   -9449.4022   -9810.8834            0    8667.9692    24.638576    24.717149    22.776943    13871.053    9535.5136    8203.9308    8264.4631   -53.938356   -863.59148   -216.42445   -7695.9147 
33869000    98.064815   -9805.2194   -9431.3516   -9805.2194            0     8614.299    24.717141    24.593716    22.821189    13872.689    8347.2141    9268.6639    8227.0191    209.56812   -598.89541    12.338624   -7688.5157 
33870000    92.280734   -9787.0629   -9435.2467   -9787.0629            0    8617.0677    24.660028     24.73282    22.746247     13873.21    9133.6974     8202.656    8514.8497   -88.446253    240.72244    41.169264   -7691.7852 
33871000    94.332257   -9800.1138   -9440.4762   -9800.1138            0    7835.8546    24.613175    24.789541    22.802357    13912.842    8417.4946    7281.8893      7808.18   -595.47425      445.357    305.76396   -7850.5457 
33872000    94.694773   -9787.1867    -9426.167   -9787.1867            0    7496.5651    24.738741    24.687865    22.816455    13935.074    7393.7669    7746.1758    7349.7525    295.69127   -422.92634   -603.03769   -7902.6493 
33873000    92.704473   -9799.2528   -9445.8211   -9799.2528            0    7211.3342    24.729885    24.771143     22.73229    13925.517    6607.7979     7113.076    7913.1288   -505.15321    141.35959   -251.08581   -7981.2757 
33874000    100.10619   -9804.1371   -9422.4867   -9804.1371            0     7139.378    24.736611    24.751291    22.756117     13932.73    6824.6313    7548.4456    7045.0571    -21.72271   -174.14358   -439.15358   -7971.8039 
33875000    96.597591   -9779.3218   -9411.0477   -9779.3218            0    8299.2292    24.646522    24.827843    22.697937    13889.321    9029.7208    7994.7329    7873.2339    187.41301   -508.12188    383.91972   -7729.9434 
33876000    96.442082   -9798.3032    -9430.622   -9798.3032            0    8370.0769    24.711864    24.727102    22.721475     13884.02    9013.5445    7589.9887    8506.6974    7.6215189    547.28966    127.49611   -7735.8137 
33877000    96.804495   -9793.6242   -9424.5613   -9793.6242            0     8404.993    24.724813     24.77521     22.66905    13886.208    8289.8292    8068.7115    8856.4381   -155.13214     533.1612    348.52885   -7722.4149 
33878000    96.435268   -9797.4493   -9429.7941   -9797.4493            0    9292.3315    24.677786    24.748273    22.659543    13838.921    9166.8856     8513.485    10196.624   -441.32281   -151.89911    156.01669   -7554.3556 
33879000    98.380231   -9802.0069   -9426.9366   -9802.0069            0    8221.8317    24.691298    24.789276     22.71251     13901.86    8479.7354    7309.3096    8876.4501   -266.31661    401.58338   -63.980713   -7760.0066 
33880000     92.40732   -9790.1613   -9437.8625   -9790.1613            0    9179.6772    24.761265    24.712129       22.618    13840.035    9536.8584    8865.7932    9136.3801   -359.78864    222.54261    45.910909   -7585.0115 
33881000    97.133972   -9814.0004   -9443.6814   -9814.0004            0    8087.2581     24.66858    24.783636    22.721909    13891.655    8730.5594    7555.3681    7975.8468   -26.712417   -233.64059   -203.21778    -7805.239 
33882000    94.325189   -9795.6972   -9436.0866   -9795.6972            0    7688.8584    24.782802    24.686189    22.734421    13908.759    6982.7609    8180.2859    7903.5284   -787.87757    -986.2571    1191.8561   -7876.4402 
33883000    95.062462   -9803.5351   -9441.1137   -9803.5351            0    7058.6438    24.700265    24.744729    22.797295    13933.738    6940.1663    7327.5607    6908.2042    243.45512     135.0234   -496.68245   -8006.7318 
33884000     95.59556   -9808.0976   -9443.6438   -9808.0976            0    8272.2632    24.677043    24.732995    22.746993    13883.335    8473.7284    8534.0789    7808.9822    79.301367   -423.42478    752.18514   -7768.7239 
33885000    93.943128    -9812.826   -9454.6719    -9812.826            0    7384.0375    24.793604    24.692277     22.74194    13922.855    6745.4553    7486.9087    7919.7485    112.37887      58.4319   -18.219007    -7955.339 
33886000    96.890736   -9794.9108   -9425.5191   -9794.9108            0    8578.2194    24.659641    24.760279    22.730938    13879.047     8800.027    7743.4535    9191.1778    544.11021   -240.17915    1067.8816   -7689.1874 
33887000    97.076908   -9807.8348   -9437.7333   -9807.8348            0    8747.1308    24.707042    24.703862    22.706133      13858.9    8182.4085    8751.9367    9307.0472   -272.62197   -800.35355    611.83945   -7669.7821 
33888000    99.428493   -9807.6183   -9428.5516   -9807.6183            0    8211.5552    24.651119    24.759978    22.748132    13884.577    8470.3666    7727.6258    8436.6731   -432.51545   -15.448638    296.27647   -7765.7748 
33889000     91.87841   -9792.1376   -9441.8552   -9792.1376            0    8979.6949    24.661773    24.695188    22.754687    13858.222    9703.3896    8936.9916    8298.7034   -22.053696    137.26357    610.59943   -7626.9874 
33890000     97.01428   -9805.4795   -9435.6169   -9805.4795            0    7937.8738    24.695147    24.650867    22.842076    13905.269    7811.6383    8411.8689    7590.1142    35.512227    91.592584   -350.56201    -7825.863 
33891000    96.199823   -9811.5372   -9444.7796   -9811.5372            0    8373.0448    24.662638    24.709084    22.768177    13874.726    8312.5625    8240.0537    8566.5181   -127.29025   -370.63745    14.309092   -7750.5053 
33892000    93.303773    -9799.212   -9443.4955    -9799.212            0     8738.757     24.68259    24.699622    22.742958    13865.259    8375.6854    8954.0837    8886.5018    57.320672   -193.33017    12.934798   -7676.4264 
33893000    97.264196   -9799.7451   -9428.9296   -9799.7451            0    8737.1284    24.679536    24.729078    22.726079    13869.775    8419.7076    9106.3876    8685.2899    110.80592   -612.67143    380.87686   -7661.6143 
33894000    94.949739    -9791.237   -9429.2452    -9791.237            0    9398.7191    24.762127    24.619709    22.710362    13845.063    8204.1821    10465.028    9526.9477   -100.18346   -185.98263   -492.70264   -7531.4931 
33895000    99.878022   -9791.4902   -9410.7096   -9791.4902            0    8369.9126    24.695415    24.731312    22.741999    13889.676    8248.3961    7969.8842    8891.4577   -319.66393    112.17059   -391.33833   -7715.2442 
33896000     95.86568   -9803.4055   -9437.9218   -9803.4055            0    7808.8098    24.702294    24.772564    22.745304    13918.742    7874.3529    7642.3373     7909.739   -452.66441   -425.63474   -132.36483   -7852.8069 
33897000    98.363276   -9809.0251   -9434.0194   -9809.0251            0    8694.9328    24.696509    24.740258     22.70204    13870.901    8322.8492    8468.2867    9293.6626    173.12382   -153.44943   -287.95724   -7675.0965 
33898000    94.323663   -9806.0998    -9446.495   -9806.0998            0    8648.3387    24.770917    24.759225    22.626807    13877.218    7401.4868    8332.1153    10211.414   -80.620537   -693.74775    542.65249   -7696.2011 
33899000    93.720628   -9781.6626   -9424.3568   -9781.6626            0    9203.8727    24.721027    24.713173    22.671583    13850.864     8808.111    9250.1466    9553.3605    147.36468    506.63004    174.97454   -7565.1686 
33900000    91.693622   -9793.0923   -9443.5143   -9793.0923            0    8193.4798    24.743097    24.664579    22.775608    13899.454    7915.9915      8517.01    8147.4379   -511.61947    -560.9511   -4.2138052   -7782.6199 
33901000    98.162309   -9798.5734   -9424.3339   -9798.5734            0    9006.7435    24.648402    24.686755    22.777085    13859.607    9800.2078    8409.4372    8810.5855    -451.3381    77.615156    164.41414   -7603.8175 
33902000    95.203084   -9800.3795   -9437.4219   -9800.3795            0    8968.0426    24.694465    24.675008    22.754964    13865.422    8706.3692    9173.5712    9024.1873   -56.752825    -526.5922   -263.21392   -7623.9675 
33903000     97.53628   -9802.5356   -9430.6828   -9802.5356            0     7435.824    24.641119    24.817794    22.770375    13924.955    8409.4433    6519.4333    7378.5954    148.80558   -129.91475    214.49669   -7920.6069 
33904000    93.972642   -9804.7709   -9446.5043   -9804.7709            0    7906.8358    24.794285    24.697613    22.694348    13897.103    7131.8759    8770.9843    7817.6474   -10.623755   -433.68705    221.94347   -7843.9864 
33905000    96.886775   -9805.3654   -9435.9889   -9805.3654            0    7644.4572    24.771515    24.798427    22.644462    13910.371    7512.9465    7188.7267    8231.6984   -375.49553   -798.54238    90.844546   -7885.1693 
33906000    91.330385   -9815.2927   -9467.0996   -9815.2927            0    7981.7087    24.728427    24.771163    22.671197    13887.285    7245.4458    8526.4084    8173.2719    221.96521    135.75448   -41.142736   -7850.5498 
33907000    96.825344   -9805.0705   -9435.9281   -9805.0705            0    8423.3612     24.75679    24.749101    22.647013    13876.013    7841.6013    8608.6797    8819.8024   -42.119156     266.7824    456.05163   -7731.3143 
33908000    95.005658   -9789.8342   -9427.6293   -9789.8342            0    8580.2233     24.72748    24.780173    22.637167    13870.952    8321.0003    8205.8758    9213.7937    27.620067    -1419.917    92.852283    -7691.905 
33909000    97.231639   -9787.3241   -9416.6327   -9787.3241            0    8806.8189    24.710149    24.712153    22.709156    13867.141    8484.7989     9089.963    8845.6948   -102.72246   -366.79735    542.87617    -7635.559 
33910000    98.073151   -9808.1174   -9434.2178   -9808.1174            0    8107.4595    24.692859    24.839241    22.640606    13886.658    8176.2162      7602.61    8543.5524    316.18309    479.40262   -9.3058981   -7792.2735 
33911000    95.572886   -9814.2275     -9449.86   -9814.2275            0    8908.9232    24.684593    24.745055    22.686468    13857.385    9328.5512    8190.1674    9208.0511   -22.351554   -257.49551    817.89326   -7649.4046 
33912000    92.449928   -9790.1548   -9437.6935   -9790.1548            0    8175.0364    24.776956    24.694894    22.720926    13902.124    7848.8199     8039.798    8636.4913   -474.59143   -823.32377    660.65781   -7780.2195 
33913000    96.424966     -9792.44    -9424.824     -9792.44            0    8562.2712    24.673635    24.780231    22.696209    13876.879    8758.9075    7787.8716    9140.0344    345.35584    322.77615    722.11374   -7691.9912 
33914000    93.933073   -9799.6804   -9441.5647   -9799.6804            0    8977.6532     24.65369    24.797099    22.683244    13867.174    9329.4266    8139.7091     9463.824   -759.08723    245.71581    170.28106   -7625.9375 
33915000    96.526356   -9794.6511   -9426.6486   -9794.6511            0    9096.6647    24.705246    24.714404    22.674079    13844.235    8545.0872     8857.777      9887.13   -940.18659   -673.56967    525.96865   -7589.9959 
33916000    98.822217   -9793.9721   -9417.2167   -9793.9721            0    9003.3276    24.634299    24.732155    22.752389    13862.105    9787.0127    8322.1657    8900.8043    265.37189   -201.93808   -719.60917   -7597.0628 
33917000    90.803984   -9797.0846   -9450.8984   -9797.0846            0    9053.5777    24.731569    24.672046    22.711403    13858.008     8591.644    9386.0878    9183.0014   -224.53475   -83.594099    118.39138   -7621.1266 
33918000    98.476284   -9790.4623   -9415.0258   -9790.4623            0    7994.8987    24.653114    24.781907    22.747092    13897.362    8384.6021    7616.9396    7983.1543    557.78639   -253.74383    177.02746   -7794.6295 
33919000     94.49298    -9794.451   -9434.2007    -9794.451            0    7672.6246    24.755635    24.709311    22.746664    13914.014    7371.0299    7928.7654    7718.0786    161.12626    179.01857     453.0108   -7877.2593 
33920000    93.888944   -9797.4791   -9439.5316   -9797.4791            0    7799.1119      24.6296    24.778341    22.793134    13910.208    8134.6047    7835.1132    7427.6179    97.325638    127.30244    -728.8038   -7857.3561 
33921000    96.986718   -9808.1824   -9438.4248   -9808.1824            0    8506.3048    24.700464    24.737328    22.712744     13878.02    8670.0072    8427.3659    8421.5414    -346.7618    367.78552   -250.39555   -7716.7769 
33922000    97.080928   -9805.2328    -9435.116   -9805.2328            0      8394.31    24.730771    24.671786    22.738179    13873.752    8027.2465    8829.5596     8326.124   -839.16296   -209.99435   -178.90788    -7736.658 
33923000     93.34762   -9785.9614   -9430.0777   -9785.9614            0     8656.257    24.661005    24.775116    22.719385    13881.073    8846.2709    7900.2476    9222.2525   -384.52644   -240.41557    227.41793   -7677.6945 
33924000    92.328397   -9793.5089    -9441.511   -9793.5089            0    8489.5851     24.74884    24.743631    22.667732    13881.179    7906.9404    8530.0253    9031.7897   -223.59661   -94.605414   -75.074665    -7722.856 
33925000    94.452654   -9794.9736   -9434.8771   -9794.9736            0    8009.8069    24.764523    24.675552    22.772173     13915.58    7885.4203    7867.2723    8276.7281   -228.77219    355.54915    447.50052   -7809.3311 
33926000    94.192169   -9797.9218   -9438.8183   -9797.9218            0    8360.4696    24.607313    24.765645     22.80675    13898.798    9502.4808    7343.6783    8235.2498    -272.9857    217.35764   -546.73087   -7744.1535 
33927000    96.122253   -9795.9302   -9429.4684   -9795.9302            0    8036.0104     24.68439    24.650094    22.848933    13902.948    8543.3026    8511.4835    7053.2452    59.363894   -898.12209    141.25507    -7800.085 
33928000    95.368593   -9799.2316    -9435.643   -9799.2316            0    7946.4408    24.599085    24.745122    22.819785    13890.572    9135.7663    7484.1023    7219.4539    194.37447    121.99173    207.79057   -7825.8551 
33929000    93.600343   -9795.7106   -9438.8634   -9795.7106            0    8449.4192    24.668494    24.691511    22.805189    13890.695    8680.0326    8048.9764    8619.2486   -88.293589   -268.32933    243.01632   -7727.1671 
33930000    92.931674   -9800.8841   -9446.5861   -9800.8841            0    7718.3149    24.727046    24.730099    22.744159    13908.105    7390.8739    7864.3994    7899.6715   -296.86357   -482.32996    63.586809   -7881.0383 
33931000    93.830497   -9790.4271   -9432.7024   -9790.4271            0    8781.6722    24.667956    24.766751    22.708526    13873.663    8195.8983    8163.1174     9986.001    866.07733    25.975273    457.03873   -7655.8791 
33932000    94.794192   -9779.8252   -9418.4265   -9779.8252            0    8539.1508    24.743158    24.705291    22.698873    13875.524    8249.1015    8873.1808    8495.1702    744.33114      687.412   -506.00029   -7690.4415 
33933000    95.993448   -9797.8276   -9431.8568   -9797.8276            0    8908.7563    24.618914    24.757126    22.749639    13865.759    9199.3745     9082.843    8444.0513    -144.0009   -919.58327    186.27937   -7630.3471 
33934000    93.992565   -9790.4757   -9432.1332   -9790.4757            0    8412.1001     24.67036    24.687037    22.798342    13885.058     9246.706    8293.4833    7696.1111    92.775126   -265.23621   -211.09333   -7728.6885 
33935000    98.234835   -9785.0891   -9410.5731   -9785.0891            0    8268.0384    24.693439    24.666511     22.80729    13891.943    8241.3508    9068.9363    7493.8283    -440.6304    54.833399     27.92146   -7735.4707 
33936000    95.670844   -9782.6192   -9417.8783   -9782.6192            0    7947.8727    24.630091    24.783175    22.782314    13906.595    8531.8796    7324.7838    7986.9548    258.96749   -1162.7543   -1.9240312    -7805.943 
33937000    93.857358   -9805.8574   -9448.0304   -9805.8574            0    9340.6554    24.663942    24.637679    22.780305    13842.732     9578.075    10131.474    8312.4175   -111.33516   -45.463669    122.03995   -7562.3198 
33938000    99.679737   -9797.1634   -9417.1388   -9797.1634            0    8463.1693    24.700965    24.697782    22.747664    13877.418    8446.1836    8952.1711    7991.1532   -106.61444   -1780.0552    726.15588   -7704.2956 
33939000    92.011665   -9802.0391   -9451.2487   -9802.0391            0    8790.2416    24.693558    24.675475    22.744532    13858.818    8890.3162    8974.0662    8506.3424   -25.775782   -329.95231   -282.71604   -7674.5946 
33940000    96.684791   -9783.8376   -9415.2311   -9783.8376            0    8287.8934     24.68046    24.715276     22.77332     13891.37    8384.6636    8292.0746    8186.9421    454.30219   -313.15579    43.252246   -7736.1753 
33941000     96.26108   -9795.4165   -9428.4254   -9795.4165            0    8210.6894    24.719081    24.736826    22.732037    13899.995    8112.5426    8369.6334    8149.8921     -61.3898   -272.18326    1126.5719   -7763.9777 
33942000    97.660876   -9795.2276   -9422.8998   -9795.2276            0    8443.3065    24.692458    24.777741    22.705038    13891.472    8586.2563    8059.6736    8683.9896   -330.08938    660.22189    30.234762   -7712.3462 
33943000    96.785174    -9802.792   -9433.8028    -9802.792            0    8444.3704     24.70028    24.706045    22.746638     13881.05    8111.1028    8334.2175    8887.7908   -517.37085   -718.82869     612.9335   -7724.3171 
33944000    95.506331   -9800.6156   -9436.5019   -9800.6156            0    8491.3405    24.771795    24.754074     22.62701    13874.946    8329.3566     7969.158     9175.507   -795.93499    541.42445    442.63089   -7718.2633 
33945000    95.380167   -9795.6616   -9432.0289   -9795.6616            0    8129.9276    24.684141    24.755281    22.756189    13905.462     8283.256    7797.4553    8309.0713   -27.576415   -567.81856    72.062865   -7783.3048 
33946000    94.691103   -9781.5795   -9420.5738   -9781.5795            0     9027.072    24.711783    24.702027    22.688867    13849.991    8931.4009    9031.4788    9118.3362   -340.73537    505.02346    318.33904   -7597.2144 
33947000    96.403757   -9798.4142   -9430.8791   -9798.4142            0    8616.2373    24.725826    24.720037    22.709348    13880.483    8556.3028    8452.6137    8839.7955   -1071.1172   -333.16519    701.51398   -7686.6717 
33948000    94.018809   -9781.1829   -9422.7403   -9781.1829            0    9018.3692    24.608043      24.7957    22.729863    13869.163    9496.3087    8106.7228    9452.0762     330.5596    300.81006    810.11554   -7598.6171 
33949000     96.68664   -9785.3153   -9416.7018   -9785.3153            0    8859.6669    24.752803    24.674558    22.704227    13866.935    8053.1217    8692.4503    9833.4287   -309.66715   -181.73072     35.83169   -7624.9668 
33950000    95.128041   -9797.5573   -9434.8859   -9797.5573            0    7872.3359    24.669826    24.758038    22.772807    13909.096    8120.5348    7588.9662    7907.5066   -318.75241    62.531886    353.04954   -7837.9834 
33951000    99.976185   -9802.1327   -9420.9778   -9802.1327            0    7679.6339    24.700777    24.726979     22.78036    13913.688    7887.1174    7314.4294    7837.3549    347.37249    193.76255    870.69971   -7862.6506 
33952000    94.513659   -9802.2392     -9441.91   -9802.2392            0    7668.2541    24.706281    24.721566    22.780825    13914.025    7824.0118    7613.7641    7566.9863   -321.16739   -747.28843   -281.20714   -7885.8542 
33953000    91.083732   -9795.4904   -9448.2377   -9795.4904            0    8291.5768    24.644434    24.737521     22.76917    13881.047     8452.224    8601.8583    7820.6482    42.048479   -283.30391    203.46814   -7769.6839 
33954000    97.772326   -9792.7717    -9420.019   -9792.7717            0    8619.4673    24.678389    24.685428     22.76759    13869.938    8286.6161    9139.8008    8431.9852   -194.40139    55.152618   -583.51863   -7676.4834 
33955000    92.286182   -9791.7332   -9439.8962   -9791.7332            0    9233.2391    24.639757    24.598185    22.857466    13853.757    9879.2011    9616.6036    8203.9125    25.330098    -862.7652   -63.729904   -7574.3864 
33956000     92.43294   -9813.3015   -9460.9049   -9813.3015            0    8579.4978    24.715223    24.679676    22.724863    13861.342    8461.6404    8812.2428      8464.61   -447.19672   -195.55923   -309.43733   -7726.5299 
33957000      94.5703   -9793.7279   -9433.1828   -9793.7279            0    7748.1983    24.711663    24.777292    22.736978    13921.581    7816.6405    7216.2631    8211.6912   -222.87415   -817.76362    217.43941   -7860.0507 
33958000    95.421821    -9798.443   -9434.6515    -9798.443            0    7928.9974     24.71215    24.772733    22.726121    13912.647    7924.3326    8006.3107    7856.3487   -95.391877   -29.568412     335.0667   -7825.8446 
33959000    96.494748   -9788.6873   -9420.8053   -9788.6873            0    7173.2952    24.811454    24.782564    22.694305    13954.534    6605.0938    7207.6479     7707.144    213.02766    1.0903754    487.04011   -7960.9496 
33960000     96.77607   -9794.0099   -9425.0554   -9794.0099            0    8340.9265    24.714089    24.715572    22.726242    13881.708    8485.2409    7754.0855    8783.4531   -34.449058    67.717026    699.97974   -7736.4309 
33961000    98.642937    -9802.471   -9426.3992    -9802.471            0    8051.1808    24.775961    24.696694    22.737309    13912.603    7227.3711    7954.6484    8971.5229   -91.038244   -383.70814    1012.5401   -7792.8062 
33962000    93.951201   -9796.6299    -9438.445   -9796.6299            0    7856.2649     24.64723    24.762642     22.79331    13911.453    8055.5094    7880.9025    7632.3829   -270.15898   -413.70287   -826.03963   -7844.5324 
33963000    93.552415   -9792.0496   -9435.3852   -9792.0496            0    8569.7253    24.688728    24.787239    22.674896    13876.252      8488.02    8119.0364    9102.1196   -43.902627    74.435712    504.45513   -7701.1222 
33964000    96.238319   -9786.7095   -9419.8052   -9786.7095            0    9097.7229    24.731841    24.733825    22.642191    13850.523    8311.4715    8731.4577    10250.239    422.18889   -109.40954    583.04153   -7582.1045 
33965000    94.817009   -9799.9275   -9438.4418   -9799.9275            0    8262.5962     24.71091    24.761771    22.699936    13889.771    8332.1739    8117.9846    8337.6302   -169.56816   -511.85555    512.34557   -7764.7037 
33966000    91.965167   -9794.8621   -9444.2489   -9794.8621            0     8726.653    24.786096    24.689125    22.680356    13879.177    8007.5215      8245.33    9927.1074    75.959668   -53.393847   -735.78283   -7677.8561 
33967000    98.591739   -9799.2151   -9423.3384   -9799.2151            0    7807.2489    24.699682    24.771326    22.732236    13908.579    7559.2552    7872.8949    7989.5966    11.343495   -272.97186    704.89501   -7839.6976 
33968000    94.095028   -9788.3307   -9429.5975   -9788.3307            0    8158.9469     24.69929    24.783098    22.697541    13893.731    8765.8418    7439.8491    8271.1497     135.6856    -338.7264    399.93617   -7776.3843 
33969000    94.498502   -9804.0284    -9443.757   -9804.0284            0    8456.1953    24.708675    24.676503    22.751659    13872.226    7694.1296    9534.2414    8140.2148   -268.43134   -328.26727    254.66284   -7732.9656 
33970000    96.591021   -9797.2123   -9428.9632   -9797.2123            0    8589.0304    24.625267    24.746721    22.751991    13864.941    8994.5383    8458.8093    8313.7437    98.717381   -519.04092   -598.46618   -7692.2103 
33971000    95.018644   -9796.2562   -9434.0018   -9796.2562            0    8700.0852    24.619823     24.70255    22.808062    13871.234     9428.275    8240.0351    8431.9454     55.54826     229.2121   -315.14258   -7673.9945 
33972000    95.895993   -9808.3264   -9442.7272   -9808.3264            0    8625.0193    24.698038    24.656541    22.766537    13864.097    8285.7906    9462.8449    8126.4224   -254.17285    563.03121   -370.33099   -7698.8032 
33973000    95.616494   -9801.5474   -9437.0138   -9801.5474            0    7420.6369    24.648637    24.756713    22.825893    13928.799    8196.0716    7064.5936    7001.2455   -284.79733    188.08198    560.67019    -7929.606 
33974000    98.103426   -9784.9506   -9410.9356   -9784.9506            0    8062.6064    24.753086    24.647815    22.798232    13909.417    7342.2457    9194.5524    7651.0212   -92.567674   -384.72933   -731.49593   -7775.3989 
33975000     92.79263   -9789.9346   -9436.1667   -9789.9346            0    8440.0129     24.55959    24.825333    22.774388    13885.545    9632.9642    7407.3062    8279.7683    78.674659   -828.77602    170.65276   -7727.0099 
33976000    96.496017   -9799.3103   -9431.4235   -9799.3103            0    8410.2494    24.730006    24.690691    22.747773    13889.812    8618.3246    8130.3086    8482.1149   -387.48356   -143.13662   -222.53939   -7727.7705 
33977000      98.4204   -9801.4582   -9426.2348   -9801.4582            0    8404.1672    24.727345    24.739668    22.718781     13898.13    7284.0455    8676.9864    9251.4698   -84.904002   -956.88776   -87.422375   -7722.7943 
33978000    94.717843   -9784.5549   -9423.4473   -9784.5549            0    8046.5662    24.675072    24.833092    22.678028     13896.15    8054.7716    7216.4581     8868.469   -88.839618   -529.66876    93.973452   -7792.7213 
33979000    95.448532   -9804.0265   -9440.1331   -9804.0265            0      8349.14    24.736009    24.724395    22.699122    13882.394    8927.0409    7116.0462     9004.333    91.886198   -410.62406     88.60379   -7749.7623 
33980000    94.114258    -9793.415   -9434.6085    -9793.415            0    7773.0352    24.777709    24.724215    22.733164     13926.55    7293.4726    7657.7589     8367.874   -61.661962    -1335.969   -252.26196   -7855.8705 
33981000     98.27488   -9795.8104   -9421.1418   -9795.8104            0    7824.1211    24.679374    24.771435    22.769299    13919.863    8314.5425    7189.4941    7968.3266   -257.57237    60.560194    714.05479    -7832.791 
33982000    99.778226   -9802.9387   -9422.5386   -9802.9387            0    7928.1054    24.734881     24.78669     22.66294    13894.554    8099.5568    7201.0203    8483.7392   -416.82885   -158.37729    93.877549   -7816.0046 
33983000    98.565119   -9795.2498   -9419.4747   -9795.2498            0    8283.5479    24.778936    24.766047    22.655787    13903.319    7634.7703    8388.0025     8827.871   -269.84538    370.49471    285.66497   -7739.8557 
33984000    98.268392   -9802.9501   -9428.3062   -9802.9501            0    7126.2082    24.706402    24.828614    22.723992    13939.482    7408.8229    6594.9971    7374.8046    221.09803    -19.04125    443.74237   -7979.5976 
33985000     94.26699   -9797.6798    -9438.291   -9797.6798            0    8863.5678    24.684974    24.722961    22.712043    13860.834    9055.4806    8691.5454    8843.6775    649.64946   -421.52924    72.556615   -7646.5559 
33986000    95.138265   -9785.4734    -9422.763   -9785.4734            0    8854.2364    24.697169    24.687132    22.747087    13868.951    9119.0167    8682.3429    8761.3498   -250.67279    39.201562    604.61187    -7631.866 
33987000    94.718825   -9801.0145   -9439.9032   -9801.0145            0     8098.052    24.669641    24.729729    22.793746    13905.861      8617.74    7891.4213    7784.9948   -370.40806   -36.789513   -32.754499   -7797.5962 
33988000     97.12018   -9779.9236   -9409.6572   -9779.9236            0    8223.6252    24.672385    24.697997    22.825077    13908.655    8594.7236    8005.4919      8070.66   -113.25045    -735.2577   -607.09569   -7741.5486 
33989000    97.546093   -9798.2172    -9426.327   -9798.2172            0    8324.3852    24.647218    24.730104    22.786621     13889.09    8674.5953    8244.6307    8053.9297    -279.2664    714.04093   -151.95195   -7740.1551 
33990000    96.663635   -9778.5995   -9410.0736   -9778.5995            0    9044.6895    24.709748    24.586256    22.813468    13859.642    8381.7282    10683.481    8068.8597    71.734267    19.000142    1001.4254   -7581.8826 
33991000    92.763637   -9779.4098   -9425.7525   -9779.4098            0    8380.7873    24.617433    24.769189    22.787111    13894.529    9413.0269    7901.9105    7827.4244    40.366336    145.16476    730.05161   -7727.4911 
33992000    95.291134   -9783.5723    -9420.279   -9783.5723            0    8157.5404    24.704996    24.750021    22.719435     13891.78    7938.6407    8529.8347    8004.1459   -527.03167    404.08817    427.09469   -7767.5829 
33993000    93.064821    -9785.456   -9430.6505    -9785.456            0    9002.8795    24.713019     24.70603    22.721849    13873.065    9028.7349    8680.2946    9299.6089   -672.51469   -17.923327    74.382213    -7609.148 
33994000    92.652855   -9795.4051   -9442.1702   -9795.4051            0    8360.0267    24.666524    24.761785    22.731097    13883.862    8320.0669    7969.4895    8790.5238    -31.36001    159.56145   -46.026102   -7749.4161 
33995000    96.894475   -9797.3267   -9427.9207   -9797.3267            0    8471.7706    24.615184    24.752798    22.778352    13878.728    8996.4647     8322.672     8096.175   -134.90655   -842.85771   -58.598148   -7713.1749 
33996000    93.086606   -9794.7784   -9439.8898   -9794.7784            0    8419.8189    24.716937    24.657979    22.773494    13879.755    8334.6535    8569.5984    8355.2047    161.16695   -191.20919    55.166181   -7735.5334 
33997000    98.692843   -9790.8053   -9414.5432   -9790.8053            0    8032.1106    24.648355    24.735898    22.809848    13907.146    9204.8809    7238.9259    7652.5251   -88.116426   -326.53293    792.92495   -7785.4588 
33998000    96.168138   -9813.5069   -9446.8701   -9813.5069            0    8421.1443    24.656942    24.705586    22.784751    13879.654    8798.6259    8334.7473    8130.0596    -325.5991   -10.249926   0.40563407   -7742.2577 
33999000     92.13887   -9806.4526   -9455.1772   -9806.4526            0    8479.8727      24.6378    24.673597    22.838406    13883.539    8486.0981    9098.0458    7855.4741     42.96198   -562.36728   -318.07608   -7738.1965 
34000000    97.309738   -9791.7597   -9420.7706   -9791.7597            0    8637.7416    24.668969    24.665362    22.801879    13874.238    8356.8565    9050.7931    8505.5754   -642.67313   -671.41436   -67.636085   -7672.9967 
Loop time of 497.971 on 64 procs for 250000 steps with 1920 atoms

Performance: 86.752 ns/day, 0.277 hours/ns, 502.037 timesteps/s
382.0% CPU use with 16 MPI tasks x 4 OpenMP threads

MPI task timing breakdown:
Section |  min time  |  avg time  |  max time  |%varavg| %total
---------------------------------------------------------------
Pair    | 73.444     | 74.689     | 77.517     |  11.6 | 15.00
Bond    | 1.5702     | 1.7619     | 2.2239     |  11.0 |  0.35
Kspace  | 239.33     | 245.07     | 252.06     |  22.5 | 49.21
Neigh   | 0.13647    | 0.14619    | 0.1584     |   2.0 |  0.03
Comm    | 61.667     | 66.732     | 71.747     |  32.2 | 13.40
Output  | 0.61429    | 0.61457    | 0.61596    |   0.0 |  0.12
Modify  | 77.553     | 87.812     | 92.378     |  40.4 | 17.63
Other   |            | 21.14      |            |       |  4.25

Nlocal:        120.000 ave         122 max         118 min
Histogram: 2 0 5 0 0 4 0 1 0 4
Nghost:        4325.81 ave        4363 max        4301 min
Histogram: 4 2 3 0 1 1 0 2 2 1
Neighs:        43836.5 ave       44891 max       42879 min
Histogram: 1 1 1 5 1 0 5 0 1 1

Total # of neighbors = 701384
Ave neighs/atom = 365.30417
Ave special neighs/atom = 2.0000000
Neighbor list builds = 273
Dangerous builds = 0

unfix		3
unfix		2
unfix		1

write_data	data.final.${pid}
write_data	data.final.0
System init for write_data ...
PPPM initialization ...
  extracting TIP4P info from pair style
  using 12-bit tables for long-range coulomb (../kspace.cpp:340)
  G vector (1/distance) = 0.37528311
  grid = 30 30 30
  stencil order = 5
  estimated absolute RMS force accuracy = 0.003173543
  estimated relative force accuracy = 9.5570306e-06
  using double precision FFTW3
  3d grid and FFT values/proc = 7920 1800
Last active /omp style is kspace_style pppm/tip4p/omp
WARNING: Not all mixed pair coeffs generated from mixing. Use write_data with 'pair ij' option to store all pair coeffs. (../write_data.cpp:312)

write_restart   restart.lmp.${pid}
write_restart   restart.lmp.0
System init for write_restart ...
PPPM initialization ...
  extracting TIP4P info from pair style
  using 12-bit tables for long-range coulomb (../kspace.cpp:340)
  G vector (1/distance) = 0.37528311
  grid = 30 30 30
  stencil order = 5
  estimated absolute RMS force accuracy = 0.003173543
  estimated relative force accuracy = 9.5570306e-06
  using double precision FFTW3
  3d grid and FFT values/proc = 7920 1800
Last active /omp style is kspace_style pppm/tip4p/omp
Total wall time: 0:08:18
