LAMMPS (30 Jul 2021)
  using 1 OpenMP thread(s) per MPI task
package omp 0
using multi-threaded neighbor list subroutines
echo both

include		in.partitions
variable        pid world 0
include		in.temp
variable        temperature equal 255.00
variable	tempDamp equal 100.0
include		in.pressure
variable        pressure equal 10125.0
variable        pressureDamp equal 1000.0 # This is 1 ps
include		in.seed
variable        seed world 745823

units		real
atom_style	full
read_restart	restart.lmp.${pid}
read_restart	restart.lmp.0
Reading restart file ...
  restart file = 30 Jul 2021, LAMMPS = 30 Jul 2021
  restoring atom style full from restart
  orthogonal box = (0.69481071 1.9099265 0.84766744) to (17.512762 21.719251 21.365528)
  4 by 4 by 4 MPI processor grid
  restoring pair style lj/cut/tip4p/long/omp from restart
  restoring bond style harmonic/omp from restart
  restoring angle style harmonic/omp from restart
  864 atoms
  576 bonds
  288 angles
Finding 1-2 1-3 1-4 neighbors ...
  special bond factors lj:    0        0        0       
  special bond factors coul:  0        0        0       
     2 = max # of 1-2 neighbors
     1 = max # of 1-3 neighbors
     1 = max # of 1-4 neighbors
     2 = max # of special neighbors
  special bonds CPU = 0.536 seconds
  read_restart CPU = 0.763 seconds
include 	in.setup
variable	out_freq equal 1000
variable	out_freq2 equal 10000
variable	out_freq3 equal 1000

timestep	2.0

neigh_modify    delay 7 every 1

include		in.tip4p
# This is TIP4P/Ice

# create groups ###
group ox type 2
288 atoms in group ox
group hy type 1
576 atoms in group hy

# set charges - beside manually ###
set group ox charge -1.1794
Setting atom values ...
  288 settings made for charge
set group hy charge 0.5897
Setting atom values ...
  576 settings made for charge

# ### TIP3P Potential Parameters ###
pair_style lj/cut/tip4p/long/omp 2 1 1 1 0.1577 8.5
pair_coeff 1 1*2 0.000 0.000
pair_coeff 2 2 0.21084 3.1668
bond_style  harmonic
bond_coeff  1 450 0.9572
angle_style harmonic
angle_coeff 1 55 104.52
kspace_style pppm/tip4p/omp 1.0e-5
pair_modify tail yes

thermo          ${out_freq}
thermo          1000
thermo_style    custom step temp pe etotal epair emol press lx ly lz vol pxx pyy pzz pxy pxz pyz enthalpy

restart 	${out_freq3} restart.lmp.${pid} restart2.lmp.${pid}
restart 	1000 restart.lmp.${pid} restart2.lmp.${pid}
restart 	1000 restart.lmp.0 restart2.lmp.${pid}
restart 	1000 restart.lmp.0 restart2.lmp.0


include         in.dump
dump            myDump all atom ${out_freq2} dump.water.${pid}
dump            myDump all atom 10000 dump.water.${pid}
dump            myDump all atom 10000 dump.water.0
dump            myDump2 all dcd ${out_freq2} dump.dcd
dump            myDump2 all dcd 10000 dump.dcd
dump_modify     myDump append yes
dump_modify     myDump2 append yes


variable natoms 	equal  "count(all)"                        # NUMBER ATOMS
variable H      	equal  "enthalpy/v_natoms"                 # ENTHALPY-per-atom
variable Vol      	equal  "vol/v_natoms"                 # volume-per-atom
fix AVG all 		ave/time ${out_freq} 1 ${out_freq} v_Vol v_H file vol_enthalpy.dat
fix AVG all 		ave/time 1000 1 ${out_freq} v_Vol v_H file vol_enthalpy.dat
fix AVG all 		ave/time 1000 1 1000 v_Vol v_H file vol_enthalpy.dat


timer           timeout 23:50:00 every 1000
New timer settings: style=normal  mode=nosync  timeout=23:50:00

fix 		1 all shake 1e-6 200 0 b 1 a 1
       0 = # of size 2 clusters
       0 = # of size 3 clusters
       0 = # of size 4 clusters
     288 = # of frozen angles
  find clusters CPU = 0.058 seconds
fix             2 all nph iso ${pressure} ${pressure} ${pressureDamp}
fix             2 all nph iso 10125 ${pressure} ${pressureDamp}
fix             2 all nph iso 10125 10125 ${pressureDamp}
fix             2 all nph iso 10125 10125 1000
fix             3 all temp/csvr ${temperature} ${temperature} ${tempDamp} ${seed}
fix             3 all temp/csvr 255 ${temperature} ${tempDamp} ${seed}
fix             3 all temp/csvr 255 255 ${tempDamp} ${seed}
fix             3 all temp/csvr 255 255 100 ${seed}
fix             3 all temp/csvr 255 255 100 745823

run             250000
PPPM initialization ...
  extracting TIP4P info from pair style
  using 12-bit tables for long-range coulomb (../kspace.cpp:340)
  G vector (1/distance) = 0.37502667
  grid = 24 24 24
  stencil order = 5
  estimated absolute RMS force accuracy = 0.0030748011
  estimated relative force accuracy = 9.2596721e-06
  using double precision FFTW3
  3d grid and FFT values/proc = 2535 216
Last active /omp style is kspace_style pppm/tip4p/omp
Neighbor list info ...
  update every 1 steps, delay 7 steps, check yes
  max neighbors/atom: 2000, page size: 100000
  master list distance cutoff = 10.8154
  ghost atom cutoff = 10.8154
  binsize = 5.4077, bins = 4 4 4
  1 neighbor lists, perpetual/occasional/extra = 1 0 0
  (1) pair lj/cut/tip4p/long/omp, perpetual
      attributes: half, newton on, omp
      pair build: half/bin/newton/omp
      stencil: half/bin/3d
      bin: standard
Per MPI rank memory allocation (min/avg/max) = 9.237 | 9.241 | 9.244 Mbytes
Step Temp PotEng TotEng E_pair E_mol Press Lx Ly Lz Volume Pxx Pyy Pzz Pxy Pxz Pyz Enthalpy 
24750000    258.75123   -3866.5682   -3423.0774   -3866.5682            0    11619.742    16.817951    19.809325    20.517861    6835.5716     11313.99     12770.36    10774.877   -538.49208   -195.67515   -1548.3877   -2264.7077 
24751000    268.29039   -3920.7856   -3460.9451   -3920.7856            0    9448.5357    16.867659    19.867875    20.578505    6896.3619    9911.4892      9784.88    8649.2377    671.63165   -970.32527    297.27106   -2510.6457 
24752000    257.14724    -3897.502   -3456.7604    -3897.502            0    10001.124    16.796746    19.784348    20.491991    6809.7478    9828.2279    8318.4501    11856.695    1355.7164    78.628724   -912.44637   -2463.5169 
24753000    259.78591   -3909.8883   -3464.6241   -3909.8883            0    10147.084    16.899282    19.905122    20.617085    6935.2222        10288     9541.858    10611.395    841.32841   -488.79476    766.49623   -2438.3165 
24754000    238.98194    -3896.651   -3487.0442    -3896.651            0    10011.587    16.828889    19.822209    20.531206    6848.9178    9070.4312    9813.0766    11151.254   -1749.5661   -414.61742    292.67301   -2487.0424 
24755000    268.07701   -3896.4972   -3437.0224   -3896.4972            0    9555.7065    16.828491     19.82174     20.53072    6848.4319    11070.001    8138.2712     9458.847   -1330.7807    13.856793    481.30315   -2482.6237 
24756000    264.61164   -3899.5889   -3446.0536   -3899.5889            0    9862.5462    16.895329    19.900466    20.612262    6930.3565    11297.395    10099.913    8190.3303   -652.08849   -766.03505    -1895.439   -2449.2249 
24757000    267.01276   -3905.7206   -3448.0699   -3905.7206            0    11267.623    16.838403    19.833415    20.542813    6860.5402    10065.024    12119.413    11618.432   -198.93472    -728.8105   -141.49838   -2320.6998 
24758000    254.27618   -3873.1636   -3437.3429   -3873.1636            0    10176.373    16.871451    19.872341    20.583131    6901.0143    10995.656    10557.769    8975.6935    1147.2231   -1718.9964    1037.4514   -2413.1499 
24759000    273.13447   -3900.5236   -3432.3804   -3900.5236            0    10114.168    16.837331    19.832152    20.541505    6859.2299    10018.131    10189.783    10134.589   -1594.9131   -844.76164      728.384   -2420.6114 
24760000    247.66977   -3857.2895   -3432.7919   -3857.2895            0    11070.816     16.86456    19.864224    20.574724     6892.561    13433.868    10500.259    9278.3197   -1909.1708   -350.87692    491.25895   -2319.9432 
24761000    243.56261   -3856.0039    -3438.546   -3856.0039            0    12446.293    16.813237    19.803772     20.51211    6829.8253    12880.835     11896.03    12562.015    876.41065   -825.54251    783.89179   -2198.8205 
24762000    282.23433   -3879.9722   -3396.2322   -3879.9722            0    9004.6679    16.889611    19.893731    20.605286    6923.3223    9119.6828    8773.6794    9120.6415    1735.6957   -534.89493   -559.63726   -2487.0349 
24763000    258.67159   -3858.2956   -3414.9413   -3858.2956            0    11318.464    16.813264    19.803804    20.512142    6829.8578    11951.136    8808.1634    13196.092    1098.1818   -1484.4647    2100.6327   -2287.5491 
24764000    251.62228   -3908.7279   -3477.4559   -3908.7279            0    11500.576    16.794506    19.781709    20.489258    6807.0238    11016.272    13232.322    10253.132    74.206667   -12.674363   -296.56276    -2335.754 
24765000    255.13701   -3907.3473   -3470.0512   -3907.3473            0    10419.965    16.882038    19.884811    20.596047    6914.0136    11374.689    7979.1151    11906.091    1452.5335   -56.586837    83.692472   -2419.3666 
24766000    256.36767   -3891.4069   -3452.0015   -3891.4069            0    10057.174    16.823878    19.816306    20.525092     6842.801    11094.604    9401.9762    9674.9407   -1094.2596    677.52205   -1230.4517   -2448.3435 
24767000    263.52025   -3894.7964   -3443.1317   -3894.7964            0     8783.227    16.828928    19.822254    20.531252    6848.9646    9040.3405    7381.3252    9928.0152    1855.2069   -871.40154   -764.21826    -2565.818 
24768000    253.67775   -3934.5713   -3499.7763   -3934.5713            0    8349.1656     16.86796    19.868229    20.578872    6896.7312    7844.4881    7773.3733    9429.6355   -289.32779    1612.3328   -44.548131   -2660.0026 
24769000    262.01998   -3878.5619   -3429.4687   -3878.5619            0    10862.141    16.851471    19.848807    20.558755    6876.5252    9649.3126     10893.78    12043.331    192.15419   -1438.0964    627.82354   -2340.1364 
24770000    257.08847    -3894.323   -3453.6822    -3894.323            0    10999.394    16.825796    19.818565    20.527432    6845.1416    11443.594    10193.989    11360.598   -228.92184     654.7193   -1463.8261   -2355.6196 
24771000    239.00281   -3861.2275   -3451.5849   -3861.2275            0     9333.536    16.841787    19.837401    20.546941    6864.6769    9456.5928    9609.4177    8934.5974   -1065.2073   -1102.6706    1131.1824   -2517.1647 
24772000     263.3728   -3838.9348   -3387.5228   -3838.9348            0    11690.801    16.846268    19.842679    20.552408    6870.1579    10048.414    11007.715    14016.274    1002.5904   -223.31973    394.42197   -2216.1723 
24773000    249.41495   -3874.7412   -3447.2525   -3874.7412            0    9725.2073     16.89355    19.898371    20.610092    6928.1675    9164.0401    11161.969    8849.6126   -153.75386   -790.08126   -803.46764   -2464.6155 
24774000    251.60308   -3805.9847   -3374.7456   -3805.9847            0    10331.441    16.854852    19.852789     20.56288    6880.6651    9739.1672    9427.4039    11827.752    740.96517    93.838221    1400.8094   -2338.0119 
24775000    253.77462   -3875.5724   -3440.6113   -3875.5724            0    11958.079    16.861656    19.860804    20.571181    6889.0017    13792.958    9608.4148    12472.865    1415.1917    734.67381    1103.7379   -2239.1948 
24776000    260.22449   -3879.3263   -3433.3104   -3879.3263            0    10595.039    16.925776    19.936328    20.649407    6967.8908    12214.957     10315.67    9254.4885    355.50574    1311.5782    346.37667   -2356.6475 
24777000    254.90044   -3878.1893   -3441.2987   -3878.1893            0    10497.542    16.917973    19.927138    20.639888    6958.2593    11748.681    9866.6228    9877.3236   -644.91812    2478.0247    -567.3328   -2376.0178 
24778000    251.67397   -3898.9261   -3467.5656   -3898.9261            0    10177.564    16.913478    19.921843    20.634404    6952.7143    8667.5047    11878.724    9986.4632   -6.6564422    974.23647    568.56881   -2435.5788 
24779000    243.85064   -3912.7894   -3494.8378   -3912.7894            0    9906.8681    16.920809    19.930478    20.643348    6961.7591    9925.9097    9187.6721    10607.023    690.28602    871.69478   -498.05582   -2488.9923 
24780000    262.11193   -3892.7514   -3443.5006   -3892.7514            0    11523.071    16.901698    19.907968    20.620032     6938.197    12324.379    12942.248    9302.5842   -1432.4039    1996.5909    29.564549   -2277.5215 
24781000    254.91769   -3853.9722    -3417.052   -3853.9722            0    9789.8031     16.90303    19.909537    20.621657    6939.8371    11088.553    9160.8088    9120.0478    1185.8635    171.87491    1196.5714   -2426.2221 
24782000     238.4495   -3836.1354   -3427.4411   -3836.1354            0    9945.2431    16.953256    19.968696    20.682932    7001.8841    8548.7175    7884.2087    13402.803   -371.43059    644.42377    -570.7164   -2411.8796 
24783000    261.45082   -3869.3154   -3421.1977   -3869.3154            0    11482.647     16.82385    19.816273    20.525058    6842.7674    13351.544    9690.0028    11406.394   -771.82295   -897.30119   -7.7227371   -2275.2899 
24784000    259.48131   -3932.2938   -3487.5517   -3932.2938            0    10268.496    16.824815    19.817409    20.526235    6843.9441     10296.09    10242.063    10267.334   -896.25564   -1614.0325   -393.25836   -2462.6336 
24785000    244.96448   -3941.7488   -3521.8881   -3941.7488            0    8516.4192    16.869616    19.870179    20.580892    6898.7618    8859.0973    6863.3852    9826.7749   -268.89153   -38.277491   -67.923638   -2665.0395 
24786000    251.37608   -3933.0643   -3502.2143   -3933.0643            0    9769.3609    16.844278    19.840334    20.549979    6867.7229    9913.5484    8408.2185    10986.316    1163.2389    1649.7913   -93.720512   -2523.7278 
24787000    246.07901   -3876.8204   -3455.0494   -3876.8204            0    8601.5831    16.847189    19.843764    20.553532     6871.285    8764.6437    8438.0497     8602.056    1818.5749   -118.79304   -379.54346   -2593.0793 
24788000    254.39613   -3886.5215   -3450.4952   -3886.5215            0    12525.672    16.763202    19.744838    20.451067    6769.0311    12458.285    12593.566    12525.166    1365.8923   -568.06927    1836.0921   -2213.9686 
24789000      262.904   -3920.9176   -3470.3091   -3920.9176            0    9041.7014    16.800886    19.789225    20.497042    6814.7851    9613.4282    10392.172    7119.5037    304.05952   -31.796832    1282.6123   -2571.6847 
24790000    246.59473   -3897.3779    -3474.723   -3897.3779            0    11014.401    16.802234    19.790812    20.498686    6816.4251     9862.846    12649.486    10530.871    21.611167   -717.74486    1318.8336   -2379.7752 
24791000    249.47039   -3894.0975   -3466.5138   -3894.0975            0    10770.571    16.805465    19.794618    20.502628    6820.3584    10861.693    12420.856    9029.1633    651.37589   -542.09821    453.80887   -2395.1874 
24792000    251.29958   -3900.6318   -3469.9129   -3900.6318            0     9626.926    16.812139    19.802479     20.51077    6828.4873    9717.5848    10584.301    8578.8923    347.96372    1758.8762    -205.5839   -2511.2012 
24793000    255.75845   -3911.8281   -3473.4669   -3911.8281            0       9255.2    16.865109     19.86487    20.575393    6893.2339    7998.2341    10833.984    8933.3816    402.84042     1064.297   -960.52606   -2543.0347 
24794000    256.19488   -3901.3316   -3462.2224   -3901.3316            0     11875.99    16.777856    19.762098    20.468945     6786.799    12621.562    12859.119    10147.289    1684.7756   -1190.9881   -1244.7759   -2286.7546 
24795000     245.5593   -3945.6166   -3524.7364   -3945.6166            0    8391.5727    16.864944    19.864677    20.575193    6893.0326    10096.763    8526.9194    6551.0359    872.48982     749.7861    -682.7053   -2681.1499 
24796000    261.80149   -3907.6615   -3458.9427   -3907.6615            0    9212.7535    16.916613    19.925536    20.638229    6956.5812    8632.2608    9397.4217     9608.578    823.12145   -915.86718   -1259.8256   -2524.2665 
24797000    247.10604   -3921.3933    -3497.862   -3921.3933            0    9545.8402    16.869116     19.86959    20.580282    6898.1488    8926.4933    12578.963    7132.0641    494.57058     839.7529   -271.46628   -2537.5273 
24798000    259.86967   -3908.6008   -3463.1931   -3908.6008            0    9454.5979    16.859283    19.858009    20.568286    6886.0932    9452.2621    8950.5458    9960.9858   -29.734295   -1403.2636    1141.6481   -2513.6999 
24799000    263.04873   -3901.6244   -3450.7679   -3901.6244            0    10511.504    16.824429    19.816955    20.525764    6843.4734    10960.518    11489.103    9084.8924    198.53157    563.09278   -616.75248   -2401.6668 
24800000    258.13268   -3931.1642   -3488.7336   -3931.1642            0    9487.8804    16.872935    19.874089    20.584941    6902.8348    9325.4238    9446.5016    9691.7159    2175.4231   -1613.6241    450.12872   -2533.5814 
24801000    261.84451   -3916.8627   -3468.0702   -3916.8627            0    7641.4166    16.942327    19.955824      20.6696    6988.3523     8086.247    7671.2159    7166.7869    343.55673    94.056498    283.04822   -2689.2727 
24802000    250.42297   -3901.9078   -3472.6914   -3901.9078            0    12355.721    16.772834    19.756183    20.462818    6780.7063    14749.466    12216.154    10101.543    865.07551   -676.31132    139.33549   -2250.8385 
24803000    253.00987   -3921.5757   -3487.9255   -3921.5757            0    10617.357    16.771649    19.754787    20.461372     6779.269    13315.557    10461.631    8074.8846   -572.08707    1531.0881   -129.04788   -2438.2013 
24804000    258.97444   -3901.4871   -3457.6138   -3901.4871            0    10869.603    16.864188    19.863786     20.57427    6892.1049     9929.091    11709.005    10970.714   -544.41518    575.68804   -879.42912   -2365.0634 
24805000    252.53534   -3909.2286   -3476.3917   -3909.2286            0    11124.943    16.788332    19.774437    20.481725    6799.5191     11594.62    10765.316    11014.892   -1159.5172   -440.86564    523.01041   -2373.1977 
24806000    267.32904   -3886.8159    -3428.623   -3886.8159            0    10196.163    16.843774    19.839741    20.549365    6867.1074    10682.277    9912.2957    9993.9164    874.63665     595.4915    1504.5204   -2407.4802 
24807000    267.96331   -3935.9964   -3476.7164   -3935.9964            0    10681.463    16.817663    19.808985    20.517509    6835.2199    11532.183    11748.544     8763.663    2428.0434    362.89887    1146.8904   -2411.9383 
24808000    266.77923   -3943.5427   -3486.2922   -3943.5427            0    9278.7193    16.836638    19.831336    20.540659    6858.3828    11045.588    8583.5128    8207.0568    1601.4131   -1333.7044    1482.3221   -2558.2117 
24809000    249.40108   -3886.9163   -3459.4514   -3886.9163            0     10833.12    16.795648    19.783055    20.490651    6808.4129    8840.9309    10607.299     13051.13    1207.1326    110.07274    1164.4127   -2383.7907 
24810000    246.49284   -3924.2542   -3501.7739   -3924.2542            0    9713.1134    16.817775    19.809118    20.517647    6835.3574    10030.048    9291.9566    9817.3361    480.71962     129.8591    1123.9211   -2533.5059 
24811000    244.52502   -3893.4221   -3474.3146   -3893.4221            0    10737.365     16.77704    19.761137    20.467949    6785.8081    10802.775    10818.739    10590.581    419.24397     1061.477    -921.3888   -2411.7015 
24812000    247.74718   -3888.4043   -3463.7741   -3888.4043            0    9203.2369    16.878325    19.880437    20.591517    6909.4518    9352.4344    8032.9764      10224.3    -923.0126   -586.34811   -660.95663   -2536.3891 
24813000    264.84333   -3887.9592   -3434.0268   -3887.9592            0    10982.516    16.815376    19.806292    20.514719     6832.432    11964.089    9604.6051    11378.853   -405.92952   -1037.1906     828.9171   -2339.6849 
24814000    253.85725   -3899.8411   -3464.7385   -3899.8411            0    10932.609    16.832981    19.827028    20.536197    6853.9141    9725.4718    12317.683    10754.673    6.0083103    648.83548    339.60154   -2371.9443 
24815000    254.37342   -3924.5968   -3488.6094   -3924.5968            0    9581.7139    16.859156    19.857858     20.56813     6885.937    8330.3837    10511.422    9903.3357   -270.62571   -772.07861   -1011.7446   -2526.3723 
24816000    264.17864   -3901.3818   -3448.5887   -3901.3818            0    9129.9128    16.923487    19.933632    20.646614    6965.0641    9485.5897     8207.883    9696.2658    1526.1553    71.766729    885.49111   -2521.1875 
24817000    254.32917    -3939.526   -3503.6145    -3939.526            0    8740.1442    16.876273    19.878021    20.589014    6906.9329    7570.8334     9809.667    8839.9322    337.92165    53.205347   -1016.4134   -2623.2152 
24818000    249.94298   -3900.6957    -3472.302   -3900.6957            0    9149.3002    16.888037    19.891876    20.603365     6921.386    9788.8182    9122.8109    8536.2714    866.84357   -128.72586    43.380135   -2548.7596 
24819000    243.05998   -3936.7576   -3520.1611   -3936.7576            0    9374.9028     16.89371    19.898559    20.610287    6928.3639    9181.8996    9039.4308    9903.3779    1184.5847    16.707841    789.58912    -2572.892 
24820000    256.85309   -3913.2872   -3473.0498   -3913.2872            0    10357.694    16.898413    19.904099    20.616025    6934.1521    10657.247    10999.518    9416.3159   -785.81457   -1212.3216   -20.876068   -2425.6022 
24821000    244.04588     -3908.34   -3490.0537     -3908.34            0    9096.2132    16.914425    19.922959     20.63556    6953.8824    11748.571    6845.2681    8694.8006   -452.31674   -59.801298   -937.85336    -2567.559 
24822000    268.41427   -3871.3981   -3411.3452   -3871.3981            0    11765.303    16.919382    19.928797    20.641606    6959.9968     13020.77    13798.471    8476.6669    1270.0481   -720.98825   -1590.2362    -2217.115 
24823000    242.71622   -3901.7758   -3485.7685   -3901.7758            0    11049.384    16.852183    19.849646    20.559624    6877.3973    13979.576     9478.431    9690.1442    787.96662   -174.51415   -969.68336   -2377.5177 
24824000    262.02277   -3914.6656   -3465.5675   -3914.6656            0     13734.56     16.78903    19.775259    20.482577    6800.3672    13840.844    14165.147     13197.69   -456.41886   -1510.4794   -769.29696   -2103.4235 
24825000    266.40863   -3940.7469   -3484.1317   -3940.7469            0    9848.2649    16.864008    19.863574     20.57405    6891.8841    7963.5948    9389.4429    12191.757    -1296.544   -1123.1194     370.3905   -2494.2721 
24826000    251.78969   -3885.9605   -3454.4016   -3885.9605            0    8713.7747    16.894361    19.899325     20.61108    6929.1644    8521.3271    9484.1534    8135.8436    610.56278    -212.1172    878.07224   -2573.8332 
24827000    248.67573    -3892.478   -3466.2563    -3892.478            0    12256.727    16.779753    19.764333     20.47126    6789.1013    12685.698    11943.002    12141.482    294.40956   -1159.3349   -818.22618   -2252.6923 
24828000     268.7809   -3861.7276   -3401.0463   -3861.7276            0    11091.156    16.768539    19.751124    20.457579    6775.4988    10879.685    9426.1339    12967.649    207.88529    1119.0039    220.79441   -2305.0882 
24829000    252.35199   -3899.7067   -3467.1841   -3899.7067            0    9620.7536    16.802448    19.791065    20.498948    6816.6859    9155.3097    10347.516    9359.4352    -542.3477    -1174.549   -1186.1382   -2510.7429 
24830000      271.875   -3879.4618   -3413.4773   -3879.4618            0    9821.0966    16.819251    19.810857    20.519448    6837.1574    11099.402    8778.6553    9585.2326    266.13108   -1276.0058   -93.196984    -2434.187 
24831000    254.79777   -3889.9828   -3453.2681   -3889.9828            0    10276.774    16.810342    19.800363    20.508579    6826.2985    9884.7266    10118.831    10826.764    -439.4393    1017.6744   -1602.1401   -2430.1684 
24832000    245.49774   -3906.2797    -3485.505   -3906.2797            0     11303.86    16.792657    19.779532    20.487002    6804.7759    11549.007    9708.4232    12654.151   -29.796426    2005.3475   -544.63985   -2363.7022 
24833000    238.37437   -3882.4832   -3473.9177   -3882.4832            0    8024.5707    16.849328    19.846283    20.556141    6873.9026     7689.258    9282.2238    7102.2303    940.53799   -569.44591   -756.71992   -2669.4639 
24834000    257.67575     -3845.11   -3403.4626     -3845.11            0    10140.456    16.820224    19.812002    20.520634    6838.3433    11123.588     8053.549    11244.231    1536.1937   -1072.8306    620.45002   -2392.1526 
24835000    251.09281   -3899.8954   -3469.5309   -3899.8954            0    8954.6715    16.836263    19.830894    20.540202    6857.9246    9643.7459    7664.4928    9555.7756   -781.25854    318.39996   -514.70932   -2573.9223 
24836000    262.19119    -3890.603   -3441.2163    -3890.603            0    11757.594    16.773446    19.756904    20.463565    6781.4485    11052.843    12799.245    11420.693   -141.49535   -160.69919    24.997024   -2278.3847 
24837000    245.50524   -3897.2037   -3476.4162   -3897.2037            0     10888.86    16.799431     19.78751    20.495266    6813.0139    12098.822    10190.114    10377.645     164.0976    132.08164   -1098.2533   -2394.4901 
24838000     258.3715   -3862.8989    -3420.059   -3862.8989            0    9183.1438    16.826902    19.819868    20.528782    6846.4922    7683.8446    9047.2916    10818.295    572.15449   -94.005096   -1314.9655   -2503.1306 
24839000     256.0517   -3930.1919   -3491.3281   -3930.1919            0    10726.475    16.764358    19.746199    20.452478     6770.432    11810.413    9864.9589    10504.053   -929.83726    146.10139    377.26737    -2432.198 
24840000    263.65302    -3895.893   -3444.0008    -3895.893            0    10047.291    16.753639    19.733574      20.4394     6757.453    10607.043    8430.5589    11104.272    430.39049   -801.19748   -227.13551    -2453.835 
24841000     248.1405    -3923.477   -3498.1727    -3923.477            0    9227.3919    16.818652     19.81015    20.518716    6836.4261    9966.9341    7582.3794    10132.862     183.4082    93.022412   -672.71939   -2578.1808 
24842000    262.04265   -3894.7858   -3445.6537   -3894.7858            0    10221.338     16.82847    19.821715    20.530694    6848.4056    8852.8587    11808.098    10003.056   -957.78139   -553.80345   -380.93584   -2424.7774 
24843000    244.16518   -3928.0403   -3509.5496   -3928.0403            0    10603.052    16.809886    19.799826    20.508022     6825.743    9560.8722    11728.837    10519.446    847.49975    2206.9184    317.05415   -2454.0533 
24844000    243.77143   -3905.9753   -3488.1594   -3905.9753            0    9696.5042    16.834889    19.829276    20.538526     6856.246    8629.4019    11061.687    9398.4232    706.28098    -1132.972    -1175.835   -2518.5932 
24845000    252.16137   -3931.5255   -3499.3295   -3931.5255            0    8814.1689    16.808044    19.797656    20.505775     6823.499    10352.457    8696.6572    7393.3921    1256.1938    367.64215    276.62326   -2622.1987 
24846000    250.16198   -3910.3317   -3481.5626   -3910.3317            0    9348.6241    16.851434    19.848763     20.55871      6876.48    9104.9827    11243.486    7697.4038   -449.41559   -1796.4417    1743.1693   -2544.0227 
24847000    256.79755   -3930.5319   -3490.3897   -3930.5319            0    10801.716    16.864773    19.864475    20.574983    6892.8221    10455.379    10513.646    11436.124     -81.5097   -515.91382    1655.2003   -2404.5499 
24848000    255.60291   -3958.2351   -3520.1404   -3958.2351            0    8797.1131    16.829131    19.822493      20.5315    6849.2124    7806.8534    9113.4796    9471.0063   -55.757471    -1094.749    569.69952   -2641.4079 
24849000    251.36352   -3901.7033   -3470.8748   -3901.7033            0    10322.331    16.774355    19.757974    20.464674    6782.5508     11162.39    8973.7487    10830.855   -1058.0314   -373.95266    627.18957   -2449.8255 
24850000    245.98705   -3912.9737   -3491.3603   -3912.9737            0    11142.844    16.781865     19.76682    20.473836    6791.6646    11339.768    11107.042    10981.722   -440.81905    299.61681    660.58303   -2387.6676 
24851000    247.81461   -3957.2117   -3532.4659   -3957.2117            0    10016.676    16.782175    19.767185    20.474214    6792.0415     10816.83    10169.066    9064.1309   -1074.2769    551.20354   -548.13507   -2540.2645 
24852000    258.69976    -3913.488   -3470.0855    -3913.488            0    9479.9441    16.799559    19.787662    20.495423    6813.1703    10039.048    10652.216    7748.5682   -746.28893    675.64903    203.22803   -2528.1288 
24853000    268.79451   -3947.5707   -3486.8661   -3947.5707            0    11001.091    16.785116     19.77065    20.477803    6795.6131    9926.3329    11146.349    11930.589    2113.9746   -326.09415    388.46163   -2396.5805 
24854000    256.93251   -3948.2767   -3507.9032   -3948.2767            0    9821.9468    16.802249     19.79083    20.498705    6816.4436    10629.107    8042.7229     10794.01    58.497184   -1804.9188   -415.50617   -2531.4952 
24855000    264.87274   -3942.6825   -3488.6997   -3942.6825            0    10021.336    16.839842    19.835109    20.544568    6862.2986    12479.931    7675.1689    9908.9073    256.36279   -164.54945    -1591.615   -2485.7685 
24856000     241.4668   -3920.1648    -3506.299   -3920.1648            0    12853.709    16.741427    19.719189    20.424502    6742.6869    12569.436    12590.362    13401.329   -1430.3075    422.57406    981.56306   -2242.3273 
24857000    247.11742   -3906.6515   -3483.1007   -3906.6515            0    10776.365    16.779323    19.763826    20.470735    6788.5795     8393.257    12754.042    11181.797   -766.65994   -466.80857    1059.9944   -2416.1923 
24858000    249.98977   -3934.0914   -3505.6175   -3934.0914            0      10882.2     16.87439    19.875802    20.586716    6904.6204    10771.232    10058.058     11817.31    402.72054   -955.60434   -445.96329   -2409.8148 
24859000    256.47519   -3944.7946   -3505.2049   -3944.7946            0    8947.3115     16.82056    19.812398    20.521044    6838.7533    7661.7743    8435.9148    10744.245   -836.13942    299.05872    -109.4648   -2612.8341 
24860000    253.38907   -3933.0538   -3498.7537   -3933.0538            0    8845.1799    16.844778    19.840924     20.55059    6868.3355     8662.418    8236.3474    9636.7742    1013.9191   -570.82824   -1839.1451    -2612.753 
24861000    262.57078   -3928.0724    -3478.035   -3928.0724            0    10114.009     16.83029    19.823858    20.532914    6850.6276    9433.9485    12127.048    8781.0287    2361.4197     -804.423    1897.3165   -2467.5508 
24862000     243.6051   -3901.2252   -3483.6944   -3901.2252            0    9223.9117    16.864651    19.864331    20.574835     6892.673    10356.767    9350.3426    7964.6254   -491.61815   -571.06465    128.48338   -2556.4831 
24863000      252.961   -3919.4809   -3485.9144   -3919.4809            0    10502.018    16.764671    19.746569     20.45286    6770.8116    12639.854     10069.98    8796.2205   -2133.7961     1815.403    727.42542    -2448.889 
24864000    272.49077   -3908.5294   -3441.4895   -3908.5294            0    8410.4357    16.828968    19.822301    20.531301    6849.0134    9130.1409    6834.0553    9267.1107   -761.94879    411.13843    662.84939   -2601.4061 
24865000     267.3493   -3896.4998   -3438.2723   -3896.4998            0    10373.916    16.791073    19.777667     20.48507    6802.8512     8894.606    10822.664    11404.478   -315.92116    162.08036   -297.95505   -2409.0491 
24866000    248.16509   -3914.0902   -3488.7437   -3914.0902            0    11090.332    16.776594    19.760612    20.467406    6785.2677    10044.361     12414.46    10812.175     373.8922    166.99622   -709.03055    -2391.287 
24867000    238.51321   -3922.3177   -3513.5142   -3922.3177            0    9959.5701    16.798728    19.786683    20.494409    6812.1593    9099.8126    11268.465    9510.4331    2567.1346   -420.74001   -883.50547   -2524.0473 
24868000    245.31549    -3928.062   -3507.5996    -3928.062            0    8937.4542    16.863906    19.863454    20.573926    6891.7595    11688.091    6811.3421    8312.9298     1109.297   -139.19719   -313.49764   -2609.3029 
24869000    267.68129   -3925.6209   -3466.8243   -3925.6209            0    8575.3407    16.802912    19.791611    20.499513    6817.2505    8693.1193    9396.2535    7636.6494    3405.7741    928.93376   -1206.2486   -2614.2416 
24870000    248.90322   -3903.5137   -3476.9021   -3903.5137            0    11555.324    16.787972    19.774014    20.481287    6799.0824    12472.664    9973.0966    12220.212    267.67602   -554.65699   -49.534507   -2331.1035 
24871000    245.77837   -3894.8848   -3473.6291   -3894.8848            0    9775.4056    16.756428    19.736859    20.442804    6760.8292    10801.206    9697.7192    8827.2913    1598.4547    1910.3041    1604.1412   -2509.7765 
24872000    259.40675   -3881.8798   -3437.2655   -3881.8798            0    9270.2611     16.87001    19.870644    20.581373     6899.246    9984.6805    10059.469    7766.6339   -908.86203    877.70633    920.79211   -2504.5064 
24873000    253.33838   -3907.9683    -3473.755   -3907.9683            0    10923.769    16.771491    19.754601     20.46118    6779.0777    11998.967    10222.639    10549.703   -509.82118    1801.8977    978.87044   -2393.7668 
24874000    254.72571   -3864.1718   -3427.5806   -3864.1718            0    10060.335    16.823294    19.815618     20.52438    6842.0888     9596.767    10407.217     10177.02   -886.45529     22.98606    235.27576   -2423.7117 
24875000    261.67358    -3852.253   -3403.7534    -3852.253            0    10796.669    16.812505    19.802911    20.511217    6828.9337    11928.914    10237.244     10223.85   -429.00566   -4.3594089     386.0436   -2328.4808 
24876000    261.17378   -3908.7653   -3461.1223   -3908.7653            0    11393.875    16.782485     19.76755    20.474592    6792.4173     12547.89      9864.06    11769.675   -242.15535   -29.183175    702.79418     -2332.44 
24877000    262.29303   -3896.3167   -3446.7555   -3896.3167            0    8739.3604    16.879066     19.88131    20.592421    6910.3625    9433.5971    9059.0887    7725.3954   -1093.3805   -652.31994    412.64242   -2565.9979 
24878000    262.72945   -3884.1257   -3433.8164   -3884.1257            0    10835.594    16.887706    19.891487    20.602962    6920.9798    11413.911    11768.035    9324.8365    417.20936    -366.5505    849.04803   -2340.1215 
24879000    259.56515   -3877.0293   -3432.1435   -3877.0293            0    9772.7532    16.895387    19.900534    20.612333    6930.4274     8374.248    10091.218    10852.794   -1377.6205    1674.6445   -641.90714   -2444.3803 
24880000    253.90197   -3899.6935   -3464.5142   -3899.6935            0    11387.461     16.84179    19.837404    20.546945    6864.6809    11170.123    10439.344    12552.915   -1127.7943    690.79981    286.45415   -2324.4663 
24881000    256.11511   -3918.1368   -3479.1643   -3918.1368            0    11280.832    16.880442     19.88293    20.594099     6912.052    9946.9704    10918.462    12977.064    -1580.333   -920.59279   -485.65098   -2341.9979 
24882000    248.90444   -3859.4631   -3432.8494   -3859.4631            0    8264.2787    16.905995    19.913029    20.625275    6943.4898    7949.4937    8352.7028    8490.6396    834.92354   -1103.5562    -1495.207   -2595.9782 
24883000    252.37935   -3893.1724   -3460.6029   -3893.1724            0    9620.3805     16.88186    19.884602     20.59583     6913.795    7358.7541    9967.9559    11534.432     189.6083   -400.32198    633.49936    -2490.574 
24884000    257.33028    -3921.237   -3480.1817    -3921.237            0    10485.574    16.841462    19.837018    20.546545    6864.2798    12124.401     9834.486    9497.8333    -680.6048    260.32752   -1252.2415   -2430.4869 
24885000    250.99416   -3923.6018   -3493.4064   -3923.6018            0    9700.8748    16.837312    19.832129    20.541481    6859.2062    10581.294    9724.0631    8797.2674     -402.036   -111.83689   -537.39549   -2522.9843 
24886000     253.9701   -3922.1316   -3486.8356   -3922.1316            0    8563.8695    16.865763    19.865641    20.576192    6894.0364     8953.659    8544.4391    8193.5104    1194.8471    544.54327   -1627.0249   -2625.8031 
24887000    245.81893   -3889.6824   -3468.3572   -3889.6824            0    12913.211    16.797514    19.785253    20.492928    6810.6826    12520.066    12847.527     13372.04    810.17647    1038.3955   -123.25281    -2185.729 
24888000    256.22001   -3905.2122   -3466.0599   -3905.2122            0    10106.192    16.844339    19.840407    20.550055    6867.7984    10159.053    10558.448    9601.0743    459.87213     1010.454   -709.62683   -2453.8258 
24889000    238.25875   -3913.4872   -3505.1198   -3913.4872            0    7551.0712    16.889363    19.893439    20.604983    6923.0169     7993.183    7109.2791    7550.7515   -815.00637    382.49143    1433.7096   -2742.7252 
24890000     254.6444    -3886.633   -3450.1812    -3886.633            0    12355.415    16.776007     19.75992    20.466689    6784.5547    12357.779    13083.776    11624.689    304.65273    -469.6447    990.07291   -2227.6652 
24891000    234.16127   -3890.2074    -3488.863   -3890.2074            0    10440.307    16.889556    19.893666    20.605219    6923.2548     10037.01    11610.323    9673.5879     621.8762   -1428.4375    -1013.258   -2434.7201 
24892000     246.1761   -3869.6548   -3447.7174   -3869.6548            0     10598.98    16.824005    19.816456    20.525247    6842.9564    11892.977    9347.3648    10556.598   -29.678651    594.10327    90.507364   -2389.9657 
24893000    247.08952   -3872.1844   -3448.6814   -3872.1844            0    10702.208    16.783197     19.76839    20.475462    6793.2828     10686.05    10377.332    11043.241    1968.2179   -59.890819    655.93834   -2388.3809 
24894000    255.03542   -3880.1196   -3442.9976   -3880.1196            0    8016.8957    16.913357    19.921701    20.634256    6952.5649    7006.6246    9660.3184     7383.744    1023.1945    593.62463   -1024.7752   -2630.1163 
24895000    267.41726   -3845.9929   -3387.6489   -3845.9929            0    12495.748    16.762662    19.744202    20.450409    6768.3778    12128.587    12733.451    12625.204   -1277.5404   -1817.2339    645.81663   -2154.1955 
24896000    248.22661   -3884.8683   -3459.4164   -3884.8683            0    9370.9645    16.798766    19.786727    20.494455    6812.2049    9737.2527     9211.335    9164.3056   -92.603295   -1550.3697    289.50745   -2528.4202 
24897000    244.90322   -3876.6236   -3456.8679   -3876.6236            0     9551.976    16.803176    19.791922    20.499836     6817.572    8724.7406    10866.726    9064.4615    788.46989    192.56276    676.65597   -2507.1407 
24898000    247.02192   -3890.7361    -3467.349   -3890.7361            0    10585.255    16.793923    19.781023    20.488547    6806.3155    10690.157    10724.906    10340.702     707.0927     798.0422    -652.4262   -2416.6234 
24899000    261.18528   -3856.4053   -3408.7427   -3856.4053            0    10698.332    16.792536     19.77939    20.486855    6804.6295    10950.324    11655.481    9489.1912   -1943.6353   -1208.1773   -631.66625   -2347.0558 
24900000    252.94954   -3887.1257   -3453.5788   -3887.1257            0    8526.5031    16.794689    19.781925    20.489481    6807.2466    7935.0882    8250.2618    9394.1591    -1484.148   -1636.2953   -105.35541   -2607.0957 
24901000    249.45637   -3842.0036   -3414.4439   -3842.0036            0    7437.3847    16.916554    19.925466    20.638156     6956.508    9293.3943    6276.3023    6742.4573    939.08583    963.35507   -404.23774   -2659.8949 
24902000    244.33892   -3886.6318   -3467.8432   -3886.6318            0    9978.3557    16.803497      19.7923    20.500227    6817.9627    11251.903    8770.1896    9912.9746   -373.69935   -621.60733   -729.23398   -2475.6654 
24903000     256.7781   -3871.6176   -3431.5088   -3871.6176            0    8565.0808      16.8377    19.832587    20.541955    6859.6808    8648.1351    8428.4957    8618.6116   -525.40329   -786.31912     1653.711    -2574.646 
24904000    254.65007   -3882.7039   -3446.2423   -3882.7039            0    11045.069    16.788986    19.775207    20.482523    6800.3139    12020.216    11464.559    9650.4337   -182.21054   -1396.6884    -950.1711   -2350.8409 
24905000    252.16716    -3879.134   -3446.9281    -3879.134            0    9664.1308    16.871819    19.872774     20.58358    6901.4651    9092.7231    9098.6752    10800.994   -1300.6598   -296.73916     -872.836   -2474.2257 
24906000    238.03114    -3902.341   -3494.3638    -3902.341            0    9234.1998    16.851277    19.848578    20.558518    6876.2875    9102.5976     8665.336    9934.6659    1316.2754    172.74746   -667.54237    -2568.325 
24907000    254.47902   -3898.8363    -3462.668   -3898.8363            0    11609.303    16.808129    19.797756    20.505878    6823.6023    11622.332    10486.739    12718.838    858.07164   -361.46041    596.99225   -2307.3654 
24908000    266.01114   -3913.4082   -3457.4742   -3913.4082            0    10805.882    16.813286     19.80383    20.512169    6829.8848     10562.04    10724.507    11131.097    -1027.379   -1557.9717    761.44939   -2381.1343 
24909000    257.47556   -3905.7543     -3464.45   -3905.7543            0    12639.633     16.79655    19.784117    20.491752    6809.5099    13608.871    12441.053    11868.975   -597.61223    2257.7856    296.31454   -2209.2116 
24910000     271.2164   -3890.0439   -3425.1883   -3890.0439            0    8997.7784    16.886252    19.889774    20.601188    6919.1916    9223.9089    7463.1606    10306.265    257.17868     -313.511    1323.4521   -2517.2286 
24911000    246.44862   -3914.0885   -3491.6839   -3914.0885            0     11739.95    16.821249    19.813209    20.521884    6839.5935     10177.19    14342.627    10700.033    38.591877   -503.21979   -85.570792   -2320.6421 
24912000    257.05852   -3919.6551   -3479.0656   -3919.6551            0    9280.0385    16.824318    19.816825    20.525629    6843.3384    7948.1411    12394.357    7497.6173    1750.1393    1136.3002    1544.6084   -2552.8893 
24913000    259.12034   -3898.2825   -3454.1591   -3898.2825            0    9709.1832    16.835293    19.829752    20.539018    6856.7394    10848.797    8860.2659    9418.4864    1196.4934    1077.1765   -1023.5547   -2483.2553 
24914000    249.34136   -3868.5972   -3441.2346   -3868.5972            0    12304.052     16.85647    19.854695    20.564854     6882.647    13697.421    12341.307    10873.426   -817.77328    38.574725    2279.6441   -2206.1989 
24915000    259.38467   -3883.4261   -3438.8497   -3883.4261            0    9050.3002    16.857003    19.855323    20.565504    6883.2997    12267.017    6972.7162    7911.1675   -1051.6675    1111.3729    2285.9249   -2530.3275 
24916000    254.88798   -3865.3896   -3428.5203   -3865.3896            0    9967.6582    16.877589     19.87957    20.590619    6908.5482    10809.883    9098.6299    9994.4612   -653.85776    1041.7664    130.83175    -2424.238 
24917000    244.75902    -3897.182   -3477.6734    -3897.182            0     10293.28    16.854258     19.85209    20.562156    6879.9381     9784.117    9989.8808    11105.842    846.69999    1411.9929    508.28562   -2444.8782 
24918000    267.36819    -3851.332   -3393.0721    -3851.332            0    11374.927    16.844326    19.840391    20.550038    6867.7815    13389.331    9492.1205    11243.329    1236.5805   -440.68914    1248.0176   -2253.7646 
24919000    267.94364   -3897.8474   -3438.6011   -3897.8474            0    9246.3046    16.870946    19.871746    20.582515    6900.3947    9815.5533    8367.8874    9555.4731   -1158.8771    1800.7872    1779.4752   -2508.0976 
24920000    263.56045   -3904.1898   -3452.4562   -3904.1898            0    10998.091    16.841845    19.837468    20.547011    6864.7473     11363.57    10245.568    11385.136   -655.56208    8.6132521    1534.9803    -2351.379 
24921000    243.86983   -3890.4609   -3472.4764   -3890.4609            0    8816.9762    16.863836    19.863372    20.573841    6891.6739    6849.6379    10995.114    8606.1763   -1242.5515    782.31659    1334.1592   -2586.2998 
24922000    253.24417   -3897.1261   -3463.0743   -3897.1261            0    10855.275    16.834911    19.829301    20.538552    6856.2718    10826.448    11863.569    9875.8078   -1210.1721    554.23626    707.56802    -2377.637 
24923000    244.20521   -3892.4432   -3473.8839   -3892.4432            0    8608.4115    16.874719     19.87619    20.587118    6905.0251    10131.174    9037.7359     6656.325    802.30397   -482.71674   -441.79658   -2606.9935 
24924000    239.71038   -3882.1673   -3471.3119   -3882.1673            0    9676.1772    16.864393    19.864028     20.57452    6892.3568    10056.388    9005.8058    9966.3376   -414.77109   -470.96433   -415.37886   -2498.6823 
24925000    263.04043   -3898.9969   -3448.1546   -3898.9969            0    9524.8503    16.863838    19.863374    20.573843    6891.6763    9830.0914    9554.9031    9189.5563   -678.43049    2355.2663   -578.58262   -2490.8307 
24926000    248.74391   -3892.2417   -3465.9032   -3892.2417            0    10405.689     16.80041    19.788664    20.496461    6814.2061    12189.601    9455.7018    9571.7645    287.01853    -792.3313    468.88262   -2431.8045 
24927000    263.79033   -3881.9617   -3429.8341   -3881.9617            0     10715.28     16.86345    19.862917     20.57337    6891.2009    10558.415    11128.001    10459.422   -1427.2126    -356.5988    1801.0952   -2352.9368 
24928000    246.32395   -3887.4224   -3465.2316   -3887.4224            0    9817.0375    16.896623     19.90199    20.613841    6931.9487     9373.564    9738.2852    10339.263    1236.8984    863.93158   -427.51897   -2472.7746 
24929000    255.10972   -3911.4627   -3474.2134   -3911.4627            0     11628.55    16.894182    19.899115    20.610863    6928.9449     11337.96    11749.725    11797.965    271.88682    494.40495    144.91048   -2299.1303 
24930000    253.29965   -3917.5985   -3483.4516   -3917.5985            0    10151.738     16.88501    19.888312    20.599673     6917.666    10856.241    10340.054    9258.9194   -358.68801   -683.82771    1013.3449   -2459.2726 
24931000    249.24066   -3890.5752   -3463.3852   -3890.5752            0    8170.1805    16.943283    19.956949    20.670765    6989.5348    6104.2009    9455.9902    8950.3506    965.28056   -1710.4044    872.64755   -2630.5563 
24932000    264.46999   -3876.6455    -3423.353   -3876.6455            0    9933.4442    16.823432    19.815781    20.524548    6842.2573    10332.629    9633.9866    9833.7166    561.12826    1972.0327    246.45783   -2432.1214 
24933000    246.38765   -3895.7021   -3473.4021   -3895.7021            0    11013.256    16.863982    19.863543    20.574018    6891.8523    11409.306    11114.635    10515.828   -338.38874    1692.4386    1384.6012   -2366.4532 
24934000    256.11101   -3918.7386   -3479.7731   -3918.7386            0    8807.1794    16.878099    19.880171    20.591241    6909.1745    8752.7087    8611.2858    9057.5438   -319.94568   -262.41889    725.55728   -2592.3333 
24935000    261.13497   -3860.0609   -3412.4845   -3860.0609            0    10866.521    16.862897    19.862265    20.572695    6890.5226    11246.738    10930.569    10422.256    83.599141    -648.1832   -708.89622   -2320.4947 
24936000     259.3701   -3858.5244    -3413.973   -3858.5244            0    9280.8507    16.907326    19.914597    20.626898    6945.1301    7187.2544     10103.47    10551.827    861.81001   -72.610739    588.64842   -2473.9379 
24937000    254.11583   -3894.9354   -3459.3896   -3894.9354            0    11118.029    16.845706    19.842017    20.551722    6869.4702    9225.9197    10862.878    13265.289   -350.08454   -1438.0848   -1888.3128    -2345.539 
24938000    266.01426   -3913.9947   -3458.0554   -3913.9947            0     10870.85     16.92059     19.93022     20.64308    6961.4883    11374.012     10352.66    10885.879   -726.05074   -289.03192   -562.30635   -2354.3796 
24939000    233.27921   -3884.1676    -3484.335   -3884.1676            0    11679.523    16.841726    19.837329    20.546866    6864.6023    12597.939    10358.466    12082.165    1298.5293   -313.15987   -273.22618   -2315.0607 
24940000    254.43912    -3842.781   -3406.6811    -3842.781            0    8751.3249    16.907774    19.915125    20.627445    6945.6824    9441.4225    9493.2444    7319.3078   -370.90582   -551.90868    374.34539   -2520.2099 
24941000    261.46021   -3878.2813   -3430.1474   -3878.2813            0    10367.195     16.90348    19.910066    20.622206     6940.391    11112.378    10417.146    9572.0611   -716.93817    365.64985   -202.35489   -2380.7957 
24942000    253.50277   -3838.4876   -3403.9925   -3838.4876            0    14579.694    16.752361    19.732069    20.437842    6755.9073    15050.411    15276.242    13412.428    607.95442   -488.79692    1182.2452   -1967.4848 
24943000    249.20962   -3865.9891   -3438.8523   -3865.9891            0    8833.9296    16.881071    19.883672    20.594867    6912.8252    10893.037    9481.8949     6126.857    -1508.342    629.26506   -155.87369   -2548.2468 
24944000    260.25544    -3859.614   -3413.5451    -3859.614            0     9979.754    16.882672    19.885557     20.59682    6914.7918    9800.4575    10652.032    9486.7722    264.64959   -492.02898    1247.7774   -2407.1353 
24945000    264.00333   -3916.8096   -3464.3169   -3916.8096            0    11122.144    16.857662    19.856099    20.566308    6884.1067    9402.6331    13197.179    10766.621    243.82943   -714.24533    463.44309   -2347.6799 
24946000    252.43769   -3890.2834   -3457.6138   -3890.2834            0    10520.804    16.887729    19.891514     20.60299    6921.0079    11703.162     10901.28    8957.9682    1386.3832    562.45326   -1520.6096   -2395.6881 
24947000    250.15058   -3891.2831   -3462.5336   -3891.2831            0    9641.6824    16.922931    19.932978    20.645937    6964.3784    9106.2758    10588.953    9229.8185    264.36784     1531.747    21.523045   -2483.2441 
24948000    249.72063   -3851.8963   -3423.8837   -3851.8963            0    10295.038    16.872654    19.873758    20.584599    6902.4906    10234.368    10740.776    9909.9709    218.63353   -725.21257    301.60079    -2387.526 
24949000    255.78353   -3822.4214   -3384.0171   -3822.4214            0    8553.3919    16.917763     19.92689    20.639631    6957.9996    8479.6385    9264.8091    7915.7282   -1956.1847   -430.62614     171.2163   -2516.0592 
24950000    271.14198   -3919.5576   -3454.8295   -3919.5576            0    10455.066    16.853772    19.851517    20.561563    6879.3426    10967.781    11512.581     8884.836    1212.4476   -427.88061     1658.694    -2405.892 
24951000    250.78099   -3888.5494   -3458.7194   -3888.5494            0    8610.7069    16.891494    19.895949    20.607583    6925.6378    5817.4918    10123.243    9891.3859    864.77045   -789.53262   -825.23739   -2589.0094 
24952000    263.33313    -3884.107    -3432.763    -3884.107            0    9446.8527    16.881408    19.884068    20.595278    6913.2387    9057.5163    8545.1134    10737.928   -100.25185   -193.44266    -915.6051   -2480.3078 
24953000    249.16137   -3913.3646   -3486.3105   -3913.3646            0    10602.601    16.831458    19.825235     20.53434    6852.0548    11147.457    9532.7037    11127.643    -800.9091    448.47472    45.410983   -2426.7905 
24954000    238.43647   -3917.0683   -3508.3964   -3917.0683            0    9315.9737     16.86091    19.859925    20.570271    6888.0867    10497.752    6001.0912    11449.078    79.230802   -43.861617    58.920884   -2572.5539 
24955000    243.49004   -3930.0781   -3512.7445   -3930.0781            0    9550.8037    16.806724    19.796101    20.504164    6821.8915     8534.771    7923.8588    12193.781    682.06063    97.711328    1108.6495   -2562.5323 
24956000    248.46504   -3930.7733   -3504.9128   -3930.7733            0    9856.3505    16.836485    19.831156    20.540473    6858.1963    10223.486    10275.227    9070.3382   -437.36993   -1227.4018    -705.5057    -2519.083 
24957000    253.25984   -3935.6442   -3501.5655   -3935.6442            0    9424.1098     16.88935    19.893423    20.604968    6923.0011     8770.377    8492.4435    11009.509      421.965   -292.86645    235.57982   -2550.0615 
24958000    256.13634   -3882.7007   -3443.6918   -3882.7007            0    11166.934    16.837085    19.831862    20.541204    6858.9285    10774.684    12719.896    10006.222    1014.2646   -1119.5991   -144.70256   -2326.6585 
24959000    258.64333   -3912.9247   -3469.6188   -3912.9247            0    9371.1493    16.857425     19.85582    20.566019    6883.8171    8610.5148    9926.8235    9576.1095    464.27759   -551.37893    -1076.859   -2528.8172 
24960000    264.94241   -3863.3579   -3409.2557   -3863.3579            0     10669.71    16.880105    19.882534    20.593688    6911.6381    8269.7425    13506.569     10232.82   -513.66141    1128.8204   -1062.3106   -2333.7579 
24961000    262.70451    -3910.826   -3460.5594    -3910.826            0    11946.463    16.817558    19.808862    20.517382    6835.0926    11949.641    11734.842    12154.906    873.58947    274.89686   -1252.7834   -2269.7024 
24962000    254.29436   -3897.0447   -3461.1929   -3897.0447            0    10508.961    16.824559    19.817108    20.525923    6843.6322      8764.81    11386.303    11375.771   -100.86331    14.323803   -189.16577   -2412.3213 
24963000    254.41131   -3870.2977   -3434.2454   -3870.2977            0    11788.853    16.791477    19.778142    20.485563    6803.3418    11733.984    11986.786    11645.789    220.83222    320.94604    333.93276   -2264.5582 
24964000    262.18944   -3903.7762   -3454.3925   -3903.7762            0     11005.72    16.801553    19.790011    20.497856     6815.597    10238.687    12472.683     10305.79    2669.3273    551.95378    160.63331   -2360.4406 
24965000    235.22839   -3898.9078   -3495.7344   -3898.9078            0    11033.975    16.788856    19.775054    20.482365    6800.1561    11365.317    10294.112    11442.496    1304.6096    507.55498    -647.3059   -2401.4587 
24966000    253.66055   -3921.2999   -3486.5344   -3921.2999            0    7026.9832    16.876277    19.878025    20.589018    6906.9373    8008.1475    6135.0091    6937.7931    1343.0712   -1541.2022   -999.36796   -2778.7022 
24967000    245.73704   -3916.1796   -3494.9948   -3916.1796            0    10585.058    16.818061    19.809454    20.517995    6835.7053    9513.7273    10826.275    11415.174   -1049.0089   -1221.0037   -205.26056   -2439.7518 
24968000    270.61413   -3921.7187   -3457.8953   -3921.7187            0    11396.742    16.778475    19.762827      20.4697    6787.5498    11065.146    10735.811     12389.27   -253.38742    381.76537   -694.02036    -2329.738 
24969000    264.33168   -3896.0677   -3443.0122   -3896.0677            0    11397.799    16.855217    19.853219    20.563325    6881.1119    12618.335    10802.916    10772.146   -1582.8068    1496.3818    601.21981    -2299.198 
24970000    243.47817   -3882.9426   -3465.6293   -3882.9426            0    9804.2123    16.802029    19.790571    20.498436    6816.1757     8677.903     11228.39    9506.3441   -615.04675     56.76739    870.78137   -2491.0227 
24971000    259.95575   -3878.9952   -3433.4399   -3878.9952            0    9101.5224    16.831685    19.825502    20.534616    6852.3315    9574.5148    8440.9278    9289.1245    348.46278    154.15924   -2647.7775   -2523.8863 
24972000    246.22684   -3893.9215   -3471.8971   -3893.9215            0    10078.792    16.781588    19.766493    20.473498    6791.3282    11172.473    8472.3188    10591.586   -209.61806    1471.9559    1683.1964   -2473.6476 
24973000     245.3031   -3867.6943   -3447.2532   -3867.6943            0    11505.889     16.74248    19.720431    20.425787    6743.9601    11126.857    12906.969    10483.842   -628.46416    139.82034    422.92771   -2315.6059 
24974000    250.04959   -3874.3239   -3445.7475   -3874.3239            0    11586.522    16.811129    19.801289    20.509538    6827.2561    10680.294    12142.762    11936.509   -1337.3606   -657.25926   -54.083571   -2292.0946 
24975000    259.43228   -3884.3518   -3439.6937   -3884.3518            0    11849.572    16.787686    19.773677    20.480938    6798.7348    12500.905    11852.523    11195.286    -1826.852    -1025.519   -887.98884   -2264.7782 
24976000    252.07292   -3879.6789   -3447.6345   -3879.6789            0    8948.8682    16.891337    19.895764    20.607391    6925.4445    9549.4672    10223.495     7073.642   -323.21707    220.85197   -2585.2005   -2543.7943 
24977000    262.79257   -3849.8235    -3399.406   -3849.8235            0    10627.198    16.912356    19.920522    20.633035    6951.3305    11264.512     10231.37    10385.711    816.01033    -1012.256   -1064.0111   -2322.0417 
24978000    258.69691   -3883.7203   -3440.3226   -3883.7203            0    8996.1113    16.860875    19.859884    20.570228    6888.0441    9123.1294     9258.936    8606.2685   -3099.3545    325.57087    1655.4329   -2536.6177 
24979000    253.10323   -3877.4208   -3443.6106   -3877.4208            0    9972.6928    16.853101    19.850727    20.560744    6878.5211    7938.7342    12296.219    9683.1255   -1064.6287   -1225.8666   -823.85631   -2443.1882 
24980000    252.36803   -3851.6912    -3419.141   -3851.6912            0    8020.7624    16.834754    19.829117    20.538361    6856.0809    8097.8577    7925.1689    8039.2606   -1332.9789   -1634.4196    367.85414   -2617.1538 
24981000    268.67499    -3895.882   -3435.3822    -3895.882            0    9223.5286    16.883746    19.886822     20.59813    6916.1116    9500.8013    9367.7058    8802.0786   -1999.5963    677.44192   -865.76656   -2505.0566 
24982000    254.91163   -3888.3024   -3451.3926   -3888.3024            0    9622.8137    16.865444    19.865265    20.575802    6893.6451     9263.451    10425.201     9179.789    2320.9456   -1228.8663    354.31594   -2483.9463 
24983000    240.23312   -3864.6343    -3452.883   -3864.6343            0     9752.602    16.879572    19.881906    20.593038    6910.9839    7226.0712    10786.406    11245.328    549.38758    779.14186     -1251.22    -2469.922 
24984000    266.31192   -3870.5256   -3414.0761   -3870.5256            0    12108.671    16.797088    19.784751    20.492408    6810.1642    13074.803    11815.196    11436.012   -611.57826    489.24136    315.21221   -2211.4519 
24985000    260.12442   -3918.6522   -3472.8079   -3918.6522            0    10370.023    16.812764    19.803215    20.511533    6829.2488    10113.712    12385.957    8610.3998    424.04287   -474.13656    639.97972   -2439.9786 
24986000    248.47294   -3883.4677   -3457.5936   -3883.4677            0    10593.085    16.800355    19.788599    20.496394    6814.1385    9364.8129    11194.717    11219.724   -192.31352    150.90282   -401.45938   -2404.8822 
24987000    270.20617   -3932.5832   -3469.4591   -3932.5832            0    9584.2637    16.827849    19.820983    20.529936    6847.6473    8721.0255    9980.6456     10051.12    776.54179   -1007.7945   -1656.5829   -2512.3178 
24988000    260.36167   -3893.2207   -3446.9697   -3893.2207            0    9425.2549    16.891407    19.895847    20.607477    6925.5312     10582.96     10031.41    7661.3942    910.72387   -528.62167   -858.01693   -2495.0023 
24989000    261.60677   -3918.1564   -3469.7714   -3918.1564            0    7716.4973    16.878105    19.880178    20.591248    6909.1819    7162.0762    7724.8195    8262.5963    570.79071   -292.70738    2448.6867   -2692.2314 
24990000    254.29981   -3886.5887   -3450.7276   -3886.5887            0    11424.643    16.741274    19.719009    20.424315    6742.5023      10637.5    11987.967    11648.462    2277.8685    188.39627    1849.2079   -2327.3141 
24991000    246.47054   -3906.6766   -3484.2346   -3906.6766            0    10107.217    16.787025    19.772898    20.480131    6797.9317    8494.5248    9599.9106    12227.216    449.64498   -26.525706    190.96712   -2482.1964 
24992000    258.21706    -3874.404   -3431.8288    -3874.404            0    12750.868    16.762592    19.744119    20.450323    6768.2927    12346.549    12455.401    13450.655   -964.83314   -1074.2919    366.59838   -2173.2083 
24993000    260.87622   -3884.5338   -3437.4009   -3884.5338            0    8331.3008    16.925741    19.936288    20.649365    6967.8485    7198.7773    8731.5874    9063.5376    664.80405    1864.9661   -830.05006    -2590.783 
24994000    252.89102   -3863.9338   -3430.4873   -3863.9338            0    12020.161    16.758008     19.73872     20.44473     6762.741     14050.96    9998.0482    12011.474    754.53279   -2169.7805   -164.04902   -2244.9672 
24995000    246.60952   -3844.5716   -3421.8913   -3844.5716            0    9729.1957    16.842192    19.837877    20.547435    6865.1719    10883.631    8086.5508    10217.405    494.72825   -289.27925   -78.029922   -2447.7897 
24996000    248.01704   -3892.8886   -3467.7958   -3892.8886            0    10103.073    16.779512    19.764048    20.470965    6788.8083    10635.401    10334.573     9339.246   -1298.7595    769.31553    1058.2094   -2467.5127 
24997000    253.62474     -3912.68   -3477.9759     -3912.68            0    9155.5132    16.837937    19.832866    20.542244    6859.9705    9874.6306    9455.1493    8136.7597    521.85552    219.30751   -861.55673   -2562.0068 
24998000    262.17317   -3891.2882   -3441.9323   -3891.2882            0    9918.8757    16.846302    19.842718    20.552449    6870.1989    9243.0996    11248.802    9264.7252    538.02918    773.98505   -204.70452   -2448.1125 
24999000    241.86382   -3914.3269   -3499.7806   -3914.3269            0    10199.722    16.833692    19.827866    20.537065    6854.7836    8413.0764    9610.4125    12575.678    188.24865   -776.88866   -188.12794   -2480.1145 
25000000    252.69027   -3847.7987   -3414.6962   -3847.7987            0    10022.613    16.803693    19.792531    20.500467    6818.2014    9373.9661    10500.324    10193.548   -1520.5663    36.165131    1299.0872   -2418.0829 
Loop time of 503.968 on 64 procs for 250000 steps with 864 atoms

Performance: 85.720 ns/day, 0.280 hours/ns, 496.063 timesteps/s
99.1% CPU use with 64 MPI tasks x 1 OpenMP threads

MPI task timing breakdown:
Section |  min time  |  avg time  |  max time  |%varavg| %total
---------------------------------------------------------------
Pair    | 21.913     | 27.361     | 32.431     |  52.7 |  5.43
Bond    | 0.26528    | 0.27934    | 0.29278    |   1.0 |  0.06
Kspace  | 211.54     | 224.6      | 241.31     |  52.9 | 44.57
Neigh   | 5.2849     | 6.5008     | 8.2416     |  36.1 |  1.29
Comm    | 100.61     | 117.26     | 130.58     |  74.2 | 23.27
Output  | 1.2491     | 1.258      | 1.276      |   0.8 |  0.25
Modify  | 118.61     | 121.69     | 124.42     |  14.9 | 24.15
Other   |            | 5.02       |            |       |  1.00

Nlocal:        13.5000 ave          20 max           9 min
Histogram: 4 11 8 10 10 8 8 2 2 1
Nghost:        2308.08 ave        2359 max        2272 min
Histogram: 1 7 11 14 12 9 4 3 2 1
Neighs:        4518.38 ave        6470 max        2731 min
Histogram: 3 5 8 11 8 10 5 7 3 4

Total # of neighbors = 289176
Ave neighs/atom = 334.69444
Ave special neighs/atom = 2.0000000
Neighbor list builds = 13189
Dangerous builds = 1

unfix		3
unfix		2
unfix		1

write_data	data.final.${pid}
write_data	data.final.0
System init for write_data ...
PPPM initialization ...
  extracting TIP4P info from pair style
  using 12-bit tables for long-range coulomb (../kspace.cpp:340)
  G vector (1/distance) = 0.37509634
  grid = 24 24 24
  stencil order = 5
  estimated absolute RMS force accuracy = 0.0030670584
  estimated relative force accuracy = 9.2363552e-06
  using double precision FFTW3
  3d grid and FFT values/proc = 2535 216
Last active /omp style is kspace_style pppm/tip4p/omp
WARNING: Not all mixed pair coeffs generated from mixing. Use write_data with 'pair ij' option to store all pair coeffs. (../write_data.cpp:312)

write_restart   restart.lmp.${pid}
write_restart   restart.lmp.0
System init for write_restart ...
PPPM initialization ...
  extracting TIP4P info from pair style
  using 12-bit tables for long-range coulomb (../kspace.cpp:340)
  G vector (1/distance) = 0.37509634
  grid = 24 24 24
  stencil order = 5
  estimated absolute RMS force accuracy = 0.0030670584
  estimated relative force accuracy = 9.2363552e-06
  using double precision FFTW3
  3d grid and FFT values/proc = 2535 216
Last active /omp style is kspace_style pppm/tip4p/omp
Total wall time: 0:08:26
