#include		in.partitions
include		in.temp
variable        temperature equal 129.72
variable	tempDamp equal 100.0
include		in.pressure
variable        pressure equal 6543.8
variable        pressureDamp equal 1000.0 # This is 1 ps
include		in.seed
variable        seed equal 745823

units		real
atom_style	full
box tilt large
read_restart	restart.lmp.${pid}
read_restart	restart.lmp.0
Reading restart file ...
  restart file = 30 Jul 2021, LAMMPS = 30 Jul 2021
  restoring atom style full from restart
  triclinic box = (-10.643101 -9.0605291 0.15119206) to (12.623101 12.050527 21.708807) with tilt (-9.1347719 1.9633217 2.6558938)
  4 by 4 by 4 MPI processor grid
  restoring pair style lj/cut/tip4p/long/omp from restart
  restoring bond style harmonic/omp from restart
  restoring angle style harmonic/omp from restart
  1296 atoms
  864 bonds
  432 angles
Finding 1-2 1-3 1-4 neighbors ...
  special bond factors lj:    0        0        0       
  special bond factors coul:  0        0        0       
     2 = max # of 1-2 neighbors
     1 = max # of 1-3 neighbors
     1 = max # of 1-4 neighbors
     2 = max # of special neighbors
  special bonds CPU = 0.017 seconds
  read_restart CPU = 0.029 seconds
include 	in.setup
variable	out_freq equal 1000
variable	out_freq2 equal 10000
variable	out_freq3 equal 1000

timestep	2.0

neigh_modify    delay 7 every 1

include		in.tip4p
# This is TIP4P/Ice

# create groups ###
group ox type 2
432 atoms in group ox
group hy type 1
864 atoms in group hy

# set charges - beside manually ###
set group ox charge -1.1794
Setting atom values ...
  432 settings made for charge
set group hy charge 0.5897
Setting atom values ...
  864 settings made for charge

# ### TIP3P Potential Parameters ###
pair_style lj/cut/tip4p/long/omp 2 1 1 1 0.1577 8.5
pair_coeff 1 1*2 0.000 0.000
pair_coeff 2 2 0.21084 3.1668
bond_style  harmonic
bond_coeff  1 450 0.9572
angle_style harmonic
angle_coeff 1 55 104.52
kspace_style pppm/tip4p/omp 1.0e-5
pair_modify tail yes

thermo          ${out_freq}
thermo          1000
thermo_style    custom step temp pe etotal epair emol press lx ly lz vol pxx pyy pzz pxy pxz pyz enthalpy

restart 	${out_freq3} restart.lmp.${pid} restart2.lmp.${pid}
restart 	1000 restart.lmp.${pid} restart2.lmp.${pid}
restart 	1000 restart.lmp.0 restart2.lmp.${pid}
restart 	1000 restart.lmp.0 restart2.lmp.0


include         in.dump
dump            myDump all atom ${out_freq2} dump.water.${pid}
dump            myDump all atom 10000 dump.water.${pid}
dump            myDump all atom 10000 dump.water.0
dump            myDump2 all dcd ${out_freq2} dump.dcd
dump            myDump2 all dcd 10000 dump.dcd
dump_modify     myDump append yes
dump_modify     myDump2 append yes


variable natoms 	equal  "count(all)"                        # NUMBER ATOMS
variable H      	equal  "enthalpy/v_natoms"                 # ENTHALPY-per-atom
variable Vol      	equal  "vol/v_natoms"                 # volume-per-atom
fix AVG all 		ave/time ${out_freq} 1 ${out_freq} v_Vol v_H file vol_enthalpy.dat
fix AVG all 		ave/time 1000 1 ${out_freq} v_Vol v_H file vol_enthalpy.dat
fix AVG all 		ave/time 1000 1 1000 v_Vol v_H file vol_enthalpy.dat


timer           timeout 10:00:00 every 1000
New timer settings: style=normal  mode=nosync  timeout=10:00:00

fix 		1 all shake 1e-6 200 0 b 1 a 1
       0 = # of size 2 clusters
       0 = # of size 3 clusters
       0 = # of size 4 clusters
     432 = # of frozen angles
  find clusters CPU = 0.001 seconds
fix             2 all nph tri ${pressure} ${pressure} ${pressureDamp}
fix             2 all nph tri 6543.8 ${pressure} ${pressureDamp}
fix             2 all nph tri 6543.8 6543.8 ${pressureDamp}
fix             2 all nph tri 6543.8 6543.8 1000
fix             3 all temp/csvr ${temperature} ${temperature} ${tempDamp} ${seed}
fix             3 all temp/csvr 129.72 ${temperature} ${tempDamp} ${seed}
fix             3 all temp/csvr 129.72 129.72 ${tempDamp} ${seed}
fix             3 all temp/csvr 129.72 129.72 100 ${seed}
fix             3 all temp/csvr 129.72 129.72 100 745823


run             250000
PPPM initialization ...
  extracting TIP4P info from pair style
  using 12-bit tables for long-range coulomb (../kspace.cpp:340)
  G vector (1/distance) = 0.37031298
  grid = 27 36 32
  stencil order = 5
  estimated absolute RMS force accuracy = 0.0039027274
  estimated relative force accuracy = 1.1752948e-05
  using double precision FFTW3
  3d grid and FFT values/proc = 4590 540
Last active /omp style is kspace_style pppm/tip4p/omp
Neighbor list info ...
  update every 1 steps, delay 7 steps, check yes
  max neighbors/atom: 2000, page size: 100000
  master list distance cutoff = 10.8154
  ghost atom cutoff = 10.8154
  binsize = 5.4077, bins = 7 5 4
  1 neighbor lists, perpetual/occasional/extra = 1 0 0
  (1) pair lj/cut/tip4p/long/omp, perpetual
      attributes: half, newton on, omp
      pair build: half/bin/newton/tri/omp
      stencil: half/bin/3d/tri
      bin: standard
Per MPI rank memory allocation (min/avg/max) = 9.390 | 9.406 | 9.418 Mbytes
Step Temp PotEng TotEng E_pair E_mol Press Lx Ly Lz Volume Pxx Pyy Pzz Pxy Pxz Pyz Enthalpy 
18000000    134.58675   -6664.6302    -6318.414   -6664.6302            0    7214.7118    23.266201    21.111056    21.557615    10588.542    6309.1229    8248.1246    7086.8878    100.02093   -619.99594     231.0535   -5204.2964 
18001000    129.38031   -6681.2297   -6348.4067   -6681.2297            0    4929.8864    23.439256    21.056379    21.575695    10648.595    4187.5479    5725.2931    4876.8182    109.69002    -486.4722   -769.57151   -5582.8011 
18002000     131.2445   -6675.6597   -6338.0412   -6675.6597            0    7945.3568    23.224982    21.145663    21.453449    10535.953    7942.2792    8199.9225    7693.8686   -1258.3589   -92.029942   -516.95375    -5117.189 
18003000    129.54831   -6674.0753   -6340.8201   -6674.0753            0    7463.6235    23.163271     21.15262    21.564789    10565.967    6381.8319    8604.5252    7404.5134    534.42407   -231.25307   -356.02647    -5190.722 
18004000    122.94299   -6681.1423    -6364.879   -6681.1423            0    5608.6482    23.204928    21.282655    21.535991    10635.818    5454.7051    5440.6707    5930.5686   -1337.4427   -106.25658   -389.81078   -5494.9076 
18005000    130.19676   -6677.5482    -6342.625   -6677.5482            0    6994.5046    23.143443    21.297089     21.43726    10566.167    7657.7206    6463.4876    6862.3055    20.364314   -189.49583    153.93787   -5264.7948 
18006000    133.28058   -6681.2851    -6338.429   -6681.2851            0    5233.4974    23.102212    21.394665    21.543695    10648.275    4752.0288    5506.9972    5441.4661    328.97469   -145.18212    684.47975   -5525.6974 
18007000    130.78702   -6684.0309   -6347.5892   -6684.0309            0    7347.7185    23.069946    21.349575     21.49062    10584.851    7549.6069       7283.2    7210.3485    597.78184    -325.3244   -426.52815   -5213.3278 
18008000    130.56446   -6675.4787   -6339.6096   -6675.4787            0    5579.8993    23.097747    21.352682    21.515753    10611.544    5390.9382    6206.8358     5141.924   -206.38865    142.10687     62.67702   -5476.0728 
18009000    134.66416    -6671.351   -6324.9357    -6671.351            0     6082.444    23.053292    21.426811     21.47859    10609.533    6445.7652    5731.6783    6069.8885     1220.396   -17.730818    159.21891   -5383.8043 
18010000    128.71322   -6667.2872   -6336.1803   -6667.2872            0    7039.7419    23.047697    21.342034    21.535793    10593.128    7545.3168     7293.075     6280.834    465.54202    35.599951   -599.54855   -5248.6112 
18011000    133.66676   -6686.5393   -6342.6897   -6686.5393            0    6486.2582    23.072198    21.358861     21.48488     10587.66    6174.4804    6396.2064    6888.0878      689.767    331.36244    1630.4932   -5341.1455 
18012000    129.32048   -6658.7868   -6326.1177   -6658.7868            0    5898.7819    23.060527     21.38073    21.568699    10634.466    7259.2629    4728.1892    5708.8935    744.62607   -560.72784      706.699   -5411.2592 
18013000    133.48654    -6675.569    -6332.183    -6675.569            0    6973.4186    23.144142    21.282973     21.49629     10588.56      7260.89    6486.8899    7172.4759     383.3365   -623.46194    319.78318   -5255.3248 
18014000    130.72792   -6692.5178   -6356.2282   -6692.5178            0    6657.2779      23.0392    21.347241    21.505039    10576.681    6829.3177    5662.8796    7479.6365     -750.888   -219.68123     668.4331   -5329.3428 
18015000    130.48962   -6676.0587   -6340.3821   -6676.0587            0    6575.3172    23.140409     21.31582    21.471535    10590.981     7389.734     5578.555    6757.6626     96.72559    665.47751   -354.67654   -5324.7679 
18016000     131.5292   -6682.5769    -6344.226   -6682.5769            0    6862.3855    23.101109    21.274384    21.558574    10595.217    7817.3982    6760.0405    6009.7178    376.84418   -1247.5676   -467.66643   -5283.8477 
18017000    133.24053   -6685.6643   -6342.9111   -6685.6643            0    5970.3917    23.262462    21.265753    21.426455    10599.534    5798.8761    6062.7444    6049.5547     149.7269    67.292984    211.09125   -5419.9881 
18018000    128.04066   -6693.6215   -6364.2447   -6693.6215            0     5699.572    23.150126    21.221005    21.655744    10638.795    5907.1382    6440.3318    4751.2462   -555.35262    832.35218   -915.18763   -5479.9224 
18019000    130.01524   -6683.6634   -6349.2071   -6683.6634            0    6212.6961    23.245496    21.202466    21.526523    10609.602    6017.6761    6414.5164    6205.8957    231.00702    234.20867     135.3821   -5387.9156 
18020000    125.81339   -6675.7296   -6352.0823   -6675.7296            0     6560.586    23.277775    21.189637    21.510272     10609.89    6717.7186    6818.5218    6145.5176   -941.46619   -87.199876     252.2656   -5336.9342 
18021000     124.0779   -6682.2286   -6363.0458   -6682.2286            0    6393.6465    23.342908    21.082122    21.583498    10621.629    5157.7725    7062.0013    6961.1658    1487.0272    537.32918   -448.04245   -5372.6344 
18022000    130.21845   -6677.8313   -6342.8522   -6677.8313            0    5888.9263    23.240972    21.295354    21.472417     10627.23    4029.7052    6734.5624    6902.5113    173.75815    775.06482    533.80924   -5430.1438 
18023000    128.90197    -6683.802   -6352.2095    -6683.802            0    6728.7093    23.226089    21.185729    21.528527    10593.362    6778.2598    7051.1914    6356.6767    723.35109    698.84716   -462.80949   -5312.6688 
18024000    138.23333   -6664.3616   -6308.7648   -6664.3616            0    5938.3314    23.144294    21.268362    21.578376    10621.766    6468.3341    6584.7998    4761.8604   -399.42107   -834.33418    -125.9009   -5388.8723 
18025000    139.96161   -6684.5622   -6324.5195   -6684.5622            0    6484.5372    23.302777    21.236272    21.440809    10610.287    5405.8959    6262.7678    7784.9478   -524.65726    748.02003    159.58142   -5321.1013 
18026000    142.73521   -6692.8252   -6325.6476   -6692.8252            0    6736.7954    23.135311    21.275156    21.519918    10592.262    7667.3609     6391.793    6151.2325   -848.48012   -642.91204    740.79219   -5284.9657 
18027000     128.3143   -6660.7465   -6330.6658   -6660.7465            0    7680.4838    23.165709    21.233045    21.461963    10556.679    7085.3933    8060.5456    7895.5126     1516.469   -459.02975   -45.240512   -5148.1912 
18028000    128.40486   -6692.1719   -6361.8582   -6692.1719            0    6080.4716    23.142053     21.37727    21.457879    10615.511    5490.5371     5393.687    7357.1906    299.28853    213.16254    1468.2765   -5420.5019 
18029000    127.52033   -6681.8402   -6353.8019   -6681.8402            0    6913.0073    23.117308    21.326133    21.476388    10587.919    7595.8946    6638.4193    6504.7079    -435.2091    125.60239   -220.05027   -5286.3372 
18030000    132.41698   -6660.6871   -6320.0524   -6660.6871            0    7076.8615    23.130342    21.322121     21.46537    10586.462    7740.0838     7022.066    6468.4348   -38.349834   -49.074749   -541.24161   -5227.4368 
18031000    134.16894   -6672.4211   -6327.2797   -6672.4211            0    6778.4115    23.085953    21.310862    21.531967    10593.331     7489.828    6633.1715     6212.235   -392.63968    41.860165    307.85577   -5280.0635 
18032000    133.82483   -6676.1878   -6331.9315   -6676.1878            0     6762.591    23.147675     21.25528    21.488692    10572.658    6745.4619    6900.8263    6641.4846    436.47197    321.54604   -384.59099   -5289.1983 
18033000    132.52176   -6686.5319   -6345.6278   -6686.5319            0    6126.0121    23.148201    21.306906    21.538867    10623.325    6565.6027    6148.7525    5663.6811   -815.77365    202.02741   -236.49784   -5396.5229 
18034000    130.30566   -6685.7077   -6350.5043   -6685.7077            0    6524.9348    23.240207     21.22228    21.497104    10602.591    6396.2199    6640.7179    6537.8667    300.18857    394.59376    143.36887   -5341.5673 
18035000    128.70665   -6689.4412   -6358.3511   -6689.4412            0    5998.7787    23.105262    21.286747    21.564479    10606.184    6345.2879    6501.1244    5149.9237   -32.227625   -101.02055    379.62756   -5430.4582 
18036000    131.45253   -6692.2005   -6354.0468   -6692.2005            0    6603.7903    23.280637    21.147218    21.524355    10596.886    6127.3096    7801.0716    5882.9898   -33.708422    1769.0419   -1269.6121    -5333.466 
18037000    133.89109   -6683.6451   -6339.2184   -6683.6451            0    5712.0225    23.240835    21.290461    21.491542    10634.189    5620.3174    6372.8635    5142.8867   -527.55232   -282.10006   -601.97214    -5453.348 
18038000    134.41186   -6692.8857   -6347.1193   -6692.8857            0    6366.5084    23.205913    21.173271     21.57964     10603.05    6120.0596    7065.1314    5914.3343    560.28223    756.11271    62.019954   -5362.6368 
18039000    131.95966   -6678.4575   -6338.9994   -6678.4575            0    7271.2495    23.191175    21.176621    21.560645    10588.664     6953.687    7786.6428    7073.4186   -766.05681    677.75277    1055.2659   -5216.1381 
18040000     127.2733   -6681.3676   -6353.9648   -6681.3676            0    5570.1142    23.309858    21.249551    21.478035    10638.587    5469.4287    5525.4285    5715.4854     625.8788   -105.93491   -456.73844   -5489.7456 
18041000    127.58084   -6683.6781   -6355.4842   -6683.6781            0    6616.2861    23.223373    21.224112    21.490353    10592.497    6464.9224    6878.4475    6505.4885   -536.16075   -114.96282    106.65485   -5333.3956 
18042000    135.34753   -6692.8796   -6344.7064   -6692.8796            0    6599.5642    23.284744    21.082698    21.595808    10601.495    5701.0475       7985.8    6111.8452   -342.67485     737.5029   -869.75502    -5324.335 
18043000    128.60338   -6662.8624   -6332.0381   -6662.8624            0    7953.0596    23.264066    21.255353    21.368022    10566.187    7404.4758    7621.5573    8833.1459   -348.31212   -841.91516   -3.7055412   -5106.4955 
18044000    130.20865   -6671.2685   -6336.3147   -6671.2685            0    7352.5427    23.178493    21.174672    21.529435    10566.582     7303.516      7015.66    7738.4522   -23.039466   -701.24085    732.85062   -5203.2676 
18045000    122.20733    -6697.038   -6382.6671    -6697.038            0    5721.0802    23.191282     21.29315    21.526205    10629.973    5346.4555    6474.1764    5342.6087   -757.53135   -22.082553   -368.38348   -5495.7438 
18046000    127.11916   -6668.7256   -6341.7193   -6668.7256            0    5603.6411    23.297811    21.274708    21.482924      10648.1    4714.4638    5909.6888    6186.7708    929.74897    595.15698   -151.94833   -5471.5208 
18047000     127.3286   -6683.8499   -6356.3048   -6683.8499            0    6055.9688    23.022341    21.315543    21.649783    10624.278    6174.5165    6692.8586    5300.5314    36.972891    -255.0303   -253.93305   -5417.9676 
18048000    129.09823    -6661.257   -6329.1596    -6661.257            0    7642.9099    23.110702    21.352949    21.406818    10563.872    7558.1363    7854.7914     7515.802    707.17194    370.71071   -436.59589   -5151.6682 
18049000    138.48088   -6691.5321   -6335.2985   -6691.5321            0    6074.2459    23.076658    21.378319    21.521881    10617.608     7065.121    5885.8913    5271.7253    397.21992   -744.41754   -714.08631   -5394.7202 
18050000    132.64377   -6678.5938   -6337.3758   -6678.5938            0    6933.6072    23.024126    21.338165    21.527787    10576.442    6307.4612    7252.6932    7240.6672   -5.0837067    206.40598    839.70689   -5267.8907 
18051000    135.17393   -6677.0127    -6329.286   -6677.0127            0    5916.0888    23.151846     21.35202    21.450439    10603.782    5867.8266    5648.7395    6231.7002    655.53449    -180.2545   -513.28099   -5414.3908 
18052000    124.60991   -6677.6886   -6357.1371   -6677.6886            0    6961.7104     23.01933    21.340443    21.565543    10593.916    7038.3463    7636.8082    6209.9768   -485.72187    353.66697    340.38406   -5281.5432 
18053000    133.41167   -6697.4553   -6354.2619   -6697.4553            0    5880.7396    23.201747    21.274732    21.478562    10602.053    5229.5933    6164.2012    6248.4244    1160.8586   -230.93506   -294.83871   -5444.9815 
18054000     127.8276   -6666.1408   -6337.3121   -6666.1408            0     7185.968    23.145543    21.255608    21.507437    10581.069    7542.2117    7301.9298    6713.7625   -522.99866   -836.36744   -87.605539   -5228.4163 
18055000    132.48961   -6680.4958   -6339.6744   -6680.4958            0    6655.3532    23.265966    21.154628     21.51747     10590.53    6354.3684    7999.8861    5611.8051   -177.45079    82.910326   -602.90754   -5311.7417 
18056000    130.25007    -6658.925   -6323.8646    -6658.925            0    6577.5922    23.262338    21.194921    21.553699     10626.91    6175.3329    6395.7502    7161.6937    97.601695   -958.77085   -8.2889957   -5304.4524 
18057000    134.28876   -6686.9371   -6341.4875   -6686.9371            0    6832.1715    23.203948    21.172542    21.533911    10579.321    5968.2409    8225.3123    6302.9614    218.26808   -563.38124   -921.85291   -5287.3616 
18058000    132.93341   -6689.4262   -6347.4631   -6689.4262            0    7590.9294     23.15043    21.214031    21.522687    10570.092    6644.4884    9122.9586    7005.3413    32.096974   -270.17497     587.7085   -5177.2913 
18059000    125.80907   -6667.8127   -6344.1765   -6667.8127            0    5584.0645    23.289831    21.269113    21.533315    10666.615    5616.1565    6438.7136    4697.3234    208.13745   -405.37767   -1161.8542   -5475.5103 
18060000    123.80086   -6679.5091   -6361.0389   -6679.5091            0    7419.9108    23.146853    21.192413    21.529838    10561.197    7124.6216    7577.0615    7558.0493   -142.34689    281.21663    901.27009   -5218.1929 
18061000    132.46918   -6685.5823   -6344.8135   -6685.5823            0    6946.1238    23.155936    21.183223    21.588024    10589.301    7132.8215    6979.7161    6725.8339    516.60177     60.37709   -232.22495   -5272.0952 
18062000    129.47783   -6672.1924   -6339.1186   -6672.1924            0    5301.2686     23.22422    21.427207    21.398041    10648.311    4790.0638    4788.2412    6325.5007   -397.29519   -1081.8423    252.49354   -5515.8597 
18063000    138.72765   -6673.6339   -6316.7655   -6673.6339            0    7250.2661    23.052929    21.258488    21.578202    10574.838    8451.2125    6821.4476    6478.1382   -673.29868    364.76633   -362.22687   -5198.6065 
18064000    125.11113   -6674.1183   -6352.2775   -6674.1183            0    6461.8005    23.137385    21.339787    21.443607    10587.714    6347.7369    6136.1152    6901.5492    3.5839124   -697.14243    418.98979   -5354.5048 
18065000    125.31754   -6693.6052   -6371.2335   -6693.6052            0    5264.9176    23.171799    21.356188    21.526104    10652.436    5483.4296    4488.6479    5822.6753   -363.46105   -109.10527   -655.77071    -5553.303 
18066000    135.97914   -6678.0513   -6328.2532   -6678.0513            0    6442.0883    23.112835    21.232577    21.596132    10598.195    6551.2689    6677.5677    6097.4284   -123.62507    832.79959    129.32955   -5332.5395 
18067000    119.65359   -6670.5726   -6362.7711   -6670.5726            0    6997.6159    23.148967    21.250484    21.486709    10569.887    6422.5645    6870.3246    7699.9587   -340.30899   -164.43131    1043.2245   -5284.0819 
18068000    123.88214   -6678.2539   -6359.5746   -6678.2539            0    5563.3158    23.272765    21.230464     21.51805    10631.888    4843.5271    6201.3992    5645.0211    -638.7818    696.08764   -213.08295   -5496.9537 
18069000    122.16705   -6682.0147   -6367.7474   -6682.0147            0    6772.7091     23.27044    21.195539    21.464929    10587.137    7364.1313    6451.6159    6502.3802   -76.621568      -634.84    -407.8898    -5322.024 
18070000    124.66455    -6672.898    -6352.206    -6672.898            0    6058.6163    23.259488    21.179553    21.537572    10609.958    5996.6679    6108.2312    6070.9499    365.67385   -734.80327   -147.76464   -5414.7238 
18071000    129.10369    -6672.829   -6340.7177    -6672.829            0    6588.2523    23.324033    21.128454    21.515631    10602.919    5712.0388    6361.5649    7691.1531   -1320.0189   -24.494145    855.58888   -5321.9584 
18072000    135.45959   -6663.9124   -6315.4509   -6663.9124            0     6118.511    23.235022    21.203504    21.538148    10611.068    5734.8613    6375.1974    6245.4742   -30.571775   -806.28344   -12.518591   -5368.6019 
18073000    125.60277   -6686.6477   -6363.5422   -6686.6477            0    6280.7699    23.199862    21.230518    21.530581    10604.782    5890.2173    5980.6886    6971.4038   -278.31774     265.6533   -148.98535   -5392.1591 
18074000    132.80282   -6692.2037   -6350.5765   -6692.2037            0    5633.2067     23.23154    21.340781    21.451151    10635.035    5608.6095     5724.065    5566.9456    -632.4037   -149.01781   -20.935998   -5476.8601 
18075000    136.47829   -6697.6713   -6346.5893   -6697.6713            0    6473.0132    23.059444    21.299851    21.583659    10601.089    7409.0276    6079.9948    5930.0173    586.96309   -397.63963    612.34556   -5345.8225 
18076000    132.57305   -6681.9514   -6340.9153   -6681.9514            0    7226.7295    23.005459    21.389401      21.4552    10557.524    6712.3552    7523.9366    7443.8966    566.39375   -288.15878    87.435533    -5228.211 
18077000    128.92627    -6687.829    -6356.174    -6687.829            0    6988.4743      23.0224    21.392879    21.469024    10573.825    7725.1553    6321.9479    6918.3197    223.29864    192.85813   -13.336154   -5278.4926 
18078000    133.12992    -6666.416   -6323.9474    -6666.416            0    6404.9691    23.050673    21.421891    21.489429    10611.244    5778.3131    6199.0905    7237.5037    523.91093    1321.1051    215.46788   -5332.7521 
18079000    128.12195   -6690.1046   -6360.5187   -6690.1046            0    6226.5605    22.983767    21.491105     21.49852     10619.12    8404.2129    4381.2446     5894.224   -636.04151   -693.80218   -347.29607   -5396.2177 
18080000    135.45956   -6675.8419   -6327.3805   -6675.8419            0     5644.026    23.010479    21.477482    21.554424    10652.351    6782.4772    5017.9989    5131.6018   -263.06369   -608.85825   -819.48618   -5450.5607 
18081000    128.50561   -6686.0266   -6355.4537   -6686.0266            0    6229.3872    23.107077    21.426495    21.401158    10595.792    5387.7232    6381.5977    6918.8408   -378.31345     457.2344    33.609698   -5392.8342 
18082000    129.48364   -6687.5111   -6354.4223   -6687.5111            0    6819.9987    23.068793    21.295302    21.549733    10586.455     7274.999    6487.6125    6697.3845   -554.22615    527.70655   -646.59129   -5301.4651 
18083000    127.00029   -6673.4966   -6346.7961   -6673.4966            0    6106.9002    23.160005    21.402522    21.418775    10616.912     5883.521    5367.1856     7069.994    350.85168   -633.97937      70.6234   -5401.2234 
18084000    134.17505   -6664.0136   -6318.8564   -6664.0136            0    6551.6196    23.145057    21.252682    21.527131    10589.078    7077.8487    6217.9365    6359.0736   -481.56498   -163.50885    13.123734   -5307.0843 
18085000    129.78814   -6692.0114   -6358.1394   -6692.0114            0    5669.2292    23.244648    21.330529    21.448196    10634.458     5332.528    5017.5763    6657.5833    714.89692   -777.83133     537.2705   -5478.8835 
18086000    133.02246   -6694.8254   -6352.6333   -6694.8254            0    6590.5458    23.202817    21.238704    21.479308    10584.955    6497.9911     7188.728    6084.9184    220.63285   -415.30446   -721.96616    -5335.246 
18087000    126.00412   -6692.6615   -6368.5235   -6692.6615            0     5474.578    23.230017    21.220197    21.587299    10641.363    5495.6777    5240.7157    5687.3406   -426.82765     423.4304    81.895478   -5518.9054 
18088000    131.12069   -6678.1814   -6340.8814   -6678.1814            0    7280.7995    23.254109    21.208929    21.448193    10578.136    6915.0112    6943.4236    7983.9638    247.34712    89.388412   -255.78547   -5217.6633 
18089000    122.24083   -6683.0879   -6368.6309   -6683.0879            0    6960.9344    23.142248    21.139312    21.616191    10574.882    8846.3958    6812.6431    5223.7643   -809.73268   -663.58987   -127.82385    -5295.089 
18090000    123.63995   -6672.3588   -6354.3026   -6672.3588            0    6147.6292    23.308769    21.224513    21.431538    10602.552    5637.4217    6713.0098     6092.456    1179.0372    10.064177   -216.83231    -5403.711 
18091000    132.15499   -6702.6318   -6362.6711   -6702.6318            0    5992.2531    23.138911    21.247596    21.574508    10607.026    5796.6885    6907.8937    5272.1769    390.93243   -256.90392    -949.3615    -5435.714 
18092000    134.05323   -6688.6469   -6343.8031   -6688.6469            0    5690.4883    23.190609    21.332936    21.442354    10608.042    6036.6201    4907.4626    6127.3823    538.19442     590.7654    670.66276   -5463.4424 
18093000    125.20253   -6665.7839    -6343.708   -6665.7839            0     7509.868    23.024275    21.300227    21.571295    10579.044    7951.7719    8061.8226    6516.0095   -477.52123    799.62397   -587.24484   -5185.0518 
18094000    126.86449   -6659.5448   -6333.1936   -6659.5448            0    8033.0301    23.083582    21.362929    21.368562    10537.541     7356.916    8620.2991    8121.8752    220.79872    511.54967   -1086.5353   -5098.6837 
18095000    125.05773   -6690.6444    -6368.941   -6690.6444            0    6133.5489    22.938084    21.344451    21.704676    10626.627    7629.1992     6039.607    4731.8405    387.76216    320.39764    180.80656    -5418.373 
18096000    131.16288   -6667.8174   -6330.4089   -6667.8174            0    7361.1081    23.085984    21.307827    21.517994    10584.963    7815.1472    6493.6878    7774.4894   -27.396546   -120.67364    1743.1671   -5194.0686 
18097000    124.87469   -6668.6539   -6347.4214   -6668.6539            0    6590.9361    23.190656    21.316909    21.455252     10606.47    5664.0159    7842.7038    6266.0887    420.98061   -58.103073   -906.10678   -5327.9058 
18098000    122.00224   -6687.3757   -6373.5324   -6687.3757            0     5996.582    23.063914    21.300843    21.677624    10649.801    6211.5373    7164.8508    4613.3579   -549.33562    110.58516    71.462272   -5442.1647 
18099000    127.06154   -6668.7159   -6341.8579   -6668.7159            0    7169.4139    23.238346    21.214501    21.457213     10578.19     6192.711    8139.8767    7175.6539     967.7734    719.78624    523.81584   -5235.8177 
18100000    124.24421    -6679.071   -6359.4604    -6679.071            0    5983.8586    23.190602    21.256689    21.565779    10630.968    5930.1155    6004.4343    6017.0258   -216.49699    396.34131    424.35671   -5431.7124 
18101000    122.37724   -6678.0165   -6363.2085   -6678.0165            0    7154.0662    23.257393    21.149637    21.506566    10578.766    7573.5779    7265.2606    6623.3602   -346.88045   -685.97617    -1389.916   -5259.4758 
18102000    130.73818    -6681.499    -6345.183    -6681.499            0    7091.3014    23.186278    21.266635    21.479977    10591.651     6919.062    6427.1356    7927.7067   -114.77912    116.97643    1256.2531   -5249.8013 
18103000    131.98905   -6674.4928    -6334.959   -6674.4928            0    5617.7285    23.148869     21.27741    21.609822    10643.874    6375.2603    4672.4403     5805.485   -109.00081    267.05448    307.21389   -5462.9191 
18104000    134.33586   -6689.4273   -6343.8564   -6689.4273            0    6104.6318     23.23777    21.408823    21.337128    10615.079    5278.8845    5493.5171    7541.4939   -558.78238   -134.51923    64.684569   -5398.7982 
18105000    130.05751   -6673.8457   -6339.2807   -6673.8457            0    6228.1989    23.127369    21.260766    21.614712    10628.074    6580.5296    6390.4824    5713.5848   -277.78842    147.43261   -129.07204   -5373.9126 
18106000    127.08081   -6676.4673   -6349.5597   -6676.4673            0    7807.7676    23.128038     21.28184     21.45464    10560.129     7266.884    8744.2851    7412.1337   -601.20821    376.25178    440.02523    -5147.096 
18107000    131.37721   -6690.4685   -6352.5086   -6690.4685            0    6668.6329    23.245983    21.239636    21.491883    10611.321    4967.1709    7575.7486    7462.9792    722.81581     929.3775   -502.81661   -5320.5027 
18108000    127.64541   -6681.8098   -6353.4497   -6681.8098            0    6479.0867    23.191845    21.233898     21.55392    10614.298    6233.6023    7193.1389    6010.5189    119.29787    82.030426    41.267076   -5350.4959 
18109000     128.0512   -6684.6167   -6355.2128   -6684.6167            0     6252.094     23.31685    21.126699    21.492094    10587.179    5703.9573    6242.4533    6809.8713    1111.7023    33.239792     97.77448   -5389.8699 
18110000    128.11235   -6683.8819   -6354.3207   -6683.8819            0    7097.5263    23.186461    21.286972    21.458431    10591.228    6105.3334    7886.9536     7300.292   -763.19267    382.19552    303.96322   -5258.0212 
18111000    130.74989   -6682.7787   -6346.4325   -6682.7787            0     6292.585    23.247296    21.258029    21.510181    10630.153    6511.9123    5562.6102    6803.2326   -119.71958    185.56346    -459.2657   -5370.8939 
18112000    137.80727   -6696.8583   -6342.3575   -6696.8583            0    6273.7931    23.080483    21.256645    21.628059    10611.021    5578.1119    8103.0924    5140.1751    375.24473    25.156304    46.724746   -5371.4826 
18113000    131.22747   -6676.8411   -6339.2664   -6676.8411            0     7267.073    23.162269    21.245513    21.481466    10570.907    7363.5644    7186.0505     7251.604   -0.2057053    10.238154   -400.31999   -5218.9321 
18114000    130.12219    -6678.302   -6343.5705    -6678.302            0    5439.8129    23.176433    21.330071    21.517989    10637.525    5471.0538    5057.0174    5791.3675    861.84628    20.321757   -503.36049   -5499.6522 
18115000    133.91851   -6679.1316   -6334.6344   -6679.1316            0    7331.1426    23.123776    21.237631    21.506654    10561.794    7473.9837    6598.1036    7921.3404    813.97395    214.43605    331.64602    -5205.397 
18116000    120.25209   -6678.8572    -6369.516   -6678.8572            0    6479.3449    23.186098    21.166292    21.604751    10602.828    5551.1865    7536.2387    6350.6094    -16.17212    618.78634    880.89117   -5367.6061 
18117000      126.043   -6707.1783   -6382.9404   -6707.1783            0    6100.0339    23.259951    21.209283    21.521311    10617.041    6035.7105    6690.5365    5573.8547     91.22665   -454.85044   -445.51827   -5438.4193 
18118000     127.4236   -6690.9537   -6363.1642   -6690.9537            0    6258.3407    23.200086      21.1943    21.560768    10601.636    6514.6588    6051.1002    6209.2631    640.68266   -561.98805   -120.81367   -5395.5372 
18119000    129.29728   -6680.3257   -6347.7164   -6680.3257            0    7265.9303    23.141152    21.255605    21.486291    10568.659    7669.2405    6935.8927    7192.6576    52.651993    368.59251    1453.8955   -5227.7963 
18120000    126.29837   -6681.5426   -6356.6478   -6681.5426            0    5174.5439    23.198876    21.282467    21.627104    10677.935    4374.5426    6354.1343    4794.9549    836.32928   -83.041284   -899.95808    -5550.833 
18121000    126.95032   -6674.9013   -6348.3294   -6674.9013            0    7687.7851    23.132927    21.301795    21.423173    10556.759    7074.3429    7359.6438    8629.3685   -372.65402   -719.88491    22.493961   -5164.7218 
18122000    130.73544    -6663.502    -6327.193    -6663.502            0    6984.1129    23.123567    21.254739    21.551299    10592.148    7225.8039     6816.415    6910.1198     2.061785    186.52868    548.72207   -5248.3178 
18123000    126.58443   -6676.8589   -6351.2282   -6676.8589            0    6238.7747    23.106795    21.330489     21.55459     10623.81    6750.4733    6374.9694    5590.8813   -484.69626     11.11675    108.13556   -5384.6089 
18124000    122.47847   -6657.2108   -6342.1424   -6657.2108            0    6491.7695    23.224957     21.36731    21.394314    10617.032    7017.0743    5655.5511     6802.683   -721.12449    433.82535   -262.48705   -5336.9664 
18125000    131.32838   -6668.7132   -6330.8789   -6668.7132            0    7402.6829    23.034698    21.293818    21.576429    10583.167    7496.5424    6936.6771    7774.8291     -580.696    117.02294    388.66708   -5188.3146 
18126000    131.56039   -6691.2853   -6352.8542   -6691.2853            0    5826.1503    23.180812    21.310442    21.502143    10621.916    5671.5721    5717.7094    6089.1693    616.38396    535.06889   -543.75851   -5450.3267 
18127000    131.55052   -6689.8629   -6351.4572   -6689.8629            0    6441.9593     23.14597     21.30841    21.506211    10606.945    6922.5724    5617.2237    6786.0818   -205.73204    -58.29915   -96.506042   -5354.9414 
18128000    128.21699   -6675.6032   -6345.7728   -6675.6032            0    6749.6483    23.174262    21.187763    21.613472    10612.447    6750.4253    7301.8022    6196.7174     253.5535     452.2063   -784.58297   -5301.1186 
18129000    134.81985   -6672.3827   -6325.5669   -6672.3827            0    6237.8542     23.24501    21.261865    21.450787    10601.671     5695.713    6563.1666     6454.683   -243.29238    156.67174   -151.03675   -5361.1042 
18130000    126.24675   -6695.6183   -6370.8562   -6695.6183            0    7376.0793    23.126812    21.129166    21.595734    10552.761    7627.5849    8185.3257    6315.3274    -340.8664   -464.11152   -1187.1894   -5235.6688 
18131000    128.53404    -6699.591    -6368.945    -6699.591            0    5734.0629    23.206104    21.345452    21.408566    10604.621    6110.2339    5237.6563    5854.2984    1062.7234   -454.52759    388.32182    -5482.129 
18132000    135.85588    -6687.263    -6337.782    -6687.263            0    5398.4037     23.14917    21.306028    21.590429    10648.764     5832.221    5566.9252     4796.065    32.269719    571.85053   -96.883486   -5499.4029 
18133000     126.7804   -6664.1528    -6338.018   -6664.1528            0    7078.2822    23.076268    21.309736    21.550374    10597.379    7631.4352    6296.6645    7306.7468   -1176.1327    1126.7883    486.86651    -5244.056 
18134000    126.42511   -6687.0191   -6361.7982   -6687.0191            0    6799.5744     23.22305    21.315299    21.366771    10576.685    7566.9277     5753.313    7078.4824    515.22432   -937.17582    251.93092   -5312.9632 
18135000     126.7076   -6694.1801   -6368.2325   -6694.1801            0    6061.5018    23.070477    21.271338    21.637371    10618.322    5896.4326    6385.3181    5902.7547    479.12636   -285.97561    200.43336   -5429.5645 
18136000    132.14882   -6670.8538    -6330.909   -6670.8538            0    6558.3235     23.13799    21.308487    21.486944    10593.827     6245.173    6363.1422    7066.6552   -432.85332    1268.5647    920.01515   -5317.6474 
18137000    128.25842   -6686.7738   -6356.8369   -6686.7738            0     5890.297    23.152897    21.338941    21.544878    10644.426    7069.5641    5128.4681    5472.8588   -504.45336   -114.32318    482.31415   -5442.4387 
18138000    126.30122   -6678.4157   -6353.5135   -6678.4157            0    7216.7396    23.135107    21.278321     21.46389    10566.163    7687.6314    6559.1412     7403.446   -258.43446    788.07275   -121.23125   -5241.4381 
18139000    130.60971   -6693.0574   -6357.0719   -6693.0574            0    6549.8872    23.034554    21.307214    21.578693     10590.87    6836.3017    6280.1388    6533.2212    839.73756   -213.13138    798.94357   -5345.3961 
18140000    128.45483   -6682.2954   -6351.8531   -6682.2954            0    5765.4858    23.193558    21.384592    21.420836    10624.408    5129.9315    5327.9114    6838.6146   -234.93979    391.31372    546.45563   -5458.5136 
18141000    130.57899    -6697.753   -6361.8466    -6697.753            0    7160.4433    23.024575    21.309244    21.578995    10587.438     7560.752    6780.6536    7139.9242    -726.2976    12.628721    386.39463   -5256.2245 
18142000    131.37715    -6688.492   -6350.5323    -6688.492            0    5672.9005    23.105344    21.423297    21.486909    10635.862    6650.3349    4947.0492    5421.3174   -48.484608     357.9432   -457.22082   -5470.5909 
18143000    129.66051   -6678.0567    -6344.513   -6678.0567            0    6387.2806      23.1032    21.355173    21.486624    10600.916    6885.1007    5708.8076    6567.9336   -246.88844    1153.0442   -237.27013   -5357.0171 
18144000    130.35034   -6688.7766   -6353.4582   -6688.7766            0    6618.3536    23.113807    21.284965     21.55952    10606.779    6959.0978    6698.6411    6197.3218    771.64131   -573.45191    -676.1539   -5329.6718 
18145000    134.55701   -6674.5144   -6328.3747   -6674.5144            0    6922.8097    23.063708    21.409975    21.453815    10593.753    6290.6101    6518.3165    7959.5025   -281.14483   -576.95695   -109.23471   -5258.8074 
18146000    130.55199   -6690.8584   -6355.0213   -6690.8584            0    6787.9457    23.174128    21.186081    21.550606    10580.678    6104.8723    7090.0536    7168.9112    188.82054   -204.14501   -335.36691   -5307.5847 
18147000    128.42062   -6694.6322    -6364.278   -6694.6322            0    6444.0438    23.186737    21.268079    21.534042    10619.241    6500.4176    6790.1872    6041.5266    392.36186   -741.85816     348.6891   -5366.2842 
18148000    129.59427   -6691.9459   -6358.5726   -6691.9459            0    6373.1143    23.297744    21.163476    21.499184    10600.414    6163.7577    6286.9222    6668.6631     94.67657   -144.01796   -581.10941   -5373.3135 
18149000    129.04981   -6664.1123   -6332.1395   -6664.1123            0    6649.4725    23.244131    21.230862    21.518044    10619.003    5522.4522    8007.6127    6418.3525   -806.94338   -593.06647   -42.772511   -5302.3539 
18150000    131.41049   -6694.0359   -6355.9904   -6694.0359            0    6369.3121    23.266317    21.130296    21.568413    10603.553    5697.1357    7219.2701    6191.5305   -126.61745    283.96496   -810.52216   -5371.0276 
18151000    130.66274   -6669.2305   -6333.1085   -6669.2305            0    6788.5049    23.299875    21.102703    21.537043    10589.556    5130.1091    8532.7342    6702.6713    1189.9911    253.64472    152.18558   -5284.7067 
18152000    127.72367   -6686.6251   -6358.0638   -6686.6251            0    6688.8672    23.349455    21.111963     21.45796    10577.762    6517.5116    6395.5528    7153.5373    -385.4657    946.61163    264.40315   -5326.2003 
18153000    134.89157   -6677.8135   -6330.8132   -6677.8135            0    6558.0936    23.164484    21.199514    21.586153    10600.437    6942.2572    6140.9176    6591.1061    49.616763   -177.05378    658.35915   -5316.9548 
18154000    128.17438   -6674.8361   -6345.1153   -6674.8361            0    7038.4908    23.303994    21.167511    21.420859    10566.643    6116.9691     7592.153    7406.3502    483.91762   -679.11953    89.880508   -5260.4581 
18155000    129.91016   -6699.5857   -6365.3997   -6699.5857            0    5893.7848    23.227056    21.173848    21.580765    10613.553    5300.8807    6669.7938    5710.6799   -216.24677    92.112915    684.48879   -5453.1138 
18156000    123.64099   -6690.8863   -6372.8274   -6690.8863            0    6696.7279    23.244667    21.235376    21.457505    10591.623    5648.6368     7040.647       7400.9    1266.4216   -518.32774   -115.50367   -5338.3975 
18157000     127.8365   -6686.8581   -6358.0065   -6686.8581            0    6888.4906    23.145424    21.235459    21.527226    10580.711    7774.9675    6536.3179    6354.1863   -1684.4232    389.12582   -223.43416   -5295.0516 
18158000    130.86503   -6694.2801   -6357.6378   -6694.2801            0     7007.242    23.144474     21.31475    21.454099    10583.707    7313.3384    6649.3715    7059.0162    260.71486    486.23847   -21.602373   -5276.0523 
18159000    125.74576   -6665.7052   -6342.2318   -6665.7052            0    7886.3971    23.041783    21.338327    21.457795    10550.221    8553.1687    7441.8836    7664.1391    -287.7418    500.89077   -135.80456   -5128.7981 
18160000    125.20568   -6670.0976   -6348.0136   -6670.0976            0     7046.237    22.998767    21.399391     21.48702    10575.043    8025.0746    5937.9479    7175.6885    149.69176    780.22179   -205.20115   -5261.2996 
18161000    123.41456   -6690.3799   -6372.9034   -6690.3799            0    5328.8752    23.158174    21.420396    21.461959    10646.361    4213.5186    6359.4465    5413.6605    674.26793    974.56016   -419.93512   -5545.5089 
18162000    131.79704   -6683.3456   -6344.3058   -6683.3456            0    7363.8366    23.094479    21.275371     21.52164     10574.52    7037.5694     7802.852    7251.0885   -447.75868    777.98334   -858.29119   -5208.6657 
18163000    123.90196   -6667.0362    -6348.306   -6667.0362            0    6205.6871    23.071308    21.431356    21.455417    10608.619    6237.3101    6024.0596    6355.6917    475.15514   -618.48596   -137.80771    -5388.188 
18164000    129.48194    -6687.956   -6354.8716    -6687.956            0    7470.3518    23.067107    21.288854    21.485846    10551.103    8378.6705    6970.2353    7062.1498    498.56211    51.970433   -186.77428   -5205.3561 
18165000    128.76328   -6676.6217    -6345.386   -6676.6217            0    6520.8097    23.050432    21.408799    21.482599    10601.277    7456.6905    5929.5005    6176.2379     -102.065   -285.62495      148.485   -5337.2118 
18166000    133.48056   -6673.2963   -6329.9257   -6673.2963            0    7203.1813    23.038385    21.328172    21.509677    10569.138    7809.4684    6973.0344     6827.041    418.32141   -292.04202   -166.39216   -5219.6271 
18167000    127.50364    -6679.783   -6351.7876    -6679.783            0    7102.1831     23.15412     21.35249    21.405285    10582.732    6501.7786     6583.849    8220.9216    245.97908     304.4158    384.49109   -5255.6488 
18168000    131.78799   -6671.0336    -6332.017   -6671.0336            0     6448.023    23.146273    21.208258    21.627992    10617.011     6725.416    6890.2179    5728.4351    399.21482   -516.57723   -422.09537   -5333.6166 
18169000    136.18899   -6665.1883   -6314.8504   -6665.1883            0    7941.2304     23.20091    21.248064    21.415493     10557.29    8193.6895    8021.7777    7608.2239   -12.093842   -708.57197   -648.13938    -5092.161 
18170000    126.51685   -6676.8964   -6351.4395   -6676.8964            0    6251.0396    23.216447    21.234889    21.536721    10617.575      6225.43    6239.7906    6287.8981   -774.81551    1534.3973   -593.87922   -5383.4883 
18171000       130.33   -6689.2053   -6353.9393   -6689.2053            0    4775.2356    23.226026    21.313526    21.560411    10673.018    4338.7092    5266.0457    4720.9518   -75.267819    228.89623   -110.48025   -5610.6499 
18172000    131.53937   -6677.9733   -6339.5963   -6677.9733            0    7959.6139    23.154697    21.230767    21.463529    10551.299    7026.3553    8013.4951    8838.9912     674.6289    560.47648    341.63188   -5114.7719 
18173000    127.21722   -6682.4257   -6355.1671   -6682.4257            0    6376.6741    23.076288    21.183602    21.692566     10604.17    7432.2311    6372.1317    5325.6594   -982.75991   -782.60538   -142.62324   -5369.0085 
18174000    132.96112   -6705.5809   -6363.5465   -6705.5809            0    5800.1942    23.231915    21.317068    21.412043    10604.021    5887.9258    5349.4989     6163.158   -244.73342    117.03615   -442.24486   -5466.5536 
18175000    131.70351   -6685.8573   -6347.0581   -6685.8573            0    6224.0023    23.114123    21.325791    21.516401    10606.014    6157.5375    6046.5321    6467.9373    -253.1053   -538.40843   -374.06086   -5384.3428 
18176000    127.97313   -6691.8078   -6362.6047   -6691.8078            0    6703.8026    23.078025    21.170246    21.670395     10587.45    7725.3615    7325.7763      5060.27   -572.67746   -133.30182   -898.63537     -5327.49 
18177000    139.08608    -6684.114   -6326.3235    -6684.114            0    6272.8859    23.235665    21.258734    21.489441    10614.942    5658.7117    6581.8527    6578.0932    154.45991   -254.42517     265.7532   -5355.2303 
18178000     131.0126   -6675.5794   -6338.5574   -6675.5794            0    7103.7101    23.189599    21.211958    21.499728    10575.647    6090.6266    7569.5134    7650.9904    53.784608     829.0571   -8.9518109    -5242.917 
18179000    127.63365    -6680.185   -6351.8552    -6680.185            0    5686.5912    23.152836    21.292621    21.602864    10649.879    4971.7903    5852.4591    6235.5242    357.83804   -307.84172    709.00406   -5468.6277 
18180000     125.0432   -6665.1067   -6343.4407   -6665.1067            0     6781.873    23.180364    21.287283     21.47141    10595.002    6649.4234     6708.371    6987.8246   -296.41462    76.021975   -213.86142   -5295.5244 
18181000    130.52018   -6685.5114   -6349.7562   -6685.5114            0    6528.6303     23.11951    21.319333    21.502593    10598.468    7113.3166    5616.6659    6855.9085   -410.91123    154.70712   -469.49386   -5340.6403 
18182000    132.51156   -6676.7457   -6335.8678   -6676.7457            0    6654.8078    23.095666    21.341561    21.495182    10594.923    7261.0618    5765.2987    6938.0628    886.03408   -1185.9948   -660.86902    -5307.593 
18183000    128.47307   -6689.8795   -6359.3903   -6689.8795            0    6548.6472    23.129039     21.31964    21.471383    10587.599    6936.4727    6576.7276    6132.7414    1049.7139    355.30603   -340.38982   -5348.2185 
18184000    126.94713   -6685.3697   -6358.8059   -6685.3697            0    7081.1257    23.031385    21.371028    21.508791    10586.721    8290.5668    7334.4251    5618.3851   -1779.0303    1140.4692   -143.00646   -5265.5052 
18185000    133.41962    -6675.297   -6332.0831    -6675.297            0    6490.3357     23.12869    21.226344    21.578578    10593.734    6779.3167    6216.2814    6475.4091    1641.3475    318.97034    -303.0058   -5329.3344 
18186000    130.47958   -6672.3439   -6336.6931   -6672.3439            0    5991.0279    23.172432    21.336418    21.482926    10621.517    6808.2716    5706.0982    5458.7138    -322.4218    -436.9703   -417.32541   -5408.6593 
18187000    125.09054   -6687.4052   -6365.6175   -6687.4052            0    5794.8112      23.2179    21.207743    21.561614    10616.923    6350.6221    5290.1138    5743.6977    190.41543    244.38744    83.906598   -5468.3667 
18188000     130.0097   -6669.0477   -6334.6056   -6669.0477            0    6420.2108    23.110422    21.312564    21.546093    10612.363    5878.2607    6715.8741    6666.4975   -358.19167    117.13696    993.52782   -5340.9469 
18189000    124.03755   -6690.8223   -6371.7433   -6690.8223            0    6390.8346    23.258864    21.200282    21.501985     10602.51     5321.334    7399.6151    6451.5546    714.57263    1035.9488   -851.96476   -5383.5494 
18190000    132.02888   -6658.3797   -6318.7434   -6658.3797            0    5810.2058    23.084899    21.365437    21.579709    10643.522    5893.4108     6038.929    5498.2775    473.47467   -1060.1636     898.7941   -5416.8551 
18191000    134.47527   -6675.7034    -6329.774   -6675.7034            0    7099.8596    23.181217    21.241884    21.498964    10586.363     6681.602    6737.0311    7880.9456    1005.8713    765.61562    699.62973   -5233.6178 
18192000    130.89241   -6679.0194   -6342.3067   -6679.0194            0    6232.2051    23.184097    21.321272    21.478844    10617.303    6115.8978    5974.4917    6606.2256   -410.28008    325.10734    185.25448   -5377.2966 
18193000    126.26921   -6680.6074   -6355.7876   -6680.6074            0    6386.3703     23.19486    21.231604    21.555909    10615.511    6271.0169      7199.79    5688.3041    946.42901   -451.53186   -644.17437   -5367.0731 
18194000    126.63911   -6668.5015   -6342.7301   -6668.5015            0    7361.3934    23.142644    21.337767    21.405402    10570.252    6962.6399      7634.94    7486.6003    201.57431   -443.88273    125.04923   -5207.9251 
18195000    131.19032   -6675.5582   -6338.0791   -6675.5582            0    6773.6813    23.064675    21.358195    21.518094     10600.24    7189.4519    6666.2012    6465.3909   -170.34617    488.44205    518.57599   -5290.9111 
18196000    131.26605   -6693.8979    -6356.224   -6693.8979            0     6290.466    23.191475    21.277201    21.521501    10619.778    5954.8982    7411.7592    5504.7407     140.0131   -356.25628    -988.3644   -5381.9656 
18197000    127.11742   -6672.0049   -6345.0031   -6672.0049            0    6518.1502    23.293973    21.211817    21.463691     10605.37    5953.6388      6847.63    6753.1817    -282.0974    98.467196    601.23819    -5336.851 
18198000    132.41134   -6680.4332   -6339.8131   -6680.4332            0    6544.8813     23.22355    21.181921    21.577273     10614.28    6823.8728    7346.7946    5463.9764    598.03127    -386.8374    235.28609   -5326.6761 
18199000    129.12698    -6672.313   -6340.1418    -6672.313            0    5952.6231    23.286895      21.1751    21.575129    10638.747    5045.1308    6807.0628    6005.6757    -198.7315    115.24354    119.16834   -5416.5613 
18200000    121.21117   -6667.9636   -6356.1552   -6667.9636            0    5937.9985    23.349766    21.094191    21.547219    10612.963    4766.5372    7212.2414    5835.2169    73.965536    430.47067   -463.56474   -5437.0767 
18201000    133.85954   -6686.9706   -6342.6251   -6686.9706            0    6339.7099    23.288796     21.14854    21.542921    10610.406    5289.9278    7479.9747    6249.2272   -489.87524    417.37024    85.244144   -5361.6064 
18202000    133.85675   -6690.1412   -6345.8029   -6690.1412            0    7188.6457    23.263869    21.094372    21.506746     10554.15    7176.6523    7828.4212    6560.8635   -425.05834    464.12449    95.064373   -5239.3161 
18203000    125.26635   -6697.5334   -6375.2934   -6697.5334            0    6512.6677     23.23571    21.106056    21.603983      10594.9    5929.0478    7868.4432    5740.5122    524.67402   -171.27031   -42.608075   -5368.9837 
18204000    124.46409    -6671.271   -6351.0947    -6671.271            0    6916.6091    23.322309    21.162837    21.441419     10582.76    7201.4422    7115.4204    6432.9645    637.68179   -1388.6093   -189.54341   -5283.5942 
18205000    128.70212   -6691.4157   -6360.3374   -6691.4157            0    6001.3997    23.218825    21.215361    21.570751     10625.66    6445.3449    6455.6409    5103.2133    80.762917   -1132.2364   -89.915212   -5430.3343 
18206000    130.10154   -6695.5106   -6360.8323   -6695.5106            0    7518.4919    23.177602    21.212517     21.44524    10543.665    7192.4016    8237.3149    7125.7593   -737.68402    121.19838   -82.473924   -5204.7248 
18207000    123.20061   -6676.7647   -6359.8387   -6676.7647            0    7635.1585    23.142317    21.277251    21.464495    10569.222    8437.3495    6630.8502    7837.2756    463.98486   -368.01714    399.78052   -5182.9457 
18208000     129.7209   -6680.1381    -6346.439   -6680.1381            0    5776.1368    23.163592    21.321256    21.490323    10613.573    5366.5569    6136.5283    5825.3253   -386.63858    172.95294   -32.452227   -5452.3619 
18209000    131.94893   -6673.5429   -6334.1123   -6673.5429            0    7485.2897    23.058782    21.258011    21.552222    10564.551     7934.504    7573.6136    6947.7514    1164.3072   -454.15052    645.55893   -5180.8303 
18210000    128.62692   -6681.4637   -6350.5788   -6681.4637            0    7202.6538    23.078342    21.376021    21.459312    10586.375    6879.2204    7443.0417    7285.6995     100.1551   -411.45492   -397.25344   -5238.5508 
18211000    126.50347   -6665.0518   -6339.6293   -6665.0518            0    6471.8635      23.0849    21.344003    21.537744    10612.167    6537.6388    6035.8481    6842.1037     473.8854    724.45633    829.88723   -5337.9947 
18212000    127.93943   -6692.6598   -6363.5434   -6692.6598            0    5453.1377    23.068638    21.431402    21.521571     10640.12    6212.0298    4718.2158    5429.1674   -902.89143    523.82656    211.86463   -5517.3515 
18213000    125.46808   -6666.3374   -6343.5784   -6666.3374            0    8657.7455    22.985698    21.386615    21.429596    10534.495    9143.0444    8643.9255    8186.2666   -70.254376     1011.156     -550.221   -5013.4473 
18214000    131.49676   -6688.8789   -6350.6115   -6688.8789            0    6378.9792    23.114237    21.342036    21.509923     10610.95    5775.9033    6874.8807    6486.1537   -264.62207    294.61755   -70.600552   -5363.4656 
18215000    125.09465   -6691.9703   -6370.1719   -6691.9703            0    5978.1745    23.276699    21.270933    21.457412    10623.932    5681.8358    5337.7658    6914.9218   -57.482161    614.05652   -8.7347849   -5443.9187 
18216000    125.33665   -6673.4279    -6351.007   -6673.4279            0    6601.5466    23.186508    21.243099    21.528325    10603.847    5795.3154    7195.0242    6814.3002   -221.24597      242.149    -119.7734   -5330.1026 
18217000    126.53247   -6676.8121    -6351.315   -6676.8121            0    6778.5509    23.234385    21.262351    21.465454    10604.313    6210.0165    6345.9688    7779.6675    596.78928    567.45385    301.86041   -5302.9915 
18218000    129.30518   -6666.6201   -6333.9904   -6666.6201            0    7074.3806    23.146081    21.191847    21.579134    10584.742    7370.0167    7375.7268    6477.3984    439.92058   -834.56587   -540.91581   -5241.9351 
18219000    125.20418   -6678.5733   -6356.4932   -6678.5733            0    5719.7466    23.287325    21.203888    21.518005      10625.2    5040.6796    5855.2097    6263.3505   -438.54871    453.14072    1086.4541   -5470.1748 
18220000    123.82656   -6690.7201   -6372.1839   -6690.7201            0    6416.4677    23.276754    21.149236    21.528364    10598.103    4963.9815    7614.7046    6670.7169     195.3771    214.75216   -534.31612   -5380.4388 
18221000     129.6844   -6691.8076   -6358.2023   -6691.8076            0    6145.9602    23.271987    21.227069    21.504249    10623.015     5424.841    6509.8851    6503.1546   -171.83455   -34.351181     -327.942   -5406.0347 
18222000    129.38704   -6689.6906   -6356.8503   -6689.6906            0    7153.0877    23.325006    21.126764    21.431212    10560.913    6214.8642    7159.1249    8085.2741   -250.55314    1120.4811    184.95204   -5255.1311 
18223000    129.00815   -6693.8239   -6361.9583   -6693.8239            0    5323.5323    23.191719      21.2139    21.684797    10668.634    4935.0839    5662.6645    5372.8486    594.87932    500.10758    960.81002   -5533.6641 
18224000    130.05655   -6665.1381   -6330.5755   -6665.1381            0    6538.6205    23.253496    21.225156     21.47512     10599.24    5284.7139    7288.6091    7042.5383    826.84377    419.03305   -194.51178   -5319.8418 
18225000    129.15325   -6689.2096   -6356.9707   -6689.2096            0    7184.8955    23.078742    21.283631    21.525909    10573.515     7428.472    7113.9988    7012.2158   -1060.0725    558.32064   -920.61799   -5249.0321 
18226000    125.56197   -6672.3815    -6349.381   -6672.3815            0    7031.7011    23.163514    21.302725    21.446908     10582.89    6701.9012    6538.9155    7854.2866    71.786274    755.12327    15.246038   -5264.1041 
18227000    138.31733   -6675.1151   -6319.3022   -6675.1151            0    6632.1897    23.131674    21.337034    21.470563    10597.039     6241.428    7022.6057    6632.5355     209.2086   -756.13423   -324.90547   -5294.3175 
18228000    132.99116   -6667.1374   -6325.0257   -6667.1374            0    6868.9671    22.961951    21.422627    21.548621    10599.881    8427.6587    5455.4572    6723.7855   -545.23389   -459.97106    872.34425   -5263.1631 
18229000    132.35916   -6681.6039    -6341.118   -6681.6039            0    6580.9271    23.104385     21.41877    21.424634    10602.355    7215.0782    4805.0071    7722.6958    1443.6759   -1064.5654    632.21347   -5323.5456 
18230000    132.64478   -6671.0045   -6329.7839   -6671.0045            0    6407.4288    22.844543    21.452163    21.655394    10612.548    8038.5873    5060.5568    6123.1423    49.907322   -139.32562    616.46957   -5338.0861 
18231000    136.67546   -6678.5011   -6326.9118   -6678.5011            0    7005.5946    23.031183    21.436376    21.435583    10582.857    7147.5393    6220.4887    7648.7558   -1020.5179    855.53094    -539.0547   -5245.6675 
18232000    132.17701   -6683.4809   -6343.4636   -6683.4809            0    5940.8468    23.062652    21.366678    21.553232    10620.835    6017.9878    6073.0561    5731.4963   -406.76692    733.81432    176.88689   -5423.2621 
18233000    126.61432   -6683.3269   -6357.6193   -6683.3269            0    6208.7551    23.122337    21.371753    21.454773    10602.195    5792.8213    5124.8984    7708.5455   -239.25582    769.67481    849.31629   -5397.6083 
18234000    127.56904   -6676.8251   -6348.6616   -6676.8251            0    6313.9269    23.134925    21.330257    21.520396    10619.753    5813.6056    6751.1957    6376.9796   -1111.6384    541.51991   -683.42949   -5370.7719 
18235000    130.27662   -6689.4338   -6354.3051   -6689.4338            0     6249.817    23.193308    21.268394    21.500252    10605.739     5739.463     6484.208    6525.7801    191.48098    24.855585    168.03365    -5387.622 
18236000    124.27698   -6671.0515   -6351.3565   -6671.0515            0    6992.0998    23.230477    21.157808    21.549767    10591.839    6544.9219    7604.8198    6826.5577    298.86718    780.31057     1221.799   -5271.2791 
18237000    127.59928    -6688.229   -6359.9876    -6688.229            0    6186.0197    23.266619    21.157895    21.560702    10613.745    5780.8528    6813.1723    5964.0341    209.41485   -835.15219   -264.81248   -5402.4501 
18238000    125.62687   -6650.6629   -6327.4954   -6650.6629            0    7661.2613    23.271714    21.206699    21.421055    10571.638    6635.9566    8273.5174      8074.31    992.91286    -1069.244   -14.323851    -5146.309 
18239000    123.11444   -6673.2417   -6356.5373   -6673.2417            0    6435.4354    23.205195    21.160101     21.63434    10622.986    5707.1188    6919.6107    6679.5768    303.57402    123.39633   -12.666708   -5359.5252 
18240000    132.40802   -6680.6865   -6340.0749   -6680.6865            0    6521.8274    23.241046    21.226191     21.48691    10599.899    6664.9942    5828.3106    7072.1775    64.137689   -1077.8906    51.513929   -5331.8744 
18241000    128.96322   -6690.0544   -6358.3044   -6690.0544            0    5570.0214    23.240872     21.29588    21.484888    10633.619     4960.206    5344.5157    6405.3426   -630.04951    510.86099    898.97091   -5494.5031 
18242000    128.73277   -6683.5015   -6352.3443   -6683.5015            0    6998.2832    23.075589    21.248983     21.60538    10593.826    8294.3589    6156.1973    6544.2935   -780.28229   -247.06385     487.3114   -5271.1089 
18243000    130.89311   -6677.8564   -6341.1419   -6677.8564            0    5562.3173    23.227041    21.380225    21.361559    10608.137     4296.735    5950.7049    6439.5121   -208.73083   -351.64888    172.36501   -5480.6024 
18244000    130.92876   -6690.2683    -6353.462   -6690.2683            0    6402.6213    23.036092    21.236955    21.689567    10610.893    7153.0715    6284.3764    5770.4159   -164.77125    199.19892    209.26391   -5362.6628 
18245000    138.40704   -6683.1753   -6327.1316   -6683.1753            0    5396.1211    23.168928    21.366207    21.519969    10653.076    5550.4928    4992.7363    5645.1341    648.13093   -244.11146    348.45626   -5488.7676 
18246000    129.25323    -6683.669   -6351.1729    -6683.669            0    7994.9997    22.984182    21.408056     21.41571    10537.529    8715.4328    7304.8103    7964.7558   -298.30798    296.87386    201.08608    -5122.509 
18247000    127.83758   -6673.3865   -6344.5321   -6673.3865            0    6327.4452    23.048141     21.37139    21.542728    10611.319    7615.7351    5119.9733    6246.6271   -215.40427    372.86352    64.638964   -5365.3271 
18248000    132.63884   -6679.7084   -6338.5031   -6679.7084            0    7121.2886    23.036983    21.501631    21.356486    10578.566    7600.0014    6150.7527    7613.1117   -23.466212    235.68804    263.38361   -5239.8482 
18249000    133.62994   -6698.3391   -6354.5843   -6698.3391            0    6525.6971    23.062131    21.319093    21.552376    10596.521    6657.9023    6257.1968    6661.9921    483.04152   -63.773117    502.84386    -5346.107 
18250000    134.12225    -6662.297   -6317.2757    -6662.297            0    7270.4029    23.098145    21.393028    21.453802    10601.166     6631.299    7741.0522    7438.8575   -731.88063    559.54803   -533.78633   -5193.2196 
Loop time of 494.656 on 64 procs for 250000 steps with 1296 atoms

Performance: 87.333 ns/day, 0.275 hours/ns, 505.402 timesteps/s
99.1% CPU use with 64 MPI tasks x 1 OpenMP threads

MPI task timing breakdown:
Section |  min time  |  avg time  |  max time  |%varavg| %total
---------------------------------------------------------------
Pair    | 30.304     | 41.553     | 52.937     | 111.3 |  8.40
Bond    | 0.27898    | 0.28723    | 0.29856    |   0.7 |  0.06
Kspace  | 233.96     | 246.09     | 257.61     |  46.2 | 49.75
Neigh   | 1.9323     | 1.9572     | 1.9907     |   1.0 |  0.40
Comm    | 90.624     | 92.18      | 94.027     |   7.9 | 18.64
Output  | 0.64078    | 0.64174    | 0.64328    |   0.1 |  0.13
Modify  | 98.387     | 101.67     | 104.29     |  22.1 | 20.55
Other   |            | 10.28      |            |       |  2.08

Nlocal:        20.2500 ave          27 max          12 min
Histogram: 1 2 9 4 13 3 12 3 14 3
Nghost:        2634.28 ave        2659 max        2605 min
Histogram: 2 4 5 6 12 10 12 3 3 7
Neighs:        6587.94 ave        8748 max        3856 min
Histogram: 1 2 9 4 13 4 11 3 14 3

Total # of neighbors = 421628
Ave neighs/atom = 325.33025
Ave special neighs/atom = 2.0000000
Neighbor list builds = 3447
Dangerous builds = 0

unfix		3
unfix		2
unfix		1

write_data	data.final.${pid}
write_data	data.final.0
System init for write_data ...
PPPM initialization ...
  extracting TIP4P info from pair style
  using 12-bit tables for long-range coulomb (../kspace.cpp:340)
  G vector (1/distance) = 0.36933727
  grid = 30 40 32
  stencil order = 5
  estimated absolute RMS force accuracy = 0.0041092204
  estimated relative force accuracy = 1.2374795e-05
  using double precision FFTW3
  3d grid and FFT values/proc = 5168 640
Last active /omp style is kspace_style pppm/tip4p/omp
WARNING: Not all mixed pair coeffs generated from mixing. Use write_data with 'pair ij' option to store all pair coeffs. (../write_data.cpp:312)

write_restart   restart.lmp.${pid}
write_restart   restart.lmp.0
System init for write_restart ...
PPPM initialization ...
  extracting TIP4P info from pair style
  using 12-bit tables for long-range coulomb (../kspace.cpp:340)
  G vector (1/distance) = 0.36933727
  grid = 30 40 32
  stencil order = 5
  estimated absolute RMS force accuracy = 0.0041092204
  estimated relative force accuracy = 1.2374795e-05
  using double precision FFTW3
  3d grid and FFT values/proc = 5168 640
Last active /omp style is kspace_style pppm/tip4p/omp
Total wall time: 0:08:14
