LAMMPS (30 Jul 2021)
Processor partition = 1
  using 2 OpenMP thread(s) per MPI task
using multi-threaded neighbor list subroutines
variable        pid world 0 1
variable        phase world IceIII Liquid

shell cd ${phase}
shell cd Liquid
include Restart.lmp
echo both
log log.lammps
#include		in.partitions
include		in.temp
variable        temperature equal 251.25
variable	tempDamp equal 100.0
include		in.pressure
variable        pressure equal 1125.0
variable        pressureDamp equal 1000.0 # This is 1 ps
include		in.seed
variable        seed equal 745823

units		real
atom_style	full
read_restart	restart.lmp.${pid}
read_restart	restart.lmp.1
Reading restart file ...
  restart file = 30 Jul 2021, LAMMPS = 30 Jul 2021
  restoring atom style full from restart
  orthogonal box = (0.11061940 1.2218263 0.13495540) to (18.096953 22.407351 22.078240)
  2 by 4 by 4 MPI processor grid
  restoring pair style lj/cut/tip4p/long/omp from restart
  restoring bond style harmonic/omp from restart
  restoring angle style harmonic/omp from restart
  864 atoms
  576 bonds
  288 angles
Finding 1-2 1-3 1-4 neighbors ...
  special bond factors lj:    0        0        0       
  special bond factors coul:  0        0        0       
     2 = max # of 1-2 neighbors
     1 = max # of 1-3 neighbors
     1 = max # of 1-4 neighbors
     2 = max # of special neighbors
  special bonds CPU = 0.003 seconds
  read_restart CPU = 0.009 seconds
include 	in.setup
variable	out_freq equal 1000
variable	out_freq2 equal 10000
variable	out_freq3 equal 1000

timestep	2.0

neigh_modify    delay 7 every 1

include		in.tip4p
# This is TIP4P/Ice

# create groups ###
group ox type 2
288 atoms in group ox
group hy type 1
576 atoms in group hy

# set charges - beside manually ###
set group ox charge -1.1794
Setting atom values ...
  288 settings made for charge
set group hy charge 0.5897
Setting atom values ...
  576 settings made for charge

# ### TIP3P Potential Parameters ###
pair_style lj/cut/tip4p/long/omp 2 1 1 1 0.1577 8.5
pair_coeff 1 1*2 0.000 0.000
pair_coeff 2 2 0.21084 3.1668
bond_style  harmonic
bond_coeff  1 450 0.9572
angle_style harmonic
angle_coeff 1 55 104.52
kspace_style pppm/tip4p/omp 1.0e-5
pair_modify tail yes

thermo          ${out_freq}
thermo          1000
thermo_style    custom step temp pe etotal epair emol press lx ly lz vol pxx pyy pzz pxy pxz pyz enthalpy

restart 	${out_freq3} restart.lmp.${pid} restart2.lmp.${pid}
restart 	1000 restart.lmp.${pid} restart2.lmp.${pid}
restart 	1000 restart.lmp.1 restart2.lmp.${pid}
restart 	1000 restart.lmp.1 restart2.lmp.1


include         in.dump
dump            myDump all atom ${out_freq2} dump.water.${pid}
dump            myDump all atom 10000 dump.water.${pid}
dump            myDump all atom 10000 dump.water.1
dump            myDump2 all dcd ${out_freq2} dump.dcd
dump            myDump2 all dcd 10000 dump.dcd
dump_modify     myDump append yes
dump_modify     myDump2 append yes


variable natoms 	equal  "count(all)"                        # NUMBER ATOMS
variable H      	equal  "enthalpy/v_natoms"                 # ENTHALPY-per-atom
variable Vol      	equal  "vol/v_natoms"                 # volume-per-atom
fix AVG all 		ave/time ${out_freq} 1 ${out_freq} v_Vol v_H file vol_enthalpy.dat
fix AVG all 		ave/time 1000 1 ${out_freq} v_Vol v_H file vol_enthalpy.dat
fix AVG all 		ave/time 1000 1 1000 v_Vol v_H file vol_enthalpy.dat


timer           timeout 23:50:00 every 1000
New timer settings: style=normal  mode=nosync  timeout=23:50:00

fix 		1 all shake 1e-6 200 0 b 1 a 1
Finding SHAKE clusters ...
       0 = # of size 2 clusters
       0 = # of size 3 clusters
       0 = # of size 4 clusters
     288 = # of frozen angles
  find clusters CPU = 0.001 seconds
fix             2 all nph iso ${pressure} ${pressure} ${pressureDamp}
fix             2 all nph iso 1125 ${pressure} ${pressureDamp}
fix             2 all nph iso 1125 1125 ${pressureDamp}
fix             2 all nph iso 1125 1125 1000
fix             3 all temp/csvr ${temperature} ${temperature} ${tempDamp} ${seed}
fix             3 all temp/csvr 251.25 ${temperature} ${tempDamp} ${seed}
fix             3 all temp/csvr 251.25 251.25 ${tempDamp} ${seed}
fix             3 all temp/csvr 251.25 251.25 100 ${seed}
fix             3 all temp/csvr 251.25 251.25 100 745823

run             250000
PPPM initialization ...
  extracting TIP4P info from pair style
  using 12-bit tables for long-range coulomb (../kspace.cpp:340)
  G vector (1/distance) = 0.37246394
  grid = 24 25 25
  stencil order = 5
  estimated absolute RMS force accuracy = 0.0031934744
  estimated relative force accuracy = 9.6170532e-06
  using double precision FFTW3
  3d grid and FFT values/proc = 4116 672
Last active /omp style is kspace_style pppm/tip4p/omp
Neighbor list info ...
  update every 1 steps, delay 7 steps, check yes
  max neighbors/atom: 2000, page size: 100000
  master list distance cutoff = 10.8154
  ghost atom cutoff = 10.8154
  binsize = 5.4077, bins = 4 4 5
  1 neighbor lists, perpetual/occasional/extra = 1 0 0
  (1) pair lj/cut/tip4p/long/omp, perpetual
      attributes: half, newton on, omp
      pair build: half/bin/newton/omp
      stencil: half/bin/3d
      bin: standard
Setting up Verlet run ...
  Unit style    : real
  Current step  : 3500000
  Time step     : 2
  Walltime left : 23:49:59.93
Per MPI rank memory allocation (min/avg/max) = 10.20 | 10.21 | 10.22 Mbytes
Step Temp PotEng TotEng E_pair E_mol Press Lx Ly Lz Volume Pxx Pyy Pzz Pxy Pxz Pyz Enthalpy 
 3500000     257.5081   -3892.8405   -3451.4804   -3892.8405            0    319.19538    17.986334    21.185525    21.943285    8361.4871    1129.0077   -648.73415    477.31253   -570.83496   -144.51241   -621.08987   -3412.5565 
 3501000    245.29633   -3904.1752   -3483.7456   -3904.1752            0    1409.7426    18.018101    21.222943    21.982041     8405.869    844.35173    2660.1071    724.76892    4.6291557    94.820226   -606.83989   -3310.9239 
 3502000    254.98054   -3923.6613   -3486.6334   -3923.6613            0    1790.4837    18.024206    21.230134    21.989489    8414.4163    1636.8161    2103.3956    1631.2394   -484.07075   -22.602237    996.86896   -3266.9131 
 3503000    255.58941   -3912.7331   -3474.6616   -3912.7331            0    513.74446    17.990238    21.190125    21.948049    8366.9342   -559.98778    515.23291    1585.9882   -485.85889    411.64094   -1425.0395   -3411.9728 
 3504000    242.81669    -3944.953   -3528.7735    -3944.953            0    1729.5701     17.93581    21.126015    21.881647    8291.2229    1840.9825    908.81447    2438.9133   -565.68174   -355.89477    721.30609   -3319.6356 
 3505000    250.17145   -3906.4212   -3477.6358   -3906.4212            0    696.30615    18.003119    21.205296    21.963763    8384.9186    407.07514     391.3014    1290.5419    1156.7812    569.17904   -431.43684   -3392.4877 
 3506000     247.4326   -3903.3967   -3479.3056   -3903.3967            0    384.68352    17.952855    21.146092    21.902441    8314.8834    768.14721    382.29505    3.6082973   -2046.2259    980.18061   -1313.9381   -3432.6574 
 3507000    256.80298   -3930.0599   -3489.9083   -3930.0599            0    1736.9003    17.966386     21.16203    21.918949    8333.6984    2260.9121     49.11542    2900.6733   -73.367718    11.763982    -695.6997   -3278.8082 
 3508000    252.89881   -3932.7632   -3499.3033   -3932.7632            0    752.38117    17.983291    21.181941    21.939573    8357.2442     -150.928    1547.8156    860.25588   -518.30068    -541.1349    319.41677   -3407.6017 
 3509000     253.4282   -3891.3525   -3456.9852   -3891.3525            0    593.22713     17.95597    21.149761    21.906242    8319.2126    611.64802    543.68894    624.34443   -206.72072    -1272.008   -1673.9621   -3385.0107 
 3510000    251.39632   -3910.6542   -3479.7695   -3910.6542            0     1369.131    18.015209    21.219537    21.978513    8401.8227    1213.9209    1158.9903    1734.4818   -458.22339    907.36559    93.272083   -3312.0072 
 3511000    249.91088   -3914.5543   -3486.2156   -3914.5543            0    1218.1522    17.953701    21.147088    21.903473    8316.0586     2045.085    1356.3413    253.03019   -753.45126    506.26544    -1404.835   -3338.4767 
 3512000    265.17823   -3902.8533   -3448.3469   -3902.8533            0    1468.9571    17.999762    21.201342    21.959667    8380.2286   -11.630642    3745.0332    673.46892   -571.81106   -1091.8716   -50.012311   -3268.8153 
 3513000    255.59439    -3909.252    -3471.172    -3909.252            0    1280.5782    17.976268    21.173669    21.931004    8347.4563    662.96136    1816.1622    1362.6111   -2117.0384   -997.99425    548.97364   -3315.2756 
 3514000    252.02568    -3939.371   -3507.4076    -3939.371            0    351.21334    17.996341    21.197312    21.955494    8375.4511    1079.6243    573.32863   -599.31294   -594.78418   -1510.9187   -551.54296   -3464.5078 
 3515000    251.51266   -3924.1023   -3493.0182   -3924.1023            0    1402.7846    17.978508    21.176308    21.933738    8350.5782    250.48865    2454.9424    1502.9229     1371.789   -32.012456    648.30325   -3322.1806 
 3516000    256.00245   -3951.4469   -3512.6675   -3951.4469            0    555.82276    18.004582     21.20702    21.965549    8386.9635    844.75709   -205.66262    1028.3738   -1072.6657    171.58163   -554.66555   -3444.6819 
 3517000    256.22056   -3930.4361   -3491.2828   -3930.4361            0    1622.9111    17.925659    21.114059    21.869262    8277.1531    2130.0524    1701.1865    1037.4944    1006.2925    320.21474    442.16902   -3295.3751 
 3518000    240.48033   -3937.0458   -3524.8707   -3937.0458            0    1209.9055    17.917294    21.104205    21.859057    8265.5704    1246.5709    1582.3778    800.76772   -626.16666   -252.52229    769.22498   -3379.0228 
 3519000    250.63301     -3914.83   -3485.2536     -3914.83            0   -357.22308    18.065827    21.279158    22.040267    8472.8422   -17.653341    -444.4409   -609.57499    269.74421    1.9416622    173.66049   -3529.3948 
 3520000    245.53904   -3917.3679   -3496.5224   -3917.3679            0    1949.9938    17.945689    21.137651    21.893699    8304.9307    3699.7535    601.36759    1548.8604     296.7482    1102.9683    473.52757   -3260.3413 
 3521000    258.10956   -3941.8803   -3499.4894   -3941.8803            0    2005.5039     17.87444    21.053729    21.806774    8206.4039    2572.5969    677.45551    2766.4594   -262.88783   -1091.4528    682.45806   -3259.4667 
 3522000    264.00203    -3897.704   -3445.2135    -3897.704            0    1028.1153    17.947379    21.139642    21.895761    8307.2777    961.64058     613.8599    1508.8454   -1762.7738   -326.81838   -59.464483   -3320.6541 
 3523000    243.05337   -3921.0404   -3504.4552   -3921.0404            0    2374.6021    17.770507     20.93131    21.679977    8064.0839    926.47524    2499.2413    3698.0899    443.56716    195.37435    1054.7138   -3225.1868 
 3524000    251.71337   -3856.1232   -3424.6951   -3856.1232            0    1407.8889      17.9449    21.136722    21.892736    8303.8354     1412.725    1686.6219    1124.3197    581.00389    146.57546   -95.583962   -3254.1956 
 3525000    250.00564   -3916.7006   -3488.1995   -3916.7006            0   -42.735169    18.003309     21.20552    21.963995    8385.1836   -868.73844    713.56837    26.964559      391.105   -228.95441   -31.799263   -3493.4255 
 3526000     248.7432   -3875.7643    -3449.427   -3875.7643            0    1196.5851    17.882145    21.062805    21.816176    8217.0222    615.62329    1273.7461     1700.386    95.434316    312.54463    1046.6983    -3306.032 
 3527000    256.21004   -3883.9354   -3444.8002   -3883.9354            0    2923.3225      17.8039    20.970642    21.720716    8109.6292    4152.4236    741.54191    3876.0019    194.81757    233.46691   -165.49709    -3099.057 
 3528000    246.36991   -3922.0985   -3499.8289   -3922.0985            0    1014.2408    17.750608    20.907872    21.655701    8037.0249    1172.4509   -269.25774    2139.5291   -768.91585   -329.41264    1111.8921   -3380.9479 
 3529000     242.5322   -3929.9448   -3514.2529   -3929.9448            0    823.45965    17.842687    21.016329    21.768037    8162.7479    1166.5232    341.00102    962.85477   -668.92697    2051.5572    601.52835   -3416.2239 
 3530000    261.35782   -3912.3485   -3464.3902   -3912.3485            0    467.28365    17.841077    21.014432    21.766072    8160.5378    261.65152   -590.37983    1730.5793   -796.08906   -370.75085    365.01216   -3408.7773 
 3531000    250.89222   -3873.6623   -3443.6416   -3873.6623            0    133.93701    18.020754    21.226067    21.985277    8409.5824    985.97759    1363.0834     -1947.25   -1213.8979    169.43844   -231.57662   -3427.2149 
 3532000    256.17585   -3899.2628   -3460.1861   -3899.2628            0    308.77712    17.914552    21.100976    21.855712     8261.777    829.86727   -170.68944    267.15352    -243.6441    393.93172   -601.71437   -3422.9817 
 3533000    253.06046   -3910.9369   -3477.1999   -3910.9369            0    1602.6864    17.941263    21.132438    21.888299    8298.7878    2453.6973    1187.7845    1166.5773   -948.76098    285.20758   -422.99408   -3283.2279 
 3534000    245.49069   -3936.6461   -3515.8834   -3936.6461            0    267.90861    17.905062    21.089798    21.844134    8248.6538    1964.5249    270.92353   -1431.7226    115.02747   -435.19253    27.395847   -3483.6545 
 3535000    254.44615   -3971.7238   -3535.6118   -3971.7238            0    1041.4279    17.886931    21.068441    21.822013    8223.6203    755.54252    1946.4327     422.3086   -384.08113     1462.957    85.594027   -3410.7101 
 3536000    243.09184   -3932.7854   -3516.1343   -3932.7854            0    1191.9118    17.857561    21.033847    21.786182    8183.1777    723.61607    3129.1534   -277.03399   -1329.2802    507.20741    791.44242   -3373.8876 
 3537000    258.03926   -3936.6352   -3494.3647   -3936.6352            0    588.70808    17.921293    21.108916    21.863935     8271.106   -268.05985    1081.4905     952.6936    294.69208   -567.97826    504.85786   -3423.3514 
 3538000    253.76287   -3943.5225   -3508.5817   -3943.5225            0    941.58241    17.936832    21.127219    21.882893    8292.6402    273.58868    1270.5652    1280.5933   -12.871076   -503.37774    829.69883    -3394.707 
 3539000    257.90648   -3950.7652   -3508.7223   -3950.7652            0   -302.65114    17.941425    21.132629    21.888496    8299.0117      809.876   -1626.3586   -91.470846    464.51993   -1343.9994    562.70735   -3545.3529 
 3540000    248.71344   -3951.0539   -3524.7676   -3951.0539            0   -28.621235    17.883821    21.064779     21.81822    8219.3323    13.687436    -160.8781    61.326957   -229.38944    108.39236   -225.50738   -3528.1984 
 3541000     245.8589   -3932.4466   -3511.0528   -3932.4466            0    876.43594    17.939254    21.130072    21.885848    8295.9997    115.40441    1152.8257    1361.0777   -899.40737   -86.657551     21.41155    -3405.014 
 3542000    246.01774   -3922.8432   -3501.1772   -3922.8432            0     1993.142    17.917235    21.104136    21.858984    8265.4885    283.22284    1318.9435    4377.2598    501.32741   -1228.9574    828.67969   -3260.9166 
 3543000    256.67328   -3927.5006   -3487.5714   -3927.5006            0    1394.2287    17.897041     21.08035    21.834348    8237.5732    1904.9681    1023.5765    1254.1414   -973.15664   -1513.4276    695.27703   -3320.0736 
 3544000    254.98359    -3921.693   -3484.6599    -3921.693            0    1984.9579    17.944886    21.136706    21.892719     8303.816    114.98545    2799.7058    3040.1824   -54.221587    662.01645   -551.92496   -3244.2762 
 3545000     245.6889   -3964.8289   -3543.7265   -3964.8289            0    1532.7183    17.861774     21.03881    21.791322    8188.9711    606.96666    2624.4926    1366.6955   -1231.7048    1182.8053   -335.73425   -3360.6774 
 3546000    251.85279   -3915.0692   -3483.4021   -3915.0692            0    56.109082    17.909131    21.094591    21.849098    8254.2785   -1627.6799    666.36412     1129.643    1383.4699   -596.70047    490.33865   -3476.6477 
 3547000    247.56832   -3913.5973   -3489.2736   -3913.5973            0    1176.0838    17.878355     21.05834    21.811551    8211.7978    1002.2035    1351.5341    1174.5137    1364.1481   -353.56061   -148.49178   -3348.4251 
 3548000    249.06945   -3903.9714   -3477.0749   -3903.9714            0    870.47534    17.874698    21.054033     21.80709    8206.7601    132.59745    888.07486    1590.7537    44.563096    18.238859   -1441.4549   -3372.8902 
 3549000    249.49087   -3889.9335   -3462.3147   -3889.9335            0     813.6674    17.892936    21.075515     21.82934    8231.9062    745.09551    7.0563104    1688.8504    710.73463     -513.461   -575.56886   -3364.6308 
 3550000    239.10992   -3897.0511   -3487.2249   -3897.0511            0    523.79784    17.882621    21.063366    21.816756    8217.6781    719.26943    1652.0313   -799.90726    -510.5718    854.58379   -166.84344   -3424.4496 
 3551000    254.19798   -3903.5521   -3467.8654   -3903.5521            0    1235.3833    17.972536    21.169274    21.926452    8342.2593    1944.5751    1880.9464    -119.3717    164.13802   -25.188183   -179.94371   -3317.5646 
 3552000    245.71859   -3923.7479   -3502.5947   -3923.7479            0    1835.9292    17.920237    21.107672    21.862647    8269.6445    2906.5206    1060.6158    1540.6512    522.45034    327.83242    440.47433   -3281.1737 
 3553000    232.21066   -3926.1155   -3528.1144   -3926.1155            0    1953.5559    17.832234    21.004016    21.755283     8148.409     1941.363     2416.306    1502.9986   -788.36284      616.563   -69.385117   -3295.9612 
 3554000    262.52328    -3927.634    -3477.678    -3927.634            0    2729.9137    17.872312    21.051223    21.804179    8203.4737    3581.7193    1372.7463    3235.2756    1163.9797    289.11655    589.78507   -3151.0732 
 3555000    256.48271   -3937.8612   -3498.2586   -3937.8612            0    950.20884    17.976893    21.174405    21.931767    8348.3271   -140.49811    2460.9719    530.15277     154.4061    1105.7111   -388.76327    -3382.569 
 3556000    254.53186   -3883.9813   -3447.7224   -3883.9813            0    807.63723    17.971924    21.168552    21.925705    8341.4066    1517.1756    72.769593    832.96652     156.6484    36.757197    1224.5592   -3349.4727 
 3557000    258.88409   -3948.8962   -3505.1777   -3948.8962            0    615.22794    17.939362    21.130199     21.88598    8296.1495   -311.21842    1724.7953      432.107   -525.77144   -521.88705    198.31739   -3430.7408 
 3558000      241.881   -3913.4599   -3498.8842   -3913.4599            0    1054.3641     17.97617    21.173553    21.930885    8347.3198     458.6765    764.01387    1940.4019      532.711    403.53778   -516.03257    -3370.529 
 3559000    262.53369   -3940.5478   -3490.5741   -3940.5478            0     1612.713    18.026634    21.232994    21.992452    8417.8182    1860.0069    2518.6243    459.50773    468.65825   -631.59885   -86.724031    -3292.589 
 3560000    236.73898   -3931.5096   -3525.7471   -3931.5096            0    95.658132    17.992128     21.19235    21.950354    8369.5708   -603.93539   -166.30342    1057.2132   -982.65231    853.88502   -202.69483   -3514.0709 
 3561000    248.48682   -3928.6369   -3502.7389   -3928.6369            0    1282.3998    17.994855    21.195562    21.953681    8373.3771    1695.4022    1947.2189    204.57821   -633.61944   -669.83657   -458.02799    -3346.136 
 3562000     248.0025   -3919.0185   -3493.9507   -3919.0185            0    921.60583    18.099917    21.319312    22.081857     8520.898    909.59058    200.08129    1655.1456   -37.482629    -854.5473   -476.30704   -3379.4241 
 3563000    266.61396    -3913.093   -3456.1258    -3913.093            0    432.89207     18.09774    21.316748    22.079201    8517.8237    1631.1077    -453.4614    121.02992   -226.96088    457.20388   -40.105778   -3402.3504 
 3564000     248.2033   -3914.7213   -3489.3094   -3914.7213            0     1693.627    17.914376    21.100769    21.855497    8261.5332    2020.8632    1049.6423    2010.3754    141.05246   -1742.0633    1802.7223   -3285.2511 
 3565000    242.97603   -3940.1859   -3523.7333   -3940.1859            0     1655.065    17.909619    21.095165    21.849693    8254.9531    994.32632    2371.1293    1599.7395   -918.26692     540.0997    531.35571     -3324.48 
 3566000    256.32452   -3893.3531   -3454.0216   -3893.3531            0    2583.6331    17.927642    21.116394    21.871681    8279.9002    1623.9907    3862.2895    2264.6192    1511.2743    138.05946   -1010.8999    -3142.038 
 3567000    243.74081   -3940.4424    -3522.679   -3940.4424            0   -64.027496    18.005026    21.207542    21.966089    8387.5831      -2043.5    631.56889    1219.8486   -743.13689    279.35232   -764.87308   -3530.5111 
 3568000    259.86167   -3946.7145   -3501.3205   -3946.7145            0    2077.9499    17.969032    21.165146    21.922177    8337.3802    1405.5719    3310.2206    1518.0573    552.41936   -323.64378    797.33931   -3248.6581 
 3569000    255.32205   -3990.2057   -3552.5925   -3990.2057            0    933.47044     17.96863    21.164672    21.921686    8336.8209   -125.58394    1868.8603     1057.135    1203.4209   -832.04979    102.73448   -3439.0974 
 3570000    245.88019    -3920.083   -3498.6528    -3920.083            0   -353.11961    17.994592    21.195253    21.953361    8373.0103     42.00518   -1059.1474   -42.216616    862.75828   -34.301242   -244.12441   -3541.7729 
 3571000    249.27369   -3940.3874   -3513.1409   -3940.3874            0    549.56805    17.929005       21.118    21.873345    8281.7893    1514.8336   -431.63459     565.5051   -538.48482    556.88685   -88.644434   -3446.7633 
 3572000    273.62168   -3901.1274   -3432.1492   -3901.1274            0    1667.3844    17.930292    21.119515    21.874914    8283.5721     2503.735    2637.4463   -139.02804    14.497786    107.04259    159.05534   -3230.7168 
 3573000    242.02375   -3932.8988   -3518.0784   -3932.8988            0    689.94224    17.906065    21.090979    21.845357    8250.0395    959.03276    343.80686     766.9871   -558.85501    1811.5304    -75.37283   -3435.0657 
 3574000    253.33837    -3926.051   -3491.8377    -3926.051            0    424.64848    17.998422    21.199764    21.958033    8378.3579    1128.0686    1284.5756   -1138.6987   -520.11453    116.86677   -451.54583     -3439.95 
 3575000    259.95975   -3919.6328   -3474.0707   -3919.6328            0    806.78681    17.832506    21.004337    21.755616    8148.7826   -187.33686    1324.7457    1282.9515     154.4033    150.16528    134.96284   -3378.1908 
 3576000    251.45722   -3917.2485   -3486.2595   -3917.2485            0    2445.1041    17.798967    20.964832    21.714698    8102.8908    2548.0259    1342.8647    3444.4217    540.05404    -220.5415   -451.19294   -3197.3158 
 3577000    241.25728   -3901.0537    -3487.547   -3901.0537            0    268.53201    17.889528    21.071501    21.825182    8227.2035   -634.10385    2141.5428   -701.84288   -186.32422    136.88178   -462.02015   -3455.3271 
 3578000    266.98384   -3883.1919   -3425.5907   -3883.1919            0    881.36155    17.898331    21.081869    21.835921     8239.354    566.76346    2597.2731   -519.95191   -396.27779   -429.47723    -279.3423   -3319.6841 
 3579000    241.92769   -3907.9094   -3493.2537   -3907.9094            0   -353.92156    17.979716    21.177731    21.935212     8352.262    721.82378   -185.92651   -1597.6619   -482.81568    350.94458   -228.33078   -3536.3646 
 3580000    260.31075   -3887.9326   -3441.7689   -3887.9326            0    379.19289    17.878786    21.058849    21.812078    8212.3926     560.2981    1156.2107   -578.93016   -6.9698144    900.93041    1268.8593   -3396.3532 
 3581000      240.818   -3906.9606   -3494.2068   -3906.9606            0   -29.298211    17.940318    21.131325    21.887146    8297.4759    503.08177   -238.11773   -352.85867    20.640813    778.84623   -687.70809   -3497.7522 
 3582000    254.12579   -3953.7333   -3518.1704   -3953.7333            0    1037.3628    17.910785    21.096539    21.851116    8256.5663    15.299769    1081.5595    2015.2293    943.42844    230.65867   -297.86976   -3393.2579 
 3583000    244.95825   -3934.5763   -3514.7263   -3934.5763            0    1066.6966    17.993144    21.193547    21.951594    8370.9893    700.12002    1420.1096    1079.8603    367.56194   -33.263436   -877.44586   -3384.5015 
 3584000    251.81789   -3870.6936   -3439.0864   -3870.6936            0    1322.6585    17.942628    21.134046    21.889965     8300.682    1044.9989    3051.7114   -128.73468     397.4884    646.76304   -1021.9332   -3278.9694 
 3585000    239.00954    -3898.672   -3489.0179    -3898.672            0    1063.4575    17.964691    21.160033    21.916881    8331.3396     1000.715    1727.8139    461.84381    101.07802    569.42832    154.89126   -3359.8035 
 3586000    257.33037   -3948.4395    -3507.384   -3948.4395            0    751.97248     17.96237    21.157299    21.914049    8328.1108    1255.2173    1088.2888   -87.588644    80.123383   -478.85557   -991.72162   -3416.0517 
 3587000    244.15172   -3927.7736   -3509.3059   -3927.7736            0    80.466284    18.038425    21.246882    22.006836    8434.3464     540.6461   -150.63615    -148.6111   -576.42363    171.11456     -357.325    -3499.408 
 3588000    252.74857   -3893.7425   -3460.5402   -3893.7425            0    1584.0199    18.104612    21.324841    22.087584    8527.5293     2090.053    2430.9176     231.0892   -419.72364     1054.375   -761.44774   -3263.5431 
 3589000    235.45111   -3933.8143   -3530.2592   -3933.8143            0    1232.0346     18.03915    21.247736     22.00772     8435.363    1223.4748    2563.7418   -91.112758    74.556249    137.67228   -775.65173   -3378.6929 
 3590000    249.67905   -3922.7408   -3494.7995   -3922.7408            0    658.74861     18.04344    21.252789    22.012955    8441.3831    642.33959    1714.3103   -380.40408   -452.66993   -179.41839   -1327.3267   -3413.7017 
 3591000    241.86057   -3933.9256   -3519.3848   -3933.9256            0    2098.0726    17.944854    21.136667     21.89268    8303.7709    1805.3548    1986.3734    2502.4895    776.04116   -898.98691     484.9947   -3265.3041 
 3592000    272.05265   -3939.8421   -3473.5532   -3939.8421            0    2209.4874    17.973746    21.170699    21.927929    8343.9446    1290.1935    2939.0557     2399.213   -67.624136    1407.7257     648.6354   -3204.6854 
 3593000    261.34466   -3980.5646   -3532.6288   -3980.5646            0     1712.759    18.023239    21.228995     21.98831    8413.0627    1284.6571    2198.2561    1655.3638   -166.93589    531.48702    308.02852   -3322.4803 
 3594000    237.40232   -3901.7726   -3494.8731   -3901.7726            0    1914.4406    18.029477    21.236343     21.99592    8421.8015    1481.4423    2863.6502    1398.2292    -1007.475     1425.996    1099.7806   -3259.7352 
 3595000    249.97434   -3951.1723   -3522.7248   -3951.1723            0     1082.669    18.084132    21.300719    22.062599    8498.6238    1351.1507    831.92532    1064.9309    499.07141    162.24532   -829.10636   -3388.5348 
 3596000    255.69466   -3910.2416   -3471.9897   -3910.2416            0     817.6799    18.136616    21.362537    22.126629    8572.8323    1226.8823    1355.2309   -129.07345    136.39238   -351.60334    1271.1101   -3369.7585 
 3597000    251.50625   -3929.3335   -3498.2604   -3929.3335            0    2463.2489    17.990894    21.190896    21.948848    8367.8485    3100.4505    1560.6126    2728.6834   -456.93415   -1298.4791    375.36148   -3197.6542 
 3598000    248.71518    -3956.787   -3530.4977    -3956.787            0    687.20661    18.100538    21.320043    22.082614    8521.7748   -37.605742    509.20364    1590.0219   -932.84294   -364.14791   -529.58152   -3445.0907 
 3599000    251.66402   -3921.5592   -3490.2157   -3921.5592            0    99.071833    18.136251    21.362108    22.126184    8572.3155   -1159.0632    -44.46339     1500.742   -279.05639    -445.9847    536.42849   -3477.8299 
 3600000    233.33201   -3926.7557   -3526.8326   -3926.7557            0    804.18134     17.95658    21.150479    21.906985    8320.0598    -603.3115    2530.9374    484.91816    910.75002   -552.96243   -283.39705   -3429.2536 
 3601000    229.58613   -3927.7491   -3534.2463   -3927.7491            0     1521.395    17.969264    21.165419     21.92246    8337.7035    33.414276    2754.6515    1776.1192    1392.8826    130.27485   -658.98797   -3349.2495 
 3602000    257.77729   -3917.8423   -3476.0209   -3917.8423            0    102.26285    17.978975    21.176858    21.934307    8351.2286    797.74238   -599.93225    108.97842    28.201675   -772.65043    79.347807   -3463.5659 
 3603000      251.046   -3913.9149   -3483.6307   -3913.9149            0    1359.7158    17.895049    21.078004    21.831918    8234.8226    81.443719    1005.1244    2992.5791    845.03346    131.79629    31.034285   -3320.3336 
 3604000    243.51259   -3895.3025   -3477.9303   -3895.3025            0    2649.8437    17.868942    21.047253    21.800067    8198.8341    2266.0866    3345.7192    2337.7254    421.30756   -903.80666     498.9989   -3161.0843 
 3605000    257.79325   -3908.9081   -3467.0593   -3908.9081            0   -400.64515    17.909149    21.094612    21.849121    8254.3042   -295.35544    776.50847   -1683.0885    420.97106    -636.0121   -73.146952   -3515.2892 
 3606000    246.24359   -3916.0073   -3493.9542   -3916.0073            0    749.84672    17.841735    21.015208    21.766876    8161.4415   -100.51532    633.99986    1716.0556   -304.52656     313.0533   -85.057236   -3404.7028 
 3607000    247.64322    -3934.556    -3510.104    -3934.556            0    1152.4576    17.987092    21.186419     21.94421    8362.5448   -815.55203    2201.5313    2071.3935   -980.95897   -278.91064    253.81878   -3369.5513 
 3608000    244.88697   -3888.6456   -3468.9177   -3888.6456            0   -28.160944    17.929523     21.11861    21.873976    8282.5064   -1022.3363    995.68396   -57.830484   -439.10651    388.21339    1065.4083   -3472.3193 
 3609000    251.70121   -3908.1258   -3476.7186   -3908.1258            0    731.99351    18.026734    21.233112    21.992574    8417.9581    1380.4934    1786.5327    -971.0456    112.13238   -1069.1924    713.45154   -3386.8537 
 3610000    246.95548   -3926.5928   -3503.3195   -3926.5928            0    811.43133    17.919917    21.107296    21.862257     8269.202    1175.0946    399.98423    859.21515    354.84286   -367.03277    210.58419   -3405.4627 
 3611000    251.84263   -3913.0288   -3481.3792   -3913.0288            0     1447.892     17.98175    21.180126    21.937693     8355.096    1450.9948    2508.0455    384.63574    393.44463   -147.80012    1288.1274   -3304.9528 
 3612000    243.18714   -3906.1523   -3489.3379   -3906.1523            0    356.13917    17.998999    21.200444    21.958737    8379.1634    79.721991   -645.81925    1634.5148   -355.38572    1278.4958     1442.476   -3445.8171 
 3613000    237.02024   -3884.2748   -3478.0302   -3884.2748            0    2304.5618    17.916416    21.103171    21.857986    8264.3556    2279.7173    2560.3963     2073.572   -293.32105   -472.93272     692.9314    -3200.268 
 3614000     271.9223   -3905.6453   -3439.5798   -3905.6453            0    1983.3202    17.877571    21.057417    21.810595    8210.7175    2067.6003    2993.9244    888.43601   -843.92682   -1114.3406   -1894.7769   -3202.0873 
 3615000     257.7843   -3889.7515    -3447.918   -3889.7515            0    1629.3435    17.923272    21.111247     21.86635    8273.8467    2355.9011    748.96719    1783.1623   -729.02406    861.42255   -1113.9259   -3251.3123 
 3616000    242.84052   -3886.1824   -3469.9621   -3886.1824            0    2535.2841    17.838351    21.011222    21.762747    8156.7984    3361.3017    2176.3678    2068.1828    2371.0913    287.92372   -290.04327   -3168.3684 
 3617000    250.01412   -3933.8228   -3505.3071   -3933.8228            0   -443.18727    17.931296    21.120698    21.876139    8284.9638   -176.74927    225.70506   -1378.5176   -635.89668   -718.88336    824.72096   -3558.8564 
 3618000    253.67336   -3943.3758   -3508.5884   -3943.3758            0    1122.7232    17.916278    21.103009    21.857818     8264.165     299.7714    2390.8388    677.55938    1581.3621   -1150.9317    102.45419   -3373.2729 
 3619000    254.93102   -3928.1447   -3491.2017   -3928.1447            0    435.10737    18.008172    21.211247    21.969927    8391.9801    -6.762058     1032.743    279.34121    338.52192    150.87479   -1282.0288   -3437.9496 
 3620000    242.91615   -3915.4865   -3499.1366   -3915.4865            0    848.22136    17.914741    21.101198    21.855942    8262.0377    2097.0324    1714.2267   -1266.5951   -787.61794    518.23876    342.72676   -3396.9315 
 3621000    252.27858   -3945.2245   -3512.8277   -3945.2245            0    1371.3067    17.861931    21.038996    21.791515     8189.188    779.98604    1521.5765    1812.3575    210.89866   -580.67141    290.20589   -3349.0513 
 3622000    258.58137   -3879.7767   -3436.5771   -3879.7767            0    1420.4699    17.925792    21.114215    21.869424    8277.3373    1238.4039    1824.4529    1198.5529    102.01878    823.65532    130.63928    -3265.103 
 3623000    235.13851   -3919.7334   -3516.7141   -3919.7334            0    467.13618    17.956728    21.150654    21.907166    8320.2657    168.64124   -14.939152    1247.7064    -278.5289   -196.67435   -395.98706   -3460.0306 
 3624000    260.23267   -3922.9026   -3476.8727   -3922.9026            0    699.87428    18.024106    21.230016    21.989368    8414.2772    168.21479   -739.79918    2671.2072    420.27291   -758.20405   -964.17082   -3390.9886 
 3625000    270.65896   -3923.8345   -3459.9343   -3923.8345            0    780.68873    18.001403    21.203275     21.96167    8382.5214    1284.2222    272.56855    785.27545    320.16847    499.27357    272.07487   -3364.4948 
 3626000    249.63861   -3951.0117   -3523.1397   -3951.0117            0    1713.1982     17.99599    21.196899    21.955065    8374.9611    623.66952    2048.2365    2467.6886    2040.1961    857.95149    82.352089   -3313.8893 
 3627000    253.95304   -3921.9483   -3486.6815   -3921.9483            0     736.0891    18.005726    21.208367    21.966944    8388.5615    161.72243    1938.3629    108.18195   -30.088322   -971.54096   -340.74005   -3396.6294 
 3628000    254.28949   -3954.9119   -3519.0684   -3954.9119            0    1382.0563    17.997734    21.198953    21.957193    8377.3964    2474.9977    194.77932     1476.392    564.13786    364.44658    219.25581   -3350.2147 
 3629000    257.71442   -3921.6885   -3479.9749   -3921.6885            0    424.13962     18.11911    21.341918    22.105271    8548.0321    719.24272    346.28991    206.88622   -228.77437    -549.2855    1151.4114   -3427.0998 
 3630000    233.87743   -3922.7645   -3521.9066   -3922.7645            0    1670.2786    17.968175    21.164137    21.921131    8336.1877    1236.8185     1965.186    1808.8314    651.74851   -113.56564   -260.93155   -3318.8429 
 3631000    255.44026   -3942.9938   -3505.1779   -3942.9938            0    826.50213    17.896969    21.080266    21.834261    8237.4742    468.90995    668.19759    1342.3989    6.1021918   -678.33011   -790.17511    -3405.886 
 3632000    246.70363   -3872.2706    -3449.429   -3872.2706            0    1544.7458    17.901002    21.085015     21.83918    8243.0435    1830.7322    1849.5953    953.90984     -826.239     275.5449   -176.86506   -3263.7253 
 3633000    240.20745   -3895.3247   -3483.6173   -3895.3247            0     709.0017    17.953177    21.146472    21.902834    8315.3313   -749.98558    1202.2844    1674.7063    1042.3476    1513.1615   -412.30167   -3397.6363 
 3634000    246.43522   -3945.0308   -3522.6493   -3945.0308            0    2662.4195    17.805719    20.972785    21.722936    8112.1161    423.82181    4385.7699    3177.6667    97.154163    170.68214    267.23393   -3207.6667 
 3635000    238.35962   -3932.7878   -3524.2475   -3932.7878            0    501.89017    17.917929    21.104954    21.859832    8266.4501    318.07149    1539.7128   -352.11379     19.37069    847.03047   -257.99053   -3463.7408 
 3636000    264.18887    -3929.652   -3476.8413    -3929.652            0    159.82888    17.819258    20.988732    21.739453    8130.6348      695.083   -93.743046    -121.8533    364.22437   -760.97696    327.12625   -3457.8893 
 3637000    237.15926   -3907.0173   -3500.5344   -3907.0173            0    1328.8056      17.7547    20.912691    21.660692    8042.5838    1029.1493    2068.4919    888.77554    711.71488    994.02407    7.9473552   -3344.6751 
 3638000    256.22466   -3908.0816   -3468.9213   -3908.0816            0    1492.2339      17.7103    20.860394    21.606524    7982.3972    1255.5194    2967.0377    254.14472   -94.025853   -350.92425   -281.64277   -3295.2028 
 3639000    240.88374   -3934.2712   -3521.4047   -3934.2712            0    504.35419    17.757552    20.916051    21.664172    8046.4609     1971.273   -326.21187   -131.99851    1073.6634    1933.6016    928.14626    -3462.219 
 3640000    247.28806   -3908.5281   -3484.6849   -3908.5281            0    1410.9561    17.876193    21.055795    21.808914    8208.8199    629.63499    2208.6165    1394.6168    356.49717    1805.9016   -1307.9872   -3315.7691 
 3641000    251.12134   -3921.8844   -3491.4711   -3921.8844            0   -25.081543    17.866446    21.044314    21.797023    8195.3994   -570.33077   -134.12863    629.21478    94.786102   -663.77875    -527.5032   -3494.4688 
 3642000     242.9599   -3906.6028   -3490.1778   -3906.6028            0   -104.04643    17.884502     21.06558     21.81905    8220.2705    399.09989   -28.277374    -682.9618    967.89839    2054.2993   -1480.1913   -3502.6513 
 3643000    235.10465   -3877.9491   -3474.9877   -3877.9491            0    408.01764    17.844531      21.0185    21.770286    8165.2783   -650.81234    42.700771    1832.1645     -268.494    587.81979    484.50505   -3426.4001 
 3644000    247.69546   -3899.5707   -3475.0291   -3899.5707            0    1559.1056    17.814017    20.982559     21.73306    8123.4629    259.30097     1693.883    2724.1327   -625.88347    -198.2662   -2.4672757   -3290.3182 
 3645000    263.23222   -3878.4539   -3427.2829   -3878.4539            0    1565.1855    17.887811    21.069479    21.823088    8224.8347    2312.3489     1190.825    1192.3827    682.42027    320.57901   -1032.4923   -3239.5377 
 3646000    249.60979   -3907.2373   -3479.4147   -3907.2373            0    735.65088    17.968628     21.16467    21.921684     8336.818   -626.65007    2735.5322    98.070478    31.555258    206.85148    317.40017   -3389.9713 
 3647000    243.93871   -3927.8815   -3509.7789   -3927.8815            0    632.62117    17.837889    21.010677    21.762183    8156.1643    -269.8137    1100.1868    1067.4904    217.04252    381.17641    51.243852    -3434.529 
 3648000     247.0971   -3935.2348   -3511.7188   -3935.2348            0   -679.72921    17.939145    21.129943    21.885715    8295.8485   -1351.5774   -413.83159   -273.77867   -1395.6833   -537.65239    681.96861   -3593.9569 
 3649000    260.53127   -3885.9357   -3439.3941   -3885.9357            0    514.94615    17.972966    21.169779    21.926976    8342.8574   -951.96272    1418.2776    1078.5235    853.63685   -265.93226    434.88574   -3376.7395 
 3650000     247.7744   -3918.0525   -3493.3756   -3918.0525            0    1844.0077    17.861862    21.038915     21.79143    8189.0931    1062.4489    2588.0283    1881.5459   -92.237694   -1290.9052   -36.619237   -3273.1467 
 3651000    254.03465   -3874.4414   -3439.0347   -3874.4414            0    3521.7221    17.781912    20.944743    21.693891    8079.6201    4303.0574    3337.5896    2924.5193    536.30298   -590.84059   -234.61893   -3024.0597 
 3652000    235.15655   -3904.5684   -3501.5181   -3904.5684            0   -456.55381    17.837331     21.01002    21.761502    8155.3989    -925.9877   -2693.8509    2250.1772    224.01715   -742.86368   -175.94137   -3555.8198 
 3653000    256.54981   -3908.8374   -3469.1198   -3908.8374            0    981.57047    17.849082    21.023861    21.775839    8171.5277    1634.0748   -188.68628    1499.3229   -420.60671   -1799.0278    631.89342   -3352.1428 
 3654000     239.7873   -3912.0733   -3501.0861   -3912.0733            0    850.04978    17.828901     21.00009    21.751218    8143.8414    875.51292    2014.3594   -339.72296   -1446.4342    722.81616   -125.95393    -3400.126 
 3655000    245.13903   -3914.0439    -3493.884   -3914.0439            0    1096.5878    17.802807    20.969355    21.719383    8108.1366    1413.4863   -523.36753    2399.6445   -683.52862    672.77569   -406.24668   -3364.2138 
 3656000    229.73323   -3930.1284   -3536.3735   -3930.1284            0    500.56392    17.910983    21.096772    21.851357    8256.8392      2152.63    -514.1381   -136.80013    852.20812    460.54555    33.762678   -3476.0968 
 3657000    255.68407   -3943.2634   -3505.0297   -3943.2634            0    1275.6169    17.734495    20.888893    21.636043    8015.1579    1862.6929    1498.7905    465.36714    94.606485   -315.88065    173.71399   -3355.9192 
 3658000    249.11782   -3917.9736   -3490.9942   -3917.9736            0    2399.7865    17.812625    20.980919    21.731361     8121.558    3377.1339    746.12109    3076.1047    273.15446   -895.07953    683.55822   -3206.7525 
 3659000    242.64744   -3904.7877   -3488.8982   -3904.7877            0    1671.8682    17.885212    21.066417    21.819917    8221.2503    1088.8027    1361.0489    2565.7532    -451.8119   -31.028516   -486.98559   -3288.4437 
 3660000    257.74591   -3906.0561   -3464.2885   -3906.0561            0    358.15846    18.022816    21.228496    21.987793    8412.4699    1332.5851   -421.20621    163.09648    106.41824   -1072.3686   -340.08465    -3420.347 
 3661000    249.95968   -3955.1369   -3526.7146   -3955.1369            0    159.89243    17.946893    21.139069    21.895168    8306.6021    490.74808     409.7414   -420.81219    -273.2479   -1104.2561    280.71566   -3507.3447 
 3662000      248.008    -3927.871   -3502.7938    -3927.871            0     1350.498     17.88457    21.065661    21.819134     8220.365    272.51466    429.60431     3349.375   -960.46443   -168.45644    463.57704   -3340.8885 
 3663000    266.17471   -3946.0075   -3489.7932   -3946.0075            0    2092.5801    17.742769    20.898639    21.646137    8026.3817    635.04511    2359.1374    3283.5578   -37.480442   -771.05875    768.05624    -3244.843 
 3664000    244.42447   -3912.9245   -3493.9893   -3912.9245            0    1447.9345    17.805379    20.972385    21.722521    8111.6513    330.44131    2799.1635    1214.1988   -208.06264   -389.84605    451.90965   -3322.6985 
 3665000    253.42015   -3918.5821   -3484.2286   -3918.5821            0    1606.9691     17.83026    21.001691    21.752876    8145.7043    680.29938     2560.887    1579.7208    1046.7987    902.66705   -320.03487   -3293.3259 
 3666000     241.3699   -3884.2538    -3470.554   -3884.2538            0    269.39545    17.915952    21.102625    21.857419    8263.7134    1096.4289    515.43731   -803.67984   -108.41155   -43.742066   -974.10395   -3438.0871 
 3667000    237.56677   -3907.9712   -3500.7899   -3907.9712            0    211.31177    17.815558    20.984374    21.734939    8125.5708   -758.90045     342.8834    1049.9524     1455.251   -573.31595   -458.47344   -3475.7487 
 3668000    261.77831   -3892.9946   -3444.3155   -3892.9946            0     351.1493    17.835293    21.007619    21.759015    8152.6033    667.40148    660.18922   -274.14281    389.49092    379.13528    462.91967   -3402.5648 
 3669000    256.50957   -3881.0025   -3441.3539   -3881.0025            0    772.48569    17.888244    21.069988    21.823616    8225.4317    656.35764   -264.09938    1925.1988   -16.528816   -272.46147    644.61946   -3348.6869 
 3670000    251.24971   -3867.5056   -3436.8722   -3867.5056            0    995.31368    17.877474    21.057303    21.810477    8210.5845    1820.7452    234.73401    930.46181    176.32488   -337.91783    362.64279   -3317.6904 
 3671000    239.12638   -3855.6917   -3445.8372   -3855.6917            0     833.4916    17.861302    21.038255    21.790747    8188.3228    811.36156    1161.7898    527.32343   -260.00636   -476.90273   -992.08451   -3346.3031 
 3672000    260.51475   -3907.8027   -3461.2893   -3907.8027            0    2337.1957    17.831574    21.003238    21.754478    8147.5045     1513.476    2738.8731    2759.2381   -1010.1598   -320.16796   -292.67814   -3183.5768 
 3673000    240.89807   -3896.1281    -3483.237   -3896.1281            0    1069.5378    17.908621     21.09399    21.848476    8253.5739    461.22753    1772.3178    975.06797   -191.21663     930.5136    1305.9445   -3354.4969 
 3674000    247.34634   -3935.8374   -3511.8943   -3935.8374            0    1162.8411    17.856985     21.03317     21.78548    8182.3865    -603.6502    1573.9589    2518.2146    317.39508   -1146.1146    1224.1184   -3373.1304 
 3675000    244.65857   -3891.1243   -3471.7878   -3891.1243            0    480.36526    17.940627    21.131689    21.887523    8297.9045   -109.71419    573.59727     977.2127    300.71767    15.924072    1491.6747   -3413.6558 
 3676000    247.93663   -3924.5665   -3499.6116   -3924.5665            0     1395.874    17.882207    21.062878    21.816251    8217.1068    3337.8621    879.02675   -29.266931   -672.65912   -593.09213   -1183.7143   -3332.3327 
 3677000    260.96057   -3895.9357   -3448.6583   -3895.9357            0    1793.6698    17.884412    21.065475    21.818941    8220.1474    1137.4635    3349.4177    894.12836    215.63438    939.11698    611.86896   -3233.6288 
 3678000      258.112   -3909.1851   -3466.7899   -3909.1851            0    1826.1198    17.871282    21.050009    21.802922    8202.0553    3267.5875    1148.0153    1062.7566    397.15013    330.92824   -893.01391   -3248.3521 
 3679000    244.56677   -3915.7296   -3496.5505   -3915.7296            0    94.266922    17.924032    21.112142    21.867277    8274.8991    1496.9388   -1239.8451    25.707049   -812.79726   -76.771897   -623.74344   -3485.1743 
 3680000    259.03567   -3943.3035   -3499.3252   -3943.3035            0    586.46043    17.871441    21.050197    21.803116    8202.2748   0.43268101    1064.2681    694.68049   -129.70971   -190.10604    339.59053   -3429.1718 
 3681000    252.45787   -3899.5982   -3466.8941   -3899.5982            0    1614.7507    17.894285    21.077105    21.830986    8233.7689    1841.0713    2161.3645    841.81637   -500.90045    995.13764     -850.312   -3272.9931 
 3682000    278.94105   -3932.4087   -3454.3133   -3932.4087            0    1917.6325    17.894566    21.077435    21.831328    8234.1556    1814.7975    1452.9595    2485.1405   -788.29639    592.83782    52.506355   -3224.0311 
 3683000    244.80293   -3919.3944   -3499.8105   -3919.3944            0    231.28672    17.911067    21.096871     21.85146    8256.9559    1078.5746   -777.63131    392.91689    678.49586   -54.846172   -595.73451   -3471.9592 
 3684000    232.69011   -3896.2284   -3497.4055   -3896.2284            0    2942.9972    17.820431    20.990113    21.740884    8132.2397    2905.6094    2645.3645    3278.0177     1929.697    1020.7396   -447.50832    -3148.365 
 3685000    252.54746   -3882.5248   -3449.6671   -3882.5248            0    993.11361    17.984764    21.183676     21.94137    8359.2981    1480.9081    676.86848    821.56422   -541.97858   -540.62227    308.28412   -3328.5949 
 3686000    261.89741   -3918.1541   -3469.2709   -3918.1541            0   -52.096656    17.880185    21.060496    21.813784    8214.3198   -113.81002   -816.10179    773.62184    980.41946   -841.08301    575.43402    -3475.512 
 3687000    242.37245   -3910.2874   -3494.8693   -3910.2874            0    1945.4577    17.783028    20.946058    21.695252    8081.1415    2091.4337    1989.1122    1755.8273   -322.99674    542.55759    187.83277   -3265.5871 
 3688000    253.04392   -3896.9045   -3463.1959   -3896.9045            0      1853.51    17.959537    21.153963    21.910594    8324.1715    2664.2849    640.35808     2255.887   -901.57904    170.82668    784.39657   -3238.1807 
 3689000    236.98285   -3930.4504   -3524.2699   -3930.4504            0    -231.2078    17.953545    21.146905    21.903283    8315.8426   -280.97674    111.09669   -523.74334    86.121956    1002.0467    178.88834   -3552.3104 
 3690000     267.2263   -3906.5101   -3448.4934   -3906.5101            0    1385.6598    17.976457    21.173891    21.931235    8347.7197    2381.6338    2198.7842   -423.43855   -598.67705    690.45226   -756.60555   -3279.7991 
 3691000    253.87325    -3935.491   -3500.3609    -3935.491            0    513.50467     17.95408    21.147534    21.903935    8316.5853   -318.14637    942.72506    915.93532    566.69049     637.5249   -1079.3116   -3438.0785 
 3692000    249.15809   -3925.7783   -3498.7298   -3925.7783            0    1960.5244    17.862625    21.039813    21.792361    8190.1424    2463.6676     2548.653    869.25254   -2137.0385   -131.35617   -323.40021   -3264.5553 
 3693000    249.00727   -3916.7629   -3489.9729   -3916.7629            0    3102.2453    17.880925    21.061368    21.814686    8215.3395    3126.2189    3234.6338    2945.8832   -20.085088   -737.28883    -342.9267   -3118.2858 
 3694000    262.04233   -3918.7854   -3469.6538   -3918.7854            0   -102.82548    17.953003    21.146266    21.902622    8315.0892    775.83284   -1555.6631    471.35387    769.42803    338.38845   -1403.4269   -3482.1232 
 3695000    256.78648   -3936.0716   -3495.9483   -3936.0716            0    1790.9218    17.866716    21.044631    21.797352    8195.7704    1428.2545    2578.5266    1365.9843    -670.1157   -172.99783   -493.24254    -3281.885 
 3696000    250.61897   -3906.4813    -3476.929   -3906.4813            0    336.92987    18.058876     21.27097    22.031786    8463.0657    969.34579   -1880.3561       1921.8   -861.77634    1790.7219   -1057.6322   -3435.3433 
 3697000    248.42463   -3899.6914   -3473.9001   -3899.6914            0    1560.7716    17.916544    21.103322    21.858142     8264.533    1987.1989    755.31969    1939.7961   -1488.4675    95.088338   -448.34167   -3285.7807 
 3698000    260.79732    -3919.732   -3472.7343    -3919.732            0    148.07559    17.891919    21.074317    21.828099    8230.5023   -1042.4379    934.78891    551.87571   -529.00685    1079.7567    1141.9944   -3454.9603 
 3699000    248.32908    -3883.192   -3457.5645    -3883.192            0    1645.8919    17.828925    21.000119    21.751247    8143.8743    2775.0465    421.01783    1741.6113    654.12495     200.0038    1554.0224   -3262.0818 
 3700000    248.02878   -3907.4677   -3482.3548   -3907.4677            0    4.4277252    17.862071     21.03916    21.791684    8189.3793    560.87945   -1886.0316    1338.4354    -174.3834    668.92314   -318.27868    -3481.826 
 3701000    239.61816    -3900.469   -3489.7716    -3900.469            0    57.631366    17.954258    21.147744    21.904153     8316.833   -880.28198    1265.7231   -212.54705   -510.73633   -1369.0222   -74.455585   -3482.7814 
 3702000    259.64373   -3934.2037   -3489.1833   -3934.2037            0    947.20294    17.916416    21.103172    21.857986    8264.3561    283.27392    1451.7966    1106.5383     399.5872    121.46695    328.38577   -3375.0196 
 3703000    245.82158   -3944.9472   -3523.6174   -3944.9472            0    653.44284    17.958013    21.152167    21.908734    8322.0522    187.47859    976.03592      796.814   -29.016003    67.556654    958.36262     -3444.31 
 3704000    244.66056   -3940.8272   -3521.4874   -3940.8272            0    1884.4587    17.959399      21.1538    21.910425    8323.9793    2234.3138    2583.7577    835.30462    784.12692   -552.28986   -839.35221   -3292.7203 
 3705000    234.46677   -3929.8755   -3528.0074   -3929.8755            0    977.28398    17.947962    21.140329    21.896472     8308.087    744.03616    605.64524    1582.1705   -48.306815    520.19281   -791.97175   -3409.5949 
 3706000    234.00822    -3893.358   -3492.2759    -3893.358            0     1974.038    17.864977    21.042583     21.79523    8193.3777    1951.6954    1919.7262    2050.6924    895.74582    1439.9821   -525.47798   -3256.3941 
 3707000    256.38262   -3937.7062   -3498.2752   -3937.7062            0    959.42552    17.884132    21.065145    21.818599    8219.7605    1545.8332   -505.60759    1838.0509   -1036.4609   -585.53892   -777.05678   -3383.2623 
 3708000    237.16132   -3878.5099   -3472.0236   -3878.5099            0    1291.6276    17.818956    20.988377    21.739085    8130.2215    841.35939    1486.8431    1546.6804   -315.46435    687.20051    753.79794   -3318.8741 
 3709000    250.46116   -3940.9398   -3511.6579   -3940.9398            0    556.62762    17.863402    21.040728    21.793309    8191.2108    833.00787    982.05922   -145.18421   -315.44712   -399.30138   -118.92753   -3445.1629 
 3710000    264.37349   -3924.8149   -3471.6878   -3924.8149            0    2832.6093    17.847975    21.022557    21.774488    8170.0069    1534.3111    3328.9574    3634.5593   -658.94415    539.63633   -141.19736   -3134.1791 
 3711000    256.01423    -3954.504   -3515.7044    -3954.504            0    549.35071    17.865803    21.043556    21.796238     8194.514    1170.7741    176.00081    301.27723    888.45409   -972.47915   -393.63545   -3450.0523 
 3712000    255.48977      -3942.8   -3504.8993      -3942.8            0    741.38721    17.946594    21.138717    21.894803    8306.1871     575.2436    1273.4167    375.50135   -1794.1041    -196.6239   -904.84458   -3415.0897 
 3713000     263.4501   -3930.1704    -3478.626   -3930.1704            0    2128.9687    17.933353    21.123121    21.878649    8287.8161    2457.3737    1853.9813    2075.5512    256.59793   -1113.1683    832.59454    -3221.299 
 3714000     245.5391    -3924.087   -3503.2414    -3924.087            0    2518.3708     17.80493    20.971856    21.721973    8111.0377    2440.0687     2066.676    3048.3676   -598.35772   -1240.3582    463.87704   -3205.3404 
 3715000    239.82806   -3994.0701    -3583.013   -3994.0701            0    527.03467    17.904132    21.088702    21.842999     8247.368   -140.89197   -312.71643    2034.7124    705.67707     1177.975   -43.105984   -3519.6216 
 3716000    246.79393   -3936.8634   -3513.8671   -3936.8634            0    1204.0844    17.874901    21.054272    21.807337     8207.039    1521.1695    1086.0666    1005.0172    351.00892    210.50273    552.52493   -3369.7487 
 3717000    245.36331   -3927.8931   -3507.3488   -3927.8931            0    2493.0916     17.85564    21.031585    21.783839    8180.5377    2670.6784    1160.0597    3648.5367    306.56641   -222.87316    359.69553   -3209.9111 
 3718000    251.38042   -3894.2894   -3463.4319   -3894.2894            0    546.16258     17.89354    21.076226    21.830076    8232.7393    356.81689    57.308129    1224.3627   -106.26721   -257.36344   -533.66038   -3397.8563 
 3719000    260.28095   -3916.6111   -3470.4985   -3916.6111            0    619.30976    17.910566    21.096281    21.850849    8256.2633    1206.5583    329.66758     321.7034   -334.55281    297.26491    1058.1483   -3395.9279 
 3720000    246.33255     -3927.82   -3505.6145     -3927.82            0    1131.2377     17.75019    20.907379     21.65519    8036.4562    1730.5354    772.84984    890.32799   -700.11303    795.71306    742.08758   -3373.0295 
 3721000     243.2751   -3891.8253     -3474.86   -3891.8253            0    1398.8131    17.810568    20.978496    21.728851    8118.7444    1850.4766    2338.6551    7.3076226   -613.60028    836.32543    -1289.518   -3309.2356 
 3722000    256.49906   -3941.0572   -3501.4266   -3941.0572            0    233.94909    17.930524    21.119789    21.875197    8283.8938   -257.07861    1134.4613   -175.53537   -1235.4175   -460.80512    1153.1677   -3473.1627 
 3723000    234.23517   -3880.0892   -3478.6181   -3880.0892            0    1072.3892    17.863922    21.041341    21.793943    8191.9264    999.68936    1385.1723    832.30603   -268.73964   -391.96594    916.17497   -3350.4989 
 3724000    238.94291   -3875.6774   -3466.1374   -3875.6774            0    1816.3558    17.932636    21.122276    21.877774    8286.8212   -4.5402587    3768.4398    1685.1678    774.70815   -195.39075    168.87637   -3246.6221 
 3725000    258.14267   -3904.2531   -3461.8054   -3904.2531            0    1316.7227    18.077155    21.292501    22.054087    8488.7909    748.33483    1282.9812    1918.8521    58.673083   -388.09128    372.49901   -3298.7947 
 3726000    245.94659   -3863.1299   -3441.5859   -3863.1299            0    2051.7415    17.944111    21.135792    21.891773    8302.7396    2340.1913    2529.9407    1285.0926    185.25652    244.87643    384.82431   -3193.1468 
 3727000    255.93863   -3824.4314   -3385.7614   -3824.4314            0    607.19832    17.917297    21.104209     21.85906    8265.5747    2608.2689   -761.33763   -25.336335   -1125.4801    1134.5777    1065.4492   -3312.5667 
 3728000    257.69066   -3864.1908   -3422.5178   -3864.1908            0    1292.5489     17.95254    21.145721    21.902057    8314.4454    1554.0492    1349.5882    974.00937   -167.67994    -1204.068   -1499.9286   -3265.7863 
 3729000    253.27146   -3897.6744   -3463.5758   -3897.6744            0    702.17368    18.000102    21.201743    21.960083    8380.7039    28.940634    397.95566    1679.6248    1539.4183   -855.67193   -194.65901   -3377.7533 
 3730000    253.17009   -3877.4393   -3443.5144   -3877.4393            0    1210.3061    17.970453     21.16682     21.92391    8339.3585    1381.6559     1551.727    697.53551   -941.67837   -161.93859    832.41088   -3296.3158 
 3731000    248.05898   -3885.9739   -3460.8093   -3885.9739            0    807.01089    18.018878    21.223858    21.982989    8406.9568   -970.50091    2374.2115    1017.3221    1832.0846    49.619878   -97.329025   -3361.8642 
 3732000    248.87761   -3897.9301   -3471.3624   -3897.9301            0    -65.55058    17.991591    21.191718    21.949699    8368.8214     731.5528   -175.98145   -752.22309    147.86979    829.95621    607.11189   -3479.3629 
 3733000    242.79059   -3900.1335   -3483.9988   -3900.1335            0     1817.266    17.877492    21.057324    21.810498    8210.6083     2449.856     2726.374    275.56815   -682.97903    536.41763   -391.58504   -3266.3933 
 3734000    247.67769   -3893.8017   -3469.2906   -3893.8017            0    1161.2997    17.960311    21.154874    21.911538    8325.2476    396.99685    2434.3605    652.54174   -474.86912    586.88068   -19.749831   -3328.2912 
 3735000    245.97488   -3929.6719   -3508.0793   -3929.6719            0    432.27106    18.022689    21.228347    21.987639    8412.2927     229.9437   -1043.5091    2110.3786   -736.65063    1025.7071    294.01687   -3455.0463 
 3736000    242.75467    -3900.365   -3484.2919    -3900.365            0    1545.4724    18.052763    21.263771    22.024329    8454.4754     847.9642    1859.3971    1929.0558   -10.688337    41.000586    151.33312   -3293.7353 
 3737000    262.29713   -3936.4968   -3486.9285   -3936.4968            0    702.19755    18.033108    21.240619     22.00035    8426.8904    618.42914   -270.08318    1758.2467    440.96546   -885.38015    578.55858   -3400.6301 
 3738000    259.68399   -3917.2341   -3472.1447   -3917.2341            0    2354.5937    17.956376    21.150239    21.906736    8319.7761    2005.5184    1989.3304    3068.9324    273.94808    383.61769   -304.83551   -3186.4491 
 3739000    254.56642   -3923.2208   -3486.9027   -3923.2208            0    971.48133    18.078475    21.294055    22.055697      8490.65    1339.7072    38.229478    1536.5073    238.05796    476.01954    714.87584   -3366.6066 
 3740000    252.78242   -3927.1723   -3493.9118   -3927.1723            0    491.78313    18.069697    21.283716    22.044988    8478.2885     941.7479    20.850547    512.75095   -428.25693   -1150.4643    658.56477   -3433.1043 
 3741000    253.44358    -3943.675   -3509.2814    -3943.675            0     455.9623    18.020924    21.226269    21.985486    8409.8217     850.2485    694.82944   -177.19103   -30.071156    57.609754    915.21762   -3453.3582 
 3742000    254.58944   -3908.4856    -3472.128   -3908.4856            0    162.37067    18.012874    21.216787    21.975665    8398.5567   -62.784816    704.37199   -154.47517     109.2364    1413.4237     512.6764   -3452.2401 
 3743000    259.51053   -3913.2001   -3468.4079   -3913.2001            0    942.89927    18.026203    21.232486    21.991926    8417.2141    1580.3899    472.63324    775.67464   -161.32706    340.92631   -103.84839    -3352.661 
 3744000    257.53736   -3933.6536   -3492.2434   -3933.6536            0    279.10582    18.092746    21.310865    22.073108    8510.7735    1214.7304   -917.14971    539.73674    314.35488    238.76757    175.82711   -3457.6005 
 3745000    269.10018   -3930.6401   -3469.4116   -3930.6401            0    1514.2766    18.017857    21.222656    21.981744    8405.5283    1070.5772    1800.4045     1671.848   -9.7917249       -597.8   -35.873375   -3283.7825 
 3746000     253.1375   -3925.6381   -3491.7691   -3925.6381            0    379.91915    18.047672    21.257774    22.018118    8447.3246     1540.843   -364.42158   -36.663993   -638.08384     148.0415    380.07767   -3444.9648 
 3747000    257.03912   -3939.2347   -3498.6785   -3939.2347            0    1051.9744    17.991708    21.191856    21.949842    8368.9851    1775.9948    849.97558    529.95267   -424.40573   -193.18506   -386.29924   -3370.2818 
 3748000     249.4466   -3890.5906   -3463.0477   -3890.5906            0    2154.6538    17.916524    21.103298    21.858117    8264.5048     3007.011    1667.9837    1788.9666    878.92795    756.16287    285.27933   -3203.3488 
 3749000    248.94529   -3937.3899   -3510.7062   -3937.3899            0    368.10552     18.03704     21.24525    22.005146    8432.4035    908.61271    -345.7854    541.48923   -605.43832    362.91472    413.69438   -3465.4373 
 3750000    263.16942   -3900.2006   -3449.1372   -3900.2006            0    338.10992    18.035372    21.243286    22.003112     8430.065    852.09086   -111.82651    274.06542    337.28819   -440.98124    207.00515   -3407.5687 
Loop time of 344.329 on 64 procs for 250000 steps with 864 atoms

Performance: 125.461 ns/day, 0.191 hours/ns, 726.049 timesteps/s
193.9% CPU use with 32 MPI tasks x 2 OpenMP threads

MPI task timing breakdown:
Section |  min time  |  avg time  |  max time  |%varavg| %total
---------------------------------------------------------------
Pair    | 24.1       | 27.49      | 36.228     |  42.6 |  7.98
Bond    | 0.7541     | 1.1142     | 1.9626     |  21.8 |  0.32
Kspace  | 163.04     | 172.31     | 176.33     |  18.9 | 50.04
Neigh   | 3.0923     | 3.2552     | 3.4925     |   6.0 |  0.95
Comm    | 62.267     | 64.712     | 67.437     |  17.0 | 18.79
Output  | 0.58458    | 0.59718    | 0.59978    |   0.3 |  0.17
Modify  | 60.504     | 63.28      | 68.121     |  22.9 | 18.38
Other   |            | 11.57      |            |       |  3.36

Nlocal:        27.0000 ave          32 max          18 min
Histogram: 1 0 1 1 5 5 4 6 5 4
Nghost:        2266.44 ave        2304 max        2210 min
Histogram: 2 0 0 3 3 8 6 3 3 4
Neighs:        7318.22 ave        8959 max        4762 min
Histogram: 1 0 0 3 5 5 6 7 3 2

Total # of neighbors = 234183
Ave neighs/atom = 271.04514
Ave special neighs/atom = 2.0000000
Neighbor list builds = 12459
Dangerous builds = 0

unfix		3
unfix		2
unfix		1

write_data	data.final.${pid}
write_data	data.final.1
System init for write_data ...
PPPM initialization ...
  extracting TIP4P info from pair style
  using 12-bit tables for long-range coulomb (../kspace.cpp:340)
  G vector (1/distance) = 0.3722382
  grid = 24 25 25
  stencil order = 5
  estimated absolute RMS force accuracy = 0.0032194535
  estimated relative force accuracy = 9.6952885e-06
  using double precision FFTW3
  3d grid and FFT values/proc = 4116 672
Last active /omp style is kspace_style pppm/tip4p/omp
WARNING: Not all mixed pair coeffs generated from mixing. Use write_data with 'pair ij' option to store all pair coeffs. (../write_data.cpp:312)

write_restart   restart.lmp.${pid}
write_restart   restart.lmp.1
System init for write_restart ...
PPPM initialization ...
  extracting TIP4P info from pair style
  using 12-bit tables for long-range coulomb (../kspace.cpp:340)
  G vector (1/distance) = 0.3722382
  grid = 24 25 25
  stencil order = 5
  estimated absolute RMS force accuracy = 0.0032194535
  estimated relative force accuracy = 9.6952885e-06
  using double precision FFTW3
  3d grid and FFT values/proc = 4116 672
Last active /omp style is kspace_style pppm/tip4p/omp
Total wall time: 0:05:44
