#include		in.partitions
include		in.temp
variable        temperature equal 17.72
variable	tempDamp equal 100.0
include		in.pressure
variable        pressure equal 2194.9
variable        pressureDamp equal 1000.0 # This is 1 ps
include		in.seed
variable        seed equal 745823

units		real
atom_style	full

read_restart	restart.lmp.${pid}
read_restart	restart.lmp.1
Reading restart file ...
  restart file = 30 Jul 2021, LAMMPS = 30 Jul 2021
  restoring atom style full from restart
  orthogonal box = (0.063293806 0.096459051 0.025293512) to (19.936707 19.903542 20.674704)
  4 by 2 by 4 MPI processor grid
  restoring pair style lj/cut/tip4p/long/omp from restart
  restoring bond style harmonic/omp from restart
  restoring angle style harmonic/omp from restart
  972 atoms
  648 bonds
  324 angles
Finding 1-2 1-3 1-4 neighbors ...
  special bond factors lj:    0        0        0       
  special bond factors coul:  0        0        0       
     2 = max # of 1-2 neighbors
     1 = max # of 1-3 neighbors
     1 = max # of 1-4 neighbors
     2 = max # of special neighbors
  special bonds CPU = 0.002 seconds
  read_restart CPU = 0.006 seconds
include 	in.setup
variable	out_freq equal 1000
variable	out_freq2 equal 10000
variable	out_freq3 equal 1000

timestep	2.0

neigh_modify    delay 7 every 1

include		in.tip4p
# This is TIP4P/Ice

# create groups ###
group ox type 2
324 atoms in group ox
group hy type 1
648 atoms in group hy

# set charges - beside manually ###
set group ox charge -1.1794
Setting atom values ...
  324 settings made for charge
set group hy charge 0.5897
Setting atom values ...
  648 settings made for charge

# ### TIP3P Potential Parameters ###
pair_style lj/cut/tip4p/long/omp 2 1 1 1 0.1577 8.5
pair_coeff 1 1*2 0.000 0.000
pair_coeff 2 2 0.21084 3.1668
bond_style  harmonic
bond_coeff  1 450 0.9572
angle_style harmonic
angle_coeff 1 55 104.52
kspace_style pppm/tip4p/omp 1.0e-5
pair_modify tail yes

thermo          ${out_freq}
thermo          1000
thermo_style    custom step temp pe etotal epair emol press lx ly lz vol pxx pyy pzz pxy pxz pyz enthalpy

restart 	${out_freq3} restart.lmp.${pid} restart2.lmp.${pid}
restart 	1000 restart.lmp.${pid} restart2.lmp.${pid}
restart 	1000 restart.lmp.1 restart2.lmp.${pid}
restart 	1000 restart.lmp.1 restart2.lmp.1


include         in.dump
dump            myDump all atom ${out_freq2} dump.water.${pid}
dump            myDump all atom 10000 dump.water.${pid}
dump            myDump all atom 10000 dump.water.1
dump            myDump2 all dcd ${out_freq2} dump.dcd
dump            myDump2 all dcd 10000 dump.dcd
dump_modify     myDump append yes
dump_modify     myDump2 append yes


variable natoms 	equal  "count(all)"                        # NUMBER ATOMS
variable H      	equal  "enthalpy/v_natoms"                 # ENTHALPY-per-atom
variable Vol      	equal  "vol/v_natoms"                 # volume-per-atom
fix AVG all 		ave/time ${out_freq} 1 ${out_freq} v_Vol v_H file vol_enthalpy.dat
fix AVG all 		ave/time 1000 1 ${out_freq} v_Vol v_H file vol_enthalpy.dat
fix AVG all 		ave/time 1000 1 1000 v_Vol v_H file vol_enthalpy.dat


timer           timeout 02:55:00 every 1000
New timer settings: style=normal  mode=nosync  timeout=02:55:00

fix 		1 all shake 1e-6 200 0 b 1 a 1
       0 = # of size 2 clusters
       0 = # of size 3 clusters
       0 = # of size 4 clusters
     324 = # of frozen angles
  find clusters CPU = 0.000 seconds
fix             2 all nph aniso ${pressure} ${pressure} ${pressureDamp}
fix             2 all nph aniso 2194.9 ${pressure} ${pressureDamp}
fix             2 all nph aniso 2194.9 2194.9 ${pressureDamp}
fix             2 all nph aniso 2194.9 2194.9 1000
fix             3 all temp/csvr ${temperature} ${temperature} ${tempDamp} ${seed}
fix             3 all temp/csvr 17.72 ${temperature} ${tempDamp} ${seed}
fix             3 all temp/csvr 17.72 17.72 ${tempDamp} ${seed}
fix             3 all temp/csvr 17.72 17.72 100 ${seed}
fix             3 all temp/csvr 17.72 17.72 100 745823


run             250000
PPPM initialization ...
  extracting TIP4P info from pair style
  using 12-bit tables for long-range coulomb (../kspace.cpp:340)
  G vector (1/distance) = 0.37182118
  grid = 24 24 24
  stencil order = 5
  estimated absolute RMS force accuracy = 0.003557567
  estimated relative force accuracy = 1.0713507e-05
  using double precision FFTW3
  3d grid and FFT values/proc = 3211 432
Last active /omp style is kspace_style pppm/tip4p/omp
Neighbor list info ...
  update every 1 steps, delay 7 steps, check yes
  max neighbors/atom: 2000, page size: 100000
  master list distance cutoff = 10.8154
  ghost atom cutoff = 10.8154
  binsize = 5.4077, bins = 4 4 4
  1 neighbor lists, perpetual/occasional/extra = 1 0 0
  (1) pair lj/cut/tip4p/long/omp, perpetual
      attributes: half, newton on, omp
      pair build: half/bin/newton/omp
      stencil: half/bin/3d
      bin: standard
Per MPI rank memory allocation (min/avg/max) = 10.19 | 10.19 | 10.19 Mbytes
Step Temp PotEng TotEng E_pair E_mol Press Lx Ly Lz Volume Pxx Pyy Pzz Pxy Pxz Pyz Enthalpy 
47250000    18.415298   -5215.5959   -5180.0805   -5215.5959            0    2541.9867    19.873413    19.807083    20.649411    8128.3174    1773.4326    3201.5912    2650.9363   -111.94558   -227.97395    422.07532   -4878.7453 
47251000    17.848901   -5218.6287   -5184.2056   -5218.6287            0    1829.2314    19.901288    19.875031    20.609299    8151.7756     1840.654    1544.3763    2102.6638   -195.89952    287.75347    194.26593   -4966.7369 
47252000    17.729294   -5217.2725     -5183.08   -5217.2725            0    2235.5076    19.878453     19.90733    20.589115    8147.6674    2366.9406    1776.3985    2563.1837    54.562864    656.77254    -155.1222    -4917.445 
47253000    17.897707   -5219.8876   -5185.3704   -5219.8876            0     1948.766    19.929368     19.83275    20.628147    8153.3612    1721.1438    2198.6191     1926.535    22.386028    37.407106    58.127912   -4953.6457 
47254000    16.975616   -5218.6859    -5185.947   -5218.6859            0    1835.4998    19.929409    19.863753    20.631438    8167.4262    1147.4215     2420.637    1938.4407   -208.66482    123.43971    403.18897   -4967.3142 
47255000    17.258838   -5215.0234   -5181.7383   -5215.0234            0    2273.6807    19.866131    19.894721    20.556346     8124.508    1935.9656    2485.1097    2399.9668   -61.312606   -76.399051   -373.08291   -4912.3353 
47256000    18.503511    -5216.992   -5181.3064    -5216.992            0    2676.9101    19.871522    19.848449    20.625984    8135.2777    2911.5938    2502.6266    2616.5098   -242.91219    459.57284    23.420496   -4863.7053 
47257000    17.688433   -5218.1313   -5184.0177   -5218.1313            0    2254.7939    19.907732    19.814963     20.64298    8143.0567    2438.2183    2443.8531    1882.3102   -286.26642    399.90664   -139.95669   -4916.2426 
47258000    18.414279   -5218.6507   -5183.1372   -5218.6507            0    2383.9292    19.899112    19.877664    20.593809     8145.837    2495.0675    2140.2448    2516.4753   -97.645962    402.18668    386.36981   -4899.9295 
47259000    18.367566   -5217.2522   -5181.8288   -5217.2522            0    2107.8399    19.910211    19.858055    20.624654    8154.5354    2360.4824    1897.1541    2065.8831     26.87725   -24.925987   -87.354542   -4931.1528 
47260000    18.544262   -5218.4044   -5182.6402   -5218.4044            0    1956.3403    19.933161    19.834217    20.670464    8172.2468    2118.2707    1657.0412    2093.7091   -132.38965    584.70943   -245.21054   -4949.4761 
47261000    17.811389   -5217.8391   -5183.4884   -5217.8391            0    2306.3291     19.89733    19.870363     20.61614    8150.9447     2532.534    2020.3613    2366.0921   -428.74493   -357.25337    457.85297   -4909.3277 
47262000    18.220096   -5216.0836   -5180.9447   -5216.0836            0    2138.1605     19.92549    19.871593    20.588242    8151.9395    2092.3244    1874.7938    2447.3633    41.078579    622.73097    109.80344   -4926.7437 
47263000    18.142363   -5214.8578   -5179.8688   -5214.8578            0    2232.9979    19.921694     19.82595    20.626367    8146.7241    1918.0467    2744.9707    2035.9763    -253.5338    102.40835    153.05093   -4914.5627 
47264000     17.90132   -5220.0673    -5185.543   -5220.0673            0    2095.4926    19.905887    19.869517    20.640746    8163.8355    2612.2833    2011.3168    1662.8778    19.518604   -209.03064    79.911646   -4936.0513 
47265000    17.836442   -5217.1221    -5182.723   -5217.1221            0    2532.5038    19.921476    19.887743    20.545285    8139.9023    2846.2553    1871.1651     2880.091   -298.79171    197.47899    234.32207   -4882.0841 
47266000    17.373268   -5217.2261   -5183.7202   -5217.2261            0    2564.1075    19.888386    19.858733    20.632031    8148.7889    2607.3692    2638.4321     2446.521   -86.582081    401.44495    144.92519   -4878.9973 
47267000    16.951427   -5217.3546   -5184.6624   -5217.3546            0    2213.3205    19.864536     19.87275    20.676896    8162.4725    2359.9695    2276.4449    2003.5469    -100.0868    106.49478    121.85751   -4921.1858 
47268000    17.316495   -5218.0678   -5184.6715   -5218.0678            0    2166.5815    19.863429    19.893202    20.638111    8155.0915     2098.217    2353.2338    2048.2937   -29.735264    165.66967   -92.400195   -4926.9921 
47269000    17.694975   -5217.7168   -5183.5905   -5217.7168            0    2230.9621    19.910324    19.841447    20.613207    8143.2402    2489.1792    2014.7941     2188.913   -137.32163    301.07517    356.13514   -4918.6397 
47270000    17.587043   -5217.8096   -5183.8915   -5217.8096            0    2212.3504    19.951552    19.808092     20.61562    8147.3382    2178.8394    2449.1901    2009.0216   -230.81696    214.43668    141.34821   -4921.0188 
47271000    17.858264   -5219.5543   -5185.1131   -5219.5543            0    2301.5542    19.888674    19.824997     20.66274    8147.1718    2423.0293    2386.6747    2094.9588   -16.440558    475.46248    452.33462   -4911.6467 
47272000    17.987392   -5218.1741   -5183.4839   -5218.1741            0    2107.8233    19.867487    19.888068    20.664598    8165.1184    1783.9555    2622.8505    1916.6639   0.18412241    222.98268    201.61903   -4932.4846 
47273000     18.03607   -5220.4314   -5185.6473   -5220.4314            0    2200.4906    19.875149     19.81719    20.694368    8150.8824    2046.2793    2458.9318    2096.2607   -63.472507    390.04955    200.58858   -4924.0701 
47274000    19.175074   -5217.7532   -5180.7725   -5217.7532            0    2044.3674    19.878967    19.845379    20.659755    8150.3893    1792.8204    2294.7158    2045.5659   -131.32743   -145.71613   -154.46931   -4937.7686 
47275000    18.715211    -5217.973   -5181.8791    -5217.973            0    2095.8235    19.907015    19.860613    20.627708    8155.4844    1912.8702      2262.53    2112.0702   -68.171963    537.09034    -29.37532   -4932.6032 
47276000    17.637749   -5215.2395   -5181.2236   -5215.2395            0    1814.1638     19.83605      19.8696    20.681625    8151.3397    2361.7331    1529.7542    1551.0041    -189.8314    620.02226     542.2517   -4965.5578 
47277000    18.222338   -5216.5997   -5181.4564   -5216.5997            0    2181.4523    19.876969    19.859175    20.663983    8156.9049    2247.8868    2180.4772    2115.9928    -67.38023    62.324839   -79.268756   -4921.9506 
47278000    17.742362   -5219.0273   -5184.8096   -5219.0273            0     2065.175    19.918671    19.835246    20.610253    8142.9411    1923.2112    1989.8261    2282.4878    31.633227    280.71571    156.97771   -4939.5568 
47279000    18.191743   -5218.8107   -5183.7264   -5218.8107            0    1941.0671    19.888136    19.900072    20.629039    8164.4649    2031.0654    1632.2123    2159.9235    -224.8057    273.97233    21.841215   -4952.6029 
47280000    18.367537   -5217.0825   -5181.6592   -5217.0825            0    2352.5822    19.888898    19.854269    20.596315    8133.0632    2515.1773     2460.849    2081.7203   -167.94347    621.26279    355.09008   -4902.6138 
47281000    17.830388   -5215.4443   -5181.0569   -5215.4443            0    2773.2281     19.82797    19.834103    20.667168    8127.7774    3151.7628    2649.0237    2518.8979   -196.96873    131.32533   -84.133004   -4852.3314 
47282000    18.728089   -5217.5088   -5181.3901   -5217.5088            0    1843.8218    19.893051    19.925899    20.556653    8148.3884    2052.7365    1851.2997    1627.4292   -84.513332   -57.900638    294.65855   -4962.2779 
47283000    17.717357   -5216.5956   -5182.4262   -5216.5956            0    2515.6044    19.884835    19.791736    20.656605    8129.5187    2487.6029    2615.9174     2443.293   -170.43701    224.26603    41.212789   -4884.1744 
47284000    18.054157   -5219.6896   -5184.8707   -5219.6896            0    1881.7034    19.908266     19.84011    20.654228    8158.0519    1737.0308     1974.895    1933.1845   -26.855725    435.49423   -9.8237789   -4960.9916 
47285000    16.395502   -5218.5341    -5186.914   -5218.5341            0    2248.0647    19.918521    19.857875     20.60579    8150.4037    1715.2029    2717.5567    2311.4345   -279.65303    417.67268     450.0057   -4919.6971 
47286000    17.492782   -5220.5357   -5186.7994   -5220.5357            0    1590.2953    19.899409    19.951676        20.59    8174.7767    1943.3155    1053.5617    1774.0087   -262.60969    21.909986    13.422529   -4997.2032 
47287000    17.652842   -5217.9978   -5183.9528   -5217.9978            0    2227.5603    19.896791    19.848385    20.615575    8141.4855    1938.4814    2399.7829    2344.4165   -5.3835754    312.78637   -106.31418    -4919.463 
47288000    17.435194   -5215.9176   -5182.2924   -5215.9176            0    2081.3498    19.892848    19.892419    20.607245    8154.6344    2262.1242    1859.0941    2122.8312    -279.7194   -116.44037    218.94342   -4934.7638 
47289000    17.472974   -5218.4059   -5184.7078   -5218.4059            0    1845.1464    19.924186    19.861632    20.605169    8154.0188    2048.9259     1676.762    1809.7513   -258.97267    237.08315    84.909561   -4965.2866 
47290000    17.732838   -5217.7399   -5183.5407   -5217.7399            0    1993.2608    19.856101    19.862481    20.725701    8174.0391      2247.72    2002.8762    1729.1863   -241.90259   -154.41161   -461.61866   -4945.9241 
47291000    17.582598   -5217.2871   -5183.3776   -5217.2871            0     2348.458    19.890954    19.883888    20.622589    8156.4297    2726.5723    2167.7715    2151.0301   -305.42662   -155.40144    146.06215   -4904.0211 
47292000     17.75009   -5219.1762   -5184.9436   -5219.1762            0     2151.401    19.888481    19.886968    20.590923    8144.1547    2240.0099    1961.3033    2252.8897   -20.203992    93.159696     121.2319   -4929.4128 
47293000    18.408671   -5218.1958   -5182.6932   -5218.1958            0    2010.2238    19.908565    19.880987    20.576623     8144.267    2358.2478    1398.9018    2273.5219   -37.778334    279.23155     100.6812   -4943.9273 
47294000    17.291147   -5220.2487   -5186.9013   -5220.2487            0    2043.0156    19.872085     19.80728    20.708949      8151.29    2201.8774    2313.4894    1613.6799   -223.76347    81.609388     149.5957   -4944.0313 
47295000    17.910196   -5221.4037   -5186.8624   -5221.4037            0    2076.4421    19.872642    19.935164    20.604616    8162.8149     2357.569     1610.376    2261.3813   -219.38804    -173.8411    232.27675   -4939.6696 
47296000    17.085862    -5218.266   -5185.3145    -5218.266            0    2109.9696    19.888868      19.8684    20.616106    8146.6602    2167.0086      2064.47    2098.4303   -69.439548   -8.2792298    326.57426   -4934.6276 
47297000    17.860554   -5218.5833   -5184.1377   -5218.5833            0    2023.6055    19.889683    19.832533    20.662077    8150.4205    1923.4293    2393.7526    1753.6347   -147.87417      151.854     32.26188   -4943.6008 
47298000    17.843475   -5219.3079   -5184.8953   -5219.3079            0    2351.0288    19.898275    19.809796    20.601585    8120.7487    2273.9958    2680.1562    2098.9343   -17.599357     226.1649    75.383232   -4906.4564 
47299000    17.607064   -5218.0409   -5184.0842   -5218.0409            0    1864.0727    19.903539    19.847419    20.688182    8172.5325     1533.894    2390.1234    1668.2007   -124.83908     110.5198   -642.75933   -4961.9091 
47300000    18.029893   -5219.8592   -5185.0871   -5219.8592            0    2350.6796    19.924078    19.822279    20.591335    8132.3548    1677.6951    2847.1519    2527.1917   -45.077649    340.93804   -237.82921   -4906.2916 
47301000    18.992739   -5214.8173   -5178.1882   -5214.8173            0    2408.2005    19.931652    19.844902    20.595195    8146.2581    2492.4291    2572.9206    2159.2519    30.868972    313.98903   -32.438997   -4892.0824 
47302000    16.676988   -5216.2172   -5184.0542   -5216.2172            0    2051.1277    19.972359    19.884827    20.536021    8155.8171    2124.2646    1717.4183    2311.7001   -223.37603    390.11718    75.231865   -4940.0844 
47303000    16.860015   -5218.7541   -5186.2382   -5218.7541            0    2161.7581     19.89699    19.860536     20.63511    8154.2711    1938.0132    2231.6182    2315.6428   -182.36233    462.04416   -22.202601   -4929.1582 
47304000    18.023762   -5216.2183   -5181.4579   -5216.2183            0    2246.9264    19.864649     19.86847    20.669598    8157.8808    2110.3136    2207.3409    2423.1247   -146.30893   -15.773871    137.35259   -4914.1314 
47305000    18.296209   -5217.8564   -5182.5706   -5217.8564            0    2141.3689    19.886056    19.921307     20.57172    8149.6154    1696.9644    2112.6921    2614.4502   -196.39105     243.1251   -101.22025   -4928.0608 
47306000    18.573777   -5216.7446   -5180.9235   -5216.7446            0    1864.3888     19.93629    19.851111    20.594118    8150.2771    1644.2964     1865.557     2083.313   -26.630573     278.5934    236.12143   -4959.3159 
47307000    16.958008   -5218.7697   -5186.0647   -5218.7697            0    2158.5783    19.900566    19.900942     20.60488    8160.3566    2269.8206    1853.9303     2351.984   -101.40935    383.79059   -53.320902   -4929.1714 
47308000     18.59274    -5220.075   -5184.2173    -5220.075            0    2305.1428    19.906706    19.859285    20.591446    8140.4772    1773.8897    2576.9958    2564.5428   -199.12922     139.6692    554.02912   -4910.5496 
47309000    18.270046    -5218.455   -5183.2197    -5218.455            0    2075.6756    19.926532    19.866562    20.582562    8148.0532    2004.3784    2065.0953    2157.5531   -226.79805    265.53695   -187.67251   -4936.5651 
47310000    17.952968    -5218.512   -5183.8882    -5218.512            0    2388.1683    19.913314    19.803038    20.637922    8138.4429    2711.1264    2017.6019    2435.7766    54.486353    427.10798   -210.65695   -4900.4345 
47311000    17.860497    -5218.091   -5183.6455    -5218.091            0    2391.0334    19.912264    19.870035    20.600432    8150.7129    2094.5165    2522.1172    2556.4665    -148.6648   -100.68533   -35.314907   -4899.4239 
47312000    19.246814   -5218.6859   -5181.5668   -5218.6859            0    2086.2956    19.915545    19.858119    20.623993    8156.4854    2012.0538    2190.2974    2056.5355    84.582389    358.86728   -193.13483   -4933.3936 
47313000    19.031697    -5218.032   -5181.3278    -5218.032            0     2363.853    19.892897    19.876792    20.594849    8143.3472    2726.3511    2233.2486    2131.9593  0.069971211    237.46469   -426.87201    -4900.591 
47314000    18.206704   -5219.9334   -5184.8203   -5219.9334            0    2021.6814    19.891626    19.867311    20.645907    8159.1201    1513.0092    2383.5866    2168.4485   -305.89124     201.0703    199.15127   -4944.2555 
47315000    18.281897   -5219.3146   -5184.0564   -5219.3146            0    2311.7494     19.85758    19.853458     20.65219    8141.9531     2662.955    1989.6563    2282.6371    13.341708    189.89784    70.172367   -4909.5546 
47316000    18.518041   -5217.0047   -5181.2911   -5217.0047            0    2174.0218    19.862419    19.856993    20.655837    8146.8254    2106.4991    2398.4541    2017.1122   -79.253045    406.27965    235.02683   -4922.9889 
47317000    17.661192   -5220.0773   -5186.0162   -5220.0773            0    1905.2967    19.884182    19.859874    20.695238    8172.4945    1774.6415    2245.5468    1695.7019   -103.73205    616.16646    28.358871   -4958.9288 
47318000    17.755167   -5218.0712   -5183.8289   -5218.0712            0    1978.6036    19.873192    19.916268    20.586267    8148.0408    1816.8003    1946.6084    2172.4021   -200.24321   -126.25254    247.83896   -4948.7098 
47319000    16.904909   -5218.6539   -5186.0514   -5218.6539            0    2218.1628    19.902449     19.88477    20.610689    8156.7959    1619.1576    2441.3528    2593.9781   -40.019499    149.11438    224.69002    -4922.182 
47320000    17.742912   -5217.1422   -5182.9236   -5217.1422            0    2531.5226    19.865123     19.83986    20.662038    8143.3487    2264.0374    3078.8091    2251.7211   -226.92965   -42.123752    67.339865   -4882.2739 
47321000    17.950069   -5217.1263   -5182.5081   -5217.1263            0    2129.4104    19.871018    19.906349     20.59562    8146.7915    2216.3644    2098.2838    2073.5831    88.608238    75.862471    85.138682   -4929.5073 
47322000    18.896295   -5216.4951    -5180.052   -5216.4951            0    2063.2914    19.904563    19.849363    20.626002    8149.1869     2223.567    1938.7061     2027.601   -168.33454    429.39942    44.350483   -4934.8349 
47323000    17.570277   -5221.1116   -5187.2258   -5221.1116            0    1789.6988    19.881343    19.879728    20.649205    8161.3026    1673.8463    1992.6436    1702.6063   -118.16147    480.79203   -82.652754   -4974.2083 
47324000    17.453225   -5218.7172   -5185.0572   -5218.7172            0    2287.4385    19.907246    19.884024    20.610565    8158.4063      2253.75    2136.6609    2471.9046   -56.714149    89.242664    91.137292   -4912.8932 
47325000    18.065139   -5220.2912   -5185.4511   -5220.2912            0     2357.419    19.928221    19.827374    20.632044    8152.2215    2211.8947    2723.0058    2137.3564   -162.86505    340.80006    329.22132   -4905.1733 
47326000    18.515027   -5219.6406   -5183.9328   -5219.6406            0     2204.032    19.901961    19.865946    20.628894    8156.0724    2131.0119    1678.5081    2802.5761     31.07581    326.49867   -175.20775   -4921.7677 
47327000    17.240525   -5220.2248    -5186.975   -5220.2248            0    1740.2045    19.928792    19.888812    20.597927    8164.1944    1859.1855    1784.1271    1577.3008   -160.98177    217.09103   -46.867991   -4979.7751 
47328000      18.1226   -5215.2613   -5180.3103   -5215.2613            0    2150.3102    19.881461    19.885326     20.61858    8151.5418    2006.3508    1918.4866    2526.0932   -85.129245    479.28832   -132.45546   -4924.6774 
47329000    17.225418   -5217.1143   -5183.8936   -5217.1143            0    2381.4098    19.846785    19.918956    20.551761    8124.6711    3245.5703    1539.4054    2359.2538    -40.36188    597.98707   -131.06635   -4901.7203 
47330000    18.284818   -5218.2464   -5182.9826   -5218.2464            0    1752.7303    19.871278    19.917627    20.664402    8178.7366    2230.6917    1149.6689    1877.8304   -296.49103    343.34335   -19.568436   -4973.9196 
47331000    18.344374    -5218.826   -5183.4473    -5218.826            0    1895.1099    19.865288    19.846939    20.689887    8157.3014    2089.2893    1979.6448    1616.3955   -63.918343    187.39266   -242.50832   -4957.9939 
47332000    16.577281   -5215.9832   -5184.0126   -5215.9832            0     2123.323    19.799396    19.923306    20.634858    8139.8204    2813.2366    1588.3667    1968.3658    -176.6453    419.72229    45.094403   -4931.9509 
47333000    17.705424   -5217.9113   -5183.7649   -5217.9113            0    2320.1993     19.87467    19.859181    20.653065    8151.6547    2140.3448    2525.5641    2294.6889    -135.1154   -60.344517    34.043688   -4907.9314 
47334000    18.614032    -5216.696   -5180.7972    -5216.696            0    2243.8159     19.89145    19.896514    20.582474    8145.9364    2603.8744     1838.705    2288.8682   -13.817135     194.1979   -197.88504   -4914.2316 
47335000    17.383228   -5219.1324   -5185.6073   -5219.1324            0    2038.1688    19.895867    19.911717    20.584463    8154.7584    1960.1526    1887.7951    2266.5587    -116.6569    723.59256    98.247025   -4943.2104 
47336000    17.978648   -5218.8905   -5184.2172   -5218.8905            0    2278.6903    19.898586    19.859316    20.594936    8138.5486    1817.9891     2519.032    2499.0499   -165.82743    360.54228    124.77727    -4913.754 
47337000     17.74709   -5218.8448    -5184.618   -5218.8448            0    2134.6464    19.893118    19.915218    20.618542    8168.5672    2646.3447    1315.8638    2441.7307   -120.71031    89.755751   -111.09337   -4930.3172 
47338000    17.710443   -5218.7928   -5184.6368   -5218.7928            0    2034.9385    19.934993    19.831639     20.59261    8141.1562    1526.8847    2595.3947     1982.536   -133.43863    109.19975    361.70132   -4943.0277 
47339000     16.76963   -5218.7857   -5186.4441   -5218.7857            0    2218.5559    19.888476    19.896787    20.551445    8132.5513    2662.2743     1360.087    2633.3065   -35.305574    252.54364    82.134078   -4923.3124 
47340000    18.209161   -5220.8744   -5185.7565   -5220.8744            0    1906.0456    19.929734    19.882342    20.640338    8178.7296    1410.0376    2296.7688    2011.3304   -6.6806965    18.582278   -4.4293446   -4958.4065 
47341000    16.893452   -5216.8531   -5184.2726   -5216.8531            0    2524.5575     19.87642    19.839646    20.642211    8140.0731    2029.8772    3079.9103    2463.8849   -194.22581    485.97973    39.383498   -4884.5708 
47342000    17.906114   -5219.5168   -5184.9834   -5219.5168            0    2275.5856    19.931622    19.837835    20.628379    8156.4655    1665.6174    2851.1545    2309.9848   -144.88735    345.06137   -126.32909   -4914.2941 
47343000    19.009397    -5218.977   -5182.3158    -5218.977            0    1973.2311    19.866883    19.900868    20.622544    8153.4986    2128.9167    1763.3893    2027.3872     140.1182    505.81268   -84.729806   -4947.6781 
47344000    16.954736   -5215.9364   -5183.2378   -5215.9364            0    2255.7031    19.867062    19.886299     20.63793    8153.6813    2407.8358    2409.1182    1950.1553   -356.94698    499.31045   -475.45819   -4915.0052 
47345000    17.165574   -5219.4414   -5186.3361   -5219.4414            0    2339.5171    19.883026    19.842422    20.685806    8161.1171    2350.3772    2552.4185    2115.7555   -246.59474    276.02343    255.76575   -4907.8832 
47346000    17.856659   -5216.5981     -5182.16   -5216.5981            0    2099.5901    19.887429    19.851817    20.612899    8138.0053    2285.6042    2031.0693    1982.0969   -167.36187    171.19248     14.01583   -4932.9713 
47347000    18.332167   -5218.1631    -5182.808   -5218.1631            0     2398.342    19.888484    19.832341    20.678106    8156.1724    2317.4305    2472.4997    2405.0958    -4.534873     455.5734   -8.2711973   -4897.5267 
47348000    17.593349    -5218.031   -5184.1007    -5218.031            0    2143.6143    19.902876    19.907377    20.602395    8162.9585    2148.3279    1897.4397    2385.0753   -11.585444     323.6085    356.68116   -4928.9069 
47349000    16.974613   -5216.0135   -5183.2765   -5216.0135            0    2372.7182    19.886258    19.830026    20.657153    8146.0453    2022.5002    2946.0882    2149.5663   -137.92023   -510.28725    301.98383   -4901.3935 
47350000    17.458087   -5217.1764    -5183.507   -5217.1764            0    2023.4087    19.869923    19.875029    20.635441    8149.2514    1899.4283    2118.6402    2052.1576   -138.37468   -230.06917   -183.02139    -4943.028 
47351000    16.958849   -5218.8075   -5186.1009   -5218.8075            0    2174.4368     19.85633    19.885415    20.620036    8141.8493    2438.7803    2125.5188    1959.0113   -227.77963    469.20119   -236.74856   -4927.9072 
47352000     17.31494   -5217.2615   -5183.8682   -5217.2615            0    2354.3772    19.916649    19.812166    20.650376    8148.4721    2412.9271     2318.117    2332.0876   -6.9755105    176.56383   -258.75376   -4904.0808 
47353000    18.251479   -5217.7271   -5182.5276   -5217.7271            0    2107.0578     19.85642    19.882063    20.663867    8157.8177    2419.9227    2141.6314    1759.6192   -3.1798824    316.27595    309.31809   -4931.8438 
47354000    17.437945   -5215.7485   -5182.1179   -5215.7485            0    2127.2426     19.84039    19.929535    20.585999    8139.9046    2350.3804    1823.3655    2207.9819   -32.913995    335.58905    433.47185   -4929.5883 
47355000     18.75483   -5217.7255   -5181.5552   -5217.7255            0     2116.744    19.836812    19.906843    20.666288    8160.8751    2422.8978    2030.4948    1896.8393   -266.29816    580.70465    14.000471   -4929.6246 
47356000    17.830215   -5219.4492   -5185.0621   -5219.4492            0     1859.639    19.844536    19.881533    20.667421    8154.1202    2012.7947    2001.5254     1564.597   -233.07887    30.898394      50.2132   -4963.9148 
47357000     18.00208    -5220.313   -5185.5944    -5220.313            0    1821.5421    19.864121    19.890117    20.664833    8164.6689    1973.5314    1728.0125    1763.0824   -101.66711   -107.67927   -128.92975   -4968.6974 
47358000    17.224853   -5215.7551   -5182.5355   -5215.7551            0    2189.5009      19.8737     19.91897     20.58307    8148.0887    2888.9087    1531.5663    2148.0277    18.179198    252.61622   -90.830329   -4922.3538 
47359000    17.637861   -5217.0604   -5183.0443   -5217.0604            0    2509.1939    19.856653    19.897854    20.621977    8147.8418    2286.9922    2723.4806     2517.109   -45.799559     589.7023    148.46403    -4884.882 
47360000    18.152626   -5215.2793   -5180.2704   -5215.2793            0    2564.9519    19.875951    19.844557     20.58857     8120.738     2956.758    2319.0019    2419.0959    -416.5783     608.1752    321.52641   -4876.4964 
47361000    18.141055   -5215.8298   -5180.8433   -5215.8298            0    2420.5489    19.900761    19.875371    20.604683    8149.8734    2109.1752     2694.818    2457.6534   -153.58218    513.52434   -245.25227   -4893.1428 
47362000    17.332939   -5216.0341   -5182.6061   -5216.0341            0     2771.947    19.903289    19.831215    20.592625    8128.0408    2479.8477    2992.9923     2843.001   -123.51378    467.38992   -515.43765   -4854.0219 
47363000    17.409651   -5220.7246   -5187.1486   -5220.7246            0    1573.7345    19.896019    19.870087    20.638526    8159.1446    1813.4573    1322.2491    1585.4969   -75.768953    85.269674     190.4515   -4999.8856 
47364000    17.696213    -5217.104   -5182.9754    -5217.104            0    2312.1684    19.897064    19.819408    20.641577    8139.9653    2287.0117    2333.2622    2316.2313   -38.764265   -70.931536   -321.11426   -4908.4908 
47365000    17.503675   -5218.7571   -5184.9998   -5218.7571            0    2048.2042    19.855671    19.927534    20.629538    8162.5834    2577.1248    1233.9603    2333.5274   -137.16809   -12.566802    20.049653   -4941.1756 
47366000    17.274017   -5219.5185   -5186.2041   -5219.5185            0    2141.1956    19.904304    19.873299    20.615369    8154.7016    2233.1945    1851.9435    2338.4487   -192.19535    72.649528    175.45214   -4931.5561 
47367000    17.434371   -5220.1226   -5186.4989   -5220.1226            0    1769.5327    19.951666    19.852902    20.590966    8156.0501    1577.7716    1799.3714    1931.4552    64.570742    93.988872   -39.296083   -4976.0172 
47368000      17.0025    -5217.406   -5184.6153    -5217.406            0    2302.7767     19.94319    19.837114    20.602341    8150.6022    1863.7892    2757.8777    2286.6631   -63.294397    197.46835   -5.5024295   -4910.8884 
47369000    16.643663   -5217.5976   -5185.4989   -5217.5976            0    2164.1616    19.918618     19.85735    20.584576    8141.8375    1796.7034    2406.6321    2289.1494   -255.88275   -53.832023    346.44773   -4928.5256 
47370000    16.954782   -5216.6988   -5184.0001   -5216.6988            0    2038.6424    19.902652    19.884752    20.642566    8169.4874    2543.0641    1630.9909     1941.872    131.34247   -199.36347    81.584023   -4941.1089 
47371000    16.856846   -5219.4443   -5186.9345   -5219.4443            0     2257.902      19.9059    19.875418    20.616849    8156.8105    2006.7147    2173.8183    2593.1731   -259.93652   -15.611704    160.65797   -4918.3374 
47372000    18.106911   -5216.7726   -5181.8519   -5216.7726            0    2253.9823    19.898846    19.871078     20.61194    8150.1986     2715.122     1910.318    2136.5067   -161.43737    449.70706    108.81746   -4913.9384 
47373000    17.666162   -5216.7303   -5182.6596   -5216.7303            0    2324.6669    19.839884    19.862128     20.67593     8147.605    2278.9401    2377.6249    2317.4357   -179.09052    86.260681   -24.309196   -4906.4323 
47374000    17.916977   -5217.9224    -5183.368   -5217.9224            0    2107.7631    19.882542    19.855685    20.688306    8167.3603     2565.613    2194.4319    1563.2445   -21.242098    238.21029   -190.61732   -4932.3069 
47375000    17.940864   -5216.7074    -5182.107   -5216.7074            0    1930.8595    19.873356    19.846948    20.670882    8153.1223    1777.6123    2134.8623    1880.1038   -154.85464    174.72023   -276.20862   -4952.5183 
47376000    16.550094   -5218.2141   -5186.2959   -5218.2141            0     2218.284    19.847446    19.882916    20.623017    8138.3602    2052.9698    2051.2562    2550.6258   -79.794639     489.1339    243.60529   -4923.0086 
47377000    17.944135   -5219.1141   -5184.5073   -5219.1141            0    2048.6996    19.869543    19.880517    20.630991    8149.5875    2246.8754    1732.6184    2166.6049   -221.82925     454.0413    13.576914   -4941.0125 
47378000    18.098755   -5219.4044   -5184.4994   -5219.4044            0    2060.7067     19.86969    19.885227    20.607424    8142.2675     1895.056    1734.8058    2552.2584   -165.39723    100.55182     377.6208   -4939.7974 
47379000    18.632761   -5217.2737   -5181.3389   -5217.2737            0    1941.7064     19.84492    19.928562     20.59756     8145.938    2354.4155    1273.9066    2196.7971   -257.76056    -125.5037   -85.096975   -4950.6639 
47380000    16.749034   -5218.1907   -5185.8888   -5218.1907            0    2347.4944    19.873816    19.847879    20.626066    8136.0154    2034.7073    2628.2587    2379.5172   -321.60851    296.70928    174.47853   -4907.3458 
47381000    16.460766   -5218.6834   -5186.9374   -5218.6834            0    2083.7632     19.88423    19.880049    20.635362    8157.1475    2556.3877    1717.3669    1977.5351   -105.13311      500.226    164.81199   -4939.0454 
47382000    17.721186   -5215.6507   -5181.4739   -5215.6507            0     2514.471    19.882496    19.848423    20.625382    8139.5221    3149.5372    2311.1164    2082.7593   -2.9010166    489.68533    310.88683   -4882.9897 
47383000    18.142165   -5216.8739   -5181.8852   -5216.8739            0    1981.8305    19.874798    19.915118    20.630702    8165.8166    2116.1958    1776.7553    2052.5404   -208.46458   -77.437722    156.73687   -4945.8689 
47384000     17.39397   -5218.5095   -5184.9637   -5218.5095            0    1900.3207    19.906998    19.861794    20.608161    8148.2339    2089.6729     1894.589    1716.7003    236.65967    304.82231   -322.72032   -4959.1417 
47385000     17.09135   -5217.2209   -5184.2588   -5217.2209            0    2415.0072    19.878328    19.895915    20.633872    8160.6452    2594.7339    2037.6512    2612.6364   -221.94041    234.42951    59.522212   -4896.8375 
47386000     17.95955   -5218.7818   -5184.1452   -5218.7818            0    1941.4235     19.92093    19.832512    20.673714     8167.814    2124.6519    1781.8704    1917.7481   -63.853419    452.75672    193.92946   -4952.8845 
47387000    17.046471   -5217.9715   -5185.0959   -5217.9715            0    1976.7069    19.905383    19.857847    20.622466    8151.6084    2058.5423    1899.1557    1972.4226    -232.3423    53.750075   -22.429144   -4950.0994 
47388000    17.856359   -5217.7249   -5183.2874   -5217.7249            0     2303.154    19.899226    19.853676    20.591007    8134.9467    2478.9868    2559.3438    1871.1315    -8.723033   -371.28929    3.6083319   -4910.0416 
47389000    16.991168   -5220.3246   -5187.5557   -5220.3246            0    1956.8782    19.873738    19.878547    20.656209    8160.4635    1955.5847    1950.3836    1964.6663   -268.49159    507.14235   -150.86141   -4954.6638 
47390000    17.546911   -5216.4463   -5182.6056   -5216.4463            0    2586.9823    19.879534    19.821358    20.659809    8140.7781    2703.8825    2738.3394     2318.725   -131.77082    275.87092    383.46983   -4875.4664 
47391000     17.63506   -5218.7184   -5184.7077   -5218.7184            0    2662.1526    19.875513    19.877421    20.582251    8131.5111    2682.8727    2834.0729    2469.5123   -10.473048   -57.193318   -114.28343   -4869.0037 
47392000    17.339195   -5216.6379   -5183.1978   -5216.6379            0    2627.8172    19.871734    19.833665    20.674549    8148.4461    2737.6126    2865.7248    2280.1142   -56.169795    208.56842    295.34271   -4870.9166 
47393000    17.568737   -5217.9524   -5184.0696   -5217.9524            0    2202.8826    19.897001    19.783203     20.71411    8153.6208    2403.1614    2410.1228    1795.3638   -137.73011    38.976793    258.08125     -4922.12 
47394000    17.623124   -5218.0538   -5184.0661   -5218.0538            0    2192.3805    19.950635    19.867588    20.558014    8148.6004    1963.1883    1841.6267    2772.3266   -185.85726   -2.7043398    206.93989   -4923.5259 
47395000    17.816702   -5218.0116   -5183.6506   -5218.0116            0    1836.0644    19.920813    19.847329    20.642263    8161.4333    1710.7589    1667.2284    2130.2059   -188.16252    17.474466     124.0795   -4965.1109 
47396000    17.644261   -5218.8368   -5184.8083   -5218.8368            0    2208.2593     19.88965    19.877238    20.602053    8145.0486    1880.7997    2489.9559    2254.0224    -78.69803    797.26223    -426.6983   -4922.4954 
47397000    17.310006   -5218.9697   -5185.5859   -5218.9697            0    2174.7252    19.863154    19.889269    20.622246    8147.0989    2068.7736    2122.8051     2332.597   -5.3882325    452.45788   -327.02703   -4927.1914 
47398000    17.428929   -5218.6988   -5185.0856   -5218.6988            0    1824.3947    19.927434    19.916148    20.541581    8152.4961    1591.7442    1790.8516    2090.5882   -125.06811    276.82842    237.98826   -4968.1728 
47399000    17.630757   -5216.2715   -5182.2691   -5216.2715            0    2356.6345    19.876828    19.834665    20.652193    8142.1317    2827.7613    1850.4847    2391.6574   -126.43142    280.17854     40.29828   -4902.4314 
47400000     17.67183   -5218.5283   -5184.4467   -5218.5283            0    2089.4814    19.938071    19.884858    20.550544    8147.5861    1795.1429     2329.485    2143.8163   -155.80171    252.86488   -34.656922   -4936.1658 
47401000    18.462407   -5216.2046   -5180.5983   -5216.2046            0    2262.5208    19.928344    19.887206    20.531847    8137.1627    2162.0545    1935.3508    2690.1571   -171.09353      271.049    119.97617      -4912.1 
47402000    18.815197   -5218.8941   -5182.6074   -5218.8941            0    1724.8937    19.902006    19.846497    20.640946    8152.8661    1224.9373    2294.2677    1655.4762   -171.35638    114.69012   -356.64949   -4977.5155 
47403000    17.481414   -5217.9472   -5184.2328   -5217.9472            0    2219.6234     19.89397    19.834234     20.62851    8139.6313    1788.6433    2817.4479    2052.7792    96.354841     76.38722   -67.918302   -4920.7454 
47404000    17.916874   -5217.4215   -5182.8673   -5217.4215            0    2117.2441    19.896204    19.852444    20.600368    8136.9036    1959.5571    2443.8395    1948.3358    79.580586    104.02268    51.199087   -4931.6173 
47405000    17.225299   -5217.3295    -5184.109   -5217.3295            0    2437.0918    19.865693    19.861022    20.646246     8146.038    2044.5861    2791.1513     2475.538    -103.8672    403.62024    389.77731   -4894.5786 
47406000    17.490044   -5219.2554   -5185.5243   -5219.2554            0    1975.4036    19.870151    19.874118    20.667314    8161.5583    2008.5575    2209.6755    1707.9777   -123.99617     249.9735      -106.37   -4950.3961 
47407000    18.018257   -5218.3416   -5183.5919   -5218.3416            0    2335.0762     19.89295    19.853215    20.652903    8156.6371    2145.2163    2470.9854    2389.0269   -40.100449    390.34561   -259.11173   -4905.8201 
47408000    16.759181   -5217.6143   -5185.2928   -5217.6143            0    2215.0884     19.89134    19.906539    20.565949    8143.4525    2325.8779    2130.9815    2188.4058   -99.126734    290.26675    223.69557   -4922.2203 
47409000    17.536142   -5218.6434   -5184.8235   -5218.6434            0     2163.699    19.902128    19.846086    20.581226    8129.1593    2296.4653    2014.5016    2180.1301    1.9921454   -78.448678    -143.1781   -4928.3052 
47410000    17.766329   -5218.3945   -5184.1306   -5218.3945            0    2288.5324    19.879361    19.900486    20.625153    8159.4952    2536.2477     1795.402    2533.9474    -96.37293    151.84962   -28.191742   -4911.8001 
47411000    17.532778   -5219.1853   -5185.3719   -5219.1853            0    2240.4171    19.882579    19.907385    20.593416    8151.0833    1783.1547    2384.2438    2553.8528   -46.231083   -77.247165    319.66718   -4919.0419 
47412000    17.510023   -5217.6152   -5183.8457   -5217.6152            0    2257.0795    19.967907    19.824092    20.562098    8139.4166    1889.0346     2410.144    2472.0599    -322.6675    239.22413   -133.53678    -4915.919 
47413000    18.132981   -5217.6627   -5182.6917   -5217.6627            0    2280.0669    19.917258    19.808533    20.625274    8137.3235    2191.2016    2783.8127    1865.1865   -109.77373     490.2993    122.46274   -4912.1058 
47414000    17.124876   -5217.4471   -5184.4203   -5217.4471            0    2454.0702    19.885555    19.816771    20.632645    8130.6546    2165.6973    2904.6895    2291.8237   -187.46181    137.90376    136.66637   -4893.4234 
47415000    17.175094   -5218.1043   -5184.9807   -5218.1043            0    2355.5534    19.861982    19.891093     20.62906    8150.0575    2769.0885    2171.1148     2126.457   -102.21855    112.67656      102.885   -4904.9991 
47416000    17.588778   -5216.9069   -5182.9855   -5216.9069            0    2391.8131    19.872914    19.847339    20.711928    8169.2912    2484.4648    2185.5933    2505.3811    4.1410551    30.835775    336.64943   -4898.0231 
47417000    17.634983   -5217.7093   -5183.6988   -5217.7093            0    2226.3062    19.902039     19.83388    20.655923     8153.609    2181.3636    2536.4528    1961.1021   -84.643669      307.609    216.36833   -4918.9642 
47418000    18.190439   -5216.4536   -5181.3718   -5216.4536            0    2237.1614      19.9373    19.858858     20.60258     8157.221    1777.0475    2624.0861    2310.3506   -91.356048    280.11145    375.69715   -4915.2285 
47419000    19.178023   -5217.7087   -5180.7223   -5217.7087            0    2438.5751     19.87227    19.882014    20.606111    8141.4897     2618.787    2049.4701    2647.4681   -139.36389    265.42895   -258.10603   -4891.1774 
47420000    17.193513   -5216.1524   -5182.9933   -5216.1524            0    2350.4833    19.906582    19.863626    20.607999    8148.7513    2698.6471    2152.8773    2199.9254   -232.80168    299.94981    560.27798   -4903.6591 
47421000    17.975474   -5216.2921   -5181.6249   -5216.2921            0    2351.3779    19.885158    19.863767     20.57408    8126.6411    2847.3395    1830.0369    2376.7573   -75.142706    -96.57956   -139.13697   -4902.9426 
47422000    17.759808   -5219.2619   -5185.0106   -5219.2619            0    2032.7423    19.904039    19.858737    20.621254    8150.9437    1989.3456    2062.4225    2046.4589    -261.8351    649.98371    480.52142   -4943.3721 
47423000    16.508814   -5217.1529   -5185.3143   -5217.1529            0    2135.6323    19.858641    19.882755    20.630881    8145.9897    2571.5034    1716.2316     2119.162  -0.76755886    639.93787     49.72199   -4931.5992 
47424000     17.29443   -5217.9447   -5184.5909   -5217.9447            0    2240.2045    19.885596    19.886013    20.637455    8160.9829    2227.9748      2290.66    2201.9788    8.7808578    377.98987   -292.16221   -4917.9628 
47425000    17.446136   -5217.3129   -5183.6665   -5217.3129            0    1918.2085     19.81196    19.936341    20.627394    8147.3665    2135.9194    1854.4299    1764.2762   -91.368253    509.92821     272.1602   -4955.7431 
47426000    17.692251   -5220.0463   -5185.9253   -5220.0463            0    2349.8741    19.883606     19.85866    20.630474    8146.1856    2307.2362    2460.6606    2281.7257   -104.89166    165.58062   -209.06094   -4906.7514 
47427000    17.933754    -5217.467   -5182.8803    -5217.467            0    2178.1782     19.87613     19.86302    20.645836    8150.9752    2393.1471     2030.642    2110.7454   -27.533219    156.32125    526.08908   -4923.9524 
47428000    18.200524   -5218.3862   -5183.2849   -5218.3862            0    2066.1942     19.89077    19.919827    20.547302    8141.2666    2253.5695    1855.9851    2089.0281   -162.16789    350.99916    41.651825   -4937.9615 
47429000    18.189619   -5217.0901   -5182.0099   -5217.0901            0     2274.271    19.914078    19.887405    20.570622    8146.7754    1998.9294    2130.2614    2693.6222   -303.99672    458.71633    479.80437   -4911.7984 
47430000     18.46897   -5218.2375   -5182.6185   -5218.2375            0     2185.444    19.905376    19.868665    20.615086    8153.1273    2555.0771    1753.4677    2247.7872   -39.794457   -317.63177    31.754333   -4922.7583 
47431000    17.382863   -5218.8573    -5185.333   -5218.8573            0    1902.1381    19.870715    19.903795    20.627123    8158.0817    1742.3039    1597.8481    2366.2623   -28.175429     282.8403    33.083607   -4959.0218 
47432000    17.289797   -5216.4948     -5183.15   -5216.4948            0    1965.0281    19.859976    19.909931    20.588619    8140.9613      2462.89    1306.6092    2125.5852   -205.82555    173.69153    413.06471    -4949.847 
47433000    17.193133   -5218.2155   -5185.0571   -5218.2155            0     2387.259    19.906286    19.858907    20.564374    8129.4485    1891.2968     2849.174    2421.3062   -137.48037    328.15676   -12.189778   -4902.0245 
47434000    17.278513   -5219.5403   -5186.2173   -5219.5403            0    2197.9852    19.881646    19.862361    20.623511    8144.1508    2373.5193    2037.4118    2183.0246   -99.405148    206.78049    94.459259   -4925.1536 
47435000    17.758973   -5216.8797   -5182.6301   -5216.8797            0    2197.1251    19.902535    19.881157    20.629281    8162.7056    2501.7242    1882.1637    2207.4875   -40.975946    421.75748    305.01085    -4921.074 
47436000    18.336683   -5218.2005   -5182.8366   -5218.2005            0    1788.1566    19.923422    19.864403     20.61471    8158.6195    2014.0209    1324.0322    2026.4167   -128.33062    -275.5271    118.65549   -4970.0726 
47437000    17.130589   -5218.7437   -5185.7059   -5218.7437            0    2062.5897    19.899881    19.893907    20.602357    8156.1926    1911.0063    2114.2184    2162.5445   -189.52036    219.38417   -164.82496   -4940.3615 
47438000    17.768694   -5218.0534    -5183.785   -5218.0534            0    2081.4601    19.892342    19.873703    20.645193    8161.7568    2108.7134    2097.1392    2038.5276    49.381036    595.11158    251.39725    -4936.027 
47439000     16.93498   -5218.5905   -5185.9299   -5218.5905            0    2216.7911    19.884295    19.876321    20.610105    8145.6626    2721.3814    1688.8014    2240.1905    23.760792    362.73805   -115.75273   -4922.5837 
47440000    18.031291   -5214.7335   -5179.9586   -5214.7335            0    2562.0201     19.87969    19.852991    20.627329     8141.015    2396.6105    2690.6786    2598.7711    160.11453    344.20261     175.4403   -4875.7742 
47441000     17.18527   -5216.1963   -5183.0531   -5216.1963            0     2290.347     19.94633    19.810275     20.62537    8149.9554    1663.9201      2917.14     2289.981   -310.52318    144.70542   -20.057205   -4910.8253 
47442000    17.933415   -5217.6629   -5183.0768   -5217.6629            0    2206.0281    19.926223    19.910086    20.551868    8153.6006    2284.6159    1932.9876    2400.4807    8.8791254    -49.20699   -30.455025   -4920.7538 
47443000    17.950008   -5216.9422   -5182.3241   -5216.9422            0    2165.2362    19.874275    19.862143    20.651632    8152.1428    2810.0193    1960.3433     1725.346    33.090527    -22.82274    193.13236   -4924.8978 
47444000    18.771352   -5218.1386   -5181.9364   -5218.1386            0    2064.3764    19.876536    19.842275    20.645781    8142.6071    2096.8267    2098.4698    1997.8327   -91.482477    94.405667    235.61778   -4936.7885 
47445000    17.950132   -5217.8584   -5183.2401   -5217.8584            0    2347.1793    19.860871     19.88118    20.648465    8153.2024    2339.0014    2386.9723    2315.5641   -74.979818   -25.347906    271.50767   -4904.1461 
47446000    17.367659   -5216.8119    -5183.317   -5216.8119            0    2285.5214    19.851316    19.874568    20.618751    8134.8463    2036.9471    2441.1407    2378.4762   -63.402733    187.65817    144.29207   -4912.1664 
47447000    17.001285   -5216.3839   -5183.5955   -5216.3839            0    2207.1076    19.852949       19.849    20.698754    8156.5755     2576.565    2040.3292    2004.4287   -148.37781    490.78632    108.90124   -4921.0484 
47448000    17.979323   -5218.5764   -5183.9017   -5218.5764            0     2157.401    19.885186    19.834934    20.678124    8155.8936    2536.0221    1759.0071    2177.1738   -353.55355    519.18538   -77.717721   -4927.2889 
47449000    17.952044   -5216.5026   -5181.8805   -5216.5026            0     2246.951     19.84548    19.897286    20.630999     8146.587    2449.1447    2106.8522    2184.8561   -250.59161    343.03597    32.159771   -4914.9212 
47450000    17.324262    -5217.198   -5183.7867    -5217.198            0    2038.8116    19.859411    19.851286    20.651223    8141.4319    1869.5428    2074.6666    2172.2252   -166.89939    506.25862    296.60552   -4941.7096 
47451000      17.0904   -5218.0961   -5185.1358   -5218.0961            0    1985.0727    19.888384    19.841748    20.680211    8160.8315    1682.2175    2429.7723    1843.2283   -4.9537879    33.203128   -31.324902   -4948.8777 
47452000    17.446578   -5217.9105   -5184.2633   -5217.9105            0    1898.4056    19.875495    19.842248    20.661389     8148.325    1820.1128    2203.4829     1671.621    -164.3996    208.91015    19.990672   -4958.6664 
47453000    17.136094   -5217.5723   -5184.5239   -5217.5723            0    1973.7026    19.832407    19.944709    20.593729    8145.8817    2755.6498    1313.8171     1851.641    -156.7481    513.85229   -154.64231   -4950.0493 
47454000    17.872681   -5219.0414   -5184.5724   -5219.0414            0    2261.0392    19.844971    19.843046    20.681285    8143.9736    2036.2643    2633.9348    2112.9184    24.167014    309.13094   -247.93561   -4916.0254 
47455000    17.176571   -5219.6422   -5186.5158   -5219.6422            0    1990.4966    19.926834    19.867533    20.590008    8151.5228    1549.3662    2402.6962    2019.4274   -185.87712    336.03856    297.92049   -4949.8823 
47456000    17.177619   -5218.7656   -5185.6372   -5218.7656            0    2170.8031    19.855781    19.900865    20.594737    8137.9532    2477.8118    2001.9168    2032.6806   -40.773709    158.04546   -589.92443   -4927.9982 
47457000    17.884213   -5219.2349   -5184.7437   -5219.2349            0    2033.0831    19.889001    19.871508    20.659704    8165.2198    1816.1712    2184.7112     2098.367    7.5236706    784.79339    92.054483   -4942.6414 
47458000    17.206991   -5216.0971    -5182.912   -5216.0971            0    2227.0364    19.841612    19.837952    20.690182    8144.0066    2580.0514    2460.0865    1640.9713   -60.835595     434.8979    47.780858   -4918.4024 
47459000    18.231043    -5218.904   -5183.7439    -5218.904            0    2179.8411    19.920241    19.836223    20.569671    8127.9482    2033.6436    2311.7634    2194.1163   -119.90004    15.833641    77.519821   -4925.3503 
47460000    18.499466   -5217.8025   -5182.1247   -5217.8025            0    1869.3273    19.881757    19.884387    20.658913    8167.2235    1861.7358    1728.0577    2018.1884   -72.460736   -8.1396532    261.38006   -4959.4681 
47461000    18.216947   -5219.6947   -5184.5618   -5219.6947            0    2102.8533    19.913413    19.856673    20.651528    8165.9059    1755.9322    2259.5485    2293.0792   -49.499755    271.86337    68.753836   -4934.1302 
47462000    17.218707   -5217.4401   -5184.2324   -5217.4401            0    2205.0995    19.911573    19.853146    20.613388     8148.624     1771.887    2406.4266    2436.9848   -20.296706    170.65059   -310.39534   -4922.1798 
47463000    18.445377   -5218.0267   -5182.4532   -5218.0267            0    1946.5613    19.905803    19.860134    20.620577    8151.9724    2227.8113    1801.9989    1809.8736   -197.50526    506.76647     349.5696   -4951.0301 
47464000    18.167233   -5217.6518   -5182.6147   -5217.6518            0    2362.3728    19.892909    19.888487    20.575961    8140.6702    2335.5458    2166.4602    2585.1123   -178.00084    166.84843   -180.65828    -4902.146 
47465000    16.903221   -5219.2344   -5186.6351   -5219.2344            0    2073.6654     19.87832    19.876419    20.660187    8163.0426    1998.5123    2141.8972    2080.5866   -123.59717    215.43599      -223.95   -4939.7661 
47466000    17.352305   -5219.8747   -5186.4093   -5219.8747            0    1981.1704    19.892701    19.910253    20.612551    8163.9863    2320.5371     1357.206    2265.7681   -194.83139    109.02472   -111.76216   -4950.5245 
47467000    16.878682    -5218.301    -5185.749    -5218.301            0    2145.2237    19.875295    19.886521    20.630009     8154.021    2249.7885    1771.1118    2414.7709    247.43229    464.65918   -58.809635   -4930.6432 
47468000    18.306845   -5217.6354   -5182.3291   -5217.6354            0    2030.7316    19.892419     19.88433    20.610561    8152.4538    2188.6793    2139.2226    1764.2928   -319.37344   -147.39042    11.967419   -4940.8849 
47469000     18.37357   -5218.4899   -5183.0549   -5218.4899            0    1965.4068    19.898986    19.904981    20.626642    8169.9846    1573.7508    2261.7217    2060.7479   -171.30552    298.23418    -157.7573    -4948.875 
47470000    17.136189   -5218.0628   -5185.0142   -5218.0628            0     1907.946    19.908138     19.85612    20.654471     8164.679    1978.7305    1930.8111    1814.2965   -155.32943   -99.750055   -235.82206   -4957.8285 
47471000    16.825195   -5217.1086   -5184.6598   -5217.1086            0    2099.3674    19.882995    19.884867    20.640923    8160.8163    2369.1855    1799.7081    2129.2086    137.24601    450.87924   -596.06703   -4934.7991 
47472000    17.676511   -5219.4206   -5185.3299   -5219.4206            0    1915.6456    19.906973    19.857503     20.63794    8158.2346    1753.2478    2388.0009    1605.6881   -79.099868    209.83897   -1.2239484   -4957.4074 
47473000     16.49864   -5217.3601   -5185.5411   -5217.3601            0    2390.7487    19.879962    19.869225    20.674068    8166.2451    2705.3198    2172.4153    2294.5109   -80.930073   -72.302385   -160.75887   -4900.8117 
47474000    16.965178    -5216.405   -5183.6862    -5216.405            0    2374.6634    19.889759     19.86912    20.606812    8143.6472     1986.798    2598.8299    2538.3623   -69.914433    160.55923    224.24962   -4901.6552 
47475000    17.676187   -5219.1624   -5185.0724   -5219.1624            0    2250.0792    19.894566    19.838363    20.627741    8141.2662    2844.1469    1843.3727    2062.7181   -28.376406    411.67725    278.43696   -4917.9159 
47476000    17.705905   -5218.5365   -5184.3892   -5218.5365            0     2398.932    19.889858    19.873421     20.62957    8154.4463    2733.8307    2014.1892    2448.7761    -144.6321    301.83003    -86.50193    -4899.098 
47477000    18.624561   -5214.3229   -5178.4038   -5214.3229            0    2364.9303    19.830746    19.813221     20.68534    8127.4966    2740.9763       2255.9    2097.9144   -106.54857    161.83767   -86.391773   -4898.0858 
47478000    18.718713   -5217.8124   -5181.7118   -5217.8124            0    1985.9837    19.831548     19.93015    20.615334    8148.1228    2178.2289     1791.477    1988.2452   -163.49716   -21.315458   -136.62509   -4945.7134 
47479000    17.860488    -5215.894   -5181.4485    -5215.894            0    2411.7434    19.865556    19.863753    20.622865    8137.8753    2529.4748    2149.2248    2556.5307   -259.64242    338.31235    661.75127   -4895.2166 
47480000    18.131387   -5215.6211   -5180.6532   -5215.6211            0    2359.9036    19.819107    19.912724    20.654827    8151.4774    2709.8623    1952.8485    2417.0001   -76.966768    233.93054   -81.310607   -4900.1057 
47481000     18.69417   -5217.0061   -5180.9528   -5217.0061            0     2298.811    19.839553    19.916521    20.584542    8133.6706    2900.8576    1772.1094    2223.4661   -260.07361       710.27   -139.39568    -4908.265 
47482000    17.981883   -5217.6008   -5182.9212   -5217.6008            0    2281.8852    19.863756     19.90856    20.601625    8147.0936    2558.3063    2119.5275    2167.8216      -269.54    274.46266    96.246322   -4911.7944 
47483000    17.932791   -5218.5533   -5183.9684   -5218.5533            0    2324.0147    19.888491    19.849403    20.642595    8149.1736    2276.1897    2420.9584    2274.8959    55.691725    451.96877     162.7871   -4907.7655 
47484000    18.719929   -5217.5185   -5181.4156   -5217.5185            0    2236.3127    19.858108     19.85254    20.639489    8136.7855    2255.6066    2726.9432    1726.3884   -41.005566      545.854   -13.994847   -4916.0398 
47485000    17.072061   -5218.6308   -5185.7059   -5218.6308            0    2222.0476    19.897038    19.866245    20.604324    8144.4655    2261.6843    1986.0371    2418.4215   -266.52553    245.40739     -2.75107    -4921.774 
47486000    17.555252   -5218.2126   -5184.3558   -5218.2126            0    2153.1287    19.870667    19.887311    20.653145    8161.5889    2551.5343    1726.7158    2181.1361   -341.44559    652.71505    209.00866   -4928.0723 
47487000    17.212546   -5217.0219    -5183.826   -5217.0219            0    2097.1207    19.904543    19.806385    20.644678    8138.8967    1898.7492     2433.056    1959.5568    -149.5281    499.85225   -143.93236   -4934.9031 
47488000     17.86426   -5217.9164   -5183.4637   -5217.9164            0    2459.8972     19.89479    19.829569     20.67909     8158.007    2721.2872    2604.8344      2053.57   -202.81883    193.07412   -197.74052   -4890.7945 
47489000    17.189941   -5217.5681   -5184.4159   -5217.5681            0     2127.581    19.911644    19.855506    20.609626    8148.1341    1736.5771    2567.4819     2078.684   -180.37297    239.87499    5.0749128   -4931.5908 
47490000    17.536343    -5216.787   -5182.9666    -5216.787            0    2316.6497    19.923801    19.875194    20.591138    8153.8726    2050.9417      2326.74    2572.2672   -144.91061   -27.537828 -0.033620301   -4907.4802 
47491000    16.740307   -5217.1734   -5184.8883   -5217.1734            0    2257.0192    19.921352    19.808883    20.626198    8139.5044    2250.5931     2342.368    2178.0966    162.29319    51.371018    728.41881   -4916.9658 
47492000    18.646837   -5220.4799   -5184.5179   -5220.4799            0    1968.0353    19.905923    19.854009    20.639632     8157.038    2055.6468    1961.5205    1886.9387   -205.45301    192.83505   -156.92402   -4950.3964 
47493000    17.878268   -5216.6772   -5182.1975   -5216.6772            0    2208.4213    19.883435    19.908409    20.549095    8134.3089    2262.5739    1806.0747    2556.6152   -310.05509     408.2931    259.99403   -4920.2112 
47494000    18.353768   -5216.9771   -5181.5803   -5216.9771            0     2422.654    19.836843    19.840495    20.701858     8147.688    3001.2522    2309.5879     1957.122   -141.75372    310.78811   -287.69161   -4893.7068 
47495000    18.782516   -5218.0021   -5181.7785   -5218.0021            0    2301.7635    19.968508    19.861186    20.563876    8155.5976    1702.3099    2359.3221    2843.6584   -157.62264    404.36468   -23.270735   -4908.0043 
47496000    18.129268   -5217.4604   -5182.4966   -5217.4604            0    2327.1882    19.850109      19.8996    20.584988    8131.2605    2901.8421     1788.143    2291.5794    1.4384872    82.889797    -78.83395   -4906.5244 
47497000    17.485409   -5218.1827   -5184.4606   -5218.1827            0    2404.9002    19.891006    19.868884    20.600719    8141.6536    2526.4628    2311.8754    2376.3625   -116.96982   -9.5877964   -208.14708   -4898.9084 
47498000    17.986714   -5217.2608   -5182.5719   -5217.2608            0    2232.8921    19.890924    19.868529      20.6487    8160.4365    2334.8816    2343.6324    2020.1623   -247.67344   -20.513233    221.00655   -4916.8318 
47499000    18.140117   -5219.5972   -5184.6124   -5219.5972            0    2117.1965    19.901065    19.875492    20.580782    8140.5936    2043.7323     2166.381    2141.4763   -134.37201    203.22458      139.394   -4933.2542 
47500000    17.671303   -5215.5731   -5181.4925   -5215.5731            0    2315.4564    19.836419    19.842958    20.719265    8155.3766    2243.0216     2697.978    2005.3698    -126.4494    215.34553    245.13932   -4906.0972 
Loop time of 323.353 on 64 procs for 250000 steps with 972 atoms

Performance: 133.600 ns/day, 0.180 hours/ns, 773.150 timesteps/s
195.1% CPU use with 32 MPI tasks x 2 OpenMP threads

MPI task timing breakdown:
Section |  min time  |  avg time  |  max time  |%varavg| %total
---------------------------------------------------------------
Pair    | 24.121     | 33.386     | 42.477     |  77.0 | 10.32
Bond    | 0.98423    | 1.2025     | 1.5313     |  11.1 |  0.37
Kspace  | 139.95     | 149.67     | 159.93     |  37.5 | 46.29
Neigh   | 0.097648   | 0.10119    | 0.1041     |   0.7 |  0.03
Comm    | 56.042     | 58.69      | 61.779     |  19.6 | 18.15
Output  | 0.53331    | 0.53457    | 0.53608    |   0.0 |  0.17
Modify  | 65.248     | 66.61      | 68.375     |   9.0 | 20.60
Other   |            | 13.16      |            |       |  4.07

Nlocal:        30.3750 ave          35 max          23 min
Histogram: 2 2 0 4 2 3 5 5 2 7
Nghost:        2702.00 ave        2730 max        2673 min
Histogram: 2 1 2 2 7 8 6 2 0 2
Neighs:        9662.06 ave       12250 max        6501 min
Histogram: 1 3 1 5 1 6 6 5 1 3

Total # of neighbors = 309186
Ave neighs/atom = 318.09259
Ave special neighs/atom = 2.0000000
Neighbor list builds = 250
Dangerous builds = 0

unfix		3
unfix		2
unfix		1

write_data	data.final.${pid}
write_data	data.final.1
System init for write_data ...
PPPM initialization ...
  extracting TIP4P info from pair style
  using 12-bit tables for long-range coulomb (../kspace.cpp:340)
  G vector (1/distance) = 0.37295088
  grid = 24 24 25
  stencil order = 5
  estimated absolute RMS force accuracy = 0.003341639
  estimated relative force accuracy = 1.0063247e-05
  using double precision FFTW3
  3d grid and FFT values/proc = 3458 576
Last active /omp style is kspace_style pppm/tip4p/omp
WARNING: Not all mixed pair coeffs generated from mixing. Use write_data with 'pair ij' option to store all pair coeffs. (../write_data.cpp:312)

write_restart   restart.lmp.${pid}
write_restart   restart.lmp.1
System init for write_restart ...
PPPM initialization ...
  extracting TIP4P info from pair style
  using 12-bit tables for long-range coulomb (../kspace.cpp:340)
  G vector (1/distance) = 0.37295088
  grid = 24 24 25
  stencil order = 5
  estimated absolute RMS force accuracy = 0.003341639
  estimated relative force accuracy = 1.0063247e-05
  using double precision FFTW3
  3d grid and FFT values/proc = 3458 576
Last active /omp style is kspace_style pppm/tip4p/omp
Total wall time: 0:05:23
