LAMMPS (30 Jul 2021)
  using 1 OpenMP thread(s) per MPI task
package omp 0
using multi-threaded neighbor list subroutines
echo both

include		in.partitions
variable        pid world 0
include		in.temp
variable        temperature equal 257.87
variable	tempDamp equal 100.0
include		in.pressure
variable        pressure equal 6875.0
variable        pressureDamp equal 1000.0 # This is 1 ps
include		in.seed
variable        seed world 745823

units		real
atom_style	full
read_restart    restart.lmp.${pid}
read_restart    restart.lmp.0
Reading restart file ...
  restart file = 30 Jul 2021, LAMMPS = 30 Jul 2021
  restoring atom style full from restart
  triclinic box = (-3.1940951 -0.025360415 -0.18396708) to (14.804094 22.605359 19.413965) with tilt (0.099199654 -6.0896638 0.049256543)
  4 by 4 by 4 MPI processor grid
  restoring pair style lj/cut/tip4p/long/omp from restart
  restoring bond style harmonic/omp from restart
  restoring angle style harmonic/omp from restart
  1008 atoms
  672 bonds
  336 angles
Finding 1-2 1-3 1-4 neighbors ...
  special bond factors lj:    0        0        0       
  special bond factors coul:  0        0        0       
     2 = max # of 1-2 neighbors
     1 = max # of 1-3 neighbors
     1 = max # of 1-4 neighbors
     2 = max # of special neighbors
  special bonds CPU = 0.012 seconds
  read_restart CPU = 0.050 seconds

include 	in.setup
variable	out_freq equal 1000
variable	out_freq2 equal 10000
variable	out_freq3 equal 1000

timestep	2.0

neigh_modify    delay 7 every 1

include		in.tip4p
# This is TIP4P/Ice

# create groups ###
group ox type 2
336 atoms in group ox
group hy type 1
672 atoms in group hy

# set charges - beside manually ###
set group ox charge -1.1794
Setting atom values ...
  336 settings made for charge
set group hy charge 0.5897
Setting atom values ...
  672 settings made for charge

# ### TIP3P Potential Parameters ###
pair_style lj/cut/tip4p/long/omp 2 1 1 1 0.1577 8.5
pair_coeff 1 1*2 0.000 0.000
pair_coeff 2 2 0.21084 3.1668
bond_style  harmonic
bond_coeff  1 450 0.9572
angle_style harmonic
angle_coeff 1 55 104.52
kspace_style pppm/tip4p/omp 1.0e-5
pair_modify tail yes

thermo          ${out_freq}
thermo          1000
thermo_style    custom step temp pe etotal epair emol press lx ly lz vol pxx pyy pzz pxy pxz pyz enthalpy

restart 	${out_freq3} restart.lmp.${pid} restart2.lmp.${pid}
restart 	1000 restart.lmp.${pid} restart2.lmp.${pid}
restart 	1000 restart.lmp.0 restart2.lmp.${pid}
restart 	1000 restart.lmp.0 restart2.lmp.0


include         in.dump
dump            myDump all atom ${out_freq2} dump.water.${pid}
dump            myDump all atom 10000 dump.water.${pid}
dump            myDump all atom 10000 dump.water.0
dump            myDump2 all dcd ${out_freq2} dump.dcd
dump            myDump2 all dcd 10000 dump.dcd
dump_modify     myDump append yes
dump_modify     myDump2 append yes


variable natoms 	equal  "count(all)"                        # NUMBER ATOMS
variable H      	equal  "enthalpy/v_natoms"                 # ENTHALPY-per-atom
variable Vol      	equal  "vol/v_natoms"                 # volume-per-atom
fix AVG all 		ave/time ${out_freq} 1 ${out_freq} v_Vol v_H file vol_enthalpy.dat
fix AVG all 		ave/time 1000 1 ${out_freq} v_Vol v_H file vol_enthalpy.dat
fix AVG all 		ave/time 1000 1 1000 v_Vol v_H file vol_enthalpy.dat



fix 		1 all shake 1e-6 200 0 b 1 a 1
       0 = # of size 2 clusters
       0 = # of size 3 clusters
       0 = # of size 4 clusters
     336 = # of frozen angles
  find clusters CPU = 0.001 seconds
fix             2 all nph tri ${pressure} ${pressure} ${pressureDamp}
fix             2 all nph tri 6875 ${pressure} ${pressureDamp}
fix             2 all nph tri 6875 6875 ${pressureDamp}
fix             2 all nph tri 6875 6875 1000
fix             3 all temp/csvr ${temperature} ${temperature} ${tempDamp} ${seed}
fix             3 all temp/csvr 257.87 ${temperature} ${tempDamp} ${seed}
fix             3 all temp/csvr 257.87 257.87 ${tempDamp} ${seed}
fix             3 all temp/csvr 257.87 257.87 100 ${seed}
fix             3 all temp/csvr 257.87 257.87 100 745823


run             250000
PPPM initialization ...
  extracting TIP4P info from pair style
  using 12-bit tables for long-range coulomb (../kspace.cpp:340)
  G vector (1/distance) = 0.37888988
  grid = 24 27 32
  stencil order = 5
  estimated absolute RMS force accuracy = 0.0024921669
  estimated relative force accuracy = 7.5050867e-06
  using double precision FFTW3
  3d grid and FFT values/proc = 3825 384
Last active /omp style is kspace_style pppm/tip4p/omp
Neighbor list info ...
  update every 1 steps, delay 7 steps, check yes
  max neighbors/atom: 2000, page size: 100000
  master list distance cutoff = 10.8154
  ghost atom cutoff = 10.8154
  binsize = 5.4077, bins = 5 5 4
  1 neighbor lists, perpetual/occasional/extra = 1 0 0
  (1) pair lj/cut/tip4p/long/omp, perpetual
      attributes: half, newton on, omp
      pair build: half/bin/newton/tri/omp
      stencil: half/bin/3d/tri
      bin: standard
Per MPI rank memory allocation (min/avg/max) = 9.313 | 9.326 | 9.337 Mbytes
Step Temp PotEng TotEng E_pair E_mol Press Lx Ly Lz Volume Pxx Pyy Pzz Pxy Pxz Pyz Enthalpy 
11500000    269.05537   -4811.7795   -4273.6355   -4811.7795            0    7863.3373    17.998189     22.63072    19.597932    7982.4725    8263.7718    8008.2236    7318.0165   -581.54843    450.72934    986.77841   -3358.2158 
11501000    256.60603   -4832.6173   -4319.3735   -4832.6173            0    6198.0011    18.353447    22.648932     19.28618    8016.9943    3933.7475    6169.3865    8490.8692   -1795.2851   -1103.4027   -796.50724   -3594.7055 
11502000    266.35424   -4849.4773   -4316.7359   -4849.4773            0     4498.727    18.144785    22.593768     19.74929    8096.4003     5695.767    6150.2594    1650.1545   -3100.1588    367.45615   -1249.5391   -3785.5366 
11503000     250.5063   -4820.8901   -4319.8466   -4820.8901            0    7327.8636    18.273501    22.744352    19.240321    7996.6418    6271.0831    7809.1526    7903.3552   -229.74435    -228.3637   -679.76157   -3465.2504 
11504000    240.05811   -4838.2233   -4358.0774   -4838.2233            0    6037.9071    17.952564    22.750862    19.686181    8040.5508    7110.2803    6327.3478    4676.0933   -1048.0249     -127.495     -1994.25   -3650.0532 
11505000    254.51913   -4816.3298   -4307.2601   -4816.3298            0     6377.346    18.298994    22.752865    19.215841    8000.6027    7449.6885    4838.8812    6843.4684   -237.10592    489.84509    366.98604   -3563.1476 
11506000    272.15617   -4839.7647   -4295.4187   -4839.7647            0    7586.3379    18.024658    22.701588    19.544679    7997.4553    8285.6967    8406.4772    6066.8398    431.83266   -1339.9719   -2639.3807   -3410.5886 
11507000    267.04828   -4839.2017   -4305.0721   -4839.2017            0    7996.5459    18.044487    22.784306    19.336361    7949.7798    7854.5482    8239.3754    7895.7141   -687.36351   -145.14143   -46.016221   -3377.9575 
11508000    258.92709   -4828.0623   -4310.1762   -4828.0623            0    6665.5856    17.998907    22.919029    19.489089    8039.5896    8548.0478    5749.7637    5698.9454   -2214.9967    988.48716   -2839.7796   -3528.6418 
11509000    260.53039   -4806.2609    -4285.168   -4806.2609            0    6602.3134    18.112202    22.869968    19.336499     8009.671    5844.1316    6712.9768    7249.8318    749.06873    170.02035    113.41902    -3513.933 
11510000    259.67628   -4808.6532   -4289.2685   -4808.6532            0    6680.9635     17.90988    23.060061    19.445689    8031.1264    9204.0504    5741.7371     5097.103    1059.2501    710.89641    527.57449   -3506.7557 
11511000    253.52341   -4820.6777   -4313.5996   -4820.6777            0    7156.1059    18.034292    22.947594    19.300313    7987.3112    6293.0257    8273.9128    6901.3791    257.16709   -103.17317   -795.96297   -3480.0081 
11512000    264.34272   -4791.6441    -4262.926   -4791.6441            0    5326.0661    17.904245    23.194018    19.418966    8064.1407    6838.0083    4140.2628    4999.9271   -89.449134   -1594.7746    1262.7792   -3636.5422 
11513000    273.20083   -4821.3529   -4274.9175   -4821.3529            0    6466.4925    18.088603     22.91792     19.31741    8008.0934     4995.403    8241.2483    6162.8261   -415.85552     1094.234    1805.2697   -3519.6969 
11514000    254.82714   -4816.3647   -4306.6789   -4816.3647            0    7561.6916    17.961013    22.889297    19.435645    7990.2843    6499.2848      7899.04      8286.75   -1660.2931   -651.86372   -1450.2978   -3425.5143 
11515000    263.88458   -4828.1661   -4300.3644   -4828.1661            0    6977.2971    18.095473    22.785794    19.432445    8012.3803    7970.7877    6286.4776     6674.626   -455.51154   -949.63033    2490.8683   -3485.0508 
11516000    259.73081   -4815.3204   -4295.8267   -4815.3204            0    7625.8686    17.853385    22.992662    19.393115    7960.8125    8201.9302    7892.8019    6782.8736   -308.47536   -1098.3505    1508.3017   -3410.4612 
11517000    263.51922   -4835.3632   -4308.2922   -4835.3632            0    4605.4486    18.040103    23.245446    19.234619    8066.0419    5375.0498    3252.7539    5188.5422    372.99254   -426.00355   -474.13634   -3766.5305 
11518000    259.92796   -4857.8449   -4337.9568   -4857.8449            0    5915.8443     17.78002    23.195228    19.451827    8022.1595    7823.3602    5786.3209    4137.8517    96.077344    232.56227    1633.8264   -3645.8328 
11519000    256.51667   -4819.6454   -4306.5803   -4819.6454            0    8492.8212    17.848993    23.367833    19.059074    7949.3928    8649.1004    7326.3937    9502.9697    1801.9097   -1326.6806   -436.19785   -3321.9758 
11520000    261.46155   -4838.4951   -4315.5397   -4838.4951            0    6674.0455    17.823516      23.2058    19.298777    7982.1471    7107.2875    4758.6596    8156.1896    409.67862   -325.80912   -1681.1329   -3538.6045 
11521000    255.43451   -4836.4583   -4325.5577   -4836.4583            0    6355.8637    17.934006    23.215815    19.164989    7979.3924    6782.9129    6081.0976    6203.5806    796.73634   -294.28876   -505.69173   -3585.9179 
11522000    248.01523    -4809.027   -4312.9659    -4809.027            0    6981.0551    17.833416    23.203668    19.330748    7999.0765     8910.622    6125.2345    5907.3089    1475.6303   -209.38151    659.83982   -3498.5677 
11523000    259.12441   -4862.6349   -4344.3541   -4862.6349            0    5820.3651    18.151393    22.938416    19.227121    8005.4851    6566.5968    4666.3687    6228.1296    1832.9507   -642.39578    263.77678   -3664.8161 
11524000    272.69628   -4814.8873   -4269.4611   -4814.8873            0    6889.3869    18.008869    22.965455    19.384902     8017.244    6423.4735    6670.0102    7574.6771   -1350.1909    677.16832    670.14829   -3463.9314 
11525000    265.37634   -4805.6338   -4274.8483   -4805.6338            0     6914.608    18.044963    23.054847    19.288585    8024.5114    5134.9398    7855.2951    7753.5892    1292.0424   -109.00374    1769.4754   -3465.6368 
11526000    255.99751   -4794.8141   -4282.7874   -4794.8141            0    7178.5161    17.951156    22.803645     19.50742    7985.3973    9644.2821    6663.8231     5227.443   -1215.8081   -835.58978   -1181.3499   -3446.7859 
11527000    270.55095   -4815.4101   -4274.2748   -4815.4101            0     6905.317    18.115619    22.935689    19.278788    8010.2249    7277.8139    5430.7195    8007.4176     352.9406   -1249.0491    769.62104   -3467.5894 
11528000    253.07667   -4839.1353   -4332.9507   -4839.1353            0    7244.3988    18.015895    22.810845    19.536582    8028.7101    6419.5637    7942.7999     7370.833   -1709.2728    835.36734   -1271.3115   -3484.7004 
11529000    259.31609   -4820.9845   -4302.3202   -4820.9845            0    9173.1626    18.101999    22.671377    19.378271    7952.7888    9120.3127    9233.1912    9165.9837   -355.07697    1022.2501    690.95658   -3238.3869 
11530000    272.85197   -4827.3216    -4281.584   -4827.3216            0    7862.8869    18.075698    22.849659     19.32048    7979.8129    6935.9818    8040.9432    8611.7358     -929.243   -1007.4551   -1232.6424   -3366.5217 
11531000    258.27332    -4798.669   -4282.0905    -4798.669            0    5283.2097    18.142959    22.751254    19.604206    8092.1273    5459.5806    5797.1382    4592.9104    263.15433    -1051.147   -669.96456   -3658.5905 
11532000    266.37216   -4837.0007   -4304.2235   -4837.0007            0     7068.545    18.181622      22.7942     19.31186    8003.5211    6616.9886    6417.2633    8171.3831   -70.979015   -318.05771    686.11053   -3479.1607 
11533000    253.80736   -4818.7749   -4311.1289   -4818.7749            0    7068.2977     17.95902    22.887498    19.495121    8013.2169    7136.9396    7709.5478    6358.4058    64.168442    336.60891    1516.6395   -3485.0954 
11534000    255.12168   -4845.8578    -4335.583   -4845.8578            0    6369.9041    18.036147    23.107836    19.093585     7957.754     7560.362     4821.341    6728.0094   -14.806184   -1653.9109    569.67165   -3596.3194 
11535000    261.24218   -4878.1289   -4355.6123   -4878.1289            0    5112.4622    17.945368    23.067432    19.491822    8068.7092    5241.5578    6152.7695    3943.0592    13.095618    1488.7831   -367.12047   -3754.0092 
11536000    260.79436   -4855.9676   -4334.3466   -4855.9676            0    6430.4712    18.229674    22.769783    19.194014    7967.1611    6161.4221    5587.0969    7542.8945    325.54902    426.48737    1327.4638   -3587.1717 
11537000    257.93592    -4822.643   -4306.7393    -4822.643            0    6767.5573    17.936612     22.95088     19.41222    7991.2544    7871.8636    6645.5408    5785.2676    390.83523    30.024314   -643.93564   -3518.0194 
11538000    261.71624   -4837.5406   -4314.0758   -4837.5406            0    5799.2055    18.098787     22.98667     19.31343    8034.9826    4186.3275    5661.4486    7549.8405    988.35982   -296.20894   -667.68842   -3634.5134 
11539000    248.28707   -4811.6862   -4315.0814   -4811.6862            0    7582.9033    17.918976    22.926761    19.320071    7937.1508    7616.2437     8811.655    6320.8113   -752.06658    751.45719   -213.10068   -3437.3209 
11540000    264.01926   -4833.1417   -4305.0706   -4833.1417            0    6525.4056    18.130517    22.840874    19.408781    8037.5038    5276.8898    7338.9632    6960.3638    364.45914    -10.04746   -1164.6611   -3540.1707 
11541000    250.79706    -4811.798   -4310.1729    -4811.798            0    6387.5397    18.152055    22.911906    19.382962    8061.3385    7503.8906    5300.1731    6358.5555   -969.04105    388.24239   -184.95355   -3559.2132 
11542000    251.39107   -4802.3867   -4299.5735   -4802.3867            0    9409.2038    17.937118    22.934869    19.213834    7904.2916    10842.636    10840.698    6544.2771    597.31298    1293.8878   -1286.0629   -3214.9182 
11543000    270.66937   -4828.1223   -4286.7501   -4828.1223            0    5732.2122    17.989688    23.095358    19.314297    8024.6709    6149.2963     5414.315    5633.0253    700.04515    424.59308    22.918381   -3615.9002 
11544000    252.67226   -4846.3665   -4340.9908   -4846.3665            0    7023.6583    17.957736    22.980466    19.342447    7982.1855    7885.6175    6757.8028    6427.5546    618.80185    54.815758   -589.96179   -3523.3527 
11545000    247.13546   -4823.6272   -4329.3258   -4823.6272            0    9138.6001    18.056418    22.790207     19.20202    7901.8135     7744.871    9982.7451    9688.1843    1220.6032    749.85065    68.418561   -3276.1949 
11546000    244.14584   -4824.9388    -4336.617   -4824.9388            0      5034.24    18.095266    22.966131    19.368641    8049.1861    4245.7849    5091.2096    5765.7254    594.81484    296.94441    1472.1095    -3745.652 
11547000    269.93519   -4855.8934   -4315.9897   -4855.8934            0    6377.4713    18.095405    22.929785    19.263819    7993.0162    5310.8689    6872.4944    6949.0504    88.299667    238.71543   -329.08708   -3572.5682 
11548000    246.73136   -4820.6887   -4327.1955   -4820.6887            0    7852.8496    17.851536    22.967366    19.433561    7967.8138    9792.7536    7428.6525    6337.1425    1064.9751   -675.44942    290.29849   -3414.6756 
11549000    245.95318   -4776.3458   -4284.4091   -4776.3458            0    7051.4817    17.894126    23.019534    19.414252    7997.0106    7726.3118    6469.1545    6958.9788      405.187    -1361.065    -1085.918   -3462.0075 
11550000    253.29717   -4837.9374   -4331.3118   -4837.9374            0    7026.4779    18.106506    22.887398    19.259632    7981.3996    5563.2192    7353.0291    8163.1853    350.43309    463.45226   -478.65051   -3513.4261 
11551000    273.28169   -4805.4334   -4258.8362   -4805.4334            0    6484.8129    18.036206    22.944212    19.489003    8065.0661    7596.8436    6341.0142     5516.581   -516.18786     1541.608   -208.77132   -3496.0879 
11552000    264.89236   -4852.1292   -4322.3118   -4852.1292            0    9157.8425    18.040679     22.82447    19.192375    7902.8239    9418.1926    8860.5015    9194.8335   -565.34501   -76.538374     198.3973   -3266.8285 
11553000    245.94063   -4849.6153   -4357.7036   -4849.6153            0    5337.5616     18.00207    23.041033    19.395828    8045.1234    5681.3074    5608.4316    4722.9458    563.07203   -1992.6709     -792.835   -3731.4482 
11554000     270.7336   -4814.6206   -4273.1199   -4814.6206            0    7848.1933    17.964621    22.855477    19.392963    7962.5563    8215.7702    7215.9294    8112.8803    354.78682   -1373.4681   -690.18008   -3361.7429 
11555000     265.3589   -4820.9414   -4290.1908   -4820.9414            0    7593.9886    18.056524    22.862749    19.297495    7966.4261    7557.7608    7967.0795    7257.1255    801.41197    1359.9772   -1058.4179   -3407.9049 
11556000    276.58947   -4813.5708   -4260.3577   -4813.5708            0    8664.2114    17.929249    23.028269    19.323616    7978.3264    9679.5088     8514.979    7798.1465    1270.2288   -79.445393   -1010.6631   -3252.2273 
11557000    243.09023   -4825.8366   -4339.6261   -4825.8366            0    6946.5735    17.892504    23.211663    19.210596    7978.4444    7391.0019     6980.429    6468.2897    236.41051    -1200.771    -1068.591   -3531.3407 
11558000    263.80674    -4841.517    -4313.871    -4841.517            0    7087.6277    17.846009    23.301105    19.228234      7995.71    7884.3124    5200.3941    8178.1765    1377.7985   -1216.2223    987.48442   -3487.3882 
11559000       251.51   -4806.6418   -4303.5907   -4806.6418            0    6356.9372    17.863495    23.329152      19.3129    8048.4615    6647.9919    5879.3599    6543.4598    974.41144   -1284.9046   -40.997449   -3557.4226 
11560000    254.20883   -4824.1041    -4315.655   -4824.1041            0    7328.0029     17.88101    23.064086    19.326187    7970.2961    8118.4127    5711.0345    8154.5614    -506.0632   -1537.0297   -903.75397   -3463.8583 
11561000    264.06428   -4815.4926   -4287.3315   -4815.4926            0    7000.2546     18.11848    22.988022    19.244714    8015.5778    6694.5915     7251.471    7054.7013   -115.50076    1157.8309    995.74564   -3469.0088 
11562000    268.82261   -4802.2172   -4264.5388   -4802.2172            0    6884.6981    17.918487    23.098941    19.417645     8036.926    7859.0867    5810.9214    6984.0863   -1358.3292    76.617581   -2020.1598   -3457.5811 
11563000    267.60537    -4810.638   -4275.3942    -4810.638            0    7860.6542    17.772957    23.050762    19.424672    7957.9032    8224.7852    8035.3415    7321.8359    1788.2044   -500.40137    1913.5636   -3363.1035 
11564000    258.07397   -4830.8812   -4314.7013   -4830.8812            0    6491.7357    17.925496    23.357667    19.101325     7997.682    5887.8194    5714.7744    7872.6132    981.34059    -382.8962   -1278.3529   -3557.5184 
11565000    253.45445   -4843.0796   -4336.1394   -4843.0796            0    5925.6145    17.818853    23.168274    19.366422    7995.0799    6271.5799    5963.9025    5541.3611   -2003.1309    713.52109   -1135.7209   -3645.2125 
11566000    267.10819   -4805.7757   -4271.5264   -4805.7757            0    6809.9456    18.070694    23.177666    19.101973    8000.6036    5682.5404    5523.6006    9223.6958   -1463.5642     1416.316     698.1483   -3476.9379 
11567000    258.12529   -4845.5728   -4329.2903   -4845.5728            0    6511.8796    17.946549    22.966619    19.440522    8012.8303     8151.624    5815.9548    5568.0599   -794.97255    -1124.211   -771.00163   -3568.3191 
11568000    250.24413    -4811.313   -4310.7939    -4811.313            0    8823.1206    18.010402    22.876255    19.308358    7955.2474     9205.992    8332.0087    8931.3612    122.12521   -1009.1936    800.53284   -3287.1431 
11569000    247.75483   -4835.1496   -4339.6094   -4835.1496            0      7936.09    17.998411    22.857757    19.347902    7959.7906    7610.0315    7654.6144     8543.624   -633.35945    931.52553   -720.46556   -3418.3453 
11570000    259.90449   -4815.7615   -4295.9204   -4815.7615            0    6205.1211    18.024173    23.096103    19.215899    7999.3516    3526.7486     6703.753    8384.8617   -203.58815    244.01536   -2395.4313   -3572.0165 
11571000    256.18789    -4818.083   -4305.6755    -4818.083            0    7329.1579    17.901427    23.155954    19.301781    8001.0636    7942.6832    6759.4198    7285.3708    246.53101    1133.0117    207.33005   -3450.4558 
11572000    283.98104    -4820.121   -4252.1238    -4820.121            0    5111.7415     17.89015    23.268937    19.321987     8043.449    5095.6202    4310.3846    5929.2198   -239.42998   -517.25045   -906.64879   -3652.4886 
11573000    254.95627   -4850.2197   -4340.2757   -4850.2197            0    8046.8624    17.792132    22.978418    19.372396    7920.1143    9723.9468    6989.8694    7426.7712    1098.0392   -1023.5941    351.10713   -3410.8088 
11574000    259.21733   -4869.6277    -4351.161   -4869.6277            0     4962.146    18.084263    22.924006    19.451754    8063.9919    6462.9669     4671.229    3752.2421   -396.07047   -284.44272    773.96015   -3767.5876 
11575000    259.82612   -4838.9935   -4319.3092   -4838.9935            0    7235.6505    18.021358     22.93773    19.292263    7974.8241    8702.4346    6649.6708     6354.846    1388.7635     79.99565    491.35153   -3477.7695 
11576000     256.2861   -4817.6236   -4305.0198   -4817.6236            0    3942.1042      18.0267    22.878761    19.612711    8088.8423    4284.2038    4273.7836    3268.3252   -278.19983    522.20832   -476.33622   -3839.9797 
11577000    248.47108   -4843.6253   -4346.6524   -4843.6253            0    9172.5233    18.114717    22.621816     19.29915    7908.5563    8834.5261    9114.8994    9568.1444    211.24427    106.97366    115.88409   -3288.7103 
11578000    264.51159   -4791.0543   -4261.9985   -4791.0543            0    8156.9863    18.022523    22.764622    19.524451    8010.4119       9070.8    8464.6926    6935.4663   -1379.1033   -464.12657   -473.55735   -3309.0696 
11579000    264.71783    -4866.273   -4336.8046    -4866.273            0    5925.8574    18.055474    22.829066    19.390383    7992.5145    7862.3653    5178.2688     4736.938   -1194.7154   -784.94711   -40.061663   -3646.0711 
11580000    268.72763   -4807.8837   -4270.3953   -4807.8837            0    6753.4317    18.155914    23.019782    19.262163    8050.5282    8697.0547    4881.6898    6681.5506   -119.21339    163.93255    1282.3074   -3477.4837 
11581000    255.59145     -4820.39   -4309.1755     -4820.39            0     5152.788    18.063139    23.021135    19.365147    8052.6859    6138.2962    4219.4625    5100.6052   -1678.9936    -10.42087    -409.3584   -3704.0312 
11582000    262.33212   -4851.5682   -4326.8716   -4851.5682            0     7219.227    17.921222    22.959272    19.311667    7945.9443    6488.8672    7673.2614    7495.5523   -1006.2377   -507.20149    523.90763   -3490.2827 
11583000    253.02472   -4797.9156   -4291.8349   -4797.9156            0    8234.3071    18.054308    22.994853     19.24967    7991.6191     6098.951    9157.2987    9446.6716     417.6437    797.71681   -2108.7763     -3332.13 
11584000    269.73742   -4811.7346   -4272.2265   -4811.7346            0    6066.9345    17.981768    22.925828    19.458301    8021.6251    6608.5808    6432.8689    5159.3536   -382.49133    909.02723    430.99188    -3562.473 
11585000    250.91878   -4824.1999   -4322.3313   -4824.1999            0    7899.5487    18.105487    22.906918    19.188313    7958.1784     7277.648    7585.6689    8835.3291   -1629.3514    419.62743   -1817.3009   -3405.4949 
11586000    256.47375   -4824.9676   -4311.9884   -4824.9676            0    7606.2536    18.054038    22.919579    19.321494    7995.0596    6652.4055    7501.6647    8664.6905   -168.54378    331.99755     2509.527   -3425.1012 
11587000    246.08909   -4820.6657   -4328.4571   -4820.6657            0    4942.4957    18.073765    23.005605      19.3644    8051.6766    6301.3558    4623.6318    3902.4995   -22.474106    382.50937    269.81649   -3748.0824 
11588000     261.1791   -4837.6313   -4315.2408   -4837.6313            0    4819.1805    18.005594    23.034439    19.401108    8046.5856    5378.0488     3829.402    5250.0907      1023.51   -1080.0789   -1554.7665   -3749.7042 
11589000    241.43647   -4838.1464   -4355.2437   -4838.1464            0    9163.3096    17.751152    23.057183    19.367093    7926.7879    10493.325    7800.0773    9196.5268   -364.73803   -288.49664   -2447.7748   -3295.9278 
11590000     258.0428   -4836.9777   -4320.8603   -4836.9777            0    6787.2774    18.067446    22.907132    19.316752    7994.6894    7388.3232    6035.4722    6938.0369    1290.8123   -592.70626   -543.78117   -3529.5021 
11591000    248.56824   -4821.6662    -4324.499   -4821.6662            0    7535.4229    18.113282    22.690385    19.423216    7982.8899    8644.5849    7437.0145    6524.6694     407.9229   -506.66484   -1743.0863    -3447.208 
11592000    251.92684   -4823.3425   -4319.4577   -4823.3425            0    6349.9413    18.167089    22.709506    19.454453    8026.2382    5402.8222    7146.8728    6500.1289   -548.68668   -598.56665   -998.85429   -3576.1688 
11593000     256.8162   -4805.6061    -4291.942   -4805.6061            0    6293.1514    18.146647    22.680917    19.526996    8036.9716    7192.5593    6721.1136    4965.7812    -2.533537   -29.449669    591.04855   -3554.3155 
11594000    263.55219   -4844.1532   -4317.0163   -4844.1532            0    6541.3444    18.224972    22.673833    19.447662    8036.3565     4242.962    8493.5858    6887.4855    701.87505    833.62815    411.15197   -3550.3575 
11595000    261.52872   -4874.1115   -4351.0218   -4874.1115            0    7552.5241     18.08865    22.648646    19.436178    7962.6799     7279.046    7458.1329    7920.3934   -306.14564    799.04235   -1611.0272   -3473.9659 
11596000    257.65334   -4824.3914   -4309.0529   -4824.3914            0    5316.1452    18.186159    22.727333    19.434157    8032.5821    4178.3422    6320.9706    5449.1228    72.194965    86.017039   -1701.1375   -3686.2826 
11597000    261.05108   -4829.7128   -4307.5784   -4829.7128            0     7698.482    18.103854    22.556853    19.541124    7979.9303    7218.1151    8903.0148     6974.316    500.94234     633.4117   -345.27634    -3411.636 
11598000     255.1894   -4830.6635   -4320.2532   -4830.6635            0    6296.3531    18.313726     22.72761    19.364138    8059.8812    4676.6456    6345.4741    7866.9397    177.98385    362.71653    193.06567   -3580.1477 
11599000    246.74946   -4811.6547   -4318.1252   -4811.6547            0    7500.8731    18.065835    22.706781    19.450952    7979.1105    8389.3685    7342.0907    6771.1601    332.26734    558.79384   -224.32467   -3445.2701 
11600000     261.6433   -4833.3868   -4310.0679   -4833.3868            0    7331.1086     18.13132    22.909157    19.173251    7964.0557    5062.2586    7886.7843    9044.2828   -626.66572    693.11076   -104.57111   -3458.5774 
11601000    243.67647   -4837.3573   -4349.9742   -4837.3573            0    5936.7315    18.080915    22.808959    19.504413    8043.7539    5560.1619    6992.2323    5257.8003     298.8384   -322.88798    61.641084   -3653.5368 
11602000    248.35269   -4812.9075   -4316.1714   -4812.9075            0    4813.7713    18.099606    22.831803    19.511427    8063.0312    5572.4076    5033.6171    3835.2893    453.97978    561.66528   -781.80896   -3750.1151 
11603000    252.78911   -4802.0712   -4296.4618   -4802.0712            0    5947.4946     18.33837    22.485836    19.478305     8031.949    6862.7745    7509.0365    3470.6728    38.103213    1665.8606    126.45457   -3599.7857 
11604000     261.4136   -4825.5721   -4302.7126   -4825.5721            0     5600.447    18.179205    22.713688    19.469713    8039.3716    5051.2631    7004.5209    4745.5568    163.06713    150.45793   -1776.1952   -3646.0827 
11605000    274.02425    -4808.097   -4260.0147    -4808.097            0    7861.0878    18.101296    22.761593    19.339962    7968.3414    7371.5669    7970.1966       8241.5   -172.19326    543.82879   -447.64667    -3346.477 
11606000    241.77274   -4820.2914   -4336.7161   -4820.2914            0    6739.5427    17.989588    22.773395    19.600363    8029.9549    6396.5654    7557.0683    6264.9943   -1288.2928    910.88556     239.8726   -3547.4573 
11607000     267.3327   -4829.9604    -4295.262   -4829.9604            0    8426.8748    18.159378    22.544351    19.426793    7953.1619    6836.4514     10228.63    8215.5427    1621.8951   -70.289001    1704.9433   -3317.8397 
11608000    262.00534    -4826.772    -4302.729    -4826.772            0    6710.8701    18.059892    22.782191    19.457291    8005.5838    7629.2739    7017.1696    5486.1669   -413.81754    566.86828   -1225.3621   -3519.2132 
11609000    260.65044   -4841.4608   -4320.1277   -4841.4608            0    6721.6272    18.088272    22.727411    19.404992    7977.3845     6772.479    6843.4614    6548.9413    243.15601    762.06846   -371.32156   -3538.1203 
11610000    257.82643    -4808.799   -4293.1143    -4808.799            0    5333.2929     18.18515    22.826122    19.395367    8050.9481    5178.9346    5430.7702     5390.174   -862.11338   -83.728193   -1380.6961   -3666.9067 
11611000    263.69199   -4806.0217   -4278.6051   -4806.0217            0    6277.6701    18.046457    22.821687    19.517935    8038.4731    6563.1468    6672.2388    5597.6246   -1138.5848   -194.56385   -108.81747   -3542.6557 
11612000    261.99043   -4831.0458   -4307.0326   -4831.0458            0    6682.2973    18.080785    22.705961    19.453517    7986.4779     5225.274    8017.7459    6803.8721    -469.4056   -826.18839    3441.3491   -3528.7148 
11613000    261.33274   -4847.0797    -4324.382   -4847.0797            0    8286.8497    18.067866    22.715903    19.372987    7951.2139    8681.1997    8488.3254    7691.0239    -359.0787    255.16681   -377.40226   -3363.4364 
11614000     258.5791   -4822.1667   -4304.9766   -4822.1667            0    4903.1808     18.18484    22.766724    19.506703    8075.9546    5186.5435    5642.8094    3880.1894   -590.27096   -356.96536   -329.91238   -3727.4823 
11615000    259.95691   -4835.8768   -4315.9308   -4835.8768            0    5491.6649    18.153523     22.72751    19.470016    8033.0244    4037.9709    6592.5211    5844.5027   -328.49577   -732.40138    581.93903   -3672.5635 
11616000    239.86239   -4819.9716   -4340.2172   -4819.9716            0     5595.664    18.189944    22.717609    19.513345    8063.5393    4222.6826    7332.5713    5231.7382   -147.57639    647.56391   -525.05662   -3682.1758 
11617000    251.51508   -4855.3136   -4352.2524   -4855.3136            0    7004.1477    18.216732    22.413106     19.55362    7983.6169    6614.4527    8870.7046    5527.2858   -802.93986     136.5924   -379.51475   -3536.7394 
11618000    251.22348   -4834.5896   -4332.1116   -4834.5896            0    5921.3947    18.027969    22.810769    19.513642    8024.6308    5184.8034    7207.8636    5371.5171    -175.8254    706.86923    1644.0461   -3639.1248 
11619000    253.64393   -4839.0242    -4331.705   -4839.0242            0    6442.7024    18.189418    22.770003    19.317478    8000.7799    4972.9201    7629.5335    6725.6535    902.13793    1264.8498   -1134.3629   -3579.9501 
11620000    263.36973   -4843.2017   -4316.4298   -4843.2017            0    5369.1708     18.36455    22.692397    19.359639    8067.8518    4879.8747     5177.255    6050.3827   -34.655376   -971.21502   -409.16703   -3684.6859 
11621000    257.10544   -4853.6324   -4339.3898   -4853.6324            0    5823.4118    17.988771    22.848406    19.548761    8034.8289     5036.104    5767.4323     6666.699    855.32157   -391.12973    143.19761   -3657.0039 
11622000    263.32916   -4800.1849   -4273.4941   -4800.1849            0    7095.1128    18.208697     22.74341    19.241641    7968.4994    6376.9653    7402.2582    7506.1148    195.41739   -895.94453    -1979.865    -3448.954 
11623000    247.84422    -4819.928   -4324.2089    -4819.928            0    5592.5732    18.096625    22.864994    19.427299    8038.6126    4401.1892    6001.3686     6375.162     330.3676   -1323.3531    888.33327   -3668.5641 
11624000    253.95311   -4799.7033   -4291.7657   -4799.7033            0    8465.7775    18.066082    22.819303    19.333648    7970.4005    8426.9805    8859.0713    8111.2807   -1114.4805   -683.80732   -1004.5468   -3307.7027 
11625000     271.0891   -4826.0682   -4283.8565   -4826.0682            0    5582.2985    17.996118     22.85324    19.550544    8040.5442    6045.5161    5840.9872     4860.392    1689.7496   -808.06886    1495.3437   -3629.2589 
11626000    249.88341   -4829.9759   -4330.1783   -4829.9759            0    7104.8567    18.186288    22.830787    19.243092    7989.8715    7165.7795    7390.9528    6757.8376   -98.546912    506.81792   -797.77518   -3502.2914 
11627000    256.97162    -4841.305     -4327.33    -4841.305            0    6260.0374    18.070018      22.8229      19.4614    8026.0798    5945.6762    7165.9243    5668.5118   -457.81634    871.07203   -647.43074   -3594.5792 
11628000    255.56879   -4847.4702    -4336.301   -4847.4702            0    7173.5446    18.140252    22.850648    19.299428     7999.932    8163.5547    7261.0901     6095.989    119.05152    818.37025    -549.8728   -3499.3578 
11629000    256.72739   -4773.7413   -4260.2547   -4773.7413            0    7407.9446    18.107231    22.732112    19.429554    7997.5075    7433.3378    7658.9138    7131.5821     1014.081    787.27089   -1817.6903   -3396.2259 
11630000    252.43405   -4852.8601   -4347.9608   -4852.8601            0    7049.4457    18.028871    22.708536    19.494466    7981.2148    7738.5435    6986.0281    6423.7656    28.428762   -470.00357   -801.64436   -3527.4206 
11631000    248.02084   -4842.6941   -4346.6218   -4842.6941            0    8108.7631    17.991286     22.71221    19.430749    7939.8291    7238.9233    8714.1495    8373.2167    263.57262   -1393.7605   -248.17262   -3407.6735 
11632000    270.52733   -4826.6731    -4285.585   -4826.6731            0    4923.8614    18.098414    22.944889    19.357244    8038.4069    5088.1591    4320.4731    5362.9521    277.12241   -683.50259    441.59249   -3708.3513 
11633000    265.66702   -4825.3138    -4293.947   -4825.3138            0    6127.2986    18.124851    22.819675    19.468264    8052.1363     5675.568    6955.9942    5750.3335   -969.80548    991.15859   -870.43057   -3574.4051 
11634000    252.23278   -4842.1226   -4337.6259   -4842.1226            0    7088.1596    17.921261    23.206965    19.180657     7977.198    6768.3464    6678.8015     7817.331   -494.22954    1561.8947   -2291.3213   -3512.9947 
11635000     249.6808   -4824.2584    -4324.866   -4824.2584            0    6680.3875    17.905646    23.164886    19.237739    7979.4728    6107.1759     7207.344    6726.6426    511.42668     868.9753   -696.82355   -3547.4531 
11636000    261.85711   -4814.8483   -4291.1017   -4814.8483            0    6467.1583    17.852997    23.252371    19.275178    8001.5985    7763.0671    6012.8006    5625.6072   -824.97102    -398.7281   -265.70013    -3536.416 
11637000    259.06994   -4835.5902   -4317.4183   -4835.5902            0    6188.5843     17.86139    23.199037    19.191942    7952.5087    5988.2882    6088.4399    6489.0248    15.339904   -409.52443    183.25245   -3599.6714 
11638000    256.54854   -4827.4907    -4314.362   -4827.4907            0    7557.6661    17.863867    23.260193    19.180265    7969.7258    7696.5443    6790.1493    8186.3046   -929.68899   -452.88459   -1716.0413   -3435.9324 
11639000    245.69153   -4844.7801   -4353.3667   -4844.7801            0    5618.7877    17.934168     23.18502    19.327321     8036.378    5992.5274    5120.7661    5743.0697    668.28556   -994.79492    77.540444   -3694.8317 
11640000    265.53732   -4827.7847   -4296.6772   -4827.7847            0    9135.5142    17.970541    22.999212    19.175561    7925.4179    8251.1254    9525.4405    9629.9768   -1325.1675   -171.59803   -2889.2926   -3240.7571 
11641000    250.33618   -4821.9015   -4321.1982   -4821.9015            0    8041.5727     17.79776    23.009784     19.40872    7948.3098    9020.9327    8597.6503     6506.135    169.79775    542.52238   -305.26849   -3389.0356 
11642000    248.75071   -4803.0718   -4305.5396   -4803.0718            0    7662.5856    18.090852    22.943201     19.16869    7956.1955    5641.2182    8512.9003    8833.6383   -1078.1822   -729.81985   -365.57433   -3416.4272 
11643000    244.77794    -4813.906   -4324.3199    -4813.906            0    6889.6089    17.931976    22.991202    19.395423       7996.3    6498.9204    7205.7019    6964.2045   -1659.4693    1136.1296   -843.10642   -3520.8687 
11644000    272.34715   -4853.5684   -4308.8404   -4853.5684            0    8271.8799     18.02087    23.060399    19.182665    7971.7104    7691.6551    8443.0702    8680.9144    2048.4833     686.7524    177.74196   -3347.1581 
11645000    251.11824   -4817.3438   -4315.0763   -4817.3438            0    5875.1643    17.980369     22.98452    19.495336    8056.8403    4834.5954    7154.3623    5636.5352   -1410.2057    1234.0186   -229.77924   -3624.7401 
11646000    252.85804   -4829.1901   -4323.4428   -4829.1901            0    7055.6107     18.01523    22.766756    19.363251    7941.8054    6506.7601    7199.1508    7460.9213   -687.05298   -587.90395   -129.71161   -3506.2401 
11647000    259.43143   -4867.3031   -4348.4081   -4867.3031            0    5697.5687    18.126762    22.714999    19.503027    8030.3595     2939.719    7012.0674    7140.9198    1120.0385    774.01733   -1041.3548   -3681.1399 
11648000    261.05817    -4841.264   -4319.1154    -4841.264            0      9062.23    18.057143    22.756887    19.369951    7959.5848    7790.1517    10691.915    8704.6231    844.51303    1919.7559    2021.6769   -3267.1502 
11649000     270.0833   -4823.3602   -4283.1603   -4823.3602            0    7038.1662    18.156762    22.929985    19.251862    8015.2101    6270.1058     7750.371    7094.0219    127.20644    1192.3636    841.58126   -3460.4436 
11650000    257.80371   -4840.5526   -4324.9134   -4840.5526            0    7995.5411    18.020479    22.840919    19.365156    7970.7816    8558.0915    7816.3871    7612.1447   -2366.8884    -142.7608   -2663.1441   -3395.4663 
11651000    260.53359   -4781.1271   -4260.0277   -4781.1271            0    8443.8081    18.053803    22.760378    19.450451    7992.4118    9324.2561    8125.1389    7882.0293    590.65178   -963.17864    1050.7146   -3275.8079 
11652000    256.27386   -4817.0392   -4304.4599   -4817.0392            0     8501.161    18.180594    22.691728    19.299719    7962.0815    5542.9647    10445.527    9514.9911   -1015.9915    695.42271    672.88004   -3317.3153 
11653000    260.48487   -4823.8021   -4302.8002   -4823.8021            0    5954.0436    18.161728    22.774133    19.485985    8059.7468    6874.7897      6011.54    4975.8012    577.03153   -502.70302    3941.3464   -3602.9432 
11654000    261.61532   -4836.4374   -4313.1745   -4836.4374            0    6228.7067    18.164903    22.779798    19.335661    8000.9578    5794.2062    7371.9584    5519.9554    -605.3701    754.16103   -371.28222   -3586.3731 
11655000    258.00195   -4844.8559   -4328.8201   -4844.8559            0    6539.4162    18.037918    22.704563    19.486624    7980.6113     5949.512    7655.7631    6012.9735    64.061585    197.09438     1192.988   -3567.7038 
11656000    259.28963   -4857.2446   -4338.6334   -4857.2446            0    6336.6155    18.258831     22.52371    19.442461    7995.8406    5869.8681    8218.6978    4921.2805   -1098.4979    160.70499   -241.20601   -3599.7134 
11657000    258.72204   -4843.2013   -4325.7253   -4843.2013            0    6167.6786    18.027671    22.643927    19.573417    7990.2068    5930.7212    6432.4312    6139.8835   -535.82923    362.87911    1342.8513    -3607.012 
11658000    252.94562   -4847.1746   -4341.2521   -4847.1746            0    7680.2085    18.202197       22.771    19.265559    7985.2321    8208.9105    8293.7022    6538.0126    814.32036   -516.30933     9.501795   -3446.8425 
11659000    246.52754    -4828.486   -4335.4004    -4828.486            0    6538.0415    17.909065    22.716303    19.709641    8018.4287    8526.6598    6610.9053    4476.5594   0.75410174    588.01775     145.6416   -3570.8382 
11660000    260.24202   -4820.7497   -4300.2335   -4820.7497            0    7945.4857    18.143457    22.745451    19.340716    7981.5484    8038.1514    7519.1109    8279.1948   -953.31835    359.54258   -835.32051   -3375.3575 
11661000    248.92056   -4839.9703   -4342.0984   -4839.9703            0    6385.3081    18.145167     22.57549    19.566881    8015.2996    8837.7632     5548.692    4769.4691    1204.7649    1067.8312    627.02099   -3595.6883 
11662000    255.44093   -4829.4312   -4318.5178   -4829.4312            0    5428.8824    18.318624    22.670538    19.387272    8051.3996    4575.9062    5351.2358    6359.5051   -1244.0551   -31.402553    329.04001   -3681.0508 
11663000    251.92903   -4815.4746   -4311.5854   -4815.4746            0    7240.9876    18.078771    22.666013    19.464859    7976.1869    7161.6637    7327.9204    7233.3788    214.65959   -1110.5909    -1108.932   -3469.2811 
11664000    252.58585   -4833.6073   -4328.4044   -4833.6073            0    8592.9543    18.014783    22.711259    19.411639    7942.0472    9009.0403    8206.8576    8562.9649    27.489519   -39.538414    353.00083   -3333.1117 
11665000     250.0324   -4822.0251   -4321.9294   -4822.0251            0    8409.6537    18.034274    22.844261    19.313348     7956.707    7175.5934    9057.2158    8996.1518   -2185.4258    619.81058    610.14932   -3346.0697 
11666000    270.88853   -4813.8038   -4271.9933   -4813.8038            0    5896.3237    18.016097    22.922805    19.434484    8026.0434    6552.1668    5840.7366    5296.0675    -68.12935   -55.699472    1063.0542   -3581.8191 
11667000    251.19947    -4826.047    -4323.617    -4826.047            0    9109.0891    17.861121    22.994196    19.265981    7912.5794    8443.0958     9271.821    9612.3506   -298.08925    1001.6432    334.74925   -3272.4568 
11668000    261.18748   -4812.3368   -4289.9296   -4812.3368            0    6242.3741    17.973292    23.279426    19.121798    8000.7117     5150.817    6638.1112    6938.1942   -412.54667    771.17498    736.20288   -3561.5558 
11669000    273.69743   -4823.7416   -4276.3129   -4823.7416            0    6269.4959    17.904564    23.244946     19.28259    8025.2334    5367.7245    6852.0355    6588.7277   -355.74146     5.678192   -1154.5892   -3542.5324 
11670000    255.78628   -4806.4279   -4294.8237   -4806.4279            0     8540.457    17.729803    23.383157    19.108249    7921.8742    9419.0081    7274.9713    8927.3915   -940.07756   -191.17712    -297.9141   -3308.1242 
11671000    253.62636   -4806.5387   -4299.2546   -4806.5387            0    6240.6435     17.93909    23.192858    19.315904    8036.5511    4962.5262    6360.0567    7399.3477   -2173.2543    1526.7349   -1121.4343   -3567.8209 
11672000    257.92815   -4846.4853   -4330.5971   -4846.4853            0     6404.025    17.979724    23.000662    19.317532    7988.6794     5700.364    6447.8488    7063.8622   -1146.3863    680.31506    404.74972   -3584.4853 
11673000    248.99513   -4838.2172   -4340.1961   -4838.2172            0     5685.161    17.988462    22.974747    19.391104    8013.9624     6597.771    4957.8368    5499.8752   -515.65725   -1079.8317    602.86735   -3675.7406 
11674000    261.84842   -4850.6101   -4326.8809   -4850.6101            0    5890.2032    17.955416    22.923839    19.466168    8012.4125    7942.4133    6232.7168    3495.4795     158.0573   -424.43524     794.0235    -3638.594 
11675000    246.57815   -4806.7252   -4313.5385   -4806.7252            0     10155.61    17.993762     22.76144     19.27118    7892.7806    9277.2812    10141.492    11048.056    949.57772    32.588142    1651.7877   -3144.5455 
11676000    256.00763   -4821.5656   -4309.5187   -4821.5656            0    9292.9859    18.058716    22.680756     19.29648    7903.5555    8618.3001    10258.514    9002.1437   -1356.4479    1334.9218    486.66171   -3238.3603 
11677000    252.36697   -4799.3209   -4294.5558   -4799.3209            0    5047.2132    18.154675    22.777885    19.486821    8058.2895    4922.1184    5312.5189    4907.0023    426.97251   -687.85939    573.33514   -3701.3978 
11678000    269.85964   -4849.6354   -4309.8828   -4849.6354            0    6803.8245     17.97121    22.770097    19.525132    7989.8047    6508.0996    8319.3821     5583.992   -143.01771   -206.13813   -698.12008     -3517.08 
11679000     263.4895   -4825.0037   -4297.9921   -4825.0037            0    7111.9659    18.028298    22.851145    19.433336    8005.8979     6300.336    7902.0126    7133.5491    504.86156   -26.384072    1094.0452   -3467.6145 
11680000    269.60639   -4848.3032   -4309.0571   -4848.3032            0    7666.3104    18.134136    22.802637    19.329423    7992.8347    9721.7381    6201.6354    7075.5578    22.864457   -1787.4484    273.70455    -3415.416 
11681000    256.67593   -4847.2123   -4333.8287   -4847.2123            0    5875.3681    18.092612    22.772227    19.469888    8021.7703      5665.05    5553.3334    6407.7208   -925.82376   -278.83181    1372.0959   -3646.4736 
11682000    245.65317   -4796.3134   -4304.9767   -4796.3134            0    7573.4134    18.073538    22.885389    19.329969    7995.2605    8050.2795    7149.3978     7520.563    -777.3877   -275.82563   -16.472057   -3421.8964 
11683000    247.29182   -4834.2572    -4339.643   -4834.2572            0    6790.2958    17.874412    22.977153    19.562866    8034.5295    7046.8283    6898.2819    6425.7771    45.819797    130.48809    32.752892   -3543.9876 
11684000    245.49244   -4832.4538   -4341.4385   -4832.4538            0    4827.2201    18.256072    22.918892    19.296736    8073.9271    6897.8147    3955.3225    3628.5232    650.43441    -84.12132    556.20701   -3773.0336 
11685000    263.50609   -4818.9609   -4291.9162   -4818.9609            0    7028.0377    17.986793    22.934908    19.459752     8027.643    7521.8952     6638.173    6924.0448    1090.1664   -675.21016   -156.54707   -3469.1091 
11686000    267.20404   -4830.4255   -4295.9844   -4830.4255            0    7203.8848    18.062378    22.812005    19.374448     7983.029    7499.5272    7603.9926    6508.1346   -154.69003    754.81779    966.87681   -3457.2772 
11687000    264.84048   -4855.4788   -4325.7651   -4855.4788            0    7141.4565    18.146725    22.720557    19.368064    7985.5245    6759.4562     7964.475    6700.4384   -1746.0888    277.81699    -1489.765   -3494.0662 
11688000    254.19971   -4799.6328    -4291.202   -4799.6328            0    5573.7304    18.120748    22.862023    19.471544     8066.612    5296.7047    5815.0297    5609.4568    1143.8374   -1319.9674    2018.1906   -3635.4902 
11689000    249.79907   -4849.1182   -4349.4892   -4849.1182            0    6642.4624    17.910762    22.967806    19.380164    7972.4356    8742.0551    5988.0368    5197.2954    624.16328   -936.28313   -961.28545   -3577.1715 
11690000    279.21506   -4822.9296    -4264.465   -4822.9296            0    7619.8018    18.210616     22.96973      19.1733    8020.0562    5660.5368    8187.6718     9011.197    664.13706    972.34797   -85.832591   -3373.2203 
11691000    258.01801   -4820.4793   -4304.4114   -4820.4793            0    7132.4704    17.798889    22.874795    19.631171    7992.7518    8635.5397    7158.7624     5603.109    -1067.246    1392.5056    529.09119   -3473.0073 
11692000    268.75346   -4843.7823   -4306.2421   -4843.7823            0    5823.2989     18.29598    22.933697    19.146277    8033.6717     4271.247    6424.1082    6774.5415   -76.252324   -275.59958    157.04308   -3623.9678 
11693000      255.858   -4816.8676     -4305.12   -4816.8676            0    8778.3572    17.795136    22.741094    19.568452    7918.9782    8934.6765    9246.8519    8153.5433   -518.70631   -200.61718   -1905.4626    -3291.306 
11694000    250.74388   -4805.2461   -4303.7274   -4805.2461            0     6771.914    18.300138    22.810205    19.249801    8035.4427    5424.0197    6775.8203    8115.9019   -1316.3583   -212.89923    69.889032   -3510.1357 
11695000     249.3374   -4812.4988   -4313.7932   -4812.4988            0    7591.2227    17.937929    22.900021    19.489949     8006.061    8214.0856    7935.1893    6624.3932    894.50847   -329.83075   -648.25374   -3427.4406 
11696000    257.11116   -4842.3765   -4328.1224   -4842.3765            0    7945.4328    18.077383    22.929182    19.258963    7982.8324    7151.8861    8598.9374    8085.4749   -344.83528    1156.0549    1296.3853   -3403.1038 
11697000    268.07474   -4851.1678   -4314.9852   -4851.1678            0    6945.7629    17.990191    22.866139    19.404746     7982.457    4879.5512    8008.3257    7949.4119   -2171.3513    1601.9286   -628.49416   -3506.3877 
11698000     249.2223   -4807.2868   -4308.8114   -4807.2868            0    7018.7921    18.008919    23.042946    19.296109    8007.4715    8834.4148    4716.2581    7505.7034    406.64159   -1367.6522    2289.3555   -3489.1515 
11699000    255.38826   -4798.9016   -4288.0935   -4798.9016            0    7806.8007     17.83813    23.167989    19.426664    8028.5275    8942.4024    6955.8538    7522.1461    458.59742    756.55171   -1016.7115   -3374.0121 
11700000    247.35285   -4811.3572    -4316.621   -4811.3572            0    9129.9637    17.958027    23.055436    19.161124    7933.2831    9910.8995    8471.2989    9007.6928   -308.75188    1378.1835   -103.88334   -3260.2952 
11701000    252.05966   -4813.0284   -4308.8779   -4813.0284            0    7404.6066    18.010614    22.976959    19.324168    7996.9033    7072.8169    7818.5202    7322.4829   -509.01859    1525.0738    51.634001   -3445.3036 
11702000    241.68799   -4800.7224   -4317.3166   -4800.7224            0    5953.2904    18.046834    22.884118    19.442093    8029.3101    4895.3302    7342.3908    5622.1501    448.78063    1544.2319     470.7643   -3620.1907 
11703000    254.32903   -4848.0482   -4339.3587   -4848.0482            0    8216.9764    18.024021    22.765112    19.379304    7951.6938    7557.9477    8720.5181    8372.4635   -1533.3328   -626.24361    915.72345   -3386.4582 
11704000    246.67311   -4835.1937    -4341.817   -4835.1937            0    7373.2855    17.927991    22.755106    19.524186    7964.9567    7230.8262    7811.0682    7077.9621   -1716.5115   -1763.0125    549.07034   -3485.3308 
11705000    262.93985   -4869.6137   -4343.7015   -4869.6137            0    6400.8094    18.159438    22.715416     19.34584    7980.1431    4789.0564    7258.0083    7155.3634   -789.78433    709.13609    2499.6837   -3598.7613 
11706000     258.9482   -4851.4771   -4333.5487   -4851.4771            0     7769.527     17.94017    22.767022    19.527801    7976.0179    8919.6366    7476.0839    6912.8605   -512.26075   -300.16819   -104.05959   -3429.7815 
11707000    263.13706   -4843.3851   -4317.0785   -4843.3851            0    6879.4238    18.241067    22.805514     19.25221    8008.8597    5817.3142     7545.004    7275.9532   -1538.5807   -1134.2185   -429.97758   -3513.5549 
11708000    269.05975   -4829.8966   -4291.7439   -4829.8966            0    6812.3985     17.95066    22.720626    19.563135    7978.8289    8573.1893    7140.0116    4723.9947    116.81928   -553.69027     518.7296   -3499.0325 
11709000    251.17887   -4823.0225   -4320.6337   -4823.0225            0    6875.6488    18.277035    22.814381    19.216546    8012.9007    4659.9319    7733.5231    8233.4915    184.11693     -14.2238     1877.221   -3517.1458 
11710000    258.86246   -4815.6023   -4297.8454   -4815.6023            0    5142.3942     17.89472    22.986698     19.59315    8059.4567     8056.386    4477.8396    2892.9571    67.250976   -156.34613   -1165.2041    -3693.414 
11711000    255.41465   -4820.8163   -4309.9555   -4820.8163            0    7574.6223    18.191684    22.840972     19.22424    7987.9739    6547.6104    8568.6515     7607.605     958.4688    378.50848    542.47901   -3427.5392 
11712000    258.47984   -4826.3125   -4309.3209   -4826.3125            0    8435.4587    17.983263    22.599803    19.596758    7964.4792    10679.552    8570.9206    6055.9032    195.64874   -437.46791    1147.6581   -3329.5106 
11713000    254.44319   -4820.3205   -4311.4027   -4820.3205            0    8990.8708    18.000918     22.89863    19.250918    7935.1582    10572.113    7687.5553    8712.9439    445.64396    -841.1618   -113.76165   -3270.9239 
11714000    263.65552   -4843.8422   -4316.4986   -4843.8422            0    7049.6217    17.969872    22.919304    19.345192    7967.4519    6755.5161    7696.3281    6697.0208   -208.91119   -138.70168    768.87087   -3497.3529 
11715000    247.39172   -4851.3024   -4356.4884   -4851.3024            0    7443.4478    17.957902    22.976939    19.329634    7975.7475    8654.6284    7079.0324    6596.6824    384.19705    387.05711   -1089.4417   -3490.6807 
11716000     256.0536   -4828.0721   -4315.9332   -4828.0721            0    9357.0385     17.91945    23.006807    19.225149    7925.9392    9867.8581    9008.8599    9194.3974    655.20316   -21.564659    582.83147   -3234.3373 
11717000    249.43818   -4845.0042   -4346.0971   -4845.0042            0    6252.0443    17.954519    23.009365    19.316709    7980.1594    6355.8628    6509.1088    5891.1615    37.270679    163.33851   -1476.7863   -3618.4689 
11718000    260.06932   -4818.7464   -4298.5756   -4818.7464            0    7541.2816    18.093546    22.878583    19.356263    8012.6159     8117.738    6902.1183    7603.9886    678.03449   -1080.3506    662.40434   -3417.3332 
11719000    261.24125   -4837.1956   -4314.6809   -4837.1956            0    5977.0365    17.995739    22.961488    19.427238     8027.509    4458.6632    6810.5658    6661.8805   -14.235976   -421.19421   -400.23846   -3614.9314 
11720000    248.43232   -4845.7344   -4348.8391   -4845.7344            0    7120.0323    18.051434    22.833904    19.327336     7966.432    7239.6242    7530.4133    6590.0594    911.95335    144.85594   -532.12297   -3521.6178 
11721000     252.3179   -4830.5191   -4325.8522   -4830.5191            0    5097.1534    18.153597    22.900067    19.425352    8075.4798    4377.3141    5417.0923    5497.0539    1792.6237    817.25478    187.76584   -3725.5472 
11722000     247.4456   -4840.6055   -4345.6837   -4840.6055            0    7401.5475    17.943665    22.871721    19.425428    7972.2445    7282.8577    7485.4537     7436.331    1.9835518   -1255.5016   -1700.9761    -3485.128 
11723000    243.12594   -4827.2919     -4341.01   -4827.2919            0    7308.2062    18.039832    22.968234    19.204957    7957.4412    7842.1818    6532.3231    7550.1136    386.51929   -1446.1276   -360.04649   -3492.8845 
11724000    266.37833    -4842.591   -4309.8014    -4842.591            0    7036.6602    17.853749    23.090697    19.326913    7967.6265      9734.79    5305.5746    6069.6161    751.36671    89.590995   -724.52141   -3492.1439 
11725000    256.86984   -4849.6897   -4335.9182   -4849.6897            0    6016.1583    17.878996    23.134041    19.349446    8003.1906    6591.9101    5111.2303    6345.3345    520.58912    1372.7402   -963.60143   -3633.7223 
11726000    254.17496    -4826.657   -4318.2757    -4826.657            0    8459.4231    18.080874    22.868557    19.256369    7962.1906    9770.0432    7632.5373     7975.689   -902.18618   -264.40551   -697.21817   -3335.9643 
11727000    272.87403   -4802.1058   -4256.3241   -4802.1058            0    7667.3632    18.065792    22.887415     19.37996    8013.2123     9434.106    7488.4549    6079.5287   -1561.3937   -858.41557     -2185.79   -3360.2816 
11728000     262.5325   -4809.3942   -4284.2967   -4809.3942            0    7199.3028    17.970619    22.860078     19.41892    7977.4818    8089.2847    6994.3825    6514.2413   -390.32011   -829.15419    1329.0238   -3446.7054 
11729000    255.69663   -4807.3998   -4295.9749   -4807.3998            0    7123.4237    18.047605     22.83886    19.342538    7972.7376    8165.2936    7034.6654    6170.3123   -1600.5438   -322.97995    166.91532   -3467.7045 
11730000    271.19393   -4821.5352   -4279.1138   -4821.5352            0    5914.5979    18.021741    22.987872    19.397484    8036.0186    7296.0832    5536.4555     4911.255    604.79423    680.90293   -1721.2961   -3585.9402 
11731000    273.77598   -4834.3049   -4286.7191   -4834.3049            0    6651.4109    18.140862    23.036558    19.128656    7993.9232    4092.2395     6081.097    9780.8961    111.85062    625.26164    564.41707   -3511.2766 
11732000     256.6977   -4830.7599   -4317.3328   -4830.7599            0    6994.4785    17.838211    23.216261    19.324916     8003.154    7028.2091    7075.0674    6880.1589    192.02023   -519.02538    1029.9219   -3500.9527 
11733000    263.56788   -4856.6063    -4329.438   -4856.6063            0    6801.5439    17.942678     23.13528    19.255569    7993.1576    7753.2635     5942.013    6709.3553    -355.0967   -210.83142   -429.31483   -3536.5683 
11734000    260.21599   -4815.9876   -4295.5234   -4815.9876            0    5080.9315     17.98686    23.160672    19.325335    8050.6984    5173.5538    4471.4481    5597.7926    543.47825   -319.87252    739.33488   -3698.9653 
11735000    260.20705   -4856.6632   -4336.2169   -4856.6632            0    7639.1299    17.960398    23.025422    19.282375    7974.1445    8843.6927    6564.2408     7509.456    356.96363    -777.8485    974.33139   -3447.8265 
11736000     251.9462   -4829.6219   -4325.6984   -4829.6219            0    5632.7518    18.029928    23.174564    19.276205    8054.2873     5256.892    5317.8588    6323.5045   -762.06833    168.91881     1000.243   -3664.0556 
11737000    243.59259   -4814.2184   -4327.0031   -4814.2184            0    3958.4004    18.108555    23.124922     19.35576    8105.3968    3979.9508    3758.5156    4136.7349   -1334.4857   -167.39496   -1561.5391    -3859.085 
11738000    261.04117   -4812.5015   -4290.3869   -4812.5015            0    9121.8282    17.816082    23.081399    19.362791    7962.3691     7746.318    9617.3302    10001.837    723.94792    338.59207    2155.5473    -3231.133 
11739000    262.26855   -4839.6379   -4315.0684   -4839.6379            0    5291.3425    18.147594    23.169258    19.131643    8044.2111    3076.7743    4793.3336    8003.9197    355.63108    118.72656   -1043.3826   -3694.3063 
11740000    252.49377   -4806.9611   -4301.9424   -4806.9611            0    6392.9242    17.885471    23.051841    19.545795    8058.5951    9062.3382    5933.3442    4183.0903    29.311834   -38.360015   -900.40667   -3550.6054 
11741000    254.67423   -4850.2705   -4340.8906   -4850.2705            0    6688.1346    18.048247    22.936795    19.260211     7973.129     8929.767    4997.4633    6137.1736    -1493.266   -512.33613   -647.75754   -3563.1949 
11742000    258.02406    -4842.568    -4326.488    -4842.568            0    6782.4048    18.022415    22.831274    19.460583    8007.5375    6981.5092     6629.829     6735.876    1079.1926    237.79556    894.46537   -3534.4271 
11743000    263.14431   -4808.8635   -4282.5424   -4808.8635            0    6152.8968    18.019039    23.086028    19.343066    8046.4839    6121.3146    6149.7433    6187.6326    164.13816   -1394.2814    434.03403   -3560.5017 
11744000    266.27527   -4821.0393   -4288.4558   -4821.0393            0    7339.2834    17.850512    22.985932    19.405378    7962.2335    7608.0493    7916.8127     6492.988    29.910477   -262.26771    1250.0843   -3436.2108 
11745000     269.9147   -4828.6159   -4288.7531   -4828.6159            0    4991.8117    18.128631    23.027516    19.337679    8072.6559    5377.4799    4381.6633    5216.2921    346.21898    209.61813     1568.978   -3701.0601 
11746000     259.6235   -4840.6336   -4321.3545   -4840.6336            0     6308.902    17.888196    22.826937    19.587839    7998.3553     6634.861    7065.0955    5226.7495   -1729.7433     786.7024    323.56225   -3585.4349 
11747000    251.55948   -4817.4702   -4314.3201   -4817.4702            0    6223.6417     18.06367    23.043101    19.214009    7997.6961    4851.4585    5391.6268    8427.8397   -636.78469   -1209.3128    1154.1206   -3588.4058 
11748000     257.9818   -4809.5216   -4293.5262   -4809.5216            0    6200.1812    17.922433    23.023894    19.453245    8027.2689    6936.2001    6458.6118    5205.7317   -109.13998    61.696654    104.74131   -3567.6742 
11749000    243.43111    -4816.614   -4329.7217    -4816.614            0     8424.007    17.951194    22.962412    19.221013    7922.9536    8364.2555    8399.4696     8508.296    318.46573    374.70652   -716.74297   -3356.3432 
11750000     262.0164   -4808.4639   -4284.3987   -4808.4639            0    6974.8028    18.056789    22.952357    19.294836    7996.6649    7241.0986    6078.0619     7605.248     715.0853   -955.79531    1469.5463   -3470.9752 
Loop time of 462.759 on 64 procs for 250000 steps with 1008 atoms

Performance: 93.353 ns/day, 0.257 hours/ns, 540.238 timesteps/s
99.1% CPU use with 64 MPI tasks x 1 OpenMP threads

MPI task timing breakdown:
Section |  min time  |  avg time  |  max time  |%varavg| %total
---------------------------------------------------------------
Pair    | 28.568     | 32.426     | 36.079     |  31.7 |  7.01
Bond    | 0.27537    | 0.28512    | 0.29842    |   0.7 |  0.06
Kspace  | 212.6      | 218.48     | 226.38     |  18.8 | 47.21
Neigh   | 4.4719     | 4.739      | 5.1153     |   8.6 |  1.02
Comm    | 89.082     | 95.741     | 100.09     |  25.0 | 20.69
Output  | 1.0843     | 1.0861     | 1.0994     |   0.2 |  0.23
Modify  | 99.846     | 102.47     | 105.69     |  18.2 | 22.14
Other   |            | 7.535      |            |       |  1.63

Nlocal:        15.7500 ave          20 max          11 min
Histogram: 1 2 3 8 14 15 12 5 2 2
Nghost:        2490.27 ave        2521 max        2464 min
Histogram: 4 9 5 10 9 8 8 6 3 2
Neighs:        5231.38 ave        6720 max        3622 min
Histogram: 2 2 2 8 15 14 12 5 2 2

Total # of neighbors = 334808
Ave neighs/atom = 332.15079
Ave special neighs/atom = 2.0000000
Neighbor list builds = 9357
Dangerous builds = 0

unfix		3
unfix		2
unfix		1

write_data	data.final.${pid}
write_data	data.final.0
System init for write_data ...
PPPM initialization ...
  extracting TIP4P info from pair style
  using 12-bit tables for long-range coulomb (../kspace.cpp:340)
  G vector (1/distance) = 0.37923823
  grid = 24 27 32
  stencil order = 5
  estimated absolute RMS force accuracy = 0.0024429082
  estimated relative force accuracy = 7.3567456e-06
  using double precision FFTW3
  3d grid and FFT values/proc = 3825 384
Last active /omp style is kspace_style pppm/tip4p/omp
WARNING: Not all mixed pair coeffs generated from mixing. Use write_data with 'pair ij' option to store all pair coeffs. (../write_data.cpp:312)

write_restart   restart.lmp.${pid}
write_restart   restart.lmp.0
System init for write_restart ...
PPPM initialization ...
  extracting TIP4P info from pair style
  using 12-bit tables for long-range coulomb (../kspace.cpp:340)
  G vector (1/distance) = 0.37923823
  grid = 24 27 32
  stencil order = 5
  estimated absolute RMS force accuracy = 0.0024429082
  estimated relative force accuracy = 7.3567456e-06
  using double precision FFTW3
  3d grid and FFT values/proc = 3825 384
Last active /omp style is kspace_style pppm/tip4p/omp
Total wall time: 0:07:43
