#include		in.partitions
include		in.temp
variable        temperature equal 175.77
variable	tempDamp equal 100.0
include		in.pressure
variable        pressure equal 8319.0
variable        pressureDamp equal 1000.0 # This is 1 ps
include		in.seed
variable        seed equal 745823

units		real
atom_style	full
read_restart	restart.lmp.${pid}
read_restart	restart.lmp.0
Reading restart file ...
  restart file = 30 Jul 2021, LAMMPS = 30 Jul 2021
  restoring atom style full from restart
  orthogonal box = (0.019448422 -0.053343271 -0.061086463) to (24.710553 24.783344 22.871086)
  2 by 4 by 2 MPI processor grid
  restoring pair style lj/cut/tip4p/long/omp from restart
  restoring bond style harmonic/omp from restart
  restoring angle style harmonic/omp from restart
  1920 atoms
  1280 bonds
  640 angles
Finding 1-2 1-3 1-4 neighbors ...
  special bond factors lj:    0        0        0       
  special bond factors coul:  0        0        0       
     2 = max # of 1-2 neighbors
     1 = max # of 1-3 neighbors
     1 = max # of 1-4 neighbors
     2 = max # of special neighbors
  special bonds CPU = 0.001 seconds
  read_restart CPU = 0.006 seconds
include 	in.setup
variable	out_freq equal 1000
variable	out_freq2 equal 10000
variable	out_freq3 equal 1000

timestep	2.0

neigh_modify    delay 7 every 1

include		in.tip4p
# This is TIP4P/Ice

# create groups ###
group ox type 2
640 atoms in group ox
group hy type 1
1280 atoms in group hy

# set charges - beside manually ###
set group ox charge -1.1794
Setting atom values ...
  640 settings made for charge
set group hy charge 0.5897
Setting atom values ...
  1280 settings made for charge

# ### TIP3P Potential Parameters ###
pair_style lj/cut/tip4p/long/omp 2 1 1 1 0.1577 8.5
pair_coeff 1 1*2 0.000 0.000
pair_coeff 2 2 0.21084 3.1668
bond_style  harmonic
bond_coeff  1 450 0.9572
angle_style harmonic
angle_coeff 1 55 104.52
kspace_style pppm/tip4p/omp 1.0e-5
pair_modify tail yes

thermo          ${out_freq}
thermo          1000
thermo_style    custom step temp pe etotal epair emol press lx ly lz vol pxx pyy pzz pxy pxz pyz enthalpy

restart 	${out_freq3} restart.lmp.${pid} restart2.lmp.${pid}
restart 	1000 restart.lmp.${pid} restart2.lmp.${pid}
restart 	1000 restart.lmp.0 restart2.lmp.${pid}
restart 	1000 restart.lmp.0 restart2.lmp.0


include         in.dump
dump            myDump all atom ${out_freq2} dump.water.${pid}
dump            myDump all atom 10000 dump.water.${pid}
dump            myDump all atom 10000 dump.water.0
dump            myDump2 all dcd ${out_freq2} dump.dcd
dump            myDump2 all dcd 10000 dump.dcd
dump_modify     myDump append yes
dump_modify     myDump2 append yes


variable natoms 	equal  "count(all)"                        # NUMBER ATOMS
variable H      	equal  "enthalpy/v_natoms"                 # ENTHALPY-per-atom
variable Vol      	equal  "vol/v_natoms"                 # volume-per-atom
fix AVG all 		ave/time ${out_freq} 1 ${out_freq} v_Vol v_H file vol_enthalpy.dat
fix AVG all 		ave/time 1000 1 ${out_freq} v_Vol v_H file vol_enthalpy.dat
fix AVG all 		ave/time 1000 1 1000 v_Vol v_H file vol_enthalpy.dat




fix 		1 all shake 1e-6 200 0 b 1 a 1
       0 = # of size 2 clusters
       0 = # of size 3 clusters
       0 = # of size 4 clusters
     640 = # of frozen angles
  find clusters CPU = 0.000 seconds
fix             2 all nph aniso ${pressure} ${pressure} ${pressureDamp}
fix             2 all nph aniso 8319 ${pressure} ${pressureDamp}
fix             2 all nph aniso 8319 8319 ${pressureDamp}
fix             2 all nph aniso 8319 8319 1000
fix             3 all temp/csvr ${temperature} ${temperature} ${tempDamp} ${seed}
fix             3 all temp/csvr 175.77 ${temperature} ${tempDamp} ${seed}
fix             3 all temp/csvr 175.77 175.77 ${tempDamp} ${seed}
fix             3 all temp/csvr 175.77 175.77 100 ${seed}
fix             3 all temp/csvr 175.77 175.77 100 745823


run             250000
PPPM initialization ...
  extracting TIP4P info from pair style
  using 12-bit tables for long-range coulomb (../kspace.cpp:340)
  G vector (1/distance) = 0.37492647
  grid = 30 30 30
  stencil order = 5
  estimated absolute RMS force accuracy = 0.003213903
  estimated relative force accuracy = 9.6785735e-06
  using double precision FFTW3
  3d grid and FFT values/proc = 7920 1800
Last active /omp style is kspace_style pppm/tip4p/omp
Neighbor list info ...
  update every 1 steps, delay 7 steps, check yes
  max neighbors/atom: 2000, page size: 100000
  master list distance cutoff = 10.8154
  ghost atom cutoff = 10.8154
  binsize = 5.4077, bins = 5 5 5
  1 neighbor lists, perpetual/occasional/extra = 1 0 0
  (1) pair lj/cut/tip4p/long/omp, perpetual
      attributes: half, newton on, omp
      pair build: half/bin/newton/omp
      stencil: half/bin/3d
      bin: standard
Per MPI rank memory allocation (min/avg/max) = 12.56 | 12.56 | 12.56 Mbytes
Step Temp PotEng TotEng E_pair E_mol Press Lx Ly Lz Volume Pxx Pyy Pzz Pxy Pxz Pyz Enthalpy 
17750000    176.81586   -9462.0461   -8787.9435   -9462.0461            0    9232.6719    24.691104    24.836688    22.932173    14063.046    9575.1436    9363.3973     8759.475    130.89722   -156.34048    -290.5604   -6894.3677 
17751000    178.24825   -9491.6223   -8812.0587   -9491.6223            0    8189.8124    24.830756    24.734661    22.924932    14080.042    8328.8331    8298.9843    7941.6196   -718.50961   -462.26178    1048.3498   -7130.3382 
17752000     174.0782   -9471.6571   -8807.9916   -9471.6571            0    7293.5642    24.789639    24.846221    22.965481    14145.102    7776.0769    7338.3298    6766.2857    656.08137   -299.10676    207.09534    -7303.389 
17753000    174.59259   -9464.3645   -8798.7379   -9464.3645            0    8511.3813    24.795662    24.823229    22.856036    14068.082    7972.3792    9148.7752    8412.9897    60.707503    715.88716    403.26766   -7052.4702 
17754000    170.28396   -9474.7243   -8825.5242   -9474.7243            0    8577.7903    24.855853    24.839334    22.808041    14081.749    9010.7581    8234.7176    8487.8952   -469.90984   -924.62016    -255.0072   -7063.9217 
17755000    172.48498    -9440.756   -8783.1646    -9440.756            0    9550.3167    24.768233    24.913335    22.776346    14054.356    9537.7924    8577.1654    10535.992   -438.65933   -610.45003     65.14317   -6825.6519 
17756000    177.51886   -9454.2458    -8777.463   -9454.2458            0    8279.8225    24.835985    24.802562    22.903066    14108.199    7468.5503      9107.38    8263.5371    814.00645   -243.22672   -621.41577   -7073.8597 
17757000    174.75658   -9489.7612   -8823.5094   -9489.7612            0    7498.0491    24.659107    24.861718    23.041999    14126.307    8619.0471    7459.5851     6415.515   -526.57618   -791.77685    273.42854   -7278.7787 
17758000    175.45152   -9490.7138   -8821.8126   -9490.7138            0     7641.473      24.8474    24.807327    22.914059     14124.17    7603.3892    8458.4177    6862.6122   -557.16671   -317.86787    946.98214   -7247.7721 
17759000    181.39949   -9467.2325    -8775.655   -9467.2325            0    7824.8951    24.766559     24.84146    22.977522    14136.633    6611.2457    9031.5199    7831.9197    365.08945    462.68975   -291.01079   -7162.4098 
17760000    176.62521    -9468.252   -8794.8761    -9468.252            0     8284.199      24.7956    24.743468    23.015763    14120.841    8163.9969    9406.4123    7282.1878    424.78785   -197.92451   -932.18059   -7088.8449 
17761000    177.50191   -9493.2137   -8816.4955   -9493.2137            0    7070.2928    24.861363    24.846258    22.874112     14129.61    6714.9053    7310.8559     7185.117    816.81269    307.47159   -87.391651   -7359.5495 
17762000     183.8923   -9477.8526   -8776.7713   -9477.8526            0    7169.5052    24.877809    24.897948    22.832596    14142.656    7592.5753    5961.8083    7954.1321    893.25403    1232.3814   -252.18362    -7298.017 
17763000    180.07786   -9469.5908   -8783.0519   -9469.5908            0    7866.1524    24.821458    24.888078    22.874864    14131.139    7310.0917      7883.39    8404.9755    159.00731   -684.84628   -411.57208    -7161.931 
17764000    172.62158    -9489.491   -8831.3788    -9489.491            0    8504.5624    24.746945    24.892891    22.865143    14085.455    9313.2986    7766.3166    8434.0721   -87.261072   -151.60402    -1193.101   -7084.3554 
17765000    174.64735   -9462.5537   -8796.7184   -9462.5537            0    9748.2854    24.808292    24.749865    22.889385    14054.125    9065.5945    10551.591     9627.671   -325.52882    -616.6501    984.95269   -6798.6611 
17766000     181.9345   -9482.0006   -8788.3833   -9482.0006            0    9512.4422    24.761774    24.860094    22.817622    14046.072    9902.0759    8897.6266    9737.6239    58.617552   -671.32759    627.14846   -6839.7828 
17767000    176.33887   -9467.9922    -8795.708   -9467.9922            0    8638.3176    24.739567     24.83352    22.912634    14076.847    9530.0052    8557.4657    7827.4818   -595.28185   -251.01495   -199.81422   -7022.2927 
17768000    174.22303   -9492.2692   -8828.0515   -9492.2692            0     8794.603    24.786652    24.691085    23.018368    14087.455    8384.6203    10104.784    7894.4048   -948.43158    458.29565    1087.0157   -7021.1908 
17769000    175.73562   -9483.7611   -8813.7767   -9483.7611            0    8022.4224    24.771539     24.88006    22.868735    14094.399    8570.5153    7889.1043    7607.6475   -134.51417    229.62274    156.23844   -7164.7489 
17770000    171.09749   -9476.3942   -8824.0925   -9476.3942            0    7788.5385    24.915778     24.86457    22.794294    14121.523    7355.1843    6685.1243     9325.307    100.18233      -281.03   -980.00905   -7220.0591 
17771000    174.01806   -9482.1903   -8818.7541   -9482.1903            0    7878.7084    24.730041    24.875267    22.925288    14102.866    8780.8096    8112.5342    6742.7815   -181.54107    24.801917    763.20863   -7198.2942 
17772000    178.67581   -9468.4958   -8787.3021   -9468.4958            0    8336.7825    24.773768    24.779473    22.965859    14098.303    8183.5147    9009.2754    7817.5574    217.54893   -310.10447    92.196272   -7073.1822 
17773000    173.44836   -9493.8208   -8832.5566   -9493.8208            0      8230.46    24.738744    24.837398    22.903139    14072.742     7995.955    7668.2007    9027.2243    21.060953    525.45498    549.59124   -7143.3656 
17774000    180.36272   -9440.0644   -8752.4395   -9440.0644            0    9145.1509    24.858612    24.764693    22.868941    14078.484    7979.4602    9872.5493    9583.4431   -382.61731    674.12713    470.37339   -6874.7548 
17775000    175.72293   -9471.8938   -8801.9579   -9471.8938            0     7363.549    24.758443     24.90306    22.952114    14151.378    8449.3365    6980.9882    6660.3224    551.14745   -317.05038    413.07579   -7282.2441 
17776000    178.10586   -9457.1837    -8778.163   -9457.1837            0    8579.3068    24.803733    24.832679    22.907124    14109.486    10074.778    7544.2552    8118.8869   -130.49692   -320.05651    701.80434   -7012.7786 
17777000     172.3115   -9462.9731   -8806.0431   -9462.9731            0    7572.6698    24.821991    24.905178    22.868976    14137.512    7465.1226    7752.1681    7500.7186    -902.7259     223.3425    423.06567   -7244.7016 
17778000    174.86308   -9476.7908   -8810.1329   -9476.7908            0    9257.6097    24.795738    24.867261    22.791458     14053.26    9339.3439    9053.5501    9379.9351    227.55591    -29.22714    566.43614   -6912.7637 
17779000    168.81989   -9459.1074    -8815.489   -9459.1074            0    8472.2106    24.791688    24.791354    22.907069    14079.132    8434.8619    8388.8443    8592.9256     -11.1589    284.46695   -169.57359   -7075.8926 
17780000    177.21525   -9454.5775   -8778.9522   -9454.5775            0     9008.846    24.735656    24.833401    22.933152    14087.158    9016.4557    9134.3633     8875.719    405.02324   -1011.2571   -47.055169    -6928.114 
17781000    179.58984   -9453.7413    -8769.063   -9453.7413            0    8402.1905    24.825897    24.757326    22.956853    14109.806    7524.0261    9776.7433    7905.8023   -618.67732    -611.0228   -416.47717    -7040.085 
17782000    174.97813   -9445.8528   -8778.7563   -9445.8528            0    8287.5377    24.730879    24.895606    22.898557    14098.418    8392.1883    8905.8284    7564.5965   -286.11839   -104.49546   -667.91677   -7074.7477 
17783000    177.62661   -9475.1443   -8797.9507   -9475.1443            0    6728.0118    24.946953    24.791443    22.923037    14177.232    5961.3094    7413.9818    6808.7441   -18.533319   -256.22947    148.65575   -7406.8644 
17784000    174.29337   -9497.3249   -8832.8391   -9497.3249            0    8106.6526    24.748619    24.897157    22.886572    14102.025    8706.3477    8207.5237    7406.0863   -663.73152    747.43791   -1189.9202    -7165.596 
17785000    171.98331   -9494.5631   -8838.8843   -9494.5631            0     9151.621    24.855688    24.740449    22.862264     14058.94    8776.6691    10108.794    8569.3999    98.706417   -923.31905    429.56962   -6962.4797 
17786000    176.93455   -9475.3106   -8800.7554   -9475.3106            0    9195.7747    24.686906    24.910421    22.853934    14054.283    9656.4324    8211.8148    9719.0769   -215.64227    500.52366    196.43928   -6915.9222 
17787000    177.05463   -9472.5333   -8797.5203   -9472.5333            0    8739.9515    24.848266    24.769534    22.872038    14077.282    8335.2309    8781.3493    9103.2744   -202.82903   -345.41647   -180.65787   -7003.1845 
17788000    185.89653   -9499.2971   -8790.5747   -9499.2971            0     7626.823    24.667217    25.044093    22.858042    14120.969    8961.7273    6005.9843    7912.7573    319.28689   -54.405547   -770.77864    -7219.908 
17789000    177.70013   -9497.0602   -8819.5863   -9497.0602            0    7667.5669    24.877835    24.843774    22.829684    14110.099    8395.3174    6792.5974    7814.7858   -734.65762    202.97937    115.96384   -7241.7443 
17790000    173.34378   -9477.6062   -8816.7407   -9477.6062            0    7908.0496    24.766565    25.017605    22.777157     14112.73    8330.9968    6682.5416    8710.6104    632.84041   -85.283771    346.11156   -7189.1084 
17791000    171.78018   -9492.7066   -8837.8022   -9492.7066            0    8807.0341    24.908676    24.755471    22.797615    14057.602     6903.097    10101.021    9416.9844   -348.16673     666.2343   -124.25102   -7032.2219 
17792000    176.60428   -9482.4709   -8809.1748   -9482.4709            0     7824.905    24.738638    24.973314    22.838384    14109.686    8010.7338    7532.7993    7931.1818   -352.78834    651.04643   -578.89393   -7199.0027 
17793000    176.95161   -9459.8878   -8785.2676   -9459.8878            0    9393.2742     24.85871    24.808789    22.811038    14067.898    9180.2149    9193.3087    9806.2989   -467.46353    656.51934    1358.1915   -6858.0884 
17794000    173.76216   -9465.6617   -8803.2011   -9465.6617            0    8324.9176     24.75077    24.851672    22.904932    14088.779    9246.2222    8712.2316    7016.2989    526.13066   -200.93605   -326.22064    -7092.677 
17795000    169.08568   -9497.9641   -8853.3324   -9497.9641            0    7888.1506    24.839022    24.773646    22.911665    14098.765     7267.156    8037.7305    8359.5653    -781.2831   -355.23595   -902.04278   -7231.4022 
17796000    178.30054   -9452.5981   -8772.8351   -9452.5981            0    8153.6776    24.781332    24.857441    22.932302    14126.309    8353.6712    7910.5612    8196.8005   -554.36308    1483.4591    687.04526    -7093.033 
17797000    168.21064   -9458.6508   -8817.3552   -9458.6508            0    8149.3582    24.765448    24.866566    22.931239    14121.783    8868.2764    6745.1867    8834.6116   -475.13825   -507.31229    789.89268   -7138.9809 
17798000    172.12701     -9473.31   -8817.0834     -9473.31            0      7611.99    24.828071    24.828808    22.939845      14141.3    7668.9668    7667.9626    7499.0406    225.07663     -298.294   -262.39382   -7247.2143 
17799000    184.67022     -9493.86   -8789.8128     -9493.86            0    7372.4537    24.893585    24.898957    22.789619    14125.559    7152.6094    7361.3038    7603.4478   -490.04294   -309.18852     725.6621   -7271.0373 
17800000    179.00694   -9463.3076   -8780.8515   -9463.3076            0    7847.6728     24.85975    24.895996    22.793903    14107.335    7345.9533    7548.3931    8648.6722    363.57573   -840.49201   -494.61161   -7166.2634 
17801000    176.18555    -9476.732   -8805.0323    -9476.732            0    7788.3677    24.842314    24.859608    22.862707    14119.327    7480.9074     7428.776    8455.4197    87.611613   -187.96545    306.54332   -7201.2836 
17802000    178.76726    -9485.761   -8804.2186    -9485.761            0    8379.7096    24.808342    24.833332    22.876281    14093.477    7558.8539    9144.4383    8435.8367   -207.61353   -535.50871   -514.79309   -7081.8622 
17803000    174.05204   -9465.0757   -8801.5099   -9465.0757            0    9120.8322    24.782891    24.761356    22.936374    14075.089    9702.4365    9938.4868    7721.5732   -482.75021    869.78646    228.42356     -6929.27 
17804000    175.45999   -9459.7511   -8790.8177   -9459.7511            0    8563.5638    24.701086    24.848165    22.968244    14097.372    9836.6726    8772.0163    7082.0025    16.600109   -420.24006    146.73687   -7030.1857 
17805000    179.25421   -9468.1908    -8784.792   -9468.1908            0    8789.9399    24.861684    24.840305    22.811684    14087.853    7852.2002    8548.6794    9968.9401    33.697472    449.33314    111.95426   -6978.8383 
17806000    174.10612   -9446.4978   -8782.7259   -9446.4978            0    8052.9252    24.910804    24.907433    22.751781    14116.664     8052.412    7112.8917     8993.472    144.68411    -970.5946    27.934047   -7124.8132 
17807000    174.79599   -9471.7003   -8805.2983   -9471.7003            0    8265.4066    24.850148    24.841309    22.804956    14077.732    7475.6329    9240.7275    8079.8594   -300.95676   -59.760093    321.91345   -7108.3336 
17808000    178.21445   -9494.6989   -8815.2642   -9494.6989            0    8152.0275      24.7601     24.86302     22.87532    14082.295    8322.6269    7920.2042    8213.2514    62.660882   -452.92577   -787.09982   -7141.0348 
17809000    171.19933    -9460.737   -8808.0471    -9460.737            0    7867.9578    24.915157    24.779395    22.903334    14140.118    6778.2492    8482.2182     8343.406    624.02863   -608.54986   -253.63573   -7185.5238 
17810000    170.93813   -9485.7353   -8834.0412   -9485.7353            0    8073.3453    24.697543    24.836393    22.985078    14098.999    9194.8727    7577.8476    7447.3156   -796.23848   -489.92564    78.262346   -7174.0045 
17811000    172.30136   -9475.6506   -8818.7592   -9475.6506            0    8030.4578    24.868212    24.752415    22.902851    14097.811    7467.2246    8707.8795    7916.2694    545.52307    23.175751    212.35011   -7167.6801 
17812000    176.93741   -9472.6724   -8798.1063   -9472.6724            0    9109.6817      24.7143    24.878272     22.86298    14057.282    9169.7875    8902.9333    9256.3242    10.192656   -1488.3555    188.18884    -6930.521 
17813000    175.14838   -9437.2342   -8769.4887   -9437.2342            0    8936.9115    24.852969    24.795812     22.83248    14070.506    7928.8022    8392.8747    10489.058    -364.8141    204.93774   -677.32964   -6935.5997 
17814000     179.6863   -9489.4327   -8804.3866   -9489.4327            0    8727.2799    24.785355    24.912496    22.798848    14077.492    9605.3581    7434.4024    9142.0792    146.96801      260.205    164.65658   -7012.6256 
17815000    168.15059   -9472.2737   -8831.2069   -9472.2737            0    9319.4645    24.826194    24.823312    22.798487    14049.986    8624.7245    9117.2332    10216.436   -306.78408   -347.55642    337.77925   -6921.6055 
17816000    182.51552   -9452.2691   -8756.4367   -9452.2691            0    9571.8459    24.818324     24.83568    22.807622    14058.161    8638.7017    9617.9898    10458.846   -423.69935   -889.94111    388.56089   -6793.9799 
17817000    172.30324   -9487.8977   -8830.9992   -9487.8977            0    8473.3631    24.779949    24.781516     22.92714    14079.206     8314.495    8552.1468    8553.4474    227.77286    140.90352   -7.8931338    -7091.157 
17818000    175.09145   -9496.1875    -8828.659   -9496.1875            0    8151.2413     24.77085    24.829883    22.913064    14092.847    8271.7953    7659.0962    8522.8324    506.71418     175.2793   -958.66604   -7153.3366 
17819000    177.70518   -9502.6353   -8825.1421   -9502.6353            0    8141.7394    24.809416    24.766827    22.916426    14081.009    7560.5846    9525.5488    7339.0848    -28.75723    513.92809   -494.70409   -7153.1783 
17820000    176.11914   -9492.5546   -8821.1081   -9492.5546            0    7936.8283    24.754566    24.876699    22.889065    14095.358    9265.4887    7375.0734    7169.9229   -157.62541    406.81259   -933.23808   -7189.5633 
17821000    181.41105   -9489.1075   -8797.4859   -9489.1075            0    8383.3597    24.853093    24.922905    22.722311    14074.456    7796.2599    8474.7954    8879.0237    227.83372   -291.23279   -899.14646   -7076.7049 
17822000    177.85931   -9460.3855   -8782.3046   -9460.3855            0    8717.8606    24.812606    24.903391    22.801996    14089.764    8692.3753    8237.0004    9224.2062    69.875137    56.783173   -502.35025   -6990.9171 
17823000    169.56311   -9499.5471   -8853.0952   -9499.5471            0     9121.161    24.894572    24.730435    22.838274    14060.465    9082.6214    9235.9874    9044.8742   -506.86609   -393.05672    262.88586    -6982.733 
17824000     175.5493   -9460.6016   -8791.3276   -9460.6016            0    7904.1013    24.758238    24.870068    22.954448     14133.95    7445.9183    9118.8239    7147.5616    737.98854   -37.596607    483.12645   -7162.0618 
17825000    177.68907   -9453.6187   -8776.1869   -9453.6187            0    7818.0229    24.834548    24.752917    23.009037    14144.288    8536.0709    8023.8807     6894.117   -343.83606    365.62607    70.586326   -7163.4857 
17826000    179.19256   -9492.0559   -8808.8921   -9492.0559            0    7130.7619    24.809535    24.842638    22.945045    14141.818    6477.6355    7322.1759    7592.4743    360.85966   -810.08665    446.99215   -7338.2159 
17827000    173.81041   -9502.1471   -8839.5025   -9502.1471            0    7344.9418    24.845367    24.814976    22.924823    14134.006    7782.5543    7517.4361    6734.8349   -265.40326   -308.49596    767.06548   -7325.4898 
17828000    179.44074   -9460.0389   -8775.9289   -9460.0389            0    7940.0849    24.841286    24.909573     22.84512    14136.237    8013.5028    6999.7236    8807.0285   -173.29623   -368.17931    1069.8776   -7138.9811 
17829000    180.78724   -9498.7714    -8809.528   -9498.7714            0    8417.0089     24.76673    24.884844    22.841727    14077.727    8356.5587    8312.6818    8581.7864     16.79852   -264.29051   -598.67235   -7081.4386 
17830000    171.83764   -9457.4194   -8802.2959   -9457.4194            0    8936.2106    24.913516    24.829984    22.750931    14073.776    6923.2996    9599.2793    10286.053    846.89596   -295.49981    323.90278   -6968.1245 
17831000    177.57357    -9457.255   -8780.2635    -9457.255            0    7908.0347    24.776398    24.952797    22.846655    14124.726    8519.2751    7030.6873    8174.1417    165.73384   -296.62367   -292.33433   -7151.2508 
17832000    174.42342    -9474.395   -8809.4134    -9474.395            0    8852.6868    24.866482    24.826123    22.821795    14088.769    8275.6964    8771.4402    9510.9237   -683.78374   -322.13675    1865.2637   -6990.4497 
17833000     172.6804   -9501.4525   -8843.1161   -9501.4525            0    7219.5159    24.742511    24.928067    22.889415    14117.802    8170.1218    7117.8524    6370.5736   -327.99728   -351.74892   -74.827214   -7356.6636 
17834000    178.20812   -9448.6404   -8769.2298   -9448.6404            0    8521.4246    24.852375    24.779205    22.906447    14106.296    7809.8755     8998.978    8755.4201   -363.26251     225.4456   -401.42483   -7016.1525 
17835000    174.46987   -9477.9903   -8812.8315   -9477.9903            0    8352.2771    24.702646    24.996356    22.816632    14088.726     8911.215    7750.9317    8394.6846   -355.31761    168.30826   -4.3697585   -7096.6924 
17836000    172.10244   -9450.8557   -8794.7227   -9450.8557            0    8942.8292    24.856866    24.765431    22.866386    14076.341    7947.8304    10330.697    8549.9606    1139.3531    296.06542    63.927761   -6958.8583 
17837000    177.30517   -9480.3732   -8804.4051   -9480.3732            0    8682.0545    24.725456    24.863905    22.866804    14057.856    9014.2423    8890.2865    8141.6347    421.57212    694.13777    172.18197   -7024.4153 
17838000    179.80555   -9467.0089   -8781.5082   -9467.0089            0    8354.2475    24.953764    24.677919    22.923734    14116.595    6671.9722    10133.921    8256.8494    428.69237    944.50726    659.28776   -7061.5687 
17839000    171.48453   -9502.7912    -8849.014   -9502.7912            0    8096.2087    24.762519     24.93484     22.85504    14111.832    8010.5722    7594.8961    8683.1577     389.1303   -623.75043   -724.30189   -7182.7608 
17840000    178.50073   -9479.9443   -8799.4181   -9479.9443            0    6783.5279     24.94453     24.88161    22.816015    14160.989    5733.5936    7117.3314    7499.6585   -49.722528    25.420699   -82.331835   -7398.4602 
17841000    171.54303   -9482.5722    -8828.572   -9482.5722            0    7878.4304    24.800781    24.831722    22.921515    14116.126    8524.5289    7494.9559    7615.8064   -442.23501   -762.32699    33.380816   -7206.6457 
17842000    178.77477    -9472.201   -8790.6301    -9472.201            0    8788.0401    24.706948    24.761836    22.971265    14053.576    9621.9325    9228.0497     7514.138    402.35271   -787.51948   -861.53505   -6989.4598 
17843000    174.32863   -9459.9449   -8795.3247   -9459.9449            0    7611.9678    24.811687    24.782528    22.992339    14137.905    6957.0234    8545.5185    7333.3615   -40.037165    595.23518   -85.061787   -7225.8371 
17844000    172.16667   -9462.6516   -8806.2737   -9462.6516            0    8974.0825    24.820558    24.784611    22.888443    14080.235    9263.3934    9306.7883    8352.0657    14.862017   -263.81458   -189.79815   -6963.4837 
17845000    166.61137   -9481.7791   -8846.5806   -9481.7791            0    7604.4463    24.842269    24.849463    22.894796    14133.348    8041.0997    7316.2569    7455.9821   -464.02728   -478.54907    -63.75148   -7279.1492 
17846000    176.27125   -9468.4347   -8796.4083   -9468.4347            0    8923.8242    24.748277    24.832076    22.885991    14064.611    9197.8633    8764.9981    8808.6113    428.52964   -1264.4281    374.00414    -6965.972 
17847000    175.65543   -9457.1016    -8787.423   -9457.1016            0    9512.5638    24.823373    24.720026    22.903635    14054.459    9012.8312    10804.722    8720.1386   -177.95338   -412.68971    -768.6912    -6837.634 
17848000    172.67765   -9504.7443   -8846.4184   -9504.7443            0    7942.3237    24.757922    24.898083    22.863864    14093.853    8337.2628    6703.2797    8786.4287    292.07374    142.51065   -3.5856588   -7213.9183 
17849000    176.71753    -9463.009   -8789.2812    -9463.009            0    7896.7538     24.90849    24.857183    22.813636    14125.175    6161.5399    8467.9093     9060.812   -411.01793    162.31432    604.50532   -7162.5406 
17850000    175.04852   -9495.6237   -8828.2589   -9495.6237            0    8511.3601    24.845533    24.929549    22.746656    14089.005    8509.3045    7241.9526    9782.8232   -667.08832    13.829615    938.49968   -7079.3984 
17851000    176.47661   -9484.8017   -8811.9924   -9484.8017            0    9488.5019    24.736179    24.834759    22.864644     14046.14    9640.8267    9201.1285    9623.5506    407.78223   -1448.0992    129.16421   -6868.2866 
17852000    180.06187    -9469.318     -8782.84    -9469.318            0    9281.9636    24.803189    24.768776    22.898277    14067.434    9082.9342     9748.314    9014.6425     358.4294   -637.61877    342.51072   -6878.5607 
17853000    174.66228   -9475.1601   -8809.2678   -9475.1601            0    7340.2111    24.833988    24.826308    22.956995     14153.82     6992.189    7792.1911    7236.2533    -372.4608   -467.75318    369.97688   -7294.1092 
17854000    174.04453   -9471.5121   -8807.9749   -9471.5121            0    8122.2879    24.785744     24.84877    22.905659    14107.486     8338.156    7408.1828    8620.5248   -670.21879   -283.43648    56.146502   -7136.8693 
17855000    177.86413   -9474.6525   -8796.5533   -9474.6525            0    7362.2378    24.796589    24.776004    23.015335     14139.71    6886.7252    8046.5269    7153.4615   -617.34808   -17.153399    180.27767   -7278.3628 
17856000    177.01278   -9489.4997   -8814.6463   -9489.4997            0    8912.5484    24.727642    24.845681    22.869698    14050.573    9708.0164    8814.2121    8215.4166    829.80748    -298.6395    673.62284   -6988.3475 
17857000    176.86195   -9479.5287   -8805.2503   -9479.5287            0    8002.6498    24.865821    24.848124    22.821403    14100.638    6992.3407    9367.0589    7648.5499   -1308.7894   -280.99632    507.36124   -7159.5587 
17858000    171.17296   -9458.8445   -8806.2551   -9458.8445            0    8328.8484    24.845511    24.977243    22.703842    14089.377    8669.6816    7116.6823    9200.1814   -759.81098   -69.247953   -76.361977   -7094.8508 
17859000    173.03778   -9472.1843   -8812.4854   -9472.1843            0    8239.8512    24.848587     24.83517    22.834108    14091.359    8030.7251    8379.7083    8309.1202    136.41663    323.40063   -823.75535   -7119.1299 
17860000    173.96573     -9488.38   -8825.1433     -9488.38            0    8933.8812    24.772888     24.96902    22.757641    14076.846    9525.4674    7906.0987    9370.0774    3.6778849   -1312.4775    400.69313     -6991.05 
17861000    178.93261    -9491.144   -8808.9712    -9491.144            0    8123.6531    24.831026    24.767164    22.956951     14118.39    8123.3146    8048.3558    8199.2889   -47.223466    129.89561     1428.141   -7136.2929 
17862000    172.25355   -9455.5411    -8798.832   -9455.5411            0    8065.3162    24.799285    24.847653    22.918692     14122.59    9154.6536    6904.1913    8137.1039   -1182.1262    63.563744    273.80914   -7137.6713 
17863000    176.32557   -9482.4836   -8810.2502   -9482.4836            0    7460.2497    24.904067    24.847956    22.866141    14149.915    6825.2518    7260.9438    8294.5535     356.8335   -432.88053   -10.363081   -7270.7382 
17864000    181.36489   -9451.5243   -8760.0786   -9451.5243            0     8429.698    24.741439    25.013397    22.818845     14121.84    9243.6898    7430.3224    8615.0818    922.34667    22.766637     285.3021   -7023.9608 
17865000    182.68292   -9462.2078   -8765.7372   -9462.2078            0    8709.6218    24.913332    24.792414    22.785944    14074.003    8243.1275    8908.5196    8977.2185   -263.28623   -975.18988    344.08559   -6978.0446 
17866000    176.50791   -9494.1417    -8821.213   -9494.1417            0    7897.0381    24.751535     24.99455    22.790896    14099.667    7930.2361    7423.5607    8337.3174    551.96456    17.707959    763.29175   -7197.3516 
17867000    172.69114   -9500.7069   -8842.3295   -9500.7069            0    8714.4732    24.861424    24.810313    22.803932    14065.915    7920.1987    8977.4338    9245.7871   -195.83324   -921.69695    897.59614   -7054.6692 
17868000    163.07954    -9459.168   -8837.4344    -9459.168            0    9799.7694    24.649671    24.897279    22.869835    14035.441    10965.844    8714.1006    9719.3636   -253.75654    71.712885    398.84094    -6831.495 
17869000    171.50548   -9457.1198   -8803.2627   -9457.1198            0    9283.8965    24.792467    24.742274     22.89567    14044.708    9120.5259    9494.5766    9236.5871    1042.5571    843.49739    565.60008   -6901.6639 
17870000    169.76918   -9467.4305   -8820.1929   -9467.4305            0    7111.1456    24.662044    24.964958    23.020487    14173.412    7280.1251    6988.3287    7064.9829   -761.91351     -705.548   -94.264304   -7350.2859 
17871000     178.7458   -9496.7575    -8815.297   -9496.7575            0    8855.9242    24.883279    24.771126    22.834941    14075.157    7766.6784    9921.2283    8879.8658    2.2523994    461.48441    113.62708   -6997.4261 
17872000    173.01936   -9450.6905   -8791.0617   -9450.6905            0    8372.6209    24.788039    24.906363    22.844744    14103.885    8991.3884    7906.3424    8220.1318   -417.50023    50.779712    969.53636   -7068.8915 
17873000    176.14099   -9486.5598     -8815.03   -9486.5598            0    10065.552     24.85309    24.759149    22.752772    14000.722    10705.017    9455.9413    10035.697   -93.578127    158.52423   -49.467715   -6759.7836 
17874000    178.33379   -9459.5905   -8779.7008   -9459.5905            0    8145.1922    24.814976     24.89389    22.823522    14099.032    8124.3282    8048.0689    8263.1794   -800.93328   -610.76389     731.9158    -7104.887 
17875000    179.08788   -9457.0512   -8774.2865   -9457.0512            0    8125.4199    24.923699    24.726005    22.887437    14104.692     8321.396    8871.1979    7183.6658   -104.14909    143.24945   -496.58645   -7102.8676 
17876000    174.10745   -9472.8236   -8809.0466   -9472.8236            0    8199.7187    24.735755    24.818641     22.93474    14079.816    8998.9873    8965.7962    6634.3725    515.26922    222.36556    155.75577    -7125.319 
17877000    178.59788   -9476.2855   -8795.3889   -9476.2855            0    8505.6526    24.759852    24.774151    22.990394    14102.406    8520.1634    9035.3607    7961.4338    263.51244    374.26943    374.35042   -7046.0387 
17878000     173.1087   -9472.5976   -8812.6283   -9472.5976            0    8874.1863    24.740478    24.878746    22.872754    14078.456    10418.336    7652.7667    8551.4556   -214.89048   -924.80899   -16.883476   -6990.5817 
17879000    174.51271   -9461.6177   -8796.2956   -9461.6177            0    8101.2319    24.806424    24.917958    22.815405    14102.782    7888.2074    8065.8734    8349.6149    775.13839   -644.83307    506.91017   -7130.0779 
17880000    168.82271   -9473.6425   -8830.0133   -9473.6425            0    8500.7353    24.852608    24.825426    22.819019    14078.801    7190.4811     8992.328    9319.3967    626.70722   -636.11388   -113.55653    -7084.601 
17881000    171.22076   -9484.7947   -8832.0231   -9484.7947            0    8859.3664    24.791458    24.800592    22.893013    14075.606    9247.5078    8616.1017    8714.4898    125.06391   -372.14719    369.39716   -7013.3877 
17882000    172.92023   -9473.9831   -8814.7323   -9473.9831            0    8226.9909    24.763412    24.789539    22.986074    14110.544    8926.4735    8963.7394      6790.76    -133.3754   -997.16383   -314.56826   -7121.7179 
17883000    175.08842   -9484.9242   -8817.4073   -9484.9242            0    7954.1969    24.798309     24.85835     22.92256    14130.499    8887.3682    7298.3155     7676.907   -494.75281   -471.87504   -235.58038   -7178.2157 
17884000    174.78454   -9497.0248   -8830.6664   -9497.0248            0     9448.284     24.77029    24.746118    22.903052    14038.849    8942.9344    10094.014    9307.9032    468.52855   -41.741501    -1196.323   -6896.2038 
17885000    176.78453   -9524.5207   -8850.5374   -9524.5207            0    7581.1953    24.845313    24.887954     22.82811    14115.739    6825.7159    7709.7198    8208.1501   -74.309104    510.89574   -1320.1556   -7289.8455 
17886000     175.3912   -9472.2343   -8803.5631   -9472.2343            0    7838.4087    24.910916    24.898985    22.749276    14110.387    7406.7957    8193.5991    7914.8313   -526.91807   -1159.4643    233.92631   -7190.5321 
17887000    173.83479   -9484.9356   -8822.1981   -9484.9356            0    8107.1507    24.786306    24.835554    22.879433    14084.159      8009.15    8632.9438    7679.3583    120.35231    -31.79409    774.24471    -7156.965 
17888000    178.25054   -9470.7617   -8791.1894   -9470.7617            0    9078.8215    24.779673    24.729775    22.957556    14068.293    9005.3452      9788.31    8442.8094   -560.31837   -762.76305      593.487   -6928.4728 
17889000    176.11736   -9501.0995   -8829.6598   -9501.0995            0    9033.2461    24.808518    24.747671    22.878754    14046.481    8834.1294    9186.6219    9078.9869    197.75494    177.09682   -99.819184   -6979.1676 
17890000    175.30483   -9475.2793   -8806.9374   -9475.2793            0    8508.5075    24.793893    24.835462    22.871211    14083.355    9306.8329    8344.2264    7874.4631    490.08728   -376.56986    443.90538    -7059.364 
17891000    171.76508   -9488.6174   -8833.7706   -9488.6174            0    7852.1361    24.838544    24.938853    22.782607    14112.568    8257.3511     7086.982     8212.075   -607.95715    542.06989   -273.97971    -7217.665 
17892000    175.33124   -9499.5032   -8831.0606   -9499.5032            0    8488.4907    24.975986     24.70154    22.789971    14060.166    6557.9192    9652.2547    9255.2981   -232.95332   -1137.7591    18.666165   -7090.4693 
17893000    172.47401   -9466.8392   -8809.2896   -9466.8392            0    8031.4623    24.758154    24.929084    22.855284    14106.238    8673.7319    7646.9743    7773.6807    2.9506057   -607.18106    803.12657   -7157.0169 
17894000    174.46994   -9486.5346   -8821.3756   -9486.5346            0    6046.1837    25.028098    24.763727    22.932557    14213.346    4455.6956    6876.4066    6806.4488    430.31747     639.6634    665.78804   -7568.0799 
17895000    179.23838   -9450.7062   -8767.3678   -9450.7062            0    7622.4365    24.775666    24.913264     22.92635    14151.122    9126.3371    6496.5283     7244.444     -242.126   -448.48056   -563.79157   -7194.2524 
17896000    177.95688   -9491.2343   -8812.7816   -9491.2343            0    8543.0209    24.870623    24.760408    22.861887    14078.505    8074.9875    9107.9752    8446.0999    1041.2849    44.562929   -1153.9534   -7058.7238 
17897000      171.408   -9463.1744   -8809.6889   -9463.1744            0    8747.9848    24.778918    24.921774     22.77429    14063.913    8791.9084    7929.3216    9522.7244   -908.11429    402.28738    -382.6823   -7015.4095 
17898000     173.6606   -9496.7015    -8834.628   -9496.7015            0    9096.4195    24.856556    24.738488    22.857368    14055.307    9216.5914    9352.1418    8720.5251   -120.67594    123.20378    257.47785   -6970.0236 
17899000    172.77147   -9474.0782   -8815.3946   -9474.0782            0    6851.0612    24.791976    24.928515    22.929856    14171.273    6220.3354    7227.6045    7105.2435   -104.71926    -259.0065    518.61488   -7399.4619 
17900000    171.27646   -9480.5988   -8827.6148   -9480.5988            0    7002.4439    24.858856    24.807908    22.948145    14152.034    6629.0531    7942.8676     6435.411   -405.03084   -1300.4344   -579.97703   -7382.3601 
17901000    172.71218   -9460.6151   -8802.1575   -9460.6151            0    7956.7089    24.769586    24.840365    22.951577    14121.773    7576.4589    8308.2547     7985.413   -966.92719    518.20425     136.3855   -7163.4607 
17902000    172.07419   -9478.2785   -8822.2532   -9478.2785            0    8342.3872    24.705989    24.898376    22.905931    14090.332    9480.6023    7837.5131    7709.0463    166.92776    680.41923   -342.64458   -7107.9507 
17903000    175.26396   -9465.9378   -8797.7517   -9465.9378            0    8369.1289    24.837608    24.848752    22.869663    14114.781    8744.1422    8464.9849    7898.2596    45.614748   -349.19236    220.52067   -7074.9699 
17904000     173.6094   -9497.7498   -8835.8716   -9497.7498            0    6721.0382    24.785249    24.984429    22.896788    14178.729    7537.6946     5313.938     7311.482    706.64574   -671.05892    741.65162   -7446.0804 
17905000    175.05319    -9480.739   -8813.3565    -9480.739            0     8094.133    24.893035      24.9051    22.783764    14125.103    7613.6712    7946.8272    8721.9005   -34.129513   -806.04835   -336.97146    -7145.964 
17906000    165.97903   -9503.3748   -8870.5871   -9503.3748            0    8354.1707    24.772764    24.869195    22.831588    14066.055    9420.1426     7301.458    8340.9114   -565.41799    676.47248    57.029659    -7156.821 
17907000    175.80028   -9491.1977   -8820.9669   -9491.1977            0    7584.7227     24.77204     24.79495    23.005249    14130.318    8487.2709    7126.3287    7140.5686   -736.60524   -1251.5062    92.011859   -7257.9361 
17908000    178.82043   -9483.3028   -8801.5577   -9483.3028            0     8784.785     24.80872    24.807711    22.872231    14076.659    8825.3073    8294.4085    9234.6393   -37.921765   -977.58465    266.96595   -6998.0973 
17909000    179.37119   -9458.1753   -8774.3305   -9458.1753            0    10120.552     24.80659    24.923888    22.648127    14002.809    9690.6585    9475.0318    11195.966   -713.29714    -464.4768    180.43034   -6707.5458 
17910000    177.90891   -9489.0879    -8810.818   -9489.0879            0    8836.7111     24.86745    24.830633    22.752541    14049.114    7935.3926    9167.6199    9407.1209   -316.42329    54.229168    1387.5062   -7000.2473 
17911000    173.49231   -9508.3592   -8846.9274   -9508.3592            0    8774.4315     24.78838    24.787325    22.878933    14057.677     9218.197    9110.7754    7994.3222   -463.30144    -481.9051    712.63199   -7048.0215 
17912000    170.64897    -9464.768   -8814.1763    -9464.768            0    8832.9695    24.760765    24.766448    22.966861    14084.111    8337.8292    9882.6781    8278.4013   -847.43379   -417.74132    -662.4782    -6999.864 
17913000    177.99222   -9474.6355    -8796.048   -9474.6355            0    7985.3725    24.797117    24.808319    22.948818    14117.535     8520.932    7513.2385    7921.9471   -117.54423    -293.0564    356.69061   -7151.9415 
17914000    171.60128   -9479.2442   -8825.0219   -9479.2442            0    8961.5564    24.719647    24.851497    22.901671     14068.96    9928.6244    8859.8778     8096.167    161.79766   -570.49602    154.05299   -6986.2776 
17915000    170.36411   -9458.4077    -8808.902   -9458.4077            0    8440.8449    24.796424    24.898125    22.827533    14093.365    8827.7161    8501.9824     7992.836   -214.30339   -530.96629   -1244.3568   -7073.9938 
17916000    175.99837   -9456.3744   -8785.3883   -9456.3744            0    7877.7269    24.888501    24.822513    22.838817     14109.71    7882.9579    7946.1702    7804.0527   -157.88674   -478.13601    -163.2751    -7164.344 
17917000     169.8997   -9503.6176   -8855.8824   -9503.6176            0    7584.2268    24.750309     24.93162    22.896767    14128.801    8156.5385    6312.5136    8283.6284    57.349314   -1383.8481    1629.6155   -7293.1216 
17918000    183.83051    -9472.418   -8771.5723    -9472.418            0    9334.6947    24.810416    24.687557    22.931231    14045.575    9173.1159    11141.087    7689.8807   -66.055209   -439.28315     457.0028   -6859.4506 
17919000    172.66578   -9469.5959   -8811.3152   -9469.5959            0    8270.1886    24.790312    24.846394    22.885126    14096.091    9695.7756    6477.6268    8637.1634    268.57628   -819.61307    268.53807   -7111.1544 
17920000    173.51059   -9489.6751   -8828.1736   -9489.6751            0     7082.717     24.82438    24.892525    22.881691    14139.547    7265.6919    7276.5892      6705.87   -837.30644   -1221.3274    361.90175    -7367.641 
17921000    172.09893   -9478.0404   -8821.9208   -9478.0404            0    7303.7758     24.89039    24.797589    22.897555    14132.867    7090.9632    7933.1017    6887.2624    710.60189     23.69862    477.17541   -7316.5149 
17922000    173.35332   -9479.2005   -8818.2986   -9479.2005            0    7783.8499    24.752771    24.907462    22.922573    14132.424    8134.6078    7304.5966    7912.3454    68.628133   -1239.7415   -898.95955   -7213.9933 
17923000    175.26653   -9473.5131   -8805.3171   -9473.5131            0    8772.7972    24.896779    24.866344    22.722906    14067.566    8529.4643    8260.7861    9528.1413   -169.76343    569.12992    947.34613   -7005.4811 
17924000    177.38922    -9497.326   -8821.0374    -9497.326            0     8530.341    24.741472    24.905683    22.843029    14075.949     9050.842    8560.5392    7979.6418    669.10831    1004.4016    1480.5418    -7069.901 
17925000    178.32703   -9494.2631   -8814.3992   -9494.2631            0    7948.0516    24.855713    24.754136    22.879401    14077.276    7863.7868    8378.4324    7601.9356   -501.82111    644.92684    889.43379   -7182.6432 
17926000    171.08184   -9479.8153   -8827.5733   -9479.8153            0      7308.59    24.701749    24.818228    23.044915    14127.769    7822.3208     8105.511    5997.9381    144.24059    661.66213    15.098226   -7321.7185 
17927000    170.30261   -9453.6724   -8804.4012   -9453.6724            0     7620.983    24.791457    24.822249    22.981681     14142.46    7691.6891    7901.3929    7269.8671    312.42211    26.889119   -641.23542   -7232.5485 
17928000     176.8134   -9487.5216   -8813.4283   -9487.5216            0    7958.3485    24.823577    24.883934    22.849457    14114.298    7342.6972    8022.3156    8510.0328    415.20573    561.37478    267.30056   -7175.2614 
17929000    175.46658   -9475.0133   -8806.0547   -9475.0133            0    9537.6908    24.891214     24.80797    22.697078    14015.457    9003.7998    9531.0775    10078.195     832.8645    649.34227    151.36959   -6856.5406 
17930000    173.35667   -9490.8719   -8829.9572   -9490.8719            0    8117.8551    24.823312    24.910874     22.78417    14089.056    8087.6091     7545.922    8720.0343    321.71803   -307.39218   -262.81087   -7161.9456 
17931000    172.92773   -9466.3883   -8807.1089   -9466.3883            0    8850.5966    24.778074    24.804064    22.901863    14075.414    8673.7497    9298.9295    8579.1108   -13.272189   -289.35363    571.50829   -6990.2984 
17932000      178.267   -9468.1266   -8788.4915   -9468.1266            0    8776.2971     24.75669     24.76984    22.967975    14084.404    9223.2122    9044.4581     8061.221     591.9511    98.096556   -249.84076   -6985.7823 
17933000    174.89383   -9482.5211    -8815.746   -9482.5211            0     8383.388    24.751055      24.7879    22.978244    14097.766    9113.2814    8100.1974    7936.6852   -79.427873    205.11653    666.70556   -7092.1092 
17934000    169.69816   -9456.1321   -8809.1653   -9456.1321            0    7957.9628    24.777315    24.870857    22.907154    14116.146    7520.6093    8448.4544    7904.8248   -90.803847   -1028.2542    89.674486   -7170.8634 
17935000    183.93971   -9470.6913   -8769.4293   -9470.6913            0    8880.2868    24.891962    24.790659    22.818044    14080.744    7691.0057    10177.769    8772.0854   -602.67183    43.698918   -208.86123   -6945.8339 
17936000    179.56329   -9466.5457   -8781.9686   -9466.5457            0    7799.2141    24.833004    24.893228    22.856762    14129.448    7413.1824    7792.4826    8191.9773    414.32313   -398.83783    -263.7422   -7174.8352 
17937000    173.84981    -9508.477   -8845.6822    -9508.477            0    8572.3013    24.848271    24.913536    22.715038    14061.933    8759.8517    7440.3922    9516.6601    182.84269    857.11773   -42.300809   -7087.6844 
17938000    176.54468   -9457.0916   -8784.0227   -9457.0916            0    8353.9923    24.825524    24.877429    22.853415     14114.16    8950.6174    7493.2033    8618.1562   -99.977159   -1203.6438    792.05057   -7064.4324 
17939000    172.40328   -9504.4927   -8847.2128   -9504.4927            0    7523.3434     24.68644    24.845876    23.041785    14132.822    8865.2073    7260.7427    6444.0802    196.94508    -411.7879   -232.71529   -7296.5561 
17940000    180.24399   -9463.1373    -8775.965   -9463.1373            0    8697.5278    24.825653    24.786065    22.887777    14083.542    8263.4699    9958.0549    7871.0585    263.98441   -6.0467871    725.47148   -6989.5449 
17941000     181.2286   -9492.9126   -8801.9866   -9492.9126            0    8160.6464    24.831526    24.852784    22.856043    14105.208    8172.6942     7762.671     8546.574    23.774943    43.538897    916.89417   -7123.2601 
17942000    176.60504   -9463.8324   -8790.5335   -9463.8324            0    7991.6306    24.901969    24.859077    22.817381    14124.871    7659.3667    7461.6857    8853.8395     636.4426    585.61511    366.48414   -7144.2835 
17943000    172.26453   -9468.0209     -8811.27   -9468.0209            0    7815.1018    24.842085    24.883234     22.84215    14119.908    7619.9365    8201.3939    7623.9751   -1060.7362    64.471883   -201.89865   -7201.9501 
17944000     180.0123   -9498.6455   -8812.3565   -9498.6455            0    8020.1264    24.815582    24.828417    22.888268    14102.185    7068.8134    8554.6398    8436.9261   -577.18127   -655.11087    342.54958     -7162.89 
17945000    176.36933    -9473.306   -8800.9056    -9473.306            0    9067.3159    24.759886    24.828384     22.85673    14051.128    9432.5558    8925.2811    8844.1107   -565.88222     28.30462    438.29719   -6942.8196 
17946000    176.48826   -9466.7367    -8793.883   -9466.7367            0    8842.3562    24.844404    24.694155    22.915963    14059.209    8382.6425    9292.2106    8852.2156     41.30444   -757.68509   -900.00083   -6980.8539 
17947000    175.76236   -9480.7872   -8810.7009   -9480.7872            0    8048.6132    24.717688     24.90667    22.932438    14118.019    8596.5923    7388.2657    8160.9818   -1076.7393   -899.63293    23.168347    -7153.517 
17948000    178.41275   -9471.2316   -8791.0409   -9471.2316            0     8398.727     24.82386    24.772405    22.914662    14091.296    8123.8904    8831.5351    8240.7556   -33.058197    48.926192    170.40068   -7065.0428 
17949000     175.9508   -9456.5455   -8785.7408   -9456.5455            0    8517.7502    24.758986    24.923734    22.846179    14098.066    9294.1024    7514.0239    8745.1244   -484.89044    595.05462   -592.39886   -7034.4416 
17950000     182.7153   -9503.0989   -8806.5048   -9503.0989            0    7895.4729    24.776304    24.855658    22.873545    14086.246    7833.5459    8011.5843    7841.2886     20.47751    206.06565    202.37947   -7184.5106 
17951000    178.74213   -9463.2061   -8781.7596   -9463.2061            0    8382.6467    24.844523    24.812861    22.877584      14103.2    7922.8792    9390.8413    7834.2197   -508.75843   -86.643728    763.03944   -7057.6109 
17952000    170.75323   -9467.8573   -8816.8681   -9467.8573            0      8334.17    24.799219    24.800626    22.905081    14087.453    8774.2543    8158.9621    8069.2936    339.36939    194.37184    471.62416   -7104.6041 
17953000    171.99643   -9487.6553   -8831.9265   -9487.6553            0    9315.0241    24.739277    24.821102    22.873336    14045.512    9861.1113    9113.3237    8970.6373   -372.82219   -620.43865    809.11828   -6923.8427 
17954000    176.34979   -9465.1212   -8792.7953   -9465.1212            0    8970.2949    24.859085    24.782758    22.841834    14072.321    8320.2777    9308.3195    9282.2874    147.83202   -407.19651   -129.82064   -6951.8184 
17955000    177.55074   -9509.4175   -8832.5131   -9509.4175            0    8311.4652    24.747693    24.997941    22.764637    14083.146    9005.0929    6520.2246     9409.078    771.26776   -180.73395     313.6272   -7125.4359 
17956000    169.33492   -9507.3653   -8861.7833   -9507.3653            0    8555.3368    24.801434    24.765011    22.903405     14067.45    8386.7934    9101.6436    8177.5733   -294.58697    119.28443   -397.31763   -7106.5762 
17957000    177.03615   -9479.5335   -8804.5909   -9479.5335            0     8815.339    24.712548    24.787115    22.950135    14058.169    9687.7433    9061.8662    7696.4076   -447.18852   -77.894105    467.17465   -6997.2351 
17958000    175.93285   -9475.2083    -8804.472   -9475.2083            0    7905.4149    24.846886    24.827729    22.874412    14111.036    7967.1694    8370.8502    7378.2252   -303.46377     -177.236    836.03262   -7177.5772 
17959000    179.54019   -9462.7436   -8778.2545   -9462.7436            0    8524.2521    24.717003    24.938443    22.868553    14096.257    9634.8525    7259.5789     8678.325   -542.42443   -166.89976    129.94486   -7025.8434 
17960000    178.79559   -9480.2816   -8798.6313   -9480.2816            0     8797.454    24.904441    24.801196    22.763859    14060.323    6932.9682    9917.4091    9541.9846   -46.086796   -214.21574    553.83248   -6994.6659 
17961000    179.83669   -9475.2418   -8789.6223   -9475.2418            0     8608.159    24.756371    24.858036     22.87721    14078.515    9061.4864    8739.1934    8023.7971    -646.0292   -110.50338   -1528.2781    -7022.189 
17962000    179.30878    -9495.203   -8811.5961    -9495.203            0    8940.1625    24.787143    24.722751     22.95341    14065.995    9239.4246    9614.6544    7966.4084   -300.34408     425.9773    1327.4206   -6977.6281 
17963000    174.80527   -9491.0464    -8824.609   -9491.0464            0    7789.9494    24.732683    24.830494    22.975158    14109.613    7614.3111    9169.9022    6585.6349    551.84359    640.93467   -114.29278   -7221.6381 
17964000    177.73237   -9477.8211   -8800.2243   -9477.8211            0    7852.0434    24.835711    24.845854      22.8674     14110.66    6595.4514    8549.3146    8411.3641    137.79754   -842.89357     993.6038   -7184.3562 
17965000    174.46324   -9489.0789   -8823.9455   -9489.0789            0     7370.059     24.95113    24.788675    22.862137    14140.357    6509.2233    8315.1589    7285.7948   -275.17803   -435.01962    312.50609   -7304.0727 
17966000    174.71211   -9495.9288   -8829.8466   -9495.9288            0    8129.2515    24.786006    24.956835    22.787174    14095.696    8639.4217    7157.9487    8590.3839    559.06539    183.75466    1283.4456   -7158.7061 
17967000    177.52194   -9468.0822   -8791.2876   -9468.0822            0     8005.082    24.845761    24.878905    22.821975     14107.07    7374.1266    8587.8828    8053.2366   -808.67051   -155.59338    509.64991   -7144.3449 
17968000    174.89749   -9468.1452   -8801.3562   -9468.1452            0    8750.0851    24.721261    24.929244     22.82463    14066.417    10019.405    7969.0525    8261.7974    11.313541   -1091.2356   -42.104267   -7006.3265 
17969000    171.92341    -9488.996   -8833.5455    -9488.996            0    8892.6971    24.794922    24.766567    22.891168    14057.125    7933.1768    9497.9117    9247.0028   -86.537791    591.13023    331.74266   -7010.4648 
17970000    182.54178   -9501.3928   -8805.4602   -9501.3928            0    9294.9751    24.674486    24.868047    22.869887    14033.106    10752.687    8261.2789    8870.9595    365.14039   -324.95315   -212.31447    -6903.165 
17971000    171.37305   -9467.0367   -8813.6844   -9467.0367            0     8555.046    24.876177    24.852024    22.790019    14089.322    7079.9125    8395.5999    10189.626   -275.23396   -618.28032    89.477563   -7055.8081 
17972000    172.09563   -9485.5295   -8829.4225   -9485.5295            0    7188.0093    24.834183    24.950419    22.792232    14122.597    7885.9519    6026.8652    7651.2108    260.14898    501.11113    416.38776   -7348.9542 
17973000    174.73283   -9476.4889   -8810.3277   -9476.4889            0    8209.0518    24.887388    24.806612    22.828069    14093.405    8178.3752    8037.0538    8411.7264    113.27652    -112.9882    329.56867   -7123.0568 
17974000    180.04996   -9451.6999   -8765.2674   -9451.6999            0    8223.8699    24.740877    24.832321    22.951906    14101.041    8014.9568     8264.145    8392.5078   -442.32127    340.84841    203.04439    -7074.035 
17975000    168.89509   -9463.7994   -8819.8943   -9463.7994            0    7781.7074    24.802412    24.793871    22.972701    14127.012    7456.5411    8427.6755    7460.9057    -907.3469    912.61588   -28.525011   -7216.6448 
17976000    180.08916   -9487.5553   -8800.9733   -9487.5553            0    9566.7995    24.758351    24.782955     22.87883    14038.109     8653.535    10125.208    9921.6556   -543.46082   -399.60485    856.15602   -6842.3488 
17977000    178.11525   -9458.9529   -8779.8963   -9458.9529            0    10713.877    24.807214    24.869815    22.680315    13992.639    10414.917    9820.8763    11905.838    362.92291    574.96214    -354.8255   -6593.5338 
17978000    178.92688   -9470.9254   -8788.7746   -9470.9254            0    8525.2719    24.835489    24.849794    22.794721    14067.917     7853.968    8002.4769    9719.3707    367.21436    100.55957   -599.99636   -7039.6775 
17979000    174.87006   -9492.9314    -8826.247   -9492.9314            0    7986.1141    24.781384    24.938408    22.820149    14103.041    8679.8723    7179.8985    8098.5716    983.46211    612.99485   -245.07294   -7183.6759 
17980000    171.45621   -9456.3791   -8802.7098   -9456.3791            0    8304.7956    24.858403    24.738853    22.944531    14110.161    7405.7174    9379.6696    8128.9997   -495.03578    927.67887   -23.542328   -7093.7304 
17981000    175.89098   -9448.9427    -8778.366   -9448.9427            0    8695.1245    24.699695    24.826659    22.981716    14092.639    9319.3668    9595.3675    7170.6393    -120.8705   -260.91546   -322.02555    -6991.286 
17982000    174.63274   -9466.8695   -8801.0899   -9466.8695            0    7446.7455     24.92652     24.77196    22.899412      14139.9    6144.2662    9490.3458    6705.6247     253.4945   -994.38746    452.13737   -7265.4523 
17983000    174.09705   -9458.4569   -8794.7196   -9458.4569            0    7722.9101    24.932956    24.927532    22.763028     14147.61    7134.4501    7400.4052    8633.8751    236.50068    -469.9772    1122.1005   -7201.2641 
17984000    178.72693   -9479.2427   -8797.8541   -9479.2427            0    8501.3474    24.766075    24.904971    22.858485    14099.076    9826.0888    7569.9617    8107.9917    78.911611   -154.24005   -554.10175   -7049.8022 
17985000    171.11906   -9486.4164   -8834.0325   -9486.4164            0    7963.2051    24.867842    24.752652    22.914923    14105.167    7262.6796    9146.9659    7479.9698   -610.30875   -748.46766    910.25611   -7195.9264 
17986000    176.37943    -9472.961   -8800.5221    -9472.961            0    8062.3973    24.873663    24.789803    22.900655    14120.846    7620.0049    8105.9303    8461.2568    166.34302    87.712712    -221.2688   -7140.1677 
17987000    173.11023   -9479.8528   -8819.8777   -9479.8528            0    8100.7157    24.772104    24.899812     22.85772    14099.116    8600.9476    7565.7453    8135.4542    648.44785   -854.18288   -56.616036   -7154.1992 
17988000    182.44011   -9459.4329    -8763.888   -9459.4329            0     8656.665    24.888698    24.798275    22.802111     14073.39    7985.2257    9009.7191    8975.0502  0.047212216    137.17411    528.99463   -6987.1425 
17989000    175.84355   -9475.2075   -8804.8117   -9475.2075            0     7740.677    24.808838    24.867488     22.88002     14115.45    7139.3665    7594.7925    8487.8718   -508.88886    882.77699    1035.3416   -7211.3209 
17990000    170.09318   -9433.7892   -8785.3165   -9433.7892            0    7638.5241    24.866977    24.860918    22.880754    14145.246    7665.9654    7310.4207    7939.1862    240.03498   -301.25047     429.5897   -7209.5355 
17991000    170.70168   -9449.9155   -8799.1228   -9449.9155            0    7759.1629    24.811522    24.872221    22.881364    14120.494    7653.0094    7891.4588    7733.0206    -132.5189    637.77581   -327.24546   -7201.2557 
17992000    181.72922   -9482.1987   -8789.3641   -9482.1987            0    8084.3055    24.844338    24.842908    22.861751    14110.401    8177.5383    8187.4356    7887.9427   -253.06607   -46.410574   -256.00982   -7125.7294 
17993000    171.60579   -9469.1387   -8814.8991   -9469.1387            0    7665.1017    24.821301    24.883564    22.858538    14118.403    7560.3612    7585.1259    7849.8182   -127.73232   -412.06719   -546.59798   -7236.6361 
17994000     171.1707   -9484.3141   -8831.7333   -9484.3141            0    7569.8079    24.698885    24.986825     22.89351    14128.654    8836.3352    6192.6829    7680.4055    82.583779   -361.13453    207.06308   -7271.9598 
17995000    181.66422   -9490.6261   -8798.0392   -9490.6261            0    8361.5228    24.817605    24.746693    22.903744    14066.418    8356.4198    9574.5087      7153.64     297.3332   -720.24128   -319.44148   -7082.7207 
17996000    177.45087   -9496.6297    -8820.106   -9496.6297            0    8910.4235     24.67735    24.933358    22.830334    14047.258    9139.6936    8278.0547    9313.5223   -177.24854   -58.859684    145.20931   -6994.6734 
17997000    177.14682   -9443.9506   -8768.5861   -9443.9506            0    9048.2669    24.869781     24.80766    22.822025    14080.301    8342.9661    8432.8533    10368.981   -639.75561   -509.14665    13.161498    -6910.554 
17998000    174.54222   -9501.7436   -8836.3091   -9501.7436            0    7944.0043    24.723775    24.920682    22.911936    14116.807    8929.5132    6606.5734    8295.9262   -403.54356    111.55461   -55.516347   -7200.8042 
17999000    166.11789   -9487.9814   -8854.6643   -9487.9814            0    7998.6556    24.836373    24.672545    23.023583    14108.311    8179.8866    9514.0064    6302.0737    239.46293    700.59197   -614.98582   -7208.8989 
18000000    180.34507   -9475.5589   -8788.0013   -9475.5589            0    8250.1873    24.731322    24.846817    22.942671    14098.148    8786.5841    8491.9606    7472.0172   -323.24965    628.53655    143.84177   -7091.7047 
Loop time of 582.952 on 64 procs for 250000 steps with 1920 atoms

Performance: 74.106 ns/day, 0.324 hours/ns, 428.852 timesteps/s
377.6% CPU use with 16 MPI tasks x 4 OpenMP threads

MPI task timing breakdown:
Section |  min time  |  avg time  |  max time  |%varavg| %total
---------------------------------------------------------------
Pair    | 76.253     | 78.606     | 83.638     |  25.0 | 13.48
Bond    | 1.5216     | 1.8839     | 2.6765     |  24.2 |  0.32
Kspace  | 282.18     | 290.19     | 298.04     |  28.9 | 49.78
Neigh   | 2.0267     | 2.1849     | 2.354      |   8.4 |  0.37
Comm    | 76.021     | 81.941     | 88.157     |  37.9 | 14.06
Output  | 0.69512    | 0.69548    | 0.6971     |   0.1 |  0.12
Modify  | 86.817     | 98.852     | 106.58     |  47.6 | 16.96
Other   |            | 28.6       |            |       |  4.91

Nlocal:        120.000 ave         124 max         116 min
Histogram: 1 3 1 1 0 3 2 2 2 1
Nghost:        4171.75 ave        4211 max        4146 min
Histogram: 5 3 0 1 2 0 1 0 2 2
Neighs:        43122.2 ave       44881 max       41566 min
Histogram: 2 1 1 1 4 3 0 2 1 1

Total # of neighbors = 689956
Ave neighs/atom = 359.35208
Ave special neighs/atom = 2.0000000
Neighbor list builds = 4189
Dangerous builds = 0

unfix		3
unfix		2
unfix		1

write_data	data.final.${pid}
write_data	data.final.0
System init for write_data ...
PPPM initialization ...
  extracting TIP4P info from pair style
  using 12-bit tables for long-range coulomb (../kspace.cpp:340)
  G vector (1/distance) = 0.37485445
  grid = 30 30 30
  stencil order = 5
  estimated absolute RMS force accuracy = 0.0032224886
  estimated relative force accuracy = 9.7044286e-06
  using double precision FFTW3
  3d grid and FFT values/proc = 7920 1800
Last active /omp style is kspace_style pppm/tip4p/omp
WARNING: Not all mixed pair coeffs generated from mixing. Use write_data with 'pair ij' option to store all pair coeffs. (../write_data.cpp:312)

write_restart   restart.lmp.${pid}
write_restart   restart.lmp.0
System init for write_restart ...
PPPM initialization ...
  extracting TIP4P info from pair style
  using 12-bit tables for long-range coulomb (../kspace.cpp:340)
  G vector (1/distance) = 0.37485445
  grid = 30 30 30
  stencil order = 5
  estimated absolute RMS force accuracy = 0.0032224886
  estimated relative force accuracy = 9.7044286e-06
  using double precision FFTW3
  3d grid and FFT values/proc = 7920 1800
Last active /omp style is kspace_style pppm/tip4p/omp
Total wall time: 0:09:43
