LAMMPS (30 Jul 2021)
  using 1 OpenMP thread(s) per MPI task
package omp 0
using multi-threaded neighbor list subroutines
echo both

include		in.partitions
variable        pid world 0
include		in.temp
variable        temperature equal 262.60
variable	tempDamp equal 100.0
include		in.pressure
variable        pressure equal 8250.0
variable        pressureDamp equal 1000.0 # This is 1 ps
include		in.seed
variable        seed world 745823

units		real
atom_style	full
read_restart    restart.lmp.${pid}
read_restart    restart.lmp.0
Reading restart file ...
  restart file = 30 Jul 2021, LAMMPS = 30 Jul 2021
  restoring atom style full from restart
  triclinic box = (-3.2673661 -0.011610513 -0.16775190) to (14.877365 22.591610 19.397750) with tilt (0.021002846 -6.7595478 0.087283542)
  4 by 4 by 4 MPI processor grid
  restoring pair style lj/cut/tip4p/long/omp from restart
  restoring bond style harmonic/omp from restart
  restoring angle style harmonic/omp from restart
  1008 atoms
  672 bonds
  336 angles
Finding 1-2 1-3 1-4 neighbors ...
  special bond factors lj:    0        0        0       
  special bond factors coul:  0        0        0       
     2 = max # of 1-2 neighbors
     1 = max # of 1-3 neighbors
     1 = max # of 1-4 neighbors
     2 = max # of special neighbors
  special bonds CPU = 1.535 seconds
  read_restart CPU = 1.940 seconds

include 	in.setup
variable	out_freq equal 1000
variable	out_freq2 equal 10000
variable	out_freq3 equal 1000

timestep	2.0

neigh_modify    delay 7 every 1

include		in.tip4p
# This is TIP4P/Ice

# create groups ###
group ox type 2
336 atoms in group ox
group hy type 1
672 atoms in group hy

# set charges - beside manually ###
set group ox charge -1.1794
Setting atom values ...
  336 settings made for charge
set group hy charge 0.5897
Setting atom values ...
  672 settings made for charge

# ### TIP3P Potential Parameters ###
pair_style lj/cut/tip4p/long/omp 2 1 1 1 0.1577 8.5
pair_coeff 1 1*2 0.000 0.000
pair_coeff 2 2 0.21084 3.1668
bond_style  harmonic
bond_coeff  1 450 0.9572
angle_style harmonic
angle_coeff 1 55 104.52
kspace_style pppm/tip4p/omp 1.0e-5
pair_modify tail yes

thermo          ${out_freq}
thermo          1000
thermo_style    custom step temp pe etotal epair emol press lx ly lz vol pxx pyy pzz pxy pxz pyz enthalpy

restart 	${out_freq3} restart.lmp.${pid} restart2.lmp.${pid}
restart 	1000 restart.lmp.${pid} restart2.lmp.${pid}
restart 	1000 restart.lmp.0 restart2.lmp.${pid}
restart 	1000 restart.lmp.0 restart2.lmp.0


include         in.dump
dump            myDump all atom ${out_freq2} dump.water.${pid}
dump            myDump all atom 10000 dump.water.${pid}
dump            myDump all atom 10000 dump.water.0
dump            myDump2 all dcd ${out_freq2} dump.dcd
dump            myDump2 all dcd 10000 dump.dcd
dump_modify     myDump append yes
dump_modify     myDump2 append yes


variable natoms 	equal  "count(all)"                        # NUMBER ATOMS
variable H      	equal  "enthalpy/v_natoms"                 # ENTHALPY-per-atom
variable Vol      	equal  "vol/v_natoms"                 # volume-per-atom
fix AVG all 		ave/time ${out_freq} 1 ${out_freq} v_Vol v_H file vol_enthalpy.dat
fix AVG all 		ave/time 1000 1 ${out_freq} v_Vol v_H file vol_enthalpy.dat
fix AVG all 		ave/time 1000 1 1000 v_Vol v_H file vol_enthalpy.dat



fix 		1 all shake 1e-6 200 0 b 1 a 1
       0 = # of size 2 clusters
       0 = # of size 3 clusters
       0 = # of size 4 clusters
     336 = # of frozen angles
  find clusters CPU = 0.130 seconds
fix             2 all nph tri ${pressure} ${pressure} ${pressureDamp}
fix             2 all nph tri 8250 ${pressure} ${pressureDamp}
fix             2 all nph tri 8250 8250 ${pressureDamp}
fix             2 all nph tri 8250 8250 1000
fix             3 all temp/csvr ${temperature} ${temperature} ${tempDamp} ${seed}
fix             3 all temp/csvr 262.6 ${temperature} ${tempDamp} ${seed}
fix             3 all temp/csvr 262.6 262.6 ${tempDamp} ${seed}
fix             3 all temp/csvr 262.6 262.6 100 ${seed}
fix             3 all temp/csvr 262.6 262.6 100 745823


run             250000
PPPM initialization ...
  extracting TIP4P info from pair style
  using 12-bit tables for long-range coulomb (../kspace.cpp:340)
  G vector (1/distance) = 0.3789506
  grid = 24 27 36
  stencil order = 5
  estimated absolute RMS force accuracy = 0.0024774004
  estimated relative force accuracy = 7.4606176e-06
  using double precision FFTW3
  3d grid and FFT values/proc = 4050 480
Last active /omp style is kspace_style pppm/tip4p/omp
Neighbor list info ...
  update every 1 steps, delay 7 steps, check yes
  max neighbors/atom: 2000, page size: 100000
  master list distance cutoff = 10.8154
  ghost atom cutoff = 10.8154
  binsize = 5.4077, bins = 5 5 4
  1 neighbor lists, perpetual/occasional/extra = 1 0 0
  (1) pair lj/cut/tip4p/long/omp, perpetual
      attributes: half, newton on, omp
      pair build: half/bin/newton/tri/omp
      stencil: half/bin/3d/tri
      bin: standard
Per MPI rank memory allocation (min/avg/max) = 9.328 | 9.339 | 9.355 Mbytes
Step Temp PotEng TotEng E_pair E_mol Press Lx Ly Lz Volume Pxx Pyy Pzz Pxy Pxz Pyz Enthalpy 
17250000    271.46394   -4814.8615   -4271.9001   -4814.8615            0    6411.5083    18.144731     22.60322    19.565502    8024.3865    7000.0441    6625.6349    5608.8458   -812.56537    901.80408    282.53442   -3521.5777 
17251000    261.52948   -4821.8508   -4298.7595   -4821.8508            0    7532.1879    18.183863    22.646348    19.416151     7995.534    8367.3033    6176.1397    8053.1207   -1831.2846   -618.38912   -343.76806   -3420.4562 
17252000    256.03886   -4810.2703   -4298.1609   -4810.2703            0    6723.2665    17.967272    22.868259    19.482901    8005.1388    5995.1928     7485.964    6688.6427    649.28785   -492.58347   -523.77804   -3513.2415 
17253000    262.92873   -4823.4192   -4297.5293   -4823.4192            0    7342.1103    18.109205    22.631653    19.504173    7993.6148    7493.2739    6843.3848    7689.6722    544.06687   -693.45168    1527.3619   -3441.5958 
17254000    252.38983   -4844.8384   -4340.0276   -4844.8384            0    6854.8803    18.151608      22.7846    19.315136    7988.2988    6863.9631    5912.4715    7788.2061   -1132.7404    712.16248   -946.98113   -3541.4262 
17255000    260.02083   -4826.5857   -4306.5119   -4826.5857            0    6064.6045    18.011548    22.977859    19.401965    8029.8292    5187.3504     6242.317     6764.146   -1013.3513    146.63215    1296.6713   -3596.3054 
17256000     269.0235   -4805.6228   -4267.5426   -4805.6228            0    9749.3281     18.07256    22.801585    19.145574     7889.566    8769.9277    11766.549     8711.508   -782.81247    245.64137    1297.5691   -3145.7729 
17257000    259.02119   -4812.1501   -4294.0757   -4812.1501            0    8084.5235    17.989997    22.814689    19.350376    7942.0946    8176.8378    8321.3975    7755.3352    74.225429    546.68206    504.02796   -3357.6672 
17258000    266.13915   -4828.1904   -4295.8792   -4828.1904            0    5752.2565    18.124403    22.797305    19.444222    8034.1102    5281.0485    7437.1115    4538.6097    764.40939   -302.59965   -629.89359   -3621.8916 
17259000    268.45754   -4787.4804   -4250.5322   -4787.4804            0    8901.8101     17.95101    22.835252    19.314167     7917.183    9515.2316    7546.6934    9643.5053   -946.22286   -1466.8479    304.54217   -3222.6936 
17260000    265.29759   -4801.1375   -4270.5095   -4801.1375            0    9383.7321    17.750027     23.25839    19.208469    7929.9678    11013.752     8505.245    8632.1995   -1398.8182   -1395.3117   -373.10118   -3185.2767 
17261000    266.10954   -4825.0464   -4292.7945   -4825.0464            0    9619.2694     17.98121    23.140479    18.967527    7892.2706    9664.6762    8266.2333    10926.899    103.70117   -314.00817    45.715343   -3185.6101 
17262000    276.31453   -4785.9465   -4233.2833   -4785.9465            0     9749.688    17.742996     22.99464    19.352732    7895.7946    10110.971    10219.485    8918.6074    874.57308    482.55944    870.54327   -3110.5866 
17263000    271.67438   -4787.4044   -4244.0221   -4787.4044            0    7163.9005    17.861007    23.354191    19.131729     7980.406    6273.5739    6805.9968    8412.1307   -902.66125   -192.10335    758.39644   -3410.2441 
17264000    256.68637   -4813.0252   -4299.6207   -4813.0252            0    8390.1942    17.822596    23.148812    19.198562    7920.7879    9319.4781    8504.2197    7346.8848    1326.5488    1103.6825    2348.6172   -3330.4143 
17265000    259.01056   -4812.5654   -4294.5123   -4812.5654            0    7455.6414    17.982613    23.118756    19.275394    8013.4681    6530.4673    7014.5655    8821.8914   -1393.5881     575.1103   -91.806891   -3423.1848 
17266000    266.42469   -4807.9077   -4275.0254   -4807.9077            0    9675.8956    17.787882    23.341899    19.080554    7922.3023    9146.2992    7785.6308    12095.757    25.585727    672.83963    2839.8959   -3157.0855 
17267000    272.40579   -4828.5758   -4283.7306   -4828.5758            0    10074.122    17.814291    23.032847    19.200784    7878.3474    8581.4145    10082.339    11558.611    954.13486    1342.2201    1890.1622    -3126.238 
17268000    259.83103   -4835.1783   -4315.4842   -4835.1783            0    7111.8324    17.887342    22.956479    19.487152    8002.0171    6756.2795    6676.8126    7902.4051   -1708.5095    1147.7477    414.09736   -3485.5247 
17269000    255.48008   -4811.5073   -4300.5156   -4811.5073            0    7396.9223    18.102557    22.885103     19.21615    7960.8454    5799.7286    7936.6712    8454.3672   -699.53391   -533.21809    1694.3608   -3441.7272 
17270000    259.02136   -4813.5305   -4295.4558   -4813.5305            0    7577.4053    17.986742    22.784061    19.391168    7946.7147    7506.6897    7907.2839    7318.2422    640.04524    938.09832   -1087.4788   -3417.2748 
17271000    256.13792   -4829.2327   -4316.9252   -4829.2327            0    7776.3179    18.082989    22.837276    19.232849    7942.5166    6209.5309    7851.0571    9268.3657    143.12005    22.133091    48.831675   -3416.1674 
17272000    261.19669    -4808.955   -4286.5294    -4808.955            0    8469.8115    17.930175    22.903407    19.346276     7944.782    7286.8901    8554.5839    9567.9606    301.60256    86.990098    2899.2331    -3305.162 
17273000    256.28901   -4823.1334   -4310.5238   -4823.1334            0    10245.599    17.844234    22.950809       19.238    7878.7229    11682.536     10283.96    8770.3003   -2499.9891   -756.94144   -1137.0662   -3133.2728 
17274000    270.30387   -4785.8182   -4245.1771   -4785.8182            0    8083.9093    17.890565    22.986118    19.333155    7950.4634    8068.0858    7610.5934    8573.0488    918.44517   -500.05152    1318.6859    -3307.853 
17275000    277.91216   -4822.9376   -4267.0789   -4822.9376            0    7348.3678    18.007434    22.815417    19.454738    7992.9231    7565.1556    7307.9446    7172.0033   -280.74378     266.1575   -1239.2131   -3410.4901 
17276000    252.59372   -4775.8255   -4270.6069   -4775.8255            0    7462.1054    18.150397    22.833917     19.28944     7994.405    5704.3028    7731.1726    8950.8408   -227.25459   -1214.8338   -279.23333   -3400.5985 
17277000    274.22554   -4801.6999    -4253.215   -4801.6999            0    9511.0728    17.810472    22.676534    19.614326    7921.8297    12799.828    8932.6089    6800.7814   -673.52038   -1455.2259    570.91171    -3154.384 
17278000    263.64746   -4833.3953   -4306.0678   -4833.3953            0    8533.0196    18.088256    22.802457    19.275098    7950.1428    8737.1561    7854.8784    9007.0244   -667.63448    51.059552   -485.36163   -3316.7096 
17279000    266.96722    -4818.857   -4284.8896    -4818.857            0    9899.0808    17.870911    22.762421    19.445398    7910.0999    9055.9732    9538.3813    11102.888   -635.74747   -672.38398     405.7707   -3142.9248 
17280000    268.73054   -4800.3328   -4262.8385   -4800.3328            0    8215.9017    18.084821    23.004174    19.139908    7962.7063    7610.1421     8250.634    8786.9289   -1598.6089    481.45776    2128.9705   -3308.7431 
17281000    266.52755   -4791.0947   -4258.0067   -4791.0947            0    7478.1785    17.921648    22.943341     19.40818    7980.3035    7530.3484    7781.7084    7122.4786    84.170254    1943.4014   -1077.7881   -3387.6623 
17282000    264.22887   -4799.5433   -4271.0529   -4799.5433            0    9775.5029    18.001553     23.01189    19.080603    7904.1353    10553.022    8274.6753    10498.811   -1056.3321   -1060.8086   -1129.1866   -3144.1945 
17283000     256.8891   -4791.6243   -4277.8144   -4791.6243            0    9700.5215    17.839804    22.737703    19.491088    7906.2901    11081.017    8920.3843    9100.1629   -501.26919   -444.72625    177.86156   -3159.2945 
17284000     253.8538   -4826.3154   -4318.5765   -4826.3154            0    8674.4684    17.936696    22.895558    19.299439    7925.7133    8816.3531    8694.9063    8512.1459   -133.04154   -614.78873   -546.84734   -3315.9086 
17285000    260.16504   -4849.4942   -4329.1319   -4849.4942            0    8346.5793    17.903243    22.996517    19.241196    7921.8357    8995.2954    7033.4271    9011.0153    559.21388   -162.43685    1350.8639   -3364.8362 
17286000    253.78902   -4832.6366   -4325.0273   -4832.6366            0    7359.7639    17.867866    23.144189    19.245371    7958.6783    4913.6298     9628.247    7537.4148    704.72595    1609.5391     114.5987   -3470.7857 
17287000    259.65504   -4797.8703   -4278.5282   -4797.8703            0    9612.6147    17.941304    23.090852    19.090068    7908.6333    9153.1673      9261.68    10422.997   -430.86572    270.96832   -662.24862   -3169.8159 
17288000    257.86966   -4790.7081    -4274.937   -4790.7081            0     9234.196     17.67451    23.254019    19.247751     7910.891    9551.6948    8626.9872     9523.906    625.01581   -919.26119     1401.533   -3209.5672 
17289000    266.43111   -4836.6418   -4303.7466   -4836.6418            0    6861.3499    18.044908    23.075269    19.226923    8005.9197    6072.7305    7158.5187    7352.8006   -2445.9567   -582.56148   -1097.8165   -3502.6283 
17290000    275.64826   -4832.5978   -4281.2672   -4832.5978            0    7650.8798    17.932519    22.927878    19.407198    7979.3586    7852.2099    6379.8267    8720.6029   -616.22095   -236.90526    723.65152   -3390.9285 
17291000     264.9168   -4814.5726   -4284.7062   -4814.5726            0    8164.9113    17.977357    22.917428    19.340363    7968.1286    7645.6061    8822.8135    8026.3143   -563.48772    394.21952   -918.70134   -3335.8865 
17292000    278.87298   -4840.0559   -4282.2755   -4840.0559            0    7782.4472    17.972209    22.941516    19.309942     7961.677    7766.6955    8168.5731    7412.0731   -1756.6146    74.527108   -789.14991    -3378.633 
17293000    264.14094   -4794.0581   -4265.7436   -4794.0581            0     8316.933    17.953066    22.826187    19.408268    7953.5091    7468.6539     8040.856    9441.2891   -816.88477   -404.82796     -9.43529   -3301.0311 
17294000    261.18328   -4850.6251   -4328.2263   -4850.6251            0    7326.0966    17.957128    22.845194     19.38177    7951.0623    8193.9492    7079.7915    6704.5492   -714.47616   -343.02408    6.3926547   -3478.7061 
17295000    254.78078   -4836.0834   -4326.4904   -4836.0834            0    8125.8884    18.052359     22.80373    19.300151    7945.1219    7555.8037    9151.2487    7670.6126    8.1827516    75.247753   -553.55115   -3384.9319 
17296000     252.3478   -4814.2764   -4309.5496   -4814.2764            0    7473.6484    18.084749    22.681322    19.425363     7968.012    7174.3661    7699.2548    7547.3243   -1150.1502    339.39388   -915.41965   -3441.0722 
17297000    268.82446   -4817.7026   -4280.0204   -4817.7026            0    9833.9897    18.032552    22.518566    19.379623    7869.4299    10814.864    10588.241    8098.8641    101.51935    438.66871   -993.83281   -3151.3974 
17298000    252.64488   -4824.1409   -4318.8199   -4824.1409            0    7022.7699     18.06743    22.840382    19.372793     7994.512      6827.83    6772.3752    7468.1046   -263.65676    191.30472    1094.5205   -3500.0228 
17299000    276.90186   -4810.2272   -4256.3892   -4810.2272            0    10577.143    18.048436    22.640306    19.317383    7893.5101    10463.834    11470.424    9797.1711   -364.00368    409.05091    52.481046   -3038.7618 
17300000    259.41332   -4831.0797    -4312.221   -4831.0797            0    8311.5373    18.065142    22.619478    19.443796    7945.2032    8443.5883    9186.1768    7304.8468    407.04341     290.0177    1142.8244   -3349.1413 
17301000    272.69263    -4765.084   -4219.6651    -4765.084            0    7838.9597    18.101863    22.807886    19.359308    7992.7851    8947.2587    7644.3594    6925.2609   -1488.5095   -326.06733    -738.1268   -3305.9044 
17302000    248.58302   -4806.7739   -4309.5771   -4806.7739            0    7860.7792    17.869923    22.894349    19.399091    7936.5615     8232.346    7880.1846    7469.8069     349.9128    57.840761    939.59502   -3399.7186 
17303000    257.06961   -4846.0527   -4331.8817   -4846.0527            0    7622.2275    18.037272    23.078288    19.133065    7964.5088    6597.3993    7378.3556    8890.9275    299.80353    1293.8352    1151.0511    -3446.528 
17304000    263.42404   -4789.0054   -4262.1247   -4789.0054            0    8142.0123     17.94833    23.013435    19.343764    7989.9948      8327.87      8067.74     8030.427    1185.6993    1539.7156    2325.7167   -3313.3696 
17305000    276.50204   -4825.6483     -4272.61   -4825.6483            0    9089.7496    17.925203    22.903472    19.392046    7961.3931    9150.4074    8993.0201    9125.8212   -707.11736    328.47962   -1380.4933   -3217.2105 
17306000    273.52373   -4783.0223    -4235.941   -4783.0223            0    8172.0768    18.034657    22.942745    19.282078    7978.2402    7442.2019    8637.2285    8436.8001   -726.87902   -57.097775     464.8968   -3285.0835 
17307000    258.56797   -4846.0863   -4328.9184   -4846.0863            0    7000.7764    17.846105     23.03323    19.437064    7989.6722    7969.6233    6306.3112    6726.3947    564.18308    366.02843   -82.216923   -3513.1797 
17308000    260.75499   -4820.0969   -4298.5547   -4820.0969            0    7410.4201    18.002958    23.036366    19.243186    7980.5867    5383.9708    7994.3813    8852.9082    264.17496    374.16245   -977.60317   -3436.0658 
17309000    264.53478   -4821.0334   -4291.9312   -4821.0334            0    9493.3694    17.806845    22.875089     19.48701    7937.7055    9379.8994    10193.381    8906.8274   -350.38399    489.57353   -290.68754   -3192.9475 
17310000    262.48945   -4814.2154   -4289.2041   -4814.2154            0    7061.3729    18.030132    22.958685    19.265503    7974.9186    6100.9478    6735.4846    8347.6863   -876.05888   -339.32591   -881.72448    -3467.924 
17311000    261.67395   -4790.7417   -4267.3615   -4790.7417            0     7940.516    18.105801    22.691533    19.478228    8002.5985     8971.044    7677.9096    7172.5944   -180.25933   -1138.2128    717.89745   -3340.6264 
17312000    277.83122   -4797.5304   -4241.8336   -4797.5304            0    6999.3254    18.074586    22.774228     19.46959    8014.3597    7962.2545    8295.8489    4739.8728   -1881.4585    524.17892    1110.2617   -3423.7439 
17313000    271.20962   -4808.0714   -4265.6187   -4808.0714            0    7656.5088    18.086783    22.819861    19.355145    7988.6013    8021.0578    7191.9693    7756.4994   -568.46807    431.39097     1606.648   -3373.5929 
17314000    259.15053   -4815.2116   -4296.8785   -4815.2116            0    8593.8616    18.033879    22.637457    19.452735    7941.4071    9911.5309    9485.4123    6384.6415   -72.963581    419.83905    1130.8699   -3301.5609 
17315000    257.51724   -4836.9481   -4321.8818   -4836.9481            0    8325.1484    17.996817    22.771634    19.367923    7937.3025    5765.6476     9876.005    9333.7928   -96.989618    82.128095    712.48734   -3358.1841 
17316000    276.29376   -4808.7822   -4256.1605   -4808.7822            0    7404.5031    17.950366    22.856138    19.428485    7971.0419    8139.8468    8684.2654    5389.3972   -2507.6181   -439.14383    1007.1488    -3395.391 
17317000    247.64508   -4805.7215   -4310.4007   -4805.7215            0    6114.1735    17.952028    23.050507    19.322963    7995.9065    7736.1019    5386.4429    5219.9756   -357.66858   -625.32841   -104.38252   -3597.4141 
17318000    267.19344   -4823.6287   -4289.2088   -4823.6287            0    9377.3808    18.073753    22.776514    19.239181    7919.9454    9050.4694    9245.1709    9836.5022   -1167.1359    1029.0929   -347.45977   -3206.0812 
17319000    255.47775   -4832.7014   -4321.7143   -4832.7014            0    9249.6698    17.783195    22.763031    19.521617    7902.3396    9651.5072    11063.077    7034.4251   -983.18461    735.64696   -409.09862   -3255.7128 
17320000    265.47637   -4814.4287   -4283.4432   -4814.4287            0      7050.66    18.073992    22.996051    19.189375    7975.6884    7656.3871    6810.6379    6684.9549   -790.00819   -74.083008    984.73045   -3463.3299 
17321000    265.19826   -4816.5902   -4286.1609   -4816.5902            0      8590.97    17.855264    22.868893    19.480936    7954.6524     8511.369    8714.1347    8547.4063   -693.15533   -47.051664     1600.154   -3289.5186 
17322000    270.35008   -4776.1283   -4235.3948   -4776.1283            0    7782.2499    18.202115    22.864299    19.197732    7989.6851    5602.7551    7906.3841    9837.6105    -1347.565     355.9562   -3071.9467   -3328.5964 
17323000     257.1943   -4835.9488   -4321.5285   -4835.9488            0     10043.48    17.679699    22.917438    19.429424    7872.2861    9528.7832    10643.443    9958.2139    513.44203     29.43173    1817.5986   -3168.4444 
17324000    246.79969   -4820.1242   -4326.4944   -4820.1242            0    7441.7791    18.215521    22.987925    19.035655    7970.9337    7657.8689    6482.2483    8185.2201   -911.80368   -1212.5497   -2890.6219   -3461.4032 
17325000    267.29137   -4834.1244   -4299.5087   -4834.1244            0    8121.8766    17.780063     22.93881    19.499218    7952.8241    8377.4936     9137.464    6850.6721   -21.655343    837.01022    427.65014   -3357.5027 
17326000     263.9087   -4809.9945   -4282.1445   -4809.9945            0    7081.8293    18.114786    23.080976    19.148305    8006.0395    7269.9372    5774.8828    8200.6678   -81.696845    514.67604    1503.2045    -3455.271 
17327000    252.12905   -4845.2733   -4340.9841   -4845.2733            0    7388.8376    17.767839    22.959659    19.517015    7961.8394    7075.0669    6946.2482    8145.1979   -698.18303   -902.37358    1312.4646   -3483.0272 
17328000    265.78597   -4770.9001   -4239.2954   -4770.9001            0    11169.175     17.95657    22.949999    19.165975    7898.3605    9941.8424    11112.655    12453.029   -1685.2764   -16.472509   -1183.1909   -2952.7238 
17329000    254.84748   -4822.7757   -4313.0493   -4822.7757            0     6831.582     17.92042    23.007586     19.32481    7967.7274    7477.0915    7015.0049    6002.6497   -128.24551   -324.09074   -137.07323   -3519.2117 
17330000    269.83316   -4805.6446   -4265.9449   -4805.6446            0     7140.637    17.900016    23.068532    19.383149    8003.8275    7730.9942    7448.6873    6242.2296    48.690499    1485.5408     63.77381   -3432.4354 
17331000    260.48109   -4798.4035   -4277.4092   -4798.4035            0    9419.2879    17.981107    23.194246    19.018664    7931.8902    9496.0406    8902.9097    9858.9133    731.64542   -901.79583     381.6904   -3187.8002 
17332000    260.19044   -4841.3136   -4320.9005   -4841.3136            0    7640.8772    17.782006    23.037022    19.404307    7948.8667    8027.7993    8140.4991    6754.3333   -486.47427    574.07679     980.2184   -3435.1237 
17333000    265.26789   -4810.5537   -4279.9851   -4810.5537            0    9248.9399    17.904272    23.036594    19.295104    7958.3321    8347.0235    10538.659     8861.137    263.09848   -155.42388     22.15737   -3206.5152 
17334000    266.53208   -4790.1588   -4257.0617   -4790.1588            0    8507.8865    18.019243    22.837678    19.332975     7955.861    9046.0033    8304.8406    8172.8157   -676.99347    502.13026    681.57547   -3269.9081 
17335000    263.12644    -4835.459   -4309.1736    -4835.459            0    7014.1421    18.053418    22.940573     19.21803    7959.2579    3991.3569    7971.9745     9079.095    1114.9749    580.89323    393.65255   -3494.9888 
17336000    254.01198   -4815.3201   -4307.2648   -4815.3201            0      7899.29    17.862539    23.116046    19.273277    7958.1538    8112.4478    7652.1164    7933.3057    517.19694   -163.19357   -264.04862   -3390.4613 
17337000    269.43273   -4841.0388     -4302.14   -4841.0388            0    9173.5918     17.68807    23.110287    19.302959    7890.5937    8304.7154    9734.0502    9482.0099    476.57508   -142.33859    855.04074   -3246.4778 
17338000    257.61392   -4817.3704   -4302.1107   -4817.3704            0    8101.7132    17.966846    23.170096    19.133506     7965.155     6633.994    7656.6315    10014.514   -1101.4062    34.615388   -741.16373   -3360.9864 
17339000    264.20182   -4873.0945   -4344.6582   -4873.0945            0    8734.9254    17.757655    23.152051    19.241883    7910.8413    9766.3346    7281.9976    9156.4438    749.61331    340.61717    720.76023   -3336.8967 
17340000    247.84774    -4791.927   -4296.2009    -4791.927            0    10374.024    17.977259    23.108869    19.051316    7914.5669    8854.7982    10311.703    11955.571   -320.98776    252.67759   -869.89513   -3098.7705 
17341000    256.47334   -4820.4846   -4307.5062   -4820.4846            0    7177.1972    17.882661    23.132946    19.280079    7975.7565    6874.2795    6709.5756    7947.7365   -162.06862    555.26369    1270.3513   -3472.6674 
17342000    262.10663   -4826.7875   -4302.5418   -4826.7875            0    8832.7265    17.873198     23.09921    19.215706    7933.3338    10012.753    7440.4623    9044.9646    614.97742   -760.38103    603.20281   -3280.5995 
17343000    269.08708   -4813.2613   -4275.0539   -4813.2613            0     7015.887    18.005084    23.001779    19.314431    7999.0516    6998.1855    6956.8598    7092.6157   -3113.0656    906.04919    593.09759   -3456.5948 
17344000    269.49195   -4825.8968   -4286.8796   -4825.8968            0    9380.4235    17.973649     22.86728     19.26956    7919.9519     8687.998    8905.2586    10548.014    -2297.751   -907.44759    347.77328   -3203.3996 
17345000    255.70501   -4837.1046    -4325.663   -4837.1046            0    8800.7347    17.805704    22.991159    19.301678    7901.6008    11158.947    7421.4071    7821.8501   -1153.9816    -1907.184     1108.765    -3311.495 
17346000    270.20048   -4822.3413    -4281.907   -4822.3413            0     8702.982    18.067959    22.856235    19.225226    7939.3552    8282.6208    8414.3178    9412.0074    538.82917    355.15215    1534.7223   -3274.2118 
17347000    265.05771   -4823.4293   -4293.2811   -4823.4293            0    8480.9615    17.905398    22.932764    19.342092    7942.2548    7418.5551    9050.3771    8973.9522    40.970472    915.66517    405.68686   -3310.9344 
17348000    261.66013   -4838.5728   -4315.2202   -4838.5728            0    6911.2268    18.037259    22.890542     19.39859    8009.3409    7142.4004     7398.042    6193.2381   -1028.5762    605.83504    2652.7077   -3507.9335 
17349000    269.06834   -4833.2145   -4295.0446   -4833.2145            0    9820.6756    18.023311    22.671424     19.28964    7882.0191    7936.8512    9795.6889    11729.486   -164.41624    332.08414    345.55103   -3166.1465 
17350000    266.69697   -4822.8498    -4289.423   -4822.8498            0    8691.4738    17.954319    22.790147    19.317541    7904.3814    9363.1891    8319.6346    8391.5978   -995.71439   -474.75297   -1260.2262   -3287.4934 
17351000    251.60762   -4841.8075   -4338.5611   -4841.8075            0    7988.8074    18.106191    22.899182    19.229183    7972.7454    8323.8117    7439.6081    8203.0023   -973.06922    90.657904   -319.31052    -3409.668 
17352000    269.07634   -4827.8323   -4289.6464   -4827.8323            0    7364.4951    17.825778    22.985043    19.468316    7976.6806    9362.8705    7300.3452    5430.2697    46.146289   -320.67749    1888.3768   -3432.9221 
17353000    260.40667     -4802.06   -4281.2145     -4802.06            0    8452.1897    18.166006    23.003461    19.042691    7957.5787    6909.1003    7624.0522    10823.417    654.34938    254.54801   -401.11985   -3300.3115 
17354000    275.39585   -4824.1012   -4273.2754   -4824.1012            0    9327.8788    17.793424    22.960061    19.412381    7930.6971    10729.782    9304.1823    7949.6724   -1325.1224    112.41687    494.41872   -3194.4029 
17355000    282.19806   -4813.8631   -4249.4321   -4813.8631            0    7629.0234    18.073178    22.923345    19.208708    7958.1234    7579.8792    7425.4306    7881.7604   -107.50521   -430.10705     513.8234   -3363.9995 
17356000    241.87797   -4798.4195   -4314.6337   -4798.4195            0    8934.8173    17.732993    22.870621    19.561412    7933.4155    10429.615    9351.8213    7023.0162   -1324.4665    460.77134   -605.22885   -3280.8688 
17357000    270.63848   -4822.8874    -4281.577   -4822.8874            0    8052.4008    18.056654    22.955498    19.163293    7943.1749    8108.9567    7516.1924    8532.0533    987.99273   -373.60473    1060.4154   -3348.7623 
17358000    260.75814   -4807.0067   -4285.4582   -4807.0067            0    8101.1059    17.988957    22.894913     19.42039    7998.3966    8854.8644    8259.1177    7189.3358   -329.93812    1202.9831    -466.2199    -3340.477 
17359000    268.18829   -4826.5088   -4290.0991   -4826.5088            0    10146.155    18.015315    22.706765      19.2831    7888.1285    9712.1387    9692.0191    11034.307   -1350.9203   -170.76187    -3292.414   -3122.8827 
17360000    273.23761   -4818.6311   -4272.1221   -4818.6311            0    7339.6593    17.911144    22.821059    19.503582    7972.1141    8952.5674    6981.9057    6084.5047     708.3811   -471.50674     1781.311   -3418.7759 
17361000    279.24071   -4809.3897   -4250.8738   -4809.3897            0     8350.091    18.037083     22.86607    19.309091    7963.7875    7366.1171    8946.0783    8738.0777    -94.03237    916.42471   -1409.4438   -3281.0636 
17362000    268.30728   -4817.8913   -4281.2435   -4817.8913            0    8361.9434    18.023084    22.868243    19.270993    7942.6602    9008.0056    8090.2307     7987.594    845.06127    1080.2071    1132.5128   -3312.6332 
17363000    249.33627   -4806.5139   -4307.8105   -4806.5139            0    8683.4694    18.136886    22.767566    19.284012    7963.0001    7564.6975    8595.7599    9889.9508    1393.0078     169.5571   -291.63212   -3299.3802 
17364000    268.16493   -4815.9839   -4279.6209   -4815.9839            0    6732.6117    17.902036    22.954032    19.461716    7997.2844    5612.5297    7338.0875     7247.218   -511.25479   -96.125703    697.66841   -3494.3816 
17365000    261.90247   -4826.1856   -4302.3483   -4826.1856            0     7476.047    17.912082    22.974258    19.340169    7958.8045    6447.3903    7119.9352    8860.8157    435.95759   -412.88785   -244.05057    -3434.596 
17366000    253.98468   -4828.3081   -4320.3074   -4828.3081            0    7992.0099    18.079851    22.571695    19.481583    7950.2955    9311.4645    8079.1668    6585.3985    878.77385   -299.93627   -2717.6928   -3393.6586 
17367000    255.65357   -4840.1339   -4328.7952   -4840.1339            0    7775.8269    18.156598    22.579895     19.41128    7958.1215    7212.5551    8686.8754    7428.0502    977.97825   -764.69604   -795.46107   -3426.3247 
17368000    248.04051   -4796.2573   -4300.1456   -4796.2573            0    9175.4374    17.975976    22.381629    19.604879     7887.663    10358.469    9437.3484     7730.495     1156.689    503.67359    745.48236   -3244.6631 
17369000    260.59086   -4845.3897   -4324.1758   -4845.3897            0    5949.1523     18.16037    22.826008    19.298609    7999.8282    4728.5265    5927.8713    7191.0591    1357.9552    200.60332    -556.9102   -3630.0924 
17370000    254.74594   -4810.8434     -4301.32   -4810.8434            0    7045.6957     17.92561    22.719901    19.581674    7974.9913    7543.9525    7833.1903    5759.9442   -719.62632    1564.0816   -196.73402   -3481.8558 
17371000    258.61847   -4835.6562   -4318.3873   -4835.6562            0    8444.5253    18.077518    22.762891    19.323113    7951.3948     6312.641    8556.2209    10464.714    336.99604   -370.93525    -9.946159   -3339.1354 
17372000    264.38196   -4785.4969   -4256.7003   -4785.4969            0    8735.1857    17.865734    22.724636    19.581246    7949.8351    9903.9253    8946.4452    7355.1867   -1545.2434    875.69967   -305.54391   -3243.9412 
17373000    269.13911   -4833.0578   -4294.7463   -4833.0578            0    7216.9537    18.177337    22.651161    19.384848    7981.4743    5239.5976    9152.7579    7258.5057    742.25626    990.91895    120.49419   -3454.6812 
17374000    272.90429    -4829.187   -4283.3448    -4829.187            0    8921.3992    18.025359     22.75829    19.411477    7963.0995    9403.6693    9120.3687    8240.1597    390.60489    829.21562    -1416.046   -3247.2702 
17375000    259.60596   -4779.0428   -4259.7988   -4779.0428            0    8484.2425    17.964171    22.960493    19.229824    7931.6526    9820.3629    7725.9116    7906.4531   -542.57554   -318.52777   -2476.2339   -3278.3839 
17376000    257.34418   -4820.8171   -4306.0969   -4820.8171            0    7130.4258    17.910441    22.806722    19.504781    7967.2827     7042.429    8008.1651    6340.6831    542.91009    -887.1304    601.22968   -3477.5796 
17377000    258.63358   -4815.4169   -4298.1177   -4815.4169            0    9650.9663    17.994839    22.831795    19.173794    7877.6389    9038.4587    9940.3336    9974.1066   -533.28194    459.10193    817.74241   -3189.3444 
17378000    257.92777   -4829.0435   -4313.1561   -4829.0435            0    7111.8593    18.046837    23.004495    19.177739    7961.7989    6363.7211    7707.3967      7264.46    1964.2319    1459.0285    2863.1388   -3487.3649 
17379000    269.60266   -4785.6445   -4246.4059   -4785.6445            0    9352.3713    17.924681    22.981302     19.32358    7960.0108    10126.493    8090.8986     9839.722     531.9769   -1341.5176   -119.06298   -3160.7023 
17380000     253.0137   -4832.8147    -4326.756   -4832.8147            0    10284.874    17.910717    22.832837    19.275664    7882.8308     8594.396    11536.655    10723.571   -120.09696   -336.67465   -520.94816    -3144.376 
17381000    240.46359    -4799.848   -4318.8912    -4799.848            0    10541.822    17.861263    22.592869    19.485066    7862.9485    9632.5217    11035.787    10957.159    674.93986    44.216624    1909.4408   -3110.0284 
17382000     274.2536   -4813.9286   -4265.3875   -4813.9286            0    6478.9209    18.290142    22.857789    19.143824    8003.5004    4945.0875     6528.876    7962.7993   -776.60674   -996.65508   -1223.9599   -3509.1494 
17383000    262.06172   -4793.4315   -4269.2756   -4793.4315            0    7886.5876    17.987198    22.847075    19.386591    7967.0139    8170.2172    8915.9617    6573.5837    61.563155    933.56893    454.39156   -3352.9273 
17384000    248.99641    -4824.574   -4326.5504    -4824.574            0    9033.0611     18.06648    22.844297    19.206059    7926.6487    10603.421    6605.2308    9890.5313   -2610.7832   -828.58391   -80.864433   -3282.3101 
17385000    257.29323   -4814.9578   -4300.3396   -4814.9578            0    9713.2146    17.970175    22.502026     19.47536    7875.1606    9777.4547    10276.313    9085.8761    804.34043   -544.79169   -1142.2466   -3184.7658 
17386000    269.38763   -4810.1317   -4271.3231   -4810.1317            0    7389.1159    18.193186    22.638476    19.375451    7980.0896    7685.0582    9106.0563    5376.2333   -217.23709    826.11514   -709.89238   -3411.3673 
17387000     251.6511    -4809.949   -4306.6157    -4809.949            0    7858.3295    18.045358    22.599139    19.522405    7961.4234    8596.8874    8652.0078    6326.0933    996.37562    100.16241    538.31994   -3394.1914 
17388000    257.72264   -4811.7644   -4296.2873   -4811.7644            0    7625.0974    18.050814    22.904351    19.294282    7977.0701    5381.5815    8325.3084    9168.4022   -561.65423   -489.35238    2879.1509   -3409.2034 
17389000    256.18973   -4826.7843   -4314.3732   -4826.7843            0    10165.848      17.9238    22.862583    19.264707    7894.3757    11735.397    9635.7937    9126.3527   -1682.5785    -361.3912   -1895.2086   -3143.9652 
17390000     265.6579    -4817.332   -4285.9834    -4817.332            0    7428.8021     18.02213    22.968808    19.355493    8012.1453    7535.3075    8218.8432    6532.2557   -677.09094    1733.9247   -2151.4349   -3417.9359 
17391000    266.44317   -4826.5283    -4293.609   -4826.5283            0    9807.7615    18.024233    22.626564    19.364665    7897.4227    11516.463    9155.4603    8751.3615   -348.38404   -1402.0954      812.684   -3163.9921 
17392000    248.72451    -4788.495   -4291.0152    -4788.495            0    9774.5036    18.068876    22.707492    19.339055    7934.7921    9257.0475    10255.475     9810.988   -895.74141   -362.97722    2197.4794   -3159.9018 
17393000    258.46266   -4831.2635   -4314.3062   -4831.2635            0     5969.916    18.033537    22.825843    19.434658    7999.9011    6753.4016    6247.7806    4908.5658   -369.44541   -116.71229    290.20684    -3617.794 
17394000     261.9861   -4806.8886    -4282.884   -4806.8886            0    7857.7983    18.120892    22.756627    19.311814    7963.6202    6409.4806    8453.0835    8710.8308   -896.64045   -185.14875   -2023.9671   -3370.2697 
17395000    250.49157   -4812.7105   -4311.6964   -4812.7105            0    5472.1968    18.036377      22.9945    19.397256    8044.7692    4796.8084    6400.6838    5219.0983    402.64303   -374.51156   -915.02253   -3669.6725 
17396000    255.40271   -4814.9915   -4304.1546   -4814.9915            0    9606.9897    18.066856    22.812741    19.120479    7880.5918    8527.3917    9950.8236    10342.754   -785.61488    189.58766   -1610.0251   -3200.0199 
17397000     270.9355   -4862.6185    -4320.714   -4862.6185            0    9112.2053    17.686971    22.918584    19.487972    7899.6507    9803.1594    10212.055    7321.4019    -1621.344   -245.68126   -1023.5754   -3270.9123 
17398000    260.06042   -4821.0762   -4300.9232   -4821.0762            0    11185.917    17.996269     22.90535    19.178122    7905.4298    9780.1115    11685.092    12092.547   -208.10557     225.8092   -2403.5627     -3011.27 
17399000    264.02938   -4792.3888   -4264.2974   -4792.3888            0    8411.5955    17.982469    22.646681    19.589995    7977.8932    10072.675    8650.1356    6511.9759    1036.5603   -336.58116     1412.441   -3285.6134 
17400000    249.55581    -4810.611   -4311.4685    -4810.611            0    8039.4509    18.145131    22.669933    19.318673    7946.7147    6953.4736    8616.4869     8548.392    1241.0919   -85.037939    1539.1837   -3379.7389 
17401000    262.58869   -4768.1783   -4242.9685   -4768.1783            0    8780.1983    18.134294    22.574697    19.469352    7970.2891     8944.036    8682.0052    8714.5537    384.26204   -1179.1956   -908.65614   -3222.3715 
17402000    276.20924    -4841.548   -4289.0954    -4841.548            0    5836.6945    18.084162    22.755593    19.529643    8036.7568    5916.7072    6083.5829    5509.7933    316.36373   -49.005504   -118.39334   -3604.9889 
17403000    262.45146   -4800.3257   -4275.3904   -4800.3257            0    6454.8411    18.212673    22.676176    19.363647    7997.0657     7060.297      5492.59    6811.6362    490.30432   -1637.2822    580.14565   -3522.5687 
17404000    253.37161   -4807.5134   -4300.7389   -4807.5134            0    8794.2034    17.918589    22.703455    19.495052    7930.8575    10464.537    8208.4108    7709.6626     692.2962   -325.49251    34.910794   -3283.5712 
17405000    254.73835   -4816.1014   -4306.5932   -4816.1014            0    7941.9561    18.140958    22.827206    19.205421    7953.1068    6681.7881    9139.5396    8004.5408    522.53846    1450.9496    1290.5081   -3385.4224 
17406000    254.98018   -4829.1462   -4319.1544   -4829.1462            0    7922.7446    17.791127    23.006471    19.416493    7947.3852    6944.4547    8837.6063    7986.1728    385.26296    427.98054   -437.97862   -3400.8729 
17407000    254.18698   -4799.1899   -4290.7846   -4799.1899            0    9772.7959    17.914513    22.960352    19.163679     7882.472    9892.9599    10045.658    9379.7697    1605.6715    15.777138    223.07038   -3167.3258 
17408000    252.46756   -4826.9073    -4321.941   -4826.9073            0      8698.28    17.891669    22.795209    19.417177    7919.1854    8020.3287    9695.2506    8379.2608    529.29888    486.26357   -2529.0695   -3317.3488 
17409000    257.48096    -4834.137   -4319.1432    -4834.137            0    7804.3087    18.014897    22.866834    19.345148    7969.1112    8796.1542    7726.4984    6890.2733    1405.0901    595.88244    3009.7626   -3412.1162 
17410000    266.97092   -4812.0073   -4278.0325   -4812.0073            0    8326.3872    18.090946    22.724487    19.294122    7931.9578    9591.1154    8366.5228    7021.5234   -1310.0203    307.78899   -1145.7953   -3314.8404 
17411000    254.87775   -4829.1253   -4319.3383   -4829.1253            0    9265.8071    17.887757    22.851443    19.352499    7910.5479    8678.7785    8209.7853    10908.857    2649.5154   -741.31759    1874.1705   -3250.3679 
17412000    248.01161   -4782.6081   -4286.5542   -4782.6081            0    7496.5896    18.016425    23.074713    19.167321    7968.3125    6091.7653      7877.18    8520.8234   -104.92367   -581.90097   -255.50264   -3415.3781 
17413000     264.7219   -4820.1285    -4290.652   -4820.1285            0    9540.3769    17.909564    22.848669    19.341438    7914.7041    9013.3089    10253.372    9354.4495    590.78179    206.36937    337.41961   -3189.4269 
17414000     262.4842   -4834.6605   -4309.6596   -4834.6605            0    7985.0516    18.114573    22.845631     19.25702    7969.3033    7685.3748    7447.1175    8822.6625    -1526.473    440.24794   -1071.3294   -3381.6041 
17415000    251.90742   -4813.5969    -4309.751   -4813.5969            0    5756.0012    17.994756    22.979328    19.399879    8021.9934    6424.5762    5960.1423    4883.2851    255.54065    1139.5852    2190.0267   -3636.3417 
17416000    267.35938   -4787.8252   -4253.0734   -4787.8252            0    8242.0251    17.904467     22.99564     19.34261    7963.8298    8712.3319    7652.8797    8360.8637   -994.49332    -1951.063   -736.11846   -3295.8092 
17417000    261.33215   -4826.1605   -4303.4639   -4826.1605            0    8757.0743    17.954823     22.83879    19.292532    7911.2197    8597.3175    9168.4349    8505.4705    368.53088   -534.14626    179.67925   -3293.0987 
17418000    265.23936   -4801.7943   -4271.2828   -4801.7943            0    7886.7123    17.914653    22.894302     19.31976    7923.8736    9546.5549     8155.233    5958.3491    120.04838    535.03006    502.95494   -3359.8819 
17419000    271.34614   -4796.6858     -4253.96   -4796.6858            0    8063.4357     17.99664    22.884641    19.432468    8003.1967    8499.7234    8462.6627    7227.9212   -579.82939    1221.8898   -897.00729   -3312.8085 
17420000    260.63381   -4796.9939   -4275.6941   -4796.9939            0    10116.231    17.956713    22.885895    19.304878    7933.4448    9547.6184    10858.948    9942.1279    2516.4154    1409.4121   -1045.7243   -3105.2345 
17421000    262.05967   -4798.7407    -4274.589   -4798.7407            0    6851.9044    17.719855     22.99834    19.606455    7990.1645    8297.9596    6319.8479    5937.9057   -1344.6774      116.372   -1214.8323   -3476.1478 
17422000     261.4829   -4830.1755   -4307.1774   -4830.1755            0    9704.3701    17.963873    22.910159    19.149904    7881.2421    9328.8551    9788.2753      9995.98   -360.88852   -1043.1064    1427.5803   -3191.7587 
17423000    252.70408   -4827.9102   -4322.4709   -4827.9102            0    6399.1404    17.891609    23.026028    19.387245    7987.0156    8067.8071    5802.3605    5327.2536    622.09181     -387.045    349.68067   -3577.0834 
17424000    272.21127   -4846.1365   -4301.6803   -4846.1365            0    6975.2888    17.856407    22.821253    19.587785    7982.1318    8553.0492    8049.7553    4323.0621   -420.54484    1326.5646   -3319.5288   -3489.6785 
17425000    253.40513   -4812.5477   -4305.7061   -4812.5477            0    8213.7742    18.072287    22.842858    19.223443    7935.8734    7462.8368    9269.9003    7908.5855   -1036.1898    182.81507   -792.80702    -3355.072 
17426000    257.68298   -4816.0365   -4300.6388   -4816.0365            0    8823.4908    17.890285    22.647067    19.524655     7910.658    8115.9443     10697.47    7657.0578    614.42126    1925.1486   -582.01586   -3282.6829 
17427000     259.9506   -4803.2885   -4283.3552   -4803.2885            0    5306.1448     18.32966    22.807865    19.308945    8072.3053    4991.5902    5183.1284    5743.7159   -870.54589   -110.28754   -873.51364   -3658.6825 
17428000    273.48081   -4830.1689   -4283.1735   -4830.1689            0    9292.9332    17.834042    22.716451    19.568173    7927.5784    11720.933    8750.5875    7407.2788   -155.53268   -819.88424   -37.862534   -3208.7655 
17429000     255.4602   -4786.7329    -4275.781   -4786.7329            0    8036.6857    18.089032      23.0436    19.163354    7987.9835    6880.5046    7837.6591    9391.8935   -1489.6359    208.06852    59.902321   -3339.5349 
17430000    276.62662   -4842.5716   -4289.2842   -4842.5716            0    8650.0976    17.833226      22.9069    19.463011    7950.7163    9801.6663    8892.3488    7256.2778   -655.09342    182.82982   -158.06588    -3286.279 
17431000    257.59874   -4824.8445   -4309.6152   -4824.8445            0    7706.8483    18.146397     22.88046    19.209928     7975.922    6264.8135    8218.1709    8637.5606    944.49892    216.98801     1693.166   -3413.1497 
17432000    270.67719    -4840.689   -4299.3012    -4840.689            0    6418.2866    17.925951    23.176215    19.300355    8018.4426    6576.5617     5183.736    7494.5622   -1639.1961    -254.3815    768.67567   -3548.7419 
17433000    252.38727   -4814.6763   -4309.8706   -4814.6763            0    10021.137    17.856535    23.126475    19.090798    7883.7113    7524.3977    10874.836    11664.177   -1075.4946    1690.7454   -484.82235   -3157.6819 
17434000    255.80855   -4837.7675   -4326.1188   -4837.7675            0    7219.1467    17.823317    23.076689    19.370257    7967.0475    7155.9825    7653.2775      6848.18   -650.40281   -542.48445    539.58869   -3487.3173 
17435000    266.46632   -4805.8787   -4272.9132   -4805.8787            0    7636.6038    18.073862    22.700763      19.4311    7972.3952    8700.4721    7268.7695    6940.5699   -482.02667    587.13291    -140.5198   -3385.0113 
17436000    264.29649   -4807.3205   -4278.6949   -4807.3205            0    7621.1634    18.112405    22.768548    19.318786    7966.9355      7764.53    7529.6205    7569.3398   -490.78303   -575.61268    1446.9503   -3393.1951 
17437000    253.63371   -4825.3147   -4318.0159   -4825.3147            0    8138.4894     18.04153    22.709727    19.487044    7984.1973    8869.1113    8135.5519    7410.8051   -1297.7541    134.85317   -50.427654   -3370.3594 
17438000    270.22217   -4811.3753   -4270.8975   -4811.3753            0    8671.7988     18.04845    22.677806    19.405848     7942.799    7661.8443    9337.8831    9015.6689   -1750.8826    841.17296   -617.79396   -3266.3774 
17439000    258.90156   -4850.0059   -4332.1708   -4850.0059            0    6729.7383    18.081655    22.906333    19.240007    7968.9114    7048.1504    7125.7192    6015.3453     521.3914    654.32302    582.44859   -3550.0514 
17440000    271.70952   -4794.4773   -4251.0247   -4794.4773            0    9341.7805    17.902268    23.042189    19.279393    7952.8931    12280.584     8272.687    7472.0709   -1077.3387    -1481.381    1458.5667   -3167.5203 
17441000    265.26927   -4812.6291   -4282.0578   -4812.6291            0    7535.0244    18.054418    22.884238    19.259295    7957.2011    5400.8846    9140.4664    8063.7221    389.16571    -344.5635    531.79683   -3407.6362 
17442000     272.4614   -4826.5341   -4281.5777   -4826.5341            0    7341.7963    17.943017    22.878383    19.392243    7960.6558    9063.6319    6882.1183    6079.6387   -1277.8561   -670.12108    254.10985   -3429.2098 
17443000    260.67799   -4822.8475   -4301.4593   -4822.8475            0    8896.8655    18.086574    22.762858    19.290939    7942.1203     6892.446    9499.4698    10298.681   -1108.9002    826.14592    327.62096   -3270.9561 
17444000    266.24463   -4813.6687   -4281.1465   -4813.6687            0     7942.685    17.886512     22.96441    19.344604    7945.8577    8317.2761    9077.6657    6433.1132   -565.93229    1499.9369    680.85002   -3360.7309 
17445000    257.54612   -4806.1146   -4290.9905   -4806.1146            0    7174.0556    17.895877    22.985449    19.382114    7972.7308    7629.4976    7307.2516    6585.4177   -674.36849    1241.1305    537.25872   -3456.8337 
17446000    266.83979   -4845.7176    -4312.005   -4845.7176            0      7223.55    17.982262    23.020868     19.26791    7976.2848    8092.7141    6705.4724    6872.4633    485.51215    635.95532     870.0474   -3471.7188 
17447000    256.71344   -4813.4142   -4299.9556   -4813.4142            0     8493.437    17.893727    23.124567    19.232806    7958.2411    7334.8154    8666.0713    9479.4244   -584.81458    313.82048    1950.5946   -3314.1836 
17448000     269.3616   -4821.0009   -4282.2444   -4821.0009            0    8879.2265    17.865487    23.222009    19.049429     7903.084    8474.3525    8339.6583    9823.6687   -825.87254   -816.60428      1008.71   -3258.8392 
17449000    273.95613   -4817.3921    -4269.446   -4817.3921            0    7208.5621    17.776596    23.237479     19.25677    7954.6492    7076.6524    7162.2563    7386.7776   -743.99409   -103.13581    808.69356   -3433.1779 
17450000    258.15508     -4820.46    -4304.118     -4820.46            0    7878.2967    17.854414     23.26102    19.169213    7961.2018    6379.6103     7790.862    9464.4177   -68.399665    1750.6325    1378.4608   -3389.4007 
17451000    256.71941   -4809.3295   -4295.8589   -4809.3295            0    8011.3923    17.857336    23.095118    19.243667     7936.421    8046.3652    7958.0592    8029.7526    1443.5012    745.25214    1044.5587   -3368.5839 
17452000    264.51278   -4821.4418   -4292.3835   -4821.4418            0    6609.7193    17.879396    23.200887    19.206244    7967.0928    6131.7791    6207.1796    7490.1993   -975.85804    -1060.707    2511.6319   -3524.3878 
17453000    246.36681   -4831.1024   -4338.3383   -4831.1024            0    6713.6837     17.88927     22.98533    19.344519    7954.2873    7276.6985    7059.8931    5804.4594     -197.401   -3.9325273    1097.1099   -3559.5166 
17454000    249.69984   -4820.4411   -4321.0105   -4820.4411            0    9961.3534    17.836926    22.945751    19.271024    7887.2763    9952.4157    10208.366    9723.2789    154.10798    625.20654    1042.7721   -3175.1776 
17455000    263.71377   -4855.8946   -4328.4344   -4855.8946            0    7585.8447    18.005768    22.873474    19.314882    7954.9203    6636.2513    8526.1671    7595.1158   -886.24371    1045.9259   -755.60296   -3448.3676 
17456000    256.68028   -4833.4156   -4320.0234   -4833.4156            0    6965.5587    17.968399    22.845881    19.419348    7971.7184     8243.177     7172.724     5480.775   -141.56402   -420.30784    665.62669   -3510.2121 
17457000    259.76469   -4807.7072   -4288.1457   -4807.7072            0    8129.0329    18.031098     22.78815    19.358328    7954.2474    7410.2001    9529.6728    7447.2257   -862.10793   -224.06472    -2.964683    -3345.141 
17458000    262.34644    -4795.958   -4271.2327    -4795.958            0    8970.9885    18.014244    22.687418    19.407638    7931.8371    9818.2246    9492.6143    7602.1267    405.30211   -769.45247   -163.37644   -3233.4894 
17459000     258.1725   -4809.0158   -4292.6389   -4809.0158            0     8307.777    18.163155     22.62615    19.374514    7962.1942    8721.1597    8207.6829    7994.4882   -640.65657    1245.0081    1463.6404   -3327.9362 
17460000    261.09957   -4804.3173   -4282.0859   -4804.3173            0     6209.831    18.111459    22.658325    19.533539    8016.0825    6094.5314    6356.0604    6178.9014    140.70228   -191.58606    196.40844   -3556.1173 
17461000    271.45112   -4830.3442   -4287.4084   -4830.3442            0    9253.4662    18.133947    22.502642    19.406749    7919.1512    8510.5675    9639.5466    9610.2846    318.48726   -1295.3157   -747.44191   -3218.7006 
17462000    264.55771   -4822.1637   -4293.0156   -4822.1637            0     8522.668    17.959905    22.831085    19.350952    7934.7441    7988.0103    8959.0606     8620.933   -260.94142    345.92949   -945.20729   -3306.7715 
17463000    264.31111   -4823.0504   -4294.3955   -4823.0504            0    8102.9856    17.778237    23.250748    19.191751    7933.0505    8231.2325     7026.665    9051.0593     1582.734   -1251.5358    338.73366   -3356.9173 
17464000    256.34385   -4814.4444    -4301.725   -4814.4444            0    7423.1248    17.860399    23.345955     19.11616    7970.8284    8223.6334    6921.4018    7124.3393   -455.18945   -390.04242    369.41054   -3438.8138 
17465000    251.19997   -4839.2124   -4336.7814   -4839.2124            0    8654.4345    17.676079    23.146685    19.294414    7894.1673    9429.9281    7706.0262    8827.3493    983.52902   -1331.4107    134.02276   -3340.4108 
17466000    257.65237    -4812.634   -4297.2974    -4812.634            0    9707.3317    18.004263    22.918471    19.157779    7905.0777    10171.576    8333.8306    10616.588    1057.8571    571.83833   -1084.1403   -3178.1639 
17467000    251.75324   -4833.2341   -4329.6965   -4833.2341            0    8762.2651    17.671169    23.060454    19.489226    7941.9606    9510.9718    8983.7963    7792.0273    229.69192    413.08498    96.606131   -3314.8041 
17468000    271.98055   -4820.9376   -4276.9429   -4820.9376            0    5906.7901    18.072222     23.17385    19.164923    8026.3269    3582.0801    5622.0436    8516.2467    780.75504   -179.43539     2682.129   -3585.5191 
17469000    265.83955   -4827.8327   -4296.1208   -4827.8327            0    9527.1906    17.846363     22.88027    19.350521    7901.3908    11620.451    8685.5874    8275.5331   -1601.1085    -82.87665    566.09498   -3198.2675 
17470000    258.44399   -4857.7517   -4340.8318   -4857.7517            0    5324.0364    18.182553    22.787839    19.353107    8018.7871    4839.1831    6016.0436    5116.8824    2338.2033    1319.9341    2006.9677   -3718.2082 
17471000    263.50054   -4839.6365   -4312.6029   -4839.6365            0    6327.3619    18.043234    22.918386    19.347921    8000.7871    5944.5012    6450.6619    6586.9225   -417.63925    197.33413    739.89129   -3574.3056 
17472000    252.78096   -4843.8439   -4338.2507   -4843.8439            0    8309.4326    17.843814    22.932329    19.417508    7945.6486    8292.8065    8058.1664     8577.325   -1555.6335    516.15993   -299.12762   -3375.3609 
17473000      254.602   -4833.5109   -4324.2755   -4833.5109            0     8772.785    18.061748     22.74539     19.27359    7918.0051    8004.1119    9834.7155    8479.5277    770.69322    1321.7453    -267.6211   -3311.2295 
17474000    266.24739    -4831.745   -4299.2173    -4831.745            0    6726.0837     18.09262    22.623846    19.515304    7988.0948    4088.5979    8277.2935    7812.3598   -811.83913    146.91856   -150.37797   -3515.6409 
17475000    276.29329    -4863.267   -4310.6463    -4863.267            0    9365.4252     18.05162    22.560716    19.380938    7893.0316    9652.1855    9366.4661    9077.6239    1672.9054   -1026.7926    3343.6081   -3232.5756 
17476000    261.13841   -4821.1781    -4298.869   -4821.1781            0    8229.2389    17.987229    22.780519    19.398915    7948.8686    9725.3733    7701.5986    7260.7448   -187.52711   -1096.9563   -1238.6205   -3344.8855 
17477000    270.75404   -4776.6116   -4235.0701   -4776.6116            0    7032.9969    18.060846    23.146449     19.16416    8011.4706    6956.0264    6489.1458    7653.8186    1156.2595   -913.52893    1180.2933   -3413.3412 
17478000    266.62431   -4791.0809   -4257.7993   -4791.0809            0    10691.147    17.628083    23.099196      19.3955    7897.7417     11348.12    10272.221    10453.101   -669.10095    567.78821    673.97951   -3026.3881 
17479000    278.82053   -4841.4607   -4283.7852   -4841.4607            0    7249.7925    18.051288    23.025438    19.254694    8002.9982    7227.3471    6270.9485     8251.082    586.20124   -271.91906    935.68687   -3437.6219 
17480000    272.77809   -4795.1494   -4249.5595   -4795.1494            0    7306.6622    17.926845    22.905266    19.419167    7973.8819     7664.465    8002.1986    6253.3229   -419.94054   -578.40849    592.21073   -3399.8613 
17481000    279.20918   -4819.3587   -4260.9059   -4819.3587            0     8626.171    18.003182    23.033536     19.13224    7933.6986    6670.6316    9248.8988    9958.9827   -998.52972    955.11643   -600.79643    -3262.816 
17482000     258.8512   -4816.4078   -4298.6734   -4816.4078            0    5344.2615    17.885497    23.093767    19.442588    8030.6342    5978.3444    5304.9393    4749.5007    270.40718    115.30208   -188.71418   -3672.7612 
17483000    251.10359   -4813.0746   -4310.8364   -4813.0746            0    8839.7972    17.910707    22.880408    19.346319    7928.2043    9297.3259    7912.4186    9309.6471   -1086.7191    158.20785   -391.98565   -3288.7372 
17484000    268.84459   -4820.3372   -4282.6148   -4820.3372            0    8187.3917    17.974374    22.891037    19.326278    7951.8369      8416.65    7608.6296    8536.8956    563.23582   -742.36839     807.5166    -3333.128 
17485000     265.2874   -4856.0077   -4325.4001   -4856.0077            0    7639.0712    17.902913    22.927816    19.332658     7935.567    7865.7038    7083.5136    7967.9963   -1528.4174   -200.30327    566.58474   -3441.3143 
17486000    266.74446   -4837.9528    -4304.431   -4837.9528            0     6397.517    18.041425    22.894466     19.30803    7975.1582    5116.7209     6910.799    7165.0311   -1357.9962    311.54528    1741.7495   -3560.3389 
17487000    259.12461   -4830.0873   -4311.8061   -4830.0873            0    8993.8855    17.839776    23.159888    19.229417    7944.9645    9929.5022    8029.6513     9022.503   -2572.3803    559.37897    1034.5617   -3269.6921 
17488000     276.9156   -4822.1854   -4268.3199   -4822.1854            0    10897.122    17.793617     22.95101    19.262279    7866.3582    12656.673    10506.874    9527.8205   -998.26391    262.78207   -946.39125   -3018.1719 
17489000    259.94264   -4812.7004    -4292.783   -4812.7004            0    8920.5233    18.047101    22.860933    19.251637    7942.7163    9463.1424    7899.6237    9398.8039   -236.30018    170.66018    799.29917    -3259.462 
17490000    260.87287   -4806.2029    -4284.425   -4806.2029            0    5684.7685    17.908092     22.93567    19.515593    8015.7194    6881.0334     5370.186     4803.086    1108.4921    358.17443   -304.07159   -3619.8696 
17491000    259.66278   -4828.2292   -4308.8715   -4828.2292            0    8973.4939    17.984402     22.99456    19.127398    7910.0095    8972.3128    9317.8175    8630.3514    2899.3121    1046.7298    3394.9053   -3273.6949 
17492000    253.98972   -4807.3453   -4299.3345   -4807.3453            0    9261.7097    17.891778    22.987437    19.274375    7927.2828    7937.7848    9465.5248    10381.819     1069.127    340.88507    2021.8087   -3228.5763 
17493000    277.71119   -4816.4579   -4261.0012   -4816.4579            0    8848.9359     17.93996    22.887314    19.313886    7930.2334    10650.534    7703.0265    8193.2474    930.24611   -993.31294   -520.68574   -3237.5835 
17494000    261.15237   -4796.3001   -4273.9631   -4796.3001            0     8016.109    17.996744    22.712639    19.471509    7959.0485    9371.8579    7649.8276    7026.6417    203.04543   -888.42558    -1515.005   -3343.4967 
17495000    269.12055    -4790.288   -4252.0136    -4790.288            0    9145.6327    18.278297    22.573131    19.285775    7957.2794    7677.7624    9399.2825    10359.853    137.01225    -162.4782   -1108.5406   -3190.6743 
17496000    258.48453   -4828.2376   -4311.2366   -4828.2376            0    7289.1553    17.977665    22.670007    19.614649    7994.0246    6595.2252    7578.8083    7693.4323   -1399.3358    61.756001    -146.2122    -3461.433 
17497000     263.8943   -4812.9958   -4285.1746   -4812.9958            0    9418.8019    18.218377    22.484236    19.349432    7926.0359    6706.3304    11336.566    10213.509    149.52267   -15.001197    1694.3268   -3196.4261 
17498000    269.84906   -4811.9265    -4272.195   -4811.9265            0    9292.7891      17.9775    22.633756    19.496283    7933.0057    10203.286    8963.7713    8711.3097   -289.02385   -324.24147   -44.279636   -3197.0681 
17499000    260.77929   -4831.9173   -4310.3265   -4831.9173            0    7755.1687    18.127653    22.739515    19.312462    7960.8683    6583.2677    9599.3184    7082.9199    1107.2919    1249.5495    1342.2363   -3409.9429 
17500000    263.71232   -4786.1466   -4258.6894   -4786.1466            0    7900.9363    17.987906    22.851052    19.409815    7978.2606    8415.5548    8246.8566    7040.3974    593.26982   -141.33162    474.01639    -3339.378 
Loop time of 512.017 on 64 procs for 250000 steps with 1008 atoms

Performance: 84.372 ns/day, 0.284 hours/ns, 488.265 timesteps/s
99.1% CPU use with 64 MPI tasks x 1 OpenMP threads

MPI task timing breakdown:
Section |  min time  |  avg time  |  max time  |%varavg| %total
---------------------------------------------------------------
Pair    | 29.032     | 33.217     | 36.896     |  34.2 |  6.49
Bond    | 0.27722    | 0.28761    | 0.30429    |   1.0 |  0.06
Kspace  | 240.11     | 248.08     | 261.72     |  30.8 | 48.45
Neigh   | 4.9288     | 5.431      | 6.625      |  16.7 |  1.06
Comm    | 86.266     | 100.8      | 109.74     |  51.5 | 19.69
Output  | 1.3185     | 1.3194     | 1.3264     |   0.1 |  0.26
Modify  | 108.96     | 112.93     | 118.72     |  26.5 | 22.05
Other   |            | 9.956      |            |       |  1.94

Nlocal:        15.7500 ave          21 max          11 min
Histogram: 1 2 8 8 8 14 10 7 4 2
Nghost:        2484.62 ave        2529 max        2453 min
Histogram: 3 8 8 13 11 11 3 3 3 1
Neighs:        5238.56 ave        6998 max        3657 min
Histogram: 2 6 9 4 14 9 12 5 2 1

Total # of neighbors = 335268
Ave neighs/atom = 332.60714
Ave special neighs/atom = 2.0000000
Neighbor list builds = 9693
Dangerous builds = 0

unfix		3
unfix		2
unfix		1

write_data	data.final.${pid}
write_data	data.final.0
System init for write_data ...
PPPM initialization ...
  extracting TIP4P info from pair style
  using 12-bit tables for long-range coulomb (../kspace.cpp:340)
  G vector (1/distance) = 0.37801016
  grid = 24 27 32
  stencil order = 5
  estimated absolute RMS force accuracy = 0.0026156432
  estimated relative force accuracy = 7.8769317e-06
  using double precision FFTW3
  3d grid and FFT values/proc = 3825 384
Last active /omp style is kspace_style pppm/tip4p/omp
WARNING: Not all mixed pair coeffs generated from mixing. Use write_data with 'pair ij' option to store all pair coeffs. (../write_data.cpp:312)

write_restart   restart.lmp.${pid}
write_restart   restart.lmp.0
System init for write_restart ...
PPPM initialization ...
  extracting TIP4P info from pair style
  using 12-bit tables for long-range coulomb (../kspace.cpp:340)
  G vector (1/distance) = 0.37801016
  grid = 24 27 32
  stencil order = 5
  estimated absolute RMS force accuracy = 0.0026156432
  estimated relative force accuracy = 7.8769317e-06
  using double precision FFTW3
  3d grid and FFT values/proc = 3825 384
Last active /omp style is kspace_style pppm/tip4p/omp
Total wall time: 0:08:35
