LAMMPS (30 Jul 2021)
Processor partition = 1
  using 4 OpenMP thread(s) per MPI task
using multi-threaded neighbor list subroutines
variable        pid world 0 1
variable        phase world IceII IceIh

shell cd ${phase}
shell cd IceIh
include Restart.lmp
echo both
log log.lammps
#include		in.partitions
include		in.temp
variable        temperature equal 25.10
variable	tempDamp equal 100.0
include		in.pressure
variable        pressure equal 1998.8
variable        pressureDamp equal 1000.0 # This is 1 ps
include		in.seed
variable        seed equal 745823

units		real
atom_style	full
#include		in.box
read_restart	restart.lmp.${pid}
read_restart	restart.lmp.1
Reading restart file ...
  restart file = 30 Jul 2021, LAMMPS = 30 Jul 2021
  restoring atom style full from restart
  orthogonal box = (0.15012760 0.19552176 0.16608635) to (18.057445 23.433656 22.047109)
  2 by 4 by 2 MPI processor grid
  restoring pair style lj/cut/tip4p/long/omp from restart
  restoring bond style harmonic/omp from restart
  restoring angle style harmonic/omp from restart
  864 atoms
  576 bonds
  288 angles
Finding 1-2 1-3 1-4 neighbors ...
  special bond factors lj:    0        0        0       
  special bond factors coul:  0        0        0       
     2 = max # of 1-2 neighbors
     1 = max # of 1-3 neighbors
     1 = max # of 1-4 neighbors
     2 = max # of special neighbors
  special bonds CPU = 0.001 seconds
  read_restart CPU = 0.005 seconds
include 	in.setup
variable	out_freq equal 1000
variable	out_freq2 equal 10000
variable	out_freq3 equal 1000

timestep	2.0

neigh_modify    delay 7 every 1

include		in.tip4p
# This is TIP4P/Ice

# create groups ###
group ox type 2
288 atoms in group ox
group hy type 1
576 atoms in group hy

# set charges - beside manually ###
set group ox charge -1.1794
Setting atom values ...
  288 settings made for charge
set group hy charge 0.5897
Setting atom values ...
  576 settings made for charge

# ### TIP3P Potential Parameters ###
pair_style lj/cut/tip4p/long/omp 2 1 1 1 0.1577 8.5
pair_coeff 1 1*2 0.000 0.000
pair_coeff 2 2 0.21084 3.1668
bond_style  harmonic
bond_coeff  1 450 0.9572
angle_style harmonic
angle_coeff 1 55 104.52
kspace_style pppm/tip4p/omp 1.0e-5
pair_modify tail yes

thermo          ${out_freq}
thermo          1000
thermo_style    custom step temp pe etotal epair emol press lx ly lz vol pxx pyy pzz pxy pxz pyz enthalpy

restart 	${out_freq3} restart.lmp.${pid} restart2.lmp.${pid}
restart 	1000 restart.lmp.${pid} restart2.lmp.${pid}
restart 	1000 restart.lmp.1 restart2.lmp.${pid}
restart 	1000 restart.lmp.1 restart2.lmp.1


include         in.dump
dump            myDump all atom ${out_freq2} dump.water.${pid}
dump            myDump all atom 10000 dump.water.${pid}
dump            myDump all atom 10000 dump.water.1
dump            myDump2 all dcd ${out_freq2} dump.dcd
dump            myDump2 all dcd 10000 dump.dcd
dump_modify     myDump append yes
dump_modify     myDump2 append yes


variable natoms 	equal  "count(all)"                        # NUMBER ATOMS
variable H      	equal  "enthalpy/v_natoms"                 # ENTHALPY-per-atom
variable Vol      	equal  "vol/v_natoms"                 # volume-per-atom
fix AVG all 		ave/time ${out_freq} 1 ${out_freq} v_Vol v_H file vol_enthalpy.dat
fix AVG all 		ave/time 1000 1 ${out_freq} v_Vol v_H file vol_enthalpy.dat
fix AVG all 		ave/time 1000 1 1000 v_Vol v_H file vol_enthalpy.dat


timer           timeout 23:50:00 every 1000
New timer settings: style=normal  mode=nosync  timeout=23:50:00

fix 		1 all shake 1e-6 200 0 b 1 a 1
Finding SHAKE clusters ...
       0 = # of size 2 clusters
       0 = # of size 3 clusters
       0 = # of size 4 clusters
     288 = # of frozen angles
  find clusters CPU = 0.000 seconds
fix             2 all nph aniso ${pressure} ${pressure} ${pressureDamp}
fix             2 all nph aniso 1998.8 ${pressure} ${pressureDamp}
fix             2 all nph aniso 1998.8 1998.8 ${pressureDamp}
fix             2 all nph aniso 1998.8 1998.8 1000
fix             3 all temp/csvr ${temperature} ${temperature} ${tempDamp} ${seed}
fix             3 all temp/csvr 25.1 ${temperature} ${tempDamp} ${seed}
fix             3 all temp/csvr 25.1 25.1 ${tempDamp} ${seed}
fix             3 all temp/csvr 25.1 25.1 100 ${seed}
fix             3 all temp/csvr 25.1 25.1 100 745823


run             250000
PPPM initialization ...
  extracting TIP4P info from pair style
  using 12-bit tables for long-range coulomb (../kspace.cpp:340)
  G vector (1/distance) = 0.3722201
  grid = 24 27 25
  stencil order = 5
  estimated absolute RMS force accuracy = 0.0031000985
  estimated relative force accuracy = 9.3358544e-06
  using double precision FFTW3
  3d grid and FFT values/proc = 6300 1296
Last active /omp style is kspace_style pppm/tip4p/omp
Neighbor list info ...
  update every 1 steps, delay 7 steps, check yes
  max neighbors/atom: 2000, page size: 100000
  master list distance cutoff = 10.8154
  ghost atom cutoff = 10.8154
  binsize = 5.4077, bins = 4 5 5
  1 neighbor lists, perpetual/occasional/extra = 1 0 0
  (1) pair lj/cut/tip4p/long/omp, perpetual
      attributes: half, newton on, omp
      pair build: half/bin/newton/omp
      stencil: half/bin/3d
      bin: standard
Setting up Verlet run ...
  Unit style    : real
  Current step  : 43250000
  Time step     : 2
  Walltime left : 23:49:59.97
Per MPI rank memory allocation (min/avg/max) = 12.26 | 12.29 | 12.31 Mbytes
Step Temp PotEng TotEng E_pair E_mol Press Lx Ly Lz Volume Pxx Pyy Pzz Pxy Pxz Pyz Enthalpy 
43250000    26.190171   -4695.9025   -4651.0135   -4695.9025            0    2178.3221    17.907317    23.238134    21.881023    9105.4079     2122.841    2292.4548    2119.6704    2.4153065     -76.6296   -21.570673   -4361.7475 
43251000    25.043289   -4695.7166   -4652.7932   -4695.7166            0    2327.0433    17.870266    23.311095    21.848814    9101.6801    2211.1638    2409.0553    2360.9108    189.95077    -117.6825    93.078883   -4343.9046 
43252000    25.741842   -4697.1307   -4653.0101   -4697.1307            0    1813.7899    17.916359    23.196065    21.937436    9116.9581    1531.2965    2631.3226    1278.7505    86.475115    382.44109    190.59977   -4411.8459 
43253000    25.818909   -4699.0743   -4654.8216   -4699.0743            0    1670.9849    17.854354    23.305151    21.926975    9123.7792    1654.5005    1839.2614    1519.1929    238.40995   -71.399774   -27.272926   -4432.4788 
43254000    24.138349   -4698.5211   -4657.1488   -4698.5211            0    2179.3831    17.958756    23.231414    21.818818    9102.9697    2131.5319    1968.9772    2437.6402    341.68034   -138.97042   -132.74219   -4367.8194 
43255000    26.127222   -4696.6813   -4651.9001   -4696.6813            0    1979.5574    17.837192    23.353608    21.866643    9108.8296    2211.9779    1845.5316    1881.1627   -208.06076    126.58277   -91.748965   -4388.9299 
43256000    24.883882   -4694.6987   -4652.0485   -4694.6987            0    1926.5721    17.872012    23.294607    21.894396    9115.1076    2091.9298    1608.5428    2079.2435   -110.91902   -213.87787    48.506523   -4395.9407 
43257000    24.955726    -4695.667   -4652.8938    -4695.667            0    1853.3126    17.895976    23.329984    21.835466     9116.587    1656.3994    1699.3983    2204.1402   -240.96717    74.445718   -114.22412   -4406.4846 
43258000    26.830399   -4697.8373   -4651.8509   -4697.8373            0    1944.9596    17.846186    23.300389     21.91457    9112.5835     2270.163    1880.6067    1684.1093     -171.591   -97.073692   -74.102575   -4393.3703 
43259000    25.627771   -4693.4901    -4649.565   -4693.4901            0    2216.8241    17.886786    23.248172    21.885596    9100.7986     2259.153    2713.0434    1678.2758    229.14951    124.69735    14.816078   -4355.3352 
43260000    25.018135    -4694.951   -4652.0708    -4694.951            0    1976.5688    17.865075    23.225694     21.95563    9110.0223    1915.4151    1979.0248    2035.2667    25.166282     104.1276    5.7568526   -4389.4632 
43261000    25.439713   -4696.8733   -4653.2705   -4696.8733            0    2147.8111    17.884489    23.200635    21.924195    9097.0393    2307.1188    2488.9301    1647.3844    90.830295   -480.60016   -192.51532   -4368.3183 
43262000    26.578326   -4693.9949   -4648.4405   -4693.9949            0    1995.5677    17.948359    23.174696    21.893313    9106.4744    1355.4581    2437.7428    2193.5024   -109.44928   -126.43108   -56.877025    -4383.412 
43263000    26.718695   -4696.7851   -4650.9902   -4696.7851            0    1978.5106      17.8997    23.322345    21.818363    9108.3587    1955.0084    2050.8004    1929.7229    -212.4539   -110.91704    128.27403   -4388.1726 
43264000    24.873548   -4698.5312   -4655.8987   -4698.5312            0    1987.1399    17.941294    23.273099    21.821339    9111.4899    1518.9496    2345.0021     2097.468    331.55668    95.481908    218.56444   -4391.8441 
43265000    24.679986   -4694.5622   -4652.2615   -4694.5622            0    2104.5907    17.897261    23.165718    21.966895    9107.5387    2120.6592    2671.4259     1521.687   -336.99542   -1.2880083    24.951701   -4372.7211 
43266000    24.882155   -4696.0466   -4653.3994   -4696.0466            0    1750.8189    17.995578    23.227553    21.817197    9119.4406    1131.4332    1757.2009    2363.8225    333.20655    74.529662   -67.353245   -4420.5445 
43267000    24.897037    -4695.001   -4652.3283    -4695.001            0    2140.2773    17.842113    23.307518     21.88951    9102.8704    2259.6288    2260.1419     1901.061   -324.74045   -55.900224   -103.01455   -4368.1936 
43268000    23.464264    -4696.372   -4656.1551    -4696.372            0    1980.2718    17.847097    23.307535    21.893656    9107.1445    2127.2745    2051.2449    1762.2959    83.672991   -98.404935   -60.452554   -4393.1386 
43269000    25.908043   -4697.2041   -4652.7986   -4697.2041            0    2526.9414    17.928964    23.333699    21.721935    9087.3507    2279.8201    1994.5228    3306.4815   -87.573899    67.853726   -185.00326   -4317.9038 
43270000    24.976644   -4698.2257   -4655.4166   -4698.2257            0    1864.8083    17.912215    23.288558    21.857326    9117.7762    2216.1081    1484.5538    1893.7631   -35.964701   -148.13323     82.84673   -4407.4466 
43271000    25.316458    -4698.847   -4655.4555    -4698.847            0    2125.5402    17.893381    23.220179    21.913749    9104.8889    2154.8012    2319.0293      1902.79    158.96874    267.34508   -66.714427   -4373.2146 
43272000    25.877222    -4694.973   -4650.6203    -4694.973            0    2005.9968    17.860741    23.265326     21.93084    9113.0528    2360.4901    1671.1795    1986.3208    190.21754    157.81099   -110.90208   -4384.0142 
43273000    23.950085   -4697.2177   -4656.1681   -4697.2177            0    1811.8354    17.940116    23.214992    21.905118    9123.0358    1461.5534    1921.5844    2052.3685   -40.747843   -225.10305    91.993932   -4415.1032 
43274000    26.948896   -4694.2429   -4648.0534   -4694.2429            0    1928.6904    17.816635    23.325819    21.924539    9111.5667    2461.2931    1671.8864    1652.8918    54.280997    186.23736   -32.394652   -4391.7635 
43275000    24.985524     -4694.67   -4651.8457     -4694.67            0    2248.8215    17.890441    23.312244    21.798982    9091.6213    2408.5217    2256.4815    2081.4614    54.262819   -7.0161198   -53.966922     -4353.67 
43276000    26.714714   -4695.9729   -4650.1848   -4695.9729            0    1967.6165    17.880849    23.268967    21.899529    9111.7127    2037.6187    1905.1135    1960.1172   -507.68943    86.357974   -58.995454   -4388.7182 
43277000    26.234965   -4697.4272   -4652.4614   -4697.4272            0    1954.0014    17.921256    23.328608      21.8013    9114.6428    1870.4864    1918.3865    2073.1314    132.35501   -47.180877     200.0984   -4392.7204 
43278000    23.823095   -4694.9013   -4654.0693   -4694.9013            0    2184.9317    17.874004    23.248688    21.904082    9102.1789     2038.038    2336.0399    2180.7171   -36.318349   -381.70805    209.06895   -4364.0285 
43279000    23.767183   -4697.9358   -4657.1996   -4697.9358            0    1747.3081     17.88999    23.294817    21.868238    9113.4583    1337.9918    1878.7212    2025.2113   -369.79023    77.885789   -63.513461   -4424.9641 
43280000    25.117095   -4693.9592   -4650.9093   -4693.9592            0    2220.4326     17.86386    23.262822    21.893819    9098.2783    2221.0946    2176.3418    2263.8613   -216.62886   -51.712676   -98.282254   -4356.2822 
43281000    26.817774   -4696.3645   -4650.3998   -4696.3645            0    2129.8344    17.883365     23.26646     21.88227    9104.8314    2066.4491    2070.5866    2252.4676   -378.00396   -181.25053    92.703683   -4367.5905 
43282000    25.283223   -4694.7099   -4651.3753   -4694.7099            0    1895.8042    17.873302    23.319178    21.845614    9105.0489    2017.4128    1597.9531    2072.0466    55.087202    82.115417    35.513929   -4399.6356 
43283000    25.192042   -4696.3027   -4653.1244   -4696.3027            0    1853.1372     17.91735    23.271322    21.848726    9110.0539    2148.4299    1609.1622    1801.8195   -232.58296    -155.4997     7.687356   -4406.9151 
43284000    25.117347   -4698.6462    -4655.596   -4698.6462            0    2119.4312    17.852575    23.256411    21.932486    9106.0792    2241.9429    2263.0237    1853.3271    -308.8706    351.50246   -42.860782   -4374.1295 
43285000    23.758874   -4697.2854   -4656.5635   -4697.2854            0    2115.6962     17.89228    23.237355    21.898435    9104.6961    2079.4897    2119.7565    2147.8425    319.52671   -185.61251   -170.86559   -4375.6357 
43286000    23.819916   -4695.7286   -4654.9021   -4695.7286            0    2109.5351     17.93193    23.283442    21.811468    9106.6595      2221.35    1940.8327    2166.4226    35.568294      64.9949    219.23149    -4374.732 
43287000    26.063262   -4697.2142   -4652.5427   -4697.2142            0    1976.4814    17.851402    23.313539    21.897292    9113.2008    2012.5516    2004.6506     1912.242   -165.49043   -158.19189    57.693884   -4389.8551 
43288000    25.978209   -4698.1209   -4653.5951   -4698.1209            0    2140.8114    17.846542    23.374902    21.825007    9104.5451    2472.0347    1754.8271    2195.5722   -62.690338   -145.29575   -11.168764   -4369.3372 
43289000    25.298727   -4695.6192    -4652.258   -4695.6192            0    2209.5162    17.837073    23.336579    21.862916    9100.5759    2412.5578    2056.5452    2159.4457   -149.64808   -29.154658    329.50101   -4359.0054 
43290000    24.328521   -4695.6289   -4653.9306   -4695.6289            0    2011.0598    17.882893    23.275112     21.87203    9103.7149    1971.1188    2055.0088    2007.0519    173.19197   -149.23976   -143.19088   -4386.9255 
43291000    24.686441   -4696.8182   -4654.5065   -4696.8182            0    1995.5433    17.921571    23.292521    21.843342    9118.2531    1854.1375    1692.5565    2439.9359    176.48192    127.53644    292.02864   -4389.1384 
43292000    25.933696   -4698.1362   -4653.6868   -4698.1362            0    2069.2094    17.887274    23.241872    21.904429    9106.4103     1953.267    2050.3654    2203.9958     -45.3833    71.121086    180.76717   -4378.8799 
43293000    24.558985   -4694.1117   -4652.0185   -4694.1117            0     1675.215     17.88183    23.376125    21.823465    9122.3802    1832.9745    1337.8829    1854.7876   -118.86919    -237.6148   -177.04805   -4429.1469 
43294000    25.705172   -4697.0347   -4652.9769   -4697.0347            0    1990.2361    17.846766    23.271359    21.949786    9116.1523    2373.2123     1885.067     1712.429    -29.38673    91.569752   -108.37395   -4388.3755 
43295000    23.939195     -4698.35    -4657.319     -4698.35            0    2041.7572    17.895796    23.237138    21.904452    9108.9025    2134.9731    1854.0194    2136.2792  -0.42680725   -61.604715    141.88201   -4386.0838 
43296000    25.514587   -4695.7411     -4652.01   -4695.7411            0    1928.4737    17.863743    23.302683    21.894341    9114.0262    2053.2346    2060.8444    1671.3422    -141.1732    285.71513    20.099797   -4395.6797 
43297000    25.050472   -4697.2638   -4654.3281   -4697.2638            0    2096.0122    17.888454    23.229312    21.913252    9105.7557    1995.9499    2209.6943    2082.3924   -95.684862   -86.569061    106.30659   -4375.9817 
43298000    26.570043   -4698.2498   -4652.7096   -4698.2498            0    1634.0118    17.919643    23.271626    21.883001     9125.632    1705.2435    1530.0689    1666.7231    273.61489    135.81581    58.998827   -4435.2423 
43299000    26.401137   -4698.4622   -4653.2116   -4698.4622            0    1904.8628    17.929232    23.263427    21.851461    9114.1436    1567.6336    1953.2613    2193.6936   -114.06322    -206.2774    93.719322   -4400.0164 
43300000    24.553002   -4695.6263   -4653.5433   -4695.6263            0    2166.5262    17.894051    23.199368     21.92237    9100.6482    2098.5095     2538.999    1862.0703   -59.560836   -123.48295    146.11406   -4365.9941 
43301000    26.673762   -4696.7927   -4651.0748   -4696.7927            0     1908.788    17.800782    23.351199    21.925598    9113.8046     1989.828    1845.1783    1891.3576    9.4524686   -82.141801    56.954342   -4397.3673 
43302000    24.974758   -4696.1758   -4653.3699   -4696.1758            0    2098.1313    17.900561    23.307119    21.810969    9099.7656     1813.094    1827.1657    2654.1341    70.951545    139.12289    161.41346   -4374.9253 
43303000    25.006257   -4697.7261   -4654.8663   -4697.7261            0    2077.6713     17.88522       23.229    21.923749    9108.3479    2390.8829    2350.0488    1492.0823   -69.862404   -66.946582    240.63056   -4378.8769 
43304000    26.514538   -4696.8023   -4651.3573   -4696.8023            0    1994.6459    17.957283    23.232757    21.835747    9109.8122    1591.0287    1798.1029     2594.806    -151.3913    41.428251     15.23649   -4386.3541 
43305000    25.473433    -4698.079   -4654.4184    -4698.079            0    2070.4719    17.926532    23.244465    21.849544    9104.5442    2046.3702    1946.6518    2218.3939    347.35638   -75.016287    130.66718   -4379.5002 
43306000    26.656503   -4695.1267   -4649.4384   -4695.1267            0    1963.5386    17.878442    23.305498    21.845463    9102.2614    1597.3055    2160.1112    2133.1992   -351.71495    341.16999   -74.321766   -4388.7843 
43307000    25.852967   -4698.4106   -4654.0995   -4698.4106            0    1793.8721    17.893754    23.266285    21.907985    9120.7583    1741.5424    1972.3523    1667.7215    7.9140008   -160.69608    72.498359   -4415.4842 
43308000    24.373463   -4693.9768   -4652.2015   -4693.9768            0    2628.6563    17.892882    23.198389    21.873195    9079.2581    2344.4523     2904.932    2636.5847   -353.98281   -237.31742   -269.60897   -4304.1368 
43309000    26.481915   -4697.7387   -4652.3496   -4697.7387            0    1543.4555    17.950451    23.188289    21.926723    9126.7847    1625.3603    2018.1435    986.86271    174.04387    -107.3318    260.31258   -4446.9083 
43310000    24.395234   -4698.5195   -4656.7069   -4698.5195            0    2153.3611    17.848345    23.244584    21.920504    9094.3211    1960.3193    2182.9519    2316.8122    5.9882466   -2.3181045    109.98226   -4371.1038 
43311000    24.513041   -4694.9157   -4652.9012   -4694.9157            0    2232.4745    17.851486    23.281629    21.892293    9098.6924    2292.4469    2500.7323    1904.2444     28.34348   -37.540647   -66.666858   -4356.6628 
43312000    25.388409   -4694.4568   -4650.9419   -4694.4568            0    1993.7432    17.952573    23.208676    21.860667    9108.3658    1922.1464    1814.6903    2244.3929   -479.43862   -114.98756    405.89987   -4386.1007 
43313000    26.750363   -4696.0004   -4650.1512   -4696.0004            0    1748.2158    17.827205    23.313192    21.927863    9113.4183    2147.4256    1426.5775    1670.6443    -177.8485    113.11115   -118.79763   -4417.7961 
43314000    26.039643   -4697.8353   -4653.2043   -4697.8353            0    2164.7736    17.935046    23.312915    21.781371    9107.1875    1964.8636    1985.3077    2544.1494   -119.83642    48.745355    63.863518   -4365.6812 
43315000    24.689963   -4697.8615   -4655.5437   -4697.8615            0    1790.6494    17.801087    23.341551    21.928036    9111.2077    2052.6592      1823.95    1495.3391   -259.79975   -117.72275    190.62353   -4417.6065 
43316000    26.524295   -4696.6204   -4651.1586   -4696.6204            0    2183.6149    17.866189    23.321039    21.846394    9102.4764    2058.5446    2044.1965    2448.1036    81.854707   -73.661147    186.74431   -4361.2831 
43317000    23.704974   -4697.7242   -4657.0947   -4697.7242            0    1745.6033     17.95375     23.30499    21.780153    9113.0765    1582.2903    1898.0724    1756.4471    311.13741    135.33408    286.11386   -4425.0955 
43318000    25.118341   -4697.6347   -4654.5828   -4697.6347            0    1868.3214    17.950304    23.196915    21.888982    9114.3899    1512.7268    2217.5877    1874.6499   -291.02617    51.309338   -6.9970187   -4406.2379 
43319000    23.279499   -4696.1701   -4656.2698   -4696.1701            0    2159.4497    17.840601    23.252938    21.949548    9105.6905    2533.2661    1973.5202     1971.563   -325.30035    539.94057    69.831858   -4369.5011 
43320000    25.097753   -4696.0207    -4653.004   -4696.0207            0    1840.1529     17.92314    23.347581    21.789656    9118.1422    2068.8194    1276.0954    2175.5439    80.682761    -165.9236    118.57015   -4408.3028 
43321000    24.680434   -4696.2674    -4653.966   -4696.2674            0    2068.2515    17.886795    23.278255    21.869818    9106.0096    2142.2793    1996.9652      2065.51    247.48535    394.09504   -8.0569111   -4379.2984 
43322000    25.922611   -4692.9745    -4648.544   -4692.9745            0    2065.0986    17.908702     23.22778    21.900715    9110.2457    2139.3474    1974.5912    2081.3572    157.98684   -409.02347   -2.3884406   -4374.1676 
43323000    24.364167   -4698.5704    -4656.811   -4698.5704            0    1606.3074    17.898631      23.2567     21.89518    9114.1551    1993.1818    1640.8543     1184.886    19.258855    159.50377   -50.214879   -4443.2997 
43324000    25.545218   -4698.6119   -4654.8282   -4698.6119            0    1920.5081    17.930597    23.246467    21.866676    9114.5338    1860.1274     1887.312    2014.0847   -11.782357   -105.81831    179.90807   -4399.5425 
43325000    24.706991    -4696.115    -4653.768    -4696.115            0    1989.3711    17.882053    23.282653    21.869413    9105.1471    2337.5015    1647.8956    1982.7162     177.0952   -37.845417    297.55076    -4389.601 
43326000    25.481006   -4697.8891   -4654.2155   -4697.8891            0    2014.8209    17.895423    23.228773     21.90849     9107.112    2256.3203    1841.3792    1946.7631   -417.74281    210.59362    31.896632   -4386.6113 
43327000    25.532676   -4699.4246   -4655.6624   -4699.4246            0    2053.6221    17.945303    23.251628     21.82307    9105.8396     2099.076    1753.9608    2307.8295    234.69998   -279.58249    207.44652   -4382.9428 
43328000    26.949951   -4695.2812   -4649.0899   -4695.2812            0    1875.2017    17.866678    23.264201    21.922964    9112.3676    1605.6736    1989.4811    2030.4505   -555.73818    277.93158   -109.99416   -4399.8858 
43329000    24.956998   -4697.3821   -4654.6066   -4697.3821            0    2056.0233    17.871481    23.266261    21.889121    9101.5523    1856.6268    2085.4394    2226.0038   -224.54836   -25.846749   -17.322096   -4381.6967 
43330000    26.123804   -4694.4428   -4649.6675   -4694.4428            0    1902.9141     17.80452     23.34521    21.909525    9106.6997    2336.9876    1825.3287    1546.4259   -47.819655   -321.66694    253.00881   -4396.9379 
43331000     24.57673   -4695.3088   -4653.1851   -4695.3088            0    2067.9511    17.941656    23.248036    21.821794    9102.0509    1989.0456    2036.2573    2178.5505   -436.42884   -207.13868    82.298085   -4378.6768 
43332000    24.482373   -4697.1192   -4655.1572   -4697.1192            0    2068.5845    17.836562    23.361931    21.842473    9101.6828    2135.9456    1543.0845    2526.7232   -12.143522     -78.8977    71.381616    -4380.576 
43333000    23.889218   -4696.9965   -4656.0512   -4696.9965            0    1915.6388    17.895016    23.268945    21.878333    9110.0971    1977.1532     1750.002    2019.7612   -186.31181    44.884459   -93.800907   -4401.5367 
43334000    26.924783   -4695.8361   -4649.6879   -4695.8361            0    1936.8926    17.862985    23.268875    21.913765    9108.4909    2070.6868    2028.2231    1711.7678    123.19654    42.816455    170.99291    -4392.395 
43335000    24.261515   -4695.3458   -4653.7624   -4695.3458            0    2022.2388    17.867531    23.222506    21.954958    9109.7455    2046.3364    2033.9278    1986.4521    26.382772    163.58276    179.45318   -4385.0952 
43336000    24.612706   -4695.6753   -4653.4899   -4695.6753            0     1983.317     17.91339    23.238354    21.877173     9106.979    1418.9716      2022.14    2508.8393   -266.95936   -127.88494    142.05293   -4390.0738 
43337000    25.127132   -4698.8419   -4655.7749   -4698.8419            0    1892.4265    17.949223    23.211862    21.885858    9118.4117    1671.3091    2209.9327    1796.0378   -36.267842   -158.74685     77.60095   -4404.1149 
43338000    25.970233   -4694.3599   -4649.8478   -4694.3599            0    2020.3217    17.933259    23.250127    21.841472    9106.8136    1800.1522    1971.0867    2289.7263   -211.43654    343.27119   -61.107378   -4381.5217 
43339000     24.32843   -4697.6156   -4655.9175   -4697.6156            0     2088.853    17.891544    23.285929    21.847593     9102.171    2198.4472    2259.3004    1808.8116   -134.63054    65.504188    36.647229    -4378.631 
43340000     25.19314   -4696.3843   -4653.2042   -4696.3843            0    1963.2785     17.90716    23.278437    21.879231     9120.373    2012.9558    1909.4039    1967.4758    141.46001    29.287399    53.908626    -4392.066 
43341000    23.322033   -4696.0468   -4656.0737   -4696.0468            0    1770.4025    17.903831    23.239369    21.905961    9114.4954    1782.4897     1600.766    1927.9518    -164.9494   -70.861921    510.69251   -4420.7419 
43342000    26.836048   -4698.0423   -4652.0462   -4698.0423            0    1906.6219    17.892859    23.265446     21.91259    9121.8897     1787.305     1857.555    2075.0058    -213.9022   -281.05101    50.731588   -4398.4018 
43343000    23.567851   -4695.3485   -4654.9541   -4695.3485            0    2207.9064     17.94515     23.27765    21.754687    9087.3879    1889.1837    2242.2791    2492.2563    140.75328     91.61856   -192.88363   -4362.3397 
43344000    25.609787   -4698.0577   -4654.1634   -4698.0577            0    2036.4184    17.884815    23.258562    21.885649    9103.8845     1732.418     2083.399    2293.4382   -65.145492   -7.2883021    253.28072   -4383.7864 
43345000    24.499474   -4698.0256   -4656.0343   -4698.0256            0    1664.6585    17.938722    23.246279    21.882394    9125.1448    1585.1458    1747.6706    1661.1593   -109.42232    124.04146    275.34264   -4434.5001 
43346000    25.985272   -4695.9841   -4651.4462   -4695.9841            0    2199.8638    17.897968    23.224711    21.899314    9103.0001    2348.6889    2205.8966     2045.006     151.0193   -297.40753    164.42896   -4359.3969 
43347000    25.433866   -4695.8257   -4652.2329   -4695.8257            0    1836.5447    17.820306    23.394315    21.857064    9112.0759    1926.8137    1269.0178    2313.8026    -52.74744   -273.05134    141.31582    -4408.174 
43348000     24.51801   -4699.3466   -4657.3236   -4699.3466            0    1941.0974    17.926947     23.27827    21.827495     9108.795    1990.5948    1692.1561    2140.5412    206.55012    198.03504    111.05264   -4399.4635 
43349000    25.096372   -4696.1304   -4653.1161   -4696.1304            0    2022.0419    17.926333    23.252896    21.854741     9109.912     1862.426     2198.604    2005.0958   -42.206156   -36.986463    63.803967   -4384.4702 
43350000    24.979006   -4698.1909   -4655.3777   -4698.1909            0    2086.2239    17.844157    23.276967    21.938337    9112.2605    2414.7535    2009.6193    1834.2988   -282.81778    166.41881    678.99642   -4378.1332 
43351000    25.773044   -4700.4899   -4656.3158   -4700.4899            0    1822.7774     17.86601    23.347747    21.835047    9108.0767    2092.2913    1477.4888    1898.5521   -41.290593   -17.451774   -290.66292   -4414.1927 
43352000    25.369813   -4695.4651   -4651.9821   -4695.4651            0    2083.1249    17.875005     23.29835    21.848942    9099.1695    2425.4644    1577.7089    2246.2016   -59.244203   -296.53416    335.03205   -4375.5471 
43353000    25.739655   -4695.6542   -4651.5373   -4695.6542            0    1921.7629    17.764209    23.345733    21.971999    9112.1941    2661.4718    1543.4744    1560.3426    -288.7106   -91.175735    6.6320101   -4396.1504 
43354000    25.009012   -4696.8345   -4653.9699   -4696.8345            0    1936.1321     17.89487    23.246975    21.900476    9110.6327    2161.4811    1982.3458    1664.5694    127.40971   -342.04655    -121.5669   -4396.7175 
43355000    26.637456   -4695.8249   -4650.1693   -4695.8249            0    2268.8259    17.850911    23.264971    21.898978    9094.6656       2152.5    2159.4267    2494.5511    129.48825   -146.46954    33.138438   -4349.2404 
43356000    24.311278   -4697.8524   -4656.1837   -4697.8524            0    1772.2187    17.893362     23.27542    21.894557     9118.547    1685.6331    2154.2592    1476.7639   -37.796623   -16.486924    59.265628   -4420.5058 
43357000    24.417358   -4696.8594   -4655.0089   -4696.8594            0    1907.1293    17.859906    23.248363     21.94801    9113.1119    1767.4729    1977.5586    1976.3564   -168.12509    97.866239    74.869228   -4401.5411 
43358000    25.689304   -4697.8166    -4653.786   -4697.8166            0    2014.9369    17.927063    23.189212    21.893786    9101.5636     1928.406    2334.5782    1781.8266    92.824439   -26.548159    66.246555   -4386.3294 
43359000    25.415113   -4697.6784   -4654.1178   -4697.6784            0    1996.6995    17.898672    23.253185    21.870344    9102.4617    1868.0712     1962.353    2159.6743   -40.837301    213.00158    216.73917   -4389.0558 
43360000    24.648275   -4697.2099   -4654.9636   -4697.2099            0     1960.693    17.785272    23.316714    21.980126    9115.0284    2395.8521    1957.5484    1528.6787   -280.92324   -381.18378   -33.590529   -4394.3221 
43361000    26.114895   -4698.2583   -4653.4983   -4698.2583            0    1951.8429    17.903091    23.250496    21.883641    9109.1916    2082.4401    1958.6316     1814.457     363.5987    68.772927    97.779234   -4394.1994 
43362000    25.817046   -4697.4285   -4653.1789   -4697.4285            0    2033.5068    17.910153    23.175784    21.928747    9102.2247    1845.9049    1912.6347    2341.9809    69.718055    148.45601    55.498996   -4383.2378 
43363000    24.669088   -4696.2227   -4653.9408   -4696.2227            0    1888.9419    17.895422    23.214167    21.943374    9115.8769    1916.8024    2083.0405    1666.9829    127.19195    8.5724435   -85.395042    -4402.814 
43364000    26.544954   -4694.9193   -4649.4221   -4694.9193            0    1996.0473    17.883762    23.311748    21.855288    9111.5077     2296.661    1848.0556    1843.4254    -268.8646   -70.300812   -27.598105   -4384.1834 
43365000    25.649977   -4695.3235   -4651.3603   -4695.3235            0    2018.3624     17.91293    23.321002    21.792622    9103.8128    1803.5829    1897.0818    2354.4223   -44.361375    42.555481    133.52018   -4383.3828 
43366000     24.02149   -4696.0626   -4654.8906   -4696.0626            0    2161.3948    17.846202    23.290056    21.904423    9104.3336    2421.9712    2190.0483    1872.1648    123.92436   -43.267257    116.24599   -4367.9063 
43367000    24.199055   -4698.3347   -4656.8583   -4698.3347            0    2198.2278    17.899719    23.286393    21.837003    9102.0972     1919.199    2158.5786    2516.9058    267.75068   -156.54819    187.13309   -4365.0551 
43368000    23.852262   -4697.0584   -4656.1764   -4697.0584            0    1719.6116    17.941168    23.315155    21.809896    9123.1034    1370.0376     1821.146    1967.6512    134.40345    269.20636    23.435401   -4427.3802 
43369000    25.421593   -4696.3772   -4652.8055   -4696.3772            0    2097.0482    17.928007    23.174874    21.903901    9100.6175    2361.2055    2267.3758    1662.5634   -293.39352   -23.867823   -44.704751   -4374.4786 
43370000     24.91691   -4697.1574   -4654.4507   -4697.1574            0    2001.8715    17.885631    23.287269    21.867285    9107.8883    1609.1252    2190.8077    2205.6815   -146.68642   -8.8778598    378.76232   -4388.5437 
43371000    25.196696   -4698.4145   -4655.2282   -4698.4145            0    1654.9135    17.897657    23.271058    21.894912    9119.1744    1649.3687      1612.32    1703.0517   -86.921596   -20.944956   -1.7576232    -4435.135 
43372000    24.681126   -4693.7933   -4651.4907   -4693.7933            0    2046.6337    17.859363    23.350531    21.847166    9110.8278     2099.095    2332.4115    1708.3947     16.61723   -127.91604    32.082702   -4379.5502 
43373000    24.448056   -4699.0322    -4657.129   -4699.0322            0    1733.2503    17.920032    23.296712    21.851884    9122.6771    1589.1225    1496.9539    2113.6745   -105.39755    -213.2696    103.24414   -4426.5289 
43374000    23.920117   -4692.5903    -4651.592   -4692.5903            0    2262.9422    17.904473    23.258067    21.847931    9097.9904    1940.1482    2370.8136    2477.8647   -299.20274   -100.12407    105.83097   -4351.3339 
43375000      25.4522   -4693.4218   -4649.7976   -4693.4218            0    1942.6136    17.848672    23.306839    21.918277     9117.918    2000.2244    2039.1757    1788.4408   -90.847689     146.4267    127.95968   -4391.4776 
43376000     25.15904   -4697.5486   -4654.4268   -4697.5486            0    1710.0248    17.849083     23.36773    21.871395    9122.3959    1990.5469    1658.8848    1480.6426    31.675352   -212.58845    118.87633   -4426.9238 
43377000    26.004788   -4696.9975   -4652.4262   -4696.9975            0    2005.5558    17.861141    23.326005    21.848482    9102.7125    2114.0217     2192.898    1709.7476   -309.11012    98.647524   -137.90219   -4386.1812 
43378000    24.696961   -4695.8573   -4653.5275   -4695.8573            0    1972.4851    17.942247    23.217033    21.863146    9107.4378     1467.438    1980.4088    2469.6084   -195.41759   -11.529919    88.564984   -4391.5368 
43379000    25.719472   -4694.1806   -4650.0983   -4694.1806            0    2097.5376    17.892437    23.293084    21.851883    9107.2101    2076.7775    2161.6324    2054.2029    69.671239    86.877496   -144.34019   -4371.5048 
43380000    23.998482   -4697.7144   -4656.5818   -4697.7144            0    2059.8648    17.941578    23.224782    21.847193      9103.49    2018.1797    1908.5292    2252.8855   -355.47291   -79.351923   -73.272373   -4383.1037 
43381000    24.295465   -4698.3806    -4656.739   -4698.3806            0    1834.9899    17.850941    23.311828    21.900933    9113.8116    2226.3303    1726.6939    1551.9455   -70.515708    48.384679    41.408679   -4412.8403 
43382000    25.403626   -4693.4934   -4649.9524   -4693.4934            0    2109.3922    17.904654    23.157985    21.972702    9110.6672    2138.8194    2348.5966    1840.7605     208.8098    10.008346    74.402063   -4369.6781 
43383000    24.647126   -4696.4714   -4654.2271   -4696.4714            0    1990.3811    17.937918    23.129218    21.954555    9108.7255    1699.4391    2214.5852     2057.119    20.524409    73.886489    103.72412    -4389.822 
43384000    25.269582   -4699.9308   -4656.6196   -4699.9308            0    2085.0859    17.877747    23.344773    21.800963    9098.6743    1871.7298    1973.2356    2410.2925   -159.17008    13.015682    101.99368   -4379.9395 
43385000    24.822772   -4699.6711   -4657.1257   -4699.6711            0    1986.7686    17.846918    23.367234    21.841057    9108.4439    2153.6763    1985.8296    1820.7997   -190.48578   -130.96795    169.77907   -4393.2087 
43386000    24.110432   -4695.7918   -4654.4673   -4695.7918            0    1708.6019    17.891445    23.305856    21.861198    9115.5823    1477.0295    1665.4006    1983.3757   -98.486777    397.38219   -159.24103   -4427.3233 
43387000    24.416136   -4697.8365   -4655.9881   -4697.8365            0    2174.2826    17.904085    23.317719     21.79132    9097.4933    2001.8508    2268.9526    2252.0442   -244.24134   -130.03454    70.806225   -4367.5095 
43388000    25.219477   -4696.6658   -4653.4405   -4696.6658            0    2016.8186    17.883166    23.287402    21.865968    9106.1364    1743.7618    1802.6199    2504.0739    43.536435   -151.23447    47.210559   -4385.5996 
43389000    23.070279   -4697.3585   -4657.8168   -4697.3585            0    1942.4577    17.923961    23.192591    21.890575    9099.9794    2287.3975    2058.8416    1481.1341    123.39305   -166.08424   -92.173849   -4400.0258 
43390000    25.270273   -4697.2705   -4653.9582   -4697.2705            0    2069.1749    17.883938    23.310765    21.849724     9108.894     2195.179    2028.2843    1984.0614    49.178616   -171.11604    363.14772   -4379.0809 
43391000    24.635966   -4697.8767   -4655.6515   -4697.8767            0    2196.5932    17.840809    23.245133    21.940954    9099.1764    2265.0219    2286.9372    2037.8205   -88.285323    339.88246   -40.414835   -4364.1589 
43392000    23.575425    -4695.971   -4655.5635    -4695.971            0    1812.7189    17.835089    23.368871    21.865905    9113.4005    1973.1886    1395.1815    2069.7867   -239.72004   -355.75961    245.34294   -4414.6358 
43393000    23.800134   -4697.0914   -4656.2988   -4697.0914            0    1748.6265    17.943274    23.320504    21.800318      9122.26    1814.9528    1728.3254    1702.6013   -165.39495    98.901107    117.44065   -4423.6636 
43394000    24.080801   -4694.3971   -4653.1234   -4694.3971            0    2038.3486    17.904294    23.251414    21.882602    9109.7308    1881.4357    2270.5356    1963.0747   -104.53756   -91.427807    185.79034   -4382.3164 
43395000    25.514365    -4695.023   -4651.2922    -4695.023            0    2180.9804    17.945132    23.239676    21.817382    9098.7003    2001.5997    2361.8438    2179.4976     256.2418     27.58536    52.483339   -4361.8866 
43396000    24.926768   -4697.4367    -4654.713   -4697.4367            0    1991.6147    17.923441     23.26392    21.836705    9105.2401     1607.955    1949.5349    2417.3541     109.6403   -119.16347    368.10356   -4390.2454 
43397000    23.586963    -4697.309   -4656.8817    -4697.309            0    2020.6919    17.814256    23.283411      21.9607    9108.7855    2121.3892    1993.9114    1946.7749   -126.44448    1.8551239   -209.71699   -4388.4484 
43398000    24.371141   -4698.8358   -4657.0645   -4698.8358            0     2280.852    17.835705    23.319765    21.855192    9090.1086    2091.7094    2208.7021    2542.1445    121.82722    5.5019562    7.6326698   -4354.6921 
43399000     26.81643   -4695.9873   -4650.0249   -4695.9873            0    1914.5335    17.855388    23.224078    21.977353    9113.4576    2158.8888    2345.2155    1239.4961   -173.11936   -168.62415    180.75224   -4395.5634 
43400000    24.997461   -4696.5009   -4653.6561   -4696.5009            0    2018.2728    17.799139    23.340579    21.914167    9104.0701    2154.7088    1535.0998    2365.0099   -7.3458072    125.02272   -166.11009   -4385.6829 
43401000    25.864265   -4695.3828   -4651.0523   -4695.3828            0    2062.1403     17.85565    23.288086     21.90448    9108.4068     2634.911    2005.7137    1545.7962    13.732085   -148.23223    164.62363   -4377.1243 
43402000    23.630355   -4697.3132   -4656.8116   -4697.3132            0    1984.3683    17.936645    23.239974    21.852393    9109.1077    1908.9242    1800.4795    2243.7014    283.96525    210.95062   -8.3973065   -4393.1942 
43403000    25.724947   -4697.4035   -4653.3118   -4697.4035            0     2120.997    17.914381    23.224231    21.895842    9109.7151    1981.2714    2353.3177    2028.4019   -304.07123    20.622593   -31.120442   -4371.5249 
43404000     25.14002   -4698.8607   -4655.7715   -4698.8607            0    1864.4024    17.897646    23.276422    21.869517    9110.6913    1768.4658    1718.6306    2106.1109   -113.36251   -18.002003    304.11104   -4408.0482 
43405000    23.655838   -4695.1947   -4654.6494   -4695.1947            0    1997.9188    17.937538    23.239731    21.860758    9112.9531    1942.8228    1948.8955    2102.0382    203.21672    311.13627   -166.97648   -4389.1198 
43406000    22.752317   -4696.8702   -4657.8735   -4696.8702            0    1914.4341    17.817743    23.218584     22.03017    9113.9423    2243.1705    1882.7174    1617.4145    345.37116   -143.29082    194.61948   -4403.4117 
43407000    24.848135   -4697.3462   -4654.7573   -4697.3462            0    2193.8028    17.876987    23.218179    21.927568    9101.4992     2184.819    2285.6257    2110.9637    -307.8646    87.170025    58.676762   -4363.5606 
43408000    25.036333   -4699.6941   -4656.7826   -4699.6941            0    1896.0764    17.967906    23.279959    21.793646    9116.1104    1923.4819    1671.0117    2093.7355   -87.026454    -103.6324    326.31033    -4404.701 
43409000    24.457485   -4696.4544   -4654.5351   -4696.4544            0    1986.2633    17.869583    23.315479    21.856562    9106.2715    1990.4137    2192.6746    1775.7016   -66.560908    133.99483    54.262074   -4390.7482 
43410000    25.800102   -4695.1721   -4650.9516   -4695.1721            0    1931.7138    17.885418    23.286169      21.8827    9113.7698    1499.9463    2074.2795    2220.9158    67.654481   -352.62987   -171.62824   -4394.1979 
43411000    24.032537   -4697.1784   -4655.9875   -4697.1784            0    2022.2395    17.849488    23.273117    21.899644    9097.4017     1984.126    2165.4299    1917.1625    252.02677    153.20845    151.57014   -4387.6843 
43412000    23.612889   -4695.7134   -4655.2417   -4695.7134            0    2307.4984    17.799063     23.36857    21.878863    9100.2643    2375.0203    2035.8007    2511.6742    -39.93777   -137.17631    17.513299    -4348.995 
43413000    25.638108   -4696.7458   -4652.8029   -4696.7458            0     2298.043     17.88665    23.295965    21.814476    9089.8036    2343.7693    2257.7045    2292.6552   -57.471723   -122.78985   -415.95179   -4348.1618 
43414000    25.071428   -4697.8509   -4654.8794   -4697.8509            0    1584.2311    17.850947    23.294694    21.948188    9126.7665    1785.8124    1649.2668    1317.6142   -114.07016    274.48554    171.86675    -4444.011 
43415000    23.865631   -4694.5344   -4653.6295   -4694.5344            0    2066.0203    17.964311    23.195752    21.848413    9104.1395    1548.1063     2267.883    2382.0715    130.16091   -95.408499   -116.25996   -4379.3146 
43416000    24.848369   -4695.4068   -4652.8175   -4695.4068            0    2081.3599    17.890621    23.253094    21.897208    9109.5083     2028.228    2392.6039    1823.2478   -611.14927    128.15324    137.68506   -4376.3029 
43417000    24.389849   -4698.3329   -4656.5295   -4698.3329            0    2223.9491     17.86403    23.291638    21.865014    9097.6504    1961.5879    2184.8269    2525.4325    484.31442   -184.46777    14.408718   -4361.4562 
43418000    25.780464   -4693.9281   -4649.7412   -4693.9281            0    2008.4732     17.91753     23.29933    21.839346    9117.1939    1831.6614    2236.4956    1957.2626   -211.80389    82.929157   -74.172203   -4382.6847 
43419000    26.676151   -4697.9643   -4652.2422   -4697.9643            0    1602.8794    17.902398    23.242262     21.92846    9124.2614    1438.7439    2002.4868    1367.4075   -269.80312   -20.401436   -16.027961   -4438.9503 
43420000    25.924757   -4698.1775   -4653.7434   -4698.1775            0    2151.2172    17.865367    23.249651     21.91595    9103.0864    2144.6891    2393.9037    1915.0587   -103.33692   -165.86842    160.00377   -4368.1495 
43421000    24.605255   -4696.3087   -4654.1361   -4696.3087            0    1818.6763     17.93567    23.244876    21.873155    9119.1899    1609.3932    1589.1847    2257.4509    57.682085    182.81772   -60.043262   -4412.2631 
43422000    24.664675   -4696.8343   -4654.5599   -4696.8343            0    2029.1087    17.976265    23.222102    21.821399    9109.2702     1876.148    1957.1018    2254.0763   -157.06436    96.282938   -165.05568   -4384.9941 
43423000    25.157085   -4697.9377   -4654.8193   -4697.9377            0    1956.1916    17.891477    23.267094    21.891909    9113.2223    2162.6253    1464.0643    2241.8852   -264.84227    109.27409   -26.329747   -4394.8277 
43424000    23.611471   -4695.7326   -4655.2634   -4695.7326            0    2079.7976    17.891823    23.255301    21.876378    9102.3172    2554.1776    1932.6364    1752.5786    85.891392    39.255662   -25.038437   -4379.1745 
43425000    25.978047   -4697.7858   -4653.2603   -4697.7858            0    1906.3268    17.845575    23.286641    21.923246    9110.5004    2247.3795     1862.567     1609.034   -4.7843596   -50.652567     142.5549   -4399.9718 
43426000     26.31861   -4700.4641   -4655.3549   -4700.4641            0    1809.6596    17.891115    23.294312    21.872123    9115.4524    1902.4801    1454.9499    2071.5487   -208.05363    56.596438    164.08979   -4414.7796 
43427000     25.17177   -4693.8572   -4650.7137   -4693.8572            0    2070.3092    17.919792     23.20812    21.887767    9102.7873     2054.769     2325.946    1830.2125    213.36913    51.661738    61.245165   -4375.8702 
43428000    25.717179   -4696.1743   -4652.0959   -4696.1743            0    1806.0936    17.898898    23.256289    21.890264    9112.0835    1741.3381    1773.0029    1903.9398   -506.84431    110.47319    232.37913   -4412.0835 
43429000    24.568014   -4696.4735   -4654.3648   -4696.4735            0    2040.3581    17.916587    23.224266    21.869677    9099.9633    1522.5156    2098.6793    2499.8793    52.505181    -312.6749    145.12183   -4383.5815 
43430000    25.261717   -4697.9244   -4654.6267   -4697.9244            0    1946.8326    17.904846     23.25523    21.872479    9107.2911    1456.9269    2512.4294    1871.1416   -99.688558    352.14998    296.58559   -4396.0474 
43431000    24.813586   -4695.7579   -4653.2283   -4695.7579            0    2108.1472    17.867284    23.335356    21.821857    9098.3929    1669.5352    2195.5475     2459.359   -101.13148    63.358637     99.45661   -4373.4967 
43432000     26.34017   -4694.2872    -4649.141   -4694.2872            0    2075.2185    17.846707    23.297099    21.895482     9103.627    1952.1448    2073.5055    2200.0051    51.839412   -74.309497   -136.33016   -4373.6204 
43433000    24.416692   -4697.5577   -4655.7083   -4697.5577            0     1796.269    17.821607    23.295592    21.950632    9113.1319    2024.6866     1913.827    1450.2932   -157.81656   -204.30632    312.56152    -4416.974 
43434000    24.510309   -4698.8726   -4656.8628   -4698.8726            0    1768.1155      17.9112    23.287821    21.858375    9117.4086    1350.9731    1865.4085    2087.9647    230.24029    163.96354   -347.03672   -4421.7599 
43435000    26.319839   -4696.4289   -4651.3176   -4696.4289            0    1970.7961    17.894995    23.300259    21.827117    9100.9916    1835.7283    1865.7223    2210.9376   -212.66456   -37.598345    283.15697   -4389.7365 
43436000     25.80981   -4697.2586   -4653.0214   -4697.2586            0     1866.182    17.914303     23.21045    21.911058    9110.5971    1905.0949    2007.3856    1686.0656    42.351015    99.541258     5.062781   -4405.0642 
43437000     24.55831   -4696.9573   -4654.8652   -4696.9573            0     2105.399    17.845876    23.329667    21.858934    9100.7124    1919.5354    2043.9597    2352.7019    -230.8498   -138.84049    70.959982    -4375.427 
43438000    25.763535   -4695.0611   -4650.9033   -4695.0611            0    2217.7551    17.937268    23.219734    21.851444    9101.0954    1714.4139    2269.4936    2669.3578    64.697682    17.859446    314.38266   -4356.5403 
43439000    24.174938   -4696.3567   -4654.9217   -4696.3567            0    2262.8032    17.832224    23.234953    21.950384    9094.7223    2495.5826    2377.8872    1914.9398    -121.0232    13.625553    83.543486   -4354.7898 
43440000    25.579724   -4693.5351   -4649.6923   -4693.5351            0    2047.9227    17.901327    23.215592    21.927494    9112.8455    1951.3559    2274.8744    1917.5378   -50.757652    258.69169    85.305659   -4377.5203 
43441000    25.681862   -4697.1292   -4653.1114   -4697.1292            0    2038.2088    17.923848    23.238346    21.870711    9109.6015    1988.1072    2152.4189    1974.1003    425.78507   -246.59199   -10.671104   -4382.3268 
43442000    25.303989   -4695.1968   -4651.8267   -4695.1968            0    2129.9574    17.834657    23.294124    21.908302    9101.6443    2583.6597    2062.7155    1743.4969   -276.27691   -32.003252   -138.54451   -4369.1001 
43443000    25.572167   -4697.1392   -4653.3094   -4697.1392            0    2278.2933    17.887515    23.236869      21.8966     9101.318    2357.1396    2505.8263    1971.9139    173.21112   -62.161819    175.00422   -4350.9038 
43444000     25.86885   -4695.0322   -4650.6938   -4695.0322            0    1979.9978    17.896781    23.239452    21.890689    9104.5866    1671.2202    1881.9901     2386.783   -383.55714   -78.806765    151.43925   -4387.7876 
43445000    23.282519   -4694.3125    -4654.407   -4694.3125            0    2069.8023    17.978745    23.202975    21.832289    9107.5658    1742.6249    2001.5591     2465.223    129.98088   -309.23504     32.00572   -4379.4866 
43446000    26.195509   -4697.8496   -4652.9514   -4697.8496            0      1741.17    17.877554    23.269826    21.919836    9118.8176    1829.1748    1776.6321    1617.7031   -185.15701   -31.726084    109.23669   -4421.3956 
43447000    25.535224   -4696.7871   -4653.0206   -4696.7871            0     2040.735    17.936272    23.148471    21.934956    9107.3339    2007.1114    2566.1629    1548.9306   -180.43316    131.42136    139.52943   -4381.9679 
43448000    25.607053   -4696.8281   -4652.9385   -4696.8281            0    2038.1619    17.839481    23.306491     21.90151    9106.1159    2028.0925    1784.3312    2302.0621     299.9599   -161.32991    70.672204   -4382.2637 
43449000    25.190526   -4694.7396   -4651.5639   -4694.7396            0    2022.7432    17.906279    23.388991    21.742404    9105.9317    2185.0274    1538.4993    2344.7028    9.9789218    369.48029    352.37903   -4382.9422 
43450000    25.665833   -4698.3841   -4654.3937   -4698.3841            0    1937.9904    17.856227     23.37074    21.832708     9111.078    1878.8894    1632.1071    2302.9749    -258.0274   -175.45447   -9.9956205   -4396.8818 
43451000    25.133953   -4696.8074   -4653.7286   -4696.8074            0    2040.1357    17.898102    23.290859    21.860455    9112.7966    1809.6998    2344.1394    1966.5679   -283.43598   -180.45754   -169.63283    -4382.593 
43452000    25.931334   -4696.0035   -4651.5581   -4696.0035            0    2161.1356    17.866773    23.279083    21.892682    9105.6502    2346.8478    2475.6104    1660.9487    69.381677     105.4999    285.90449   -4364.5667 
43453000    24.399643   -4697.5028   -4655.6827   -4697.5028            0     1900.954    17.907145    23.225335    21.911359    9112.9221    1690.1719    1909.1903    2103.4998   -256.51137    5.8625006    25.220969   -4403.0409 
43454000    24.086612   -4696.0736     -4654.79   -4696.0736            0    1959.1203    17.884464    23.293749    21.874113    9112.6725    2014.0972     1858.848    2004.4156    267.67015    146.65743    479.81464   -4394.4249 
43455000    24.749035   -4699.5403   -4657.1213   -4699.5403            0     1861.699    17.912513    23.235783    21.902468    9116.0539    1540.9984    1910.2655    2133.8331   -568.88585   -182.97441   -58.372305   -4409.6116 
43456000    25.141425   -4698.7051   -4655.6135   -4698.7051            0    2139.8069    17.826966    23.301865    21.905234    9099.4685    1926.4674     2136.279    2356.6743    344.06673     8.758131   -49.163917   -4371.6474 
43457000    24.349025   -4695.5292   -4653.7958   -4695.5292            0    1978.1833     17.96612    23.248894    21.804055    9107.3885     1435.187    2195.8783    2303.4845    58.339617    147.21088    105.80083   -4391.0497 
43458000    25.873943   -4697.0994   -4652.7523   -4697.0994            0      1817.56    17.949762    23.177249    21.922897    9120.4975    1402.7512    2646.5883    1403.3406    215.49094   -136.65362   -76.336381    -4410.993 
43459000    23.898717   -4694.2585   -4653.2969   -4694.2585            0    2178.7516    17.888746    23.248957    21.874684    9097.5647    1643.1774    2404.3185    2488.7589   -406.06333    301.35527    393.21514   -4364.2231 
43460000    25.373527   -4694.8359   -4651.3465   -4694.8359            0    1949.4653    17.933751    23.225482    21.880009    9113.4617    1616.0473    2330.6403    1901.7084   -123.08585   -85.179789   -11.622183   -4392.2421 
43461000    25.101288    -4696.771   -4653.7483    -4696.771            0    2317.4767    17.888991    23.247896    21.862723    9092.2997    2171.8067    2273.4805    2507.1429    76.811351   -85.491083   -96.682075   -4346.4465 
43462000     25.25646   -4696.1237    -4652.835   -4696.1237            0    1885.2097    17.832827    23.288682    21.950234    9115.9987    1640.9623    2375.7984    1638.8685   -93.107014   -189.10371   -30.019354   -4402.2011 
43463000    25.141303   -4695.9188   -4652.8274   -4695.9188            0    1943.9845    17.905805    23.309395    21.857584    9122.7763    1545.8509    2192.8593    2093.2433   -135.43334    -192.1464   -459.96362   -4394.1874 
43464000    23.787639   -4695.8167   -4655.0455   -4695.8167            0    2017.3074     17.84159    23.274944    21.932329    9107.6633    1980.1686    2155.3113    1916.4422   -263.22649   -116.57043    55.017901   -4387.0948 
43465000    25.182362   -4701.8341   -4658.6724   -4701.8341            0    2041.0839    17.883573    23.235322    21.908743    9103.7525    1751.4193    2582.9849    1788.8475    97.403966   -32.493721    77.449872   -4387.6799 
43466000    24.690239   -4698.0119   -4655.6937   -4698.0119            0    1988.3163    17.958788    23.214811     21.85543    9111.7448    1587.8043    2512.6534    1864.4913    -16.44047    -68.13609    233.75434   -4391.4754 
43467000    24.383708   -4697.5363   -4655.7435   -4697.5363            0    1884.3059    17.943059    23.162053     21.93176    9114.7977     1730.402    2009.7228     1912.793    254.56715    42.117822    74.273264   -4405.2627 
43468000    25.612494   -4697.9499   -4654.0509   -4697.9499            0    1986.9841    17.923025    23.224594    21.894704     9113.779    1607.1144    2028.7768     2325.061   -134.29703   -156.79599   -99.614527   -4389.9507 
43469000    24.916775   -4695.5776   -4652.8711   -4695.5776            0    1941.3847    17.899084    23.254632    21.895603    9113.7517    1789.2019    2229.5687    1805.3835   -147.88557    25.157385    323.17872   -4394.8325 
43470000      24.8022   -4698.6001     -4656.09   -4698.6001            0    2175.5169     17.88728    23.342226    21.806295     9104.759    1802.2188    2054.9287    2669.4032    301.93259    215.92626   -196.33937   -4367.2171 
43471000    25.486113   -4697.2053    -4653.523   -4697.2053            0    2112.2227    17.803272    23.321984     21.93204    9106.3502    2513.3649    1919.8695    1903.4336    17.285743   -41.208643    142.69608   -4373.0055 
43472000    24.852906   -4697.8503   -4655.2533   -4697.8503            0    1958.9177    17.920771    23.270855    21.831472    9104.4151    1996.5072    2030.0319    1850.2141   -287.82002   -106.48512    39.816372    -4395.151 
43473000    24.928671   -4698.4974   -4655.7705   -4698.4974            0    1918.1525    17.916822    23.309821    21.814873    9110.7183    2170.0963    1310.3341    2274.0272    37.960133   -117.89649   -182.44562   -4400.9047 
43474000    23.881536   -4694.1635   -4653.2314   -4694.1635            0    2359.8812    17.914268    23.293562    21.790849    9093.0404    2542.7974    1884.3971    2652.4491    200.27503    4.1025542    87.240021   -4340.2812 
43475000    24.746998   -4697.0931   -4654.6776   -4697.0931            0    1874.8394    17.788704    23.323661    21.963391    9112.5607    2502.3222    1672.9692    1449.2268   -264.22353    430.18458   -177.06667   -4405.5164 
43476000    24.840886   -4696.1919   -4653.6155   -4696.1919            0    2057.2644     17.93941    23.293923    21.800724    9110.0703     2091.946    1740.7525    2339.0947   -173.63014   -36.394723    202.66326   -4380.2852 
43477000    26.963861   -4694.9496   -4648.7345   -4694.9496            0    1873.6992    17.884962    23.298536    21.884099    9118.9602    2158.0181     1622.789    1840.2906   -5.4677795    59.903169   -49.642705   -4399.5499 
43478000    26.664643   -4696.3772    -4650.675   -4696.3772            0    2161.8944    17.909537     23.19945     21.89819      9098.51    2321.0177    2087.3929    2077.2725   -79.752476    -90.95715   -219.08665   -4363.8079 
43479000    24.858874   -4694.6715   -4652.0642   -4694.6715            0     2147.939    17.933828    23.227807    21.849101    9101.5377    1895.7581    2064.8488    2483.2101    341.01383   -35.535638    17.417109   -4366.9541 
43480000    26.749094   -4696.6479   -4650.8009   -4696.6479            0    2012.4594    17.924473    23.224861    21.897994    9115.9903    1835.5046    2199.0792    2002.7943    -224.2536   -237.81758      43.7712   -4383.2497 
43481000    26.435876   -4697.6104   -4652.3002   -4697.6104            0    1815.1213    17.922851    23.229508    21.901494    9118.4463    1878.1993    2192.5606    1374.6038   -78.452545   -208.36748   -58.861627   -4410.9196 
43482000    25.005966   -4695.9665   -4653.1072   -4695.9665            0    2218.0337    17.871715    23.319986    21.838508    9101.5941    2213.1185    2140.4392    2300.5434   -310.68871   -183.96152    177.55237   -4358.6911 
43483000    24.161644   -4696.5385   -4655.1263   -4696.5385            0    1918.6174    17.886729    23.371143    21.806516    9115.8496    1795.5202    1536.6823    2423.6497    2.2096558   -14.660143   -220.40983   -4400.0551 
43484000    25.288695   -4696.1497   -4652.8058   -4696.1497            0    2004.3337    17.868221      23.3291    21.857102    9111.1223     2086.221     2155.455    1771.3249   -341.58039    177.80996    137.78838   -4386.4772 
43485000    24.270246    -4696.995   -4655.3967    -4696.995            0    2077.3566    17.846401    23.248887    21.944217    9104.8521    1895.2272    1921.6302    2415.2124   -131.24183   -143.93983      169.509    -4379.555 
43486000    24.633024   -4696.7771   -4654.5569   -4696.7771            0    1835.5134    17.863019    23.306346    21.884772    9111.1056    2274.2094    1800.3277    1432.0033   -48.389627      105.283   -10.101672    -4410.661 
43487000    25.514658   -4698.4245   -4654.6933   -4698.4245            0    2104.9859    17.882711    23.249197    21.898987    9104.6935     1942.136    1926.9452    2445.8766    4.9616006   -180.10599    6.5080493   -4375.1877 
43488000    25.271732   -4695.4077   -4652.0928   -4695.4077            0    2136.8921    17.867488    23.291827    21.871351    9102.1225     2135.124    2283.8189    1991.7333    378.09115    238.03464   -26.418447   -4368.4308 
43489000    24.954808   -4695.6627    -4652.891   -4695.6627            0    1932.1087    17.867958    23.312895     21.85837    9105.1878    1974.0912    2063.9085    1758.3263      128.607   -130.96919    -29.01826   -4396.3267 
43490000    25.254356    -4697.008   -4653.7229    -4697.008            0    2019.2891    17.916496    23.243916    21.876376    9110.4068    1716.0296    2210.3206    2131.5171   -353.14527    94.212343    136.99648   -4385.4282 
43491000    24.074249    -4697.376   -4656.1135    -4697.376            0    1840.4492    17.846409    23.362273     21.87694    9121.2107     2023.635     1752.722    1744.9906    103.19822   -287.67933    91.291944   -4411.2906 
43492000    24.972065    -4697.175   -4654.3737    -4697.175            0    2013.9024    17.943186    23.256126    21.840513    9113.8059     2114.842     1834.656    2092.2092   -387.44229     59.67722    63.617719   -4386.6949 
43493000    25.669224   -4694.4232    -4650.427   -4694.4232            0    2235.1259    17.921305    23.217964    21.873122    9101.3234    2384.4039     2122.521    2198.4528    108.60001   -3.6250642    201.33439    -4353.751 
43494000    24.872184   -4694.9529   -4652.3228   -4694.9529            0    1980.7259    17.854454    23.325593    21.878659    9111.7119    2023.1331    1615.9781    2303.0666   -427.58592   -28.852955    172.05792   -4389.1141 
43495000    24.698678    -4694.922   -4652.5893    -4694.922            0    1782.7775    17.896435    23.259318    21.936687    9131.3403    2142.6192    1805.0432    1400.6701    56.131042    51.987186     236.1871   -4415.1746 
43496000    25.379618   -4697.0908   -4653.5911   -4697.0908            0    2131.3292    17.868671    23.219028    21.937585    9101.7538    2458.5983    2244.2363    1691.1531    179.43176    29.114164    163.18038    -4370.679 
43497000    24.738996   -4697.4642   -4655.0624   -4697.4642            0    1865.6359    17.904884    23.228226    21.920072    9116.5294    1705.3982    1895.5659    1995.9437   -219.46781   -58.086298    -136.1679   -4407.0164 
43498000    26.113843   -4696.0488   -4651.2905   -4696.0488            0    2108.9551    17.927968    23.209735    21.903376    9114.0692     1746.792    2277.4485    2302.6247    272.00808    115.09425    115.14608   -4370.9696 
43499000    24.794802   -4697.7835    -4655.286   -4697.7835            0    2047.0455     17.88651    23.309425    21.838346    9104.9362    2230.2851    1914.3909    1996.4605   -421.30908   -140.75016    30.555695   -4383.4667 
43500000      25.3211   -4693.4197   -4650.0202   -4693.4197            0    1768.1876    17.866633    23.258488    21.947862    9120.4534    1536.6207    2116.3984    1651.5437   -184.86379    -81.35812    310.29354   -4414.8293 
Loop time of 317.265 on 64 procs for 250000 steps with 864 atoms

Performance: 136.164 ns/day, 0.176 hours/ns, 787.985 timesteps/s
388.9% CPU use with 16 MPI tasks x 4 OpenMP threads

MPI task timing breakdown:
Section |  min time  |  avg time  |  max time  |%varavg| %total
---------------------------------------------------------------
Pair    | 24.008     | 26.099     | 28.434     |  30.7 |  8.23
Bond    | 1.5606     | 1.7093     | 1.8762     |   7.4 |  0.54
Kspace  | 169.98     | 173.88     | 178.56     |  21.0 | 54.80
Neigh   | 0.05278    | 0.061028   | 0.066098   |   1.6 |  0.02
Comm    | 39.664     | 43.878     | 49.615     |  40.8 | 13.83
Output  | 0.47763    | 0.47801    | 0.47937    |   0.1 |  0.15
Modify  | 52.73      | 57.724     | 63.712     |  45.9 | 18.19
Other   |            | 13.44      |            |       |  4.24

Nlocal:        54.0000 ave          61 max          46 min
Histogram: 3 1 2 0 1 1 1 1 2 4
Nghost:        2590.81 ave        2620 max        2566 min
Histogram: 1 5 2 0 0 2 0 3 1 2
Neighs:        13331.5 ave       15134 max       11570 min
Histogram: 4 2 0 1 1 0 0 3 4 1

Total # of neighbors = 213304
Ave neighs/atom = 246.87963
Ave special neighs/atom = 2.0000000
Neighbor list builds = 250
Dangerous builds = 0

unfix		3
unfix		2
unfix		1

write_data	data.final.${pid} nocoeff
write_data	data.final.1 nocoeff
System init for write_data ...
PPPM initialization ...
  extracting TIP4P info from pair style
  using 12-bit tables for long-range coulomb (../kspace.cpp:340)
  G vector (1/distance) = 0.3721114
  grid = 24 27 25
  stencil order = 5
  estimated absolute RMS force accuracy = 0.0031158015
  estimated relative force accuracy = 9.3831437e-06
  using double precision FFTW3
  3d grid and FFT values/proc = 6300 1296
Last active /omp style is kspace_style pppm/tip4p/omp

write_restart   restart.lmp.${pid}
write_restart   restart.lmp.1
System init for write_restart ...
PPPM initialization ...
  extracting TIP4P info from pair style
  using 12-bit tables for long-range coulomb (../kspace.cpp:340)
  G vector (1/distance) = 0.3721114
  grid = 24 27 25
  stencil order = 5
  estimated absolute RMS force accuracy = 0.0031158015
  estimated relative force accuracy = 9.3831437e-06
  using double precision FFTW3
  3d grid and FFT values/proc = 6300 1296
Last active /omp style is kspace_style pppm/tip4p/omp
Total wall time: 0:05:17
