LAMMPS (30 Jul 2021)
  using 1 OpenMP thread(s) per MPI task
package omp 0
using multi-threaded neighbor list subroutines
echo both

include		in.partitions
variable        pid world 0
include		in.temp
variable        temperature equal 249.72
variable	tempDamp equal 100.0
include		in.pressure
variable        pressure equal 11375.0
variable        pressureDamp equal 1000.0 # This is 1 ps
include		in.seed
variable        seed world 745823

units		real
atom_style	full

read_restart	restart.lmp.${pid}
read_restart	restart.lmp.0
Reading restart file ...
  restart file = 30 Jul 2021, LAMMPS = 30 Jul 2021
  restoring atom style full from restart
  orthogonal box = (0.16742103 0.13205916 0.12291302) to (19.832580 19.867942 20.577085)
  4 by 4 by 4 MPI processor grid
  restoring pair style lj/cut/tip4p/long/omp from restart
  restoring bond style harmonic/omp from restart
  restoring angle style harmonic/omp from restart
  972 atoms
  648 bonds
  324 angles
Finding 1-2 1-3 1-4 neighbors ...
  special bond factors lj:    0        0        0       
  special bond factors coul:  0        0        0       
     2 = max # of 1-2 neighbors
     1 = max # of 1-3 neighbors
     1 = max # of 1-4 neighbors
     2 = max # of special neighbors
  special bonds CPU = 0.025 seconds
  read_restart CPU = 0.134 seconds
include 	in.setup
variable	out_freq equal 1000
variable	out_freq2 equal 10000
variable	out_freq3 equal 1000

timestep	2.0

neigh_modify    delay 7 every 1

include		in.tip4p
# This is TIP4P/Ice

# create groups ###
group ox type 2
324 atoms in group ox
group hy type 1
648 atoms in group hy

# set charges - beside manually ###
set group ox charge -1.1794
Setting atom values ...
  324 settings made for charge
set group hy charge 0.5897
Setting atom values ...
  648 settings made for charge

# ### TIP3P Potential Parameters ###
pair_style lj/cut/tip4p/long/omp 2 1 1 1 0.1577 8.5
pair_coeff 1 1*2 0.000 0.000
pair_coeff 2 2 0.21084 3.1668
bond_style  harmonic
bond_coeff  1 450 0.9572
angle_style harmonic
angle_coeff 1 55 104.52
kspace_style pppm/tip4p/omp 1.0e-5
pair_modify tail yes

thermo          ${out_freq}
thermo          1000
thermo_style    custom step temp pe etotal epair emol press lx ly lz vol pxx pyy pzz pxy pxz pyz enthalpy

restart 	${out_freq3} restart.lmp.${pid} restart2.lmp.${pid}
restart 	1000 restart.lmp.${pid} restart2.lmp.${pid}
restart 	1000 restart.lmp.0 restart2.lmp.${pid}
restart 	1000 restart.lmp.0 restart2.lmp.0


include         in.dump
dump            myDump all atom ${out_freq2} dump.water.${pid}
dump            myDump all atom 10000 dump.water.${pid}
dump            myDump all atom 10000 dump.water.0
dump            myDump2 all dcd ${out_freq2} dump.dcd
dump            myDump2 all dcd 10000 dump.dcd
dump_modify     myDump append yes
dump_modify     myDump2 append yes


variable natoms 	equal  "count(all)"                        # NUMBER ATOMS
variable H      	equal  "enthalpy/v_natoms"                 # ENTHALPY-per-atom
variable Vol      	equal  "vol/v_natoms"                 # volume-per-atom
fix AVG all 		ave/time ${out_freq} 1 ${out_freq} v_Vol v_H file vol_enthalpy.dat
fix AVG all 		ave/time 1000 1 ${out_freq} v_Vol v_H file vol_enthalpy.dat
fix AVG all 		ave/time 1000 1 1000 v_Vol v_H file vol_enthalpy.dat


timer           timeout 02:55:00 every 1000
New timer settings: style=normal  mode=nosync  timeout=02:55:00

fix 		1 all shake 1e-6 200 0 b 1 a 1
       0 = # of size 2 clusters
       0 = # of size 3 clusters
       0 = # of size 4 clusters
     324 = # of frozen angles
  find clusters CPU = 0.049 seconds
fix             2 all nph aniso ${pressure} ${pressure} ${pressureDamp}
fix             2 all nph aniso 11375 ${pressure} ${pressureDamp}
fix             2 all nph aniso 11375 11375 ${pressureDamp}
fix             2 all nph aniso 11375 11375 1000
fix             3 all temp/csvr ${temperature} ${temperature} ${tempDamp} ${seed}
fix             3 all temp/csvr 249.72 ${temperature} ${tempDamp} ${seed}
fix             3 all temp/csvr 249.72 249.72 ${tempDamp} ${seed}
fix             3 all temp/csvr 249.72 249.72 100 ${seed}
fix             3 all temp/csvr 249.72 249.72 100 745823


run             250000
PPPM initialization ...
  extracting TIP4P info from pair style
  using 12-bit tables for long-range coulomb (../kspace.cpp:340)
  G vector (1/distance) = 0.37248692
  grid = 24 24 24
  stencil order = 5
  estimated absolute RMS force accuracy = 0.0034730919
  estimated relative force accuracy = 1.0459113e-05
  using double precision FFTW3
  3d grid and FFT values/proc = 2197 216
Last active /omp style is kspace_style pppm/tip4p/omp
Neighbor list info ...
  update every 1 steps, delay 7 steps, check yes
  max neighbors/atom: 2000, page size: 100000
  master list distance cutoff = 10.8154
  ghost atom cutoff = 10.8154
  binsize = 5.4077, bins = 4 4 4
  1 neighbor lists, perpetual/occasional/extra = 1 0 0
  (1) pair lj/cut/tip4p/long/omp, perpetual
      attributes: half, newton on, omp
      pair build: half/bin/newton/omp
      stencil: half/bin/3d
      bin: standard
Per MPI rank memory allocation (min/avg/max) = 9.225 | 9.228 | 9.230 Mbytes
Step Temp PotEng TotEng E_pair E_mol Press Lx Ly Lz Volume Pxx Pyy Pzz Pxy Pxz Pyz Enthalpy 
29500000     253.2894   -4685.0356   -4196.5457   -4685.0356            0    11326.781    19.665159    19.735883    20.454172    7938.4537    11944.052    11795.601    10240.692    999.02514   -541.21749    328.92701   -2885.1966 
29501000    247.20625   -4715.9102   -4239.1521   -4715.9102            0     11441.05    19.436222    19.931045     20.37752    7893.9295    13556.836    9571.8636     11194.45    127.24029   -327.77879    465.18616   -2922.0028 
29502000    245.62432   -4715.4738   -4241.7667   -4715.4738            0    9802.5169    19.800339    19.771828    20.407854    7989.4482    9720.7226    10401.871    9284.9571    648.36263    916.25049    1401.7686   -3099.5979 
29503000    238.03152   -4713.4073   -4254.3435   -4713.4073            0    11120.619    19.563981    19.922757    20.425641    7961.2699    12039.952    9586.6848    11735.219   -643.42985   -908.64941    61.366378   -2963.1624 
29504000    244.93063   -4730.0061   -4257.6368   -4730.0061            0    11626.442    19.651649       19.451    20.458058    7819.9746    10868.696    13137.981    10872.649   -398.66138    1287.1247    295.22214    -2931.684 
29505000    243.76113   -4698.4345   -4228.3207   -4698.4345            0    10953.466    19.325918    20.011989    20.420783    7897.7389     13734.88    8691.0483    10434.469    -79.62722    1912.5383    1001.7771   -2966.6959 
29506000    265.08643   -4732.5136   -4221.2721   -4732.5136            0    10449.167     19.66477    19.754431    20.425713    7934.7022    11144.886    11006.715     9195.902    609.93398    1642.8582   -268.86135   -3012.0997 
29507000    247.03415   -4704.7692    -4228.343   -4704.7692            0    11220.659    19.634437    19.799299    20.326256    7901.7933    10699.024    11216.296    11746.657    465.70043    559.27097   -151.03552   -2935.2794 
29508000    259.84613   -4724.0463   -4222.9112   -4724.0463            0    11145.249     19.66919    19.746801    20.329324    7895.9819    10912.839    11853.184    10669.726    167.35081    1604.3173    1563.4286   -2939.4822 
29509000     270.5913   -4726.7668   -4204.9087   -4726.7668            0     11146.53    19.498713    19.689995    20.674869    7937.6933    11367.879    11666.055    10405.656     271.4784    1342.7806   -1590.4289   -2914.5517 
29510000     253.5371   -4692.6701   -4203.7025   -4692.6701            0    14179.841    19.666846    19.697639    20.242271    7841.6624    14013.815    14513.589     14012.12   -212.39899    -324.7946    2566.9631   -2582.0589 
29511000    249.05822    -4730.126   -4249.7963    -4730.126            0    10076.635    19.622711    19.877027    20.440518    7972.6428     11201.67    8682.6055     10345.63   -27.965025    47.401797   -1233.4868   -3078.1576 
29512000    257.11717    -4677.642   -4181.7699    -4677.642            0    11687.097    19.891241    19.581154    20.277167    7897.8239    10823.549    13309.656    10928.085    1194.3669    28.403788   -112.73017   -2835.6307 
29513000      254.066   -4678.3172   -4188.3295   -4678.3172            0    12836.311    19.445214     19.91381     20.46221    7923.5467    14417.991    10681.015    13409.928   -218.62275   -183.84847    321.88352   -2705.0064 
29514000    249.80587   -4707.6244   -4225.8528   -4707.6244            0    13517.303    19.913264    19.678432    20.070561    7864.8863    10984.685    14914.179    14653.044    213.24727    560.03913   -1116.1613   -2675.4006 
29515000     246.3766   -4717.8684   -4242.7104   -4717.8684            0     10879.98    19.538765    19.742497    20.611476    7950.7533    8985.4011    13646.706    10007.833    179.88555   -731.07466   -1909.6354   -2981.1377 
29516000    242.70578   -4699.1981   -4231.1196   -4699.1981            0    11871.481    19.742972    19.642273    20.425068     7920.777    12104.929    13104.991    10404.523   -183.37026   -941.44991   -941.96523   -2859.7687 
29517000    252.94066   -4715.6587   -4227.8414   -4715.6587            0    12020.434     19.75069    19.735236    20.294688    7910.5556    11953.301     11305.25    12802.751    1354.9757   -231.26381   -666.87949   -2841.0759 
29518000    242.20539   -4725.8296   -4258.7161   -4725.8296            0    12040.569    19.830176    19.623288    20.347811    7918.0101    12356.581    12392.313    11372.812   -194.00507   -168.00699   -326.82191   -2868.3187 
29519000    247.64011    -4722.542   -4244.9473    -4722.542            0    10323.178    19.709309    19.823167    20.338961    7946.4511    11496.768    9828.6146    9644.1521   -612.43669     588.8356     1373.275   -3048.5855 
29520000    248.95055   -4709.6677   -4229.5456   -4709.6677            0    11548.291    19.759672    19.334786    20.595239    7868.3914    11279.228     11586.44    11779.205    147.56416    1027.9629    194.75583   -2904.3513 
29521000    254.08281   -4746.4005   -4256.3804   -4746.4005            0     11711.44    19.762261    19.500031    20.569109    7926.6086    11174.768    12447.869    11511.682   -69.476575    1206.8041   -650.50594   -2902.5209 
29522000    250.99109   -4712.9062   -4228.8487   -4712.9062            0    11922.731    19.750852     19.71975    20.326168    7916.6736    12778.841    11226.408    11762.945   -348.80358   -165.83035    1058.3165   -2852.2912 
29523000    256.18493   -4747.3704   -4253.2962   -4747.3704            0    10888.624    19.909002    19.508393    20.277205    7875.5172    9353.9483    12586.624      10725.3    118.88397   -1312.6209     1086.921   -3002.6687 
29524000    252.27679   -4686.4947   -4199.9577   -4686.4947            0    9616.4351    19.882808    19.778877    20.388175    8017.8461    9910.9461    7873.3507    11065.008     72.87589    301.95573    314.26315   -3075.4882 
29525000    257.63018   -4697.1525    -4200.291   -4697.1525            0    10760.316    19.484629    19.775395    20.518229    7906.0067    10281.864    11095.086    10903.999   -582.71505    -699.0719   -1085.2401   -2959.6158 
29526000    258.07607   -4714.9731   -4217.2517   -4714.9731            0    10208.342    19.698938    19.802229    20.394121    7955.3972    12284.279    8915.4687    9425.2776   -79.876359   -753.69555   -470.91635   -3032.8665 
29527000    263.29559   -4695.3593   -4187.5716   -4695.3593            0    12599.741    19.732104    19.908336    20.020782    7864.8313     11218.89    12539.778    14040.556   -475.67299    47.870528     155.2917   -2742.3751 
29528000    250.70384   -4734.9555   -4251.4521   -4734.9555            0    9673.5731    19.793309    19.748408    20.386265    7968.7129    9789.6874    10602.479    8628.5527   -319.53153    701.13589    435.45441   -3127.2329 
29529000    250.23075   -4691.5961   -4209.0051   -4691.5961            0    11553.768    19.490224    19.580787    20.637647    7876.0266    10893.236     13178.28    10589.789    1644.3499    268.35358   -1514.9234   -2881.8957 
29530000    256.59612   -4701.4957   -4206.6285   -4701.4957            0     11224.45     19.73104    19.615587    20.422928    7904.4069    13445.016    9070.1494    11158.184      702.498    1149.9843   -1010.7779   -2912.7001 
29531000    250.64773   -4697.5617   -4214.1664   -4697.5617            0    9606.8954    19.821868    19.698375    20.476017    7995.0365     9442.274    9972.7734     9405.639   -575.93552   -516.16507    -474.1224   -3094.0081 
29532000    246.22144   -4702.0936   -4227.2348   -4702.0936            0    10801.403    19.608764    19.754829    20.608424    7983.0394    11394.585    10935.156    10074.467   -609.33696   -335.85336    925.69567   -2969.6875 
29533000    251.68901   -4710.4239   -4225.0205   -4710.4239            0     12412.08    19.779102    19.672423    20.349989    7918.2392    11966.115    12146.552    13123.572    943.50362    -940.6227    -2757.519    -2791.681 
29534000     240.6976   -4714.9638   -4250.7582   -4714.9638            0    11450.429    19.598315    19.859308    20.304762    7902.7955    10981.013     10757.84    12612.433    439.52546    1349.0372   -869.01982   -2931.0486 
29535000    243.62554   -4741.6382   -4271.7858   -4741.6382            0    12654.723     19.67925    19.703358    20.292297     7868.284    11992.497    12925.679    13045.994    -416.0784    1979.7272    -2152.324   -2819.6456 
29536000    246.23284   -4730.1106   -4255.2299   -4730.1106            0    12852.186    19.453442    19.627336    20.520535    7835.1347    11244.191    16354.331    10958.036    1026.1164    976.01263     -1210.53   -2786.6439 
29537000    241.04203   -4705.6585   -4240.7887   -4705.6585            0    10453.429    19.563513    19.886749    20.471012    7964.3426    12208.706    9875.1577    9276.4244   -384.83261    177.74106    -20.50892   -3026.6044 
29538000    257.18394   -4703.6401   -4207.6393   -4703.6401            0    13176.527    19.742642    19.758838    20.185886    7874.3461    13874.707    13287.028    12367.846    1040.6033    1324.6586    -295.5523   -2694.4566 
29539000    249.67897   -4732.1146   -4250.5877   -4732.1146            0    12198.159    19.723606    19.877427    20.097339    7879.2527    12156.028    12177.201     12261.25   -1.6586227    43.749152   -657.48475   -2848.8872 
29540000    251.62681   -4730.5736   -4245.2901   -4730.5736            0    10895.027    19.840506    19.832132    20.251938    7968.7231     9372.212    11866.521    11446.348    777.90288     1197.768    539.35118   -2979.1174 
29541000    252.42664   -4725.5049   -4238.6789   -4725.5049            0    11130.492    19.793082    19.919626    20.244402    7981.7765    10746.413    11344.494    11300.568   -234.95112   -628.53301    1274.2989   -2943.0227 
29542000    253.86735   -4727.9283   -4238.3237   -4727.9283            0    10388.938    19.583352    19.742696    20.463227    7911.6599    7911.8907    13458.447    9796.4772   -15.570382    670.56177   -1588.2537   -3039.6122 
29543000    257.04697   -4720.1759   -4224.4392   -4720.1759            0     11366.08     19.51652    19.714751    20.612029    7930.7529    13882.369    10547.539    9668.3327   -629.40875   -374.45715    1355.0486   -2909.8168 
29544000     241.0566   -4723.4618   -4258.5639   -4723.4618            0    12212.393    19.491105    19.873655     20.36001    7886.6432    12966.049    11600.505    12070.623   -566.17143    856.09889   -24.366495   -2853.9116 
29545000    243.80754   -4732.4213   -4262.2179   -4732.4213            0    13104.417    19.460936    19.791124    20.363701    7843.1568    14340.492    11419.431    13553.328   -205.81693   -165.14638   -474.91439   -2763.2771 
29546000    253.89612   -4750.1592   -4260.4992   -4750.1592            0     9216.467    19.708419    19.755039    20.458179    7965.1995    8064.5876    10440.296    9144.5173   -58.126597   -96.404184    885.61326   -3189.8751 
29547000    248.61348   -4710.1841   -4230.7121   -4710.1841            0    11976.234    19.622654    19.920539    20.121258    7865.2763    10193.269      12001.9    13733.535    15.361495    483.77952    1625.5616   -2856.9543 
29548000    234.39281   -4723.7667   -4271.7204   -4723.7667            0    10764.396    19.748532    19.728089    20.461712    7971.8991    10872.161     11070.53    10350.498   -185.75424   -276.67353    1308.7566   -3020.2305 
29549000    250.01038   -4706.9761     -4224.81   -4706.9761            0    11266.238    19.605577    19.831468    20.393728    7929.2316    12065.266    9213.5927    12519.855    446.26737     991.3202    -797.4475   -2921.9856 
29550000    241.04215   -4719.8837   -4255.0136   -4719.8837            0    13286.801    19.670914    19.704321    20.352787    7888.7807    13330.152    12778.411     13751.84    885.82666    1006.9933    1345.2664   -2726.3701 
29551000    259.33129   -4673.7932    -4173.651   -4673.7932            0    10033.456    19.488359    19.876342    20.620252    7987.4049    12130.761    7983.0398    9986.5662   -578.35495   -16.780424   -1126.6521   -3004.8727 
29552000    239.03081   -4715.8269   -4254.8358   -4715.8269            0    12594.234    19.827005    19.695406      20.2738    7916.9373     11319.12    13706.413     12757.17   -116.67845    13.204057    670.65613   -2800.7004 
29553000    228.08563   -4714.2536   -4274.3713   -4714.2536            0     10891.59    19.809328    19.676553     20.27877    7904.2446    8721.7366    11211.882    12741.152   -301.17579    1183.0493    405.76828     -3018.84 
29554000    254.02533    -4714.503   -4224.5938    -4714.503            0    8497.6816    19.613725    19.917509     20.51021    8012.4479    9430.2053    7920.1922    8142.6474    822.53854    -51.75547    1265.6191   -3231.6114 
29555000    251.12949   -4716.3731   -4232.0487   -4716.3731            0    12212.557     19.62474     19.74347    20.407552    7907.1195    11288.364    12755.465    12593.841   -1016.0197    1541.5046   -685.59933   -2823.7306 
29556000    259.64652   -4689.2682   -4188.5181   -4689.2682            0    10600.764    19.701886    19.637715    20.501352    7931.9733    10757.501    11186.984    9857.8089   -4.2671736    236.92444   -44.242589   -2962.2249 
29557000    240.57637   -4736.9195   -4272.9478   -4736.9195            0    9043.7194    19.672393    19.954727    20.282456    7962.0244    8558.3153    9482.8225    9090.0203   -15.460368   -422.31689    446.42546   -3222.8096 
29558000    252.11835    -4726.893   -4240.6616    -4726.893            0    10628.821    19.528273    19.885741      20.4871    7955.8413    11177.001    9687.5156    11021.947   -318.24756   -372.67741    1326.0994    -3007.423 
29559000    243.47716   -4698.3499   -4228.7837   -4698.3499            0     13886.19    19.800066    19.721923    20.075568    7839.4165     13815.19      13286.2    14557.181    267.35435   -1640.7777   -1132.6457   -2641.1776 
29560000     259.1044   -4746.0637   -4246.3591   -4746.0637            0    9982.7485    19.962708    19.569074     20.52619    8018.5915    9897.0721     11322.22    8728.9535    118.02273    924.50146   -67.082564   -3078.9472 
29561000     255.0894   -4725.4695   -4233.5081   -4725.4695            0    11377.631    19.515672    19.761947    20.581431    7937.5927    11315.002    11429.365    11388.525    448.18184   -241.68308   -280.58584   -2916.4148 
29562000    261.10371   -4694.5516   -4190.9911   -4694.5516            0    11407.342    19.755076    19.751665    20.386347    7954.6639    9075.6339    13940.774    11205.617     136.6449   -161.32185   -548.06053   -2867.6184 
29563000    249.82719   -4691.2769   -4209.4641   -4691.2769            0    11777.222    19.591277    19.753495    20.490324    7929.6772    11390.955    12982.609    10958.102     52.71533    1247.8308   -641.44085   -2847.4731 
29564000    238.89691   -4682.6601   -4221.9273   -4682.6601            0    12662.814    19.628128    19.618467     20.50003    7894.0241     12990.82    12626.856    12370.765    47.549782    26.695539    4.1530026   -2764.1051 
29565000    239.86807   -4714.6168   -4252.0111   -4714.6168            0    11166.131    19.607086    19.925936    20.444735    7987.5442    11591.528    11346.173    10560.691    623.75939    1259.3646    280.43772   -2951.2669 
29566000    266.91429   -4702.4632   -4187.6966   -4702.4632            0    11768.489    19.566222    19.853428    20.393785    7922.0998    13664.951     10121.74    11518.777   -778.04991    1360.6127    388.03564   -2828.0159 
29567000    247.22084   -4729.2134   -4252.4272   -4729.2134            0    12646.146    19.553032    19.785007     20.46358    7916.4766    13380.565    11690.847    12867.025   -505.35067   -890.41979    561.67532    -2792.383 
29568000    248.04968   -4712.1735   -4233.7888   -4712.1735            0    12805.958    19.636689    19.776839    20.414551    7928.0245    12654.191    14346.416    11417.266    68.667063    579.26646    -317.9635    -2753.137 
29569000    250.19226   -4765.6291   -4283.1123   -4765.6291            0    10587.578    19.504463    19.861908    20.505064    7943.5764    11444.502    10154.023    10164.209     295.2109    368.47159   -114.38577   -3056.5529 
29570000    246.17452    -4697.954   -4223.1857    -4697.954            0    12211.684     19.87442    19.597099    20.336745    7920.7754    11922.149    11516.827    13196.077   -82.794997    -358.0003    140.12426   -2812.5361 
29571000    263.62069   -4740.6391   -4232.2244   -4740.6391            0    10407.789    19.745871    19.733551    20.373787    7938.7714    11499.729    8806.6929    10916.944    618.03443   -1019.0493    186.51498   -3027.2227 
29572000    279.62186   -4720.7214   -4181.4471   -4720.7214            0    10460.112    19.870294    19.596078    20.504366    7983.9863    11058.092    10130.591    10191.652    55.836748   -815.93728   -1024.3716     -2963.49 
29573000    241.23607   -4747.9262   -4282.6822   -4747.9262            0    10205.927    19.836018    19.488863    20.528889    7936.0874    10751.414    9867.9898    9998.3776    211.78667    207.44842   -73.265575   -3101.4513 
29574000    233.76905   -4709.5115   -4258.6682   -4709.5115            0    10266.326    19.775081    19.648655    20.438111    7941.3043    11478.748    8793.1202     10527.11    573.23795   -159.24536   -1770.9282   -3069.6656 
29575000    240.50711   -4705.1249   -4241.2867   -4705.1249            0    10195.844    19.802618    19.488778    20.445653    7890.5668     9301.989    10851.271     10434.27    158.16654    1419.1676    474.08319   -3067.9916 
29576000    249.39047   -4722.1734   -4241.2029   -4722.1734            0    11820.276    19.696594    19.660255    20.420982    7907.8218    12075.285    12091.216    11294.327   -37.947247   -228.70624    584.31484   -2878.0004 
29577000    236.10563   -4723.3216   -4267.9721   -4723.3216            0    12963.069    19.944228     19.59832    20.189705    7891.6178    12798.671    12884.921    13205.615  -0.70620658   -341.82381   -331.15781   -2776.0376 
29578000    262.57658   -4705.7441   -4199.3431   -4705.7441            0    12364.975    19.751526    19.697655     20.38408    7930.6046    14026.401    11042.038    12026.487   -1079.6511    1837.5539    672.91896   -2769.2134 
29579000    244.80692   -4717.2267    -4245.096   -4717.2267            0    13908.131    19.568752    19.474561    20.496536    7811.0835    12570.118    14977.763     14176.51    706.96683    -131.0229    391.27411   -2660.7285 
29580000    261.92054   -4711.1004   -4205.9646   -4711.1004            0    12397.919    19.742547    19.731727    20.324916    7917.6637    10902.956    12380.471     13910.33    90.551823    24.111408   -2519.1105   -2774.3644 
29581000    259.35218   -4730.9398   -4230.7573   -4730.9398            0    8510.4873    19.587457    19.770401    20.664026    8002.1827    9086.7954    8073.5508    8371.1156    55.531742    1293.5889    95.390084   -3237.5526 
29582000    245.45615   -4735.5293   -4262.1465   -4735.5293            0    9570.7164    19.754926    19.772016    20.350446    7948.7765    9765.4922    9157.0638     9789.593   -42.089484   -103.72211    221.26046   -3152.6636 
29583000    248.56104   -4705.8353   -4226.4644   -4705.8353            0    9523.4194    19.906029    19.731365    20.239023    7949.3447      8112.34    11398.674    9059.2445   -133.93929    389.08472    277.66995   -3122.3854 
29584000      254.867   -4690.8638   -4199.3314   -4690.8638            0    9717.3851    19.585915    19.863137    20.628714    8025.3479    10844.086    9479.1045    8828.9643    690.33157     501.1513   -271.75809   -3061.9943 
29585000    248.34098   -4743.5653   -4264.6188   -4743.5653            0    8893.6787    19.840899     19.61411    20.576945    8007.7567    9334.7641    8072.3209    9273.9512   -674.64865    16.325522    1211.6683   -3225.9713 
29586000    241.61408   -4725.0869   -4259.1138   -4725.0869            0    9333.1065    19.904478    19.905204    20.222282    8012.1227    7707.0702    10505.236    9787.0136    1033.0209     582.3359   -975.20118   -3168.5535 
29587000    243.45832   -4712.7186   -4243.1888   -4712.7186            0    11934.451    19.623083    19.750948    20.376119    7897.2638    11516.438    12023.156    12263.761   -87.684321    705.47782    -116.9321   -2868.6563 
29588000     248.6068   -4708.9972   -4229.5381   -4708.9972            0    11040.706    19.426904    19.840066    20.508564    7904.6377    10750.894    12684.765    9686.4587   -560.02971    162.10059   -307.24174   -2956.7541 
29589000    242.67359   -4743.6796   -4275.6631   -4743.6796            0    11890.019     19.68801    19.561121     20.41632    7862.7238    12175.591    12709.278    10785.186    -493.8073   -299.78279   -215.83775   -2912.2375 
29590000    250.98686   -4727.3365   -4243.2872   -4727.3365            0    10514.836    19.461239    19.936545    20.422781    7923.8318    12034.778    9457.4438    10052.285   -420.58857   -330.69885    1142.8284   -3028.1827 
29591000    237.01547   -4694.6351   -4237.5308   -4694.6351            0    13015.543    19.823189    19.747351     20.05513    7850.6906    11634.495    13219.251    14192.882   -282.07673     898.2996    -431.2567   -2747.3257 
29592000    250.71906   -4731.3149   -4247.7821   -4731.3149            0    11744.587    19.515097    19.830238    20.517438    7940.0234    14415.635    10573.542    10244.585    -61.34516    798.00241    23.736225    -2887.793 
29593000    260.55999   -4708.0731   -4205.5612   -4708.0731            0     11112.52    19.730706    19.712319    20.315767    7901.5728     10252.07    11216.636    11868.854    1165.9768   -238.00838   -367.53685   -2924.9952 
29594000    246.76855   -4706.6951   -4230.7812   -4706.6951            0    11812.115    19.547063    19.821854    20.351774    7885.4787    13808.808    10227.062    11400.476    378.76548   -427.80278    737.23098   -2872.3688 
29595000    236.37278    -4724.761   -4268.8962    -4724.761            0    12065.829    19.546831    19.694765    20.488017    7887.2769    12705.294    11681.309    11810.883   -453.33923    838.34532    1390.8786   -2880.9899 
29596000     253.3043   -4711.2181   -4222.6994   -4711.2181            0    10291.321    19.546027    19.905752    20.468717     7963.935    9946.7572    10868.404      10058.8    38.804303   -309.65819   -995.84089   -3027.4055 
29597000    256.97714   -4726.0456   -4230.4436   -4726.0456            0    11699.637     19.58561    19.795225    20.426013     7919.197    10286.169    12682.417    12130.325    530.90452      -1383.6   -713.26534   -2879.2131 
29598000     251.5136    -4712.616   -4227.5509    -4712.616            0    13178.751    19.570217     19.71456    20.430689    7882.5321    12799.363    15245.479    11491.413    335.27648    1446.8853   -525.97116   -2712.5395 
29599000     246.6715   -4715.9275   -4240.2008   -4715.9275            0    11024.782    19.686531    19.833718    20.184934    7881.3508    11066.403    11246.648    10761.295   -184.02263   -227.89039      528.225   -2972.9967 
29600000      254.644    -4715.792   -4224.6897    -4715.792            0    12987.045    19.511564    19.594788    20.493342    7835.1161    13933.873    14092.281    10934.979    342.97906   -635.27294    258.48955   -2740.6973 
29601000    240.17301   -4748.4401   -4285.2462   -4748.4401            0    11310.738    19.503167    19.708519    20.700864    7956.9678    12190.111    12172.646    9569.4577   -386.40457   -685.75607    580.19432   -2972.7005 
29602000    259.85279   -4728.6641   -4227.5161   -4728.6641            0    10886.701    19.688135    19.744644    20.300121    7891.3715     10567.45    11192.267    10900.385   -322.45321     -4.75176    586.20353   -2974.5923 
29603000    255.53646   -4701.3687   -4208.5451   -4701.3687            0    12273.248    19.465055    19.683398    20.540459    7869.8392    14014.244     10973.24     11832.26    36.967178   -871.54295   -207.06883   -2799.9011 
29604000    251.89723   -4694.7598   -4208.9548   -4694.7598            0    12635.647    19.590647    19.729771    20.295843    7844.7282     13408.23    11947.621    12551.089   -207.11323   -30.546712    1452.3215   -2763.3444 
29605000    260.34244   -4687.2331   -4185.1409   -4687.2331            0    11979.594    19.652708    19.655043    20.549531    7937.7666    11591.539    13267.658    11079.586   -1002.7648   -301.80706   -808.80702   -2798.3329 
29606000    241.04614   -4725.7321   -4260.8543   -4725.7321            0    10766.983    19.625107    19.656444    20.481987    7901.1276    11033.094     10301.15    10966.705    552.12957     -889.866    6.3602844   -3020.1766 
29607000    255.25779   -4718.7978   -4226.5117   -4718.7978            0    12471.762    19.581286    19.997525     20.17945    7901.8137    14270.707    10486.283    12658.298    1320.2572   -326.45522   -648.41519   -2789.2677 
29608000    246.57633   -4699.6675   -4224.1243   -4699.6675            0    9136.8956    19.690517    19.785609    20.535064    8000.2325    9272.9515    9815.7506    8321.9846   -212.24331    893.27945    1434.3547   -3158.0753 
29609000    242.17637    -4677.199   -4210.1415    -4677.199            0    13657.474    19.406518    19.585616    20.466008    7778.8962    13791.727    13861.137    13319.557   -1077.9379   -1667.7195    1383.3028   -2660.7391 
29610000     255.0624   -4691.4435   -4199.5342   -4691.4435            0     13025.87    19.444175    19.797267    20.400038    7852.8216      12910.1    12542.755    13624.756   -615.30091    271.56809    -185.3781   -2707.7419 
29611000    255.17982   -4708.3872   -4216.2514   -4708.3872            0    10135.373    19.679696     19.91746    20.363499    7981.8714    8798.5273    11281.894    10325.697   -275.44936    1114.2204    -1978.734    -3036.419 
29612000    240.84502   -4698.4579    -4233.968   -4698.4579            0    9762.8203    19.745794    19.705438     20.53781    7991.2522    12073.225     8165.283    9049.9535    104.19719    42.699278   -215.44284   -3096.1678 
29613000    249.09823   -4738.6207   -4258.2138   -4738.6207            0    11499.927    19.649513    19.852546    20.305531     7921.043    11713.328    11286.427    11500.027    60.528318   -728.80327    1493.7173   -2929.7389 
29614000    262.57725   -4723.9089   -4217.5066   -4723.9089            0    11367.793    19.603432    19.554732    20.615272    7902.6553    10394.732    13611.684    10096.964   -78.803987    1021.9449    1938.3576   -2907.3443 
29615000    250.29434   -4729.3251   -4246.6114   -4729.3251            0    8514.8492    19.608184    19.833631    20.562709     7996.868    8670.6403    8090.9737    8782.9336    314.97338   -1067.4243    1130.7338   -3253.5576 
29616000    246.54863   -4738.7112   -4263.2215   -4738.7112            0    11138.752    19.708229    19.845116    20.219183     7907.967    11339.666    10157.913    11918.677     180.6251    187.12762    405.73096   -2978.5938 
29617000    236.91655   -4716.8854   -4259.9719   -4716.8854            0     10618.83    19.672008    19.677172    20.477764    7926.7272    10764.829    10662.538    10429.123   -399.39817    689.00521    475.49303   -3032.4014 
29618000    241.70624   -4718.4662   -4252.3154   -4718.4662            0    11365.203    19.687165    19.824801    20.318859    7930.3312    11985.703    11257.846    10852.062    936.39233    461.11571   -1025.6884   -2937.8643 
29619000    245.95918   -4731.4723   -4257.1194   -4731.4723            0    12460.794    19.684982    19.765316    20.209538    7863.1248    11848.357    13183.622    12350.405   -909.72496     85.34558     940.8404   -2828.1702 
29620000    252.42355   -4707.3179   -4220.4978   -4707.3179            0    11804.035    19.493037    19.736418    20.456951     7870.254    14311.544    10120.442    10980.119   -92.545625   -1048.7713     1182.998   -2865.6357 
29621000    241.21693   -4725.4836   -4260.2765   -4725.4836            0    11977.633    19.688313    19.793647    20.238331     7886.949    13402.818    9387.0324    13143.047   -149.09522   -61.362274    -97.72846   -2882.5725 
29622000    256.62441   -4706.4413   -4211.5196   -4706.4413            0    10339.583    19.632528     19.80094     20.41704    7936.9718    11258.865    9888.4548    9871.4293   -766.93467    -260.4011   -1248.3209    -3014.686 
29623000     254.4945   -4696.4995   -4205.6855   -4696.4995            0    12798.801     19.54957    19.700335    20.230459    7791.4187    13156.601    12654.485    12585.317    6.8958706   -1475.3205   -1297.4331   -2751.3597 
29624000    242.17037   -4688.3911   -4221.3452   -4688.3911            0    12515.422     19.76845    19.797951    20.176796    7896.6897    11788.178    12549.853    13208.236    531.91514   -1360.8481     843.2822   -2780.0051 
29625000    259.44552     -4710.48   -4210.1175     -4710.48            0    10939.774    19.586998    19.832707     20.41013    7928.5843     10541.29    10709.123    11568.909    526.42573   -2153.5261   -191.06706   -2945.1485 
29626000    236.05642   -4712.1841   -4256.9294   -4712.1841            0    11085.868    19.636478     19.67572    20.403096    7882.9776    10111.176     12992.11    10154.319    377.12178   -31.692051   -249.95352    -2982.441 
29627000    241.73271   -4700.7728    -4234.571   -4700.7728            0    10523.982    19.497556    19.615897    20.664912    7903.5446    10663.382    9997.3222    10911.241     257.1675    81.595552    587.86407   -3021.5233 
29628000    255.34626   -4731.2293   -4238.7726   -4731.2293            0    12770.103    19.364016    19.967696    20.312575    7853.9542    13563.117    11111.426    13635.768   -394.01421    955.25228    2102.4377   -2776.0611 
29629000    257.39485   -4693.9192   -4197.5115   -4693.9192            0    11144.106    19.631658    19.539332    20.661857     7925.671    10836.178    12594.769    10001.372   -5.1713485    573.67897   -681.29858    -2909.389 
29630000    241.69653   -4746.6349   -4280.5028   -4746.6349            0     11750.27    19.697464    19.803685    20.279863    7910.8174    9680.5275    13444.662    12125.621    763.52198    -378.6668   -634.12512   -2924.8606 
29631000    234.48382   -4744.2722   -4292.0504   -4744.2722            0    9663.9707    19.530161    19.975907    20.453314    7979.5066    11444.548    8180.4544    9366.9097   -281.09792   -357.62917    215.23408   -3167.4259 
29632000    268.15265   -4736.7479    -4219.593   -4736.7479            0    9273.5745    19.692529    19.708943    20.546248    7974.3878    10246.008    7358.6025    10216.113   -48.227273   -716.42581    561.99825   -3141.0923 
29633000    259.31931   -4708.6916   -4208.5725   -4708.6916            0    10007.455    19.572199     19.89242    20.504177    7983.0633    11590.605     8798.067    9633.6922   -268.20399    1402.7609    1155.9319   -3043.4567 
29634000     252.5782   -4748.5876   -4261.4693   -4748.5876            0    11728.057    19.677776    19.794059    20.308602    7910.2628      12229.9    11675.641    11278.629   -539.58972    734.11707    304.42766   -2908.4847 
29635000    254.49917   -4723.8365   -4233.0134   -4723.8365            0    12918.994    19.420889    19.891337    20.354687    7863.1668    13703.605    12514.816    12538.561   -77.983119    1474.2398   -100.01807    -2751.512 
29636000    259.64788   -4730.3223   -4229.5695   -4730.3223            0    10125.053    19.593636    19.668719     20.55947    7923.2438    10784.708    10644.314    8946.1379   -375.43988    971.07423    682.70563   -3059.5954 
29637000    250.57463   -4752.6718   -4269.4176   -4752.6718            0    8706.9492    19.668554     20.01555    20.325098    8001.5219    8926.6785    7481.1697    9712.9994   -877.30181    -541.5852    178.25414   -3253.3689 
29638000    251.59994   -4738.1837   -4252.9521   -4738.1837            0    9573.2198     19.62069    19.725182    20.514959    7939.7338     10242.94    8933.4955    9543.2235   -300.71351   -600.98568    1789.4614   -3144.4414 
29639000    237.93003   -4742.2988   -4283.4307   -4742.2988            0    10274.473    19.580311    19.737279    20.537596    7937.0019    8946.8104    12278.046    9598.5641   -359.98033    290.46424    446.25382   -3094.1293 
29640000    242.01008   -4688.3369   -4221.6001   -4688.3369            0    10904.563    19.675701    19.671132    20.449859    7914.9814    11880.376    9366.8732    11466.441   -10.214383   -645.69472    1404.7079   -2962.8658 
29641000    241.86507   -4690.7454   -4224.2883   -4690.7454            0    13702.613    19.719716     19.62779    20.255754    7840.0797     14715.07    12924.679    13468.089    801.30299    -1603.524   -2069.0742   -2657.5381 
29642000    248.80235   -4734.1113   -4254.2751   -4734.1113            0     8457.378    19.787609    19.780271    20.515582    8029.8864    10966.326     6592.463    7813.3452    104.71811    14.473842   -91.653842   -3263.8513 
29643000    247.41923   -4726.9607   -4249.7919   -4726.9607            0     10754.32    19.701072    19.779507    20.464812    7974.6768    11722.543    9984.4078     10556.01    195.39815   -147.87812    847.17466   -2999.0378 
29644000    250.48786   -4720.6837   -4237.5968   -4720.6837            0    11484.534     19.62525    19.841165    20.365182    7929.9535    12033.268    10153.562    12266.773   -525.36723    647.46842    -1656.157   -2909.4077 
29645000    248.58658   -4718.8933   -4239.4732   -4718.8933            0    9422.3257    19.692757    19.636037    20.559182     7949.983    7506.7873    12076.526    8683.6638    563.36346   -605.38509    393.79023   -3147.0266 
29646000    245.48055   -4735.5985   -4262.1686   -4735.5985            0    11239.093    19.555885    19.926452    20.294558    7908.3717    10725.166    11441.638    11550.476   -156.18048   -515.34498   -346.88214   -2965.9023 
29647000     243.4062   -4738.7415   -4269.3122   -4738.7415            0    11440.761    19.648331    19.649795    20.555624     7936.232     11140.13    12274.773    10907.381    263.49301    1397.6681    167.23787   -2945.1379 
29648000    241.03648   -4711.6587   -4246.7996   -4711.6587            0    11793.633    19.524146    19.729828    20.471594     7885.823    10720.419    12349.559     12310.92   -269.07463   -214.16113    151.88984   -2890.4535 
29649000    258.81035    -4704.582   -4205.4445    -4704.582            0    11114.489    19.513612    19.866635    20.383511    7902.0718    11530.375    8824.9784    12988.115   -319.74947    1208.0669    609.81095   -2924.5706 
29650000    240.62831   -4705.8336   -4241.7616   -4705.8336            0     11668.06    19.690887    19.751524    20.320598     7903.189      11213.2    12730.067    11060.913   -1293.3362   -816.54921    391.03255   -2896.9021 
29651000    261.17013   -4696.2219   -4192.5333   -4696.2219            0    11359.729    19.611699    19.755836    20.347847    7883.6818    9755.3713     11690.81    12633.006   -415.54791    808.63277     1357.294   -2886.4438 
29652000    247.25689   -4703.2328   -4226.3771   -4703.2328            0    9379.7425    19.498855    19.818172    20.617999     7967.448    10687.589    7241.8904    10209.748   -206.81783    640.76374    988.64923   -3136.4786 
29653000    248.41005   -4733.5861   -4254.5064   -4733.5861            0    11200.804    19.675455    19.801089     20.42727    7958.3711     10569.57    11107.392    11925.451    372.82114   -1595.1616    -150.4029   -2954.4887 
29654000    253.63953   -4725.9096   -4236.7444   -4725.9096            0    11758.013    19.598564    20.029068    20.208684    7932.7363    11680.899    11346.609    12246.531    194.36636    1436.6756   -548.39385   -2876.4502 
29655000    256.36535   -4740.1312    -4245.709   -4740.1312            0    11648.859    19.818915    19.591749    20.415414    7927.0443    10294.708    12955.565    11696.304     427.0492    641.00961    1047.8383     -2899.01 
29656000    244.45252   -4729.2092    -4257.762   -4729.2092            0    11055.146     19.46195    19.898425    20.384435    7894.1203    11282.338    10263.634    11619.466    589.32795   -600.78144   -623.93376    -2985.009 
29657000    250.63588   -4714.5567   -4231.1844   -4714.5567            0    11090.818    19.759821    19.729278    20.303528    7915.2695    9757.8775    11046.941    12467.636    248.03841    1336.4203    19.873747   -2950.9037 
29658000    244.33035   -4748.5179   -4277.3062   -4748.5179            0    9722.4947     19.41229    19.853899    20.599583     7939.278    9441.2008    10875.807    8850.4761    178.92342    684.46267    573.95677   -3151.5753 
29659000    249.80952   -4738.8763   -4257.0976   -4738.8763            0    11164.368    19.639513    19.687029    20.443207    7904.2364    12387.657    10248.959    10856.487   -469.58075   -242.39962    1763.0072   -2970.1231 
29660000    248.70851   -4701.7358   -4222.0806   -4701.7358            0    13679.267    19.566768    19.760812    20.291288    7845.7328    15530.474    11071.592    14435.736    374.60631    1861.2115   -446.37705   -2656.8719 
29661000    247.86436   -4732.3301   -4254.3028   -4732.3301            0    12220.966    19.574955    19.722589    20.488832    7910.0986    13316.134     11632.72    11714.043   -693.93043    2532.1321    13.967645    -2844.484 
29662000    244.47291   -4710.6527   -4239.1661   -4710.6527            0    10996.622    19.645247    19.703693    20.506864    7937.8772    11483.354    11473.475    10033.035     298.2234    379.20445    140.84385   -2966.1334 
29663000    257.44585    -4717.116   -4220.6101    -4717.116            0    11485.327    19.510612     19.82253    20.361127    7874.6595    13634.615    9279.4577    11541.909    1277.2432    447.88248    562.20041   -2901.5911 
29664000    240.66852   -4713.2989   -4249.1494   -4713.2989            0     12638.49    19.679528    19.644227    20.461501    7910.1934    10987.152    15080.143    11848.174    345.11771    584.05388   -690.34699   -2791.1472 
29665000    261.92072   -4751.3875   -4246.2514   -4751.3875            0    9795.5353     19.76628    19.760162    20.424849    7977.6376    10396.541    9648.4509    9341.6145   -226.95683    759.04295    290.24333   -3106.5833 
29666000    255.94338   -4716.7578   -4223.1494   -4716.7578            0    10920.507    19.662081    19.684628     20.49392    7931.9821    13169.021      10442.6    9149.9015   -239.17087   -1095.9998    1403.6753    -2959.867 
29667000    253.37281    -4720.048   -4231.3972    -4720.048            0     11182.23    19.555011    19.699825    20.425255    7868.4267    10956.945    11189.869    11399.877   -299.45182   -471.39967     318.5346   -2948.2034 
29668000    266.28186   -4716.5303   -4202.9834   -4716.5303            0    11539.094    19.737126    19.649456    20.409654    7915.3493    10782.485    12381.736    11453.062    625.89342   -551.42697   -1552.9624   -2870.9421 
29669000    260.69365   -4713.6853   -4210.9157   -4713.6853            0    12502.981    19.625593    19.821464    20.485175    7968.8968     12442.67    13862.172    11204.102   -311.30958     -232.256     399.7922   -2757.8419 
29670000    246.79105      -4714.3   -4238.3427      -4714.3            0    9937.8041    19.861399    19.735438    20.364843    7982.4765    7753.6788    11614.504    10445.229   -669.21819    -1345.757   -1071.0714    -3081.421 
29671000     241.3904   -4677.4398   -4211.8981   -4677.4398            0    12059.816    19.511488    19.926892    20.385197    7925.8322    13935.265     9563.459    12680.724    1325.2671    535.51096    -344.5464   -2817.9023 
29672000    233.45686      -4699.4   -4249.1588      -4699.4            0    11774.592    19.660193    19.806272    20.306545    7907.2698    11360.359     11556.59    12406.826    610.60921   -614.13511   -160.44622   -2891.3197 
29673000    245.13754   -4734.6147   -4261.8463   -4734.6147            0    11231.376    19.623793    19.794565    20.364308    7910.4021    11104.771    10633.604    11955.753   -360.66315    1703.7062    1643.5225   -2966.1375 
29674000    257.50516   -4726.0812   -4229.4609   -4726.0812            0    12234.802    19.774443    19.815002    20.079173    7867.6348    11125.137    12118.789    13460.479    411.65231   -534.21371    2013.6029   -2825.6228 
29675000    239.70549   -4700.2752    -4237.983   -4700.2752            0    12318.295     19.49221    19.660324    20.577414    7885.7417    12728.736     12878.39     11347.76    632.18064     687.7168     801.9304   -2821.3119 
29676000    248.48322   -4738.9254   -4259.7046   -4738.9254            0    12131.291    19.585751    19.729486    20.330821    7856.1708    12834.159    10504.251    13055.464   -572.93593    664.31345   -31.179379   -2869.7717 
29677000    251.97253   -4727.5054   -4241.5552   -4727.5054            0    10770.912    19.798621    19.721262    20.360618    7949.8809    8661.4713    12783.414    10867.851    470.91257   -1226.9663   -218.06941   -2992.7664 
29678000    258.13459   -4744.3498   -4246.5156   -4744.3498            0    9920.0199    19.536618    19.996758     20.49071    8005.0857    10498.833    9673.9721    9587.2542    524.55509   -630.87535    1061.8249   -3088.3933 
29679000    251.36489   -4696.9754   -4212.1971   -4696.9754            0    10079.987     19.78959    19.787891    20.304642    7951.1811    11751.039    9060.5966    9428.3247     -416.426   -151.13931    688.61902   -3043.3236 
29680000    248.82103    -4698.263   -4218.3907    -4698.263            0    11154.201    19.592981    19.916297    20.263974    7907.4002    9607.5318    10776.062     13079.01   -145.29635    346.52449    1647.0558   -2932.0735 
29681000    246.65174   -4730.1585   -4254.4699   -4730.1585            0    10341.786    19.865451    19.607799    20.390956    7942.6394    10209.383    11474.464    9341.5114    1068.7614    197.37154   -354.13607   -3056.5265 
29682000    257.77242   -4729.2027   -4232.0669   -4729.2027            0    13584.815    19.595167    19.849513    20.310976    7900.0461    16086.212    11436.712     13231.52    537.90406    160.25282    627.71799   -2666.9051 
29683000    234.49897   -4719.9989   -4267.7479   -4719.9989            0    10140.967    19.612514    19.629156    20.585098    7924.7916    9973.7912    10796.298    9652.8134   -157.04288    169.78125    841.87068    -3095.706 
29684000    240.57471   -4719.9755   -4256.0069   -4719.9755            0    11812.035    19.576162    19.747449    20.402604    7887.2239    13359.478    9589.7686    12486.858   -259.38588     2648.246    -593.6217   -2897.3031 
29685000    256.87767   -4722.5789   -4227.1687   -4722.5789            0    12169.725    19.636617    19.865317    20.393618    7955.2981    13471.968    11786.107    11251.099   -30.333684   -235.31497    295.37947   -2815.2389 
29686000    260.41403   -4713.4005   -4211.1701   -4713.4005            0    11628.301    19.937514    19.634948    20.351102    7966.8877    13002.846    10633.987     11248.07    271.52759    32.649144    759.92478   -2860.0908 
29687000    241.41181   -4701.1335   -4235.5505   -4701.1335            0     12425.84    19.563885    19.885587    20.169982    7846.9163    13208.689    10080.555    13988.275    388.21802   -731.23391    1530.4527    -2813.547 
29688000    271.04847   -4742.9677   -4220.2279   -4742.9677            0    12641.963     19.69196    19.539346    20.427341    7859.7876    12759.746    12414.784    12751.358     1053.056    1307.2602   -548.66251   -2771.1185 
29689000    238.84518   -4729.2888   -4268.6558   -4729.2888            0     11946.18    19.528579    20.077425    20.209159    7923.6795    12716.032    10224.027     12898.48    568.12504   -1042.7843    2061.5859   -2888.1704 
29690000    264.01583   -4709.3324   -4200.1556   -4709.3324            0    10091.239    19.651715    19.799516    20.371538    7926.4522    11317.562    8637.7122    10318.442   -51.790036    230.40726   -320.49729   -3033.6168 
29691000    256.92904   -4712.8051   -4217.2958   -4712.8051            0    13157.535    19.495534    19.711414    20.516601    7884.2129    13382.942    13381.304    12708.358    918.76402    897.91835   -191.42943   -2704.4009 
29692000     248.4078   -4709.6126   -4230.5373   -4709.6126            0    9903.1076    19.810995    19.846118    20.250276    7961.8284    11530.629    7653.6675    10525.027   -1252.6393   -275.84378   -1634.0281    -3080.637 
29693000    242.09219   -4698.6973   -4231.8021   -4698.6973            0    11759.121    19.631682    19.922762    20.232848    7913.4173     10035.29    12590.044    12652.029    83.107218   -1278.3504   -244.98249   -2874.6929 
29694000    250.40195   -4692.4909   -4209.5696   -4692.4909            0    11477.456    19.529965    19.715391    20.432838    7867.4782     11243.35    12454.479    10734.539    280.84009    678.28916    1531.5439   -2892.6566 
29695000    243.71399   -4714.0396   -4244.0167   -4714.0396            0    9252.0851    19.774232    19.557726    20.654834    7988.0304    9352.9471    9694.6613     8708.647   -165.67771    -800.4577   -560.17069   -3166.1744 
29696000    252.76122    -4723.484   -4236.0128    -4723.484            0    10503.176    19.676099    19.739308    20.396657      7921.91    10283.779    10363.265    10862.485   -281.66416    671.67528   -446.98964     -3022.55 
29697000    245.47163   -4722.9856   -4249.5729   -4722.9856            0    10275.658    19.757573    19.891821    20.236549    7953.2491    9625.5366    11591.862    9609.5767    376.15224    1410.0441    804.65176   -3057.6995 
29698000    243.64663   -4712.9636   -4243.0706   -4712.9636            0    11001.887    19.740098    19.776205    20.507903    8005.9616    10516.863    11258.552    11230.245   -144.54781   -226.16553    484.39794   -2958.5042 
29699000    255.86766   -4711.6699   -4218.2076   -4711.6699            0    9399.7607    19.620978    19.819519     20.51698    7978.6092    8133.2469    10126.591    9939.4444   -235.15585    228.17493    483.99513    -3124.453 
29700000    241.91421   -4701.8967   -4235.3448   -4701.8967            0    13887.499    19.683564    19.710695    20.220394    7845.0424    12658.673    15843.519    13160.305    165.93928    206.33598    210.18433   -2646.4497 
29701000    244.45463   -4711.6066   -4240.1553   -4711.6066            0    10798.533    19.482174    19.921001    20.426007    7927.4235    10787.961    10866.013    10741.626   -562.56173    1375.5039    -1059.601   -2991.7008 
29702000    241.79624   -4696.6518   -4230.3274   -4696.6518            0    9698.7192    19.643371    19.810046    20.368096    7925.9608    9257.6202    10535.997    9302.5404     -412.867     397.2928    674.87062    -3109.233 
29703000    249.23963   -4724.3016    -4243.622   -4724.3016            0    12810.877    19.591538    19.736596    20.275621    7839.9796    12381.882    12685.952    13364.796   -480.72245    322.82774    1453.9765   -2778.8512 
29704000    237.90041   -4716.7955   -4257.9846   -4716.7955            0    11544.146    19.970476    19.499551    20.316992    7911.7478    9007.0766     13684.39    11940.972   -456.48537    618.91991   -593.51915   -2925.9664 
29705000    245.86931   -4759.2893   -4285.1097   -4759.2893            0    10822.643     19.80932    19.903524    20.269257    7991.6668    12093.635    9424.1116    10950.182    735.63003   -180.72183      -2031.4   -3023.7278 
29706000    237.45473   -4720.4353   -4262.4839   -4720.4353            0    12629.209    19.754365    19.749866    20.256876    7903.1405    12027.093    12834.562    13025.972    155.69425    253.88058   -341.92327   -2806.8515 
29707000    246.01528   -4719.7901   -4245.3289   -4719.7901            0    12062.716    19.789504    19.615928    20.414354    7924.6377    10613.446     14260.61    11314.093   -199.17207   -1392.1393    340.75635   -2851.2081 
29708000    248.49512   -4705.7483   -4226.5046   -4705.7483            0    10808.173    19.676338    19.788731    20.320378    7912.1404    10780.568    10692.567    10951.384     25.54909    1133.0211    754.46313   -2979.3446 
29709000    249.64632   -4723.8073   -4242.3434   -4723.8073            0    10313.263    19.610152     19.91168    20.304592     7928.356    11585.466    9680.6675     9673.656   -314.25561    1085.1009    1233.7861   -3049.8523 
29710000    245.95131   -4673.6869   -4199.3491   -4673.6869            0    10252.771    19.795616    19.724512    20.352397    7946.7739    11178.782     8879.031      10700.5   -2.4579502    1398.8868    223.60834   -3011.0986 
29711000    250.66432   -4730.7745   -4247.3473   -4730.7745            0    9882.8423     19.68308    19.763627     20.59499    8011.6376    10487.977    9508.2961    9652.2536     1067.587    283.54129   -918.64218    -3092.621 
29712000    239.41864   -4691.8222   -4230.0832   -4691.8222            0    11487.061     19.84156    19.495059    20.471019    7918.4438    9385.2735    12963.409    12112.501    76.053892    892.50927    485.55934     -2903.53 
29713000    261.68456   -4710.1328   -4205.4522   -4710.1328            0    10542.246    19.704824     19.59764    20.527306    7926.9897    9692.1459    12140.111    9794.4806   -203.20258   -334.27376   -739.74673   -2986.6946 
29714000    247.69087   -4703.7863   -4226.0936   -4703.7863            0    10622.672    19.845056    19.480905    20.501405     7925.836    8632.7745    12167.821    11067.421    1162.2592    1661.4377   -304.37297    -2998.217 
29715000    242.66829   -4755.5293   -4287.5231   -4755.5293            0    10418.585    19.816625    19.679673    20.446932    7973.9908    10784.013    9724.4601    10747.282    239.78233    884.18351   -1940.8067     -3075.92 
29716000    253.02753   -4727.5438   -4239.5589   -4727.5438            0    12331.376    19.662738    19.494458    20.512178    7862.6136    13558.088    11522.769     11913.27    -214.9499    632.00075    327.83918   -2825.5428 
29717000    239.85101    -4726.045   -4263.4722    -4726.045            0    14050.483    19.473914    19.662031    20.444642    7828.1863    13458.772    14219.395    14473.282   -229.66269   -689.93929    -2102.607   -2659.3838 
29718000    250.68292   -4692.6874   -4209.2243   -4692.6874            0     12989.12    19.582438    19.621409    20.550778    7896.3288    11906.639    14194.518    12866.203    272.86685     334.8679    -376.3643   -2713.3991 
29719000     253.1308    -4704.361   -4216.1769    -4704.361            0    13137.634    19.687375    19.798952    20.246901    7892.0272     11453.11    14627.081    13332.711    714.90922    153.76301     -947.144   -2704.0731 
29720000    240.84219   -4724.3137   -4259.8293   -4724.3137            0    11040.188    19.609259    19.914469    20.278112    7918.7649    12883.744     8716.274    11520.545   -95.350499   -189.82615    740.93394   -2984.8305 
29721000    255.31659   -4735.2642   -4242.8646   -4735.2642            0      11443.8    19.529366    19.763452    20.461872    7897.6213    12160.957    12484.378    9686.0641    433.29589    1135.3673   -1178.6875   -2924.7826 
29722000    241.95086   -4716.2505    -4249.628   -4716.2505            0    11622.191    19.771365     19.78486    20.191143    7898.2437    12564.322    11283.181    11019.071   -462.85105    507.43456   -599.99331   -2910.8935 
29723000    238.14915   -4715.4854   -4256.1947   -4715.4854            0    12577.317    19.389956     19.91175    20.525843    7924.7808    14593.533    11510.798    11627.619    345.30875    138.29471    598.04519   -2802.5738 
29724000    258.91586   -4738.2952   -4238.9541   -4738.2952            0    10913.443    19.748609    19.667985    20.479408    7954.5162    10556.668    10163.209    12020.453    598.53509    1212.4213    1364.0569   -2972.9024 
29725000    243.56376   -4724.6462    -4254.913   -4724.6462            0    12523.923    19.652892    19.795611    20.278449    7889.1478    11505.497    12999.524    13066.749   -90.891965    506.27655    1758.2818   -2813.9714 
29726000    257.05595   -4736.9126   -4241.1585   -4736.9126            0    9891.2445    19.818372    19.948766    20.147713      7965.44    9997.0633    9140.0132    10536.657   -275.22436    1885.7058   -265.12861   -3092.1147 
29727000    259.49331   -4667.6167    -4167.162   -4667.6167            0    12322.815    19.527404    19.718564    20.403678    7856.4848    13052.187    10983.202    12933.057   -40.384959    271.72732    924.89919    -2755.229 
29728000    265.91849   -4701.2532    -4188.407   -4701.2532            0    12824.931    19.396058     19.70115    20.391014    7791.9092     9280.224    16590.055    12604.515   -108.37462   -1452.2661   -261.35851   -2731.0203 
29729000    254.94762   -4707.3868   -4215.6989   -4707.3868            0    13308.901    19.480632    19.734758    20.578005    7911.1225    15506.728    13350.743     11069.23    -461.0223    1955.9375   -856.84067   -2680.1764 
29730000    265.70204   -4712.4882   -4200.0595   -4712.4882            0    12141.704    19.717633    19.667421     20.41994    7918.7503    10745.782    13112.817    12566.513    110.49587   -129.87009    1749.9102   -2797.8523 
29731000    258.54012   -4713.4307   -4214.8143   -4713.4307            0    11395.397    19.450763    19.809608    20.529639    7910.3161    13566.918    9808.0265    10811.247    750.38945    75.099144    234.73312   -2900.1975 
29732000    252.95423   -4711.7543   -4223.9108   -4711.7543            0     12773.28    19.478182    19.865556    20.364233    7879.8362    15832.296    11327.102    11160.441   -1099.4447   -1614.4384    412.32558   -2756.0141 
29733000    242.63966   -4708.2784   -4240.3274   -4708.2784            0    13316.632    19.598049    19.685919    20.331147    7843.8703    13996.107    13876.821    12076.968   -442.79445   -247.54001   -134.69898   -2716.9739 
29734000    255.33601   -4710.1945   -4217.7575   -4710.1945            0    11453.118    19.579886    19.763192    20.405393    7896.0919    12077.639    9436.8507    12844.866    892.42604   -310.13375    725.29182   -2898.8576 
29735000    240.28013   -4731.1951   -4267.7947   -4731.1951            0    11336.653    19.498173    20.016057     20.41162    7966.1763    12885.159    10731.793    10393.006    76.529615   -599.38573    328.34826   -2950.7192 
29736000    243.31453   -4734.2662   -4265.0137   -4734.2662            0    10677.079    19.846998    19.762687    20.327873     7973.202    7811.0999    13068.895    11151.242    46.225513    -884.0968    794.29359   -3023.4726 
29737000     246.6582   -4718.9683   -4243.2672   -4718.9683            0    11216.385    19.767075    19.866009    20.215284    7938.3981    11833.037    10858.752    10957.365   -55.242378    1842.7545   -815.33263   -2944.7082 
29738000    256.98085    -4723.358   -4227.7489    -4723.358            0     10399.44     19.81252    19.612217    20.431863    7939.1567    11119.924    10604.259    9474.1381    165.40244   -24.479054    637.39385   -3023.6553 
29739000    245.91177   -4712.2684   -4238.0068   -4712.2684            0     10853.73    19.723098    19.822859    20.152534    7878.9999    10460.772    9829.8845    12270.533    -121.9278    1167.2829    544.51918   -2990.8359 
29740000    255.77457   -4713.3392   -4220.0564   -4713.3392            0    12695.286     19.56116    19.614946    20.465337    7852.3677    14340.062    11982.405    11763.391    278.86301     2145.117    609.21291   -2766.2084 
29741000    244.28831   -4739.4252   -4268.2946   -4739.4252            0    9807.2141    19.969096    19.731431    20.303486    7999.9559    9576.6294    10339.974    9505.0393   -95.479444      524.752    847.81976   -3124.0756 
29742000    240.13958   -4706.4052   -4243.2758   -4706.4052            0    11917.064    19.809753    19.885835    20.254887    7979.0783    13564.516    9767.8712    12418.806    633.94754    328.71853   -203.18306   -2856.5267 
29743000    250.44837    -4702.821   -4219.8103    -4702.821            0    12354.498    19.398445    19.871908    20.535747    7916.2045    13615.332      12500.5    10947.662    -102.6398   -359.00348   -1687.0542   -2793.4869 
29744000    249.85593   -4691.1046   -4209.2365   -4691.1046            0    14019.973    19.587586    19.668043    20.401925    7859.8314    12212.754    15671.132    14176.035    610.83492   -997.55292    367.76822   -2602.1608 
29745000    257.51502   -4692.5471   -4195.9077   -4692.5471            0    10829.871    19.426291    19.818356    20.618363    7938.0113    12895.966    8746.3725    10847.274    550.82011    912.23668    1232.4681   -2942.1579 
29746000    263.71025   -4727.4008   -4218.8134   -4727.4008            0    11027.465    19.705635    19.770637    20.364999      7934.06    10131.698    12334.155    10616.542    537.31058   -579.53579   -568.83297   -2942.8241 
29747000    250.18012   -4722.1704    -4239.677   -4722.1704            0     11321.14    19.718922    19.834035    20.292698    7936.5913    10371.392    12804.262    10787.764   -74.684965    295.83384   -130.84194   -2929.2885 
29748000    255.89111   -4706.0888   -4212.5813   -4706.0888            0    11151.312     19.79737    19.603275     20.41535    7923.0604    10422.839    12303.788    10727.308    403.14902    322.22383    71.966057   -2924.0504 
29749000    250.43851   -4735.9992   -4253.0075   -4735.9992            0    12779.167    19.307951    19.876017    20.518549    7874.3044    13574.262    11928.496    12834.745   -550.75683    1287.5305    2111.2615   -2785.4651 
29750000    254.19681   -4688.7653   -4198.5254   -4688.7653            0    10652.353    19.739183    19.769819    20.398251     7960.215    13582.288    8806.5166    9568.2541   -503.08893    86.233039   -181.60772    -2961.877 
Loop time of 410.997 on 64 procs for 250000 steps with 972 atoms

Performance: 105.110 ns/day, 0.228 hours/ns, 608.277 timesteps/s
99.1% CPU use with 64 MPI tasks x 1 OpenMP threads

MPI task timing breakdown:
Section |  min time  |  avg time  |  max time  |%varavg| %total
---------------------------------------------------------------
Pair    | 20.908     | 29.427     | 39.164     |  79.8 |  7.16
Bond    | 0.27366    | 0.28089    | 0.2928     |   0.8 |  0.07
Kspace  | 164.07     | 174.09     | 185.61     |  37.6 | 42.36
Neigh   | 2.7047     | 3.0212     | 3.4384     |  10.4 |  0.74
Comm    | 84.105     | 90.563     | 97.161     |  28.6 | 22.03
Output  | 1.3091     | 1.3098     | 1.3223     |   0.1 |  0.32
Modify  | 104.86     | 106.73     | 108.32     |   8.2 | 25.97
Other   |            | 5.582      |            |       |  1.36

Nlocal:        15.1875 ave          20 max          11 min
Histogram: 3 5 7 8 13 9 12 3 1 3
Nghost:        2322.31 ave        2350 max        2289 min
Histogram: 1 1 8 7 5 13 14 8 5 2
Neighs:        4924.45 ave        7355 max        3222 min
Histogram: 3 5 13 9 16 7 4 4 2 1

Total # of neighbors = 315165
Ave neighs/atom = 324.24383
Ave special neighs/atom = 2.0000000
Neighbor list builds = 6993
Dangerous builds = 0

unfix		3
unfix		2
unfix		1

write_data	data.final.${pid}
write_data	data.final.0
System init for write_data ...
PPPM initialization ...
  extracting TIP4P info from pair style
  using 12-bit tables for long-range coulomb (../kspace.cpp:340)
  G vector (1/distance) = 0.3724367
  grid = 24 24 24
  stencil order = 5
  estimated absolute RMS force accuracy = 0.0034777382
  estimated relative force accuracy = 1.0473105e-05
  using double precision FFTW3
  3d grid and FFT values/proc = 2197 216
Last active /omp style is kspace_style pppm/tip4p/omp
WARNING: Not all mixed pair coeffs generated from mixing. Use write_data with 'pair ij' option to store all pair coeffs. (../write_data.cpp:312)

write_restart   restart.lmp.${pid}
write_restart   restart.lmp.0
System init for write_restart ...
PPPM initialization ...
  extracting TIP4P info from pair style
  using 12-bit tables for long-range coulomb (../kspace.cpp:340)
  G vector (1/distance) = 0.3724367
  grid = 24 24 24
  stencil order = 5
  estimated absolute RMS force accuracy = 0.0034777382
  estimated relative force accuracy = 1.0473105e-05
  using double precision FFTW3
  3d grid and FFT values/proc = 2197 216
Last active /omp style is kspace_style pppm/tip4p/omp
Total wall time: 0:06:51
