#include		in.partitions
include		in.temp
variable        temperature equal 253.83
variable	tempDamp equal 100.0
include		in.pressure
variable        pressure equal 7250.0
variable        pressureDamp equal 1000.0 # This is 1 ps
include		in.seed
variable        seed equal 745823

units		real
atom_style	full
read_restart	restart.lmp.${pid}
read_restart	restart.lmp.0
Reading restart file ...
  restart file = 30 Jul 2021, LAMMPS = 30 Jul 2021
  restoring atom style full from restart
  orthogonal box = (-0.038023720 -0.13589946 -0.15641387) to (24.768025 24.865900 22.966414)
  4 by 4 by 2 MPI processor grid
  restoring pair style lj/cut/tip4p/long/omp from restart
  restoring bond style harmonic/omp from restart
  restoring angle style harmonic/omp from restart
  1920 atoms
  1280 bonds
  640 angles
Finding 1-2 1-3 1-4 neighbors ...
  special bond factors lj:    0        0        0       
  special bond factors coul:  0        0        0       
     2 = max # of 1-2 neighbors
     1 = max # of 1-3 neighbors
     1 = max # of 1-4 neighbors
     2 = max # of special neighbors
  special bonds CPU = 0.002 seconds
  read_restart CPU = 0.008 seconds
include 	in.setup
variable	out_freq equal 1000
variable	out_freq2 equal 10000
variable	out_freq3 equal 1000

timestep	2.0

neigh_modify    delay 7 every 1

include		in.tip4p
# This is TIP4P/Ice

# create groups ###
group ox type 2
640 atoms in group ox
group hy type 1
1280 atoms in group hy

# set charges - beside manually ###
set group ox charge -1.1794
Setting atom values ...
  640 settings made for charge
set group hy charge 0.5897
Setting atom values ...
  1280 settings made for charge

# ### TIP3P Potential Parameters ###
pair_style lj/cut/tip4p/long/omp 2 1 1 1 0.1577 8.5
pair_coeff 1 1*2 0.000 0.000
pair_coeff 2 2 0.21084 3.1668
bond_style  harmonic
bond_coeff  1 450 0.9572
angle_style harmonic
angle_coeff 1 55 104.52
kspace_style pppm/tip4p/omp 1.0e-5
pair_modify tail yes

thermo          ${out_freq}
thermo          1000
thermo_style    custom step temp pe etotal epair emol press lx ly lz vol pxx pyy pzz pxy pxz pyz enthalpy

restart 	${out_freq3} restart.lmp.${pid} restart2.lmp.${pid}
restart 	1000 restart.lmp.${pid} restart2.lmp.${pid}
restart 	1000 restart.lmp.0 restart2.lmp.${pid}
restart 	1000 restart.lmp.0 restart2.lmp.0


include         in.dump
dump            myDump all atom ${out_freq2} dump.water.${pid}
dump            myDump all atom 10000 dump.water.${pid}
dump            myDump all atom 10000 dump.water.0
dump            myDump2 all dcd ${out_freq2} dump.dcd
dump            myDump2 all dcd 10000 dump.dcd
dump_modify     myDump append yes
dump_modify     myDump2 append yes


variable natoms 	equal  "count(all)"                        # NUMBER ATOMS
variable H      	equal  "enthalpy/v_natoms"                 # ENTHALPY-per-atom
variable Vol      	equal  "vol/v_natoms"                 # volume-per-atom
fix AVG all 		ave/time ${out_freq} 1 ${out_freq} v_Vol v_H file vol_enthalpy.dat
fix AVG all 		ave/time 1000 1 ${out_freq} v_Vol v_H file vol_enthalpy.dat
fix AVG all 		ave/time 1000 1 1000 v_Vol v_H file vol_enthalpy.dat




fix 		1 all shake 1e-6 200 0 b 1 a 1
       0 = # of size 2 clusters
       0 = # of size 3 clusters
       0 = # of size 4 clusters
     640 = # of frozen angles
  find clusters CPU = 0.003 seconds
fix             2 all nph aniso ${pressure} ${pressure} ${pressureDamp}
fix             2 all nph aniso 7250 ${pressure} ${pressureDamp}
fix             2 all nph aniso 7250 7250 ${pressureDamp}
fix             2 all nph aniso 7250 7250 1000
fix             3 all temp/csvr ${temperature} ${temperature} ${tempDamp} ${seed}
fix             3 all temp/csvr 253.83 ${temperature} ${tempDamp} ${seed}
fix             3 all temp/csvr 253.83 253.83 ${tempDamp} ${seed}
fix             3 all temp/csvr 253.83 253.83 100 ${seed}
fix             3 all temp/csvr 253.83 253.83 100 745823


run             250000
PPPM initialization ...
  extracting TIP4P info from pair style
  using 12-bit tables for long-range coulomb (../kspace.cpp:340)
  G vector (1/distance) = 0.37441089
  grid = 30 30 30
  stencil order = 5
  estimated absolute RMS force accuracy = 0.0032729978
  estimated relative force accuracy = 9.8565357e-06
  using double precision FFTW3
  3d grid and FFT values/proc = 5400 960
Last active /omp style is kspace_style pppm/tip4p/omp
Neighbor list info ...
  update every 1 steps, delay 7 steps, check yes
  max neighbors/atom: 2000, page size: 100000
  master list distance cutoff = 10.8154
  ghost atom cutoff = 10.8154
  binsize = 5.4077, bins = 5 5 5
  1 neighbor lists, perpetual/occasional/extra = 1 0 0
  (1) pair lj/cut/tip4p/long/omp, perpetual
      attributes: half, newton on, omp
      pair build: half/bin/newton/omp
      stencil: half/bin/3d
      bin: standard
Per MPI rank memory allocation (min/avg/max) = 10.54 | 10.55 | 10.55 Mbytes
Step Temp PotEng TotEng E_pair E_mol Press Lx Ly Lz Volume Pxx Pyy Pzz Pxy Pxz Pyz Enthalpy 
11000000    266.63122   -9138.6293   -8122.1095   -9138.6293            0     7694.185    24.806048      25.0018    23.122828    14340.682    8082.8567    8077.2221    6922.4762    436.61861   -508.96483    85.357154   -6512.9158 
11001000    246.64672   -9095.3496   -8155.0198   -9095.3496            0    8416.2065    24.878826    25.110312    22.926864    14322.758    9799.6746    7247.9891    8200.9558    346.70122    12.541361   -60.515581   -6397.0196 
11002000    255.93508   -9127.2539   -8151.5126   -9127.2539            0     7285.822    25.032221    25.058157    22.938353    14388.341    7052.8918    7486.9859    7317.5883    1412.2726   -129.42979    46.866069   -6622.6616 
11003000    252.84764   -9115.6108   -8151.6403   -9115.6108            0    7591.6925    24.925832    24.943783    23.107369     14366.88    7732.4107    7920.6357    7122.0311     467.7518    -1001.971   -172.68117   -6560.9817 
11004000    241.60774   -9130.6906   -8209.5717   -9130.6906            0    6857.9114    24.939799    24.992336    23.133235    14419.034     6864.205    7095.7519    6613.7772    -248.3483   -631.49637    83.227824   -6767.4433 
11005000    257.14945   -9125.4418   -8145.0709   -9125.4418            0     6389.029    25.057354    25.083346    22.980899    14444.007    6027.3395    5747.7703    7391.9773     210.5725   -513.32914   -18.162899   -6799.2154 
11006000    255.40268   -9097.7176   -8124.0061   -9097.7176            0    6977.9253    25.024083    25.002102    23.068314    14432.799    6867.9852     6660.631    7405.1597   -789.54643   -906.81434    66.412914   -6655.2396 
11007000    247.83954   -9135.8961   -8191.0187   -9135.8961            0    6649.2326    25.001219    24.902507    23.164883    14422.295    6464.6646    7575.5857    5907.4475   -328.59987   -90.774655    1055.6724   -6792.4565 
11008000    252.58435   -9147.1973   -8184.2306   -9147.1973            0    5988.9236    25.060204    25.003532    23.047228    14441.246    5842.4284    5702.9117    6421.4307   -373.41824   -182.56333    1172.8309   -6922.8988 
11009000    250.01757   -9074.3035   -8121.1226   -9074.3035            0    6912.4456    25.132473     25.02155    22.978309    14449.988     5357.878    7619.1625    7760.2964   -670.97512   -107.71543    736.61404   -6664.4058 
11010000    248.72033   -9084.5271   -8136.2918   -9084.5271            0    7630.9406    24.873897    24.977084    23.187432    14405.828    8347.2541    8472.6371    6072.9305   -739.32307   -355.89158    713.31484   -6533.0752 
11011000     257.8717   -9151.7777   -8168.6532   -9151.7777            0    6997.9193    25.016064    24.983477    23.027399    14391.854    6809.5144    7570.5177    6613.7257    602.59351    183.10743     -355.436   -6699.8569 
11012000    257.05642   -9095.3005   -8115.2842   -9095.3005            0    7019.0866     25.08597     25.06963    22.932723    14422.298    6103.5784    6661.4994     8292.182    157.93392    683.07646   -34.132228   -6638.9287 
11013000    252.15178   -9090.1216    -8128.804   -9090.1216            0    7232.9474     24.93128    25.022805    23.136426    14433.672    7628.7423    8159.2787    5910.8211   -193.31421   -294.28061    452.49708   -6606.2664 
11014000    243.44982   -9136.3516   -8208.2098   -9136.3516            0    7481.5739    24.960384    24.893351    23.095504    14350.336    7509.6947    9145.3248    5789.7023    326.07352    785.85454    59.545388   -6642.4291 
11015000    245.39847   -9107.7789    -8172.208   -9107.7789            0     7051.307    25.134199    24.965073    22.995351    14429.057    6799.2856    7625.4717    6729.1639   -186.28415   -422.81542   -374.09786   -6688.3804 
11016000    249.15239   -9108.2394   -8158.3568   -9108.2394            0    7171.2176    25.120248    25.008998    22.953839    14420.342    6036.6845    8700.8924    6776.0758   -303.35753   -861.95603    1094.2397   -6650.2076 
11017000    249.44693   -9096.1673   -8145.1618   -9096.1673            0    7930.3012    24.924858    24.925638    23.109021    14356.895    8618.6108    8558.1224    6614.1704    151.78672   -304.35745    977.10159   -6484.7107 
11018000    257.70682   -9182.8805   -8200.3845   -9182.8805            0    5191.1347    24.928508    25.053274    23.171744    14471.699    6132.2105    4119.0777     5322.116   -125.25754   -1089.3128    104.01421   -7104.7702 
11019000    250.79294   -9126.4827   -8170.3457   -9126.4827            0     7673.142    24.891592    25.083213    23.023586    14375.032     8277.138    7316.3238    7425.9643     350.8863   -565.61363    89.464535   -6561.7091 
11020000     250.6997   -9144.2835   -8188.5019   -9144.2835            0    6668.1826     25.00914    25.122564    22.928747    14405.988    6491.2453    6273.6921    7239.6105   -2.4284643   -472.51018    1015.2607   -6787.5397 
11021000    258.78035   -9154.7858   -8168.1971   -9154.7858            0     8368.864    24.932712    24.998336    22.913805    14281.631    8235.6425    8963.0328    7907.9167    -585.3211    139.34763   -408.55184   -6425.1055 
11022000    254.46036   -9100.4061   -8130.2872   -9100.4061            0    7386.2572    24.976861    25.011703    23.065232     14409.17    7366.7574    7891.2842      6900.73    145.59783    266.09307    -396.1893   -6578.1172 
11023000    251.97443   -9170.4921   -8209.8507   -9170.4921            0    6451.7818    24.940509    24.996707     23.12111    14414.407    6481.7132    7098.0513    5775.5808    -236.8108    223.31542   -678.39011   -6853.5614 
11024000    250.13959   -9057.9971   -8104.3509   -9057.9971            0    7128.3276    25.002734    25.083487    23.034414    14446.165    7705.8107    6973.2426    6705.9296   -29.270874    799.95428   -261.61506    -6602.537 
11025000    249.30125   -9114.4093   -8163.9592   -9114.4093            0    5725.0248    25.003117    25.098174     23.06668    14475.093    6026.6216    6221.8838    4926.5692   -254.76098     261.5016    268.65338   -6955.3813 
11026000     261.6982   -9121.9975   -8124.2846   -9121.9975            0    6131.3889    24.960432    24.989445      23.1706      14452.6     7358.386    5462.7473    5573.0335   -365.75739   -59.487836   -160.10794   -6831.9329 
11027000       256.02   -9130.2895   -8154.2245   -9130.2895            0    6943.9888    25.097642    24.999717    22.962736      14407.6    6976.8125    5821.2585    8033.8954   -488.80838    36.740153   -229.23917   -6695.1531 
11028000    257.50923   -9150.0673   -8168.3247   -9150.0673            0    7212.0044    25.026363    25.049875    22.945866    14384.931    7035.1156    6763.0181    7837.8794    375.67187   -205.29135    196.23505   -6655.3222 
11029000    244.49892   -9109.4813   -8177.3399   -9109.4813            0    6476.9779    24.958973    25.010681    23.139214    14444.444    5857.8501     7252.392    6320.6917    -246.5887   -429.18888    965.13509   -6812.9166 
11030000     261.7269   -9128.0782   -8130.2559   -9128.0782            0    6197.1584     25.09029    25.014771    23.038267    14459.458    5175.1227     6789.146    6627.2065    611.05265   -33.812366   -15.040085   -6823.4217 
11031000    260.08045   -9106.2126   -8114.6673   -9106.2126            0    5117.9115    25.066063    25.041119    23.179248    14549.202    5485.7968    5395.2662    4472.6714   -221.01127   -476.02144    334.42403   -7028.7223 
11032000    260.50019   -9124.0924   -8130.9469   -9124.0924            0      6534.23    25.022521    25.026017    23.053393    14436.359     7802.981    6687.4906    5112.2184   -534.38284    797.99991    2.3943447   -6755.2335 
11033000    253.32809   -9120.6295   -8154.8273   -9120.6295            0    5946.9667    25.090011     25.04158    23.048161     14481.01    5331.3357    5850.9872    6658.5771   -233.73156    88.559207    711.98856   -6898.8833 
11034000    250.42259   -9165.6597   -8210.9346   -9165.6597            0    5333.0455    25.034968    24.956171    23.197096    14493.011    5707.9451    5765.4878    4525.7036     -514.507   -310.59576    104.59378   -7083.7117 
11035000    246.93915   -9163.3967   -8221.9521   -9163.3967            0    6670.2516    25.041216    24.957544    23.020224    14386.886    6644.6916    6788.5497    6577.5136    98.436378    117.27318   -200.67477   -6822.4133 
11036000    256.58629   -9156.5878   -8178.3638   -9156.5878            0    6058.3071    25.210127    24.931677    23.002372    14457.698    5062.5076    6036.5276    7075.8862    285.72292   -455.61599    133.06123   -6900.9656 
11037000    250.14896   -9117.5619   -8163.8799   -9117.5619            0    6333.6266    25.082493    24.930379    23.081124    14432.997    5614.1527    6911.6523    6475.0748   -341.68183   -15.870761    6.4207893   -6830.7119 
11038000    262.05723   -9140.5221   -8141.4404   -9140.5221            0    7021.9437    25.032868    24.870718    23.155762    14416.439    6062.4158      9728.17    5275.2455    219.58561    541.74424    -749.9389   -6665.0839 
11039000    245.31621   -9128.2621   -8193.0048   -9128.2621            0    6732.7383    25.036241    25.038272    23.026816    14434.687    5951.1439    6716.3166    7530.7544    526.18829    -611.7549    252.87331   -6775.6617 
11040000    256.96598   -9154.9467   -8175.2751   -9154.9467            0    8424.3363    24.933084    25.072076    22.934957    14337.196    8528.6595    8032.6563    8711.6931    212.87978    372.34534   -4.0501521   -6413.8029 
11041000     250.3413   -9174.7651   -8220.3499   -9174.7651            0    6697.9611    24.937585    25.053472     23.04363     14397.04    7213.3294    6815.8619     6064.692   -174.89747    843.76802   -210.51998   -6814.0054 
11042000    252.48527   -9140.1489   -8177.5599   -9140.1489            0    6093.2074    24.946299    25.040071    23.152304    14462.251    6390.8765    6401.6863    5487.0593   -432.82819    421.87349    613.10143   -6892.3983 
11043000    260.14043   -9142.7115   -8150.9375   -9142.7115            0    6435.8469    25.024911    25.221928    22.877532    14439.761    6580.3221    5275.8135     7451.405   -255.37916   -150.45951   -463.27172   -6795.6183 
11044000    260.43845   -9167.6723   -8174.7622   -9167.6723            0    6347.0909    24.932403    25.032846    23.090587    14411.505     6656.985     6275.903    6108.3848   -29.479186   -485.64986    881.01981   -6840.7495 
11045000     250.2048   -9174.9377   -8221.0429   -9174.9377            0    6870.1152    24.984921    25.096849    22.938333    14383.317    7418.7455    6350.1311    6841.4689   -233.57931    642.69346    50.695206   -6779.9269 
11046000    258.00488   -9093.2805   -8109.6482   -9093.2805            0    7751.3116    25.033255    25.022313    22.950819    14376.162    6749.1698    7811.9116    8692.8535    590.23641   -351.76816    -427.8347    -6484.496 
11047000    255.36349   -9148.7159   -8175.1538   -9148.7159            0    6518.4145    25.128262    24.786286    23.150686    14419.087    4905.5541    9264.4423    5385.2471    356.34804     362.1221   -1.3093829    -6804.412 
11048000    253.04665   -9145.9234   -8181.1941   -9145.9234            0    6703.3122     25.15793    24.946813    22.959401    14409.554    5009.2233    6928.2058    8172.5073   -1053.0583    -1018.377    308.38059   -6772.5027 
11049000    261.67563   -9131.1026   -8133.4757   -9131.1026            0    6891.6743    25.114344    24.925086    23.027851     14414.91    5604.2582    7249.9434    7820.8212   -54.956617    221.31188    484.36016    -6684.662 
11050000    261.41534   -9129.4839   -8132.8494   -9129.4839            0    7935.4305    24.987718    24.981499    23.056256    14392.422    7171.8992    8512.3536    8122.0387   -46.460473    351.79888   -233.87964   -6467.2127 
11051000    260.91491   -9155.7567     -8161.03   -9155.7567            0     7105.844    25.087381    24.962612    23.001194    14404.419    6520.5855    7349.1532    7447.7933    56.827026    -68.79545   -228.34094   -6668.2793 
11052000    252.68396    -9135.363   -8172.0165    -9135.363            0    7275.8266    25.040241    25.062004    22.928288    14388.845    7414.0851     6753.178    7660.2168   -750.75657    -450.5538   -363.27291   -6645.2095 
11053000    254.92637   -9151.1158   -8179.2202   -9151.1158            0    7000.6747    24.997481    24.927775    23.095162    14391.324    7576.8279    6349.7837    7075.4126    193.60583   -137.16393   -303.44501   -6709.8997 
11054000    252.44681   -9118.4196   -8155.9772   -9118.4196            0    5760.3312    25.067763    25.053151    23.040735    14470.191    5665.0713    5799.1906    5816.7317     585.7878    1085.6853    566.23416   -6940.3579 
11055000    257.79081   -9115.4831   -8132.6669   -9115.4831            0    7163.0842    25.062113    25.075957    22.906803    14395.929    6433.3593    7062.8016    7993.0917     473.2171   -759.61597    784.19421   -6628.7784 
11056000    254.75771   -9097.8801   -8126.6275   -9097.8801            0    6849.5856    24.961812    25.020887    23.093716    14423.566    6358.3799    6859.2084    7331.1685    185.98683   -1484.7933   -566.63223   -6685.7972 
11057000    247.42906   -9103.7067   -8160.3943   -9103.7067            0    7613.7957    25.004503    25.051122    22.945323    14372.741    7277.2985    7036.9408    8527.1479    85.761063    -573.0504    905.15354   -6564.4538 
11058000     252.8031   -9145.8305   -8182.0298   -9145.8305            0     7297.202    24.955458    24.970761    23.109745    14400.994    7054.6394    7471.0437     7365.923      -100.59    1244.6113    558.13139   -6649.4442 
11059000     253.8621   -9127.1242   -8159.2861   -9127.1242            0    8356.3045    24.883416    24.986071    23.099305    14361.734    8841.8181     7898.082    8329.0132   -1379.3105   -1194.3517   -521.53486   -6409.0484 
11060000    256.92626   -9186.6636   -8207.1436   -9186.6636            0    7167.7718    24.980627    25.122927    22.875578    14356.403    7996.7544    5148.9634    8357.5976     36.21966    291.98038    477.59962   -6706.4028 
11061000    251.93598   -9150.1311   -8189.6363   -9150.1311            0    6593.3896    25.046618    24.978613    23.088663    14444.955    5231.3008    7311.3867    7237.4814    233.04675   -762.17072    394.47457   -6800.6408 
11062000    257.38108   -9149.4217   -8168.1676   -9149.4217            0    5659.6236    25.135278    25.025048    22.990639    14461.378    4456.4501    5886.7583    6635.6624    143.02279   -589.91822    281.51151   -6974.5283 
11063000    256.47921        -9091   -8113.1842        -9091            0    6699.0729     24.96618     25.00305    23.142724    14446.397    7072.4973    6719.0372    6305.6843   -306.59549   -400.32043    201.16493   -6701.7841 
11064000    259.28895   -9142.3178     -8153.79   -9142.3178            0    6646.0143    24.918386    25.030617    23.083293    14397.571    7296.9326    6957.3652    5683.7453   -338.30203   -343.65798    1125.0312   -6758.3011 
11065000     246.1682   -9149.4628   -8210.9573   -9149.4628            0    6570.7721    25.010163    25.107603     22.95223    14412.744    6180.3081    6992.0634    6539.9448   -483.02263    789.90399    771.65165   -6829.8133 
11066000    264.02392   -9094.9677   -8088.3881   -9094.9677            0    6101.2166    25.007267    25.106431    23.068034    14483.108      5569.66    6669.2105    6064.7793   -393.83605    450.14999   -579.42731   -6799.6814 
11067000     255.0198   -9169.5685   -8197.3168   -9169.5685            0    6217.1178    24.831492    25.194735    23.047478    14419.029    7299.7834    4898.7262    6452.8438   -343.86735   -90.271728    1049.3083   -6889.9393 
11068000    255.71443   -9170.0557   -8195.1557   -9170.0557            0    6246.4819    24.888486    25.085709     23.06663    14401.542    7958.0197    6318.9212    4462.5049    114.96804    1026.2274   -1169.0304   -6883.1963 
11069000    257.45672   -9183.3645   -8201.8221   -9183.3645            0    7046.9932    24.866566     25.20803    22.944486    14382.456    7685.7314    5302.3202    8152.9282   -527.02584   -1485.0507    337.12763   -6723.6916 
11070000    249.09385   -9138.7393     -8189.08   -9138.7393            0    7392.0214    24.955376    25.027379    23.048008     14395.04    7194.2991    6949.9943    8031.7708    677.61433    267.56214   -508.32692    -6637.222 
11071000    261.38392   -9153.6868   -8157.1721   -9153.6868            0    6038.9117    25.084179    25.165418    22.887473    14447.806    6013.8273    5502.8387     6600.069    765.68757    901.66649    907.77349   -6884.7346 
11072000    256.67314   -9101.1535   -8122.5985   -9101.1535            0    7670.7696    24.946953    25.028202    23.038829    14384.924    7642.1997    7648.5982    7721.5109   -277.71867   -685.87168    481.23946   -6513.3526 
11073000    250.17083   -9183.8906   -8230.1254   -9183.8906            0    6775.7398      24.8698    24.972008    23.118353    14357.626    7504.0638    7431.1323    5392.0234    111.15337   -138.13255   -178.27418   -6811.3447 
11074000    269.80806   -9170.5247   -8141.8934   -9170.5247            0    7491.0244    24.908686    25.010342    23.032479    14348.653    8236.2748     7462.567    6774.2314   -227.37502   -115.49337    73.770978   -6574.3187 
11075000    252.72988   -9089.0535    -8125.532   -9089.0535            0     8051.275    25.081662    25.025484    22.877406    14359.707    7290.9002    8678.0713    8184.8534    116.49706    346.25339   -214.48293   -6439.4211 
11076000    252.54836   -9120.7164   -8157.8869   -9120.7164            0    8336.5737    24.926612    24.909843    23.090016    14337.007    7907.7883     9294.309     7807.624    299.62089   -694.58812    236.03967   -6414.7882 
11077000    256.08332   -9172.7593   -8196.4529   -9172.7593            0    8567.8442    24.857331      24.9871    23.046236    14314.308     9434.542    8526.8898    7742.1006    235.52158   -1078.1624   -150.51421   -6407.8341 
11078000    256.62731    -9103.584   -8125.2036    -9103.584            0    7571.1186    24.969035    25.078837    23.016009    14412.495    7806.5302    6815.4869    8091.3386    27.211723   -390.59593    1297.5529   -6533.8192 
11079000     253.0449    -9141.115   -8176.3924    -9141.115            0    6913.6503    24.888716    25.074556    23.086941    14407.948    7639.3318    6878.2104    6223.4087   -172.64238    509.34052    321.42139   -6723.6606 
11080000    257.11455   -9149.4225   -8169.1846   -9149.4225            0    6221.5311    24.938295    25.073563    23.117137    14454.959    7852.4356    5462.3061    5349.8518   -765.74028    -412.1544    817.99634    -6857.619 
11081000    256.92636   -9110.7423   -8131.2219   -9110.7423            0    6978.6374     25.03345    25.085077    22.990635    14437.337    6109.3644    6130.6129    8695.9348    449.08821   -925.26651    1363.8024   -6661.8436 
11082000     255.6093   -9149.9828   -8175.4836   -9149.9828            0    7057.8617     25.05075    25.009166    22.994964    14406.307    7006.5477    7404.6396    6762.3979   -298.27124   -354.59463     195.4749   -6692.6183 
11083000    248.05253   -9167.2021   -8221.5127   -9167.2021            0    6515.3855    24.998532    24.954924    23.088825    14403.651    6271.3624    7926.5177    5348.2765    197.78876    917.80736    881.19431   -6852.8747 
11084000     257.2641   -9101.5522   -8120.7441   -9101.5522            0    6469.0054    25.011474    25.007317    23.091417    14442.985    5786.2685    7808.5405    5812.2073   -71.315386    834.93184   -328.65031   -6758.1378 
11085000    245.91102   -9130.9304   -8193.4055   -9130.9304            0    6488.8385    25.105898    25.016943    23.037585    14469.281    5288.1612    7042.4302    7135.9241    791.30326    -633.7648   -1498.7926   -6824.1332 
11086000    256.00611   -9131.8537   -8155.8417   -9131.8537            0    6889.6944    25.047833           25    23.023291    14417.089    7061.0475    6449.2891    7158.7467     259.7725    -885.7422   -791.46712   -6707.2252 
11087000    253.56195   -9138.5862   -8171.8924   -9138.5862            0    8565.2087     24.90828    24.900245    23.087138    14319.158    9165.7533    9198.3484    7331.5243    236.67798   -1458.2972    623.75553    -6383.218 
11088000     259.2091    -9110.557   -8122.3336    -9110.557            0    8522.9037    24.908801    25.015227    23.017944    14342.465    8797.1839    7755.4749    9016.0525    -522.5833    751.62226   -1211.4528   -6339.5966 
11089000    243.75841   -9143.0622   -8213.7439   -9143.0622            0    9713.3632    24.827228    24.983429    22.986442    14257.784    10823.888    8614.0713    9702.1299   -175.54975   -1026.9131   -350.19241   -6193.9943 
11090000    261.08435   -9146.3681   -8150.9955   -9146.3681            0    8114.1925    24.970544    24.993112    23.003872    14356.523    7574.9874    8643.6835    8123.9067     102.1854    -1079.329   -16.307724   -6452.0851 
11091000    248.66886   -9146.9683   -8198.9292   -9146.9683            0    8147.9124     24.92807    24.887592    23.110861     14337.97    9271.5453     7834.518    7337.6739     407.3978    523.77407    940.84191   -6495.1634 
11092000    261.98918   -9149.3979   -8150.5756   -9149.3979            0     7656.907    25.096238    25.043644    22.832288    14350.121    6595.5008    7475.8419    8899.3781    51.819998   -717.21664   -482.78655   -6548.1243 
11093000    255.28264   -9120.5758   -8147.3219   -9120.5758            0    7082.5479    25.059605    24.999328    23.010426    14415.417    5946.2884     7792.339    7509.0164    940.95043    292.62094   -805.63939    -6658.329 
11094000    256.83316   -9145.9837   -8166.8186   -9145.9837            0    6915.0652    24.971647    24.864126    23.226399    14421.229    6125.2265    8300.2155    6319.7535   -481.83253   -1282.3101    205.17818   -6712.4502 
11095000    251.72362   -9191.7577   -8232.0724   -9191.7577            0    6355.8646    25.002034    24.947448    23.066955    14387.712    6370.9617    6834.9562    5861.6759   -818.68893    375.81026    -496.0417   -6898.4212 
11096000    255.22075   -9139.1127   -8166.0948   -9139.1127            0    5187.1742    25.156839    25.032244    22.983877    14473.686     4550.301    5326.9207    5684.3008   -417.00741    381.19524   -449.88106   -7071.1661 
11097000    260.84891   -9139.7543   -8145.2793   -9139.7543            0    7192.7931      25.0921    24.978257    22.974814    14399.624    6251.2756    8553.0616     6774.042   -438.29787   -1498.9443    -1435.647   -6634.7658 
11098000     251.2886    -9184.649   -8226.6222    -9184.649            0    6867.1889    25.049879      24.9018    23.076741    14394.973    5957.9561    7327.0745    7316.5362   -293.88569   -200.23087   -115.42668   -6784.9527 
11099000    250.23323    -9105.977   -8151.9739    -9105.977            0    5870.3812    25.171331     24.93954    23.057114    14474.367    4374.3225    7433.8076    5803.0134    101.68852    552.77944    465.63573   -6912.7729 
11100000    250.15476   -9152.5936   -8198.8896   -9152.5936            0    6740.3997    24.976994    25.016959    23.060737    14409.465     6714.158    6059.0517    7447.9895    1061.9284   -1265.2975     427.8349   -6782.4129 
11101000     254.9323   -9144.6891    -8172.771   -9144.6891            0    6708.6718    25.026988    24.970616      23.0592      14410.6    5834.3436    6981.9685    7309.7033    330.43312    398.64816     316.3444   -6762.8509 
11102000    258.59724   -9118.9411   -8133.0505   -9118.9411            0    6552.7214    24.948887    25.011449     23.11912    14426.511    7756.0149    5906.3443    5995.8048   -244.29465   -378.05563   -258.17442    -6754.385 
11103000    245.75694     -9092.42   -8155.4824     -9092.42            0     5704.123    25.040671    25.139414    23.018441    14490.288    5061.7684    5263.7545    6786.8462   -221.38998    1396.7977   -24.295128    -6950.053 
11104000    255.15975   -9150.1913    -8177.406   -9150.1913            0    4793.8509    25.062266    25.114231    23.077501     14525.43      5702.23    3727.4053    4951.9173   -817.58652    335.02962    609.02804   -7161.8838 
11105000    253.77659   -9111.9164   -8144.4043   -9111.9164            0    5889.9565     25.04143    25.068912    23.037557    14462.089    6195.0439    5648.9143    5825.9114    911.05416   -396.61655   -646.77511   -6902.1257 
11106000    251.17125   -9151.7798   -8194.2004   -9151.7798            0    7315.5817    24.834894    24.933281    23.222315    14379.615    8670.5429    7481.0864    5795.1157    512.92857    190.05934   -677.17068   -6660.0357 
11107000    261.25359   -9158.9198   -8162.9019   -9158.9198            0    7130.3676    25.048938    24.998216    22.971664    14384.368    6935.5953    7164.2369    7291.2704    155.87977    -558.5741    586.61872   -6667.0845 
11108000    253.76552   -9126.6917   -8159.2218   -9126.6917            0    7429.5083    25.131887    25.015952    22.875455    14381.754     5953.825    7629.3137    8705.3864   -131.73544    159.12672    873.34582   -6600.9334 
11109000    252.84917   -9145.1837   -8181.2073   -9145.1837            0    6928.3442    25.032808    24.956948      23.0876    14423.805    6898.7345    5989.1709    7897.1271    758.06308   -857.39876    480.71737   -6723.7858 
11110000    247.76374   -9135.0055   -8190.4171   -9135.0055            0    6915.6556    24.979753     24.91453    23.152869    14409.392    7177.1129    6667.7722    6902.0817   -521.82436   -63.110883    358.24697   -6737.1183 
11111000    250.71756   -9113.7943   -8157.9446   -9113.7943            0    7019.6575    25.056724    24.951026    23.002854    14381.176    5569.3399    7783.3881    7706.2444   -26.487257    355.65604   -975.37067   -6685.6789 
11112000    261.55395   -9150.2996   -8153.1367   -9150.2996            0    6774.8269    25.193364    24.833776    23.032064    14409.927    4517.9131    8761.9924    7044.5752    919.07569    380.79169    391.88575   -6729.3797 
11113000    251.97408   -9128.3768   -8167.7367   -9128.3768            0    7222.5085    25.117001    24.905332     23.05761    14423.624      4846.52    8403.3572    8417.6481   -75.047376   -1058.4884    937.49018   -6648.4549 
11114000    260.43374   -9098.7534   -8105.8613   -9098.7534            0    7705.2907    25.107492     24.95872    22.988617    14405.837    6943.5453    8329.7581    7842.5688     1036.667   -1274.3374   -91.421867   -6487.0232 
11115000    258.68953   -9096.7032   -8110.4607   -9096.7032            0    8336.8199    24.970424    24.827653    23.180302    14370.791    8251.6028    9728.9022    7029.9546   -71.742053   -438.81206    576.64563   -6363.2029 
11116000    256.50448   -9159.2863   -8181.3742   -9159.2863            0    8233.1973    24.932433    24.916445    23.056666    14323.437    7415.3423    9056.3846    8227.8648    343.71996    299.39682   -87.434442   -6461.5199 
11117000    245.25207   -9155.7645   -8220.7518   -9155.7645            0    8234.0111    25.042068    25.093689    22.850631    14359.288    7494.5148    7481.5831    9725.9354   -563.43189   -772.74565    449.22952   -6496.4223 
11118000    247.04372   -9160.9216   -8219.0783   -9160.9216            0    7912.3382    24.992998    25.030975    22.924239    14341.383    8222.5374    6202.9534    9311.5238   -368.68553    386.67519    587.63166   -6564.1782 
11119000    254.48285   -9128.7341   -8158.5295   -9128.7341            0    8126.7006    24.870988    24.952062    23.097926    14334.168    9149.0244    8344.1826    6886.8948   -394.33759    -564.3864    1169.3678   -6459.6497 
11120000    255.94085   -9156.6921   -8180.9289   -9156.6921            0    6833.4731    25.010947    24.944472     23.05289     14382.35    6311.5909    8365.7372    5823.0912   -33.833056    352.48683   -528.49464   -6747.5955 
11121000    253.96596   -9151.4135   -8183.1795   -9151.4135            0    7499.5627    25.140912    24.945626    22.928375    14379.663     6543.093     7799.926    8155.6691   -18.484011    -78.76188   -277.49407   -6610.4264 
11122000    250.08044   -9088.1691   -8134.7484   -9088.1691            0    7446.7416    25.044792    24.909117    23.093381    14406.659    6957.5464    8301.4271    7081.2513    224.70445   -210.54252    274.95119   -6570.1408 
11123000    248.04256   -9141.3152   -8195.6639   -9141.3152            0    6204.0504    24.932148    24.921204    23.236173    14437.544    5676.7053    7331.8359    5603.6099    -195.8091    485.68676     118.3605   -6889.3591 
11124000    268.47554   -9150.1432    -8126.592   -9150.1432            0    7105.3118    25.031027    25.039042    22.980348    14403.001    6783.9261    7096.0492    7435.9601   -416.63404   -1267.6379   -1454.7666      -6634.1 
11125000    263.72151   -9110.8031   -8105.3765   -9110.8031            0    8669.9818    25.028639    24.922154    22.942595    14310.848    8453.8764    9011.2356    8544.8333    176.93343   -356.67856    1363.6902   -6295.8729 
11126000    259.22704    -9166.513   -8178.2213    -9166.513            0      7161.45    24.916982    24.992055    23.121028    14398.079    6778.8803    7583.4995    7121.9703    71.749586   -875.73576   -58.320188   -6674.4514 
11127000    254.51881   -9115.0466   -8144.7048   -9115.0466            0    7559.4611    24.892858    25.043224    23.057503    14373.988    9497.3674    6314.9299    6866.0859   -7.2418261   -34.179012   -168.51044    -6560.016 
11128000    259.44556     -9176.85   -8187.7252     -9176.85            0    6413.7566    24.942308    25.148321    22.954901    14398.627    6803.3479    6156.0627    6281.8592   -765.98312    627.06442   -476.18841   -6840.9056 
11129000    255.12419   -9106.3963   -8133.7465   -9106.3963            0    7574.3153    24.787789     25.10595    23.145271    14403.788    8734.7612    6699.8809    7288.3038    181.37636    1051.8913    -261.1442   -6542.6519 
11130000     250.4391   -9151.6174   -8196.8293   -9151.6174            0    8902.8045    24.896109    25.043528    22.907242    14282.354    9784.3002    8726.1527    8197.9606    153.23017    48.109615   -208.44957   -6342.4332 
11131000    246.64534   -9139.8283   -8199.5037   -9139.8283            0    9390.4153    24.908323    24.920692    22.981237    14265.204     9595.375    9221.2131    9354.6578    144.62813   -156.77844    654.29619   -6245.8901 
11132000    247.46693   -9114.4282   -8170.9714   -9114.4282            0    6601.9439    25.027744    25.011093     23.09852    14459.009    7273.3822    6104.7905     6427.659   -282.20682    531.56115    193.11718   -6778.8207 
11133000    249.28121    -9135.129   -8184.7553    -9135.129            0    5425.5674    25.031008    25.182778      23.0219    14511.862    5467.3104    4461.2166    6348.1753   -417.35236   -959.10191    514.38229   -7036.4849 
11134000    247.92791   -9158.6541   -8213.4398   -9158.6541            0    6111.9023    24.975081    25.144287     23.01647    14453.897    6587.4682    5140.1385    6608.1001   -822.71063    490.24039     478.4271   -6925.0798 
11135000    243.01263   -9147.0912   -8220.6163   -9147.0912            0    6519.6494    24.871833    25.024885    23.148282    14407.832    8200.2911    5815.2687    5543.3883    462.01864   -1321.3961    642.87519    -6850.685 
11136000    252.38411   -9123.4626   -8161.2593   -9123.4626            0    6255.3323    24.902756    25.114181    23.112009    14454.535    8011.0148    5401.5721      5353.41    159.68318   -774.87951   -1137.3579   -6842.6067 
11137000    255.92482   -9165.9228   -8190.2207   -9165.9228            0    6702.5208    24.926554     25.01963    23.107308    14410.945    7992.0204    6488.8012    5626.7408   -343.75566    363.77427   -613.03154   -6781.5596 
11138000    260.37285   -9153.8021   -8161.1421   -9153.8021            0    7329.2647    25.092281    25.082004    22.876233    14397.493    6889.9027    6371.0046    8726.8867   -961.91078   -856.82394    29.364074   -6622.1968 
11139000     257.1993   -9192.1759   -8211.6149   -9192.1759            0    7631.5955    24.910754    25.020449    23.014419    14344.387     7860.631     7365.431    7668.7243    427.12101   -592.14039   -189.94044   -6615.0991 
11140000    260.58679   -9159.4522   -8165.9765   -9159.4522            0    6668.6306    24.787275    24.993749    23.256136    14407.802    8973.6574     6273.686    4758.5485   -498.94072    694.38362    -490.0221   -6764.7437 
11141000    244.96578   -9133.0087   -8199.0874   -9133.0087            0    6724.0401    25.069365    25.163501    22.864564    14423.722    6162.3558    6356.2115    7653.5529     709.2067   -204.33185     581.5527   -6784.6507 
11142000     255.8108   -9177.3712   -8202.1037   -9177.3712            0    6727.3378    24.887751    24.997491    23.133631    14392.157    7764.7671    6007.5864    6409.6601    622.39445    132.90583    328.35211   -6790.0702 
11143000    252.67067   -9127.2554   -8163.9595   -9127.2554            0    6674.2863    24.935776    25.039525    23.085869    14414.355    8088.2548    6144.5121     5790.092   -112.38212    325.59493   -357.67376   -6760.9006 
11144000    254.04764    -9140.702   -8172.1565    -9140.702            0    8301.3256    24.889913    25.085979    22.945694    14327.012     8352.981    8124.2973    8426.6985    782.66262   -55.602696    631.47038   -6437.6379 
11145000    263.98732   -9114.4483   -8108.0082   -9114.4483            0    7094.0711    25.033742     25.02267    23.025277    14423.289    6261.3743    7369.6799     7651.159   -490.96986    -404.5142    105.72621   -6615.7784 
11146000    253.47473   -9151.2417   -8184.8804   -9151.2417            0    6268.5319    25.049248    24.993934    23.066789    14441.638    6805.7609    5452.8975    6546.9375    745.54263   -341.24773   -1048.8857   -6864.6243 
11147000     248.6683     -9127.41    -8179.373     -9127.41            0    6582.7658    25.029118    24.947682     23.07245    14406.864    5594.8287    7467.9801    6685.4886    508.18915   -538.03985   -334.66374   -6796.2725 
11148000    246.66722   -9148.8999    -8208.492   -9148.8999            0     6553.862    25.179425    24.892905    22.974577    14400.213    5208.6986    8268.8541    6184.0334    117.39794    95.320292   -204.56046   -6832.1001 
11149000    258.55721   -9149.2244   -8163.4864   -9149.2244            0    6661.5256    25.115672    24.963387    22.999825    14420.252    5910.6653    6425.5881    7648.3235   -186.08643   -114.35734    628.16695    -6762.537 
11150000    251.37977   -9150.2945   -8191.9202   -9150.2945            0    6038.3825    25.131905    24.933979    23.051776    14445.128    4908.2579    6513.8191    6693.0705    14.570652   -497.42144     626.9805   -6919.8301 
11151000    250.27768   -9104.5152   -8150.3425   -9104.5152            0    7903.0355    25.039979    24.997862     22.96042    14371.982    7695.5382    6982.5103     9031.058   -365.87104    364.37852    185.10465   -6493.8614 
11152000    254.76146   -9164.4635   -8193.1966   -9164.4635            0    6687.6855    25.011311    24.951738     23.10336    14418.245    5069.2944    7744.8191    7248.9431   -401.91475    687.19158    877.68048   -6786.9414 
11153000    256.62312   -9136.5802   -8158.2159   -9136.5802            0    6505.2476    24.986829     24.93816    23.169766    14437.673    6175.7756     6844.341    6495.6262    318.40897     532.4419    719.12653   -6788.4797 
11154000    245.13538   -9133.7526   -8199.1848   -9133.7526            0    6984.3093    24.995405    25.036236    23.007924    14398.148    7027.0995    7211.0838    6714.7446    243.26849    559.67774    227.80459    -6732.604 
11155000    252.85801   -9141.5855   -8177.5754   -9141.5855            0    7079.9083    24.982944    25.084288    22.963465    14390.729    6554.9662    7074.9854    7609.7734    -215.4305   -1185.8795    515.49012   -6691.6866 
11156000    244.94438   -9200.5272   -8266.6875   -9200.5272            0     7245.928    24.909109    24.957102    23.081804    14349.016    8647.3371    6556.7629    6533.6841   -542.46819   -612.08977   -413.86741   -6750.3635 
11157000    249.28651   -9127.8177   -8177.4239   -9127.8177            0     6917.732      24.9626    24.950039    23.141655    14413.036    6579.3076    8155.1239    6018.7646     455.9184    851.68288    107.16921   -6723.3212 
11158000    249.81527    -9124.517   -8172.1073    -9124.517            0    7026.9288    25.016677    25.193989    22.899163    14432.653    6440.6214    5950.2579    8689.9072    401.69037    -385.2814    1054.0924   -6693.0411 
11159000    257.18282   -9125.8813   -8145.3832   -9125.8813            0    7391.3042     24.94331    24.968834    23.089008    14379.958    7063.3586    7976.7878    7133.7662   -477.20639    690.27517    323.55802   -6595.3015 
11160000    260.11827   -9156.7659   -8165.0764   -9156.7659            0    8409.1199    24.892572    24.973918    23.034108      14319.5    8236.5134    8795.0847    8195.7616   -430.36339    371.20584    316.09328    -6408.956 
11161000    255.18374   -9186.1348    -8213.258   -9186.1348            0    8734.6079    24.973505    24.955448    22.927159    14288.779    8526.3449    8284.6363    9392.8425    1211.6172    207.30915     480.9601   -6393.0776 
11162000    255.82478   -9142.2498    -8166.929   -9142.2498            0    8195.8676    25.081743    24.916635    22.953451     14344.82     8372.102    8011.4302    8204.0705    523.19245    61.149758    52.996732   -6452.3168 
11163000    259.34925   -9139.3777     -8150.62   -9139.3777            0     7833.152     24.98821    24.856777    23.123348    14362.521    7395.3917    8876.7933     7227.271    364.76044    20.215084    396.58885   -6509.8674 
11164000    246.96718   -9146.8901   -8205.3385   -9146.8901            0      7284.51    25.108005    24.999299     22.91298    14382.077     6777.176      7263.74    7812.6139    226.40998    517.53824    56.268412   -6677.4283 
11165000    254.59704   -9138.6696   -8168.0296   -9138.6696            0    7455.8909    25.079449    24.998069    22.918058    14368.196    7028.5235    7448.7674    7890.3817   -195.00799    -33.52944   -370.82035   -6605.6819 
11166000    259.21243   -9123.5598   -8135.3238   -9123.5598            0    7449.3549    24.924897    24.872577    23.217454    14393.578     6839.956    8056.7565    7451.3524    201.22494   -143.10464    475.65387   -6571.5882 
11167000    255.63578   -9209.8775   -8235.2773   -9209.8775            0    6094.8417    25.017509    25.044219     22.99391    14406.695    6121.0565      5216.82    6946.6487   -312.49327   -1176.7758   -217.49247   -6954.7092 
11168000    259.67785   -9104.2002   -8114.1898   -9104.2002            0    7012.2058    25.147573    25.033883    22.893674    14412.516    5479.1089    7270.9377    8286.5707   -463.38365   -1405.2421    578.99923   -6640.2819 
11169000    255.82393   -9142.6517   -8167.3342   -9142.6517            0    6971.2347    24.993981     24.97126    23.097016    14415.568    7148.0537    6151.2335    7614.4168   -284.04634    168.87779     1017.068   -6701.7278 
11170000    250.52608   -9135.6755   -8180.5558   -9135.6755            0    6865.9043    24.918174    24.911943    23.201391    14402.498    5773.6318    8722.4307    6101.6503   -668.67741   -593.45333   -1089.7345   -6738.4024 
11171000    250.75754   -9133.9564   -8177.9543   -9133.9564            0    7502.9299     24.97706    25.064265    22.945508    14364.614    7369.4858     7704.974      7434.33    16.832653   -337.23667    820.29076   -6606.1418 
11172000    254.82088   -9148.3321   -8176.8387   -9148.3321            0     7632.107    24.946661    25.067042     22.93454    14341.862    8596.2667    5789.7446    8510.3096     23.30719    396.32321    856.84002   -6580.4969 
11173000    254.22252   -9134.4708   -8165.2586   -9134.4708            0    9103.8637    24.947473    24.860074    23.051545    14296.477    8815.1447    9712.4491    8783.9973     182.9356    666.43509    325.30054   -6267.1081 
11174000    246.89469   -9122.6571    -8181.382   -9122.6571            0    8964.2865    25.025432    24.933729    22.948634    14319.428     7781.386    8651.6982    10459.775   -101.22938   -609.67794    819.79644   -6309.3327 
11175000    252.74997   -9143.6048   -8180.0067   -9143.6048            0    7402.9375    25.086054    24.828233    23.087932    14380.143    6103.2673    9014.1443    7091.4009     663.3539   -630.44461    107.53228   -6627.4653 
11176000    244.60137   -9126.8772   -8194.3452   -9126.8772            0    8496.4308    24.994289    25.017149    22.952874    14352.107    8349.7556    8348.9761    8790.5607    275.18327    888.72056    316.76195   -6415.9508 
11177000    250.51013   -9118.1391   -8163.0802   -9118.1391            0    6750.3503    25.012541    24.921476    23.114253    14408.257    6415.8512    6653.0584    7182.1412    125.64329    688.25369   -138.01125   -6744.6315 
11178000    250.58151    -9141.349    -8186.018    -9141.349            0    6259.8214    25.074178    24.981654    23.066762    14448.892    6533.7816     6006.951    6238.7314   -525.58473   -269.79978   -202.34432   -6866.9343 
11179000     249.9276    -9140.369    -8187.531    -9140.369            0    5523.5674    25.122502    25.073513    22.974013    14471.547    4927.8481    5524.9446    6117.9096    389.97215    35.257377    326.42693   -7021.7674 
11180000    252.26949   -9168.1296   -8206.3633   -9168.1296            0    5995.9664    25.069045     24.97908    23.084434    14455.511    5129.7047    6161.9365    6696.2579    204.24646   -49.189086   -1244.4598   -6942.3008 
11181000     263.7801   -9179.7311   -8174.0811   -9179.7311            0    7305.3237    24.965036    24.954078    23.060871    14366.449    6634.0618     7954.859    7327.0502   -784.62376    -125.8676   -23.793461   -6643.4703 
11182000    262.85088   -9134.2893   -8132.1818   -9134.2893            0    8364.5458     24.99783    24.950159    22.986334    14336.573    6693.1653    9439.6629    8960.8092   -333.98948    502.73886    488.28922   -6383.2874 
11183000    259.93533   -9161.2555   -8170.2635   -9161.2555            0    7319.8905    25.048778    25.012093    22.927012    14364.286    6155.5305    7567.1395    8237.0016    202.84507    138.37821    53.541222   -6636.8315 
11184000    257.31107   -9121.1779   -8140.1907   -9121.1779            0    9729.3581    24.889172    24.907352    23.000005     14258.24    10378.231    9346.2515    9463.5918   -396.73248     -674.435    460.02184   -6117.0504 
11185000    260.65471   -9100.4448   -8106.7102   -9100.4448            0    8947.4894    24.863705    24.958064    23.118977     14346.48    8424.3206     9197.642    9220.5055    36.381412    476.10345     -106.657   -6234.6387 
11186000    262.86537   -9112.4309   -8110.2683   -9112.4309            0    8143.8763    24.944608    25.111287    22.910206    14350.752    7879.6252    8438.5536    8113.4502   -435.91319   -552.85852    214.51335   -6405.8283 
11187000    242.62343   -9146.8391    -8221.848   -9146.8391            0    6984.4561    24.907561    25.050855    23.052042    14383.453     7804.781    7028.2058    6120.3815   -255.29252    84.458197   -330.77873   -6756.7333 
11188000    254.87887   -9109.8908   -8138.1764   -9109.8908            0    7400.8071    24.864069    24.987386    23.161355    14389.874    8839.0029    7343.2746    6020.1438    -358.3398   -491.57698   -286.19875   -6585.0315 
11189000    249.66522   -9169.3296   -8217.4919   -9169.3296            0    8022.1488    24.843505    25.115437     22.97788    14337.174    9536.5193     6897.945    7631.9821    321.37648   -877.86483   -40.140701   -6540.1169 
11190000    261.07077   -9115.5098   -8120.1889   -9115.5098            0    6976.5875    24.905829     25.09589    23.031471    14395.451    7912.8191    6463.0373     6553.906   -680.62102    261.82597    300.37646    -6655.504 
11191000    251.91271   -9121.7252   -8161.3191   -9121.7252            0    6146.7717    24.892667    25.136515    23.071281    14436.045    6585.8721    6213.1337    5641.3093   -1012.3442    454.37957    1315.1922    -6867.209 
11192000    255.56593    -9110.481   -8136.1471    -9110.481            0    7163.6794    24.846778    25.114042    23.080304     14402.18    8466.3464     5684.974    7339.7178    42.474175   -426.05744    547.72676   -6631.4806 
11193000    260.42186   -9159.7893   -8166.9424   -9159.7893            0    6839.0346    24.861127    25.062286     23.09144    14387.737    7896.6933    5290.0758    7330.3346    370.52576   -352.15115    342.88768   -6731.9051 
11194000    250.36456   -9131.6073   -8177.1034   -9131.6073            0    7012.9389    24.959045    25.139912    22.940113    14394.191    7490.6515    5845.4147    7702.7505    625.24335    267.77185    273.40807   -6704.9156 
11195000    254.38015   -9133.2893   -8163.4762   -9133.2893            0    7311.1011    24.873409    25.189465    22.957585    14384.026    8034.0319    6002.3318    7896.9396   -335.06657   -736.04677    301.71457   -6629.7807 
11196000    262.16729   -9139.3179   -8139.8166   -9139.3179            0    8338.4039    24.827842    25.131085    23.006162    14354.709    8910.1435    6894.9421    9210.1261    1003.4491   -445.92999    153.92268   -6394.1825 
11197000    260.66301   -9161.6743    -8167.908   -9161.6743            0     6476.375    24.907902     25.09814    23.069248    14421.556    6433.8992    5154.8907    7840.3351   -500.85195   -1048.1061    333.24201   -6805.7735 
11198000    256.70412   -9124.6885   -8146.0154   -9124.6885            0    6637.2756    24.956842    25.229561    22.910608    14425.668    6603.6261    5704.3611    7603.8396    299.29673   -654.41086    28.002902   -6749.6416 
11199000    250.94682   -9093.1071   -8136.3834   -9093.1071            0    7856.2914    24.956454    25.024904    23.044575    14392.095    7571.4602    8673.9176    7323.4965   -576.94519    526.36547   -481.33608   -6487.3954 
11200000     257.0275   -9139.2136   -8159.3076   -9139.2136            0    8499.9976     24.92634    24.921369    23.047158    14316.861    8554.6511     9431.117    7514.2246    -793.9792   -725.79467   -514.62925   -6384.5359 
11201000    262.24659   -9117.9156    -8118.112   -9117.9156            0    9289.0953    24.879041    25.016552    22.949688    14283.606     10212.21    8919.3882    8735.6882   -819.63907   -1724.5864   -958.30839   -6183.0843 
11202000    255.59614   -9141.9761    -8167.527   -9141.9761            0    9290.1928    24.938448    24.893519    22.975722     14263.46    9382.6331    9693.1453    8794.7998   -701.94941    226.58228   -1224.8928   -6235.0003 
11203000    251.90701   -9172.6605   -8212.2761   -9172.6605            0    8526.3049    24.892761    24.962192    22.997384    14290.066    8951.7941    8376.9819    8250.1387    179.30826   -1059.1211    164.67145   -6435.3434 
11204000    256.24236   -9124.6106   -8147.6978   -9124.6106            0    6675.5285    25.004592    24.937775    23.125281    14419.975    6377.0177    7302.5128     6347.055    654.58517    92.036512    189.04939   -6743.8306 
11205000    247.54228   -9144.1452   -8200.4012   -9144.1452            0    7440.1584    25.044146    24.926465    23.029684    14376.557      6943.93    7415.2065    7961.3388   -92.579171    1389.3575   -626.18385   -6640.4429 
11206000    237.94599   -9159.6999   -8252.5413   -9159.6999            0    7276.4337    25.124554    25.036223    22.847456    14371.597    5987.6538    8520.6994     7320.948   -430.90991   -656.98576     65.40182   -6727.4372 
11207000    256.73065   -9143.5073    -8164.733   -9143.5073            0    7354.9731    24.963646    25.014543    23.007954    14367.413    7196.6142    7071.5065    7796.7986   -775.96524   -879.69698    63.288134   -6623.6162 
11208000    253.73849   -9127.9632   -8160.5964   -9127.9632            0    8202.5746    24.791543    24.946977    23.174799    14333.012    9586.0662    8107.3036    6914.3541    1085.4677   -636.01051    476.49378   -6445.9935 
11209000    253.91343   -9100.4065   -8132.3727   -9100.4065            0    7311.3998    25.016177    25.111773    22.969923    14429.719    6182.2255    7092.1411     8659.833   -266.34256   -24.517067   -211.79469   -6593.7424 
11210000    257.71728   -9147.9354   -8165.3996   -9147.9354            0    5040.6325    25.032834    25.087313    23.108005    14511.979    4572.8086    5466.4186    5082.6704   -72.868813   -1382.8684   -317.66484   -7098.5884 
11211000    265.58588   -9157.9864   -8145.4519   -9157.9864            0    6329.9927    24.975308    25.034662    23.084442     14433.51    6176.8839    6713.5475    6099.5467   -126.50197    309.02074    838.11014   -6813.0015 
11212000     250.1549   -9139.7842   -8186.0796   -9139.7842            0    6091.1494     25.05797    25.079143    22.994692     14450.61    6149.5761    5860.3306    6263.5415   -902.26612   -152.36423     30.73287   -6902.3862 
11213000    251.58599   -9154.1785    -8195.018   -9154.1785            0    7305.5216    25.017837    24.965912    22.991966    14360.624    6740.4764    7675.6653    7500.4232   -176.66655   -1514.8347   -168.43875   -6664.9863 
11214000    259.23161   -9147.9831   -8159.6739   -9147.9831            0    7778.2235    24.952431    24.900512    23.094256    14349.114    7205.4818     9605.568    6523.6205   -488.52101    833.57293    306.17563   -6531.9475 
11215000    248.77766   -9132.5408   -8184.0869   -9132.5408            0    7993.4344    24.993798    25.091062    22.859448    14335.638    8702.5863    6775.5456    8502.1713   -10.420521    276.44338   -549.49431   -6512.8949 
11216000    252.54901   -9175.9723   -8213.1403   -9175.9723            0    7309.2978    24.963734    25.016206    23.027723    14380.765    6453.9692    7647.7809    7826.1434    -187.9052   -588.52799    735.77759   -6680.1707 
11217000    259.75432   -9138.9565   -8148.6545   -9138.9565            0    7015.6434    24.979317    24.834328    23.185404    14382.939    7771.6949    7617.2982    5657.9371    440.55724   -37.500561    530.11672   -6677.0503 
11218000    249.65066   -9123.3112    -8171.529   -9123.3112            0    7188.3224    25.080073    24.924563     23.02347    14392.198    6883.7158    7898.9298    6782.3217    354.16698    181.92968   -552.52574   -6662.7328 
11219000    248.55185   -9159.9497   -8212.3567   -9159.9497            0    7657.0001     25.07124    24.968752      22.9531    14368.585    7768.0027    6849.3913    8353.6064   -598.30193   -327.91495    545.30452   -6607.8241 
11220000     249.1852   -9130.8387    -8180.831   -9130.8387            0    7305.2787    25.165503    24.843769    23.045596    14408.244    4909.5044     9106.718    7899.6137    236.54673    411.72556    330.31955   -6645.7768 
11221000    248.25468   -9121.2974   -8174.8373   -9121.2974            0    8546.2597    24.989093    24.870614    23.078814    14343.347    8461.9464    9660.3935    7516.4393    780.59167    271.57393    846.88343   -6387.1051 
11222000    251.19083   -9153.6473   -8195.9933   -9153.6473            0    8250.6476    25.056869    24.937211    22.891306    14303.597    8035.3627    8136.5084    8580.0717    861.39288   -80.860361    958.50206   -6474.8811 
11223000     248.4467   -9118.2223   -8171.0302   -9118.2223            0    7750.4695    25.040273    24.861072    23.096765    14378.383    7151.3131    9290.2862    6809.8091     555.9128    1297.6425   -507.35925   -6545.8034 
11224000    262.97996   -9097.9514   -8095.3518   -9097.9514            0    8762.6176    25.127808    24.844705    22.929804    14314.915    7554.4262    9959.4159    8774.0107     106.8847    202.87768    888.77583   -6265.9945 
11225000    249.38499   -9144.3276   -8193.5583   -9144.3276            0    6684.2278    25.086088    25.003888    22.972551    14409.527    6703.3235    6236.3396    7113.0202    422.12971     188.5032    -746.5612   -6788.8801 
11226000    255.27597   -9147.6709   -8174.4425   -9147.6709            0    7786.2892    24.940575    24.901858    23.120619    14359.445    8220.7251    7442.6629    7695.4796    596.95384   -467.58646    657.15649   -6543.8551 
11227000    256.83004   -9129.6607   -8150.5074   -9129.6607            0    5697.3163    24.915407    25.064692    23.159836    14463.248    6466.0332    4836.0447     5789.871    204.44732   -644.55216    648.83398   -6948.7632 
11228000    253.29415   -9112.0108    -8146.338   -9112.0108            0    5955.2817    25.105345    25.127635    22.937288    14469.711     5359.511    5013.2449    7493.0892    357.29583  -0.48737486    953.53759   -6889.6193 
11229000    245.98331   -9127.6478   -8189.8473   -9127.6478            0    6427.3106    24.985279    25.004936     23.10187    14433.016    5461.1652    7667.5431    6153.2234    525.99914    112.91694   -1042.1879    -6836.958 
11230000    250.51274   -9118.8913   -8163.8225   -9118.8913            0    6119.8078    24.970785    24.991431    23.181951    14466.827    6081.7043    6298.5642     5979.155    12.116383     1256.083    358.41626   -6872.6419 
11231000     256.8125   -9116.9589   -8137.8725   -9116.9589            0    7494.1707    25.032047    25.053721    22.918771    14373.414    7603.0122    6812.1105    8067.3893   -775.19888    296.63405   -116.21984   -6566.9332 
11232000    252.59617   -9121.0309   -8158.0191   -9121.0309            0    6388.0375    25.034139    25.014101    23.011015    14409.646    5554.6506    7080.8356    6528.6263    53.828469   -436.71845    599.63554   -6815.5736 
11233000    256.12123   -9125.7606   -8149.3096   -9125.7606            0    6388.7117    25.067326    25.057214    22.989306    14439.982    5285.0684     6942.531    6938.5357    802.93873    -1325.641    669.94943    -6803.896 
11234000    263.83079   -9154.9216   -8149.0784   -9154.9216            0    7776.1787    24.921173    24.990392    23.102853    14388.223    8004.0487    8587.4601    6737.0273   -280.10207   -118.91489    73.909878   -6517.3447 
11235000     246.4772   -9136.4652   -8196.7817   -9136.4652            0    7622.4746    24.951326    25.029224    23.001572    14364.765    8633.4228    7070.7202    7163.2808   -1032.0483    599.75061   -121.79179   -6599.9086 
11236000    261.99301   -9136.3823   -8137.5454   -9136.3823            0    7994.2214    24.951016    25.004031    22.970485    14330.733    7216.4171    8493.5632    8272.6839   -348.67572   -208.04909   -641.48988   -6466.7608 
11237000    251.91884   -9143.2851   -8182.8556   -9143.2851            0    8518.7853    24.841083     24.98903    23.054617    14311.259    8710.7656    9260.2368    7585.3536   -722.56939    -182.1909   -192.15979    -6404.857 
11238000    262.31381   -9111.6355   -8111.5756   -9111.6355            0    6747.1226    25.028119    25.091933    22.983251    14433.571     5553.101    6475.8435    8212.4232     29.65011   -106.74274    241.30879   -6691.3143 
11239000    248.69501   -9116.7685   -8168.6297   -9116.7685            0    6970.2263    24.955155    25.046925    23.091431    14433.297    6992.1393    6464.6449    7453.8947   -635.14412    39.768839   -247.23044   -6701.4331 
11240000    261.17329   -9128.7466   -8133.0349   -9128.7466            0    7319.7505    24.961187     24.96151    23.116281    14403.036    7293.4484    7270.0669    7395.7363   -698.47062   -223.51121    -213.1173   -6595.4956 
11241000    253.71067   -9117.2574   -8149.9966   -9117.2574            0     6955.173    25.128799    25.136038    22.825103    14417.213    6596.5266    6761.7752    7507.2171    765.25895    286.14905   -237.49534   -6687.6002 
11242000    263.45795   -9135.3937   -8130.9719   -9135.3937            0    6713.5128    24.973386    24.987445    23.053859    14386.095    6665.8035     7480.621    5994.1139     -119.457    515.03373    1770.5907   -6722.4337 
11243000    245.05579   -9104.9329   -8170.6685   -9104.9329            0    7529.7965    24.880774    24.970194    23.161337    14389.623    8110.7303    7112.6637    7365.9955   -390.38604   -659.56043   -508.88438   -6590.4812 
11244000    257.10529   -9179.1691   -8198.9665   -9179.1691            0    5822.5462    24.953616    25.140612    23.032686    14449.537    6493.8443    5153.7815    5820.0128      206.364    70.265251    552.17509   -6971.9716 
11245000     257.4921   -9141.2556   -8159.5783   -9141.2556            0    6355.5516    25.001099    25.118837    22.980448    14431.687    7443.3588    5555.6981    6067.5978    658.71113    777.52457    609.84048   -6821.9167 
11246000    255.46305   -9158.1355   -8184.1938   -9158.1355            0    7221.8817    24.929906    25.058132    23.017912    14379.218    8355.5867    5644.5025    7665.5561   -315.40195   -138.30348    236.31626   -6669.7209 
11247000    262.39879   -9107.3565   -8106.9727   -9107.3565            0    8231.8733    24.886018    25.064125    22.989685     14339.73    8083.8543     8049.684    8562.0817    -371.4804    363.56236    858.46908   -6385.4389 
11248000    248.26891   -9154.8084   -8208.2941   -9154.8084            0     7415.622    25.001765    25.013145    23.005561    14387.051    6383.2259    7881.0549    7982.5851   -338.26438   -1193.9737    132.72998   -6652.3454 
11249000    244.43076   -9161.1405   -8229.2589   -9161.1405            0    8199.9468     24.93594     24.90748    23.035838    14307.361    8993.4877    7821.1886    7785.1641   -620.40232    849.94483    514.07231   -6518.2729 
11250000    260.88673   -9128.5734   -8133.9542   -9128.5734            0    6928.0411    25.068284    24.982157     23.00357    14406.211    6272.9144    6714.7462    7796.4627    -184.8764    885.41798    138.27981    -6678.374 
Loop time of 604.972 on 64 procs for 250000 steps with 1920 atoms

Performance: 71.408 ns/day, 0.336 hours/ns, 413.242 timesteps/s
194.2% CPU use with 32 MPI tasks x 2 OpenMP threads

MPI task timing breakdown:
Section |  min time  |  avg time  |  max time  |%varavg| %total
---------------------------------------------------------------
Pair    | 69.262     | 74.841     | 85.358     |  39.2 | 12.37
Bond    | 0.61964    | 0.9069     | 1.5355     |  21.1 |  0.15
Kspace  | 276.3      | 289        | 305.69     |  50.9 | 47.77
Neigh   | 4.5764     | 5.4844     | 6.795      |  32.9 |  0.91
Comm    | 92.555     | 110.2      | 126.13     |  87.8 | 18.22
Output  | 0.59215    | 0.5924     | 0.59391    |   0.0 |  0.10
Modify  | 102.08     | 106.63     | 113.01     |  24.8 | 17.63
Other   |            | 17.32      |            |       |  2.86

Nlocal:        60.0000 ave          67 max          57 min
Histogram: 3 10 3 5 5 1 1 1 1 2
Nghost:        3338.06 ave        3364 max        3305 min
Histogram: 2 2 0 3 3 8 2 7 2 3
Neighs:        21087.6 ave       23359 max       19810 min
Histogram: 5 4 6 7 3 1 2 1 1 2

Total # of neighbors = 674803
Ave neighs/atom = 351.45990
Ave special neighs/atom = 2.0000000
Neighbor list builds = 10284
Dangerous builds = 0

unfix		3
unfix		2
unfix		1

write_data	data.final.${pid}
write_data	data.final.0
System init for write_data ...
PPPM initialization ...
  extracting TIP4P info from pair style
  using 12-bit tables for long-range coulomb (../kspace.cpp:340)
  G vector (1/distance) = 0.37420489
  grid = 30 30 30
  stencil order = 5
  estimated absolute RMS force accuracy = 0.0033022526
  estimated relative force accuracy = 9.9446358e-06
  using double precision FFTW3
  3d grid and FFT values/proc = 5400 960
Last active /omp style is kspace_style pppm/tip4p/omp
WARNING: Not all mixed pair coeffs generated from mixing. Use write_data with 'pair ij' option to store all pair coeffs. (../write_data.cpp:312)

write_restart   restart.lmp.${pid}
write_restart   restart.lmp.0
System init for write_restart ...
PPPM initialization ...
  extracting TIP4P info from pair style
  using 12-bit tables for long-range coulomb (../kspace.cpp:340)
  G vector (1/distance) = 0.37420489
  grid = 30 30 30
  stencil order = 5
  estimated absolute RMS force accuracy = 0.0033022526
  estimated relative force accuracy = 9.9446358e-06
  using double precision FFTW3
  3d grid and FFT values/proc = 5400 960
Last active /omp style is kspace_style pppm/tip4p/omp
Total wall time: 0:10:05
