#include		in.partitions
include		in.temp
variable        temperature equal 201.47
variable	tempDamp equal 100.0
include		in.pressure
variable        pressure equal 7434.7
variable        pressureDamp equal 1000.0 # This is 1 ps
include		in.seed
variable        seed equal 745823

units		real
atom_style	full
read_restart    restart.lmp.${pid}
read_restart    restart.lmp.0
Reading restart file ...
  restart file = 30 Jul 2021, LAMMPS = 30 Jul 2021
  restoring atom style full from restart
  triclinic box = (-3.2336878 -0.12305255 0.012371969) to (14.843687 22.703052 19.217626) with tilt (-0.24882398 -6.4143417 0.065929584)
  2 by 4 by 4 MPI processor grid
  restoring pair style lj/cut/tip4p/long/omp from restart
  restoring bond style harmonic/omp from restart
  restoring angle style harmonic/omp from restart
  1008 atoms
  672 bonds
  336 angles
Finding 1-2 1-3 1-4 neighbors ...
  special bond factors lj:    0        0        0       
  special bond factors coul:  0        0        0       
     2 = max # of 1-2 neighbors
     1 = max # of 1-3 neighbors
     1 = max # of 1-4 neighbors
     2 = max # of special neighbors
  special bonds CPU = 0.002 seconds
  read_restart CPU = 0.007 seconds

include 	in.setup
variable	out_freq equal 1000
variable	out_freq2 equal 10000
variable	out_freq3 equal 1000

timestep	2.0

neigh_modify    delay 7 every 1

include		in.tip4p
# This is TIP4P/Ice

# create groups ###
group ox type 2
336 atoms in group ox
group hy type 1
672 atoms in group hy

# set charges - beside manually ###
set group ox charge -1.1794
Setting atom values ...
  336 settings made for charge
set group hy charge 0.5897
Setting atom values ...
  672 settings made for charge

# ### TIP3P Potential Parameters ###
pair_style lj/cut/tip4p/long/omp 2 1 1 1 0.1577 8.5
pair_coeff 1 1*2 0.000 0.000
pair_coeff 2 2 0.21084 3.1668
bond_style  harmonic
bond_coeff  1 450 0.9572
angle_style harmonic
angle_coeff 1 55 104.52
kspace_style pppm/tip4p/omp 1.0e-5
pair_modify tail yes

thermo          ${out_freq}
thermo          1000
thermo_style    custom step temp pe etotal epair emol press lx ly lz vol pxx pyy pzz pxy pxz pyz enthalpy

restart 	${out_freq3} restart.lmp.${pid} restart2.lmp.${pid}
restart 	1000 restart.lmp.${pid} restart2.lmp.${pid}
restart 	1000 restart.lmp.0 restart2.lmp.${pid}
restart 	1000 restart.lmp.0 restart2.lmp.0


include         in.dump
dump            myDump all atom ${out_freq2} dump.water.${pid}
dump            myDump all atom 10000 dump.water.${pid}
dump            myDump all atom 10000 dump.water.0
dump            myDump2 all dcd ${out_freq2} dump.dcd
dump            myDump2 all dcd 10000 dump.dcd
dump_modify     myDump append yes
dump_modify     myDump2 append yes


variable natoms 	equal  "count(all)"                        # NUMBER ATOMS
variable H      	equal  "enthalpy/v_natoms"                 # ENTHALPY-per-atom
variable Vol      	equal  "vol/v_natoms"                 # volume-per-atom
fix AVG all 		ave/time ${out_freq} 1 ${out_freq} v_Vol v_H file vol_enthalpy.dat
fix AVG all 		ave/time 1000 1 ${out_freq} v_Vol v_H file vol_enthalpy.dat
fix AVG all 		ave/time 1000 1 1000 v_Vol v_H file vol_enthalpy.dat



fix 		1 all shake 1e-6 200 0 b 1 a 1
       0 = # of size 2 clusters
       0 = # of size 3 clusters
       0 = # of size 4 clusters
     336 = # of frozen angles
  find clusters CPU = 0.001 seconds
fix             2 all nph tri ${pressure} ${pressure} ${pressureDamp}
fix             2 all nph tri 7434.7 ${pressure} ${pressureDamp}
fix             2 all nph tri 7434.7 7434.7 ${pressureDamp}
fix             2 all nph tri 7434.7 7434.7 1000
fix             3 all temp/csvr ${temperature} ${temperature} ${tempDamp} ${seed}
fix             3 all temp/csvr 201.47 ${temperature} ${tempDamp} ${seed}
fix             3 all temp/csvr 201.47 201.47 ${tempDamp} ${seed}
fix             3 all temp/csvr 201.47 201.47 100 ${seed}
fix             3 all temp/csvr 201.47 201.47 100 745823


run             250000
PPPM initialization ...
  extracting TIP4P info from pair style
  using 12-bit tables for long-range coulomb (../kspace.cpp:340)
  G vector (1/distance) = 0.37941716
  grid = 24 27 32
  stencil order = 5
  estimated absolute RMS force accuracy = 0.0024300203
  estimated relative force accuracy = 7.317934e-06
  using double precision FFTW3
  3d grid and FFT values/proc = 5355 672
Last active /omp style is kspace_style pppm/tip4p/omp
Neighbor list info ...
  update every 1 steps, delay 7 steps, check yes
  max neighbors/atom: 2000, page size: 100000
  master list distance cutoff = 10.8154
  ghost atom cutoff = 10.8154
  binsize = 5.4077, bins = 5 5 4
  1 neighbor lists, perpetual/occasional/extra = 1 0 0
  (1) pair lj/cut/tip4p/long/omp, perpetual
      attributes: half, newton on, omp
      pair build: half/bin/newton/tri/omp
      stencil: half/bin/3d/tri
      bin: standard
Per MPI rank memory allocation (min/avg/max) = 10.31 | 10.32 | 10.33 Mbytes
Step Temp PotEng TotEng E_pair E_mol Press Lx Ly Lz Volume Pxx Pyy Pzz Pxy Pxz Pyz Enthalpy 
12000000     207.2037   -4943.2245   -4528.7915   -4943.2245            0    6968.7239    18.077375    22.826104    19.205254    7924.7799    6172.4797    7012.0872     7721.605   -335.99764    984.95793    697.53781   -3723.3827 
12001000      194.307   -4950.6023   -4561.9643   -4950.6023            0    7085.2888    17.959218    22.876898    19.247348    7907.7962    5851.9889    6091.6675    9312.2101   -819.72975     177.6259    923.75422   -3744.8385 
12002000     207.7315   -4969.4588   -4553.9702   -4969.4588            0    6759.8717    17.762707    22.922421    19.366617    7885.3942    7173.1682    6427.6083    6678.8388   -33.668496   -671.49652    15.308343   -3776.5823 
12003000    195.01273    -4952.385   -4562.3354    -4952.385            0    7208.0145    17.729145     23.13416    19.184054    7868.3181    8298.0459    6767.9164    6558.0811   -555.72286   -1139.1531   -1260.0815   -3735.2061 
12004000    198.39236   -4985.8743    -4589.065   -4985.8743            0     7710.049    17.934307    22.785664    19.244801    7864.2935     6684.819    7888.4164    8556.9116    556.71711    -422.5191    -516.2118   -3704.7791 
12005000     200.5994   -4959.5558   -4558.3322   -4959.5558            0    8137.1938    18.063059    22.556299    19.257441    7846.1702     6921.846    9496.7694    7992.9659   -115.91426   -540.08048   -313.69353   -3627.2066 
12006000    197.33136   -4944.8564   -4550.1693   -4944.8564            0    6263.2727    18.187849    22.657959    19.253341    7934.2929      6357.48    6283.2723    6149.0657   -324.68647   -498.78743   -523.53639   -3825.4239 
12007000    201.04907   -4964.7443   -4562.6214   -4964.7443            0     6246.382    17.893176    22.602171     19.55576    7908.8312    8513.2614    6593.6895    3632.1949   -1518.3367    906.42977   -1084.0842     -3842.15 
12008000    211.28328   -4980.4928   -4557.9001   -4980.4928            0       6422.8    17.963145    22.830959    19.302915    7916.4308     6910.749    5226.8744    7130.7766   -229.55387    343.72021    88.079102   -3816.3685 
12009000    201.62464    -4939.555   -4536.2808    -4939.555            0     7732.022    18.035439    23.033255    19.021305    7901.7328    8649.3203    5731.2397    8815.5061    182.25346   -831.68029    667.59062   -3645.2529 
12010000    212.22203   -4965.6665   -4541.1963   -4965.6665            0     8357.985    17.916012    22.934431    19.138753    7863.9903    8151.7084     8401.613    8520.6335    644.40395    413.55854   -262.51972   -3582.6337 
12011000    199.26403   -4963.9489   -4565.3962   -4963.9489            0    7308.2767    17.842613    22.757396    19.450636     7897.958    8413.0327    7495.4785    6016.3188    243.97373    38.411763    -719.9248   -3723.6025 
12012000    205.49167   -4932.2368   -4521.2281   -4932.2368            0    7800.1282     17.94631    22.739881    19.313891    7881.9402    8508.8971    7613.0317    7278.4559    787.75935    858.65354    883.73043   -3624.6032 
12013000     206.4829   -4928.7815   -4515.7902   -4928.7815            0    8399.6888    17.953312    22.968829    19.056473    7858.2519    9950.9321    8292.3887    6955.7457   -707.69738    991.72232   -1541.3037   -3553.1477 
12014000    204.24129   -4968.9604   -4560.4525   -4968.9604            0    7941.9295    17.980312    22.866967     19.15863    7877.1709    6441.7508    8272.3689    9111.6688    -1433.702   -455.65649    -865.6105   -3648.0801 
12015000    202.12738   -4964.4957   -4560.2159   -4964.4957            0    7516.5793    17.909286    22.755104    19.378056    7897.0937    8320.8146    8051.6345    6177.2888   -59.051047    882.58826    1244.6737   -3694.5239 
12016000    211.94587   -4969.8325   -4545.9146   -4969.8325            0    8322.1261    17.828767    22.742967    19.406447    7868.9077     8203.423    7680.3812    9082.5741   -1064.2499    209.65066   -307.29994   -3590.8678 
12017000    212.01583   -4980.8528    -4556.795   -4980.8528            0    7768.9839    18.011913    22.712178    19.264431    7880.8822    9234.1519     7893.072    6179.7277   -921.43552    476.27736   -968.34659   -3663.8701 
12018000    195.48586   -4964.8951   -4573.8992   -4964.8951            0    7243.2113    17.906522    22.712014    19.333172    7862.6688    8420.2486    6390.7883    6918.5972    1436.8101   -539.23493    1827.4861   -3743.3277 
12019000    201.72841   -4963.4444   -4559.9627   -4963.4444            0    6573.6913    18.023277    22.728875    19.279407    7897.7862     6778.035    6297.5596    6645.4794    1264.2245   -1115.1223    280.85052   -3802.7976 
12020000    203.11901   -4973.4397   -4567.1766   -4973.4397            0    6400.1244    17.943861    22.702019    19.355229     7884.582    6431.8243      7650.24     5118.309    1129.1912   -86.001178   -1448.9105   -3831.2357 
12021000    198.63672   -4979.8261   -4582.5282   -4979.8261            0     6379.093    18.021282    22.615509    19.415939    7913.1689    5751.5572    6899.6262    6486.0957    737.33909   -45.343203    463.57619    -3846.346 
12022000    194.04575   -4953.0733   -4564.9578   -4953.0733            0    5695.6766    18.001243    22.974448    19.250349    7961.3404    6972.9734    5230.3851    4883.6714   -1502.4648    -319.1107    560.08384   -3903.6443 
12023000    192.44874   -4971.6487   -4586.7274   -4971.6487            0    7210.9336    17.946126    22.931275    19.161921    7885.6585    6515.7076    6768.5076    8348.5858    287.85323    225.31048   -365.67618   -3757.4395 
12024000    201.15065   -4920.2445   -4517.9184   -4920.2445            0    6953.1534    17.978923    22.864461    19.280282    7925.7072    9083.7165    5322.2073    6453.5364    76.191952   -1109.2556    1669.9433   -3714.2151 
12025000    209.01094   -4955.0841   -4537.0364   -4955.0841            0    7719.2723    17.909505    22.762316    19.389566    7904.3854    9504.1208    6736.5082    6917.1879    1244.5721   -592.36813    1785.7776   -3647.1791 
12026000    205.16422   -4955.3041   -4544.9503   -4955.3041            0     7236.666    18.089019     22.71065    19.313355    7934.1847    5943.5281    7070.8724    8695.5976    897.06033   -393.85266    621.84972   -3707.5816 
12027000    207.00416   -4954.4179    -4540.384   -4954.4179            0    4980.4853    18.031527    22.762345    19.440595    7979.1943    5441.5095    4350.0584    5149.8881   -1513.8914   -1249.2521   -1341.2318   -3960.8131 
12028000    197.67886   -4963.6947   -4568.3126   -4963.6947            0    6503.6897    17.905249    22.958555    19.260185    7917.4508    6541.4443    5673.4168     7296.208   -145.96804   -1162.9168    28.883778   -3817.3452 
12029000    204.63162   -4971.6658   -4562.3773   -4971.6658            0    6243.6597    17.983424    22.993826    19.136073    7912.9138     4654.881    6780.0631     7296.035    375.16133   -911.97966    804.17832   -3841.8482 
12030000    207.33494   -4958.4134   -4543.7179   -4958.4134            0    7384.9729    18.051034    22.853149    19.169866    7908.0098    6857.3419    7627.8612    7669.7155   -1318.4087    601.14441    835.23149   -3692.0074 
12031000    206.34381   -4951.0061    -4538.293   -4951.0061            0    6238.7081    17.888528    22.767481     19.48443     7935.555     6092.666    6474.7089    6148.7494   -1.6306053    1086.4482    570.16946   -3816.2753 
12032000    205.45124   -4964.2829    -4553.355   -4964.2829            0     5979.405    17.989391    22.802248    19.287782    7911.8201    6551.7667    6173.3935    5213.0548   -587.69982    760.71421   -267.48939   -3863.4167 
12033000    194.54254   -4940.6431   -4551.5339   -4940.6431            0    6464.4702    18.108882    22.798368    19.135586    7900.1834    6120.6427    7336.3454    5936.4225   -576.38185    165.33146   -2980.9959   -3806.7231 
12034000    199.18043   -4980.8949   -4582.5095   -4980.8949            0    6873.2515    18.076669    22.595804    19.353721    7905.1602    8141.2852    7114.0705    5364.3988    1027.5859     186.2137   -73.291536   -3790.1016 
12035000    190.15794   -4965.3974   -4585.0581   -4965.3974            0    10037.515     18.04145    22.496982    19.338559    7849.0989    9262.7726    11626.731    9223.0424     1764.418    773.18496   -159.02805   -3436.0531 
12036000    206.54927    -4993.613   -4580.4889    -4993.613            0    6411.8804    17.980844    22.746678     19.27389    7883.1072    5620.1633    7055.6833    6559.7948    997.95567    87.119457    880.24802    -3843.334 
12037000    205.02563   -4968.3172   -4558.2407   -4968.3172            0    7271.3861    17.866791    22.842858    19.272901    7865.8215    8100.7057    6786.3965    6927.0561    -304.6295   -1360.4139   -1608.4665    -3724.104 
12038000    204.95461    -4964.886   -4554.9514    -4964.886            0    7723.3364    17.901172     23.01483    19.112388    7874.1589    8174.7363    6918.6821    8076.5908   -1173.4491   -803.54221    334.03786   -3668.0303 
12039000    196.60242   -4953.1996   -4559.9704   -4953.1996            0    7043.4696    17.939115    23.011298      19.1568    7907.9719    7553.4517    6655.4025    6921.5548   -419.70397   -47.386273    678.39538   -3747.6495 
12040000    203.03025   -4954.5824   -4548.4968   -4954.5824            0    7645.3003    17.990929    22.795814    19.231292    7887.0966    6427.1494    8617.8772    7890.8743   -728.45201    -334.2927    320.65944   -3669.0945 
12041000    199.81895   -4953.6342   -4553.9717   -4953.6342            0    6672.9734    18.067037    22.597536    19.374314    7909.9613    7446.9966    7083.8849    5488.0388   -503.09801    -1317.415    8.2860566   -3784.1863 
12042000    207.18774   -4971.1949   -4556.7938   -4971.1949            0    6750.4542    18.054346    22.766493    19.242243    7909.2189    7140.7565    6329.4133    6781.1929   -360.28801   -1583.8782   -192.59107   -3778.1435 
12043000    210.44675   -4961.0478   -4540.1283   -4961.0478            0    8542.6466    17.870772    22.922532    19.189645    7860.9104    7708.3037     8989.904    8929.7321    293.90502     445.5644   -556.60646    -3560.771 
12044000    200.76188   -4984.2579   -4582.7093   -4984.2579            0    7353.5059    17.722041    23.109498    19.246583    7882.3896    9200.3297    7028.6034    5831.5845    1597.8227     133.8481    971.04629   -3737.3755 
12045000    188.78046   -4966.2666   -4588.6824   -4966.2666            0    5991.8602    17.873202    23.049426    19.266508    7937.1664    6556.4784    5247.9761     6171.126   -598.31336    348.12113    363.01867    -3895.092 
12046000    195.14753   -4964.2539   -4573.9347   -4964.2539            0    7163.6825    18.008837    22.786317    19.237824    7894.3386    8161.8447    5822.9314    7506.2713   -637.28034   -79.366385   -279.84155    -3749.174 
12047000    200.11342   -4953.6984   -4553.4469   -4953.6984            0    7688.0657    17.993729    22.715107    19.324204    7898.3719    7375.4894    7730.8754    7957.8324   -1413.2806    197.27047     198.0924   -3667.8612 
12048000    201.41078   -4972.5313   -4569.6848   -4972.5313            0    7972.3101    17.851522    22.685017    19.364949    7842.0702    7714.1574    8585.4722    7617.3008    531.79698     19.40608    1333.1187   -3657.9033 
12049000    209.10806   -4958.1246   -4539.8827   -4958.1246            0     7696.807    17.843666    22.889038    19.245806    7860.4559    6014.8576    7840.3189    9235.2444   -1010.0871   -46.342025   -785.64851   -3657.5462 
12050000    193.05661   -4963.6402   -4577.5032   -4963.6402            0    7236.9827    17.818342    22.940693    19.237157    7863.4787    5897.2664    8263.0392    7550.6427    1428.4641    1785.0724    152.15016   -3747.5604 
12051000    216.78214   -4946.7595   -4513.1684   -4946.7595            0    5826.7044    17.985981    22.932377    19.228957    7931.2002    5696.4652    5632.5361     6151.112    955.76336     684.8173    -115.5988   -3839.2027 
12052000    205.29889   -4983.7746   -4573.1515   -4983.7746            0    7568.8925     17.98917    22.848262    19.147942    7870.2112    6621.8581    6896.7151    9188.1044    -1032.982   -502.71222   -271.03057   -3704.4019 
12053000    195.41522   -4984.7836    -4593.929   -4984.7836            0    7480.3464    17.971449     22.59808    19.411736    7883.4988    7775.5792    8108.3691    6557.0908    193.58741    275.97667   -31.010621   -3733.8931 
12054000    207.04453   -4947.3024   -4533.1878   -4947.3024            0    7605.1301    17.926587    22.600831    19.497542    7899.5411    8696.1245    7506.7849    6612.4808   -786.15393    233.18934   -915.36901   -3657.0258 
12055000    199.74557   -4948.0019   -4548.4861   -4948.0019            0    6138.7438    17.990852     22.78557    19.318171    7919.1335    6765.2888    6452.7355     5198.207   -154.74872    1108.0384   -487.67449   -3839.5076 
12056000    206.23142   -4933.5011   -4521.0128   -4933.5011            0    7300.6998    18.022266    23.026351    19.095905    7924.5526    7332.9864    6799.0229    7770.0901     3.966148    723.76516    865.26856   -3677.2602 
12057000    196.03686   -4984.3561   -4592.2582   -4984.3561            0    5471.7813    17.908361    23.056035    19.197212    7926.4483    6071.3095    5275.9617    5068.0727    39.710111   -232.83936   -572.22466   -3959.7251 
12058000    207.97424   -4972.9316   -4556.9574   -4972.9316            0    6243.5791     17.79708    22.838602    19.496193    7924.4309    7609.7327    6528.6231    4592.3814    29.498781   -445.88993   -3547.6733   -3835.3889 
12059000    203.53963   -4976.0384    -4568.934   -4976.0384            0    6734.8451    17.924942    22.728563    19.415063    7909.8555    6340.2612    7231.9741    6632.3002    348.73674    210.84495   -598.76306   -3792.0216 
12060000    198.43719    -4965.513   -4568.6141    -4965.513            0    6607.3814    18.126426    22.821736    19.146282    7920.3675    6144.5335    6879.3804    6798.2304    135.42234   -45.154366    1565.5343   -3805.3925 
12061000    212.74111   -4966.2737   -4540.7652   -4966.2737            0      6821.43    18.042448    22.775946    19.249733    7910.3665    5766.0508    6319.9885    8378.2509   -1607.3076   -353.61687    -234.2644   -3753.8138 
12062000    206.83707   -4936.6655   -4522.9658   -4936.6655            0    5392.2645    17.939256    22.913196    19.351078    7954.1772    5212.9536    5031.1937    5932.6462    305.90899   -537.64652    356.54913   -3897.4441 
12063000    207.21909   -4947.8714   -4533.4076   -4947.8714            0    7472.7488    17.811905    23.047114     19.22101    7890.4746    7614.1276     6169.807     8634.312    728.62927   -784.51447   -20.195995    -3673.485 
12064000    210.17704   -4995.2067   -4574.8267   -4995.2067            0    4512.2077    18.076965    22.890272     19.23252      7958.16    4097.5826    4262.9948    5176.0455   -948.99042   -396.84718    1209.5959   -4051.1326 
12065000    203.61982   -4978.5454   -4571.2806   -4978.5454            0    7848.2448    18.137143    22.442485    19.306574    7858.5975     6009.679     8811.617    8723.4385   -458.75435   -211.24217   -1608.3954   -3671.7965 
12066000    202.93313   -4938.5816   -4532.6903   -4938.5816            0    7847.4781    18.146214     22.61422    19.274713    7909.6191    7414.2733    8121.6304    8006.5307    159.52979    -523.6807   -139.83324   -3627.4548 
12067000    205.42637   -4988.7276   -4577.8495   -4988.7276            0    6007.3986    18.001769    22.760411    19.327291    7918.9255    5152.5904    6321.7356    6547.8698   -152.15307   -349.30039    -1472.098   -3884.0586 
12068000    195.68878     -4947.08   -4555.6783     -4947.08            0    6746.0053    17.816182    23.168697    19.153163    7905.9991    6468.5049     5931.962     7837.549   -1487.1925   -521.38013    1189.9559   -3777.8579 
12069000     198.1616   -4982.4478   -4586.1001   -4982.4478            0    7753.2112    17.768075    22.939787    19.274972    7856.3988    7749.6221    8134.4766    7375.5349    591.71953     243.7956    108.73109   -3697.7564 
12070000    199.26612   -4955.1612   -4556.6043   -4955.1612            0    6147.3604    17.950408    22.817396    19.347625    7924.4307     7104.446    5127.1525    6210.4828     446.3127   -819.79136   -574.08603   -3846.1558 
12071000    198.63802   -4952.5329   -4555.2323   -4952.5329            0    8187.8798    18.024534    22.687625    19.267148    7878.9893    6797.3028    8944.3771    8821.9594    43.575388   -115.77067   -1855.8613   -3614.3878 
12072000    203.88353   -4925.6273    -4517.835   -4925.6273            0    7056.3131    18.158662    22.746078    19.250482    7951.1874    6227.6504    7721.1134    7220.1757    819.99026    901.41767   -1.3113581   -3699.5856 
12073000    191.62133   -4971.3731   -4588.1068   -4971.3731            0    7670.7648    17.923064    22.746409    19.308839    7871.9304    7719.2608     8881.287    6411.7465   -859.03222   -458.88243    1086.6252   -3707.4721 
12074000    189.88904   -4971.2659   -4591.4644   -4971.2659            0    6833.1715    17.946882    22.941898    19.198288    7904.6174    8143.5714    6376.0911    5979.8521   -1187.9783   -33.556625   -168.91765   -3803.7313 
12075000    207.18915   -4985.5185   -4571.1146   -4985.5185            0    6971.3074    17.905566    22.994275    19.161675    7889.3504     6761.881    5957.5837    8194.4576    1373.7059   -1194.5516    398.45112   -3769.0094 
12076000    204.03944   -4963.5768   -4555.4728   -4963.5768            0    7203.0295    17.957565    22.852293    19.261925    7904.5459    7640.7911    6148.3901    7819.9073    225.60887   -105.73081   -1863.9043   -3725.1097 
12077000    190.18791   -4971.0334   -4590.6341   -4971.0334            0    7516.8426     18.15512    22.472991    19.272119    7863.0217    6871.6802    8094.3198    7584.5278   0.62987757    468.35188   -1162.2656   -3728.6469 
12078000    207.49142   -4936.9159   -4521.9074   -4936.9159            0    7355.1944    17.961892    22.662293    19.424147    7906.7477    5983.2482     9387.236     6695.099    373.96737    304.38429   -588.49396   -3673.7666 
12079000     196.9611   -4970.6908   -4576.7443   -4970.6908            0    6810.3823     17.94249    22.984935    19.226513    7929.1483     6310.258    6921.9482    7198.9407     121.0515     398.4955    1228.9827   -3789.2019 
12080000     204.7033   -4946.8289    -4537.397   -4946.8289            0    6741.6098    17.962903    22.889156    19.270931    7923.3531    5440.9393    7450.3609    7333.5292   -711.97178    120.02805   -41.817398   -3758.3772 
12081000    198.80165   -4946.6567   -4549.0288   -4946.6567            0    8395.7467    18.073866    22.679452    19.202713    7871.2956    6428.8072    9624.6299    9133.8031    1195.9537     1057.537    791.41088    -3585.241 
12082000    200.19875   -4984.6073   -4584.1851   -4984.6073            0    7461.7836    18.049689    22.626293    19.274528    7871.6698    7434.0759    7864.0307    7087.2442   -734.22649    500.72963    333.13199   -3727.5706 
12083000    212.06546   -4973.0798   -4548.9226   -4973.0798            0    6617.4856    17.885437    22.759719    19.433833    7910.8824    7887.9406    6731.6083    5232.9079   -462.73186   -757.40912    -315.7809   -3785.4494 
12084000     204.8894   -4941.4779   -4531.6738   -4941.4779            0    6739.3607    17.868724    22.832671    19.432524    7928.2891    6317.8842    8141.8569    5758.3412    1664.4335    660.05401    1008.6135   -3752.4287 
12085000    200.89588   -4967.1607   -4565.3441   -4967.1607            0    7959.9635    17.878886     22.94644    19.107217    7838.8652    8422.3284    7362.4498    8095.1124   -636.56156   -1379.1508   -497.44602   -3655.3466 
12086000    206.53887   -4988.2597   -4575.1564   -4988.2597            0    5984.1767    18.012281    22.838384    19.266335    7925.6189    5330.5835    6153.9759    6467.9707    542.36415   -140.39053   -146.98952   -3883.4633 
12087000    198.51573   -4965.0033   -4567.9473   -4965.0033            0    6990.7032    18.131747    22.426612    19.445162    7907.0575    5590.4165    8721.2476    6660.4454   -665.68778    539.01388    413.62331   -3761.8051 
12088000    203.24902   -4967.2046   -4560.6815   -4967.2046            0    7360.8832    18.038879    22.702521    19.295443    7902.0245    7125.4214    6579.4706    8377.7577    378.54276    221.92368   -74.336521   -3712.3918 
12089000    191.93908   -4971.0948    -4587.193   -4971.0948            0    8881.6232    17.941971    22.903593    19.003372    7809.1622    9398.5495    7569.0519    9677.2681   -1092.9511   -811.65672    505.10824   -3575.6772 
12090000    196.71872   -4958.4128    -4564.951   -4958.4128            0    7672.8864    17.763892    23.044237    19.216225    7866.2644    7630.5805    6842.0489    8546.0299    365.75815       -656.9   -2249.3941   -3684.7068 
12091000    203.14747   -4974.9567   -4568.6366   -4974.9567            0     7819.442    17.827121     22.92306    19.250918    7866.9292    6702.4225    8932.4734    7823.4302    149.11151     1491.741    219.36188   -3671.5035 
12092000     200.1459   -4966.6982   -4566.3817   -4966.6982            0     8014.272    17.907343    22.836426    19.239269    7867.7013    9757.1285    7657.1175    6628.5701   -258.36372    151.75996    318.18621   -3646.8052 
12093000    219.10067   -4978.8151   -4540.5867   -4978.8151            0    6496.1989    18.021508    22.670932    19.317588    7892.4784    6116.7195    6852.9716    6518.9057    -298.5844   -543.92839   -296.23837   -3792.8501 
12094000     202.2445   -4965.1349   -4560.6209   -4965.1349            0    6148.4454    18.072515     22.63781    19.371241    7925.2039    6094.2656     6286.172    6064.8986    1333.7684     551.7553   -9.0230902   -3849.9776 
12095000    189.16719   -4966.5916   -4588.2339   -4966.5916            0    7393.5233     17.98033    22.813042    19.169016    7862.8625    6312.5492    7814.1787    8053.8421     767.5085    468.31264    1317.2662   -3740.4054 
12096000     210.1076   -4965.8133   -4545.5721   -4965.8133            0     8852.712     17.90686    22.689487    19.264755    7827.2215    8676.0972    9238.9779    8643.0608   -517.49178    359.49595   -590.06701   -3535.0173 
12097000     195.3387   -4949.0037   -4558.3021   -4949.0037            0    8256.4959    17.991777    22.734583    19.182905    7846.4902    8300.2817    7978.9849    8490.2213    600.46635   -502.98603    1071.3695   -3613.4864 
12098000     197.3752   -4957.2359   -4562.4611   -4957.2359            0    7154.1597    17.964987    22.830658    19.259068    7899.1539    8280.8582    6980.6445    6200.9763    241.12868   -1434.0296   -245.43841   -3738.2943 
12099000    195.59537   -4957.1599    -4565.945   -4957.1599            0    6903.7225     17.83269    22.635967    19.540515    7887.7279    7037.7521    8617.9337    5055.4818   -865.54206    926.63101    2122.2321   -3771.7792 
12100000    195.73193    -4952.363    -4560.875    -4952.363            0    7520.4481     18.04277    22.560405    19.354982    7878.4877    4820.8115    9138.8088    8601.7239   -583.43376   -684.19763    487.98682    -3696.778 
12101000    193.12479   -4974.9077   -4588.6343   -4974.9077            0    6903.3971    17.936005    22.832183    19.225818    7873.3217    7618.1754    7314.9089    5777.1069   -512.62034   -1464.8027   -73.025045   -3795.9564 
12102000    201.79123   -4964.1169   -4560.5095   -4964.1169            0    6236.1732    17.805042    22.980345    19.357129    7920.2794     6782.975    5749.9646      6175.58    953.08873   -620.74909    932.36515   -3840.1744 
12103000    201.74834   -4947.4744   -4543.9528   -4947.4744            0    9516.6919    17.870825    22.908376    19.192654    7857.3108     9872.441    9309.4658    9368.1688    -287.7392   -291.50394   -149.11827   -3453.4273 
12104000     211.9356   -4977.8535   -4553.9561   -4977.8535            0    6567.8313    17.897299    22.877583     19.33542    7916.8285    8493.4778    6003.8604    5206.1557   -1674.4547   -1047.3265   -1777.3786    -3795.642 
12105000     215.2962   -4956.5585   -4525.9395   -4956.5585            0    8204.2588    17.812109    22.902145    19.326324    7883.8937    9157.6117     8082.415    7372.7496   -525.68597   -544.32702   -643.24403   -3582.6261 
12106000    196.36913   -4979.7026   -4586.9401   -4979.7026            0    5862.4077     18.11044    22.804535    19.180617     7921.598    3428.0003    7152.1101    7007.1126   -404.93916    1492.6931    468.81937   -3909.6656 
12107000     199.5706   -4953.5658   -4554.3999   -4953.5658            0    7047.0276    18.190592    22.783114    19.125729    7926.4356    5633.6101    6709.2665    8798.2062   -702.40539    502.48757   -504.59349   -3739.7711 
12108000     200.3025   -4942.0768    -4541.447   -4942.0768            0    8583.5461    17.909765    22.714919    19.340351    7868.0196    8680.2749    8095.6284    8974.7351    227.12363    1673.0539   -109.66278   -3556.5109 
12109000    201.44226   -4974.5533   -4571.6439   -4974.5533            0     7325.876    18.030241    22.742379    19.280663    7906.0468    6337.0841    8666.4532    6974.0906   -704.27756    470.97066   -1487.5173   -3726.9589 
12110000    206.03857   -4956.5802   -4544.4776   -4956.5802            0    8008.3042    18.116315    22.628231    19.238074     7886.459    7812.7339    8430.6793    7781.4995   -80.072587     1348.652   -852.73132   -3623.3952 
12111000    208.34482   -4944.4806   -4527.7652   -4944.4806            0    7475.3937    18.035024    22.679941    19.325553    7904.7943    6025.8868    8420.3079    7979.9863    595.38328    217.24386    1219.8208    -3665.977 
12112000    205.08865   -4972.0922   -4561.8896   -4972.0922            0    6823.5183    17.992001    22.929455    19.216148    7927.5596    6558.3275    7485.7129    6426.5145   -201.77818    430.46696   -645.23214   -3772.9863 
12113000    206.12589   -4977.7144   -4565.4371   -4977.7144            0    8449.3796    17.836467    22.993883      19.0979    7832.6147    10483.455    6501.7954    8362.8879    160.52706   -1073.4154   -51.539482    -3600.259 
12114000    204.93682   -4954.9545   -4545.0555   -4954.9545            0    7841.4996    17.996066    22.841343    19.152655    7872.7815    7467.3817    7480.9322     8576.185   -125.28833   -139.57327   -212.11908   -3644.7224 
12115000    197.70186   -4951.3579   -4555.9297   -4951.3579            0    7747.9646    18.152097    22.423873    19.352859    7877.3941    6900.9063    9351.0218    6991.9657    229.92143    715.54958    34.187482   -3665.8148 
12116000    191.03092   -4970.4668   -4588.3814   -4970.4668            0    7496.1627    17.969217    22.552679    19.449976    7882.1802    7977.5195    8179.0795     6331.889   -912.06219    374.86316   -1986.1602   -3726.6712 
12117000    194.61004   -4977.8007   -4588.5566   -4977.8007            0     7195.011    17.773831    22.859775    19.404407    7884.1224    10510.277    6042.4063    5032.3499   -504.32768   -579.13955    81.392162    -3761.261 
12118000    199.17825   -4971.7268   -4573.3457   -4971.7268            0    7009.7009    17.750211    23.046962    19.210535    7858.8076    7727.9426    5835.8324    7465.3278     1294.751   -867.95363   -707.07787   -3769.9453 
12119000    198.67847   -4975.4856   -4578.1041   -4975.4856            0    7811.6334    17.891084    23.018003    19.116685     7872.576     7622.325    6663.3653      9149.21   -1616.0448   -225.41145   -443.97905   -3681.2235 
12120000    199.90887   -4965.5849   -4565.7424   -4965.5849            0    6575.4411    18.034623    22.866703    19.177225    7908.5414    5055.5135    6552.2784    8118.5315    400.60982    279.82785    692.91075   -3807.3444 
12121000     200.3363   -4976.9578   -4576.2605   -4976.9578            0    7149.7527    17.887648    22.863469    19.253988    7874.3742    6817.4585    7432.6168    7199.1828    1031.8833    1304.4046    1057.6614   -3755.1852 
12122000    205.51784   -4949.6651    -4538.604   -4949.6651            0    8528.6265    17.913023    22.758113     19.33842    7883.6279    8471.7543    8414.2525    8699.8726    176.57432    36.610028   -2796.8209   -3558.0284 
12123000    192.51302   -4951.5667   -4566.5168   -4951.5667            0    5298.4123    18.139323    22.774863    19.279837     7964.898    3412.8488    6557.2581    5925.1299    1500.4362    949.02482     939.5118    -3951.054 
12124000    212.41093   -4975.9614   -4551.1133   -4975.9614            0    7825.4684    17.962387     22.82611    19.207234    7875.1853    8443.5739    7753.0116    7279.8197    998.39686    136.35084    2824.7526   -3652.3465 
12125000     208.6096   -4954.9815   -4537.7366   -4954.9815            0    8554.4577    17.870281    22.951688    19.196588    7873.5407    9158.9325    8765.3807      7739.06    22.424109    164.31659    880.08841   -3555.4494 
12126000    199.78249   -4966.3116   -4566.7219   -4966.3116            0     9103.185     17.85029    22.882103    19.170933    7830.4098    10500.217    9159.0102     7650.328   -1673.2452    1062.7259    1668.2201   -3527.1519 
12127000    192.92574   -4954.5193    -4568.644   -4954.5193            0    7046.9568    17.945601    22.759248    19.270743    7870.7185    7562.9363    6448.4984    7129.4357   -378.81608   -1400.5379    398.87362   -3759.7495 
12128000    195.15277   -4968.1787    -4577.849   -4968.1787            0    6586.8391    17.911385    22.844626    19.316455    7903.8856    7704.7371    5508.2117    6547.5684   -1288.9313   -710.79271   -495.56555   -3818.5837 
12129000    215.56398   -4957.5374   -4526.3828   -4957.5374            0    5981.7668    18.060532    22.705941    19.349727    7934.9628    5088.6582    6717.0441     6139.598    246.00923    -218.2872   -701.31844    -3834.153 
12130000    196.94605   -4984.8343   -4590.9178   -4984.8343            0    7521.3588    17.850681    22.888831    19.277769    7876.5348    7716.9942     6775.029     8072.053     1070.829   -495.82616   -1763.7762   -3726.9305 
12131000    196.52081   -4983.6979    -4590.632   -4983.6979            0    6493.0872    17.980241    22.857413    19.198567    7890.2616    5758.1095    6737.2409     6983.911    1287.6368   -442.95286   -1017.8188   -3843.4636 
12132000    210.77352   -4959.7341    -4538.161   -4959.7341            0     7015.972    18.041028    22.805486    19.227348    7910.7931     6610.754    6627.9045    7809.2575   -1279.3611   -788.27428   -1949.8832   -3728.7227 
12133000    196.56495   -4932.3657   -4539.2115   -4932.3657            0    6453.4601    17.886759    22.802809    19.414211    7918.4421    8141.8155    6086.3034    5132.2613   -1460.5149    -1440.444    2023.0302   -3793.9508 
12134000    187.41843   -4951.1613   -4576.3013   -4951.1613            0    8032.8552    17.863776    22.833711    19.311309    7877.0116     7915.804    7766.8641    8415.8975   -130.76761    205.59422    651.48394   -3653.5019 
12135000    200.30947   -4971.7209   -4571.0772   -4971.7209            0    8261.8636    17.943643    22.756561    19.214309    7845.8867    6990.6952    9669.6888    8125.2068   -263.40929    532.80134   -372.33608     -3625.72 
12136000    207.92204   -4956.8295   -4540.9598   -4956.8295            0     7514.763    18.040535    22.814221    19.173048    7891.2577     7677.683    6164.2209    8702.3851   -234.61831   -759.26296    145.68616   -3676.1165 
12137000    195.37982   -4961.5226   -4570.7388   -4961.5226            0    7805.5865    17.970206    22.767062    19.233637    7869.0349    7612.0126    8031.9634    7772.7835    -1217.646   -665.23687   -948.31246   -3674.9556 
12138000    209.09757     -4978.08    -4559.859     -4978.08            0     7807.517    17.839151    22.880524    19.297516    7876.6503    8235.5165    6997.5328    8189.5018    2902.1323   -398.94395    173.38912   -3662.9872 
12139000    193.43634   -4974.6591   -4587.7625   -4974.6591            0    6976.5002    17.910221    23.108697     19.03782    7879.4087    5442.4878    6485.8425    9001.1702   -2.9574114   -263.69927    711.32108   -3786.0713 
12140000    205.30245   -4963.0624   -4552.4321   -4963.0624            0    6183.9971    17.996178    22.934343     19.19876    7923.9144    5516.4677    5948.0362    7087.4873    392.58164   -14.061312   -881.22787    -3837.796 
12141000    204.80563   -4982.0668   -4572.4303   -4982.0668            0    6007.5711    17.831022    23.023086    19.317634    7930.3748    8777.1624    4639.1771    4606.3739   -711.00845    23.204947   -121.25692   -3877.6163 
12142000    200.17147   -4962.1647    -4561.797   -4962.1647            0    7833.3653      18.0281    22.852207    19.118573    7876.5055    7573.2931    7540.2012    8386.6016    1423.0554    1384.1938    883.02159   -3661.9724 
12143000    200.14318   -4978.8049   -4578.4938   -4978.8049            0    6137.5586    18.001138    22.801144    19.289985    7917.5075    6168.2571    6415.6976     5828.721   -416.14645   -45.932085    554.96447   -3869.7978 
12144000    205.56811   -4962.0954   -4550.9338   -4962.0954            0    6944.2286    17.868368    23.081831    19.082891     7870.445    7644.6834    6665.9577    6522.0446   -365.73624    652.67226    102.29361   -3753.8588 
12145000    197.90342    -4959.786   -4563.9547    -4959.786            0    6656.1675    17.773373    22.931896    19.412158    7911.9518    8882.0197    6634.0636    4452.4193   -504.06863    1106.1049    394.53821   -3795.9149 
12146000    194.22099    -4959.808    -4571.342    -4959.808            0    6686.4375    17.950688    22.884199    19.229436    7899.2046    6562.0493    6034.9347    7462.3284    1793.2459   -478.74761    161.20578   -3801.0524 
12147000    189.71878   -4971.1935   -4591.7325   -4971.1935            0    7476.7435    17.906792    22.996119    19.136804    7880.2816    6536.8664    7701.4921    8191.8722   -1348.8404    1085.3569      811.521   -3732.4616 
12148000    191.59871   -4949.8784   -4566.6573   -4949.8784            0    7675.5739    17.807707    23.156406    19.122682    7885.4769     7263.266     6544.641    9218.8146    -1707.361    -109.4788    2098.6645   -3683.9541 
12149000    209.26062   -4956.3308   -4537.7837   -4956.3308            0     7579.957    17.932192    22.866205    19.261484    7898.0014    5397.5288    8582.7044    8759.6379    368.78562    47.725417    1271.4843    -3664.692 
12150000    198.29959   -4971.8686   -4575.2449   -4971.8686            0    6614.1436    18.073862    22.439881     19.49506     7906.715    5950.0567    8591.6051    5300.7691   -681.33604    819.40966     141.0077   -3812.5593 
12151000    212.52626   -4945.2483   -4520.1695   -4945.2483            0    8055.8701     18.02315    22.655211    19.276889    7871.1058    7328.6489    8851.7581    7987.2032   -952.45848    294.03095    -804.1355     -3595.42 
12152000    204.33279   -4964.8148    -4556.124   -4964.8148            0    8143.9879     17.92033    22.674372    19.314682    7848.1776    7624.8891    8505.3214    8301.7531    922.19687   -702.63996   -1005.6588   -3623.9826 
12153000    202.61366   -4949.4536   -4544.2012   -4949.4536            0    8288.6069     17.74878    23.020849    19.279611    7877.4944    9964.9093    7224.5761    7676.3353   -133.81747   -835.18699    154.32809   -3591.9632 
12154000    197.18823   -4955.7012   -4561.3004   -4955.7012            0    7408.0896    17.963162    22.891735     19.14166    7871.2023     5656.592    8551.6573    8016.0195    -1631.625    367.33365    220.98017   -3710.9005 
12155000    196.65267   -4971.9121   -4578.5825   -4971.9121            0    7876.8688    18.083286    22.814443    19.158147    7903.8868    7667.4621    8330.4923     7632.652    10.976597    2046.4627   -254.15395   -3670.6152 
12156000    197.41853   -4982.4676   -4587.6062   -4982.4676            0    6122.6222    17.916138    22.773763    19.430418    7927.9578    8137.0842    5847.3017    4383.4808   -190.97686    1057.9944    875.08046   -3879.7016 
12157000    201.54198   -4968.9863   -4565.8774   -4968.9863            0    8692.0401    18.028363     22.69172     19.23431    7868.6517    8464.4207    9308.4947    8303.2049   -916.14338    1958.5042    642.69638   -3568.4118 
12158000     196.5811   -4979.2473   -4586.0608   -4979.2473            0    6569.4172    17.998101     22.72481    19.276532    7884.1674    5775.1228    6681.5518     7251.577    135.57343   -588.50604   -1422.1983   -3830.6928 
12159000     203.5837   -4986.0264   -4578.8338   -4986.0264            0    8079.2864    17.979045    22.562818    19.376417    7860.1971    8042.4675    7797.0287    8398.3628    -378.8316     54.40288   -351.01038   -3652.6817 
12160000    215.28765   -4985.7654   -4555.1635   -4985.7654            0     6972.246    17.912264    22.599791    19.493504    7891.2323     7791.181    6859.8337    6265.7233   -881.57797    6.6122445    195.88026   -3752.7589 
12161000    198.39961   -4973.4073   -4576.5835   -4973.4073            0    7797.8552    17.854328    23.032111    19.093342    7851.6186    7980.7458    6911.8978    8500.9219   -1594.5499   -1471.4747   -1044.6957   -3683.6683 
12162000    193.19402   -4951.6888   -4565.2769   -4951.6888            0    6655.9372    17.835429    23.061394    19.258475    7921.2005     5873.397    6552.3753    7542.0393   -946.19655   -521.69851    211.39166   -3796.3658 
12163000    197.69535   -4967.7685   -4572.3534   -4967.7685            0    5625.8168    17.907619    22.812198    19.412249    7930.1392     6701.716    5589.5539    4586.1806   -766.24198   -1146.8619   -658.30237   -3921.7111 
12164000    200.76311   -4974.1877   -4572.6367   -4974.1877            0     6221.097    17.993314    22.759472     19.31158    7908.4458    5148.1125    6802.9159    6712.2626    562.23482   -419.37874    96.326934   -3855.1167 
12165000    200.13391   -4967.3588   -4567.0663   -4967.3588            0    7671.9822    17.862712    22.917901    19.189615    7855.7651     8489.125    6324.3837    8202.4379    1183.4626   -1205.2855    1013.3754   -3688.1005 
12166000    219.56697   -4967.7838   -4528.6227   -4967.7838            0    7379.4716    17.987792    22.817763    19.156085    7862.4458    7574.2103    6689.7112    7874.4934   -868.32513   -960.49713     255.6205   -3682.4504 
12167000    194.90732   -4961.3232   -4571.4845   -4961.3232            0    6816.1339    18.028374    22.655063    19.352706    7904.3022    7470.3192    6606.6826    6371.3999    5.0027171    359.49715   -365.25836   -3785.7469 
12168000    203.18414   -4943.9385   -4537.5451   -4943.9385            0    8832.4439    17.965849    22.583792    19.320145    7838.8976    7470.1834    9994.0631    9033.0852    558.86748    1143.4576    754.68741      -3527.8 
12169000    211.45774   -4957.3454   -4534.4038   -4957.3454            0    7367.8565    18.062158     22.67058    19.270889    7891.0362    6412.8036    7162.4833    8528.2828    3044.9282    272.11243    839.12264   -3686.4912 
12170000    205.81864   -4959.5735   -4547.9108   -4959.5735            0    8689.8661    17.832961    22.975905    19.117151    7832.8402    7783.8795    8889.2272    9396.4915   -165.09875    343.85384   -1572.8757   -3555.2331 
12171000    202.86449   -4952.9872   -4547.2331   -4952.9872            0    7855.2788    17.646841    23.044791    19.324773    7858.7624    8684.5829    7735.2937    7145.9598      196.475   -318.97935    253.85771    -3646.924 
12172000    203.52871   -4976.0599   -4568.9773   -4976.0599            0    7887.9498    17.768665    22.945263    19.261824    7853.1748    8209.8044    8779.8455    6674.1996    729.36935     792.0892   -170.97905   -3665.5665 
12173000    201.84934   -4987.0802   -4583.3566   -4987.0802            0    7106.4406    18.028184    22.913419    19.035418    7863.2902      5242.09     7006.373    9070.8588    607.45773     270.8382    350.31329    -3768.404 
12174000    199.37943   -4968.1295    -4569.346   -4968.1295            0    7578.8542    18.104866      22.7175    19.140033    7872.2439    5708.8014    9025.1027    8002.6586    1566.4952    1266.8303    2106.9645   -3699.2283 
12175000    203.99038   -4974.9134   -4566.9075   -4974.9134            0    8193.0052     17.98864    22.523442    19.423738    7869.8402    7142.1489    9850.3945    7586.4722   -1627.8675    540.99944   -1243.6846   -3626.5672 
12176000    193.10785   -4958.2714   -4572.0318   -4958.2714            0    7685.0264    17.967614    22.487862    19.539364    7894.9427    8304.4312    9098.5393    5652.1088   -1267.4056   -131.92644   -547.47957   -3687.1806 
12177000    219.13237   -4976.4162   -4538.1244   -4976.4162            0    8588.0158    17.914536    22.721227    19.307907    7859.0953    9419.0833    8191.7972     8153.167   -177.20456    945.89704    250.45732   -3553.7931 
12178000    205.06941   -4963.7957   -4553.6316   -4963.7957            0    7558.1903    17.919728     22.80667    19.225103    7857.0941    6566.0146    8672.4586    7436.0976     721.9493   -159.00961    -306.6359   -3687.5563 
12179000    199.53332   -4947.8094   -4548.7181   -4947.8094            0    6378.9408    17.947036    22.749394     19.34787    7899.4292    7623.9143    6114.8509    5398.0572   -1760.9061   -220.91521   -950.79318   -3813.8318 
12180000    205.80657   -4969.3553   -4557.7167   -4969.3553            0    6296.2297     17.99121    22.759359    19.326986      7913.79    6785.2583    6175.3806    5928.0501   -1498.9709   -715.69027    33.646171   -3831.0405 
12181000    193.21415   -4960.6333   -4574.1812   -4960.6333            0    6938.0216    18.006187    22.814676    19.220058    7895.7024    6707.3047     6032.795    8073.9651    876.81742   -1228.6725   -37.426805    -3775.263 
12182000     202.1595    -4963.596    -4559.252    -4963.596            0    7985.3304    17.935699    22.877795    19.286833    7913.9518    8596.8159    7113.6622     8245.513   -17.599271    1495.5775   -509.90876   -3637.6102 
12183000    195.02458   -4978.7756   -4588.7023   -4978.7756            0    7636.8293    17.906241    22.903456    19.286932    7909.8567    9005.1751    5965.7069    7939.6058    395.85711    41.928968   -244.88057   -3707.7395 
12184000    187.79376   -4964.8868   -4589.2761   -4964.8868            0    7356.3039    17.931495    22.751656    19.362037    7899.1538    8370.9998    6682.0734    7015.8385    777.83989    244.44531    589.25521   -3741.8221 
12185000    202.17422   -4949.6144   -4545.2409   -4949.6144            0     7247.306    17.993503    22.822384    19.249005     7904.693    6328.2403    7446.0419    7967.6357    343.33706    952.01571   -760.71998   -3709.7582 
12186000    199.41916   -4951.7967   -4552.9338   -4951.7967            0    5958.2171      18.0921    22.741612    19.321531    7949.7185       6161.1    5998.8273     5714.724   -631.26136   -192.43142   -801.02718   -3862.1471 
12187000    194.31389   -4960.5043   -4571.8525   -4960.5043            0    6798.8087    17.720761    22.776913    19.575033    7900.9579      8982.54    6300.8914    5112.9947    287.33563   -568.48271   -980.86971   -3788.4437 
12188000    198.31645   -4938.0042   -4541.3468   -4938.0042            0    9016.0366    17.899466     22.69587      19.3466    7859.4394    8071.1701     10390.63    8586.3102    664.39466    224.64469    509.18087   -3507.9119 
12189000    195.95163   -4980.3597   -4588.4322   -4980.3597            0    6497.6155    18.006887     22.80199    19.206197    7885.9271    5824.9544    6334.6235    7333.2686     309.5778   -858.79614   -421.53756   -3841.1534 
12190000    216.08047   -4953.6168   -4521.4292   -4953.6168            0    7980.9305    18.028912    22.715466    19.194249    7860.7192    8717.8743    7764.4132    7460.5041    195.51248   -1123.9252    507.68327   -3606.4911 
12191000    192.56335    -4941.456   -4556.3055    -4941.456            0    7215.8058    17.950773    22.838355    19.294971    7910.2847    7568.1831     7068.264    7010.9702    565.10854   -110.05737    1213.7637   -3723.8657 
12192000     201.0392   -4953.3673    -4551.264   -4953.3673            0    7639.6354    17.857157    22.782534    19.363273    7877.5851    7895.6422    7450.1989    7573.0652   -204.98715    301.80881   -498.75104   -3673.5731 
12193000    204.12886   -4975.5387   -4567.2558   -4975.5387            0    7196.0255    18.065662    22.545203    19.371126    7889.7438    8421.5565    7658.1987    5508.3214   -1143.5916    131.97639    86.570158   -3739.2536 
12194000    211.49013   -4985.2739   -4562.2675   -4985.2739            0    6636.4877    18.117118    22.651067    19.317485    7927.3558    5280.7132    7419.3558     7209.394   -992.35566    168.39974   -1388.2525   -3795.0075 
12195000    198.77142   -4956.1143   -4558.5469   -4956.1143            0    7121.5231     18.04914    22.761436    19.294257    7926.5505    6012.8434    7898.3538     7453.372    520.63931    1110.4264    628.76179   -3735.2945 
12196000    203.34882   -4974.7056   -4567.9828   -4974.7056            0    6951.2895     17.84587    22.995453    19.192005    7875.8973    5454.8649    7340.2681    8058.7354    815.84601   -173.71589    794.52386   -3769.5446 
12197000    201.69856   -4968.7294   -4565.3074   -4968.7294            0    6549.3754    17.907244    23.018322     19.16003    7897.6632    5883.5554    6313.0558    7451.5149   -757.80445    143.67008    211.35376   -3810.9548 
12198000    196.70676   -4952.5476   -4559.1098   -4952.5476            0    7319.4069    17.734274    23.033744    19.314058    7889.5363    8199.7827    6371.5623    7386.8756   -1174.4255   -1480.0887    300.33587    -3716.933 
12199000     207.8417   -4963.6994   -4547.9903   -4963.6994            0    6474.9484    17.844719    22.928794    19.295718    7894.9953    6248.3524    6961.5798    6214.9131   -1460.4255   -682.46925    33.866358   -3802.4621 
12200000    194.43546   -4961.9168   -4573.0219   -4961.9168            0    8101.5794    17.919841    22.739493    19.415389    7911.5402    8152.0343    8900.2789    7252.4251   -386.99919   -812.43614    1209.3828   -3638.2479 
12201000    201.67875   -4963.9226   -4560.5402   -4963.9226            0    7458.0567    18.020797    22.653398    19.283518    7872.1548    9112.6547    7116.2078    6145.3075    755.34515   -707.65248   -939.85044   -3704.3008 
12202000    193.77188   -4957.2305   -4569.6628   -4957.2305            0    7487.0112    17.939429    22.879397     19.21387    7886.2047    6575.3702    8234.4113     7651.252    154.71957    303.76848   -467.62467   -3708.5651 
12203000    190.75956    -4965.149   -4583.6063    -4965.149            0    6954.2134    17.804292    22.922528    19.339695    7892.9043    7238.3214    7013.3331    6610.9857    940.07925   -239.71324   -423.83542   -3783.1074 
12204000    198.54511    -4990.695   -4593.5803    -4990.695            0    6038.2128    17.872554    23.100393    19.151605    7906.9894    5538.1597    5658.2604    6918.2183    329.33301    350.75485   -1501.9546   -3897.2818 
12205000     198.6029   -4984.9951   -4587.7648   -4984.9951            0    7338.1409     17.90978    22.913093    19.267485    7906.7678    8213.8596     5585.424    8215.1389   -781.85589   -994.68059   -1569.4673   -3741.5884 
12206000    203.67294   -4983.9236   -4576.5525   -4983.9236            0    8817.5712    17.889095    22.634877    19.380074    7847.3304    9165.2002    9372.1372    7915.3762   -916.74855    275.68202    911.80606   -3567.4233 
12207000    201.30013   -4963.6513   -4561.0261   -4963.6513            0    8715.1782    18.124726     22.47758    19.339379    7878.8628    7438.1943    9835.8858    8871.4546     1379.268    1070.0112      1916.33   -3559.6074 
12208000    207.66767   -4966.1902   -4550.8292   -4966.1902            0    7219.5888    18.039185    22.794312     19.24928    7915.1269    5450.2019    7498.2787    8710.2857   -2.0815406    528.70452    1283.9979   -3717.4432 
12209000    195.33824   -4956.3379   -4565.6373   -4956.3379            0    6151.4875    17.787662    23.257504    19.199918    7942.9411    9085.6247    4662.2056    4706.6323    1466.5877    706.43825    227.42223   -3853.0511 
12210000    197.50435   -4942.4334   -4547.4003   -4942.4334            0    7111.1316    17.959025    23.064035    19.132773    7924.9394    8910.8978    6655.8295    5766.6677    238.59869   -416.82558    409.32356   -3725.5162 
12211000    198.56715   -4948.8295   -4551.6707   -4948.8295            0    7876.9651    17.988637    22.894664    19.139681    7882.5591    7635.3641    7260.6299    8734.9015    293.52174    29.417239   -25.791059   -3646.1424 
12212000    201.13471    -4968.562   -4566.2678    -4968.562            0    6151.8821    17.948672    22.769089    19.409663    7932.2422    6521.7521    7237.7192     4696.175    377.24064   -922.34618   -1243.9628   -3854.5958 
12213000    195.47872   -4946.1414   -4555.1598   -4946.1414            0    9017.6316    17.925819    22.712367     19.25479    7839.3524    8327.3318    9761.3409    8964.2222   -1401.9096   -385.36765    899.32234   -3524.1838 
12214000    194.90565   -4955.5298   -4565.6944   -4955.5298            0    7192.6744    18.002349    22.839457    19.195089    7892.3272    7515.9777    7047.3245    7014.7209    428.45156   -481.27692    770.79622   -3737.8068 
12215000    190.64806   -4975.3338   -4594.0141   -4975.3338            0    8506.3777    17.758074    22.868295    19.290618    7833.8594    9524.6063    8129.7634    7864.7634     1218.029   -296.69909    774.92078   -3622.1706 
12216000    202.89643   -4983.4213   -4577.6033   -4983.4213            0    5646.1949    17.774586    22.967648    19.442367    7937.1604    7750.9407    4907.7141    4279.9299   -317.16392   -798.27036   -557.62605   -3924.0261 
12217000    197.64859    -4987.271   -4591.9494    -4987.271            0    5529.3292    17.808313    22.995644     19.35419    7925.8045     6041.151    5129.5682    5417.2685   -144.48693    880.24309    536.74635   -3952.8157 
12218000    208.16445     -4967.52   -4551.1654     -4967.52            0    6934.7626     18.02247    22.984961     19.04414    7888.9546     7040.515    6597.1315    7166.6414   -76.400116   -22.144808   -702.04185   -3753.3049 
12219000    194.36394   -4951.7584   -4563.0065   -4951.7584            0     8875.705    17.941081    22.622939    19.329049    7845.2742    9001.9976    9363.5471    8261.5703    869.64983    52.361011    718.77221   -3547.4902 
12220000    196.94829   -4980.9944   -4587.0734   -4980.9944            0    6774.9976      17.8392    22.740629    19.434699     7884.164    6818.4512    6025.8596    7480.6821    1416.9444   -985.72221    464.10648   -3808.0677 
12221000    195.12912   -4963.4794    -4573.197   -4963.4794            0    6856.8422    17.945146    22.848667    19.273998    7902.7764    7615.6378    6658.4958    6296.3929    103.12317    867.71896   -461.05383   -3782.9193 
12222000    200.18544   -4988.8025   -4588.4068   -4988.8025            0    7900.4428    18.088079    22.861981     18.99671    7855.6968    5829.8728    8516.8676     9354.588   -1366.3871     17.86143    169.67937   -3683.2746 
12223000    201.39662    -4988.345   -4585.5269    -4988.345            0    7712.5089     17.89732    22.789937    19.274537    7861.6752    6202.3661    8624.0708      8311.09    879.63979    416.58808   -750.31102   -3701.2532 
12224000    201.97766   -4966.4977   -4562.5174   -4966.4977            0    6779.7699    17.831683    23.018961    19.233405    7894.6744    6580.6828    6398.6939    7359.9331   -95.104756   -899.63247   -201.88174   -3781.9237 
12225000    195.88714   -4966.5477   -4574.7493   -4966.5477            0    7066.6045    17.987545    22.875741    19.158064    7883.1301    6482.4676    6870.1394    7847.2066   -557.11684    498.91422    2025.3657   -3762.3203 
12226000    192.10631   -4954.3244    -4570.088   -4954.3244            0    7064.9546    18.104427    22.713819    19.253889    7917.5972    7633.2984    6527.9703    7033.5951    283.17406   -782.29881    903.31528   -3754.2975 
12227000    216.80994   -4947.9817    -4514.335   -4947.9817            0    7829.8973    18.063761    22.486785     19.43071     7892.675    8074.0787    8290.9101     7124.703   -868.68233    -63.95643    981.65802   -3613.0624 
12228000    200.28521   -4941.1678   -4540.5726   -4941.1678            0    8606.5999    17.861029    22.776101    19.326392    7862.0652    8282.6926    8719.7579    8817.3492    722.96608    754.16785   -279.77744   -3553.7385 
12229000    207.83156   -4961.0035   -4545.3147   -4961.0035            0    8174.0138    17.957208    22.966304    19.110525    7881.3849    8543.6631    7128.1452    8850.2333    787.07296    3.7505778    368.57565   -3605.7779 
12230000    208.70163   -4951.1378   -4533.7087   -4951.1378            0    7453.3738    18.092725    22.836594    19.111324    7896.3447    6685.7105    6868.5873    8805.8235    734.71674   -361.51212    -834.7016   -3675.3776 
12231000    213.08042   -4960.4079   -4534.2207   -4960.4079            0    9165.6332    17.894872    22.620683    19.344161    7830.4046    8932.1013    10021.545    8543.2535   -1111.8498    608.52488   -209.44363   -3487.5199 
12232000    203.57845   -4972.7435   -4565.5614   -4972.7435            0    5831.7001    17.968002    22.807114     19.39681    7948.7789    7664.9157    5007.6832    4822.5015    -1431.495   -1106.4013   -272.97692   -3889.5228 
12233000     198.5445   -4966.6066   -4569.4931   -4966.6066            0    8947.0053    17.921213    22.757205    19.218826    7838.1431     9532.562     9573.574      7734.88    1158.3383    190.10591   -562.86438   -3546.7495 
12234000    201.49243   -4946.4881   -4543.4784   -4946.4881            0    6921.6267    17.875598    23.017417    19.128157    7870.2817    6794.6473    6755.6049    7214.6279    367.44214   -1208.9461    545.87732   -3749.0142 
12235000    202.61056   -4985.3849   -4580.1387   -4985.3849            0    8237.2443    17.723618    23.164844    19.076641    7832.1984    8176.2181     7642.462    8893.0528    185.36858    412.41558   -556.57601    -3639.243 
12236000    200.17286   -4976.1738   -4575.8033   -4976.1738            0     5834.959    17.893328    22.790927    19.412864     7916.673    5338.6436    6706.0422    5460.1911    40.814063    870.07224   -1751.5036   -3902.1191 
12237000    196.34868   -4962.5565   -4569.8349   -4962.5565            0    7436.4379    17.989338    22.663636     19.29069    7864.8876    6352.7462    7822.0683    8134.4991   -146.81423   -35.431096   -136.05987   -3716.8657 
12238000    214.91834   -4971.3088   -4541.4456   -4971.3088            0     8426.749    18.067764    22.599933    19.208963     7843.601    9103.5434    7858.9875    8317.7162    577.12424   -825.11587   -674.30253   -3577.5024 
12239000     196.6319   -4949.1477   -4555.8596   -4949.1477            0    9261.8984    18.008974    22.764793    19.132377    7843.7117    8791.8464    10108.255    8885.5944   -255.58496    602.02953    -1366.674    -3496.368 
12240000     206.5852   -4963.8088   -4550.6129   -4963.8088            0    7980.3427    17.919922    22.876189    19.252207    7892.2407    7408.5349    8641.6458    7890.8475   -338.21391   -172.39855   -1076.9255   -3632.0736 
12241000    195.76597   -4967.1465   -4575.5904   -4967.1465            0    8495.8486    17.856622    22.851721    19.283034    7868.5291    9550.0632    8054.1784    7883.3043   -607.42949    1320.8711   -387.22618   -3600.6542 
12242000     206.8817   -4989.4632   -4575.6742   -4989.4632            0    6236.8725    18.036062    22.962537     19.14551    7929.1845    5287.7476    5797.7924    7625.0774     654.3599    52.887476   -790.66646   -3854.4484 
12243000    208.11743   -4948.4131   -4532.1525   -4948.4131            0    8196.5841    17.948167    22.799153    19.229099    7868.6051    8598.5417    8350.5943    7640.6163   -904.31426    778.30135   -188.20188   -3591.5491 
12244000     203.3027   -4947.2416   -4540.6111   -4947.2416            0    8514.7005    17.783909    22.704583    19.425983    7843.7504    8854.1052    9539.2424    7150.7539   -601.42428    170.96833     -651.847   -3566.5885 
12245000    205.34192   -4939.3155   -4528.6063   -4939.3155            0    6914.5351    17.770203    22.868427     19.41014    7887.8267     6731.765    7826.6433    6185.1971    418.45527    914.79012    796.27072   -3733.1868 
12246000    202.91079   -4976.5568   -4570.7101   -4976.5568            0    5739.8093    17.987364    22.872271    19.253875    7921.2726    5820.1162    5473.7513    5925.5603     299.9999    100.47879   -477.65816   -3907.6265 
12247000    194.75005   -4950.6292    -4561.105   -4950.6292            0     7098.631    18.077311    22.777262    19.207386    7908.6726    6642.7161    7200.6155    7452.5615   -186.07284    814.72067   -1323.1064   -3742.3498 
12248000    208.26198   -4960.3244   -4543.7748   -4960.3244            0    6959.4207    17.878704    22.876096    19.302362    7894.5687    6767.3596    7504.3926      6606.51   -178.40392    211.67235    904.84311   -3742.5075 
12249000    206.49583   -4991.1655   -4578.1483   -4991.1655            0    5877.9148    17.815342    22.860684    19.428532     7912.676    5757.7852    5946.0886    5929.8707    543.30922    12.151462    567.40523   -3899.8471 
12250000    208.10406   -4948.4877   -4532.2539   -4948.4877            0    7511.5111    17.895706    22.838228    19.288555    7883.3522    7815.9339     6975.898    7742.7016   -32.850863   -53.147423    421.09404   -3668.6509 
Loop time of 438.285 on 64 procs for 250000 steps with 1008 atoms

Performance: 98.566 ns/day, 0.243 hours/ns, 570.406 timesteps/s
194.7% CPU use with 32 MPI tasks x 2 OpenMP threads

MPI task timing breakdown:
Section |  min time  |  avg time  |  max time  |%varavg| %total
---------------------------------------------------------------
Pair    | 36.612     | 40.363     | 47.981     |  34.2 |  9.21
Bond    | 1.032      | 1.2519     | 1.947      |  14.8 |  0.29
Kspace  | 210.45     | 219.26     | 224.79     |  20.9 | 50.03
Neigh   | 2.3227     | 2.5204     | 2.7163     |   7.2 |  0.58
Comm    | 70.267     | 74.109     | 78.658     |  19.4 | 16.91
Output  | 0.62065    | 0.62101    | 0.6228     |   0.0 |  0.14
Modify  | 84.816     | 86.349     | 87.903     |   9.3 | 19.70
Other   |            | 13.81      |            |       |  3.15

Nlocal:        31.5000 ave          35 max          28 min
Histogram: 1 3 6 0 8 6 0 2 3 3
Nghost:        2927.28 ave        2943 max        2913 min
Histogram: 2 6 0 2 7 4 4 3 1 3
Neighs:        10604.7 ave       11812 max        9370 min
Histogram: 1 3 4 3 7 6 0 2 3 3

Total # of neighbors = 339349
Ave neighs/atom = 336.65575
Ave special neighs/atom = 2.0000000
Neighbor list builds = 5843
Dangerous builds = 0

unfix		3
unfix		2
unfix		1

write_data	data.final.${pid}
write_data	data.final.0
System init for write_data ...
PPPM initialization ...
  extracting TIP4P info from pair style
  using 12-bit tables for long-range coulomb (../kspace.cpp:340)
  G vector (1/distance) = 0.37912277
  grid = 24 27 32
  stencil order = 5
  estimated absolute RMS force accuracy = 0.0024760134
  estimated relative force accuracy = 7.4564408e-06
  using double precision FFTW3
  3d grid and FFT values/proc = 5355 672
Last active /omp style is kspace_style pppm/tip4p/omp
WARNING: Not all mixed pair coeffs generated from mixing. Use write_data with 'pair ij' option to store all pair coeffs. (../write_data.cpp:312)

write_restart   restart.lmp.${pid}
write_restart   restart.lmp.0
System init for write_restart ...
PPPM initialization ...
  extracting TIP4P info from pair style
  using 12-bit tables for long-range coulomb (../kspace.cpp:340)
  G vector (1/distance) = 0.37912277
  grid = 24 27 32
  stencil order = 5
  estimated absolute RMS force accuracy = 0.0024760134
  estimated relative force accuracy = 7.4564408e-06
  using double precision FFTW3
  3d grid and FFT values/proc = 5355 672
Last active /omp style is kspace_style pppm/tip4p/omp
Total wall time: 0:07:18
