#include		in.partitions
include		in.temp
variable        temperature equal 131.79
variable	tempDamp equal 100.0
include		in.pressure
variable        pressure equal 7108.3
variable        pressureDamp equal 1000.0 # This is 1 ps
include		in.seed
variable        seed equal 745823

units		real
atom_style	full
read_restart    restart.lmp.${pid}
read_restart    restart.lmp.1
Reading restart file ...
  restart file = 30 Jul 2021, LAMMPS = 30 Jul 2021
  restoring atom style full from restart
  triclinic box = (-3.2795773 0.098363212 0.065010200) to (14.889576 22.481636 19.164988) with tilt (0.050309485 -6.6562980 0.12527515)
  2 by 4 by 4 MPI processor grid
  restoring pair style lj/cut/tip4p/long/omp from restart
  restoring bond style harmonic/omp from restart
  restoring angle style harmonic/omp from restart
  1008 atoms
  672 bonds
  336 angles
Finding 1-2 1-3 1-4 neighbors ...
  special bond factors lj:    0        0        0       
  special bond factors coul:  0        0        0       
     2 = max # of 1-2 neighbors
     1 = max # of 1-3 neighbors
     1 = max # of 1-4 neighbors
     2 = max # of special neighbors
  special bonds CPU = 0.003 seconds
  read_restart CPU = 0.010 seconds

include 	in.setup
variable	out_freq equal 1000
variable	out_freq2 equal 10000
variable	out_freq3 equal 1000

timestep	2.0

neigh_modify    delay 7 every 1

include		in.tip4p
# This is TIP4P/Ice

# create groups ###
group ox type 2
336 atoms in group ox
group hy type 1
672 atoms in group hy

# set charges - beside manually ###
set group ox charge -1.1794
Setting atom values ...
  336 settings made for charge
set group hy charge 0.5897
Setting atom values ...
  672 settings made for charge

# ### TIP3P Potential Parameters ###
pair_style lj/cut/tip4p/long/omp 2 1 1 1 0.1577 8.5
pair_coeff 1 1*2 0.000 0.000
pair_coeff 2 2 0.21084 3.1668
bond_style  harmonic
bond_coeff  1 450 0.9572
angle_style harmonic
angle_coeff 1 55 104.52
kspace_style pppm/tip4p/omp 1.0e-5
pair_modify tail yes

thermo          ${out_freq}
thermo          1000
thermo_style    custom step temp pe etotal epair emol press lx ly lz vol pxx pyy pzz pxy pxz pyz enthalpy

restart 	${out_freq3} restart.lmp.${pid} restart2.lmp.${pid}
restart 	1000 restart.lmp.${pid} restart2.lmp.${pid}
restart 	1000 restart.lmp.1 restart2.lmp.${pid}
restart 	1000 restart.lmp.1 restart2.lmp.1


include         in.dump
dump            myDump all atom ${out_freq2} dump.water.${pid}
dump            myDump all atom 10000 dump.water.${pid}
dump            myDump all atom 10000 dump.water.1
dump            myDump2 all dcd ${out_freq2} dump.dcd
dump            myDump2 all dcd 10000 dump.dcd
dump_modify     myDump append yes
dump_modify     myDump2 append yes


variable natoms 	equal  "count(all)"                        # NUMBER ATOMS
variable H      	equal  "enthalpy/v_natoms"                 # ENTHALPY-per-atom
variable Vol      	equal  "vol/v_natoms"                 # volume-per-atom
fix AVG all 		ave/time ${out_freq} 1 ${out_freq} v_Vol v_H file vol_enthalpy.dat
fix AVG all 		ave/time 1000 1 ${out_freq} v_Vol v_H file vol_enthalpy.dat
fix AVG all 		ave/time 1000 1 1000 v_Vol v_H file vol_enthalpy.dat



fix 		1 all shake 1e-6 200 0 b 1 a 1
       0 = # of size 2 clusters
       0 = # of size 3 clusters
       0 = # of size 4 clusters
     336 = # of frozen angles
  find clusters CPU = 0.001 seconds
fix             2 all nph tri ${pressure} ${pressure} ${pressureDamp}
fix             2 all nph tri 7108.3 ${pressure} ${pressureDamp}
fix             2 all nph tri 7108.3 7108.3 ${pressureDamp}
fix             2 all nph tri 7108.3 7108.3 1000
fix             3 all temp/csvr ${temperature} ${temperature} ${tempDamp} ${seed}
fix             3 all temp/csvr 131.79 ${temperature} ${tempDamp} ${seed}
fix             3 all temp/csvr 131.79 131.79 ${tempDamp} ${seed}
fix             3 all temp/csvr 131.79 131.79 100 ${seed}
fix             3 all temp/csvr 131.79 131.79 100 745823


run             250000
PPPM initialization ...
  extracting TIP4P info from pair style
  using 12-bit tables for long-range coulomb (../kspace.cpp:340)
  G vector (1/distance) = 0.37944315
  grid = 24 27 32
  stencil order = 5
  estimated absolute RMS force accuracy = 0.002450981
  estimated relative force accuracy = 7.3810564e-06
  using double precision FFTW3
  3d grid and FFT values/proc = 5355 672
Last active /omp style is kspace_style pppm/tip4p/omp
Neighbor list info ...
  update every 1 steps, delay 7 steps, check yes
  max neighbors/atom: 2000, page size: 100000
  master list distance cutoff = 10.8154
  ghost atom cutoff = 10.8154
  binsize = 5.4077, bins = 5 5 4
  1 neighbor lists, perpetual/occasional/extra = 1 0 0
  (1) pair lj/cut/tip4p/long/omp, perpetual
      attributes: half, newton on, omp
      pair build: half/bin/newton/tri/omp
      stencil: half/bin/3d/tri
      bin: standard
Per MPI rank memory allocation (min/avg/max) = 10.31 | 10.32 | 10.34 Mbytes
Step Temp PotEng TotEng E_pair E_mol Press Lx Ly Lz Volume Pxx Pyy Pzz Pxy Pxz Pyz Enthalpy 
  500000    135.57042    -5101.062   -4829.9044    -5101.062            0     8755.433    18.169154    22.383273    19.099978    7767.6766    7911.4731    8930.9988    9423.8271    143.70559    41.951637    256.90733   -3838.0575 
  501000    134.40832    -5127.508   -4858.6747    -5127.508            0    6417.6992     17.78378    22.888156    19.195703    7813.3792    7451.3252    5433.9438    6367.8285    30.967539    -784.9244   -1251.7814   -4127.3771 
  502000    132.28862   -5120.5515   -4855.9579   -5120.5515            0    4798.4375     17.93726    22.617909    19.366286    7856.9667    5129.0829    5429.9165    3836.3129   -253.36516    43.012065   -466.08685   -4306.1251 
  503000    133.93062   -5126.2983   -4858.4205   -5126.2983            0    6893.7301     17.87426    22.832963    19.094574     7792.922    7303.8661    6536.2997    6841.0245    134.58218   -16.622153    291.18011   -4074.9358 
  504000    127.44464   -5125.8365   -4870.9314   -5125.8365            0    7765.7514    17.826518    22.775066    19.155464    7777.1206    8369.6802    7339.8947    7587.6794    87.616249   -594.43184   -429.46242   -3990.1296 
  505000    128.54776   -5113.7134    -4856.602   -5113.7134            0    6242.2038    17.976604    22.755493    19.162685    7838.8126    5321.6604    7045.8759     6359.075    807.91239    1062.3734    1152.1106   -4142.9868 
  506000    136.91616    -5118.616   -4844.7667    -5118.616            0    8305.7789    17.757851    22.867433    19.117064    7762.9896    9297.8588    8466.0934    7153.3845    1.3742181    173.39383   -229.05002    -3904.426 
  507000    130.89701   -5115.3985   -4853.5884   -5115.3985            0    6814.6444    18.021167    22.512876    19.258818    7813.4626    6784.7034    7055.1195    6604.1103   -864.39847   -633.04134   -210.08997   -4077.0505 
  508000    130.75084   -5111.8479     -4850.33   -5111.8479            0    7996.6708    17.792638    22.814823    19.158286    7777.0361    8392.4167    7174.8366    8422.7591    218.44843    -371.2236     644.3844   -3943.3469 
  509000    135.64068   -5112.8075   -4841.5093   -5112.8075            0       5674.2    18.054265    22.608578    19.245537    7855.6676    5360.5294     5332.036    6330.0346   -90.496741   -192.75035    157.80121   -4191.4341 
  510000    131.32457   -5106.2912   -4843.6258   -5106.2912            0    7580.7703    17.855336    22.771558       19.174      7796.03    5928.3487    8739.3156    8074.6468   -766.06866    862.34464    448.09756   -3981.7142 
  511000    130.10671   -5117.2078   -4856.9783   -5117.2078            0    5736.3057    17.929595    22.706456    19.192584    7813.6381    5217.3103    5866.8398    6124.7669    240.23353    -549.2058   -361.24316   -4203.3039 
  512000     139.5108   -5106.5806   -4827.5418   -5106.5806            0    7331.7437     17.84423    22.751321    19.199282     7794.521    7722.8289     7302.174    6970.2283   -696.02829    333.42666    192.41705   -3994.1051 
  513000    135.91726   -5104.2887   -4832.4374   -5104.2887            0     8073.896    17.852473     22.83834    19.134808    7801.6605    8631.3854    7540.2275    8050.0751    877.96613     330.8266   -1338.0633   -3913.7959 
  514000    128.81033   -5111.4771   -4853.8405   -5111.4771            0    7253.4774    17.969386     22.59472    19.187671    7790.4486    6458.3864    7464.5995    7837.4463   -276.68092   -528.55984    442.94907   -4029.7316 
  515000    131.34365   -5111.4776   -4848.7741   -5111.4776            0    7756.4207    17.821033    22.994772    18.972333    7774.6837    8024.4243    6290.7807    8954.0573    87.917382   -477.33371   -343.36696   -3969.3062 
  516000    135.65059   -5120.3691   -4849.0512   -5120.3691            0    7018.1801    17.870023    22.570567    19.341732    7801.2273    7016.0566    8103.2217    5935.2619     180.9818    648.26351   -2.6188552   -4050.5725 
  517000     130.7688   -5112.7954   -4851.2417   -5112.7954            0    7196.1823    17.826207    22.764517    19.195064    7789.4524    7244.5952    7248.8902    7095.0616   -1330.8045   -27.420297    110.74265   -4033.7469 
  518000     132.3018   -5124.0545   -4859.4346   -5124.0545            0      7732.36    17.953014    22.624116    19.133417    7771.4403    7115.7514    7998.7793    8082.5494    905.64969   -293.85186    110.87681   -3983.0606 
  519000    131.49538   -5119.4742   -4856.4672   -5119.4742            0    5763.4043    17.885685    22.801984    19.207265    7833.2814     6060.911    5990.6504    5238.6515   -775.47695    618.71359     242.5362   -4198.0537 
  520000    136.91092   -5133.6017   -4859.7629   -5133.6017            0    6313.2292    17.899997    22.696474    19.212347    7805.3391    7350.5105    6548.8696    5040.3076    40.626773   -325.57315    882.09596     -4141.11 
  521000    125.87356   -5117.8728   -4866.1101   -5117.8728            0    7057.2711    17.923787    22.740843    19.154574    7807.4432    6638.8589    7845.2763     6687.678   -77.759381    315.34412    -198.4106   -4062.5442 
  522000    135.00626   -5120.5631   -4850.5339   -5120.5631            0    7233.8782    17.927129    22.641907     19.21753    7800.4795    5722.3408    8200.6116    7778.6822    807.01658    541.65761    251.85485   -4027.5935 
  523000    127.69081    -5124.345   -4868.9476    -5124.345            0    6476.7543    17.913026     22.60319    19.323092    7823.7561    7618.7187      6095.52    5716.0242    366.69951   -406.02187    1207.1745   -4129.9405 
  524000    137.24571    -5105.836   -4831.3276    -5105.836            0    5990.9042    17.804946    22.864551    19.269396    7844.6115    6939.6158    5837.6222    5195.4745   -190.25023    378.74782   -760.82468   -4145.9345 
  525000    138.59859    -5113.114   -4835.8997    -5113.114            0    7294.7547    18.116754    22.554421    19.088761    7799.9137     5817.018    6944.0921    9123.1539    198.35164    -1422.498    593.89295   -4006.0941 
  526000    132.73035   -5103.0139   -4837.5368   -5103.0139            0    8087.2739    17.923678    22.753625    19.091252    7785.9596    7197.5715    7907.7332    9156.5169   -1350.0269    80.646273   -939.17946    -3919.225 
  527000      133.384   -5105.3498   -4838.5653   -5105.3498            0    6249.2654     17.97731    22.684247    19.208188    7833.1326    5822.4619    6725.1122    6200.2223   -43.017079   -439.89837   -631.29206   -4124.6605 
  528000    128.66119   -5113.8657   -4856.5274   -5113.8657            0    8344.3913    17.722895    22.882237    19.156225    7768.6056    8272.1792    8796.2512    7964.7434   -761.11885   -104.56556   -523.22906   -3911.1317 
  529000    130.88939   -5111.8465   -4850.0515   -5111.8465            0    7958.8598     18.05854    22.499331    19.146206    7779.2007    7559.0616    8151.6417    8165.8762    818.44205   -251.16092    670.88166   -3947.1056 
  530000    135.73512   -5110.9292   -4839.4422   -5110.9292            0    7134.3765    17.912145    22.872686    19.046019    7803.1324    6910.4711    6341.0788    8151.5796   -184.82139   -99.402153   -804.57594   -4027.5453 
  531000    138.48255   -5113.3176   -4836.3354   -5113.3176            0    7016.9341     17.97665    22.663187    19.175429    7812.2268    5729.8576     7600.921    7720.0237    952.77712    420.53115   -658.01481   -4036.8728 
  532000    138.62227   -5119.6319   -4842.3702   -5119.6319            0    7567.4953    17.823005    22.731495    19.258291    7802.3723    7622.2354    7108.9416    7971.3089   -187.09092   -752.70053   -1093.6128    -3981.268 
  533000    137.05535   -5121.9204   -4847.7927   -5121.9204            0    7645.5014    17.778807    22.756777    19.222452    7777.1804    7924.9335    7374.8875    7636.6831    314.29821   -14.365961   -563.97377   -3980.6232 
  534000    130.59474   -5125.4344   -4864.2287   -5125.4344            0    6390.0456     17.83319    22.634699    19.335115    7804.5975    5514.9652    7711.9677     5943.204   -652.04398    306.28807   -310.83294   -4136.9007 
  535000    124.59437   -5121.1015   -4871.8974   -5121.1015            0    6537.1128    17.788076    22.807994    19.253547     7811.363    7158.5556    6650.5682    5802.2145   -284.89668    382.20718    443.40294   -4127.1848 
  536000    126.53278   -5117.5556   -4864.4744   -5117.5556            0    7293.5454    17.930482    22.563233    19.275607    7798.3257    6359.7683    7977.2236    7543.6443   -357.08725   -581.91515    877.38453   -4034.9753 
  537000    134.73596   -5121.6015   -4852.1129   -5121.6015            0    6508.7285    17.789589    23.044039    19.051732    7810.1431    6804.4715    5288.8927    7432.8212    522.05381    48.456283   -630.89224   -4110.7497 
  538000    133.08342   -5115.6172   -4849.4339   -5115.6172            0    7518.2362    18.042477    22.623185    19.079036    7787.6486    6916.0524    8024.9399    7613.7165   -322.62468   -63.050079   -379.76343   -3995.5512 
  539000    130.62907   -5115.8334   -4854.5591   -5115.8334            0    7652.1464    17.768321    22.899383    19.131073    7784.1196    8799.4299    6430.3186    7726.6906   -308.67061   -1050.8928   -83.472178   -3985.8614 
  540000    133.97407   -5110.0174   -4842.0527   -5110.0174            0    8661.8022    17.857778    22.542931    19.271607    7758.1062    8244.3343    9563.7622    8177.3101   -197.71735   -218.55296    640.22177   -3862.0216 
  541000    133.38605   -5116.2601   -4849.4716   -5116.2601            0    6672.7867    17.831855    22.953969    19.044882    7795.2956    5795.6571    6733.4487    7489.2544   -70.738212    -390.5332    857.22774   -4090.8665 
  542000    138.29411   -5127.0586   -4850.4533   -5127.0586            0    8397.4985    17.966598    22.462176    19.271853    7777.5202    7047.5082    9655.8596    8489.1276   -580.11584    149.14685    -541.8193   -3897.9489 
  543000    132.07211   -5101.4531   -4837.2925   -5101.4531            0    7337.1039    17.836502    22.962741    19.012668     7787.113    7111.5007    7244.9611      7654.85   -1390.8682    570.96698   -1406.9069   -4004.0392 
  544000    125.92648   -5123.8798   -4872.0113   -5123.8798            0    6146.2116    17.930632    22.710821    19.233628    7832.3061    5488.2886    6884.0379    6066.3083   -651.49381    586.27461   -581.06601   -4169.9532 
  545000     128.9271   -5126.5607   -4868.6905   -5126.5607            0    6317.5076    17.855847    22.751739    19.205861    7802.4116     7045.243     6259.984    5647.2959    1237.8132   -276.49236    420.21721   -4149.8203 
  546000    124.51396   -5113.4058   -4864.3625   -5113.4058            0    5995.7847    17.896785    22.808916    19.154082    7818.8161    5907.0294    5736.8527    6343.4722    312.28921   -383.58093    1380.1543   -4180.6667 
  547000    131.30523   -5119.4046   -4856.7779   -5119.4046            0    6244.7148    17.898234    22.655078    19.309361    7829.6733    6501.1162    6454.2503    5778.7778     590.4133    252.82148   -1279.2126    -4143.708 
  548000     134.3438    -5131.134   -4862.4298    -5131.134            0    7800.6524    17.747736    22.853321    19.164472    7773.0086    8485.3163    7440.0126    7476.6284    52.144829    233.35222   -1171.0566   -3978.1373 
  549000    134.30831   -5113.2336   -4844.6004   -5113.2336            0    6759.0272    17.921614    22.673339    19.229244    7813.6655    4837.7905    8336.5363    7102.7548   -1308.2113    374.91795    368.80012   -4074.3802 
  550000    132.45111   -5129.7304   -4864.8118   -5129.7304            0    7315.5931    17.876011    22.695627    19.205287    7791.7247    7321.3715      8362.13    6263.2779    92.870161    609.51805   -330.03686   -4033.5094 
  551000    137.34266   -5095.2655   -4820.5633   -5095.2655            0    7850.9926    17.849676    22.747117    19.189923    7791.6593    7219.5895    8280.9509    8052.4375   -158.92094    106.91892   -809.42413   -3928.4286 
  552000    125.33026    -5110.304    -4859.628    -5110.304            0    9045.8545     17.89785     22.64577    19.179341      7773.59    8532.5183    10031.658    8573.3868   -427.83311    992.73241   -674.14513    -3834.101 
  553000    128.79419   -5130.4321   -4872.8278   -5130.4321            0    7454.0457    17.903312    22.785852    19.058271    7774.6734    8321.1894    6491.4666     7549.481    658.62654    27.934344   -117.82028   -4027.6461 
  554000    140.18353   -5122.0527   -4841.6684   -5122.0527            0    6231.6993    17.982354    22.594882    19.282424    7834.6258    6455.3799    6494.5277    5745.1903   -357.00549    707.61168    386.82521   -4129.6345 
  555000    134.38921   -5109.4751   -4840.6801   -5109.4751            0    8320.7323    17.804718     22.87938    19.059113    7763.9376     8791.679    7870.4859    8300.0319   -655.74367    214.92642   -1373.7256   -3898.5313 
  556000    134.90284    -5098.852   -4829.0297    -5098.852            0    7245.1509    17.969865    22.541092    19.262108    7802.3166    6599.6097    7905.0635    7230.7795   -680.09756   -722.27549   -1719.2881   -4004.6128 
  557000    127.45333   -5124.8273   -4869.9049   -5124.8273            0    5311.3286    17.809204    22.908879     19.18622     7827.765    5591.5867    5540.9791    4801.4202   -928.19959   -60.943158   -920.99154    -4263.564 
  558000    135.74943   -5122.9219   -4851.4063   -5122.9219            0    8335.1787    18.041323     22.48883    19.191441    7786.5098    7804.3882    8346.5816    8854.5664   -494.05757    881.71299    245.50923   -3904.8779 
  559000    129.46361   -5114.5882    -4855.645   -5114.5882            0    6030.7138    17.894668    22.836546    19.152143    7826.5691     6215.261    5684.9431    6191.9374    410.37778    606.29066    111.02918   -4167.2843 
  560000    138.51433   -5133.8019   -4856.7561   -5133.8019            0    7200.1697    17.895722    22.672087    19.221806    7798.9278    6864.2744    7553.1503    7183.0843    63.259541    828.43212    36.593588   -4037.8134 
  561000    132.44603   -5110.3321   -4845.4237   -5110.3321            0    5365.0871    17.883228    22.954455    19.103459    7841.9654    6367.4287     4564.806    5163.0266    616.83829   -773.42306         1340   -4231.8346 
  562000    138.51146   -5105.0117   -4827.9716   -5105.0117            0    6889.0516    17.885527    22.657872    19.284596    7815.0438    7429.2171    7284.1445    5953.7932   -92.896211   -459.95735   -486.02752   -4042.7961 
  563000      131.867   -5097.3398   -4833.5895   -5097.3398            0    7462.6663    17.840217    22.796238    19.182234    7801.2197    5651.0471     7933.151    8803.8009   -957.73009    -173.0101   -872.53331   -3984.5411 
  564000    129.73491   -5120.3104   -4860.8245   -5120.3104            0    6510.6325    18.012644    22.681073    19.126566    7814.0843    5235.1793    6753.1762     7543.542   -468.04897     770.3716   -907.30582   -4118.8702 
  565000    126.84328   -5121.6277   -4867.9255   -5121.6277            0    6759.1802    17.895224    22.760584    19.195096    7818.2731    5438.2581    7974.9126    6864.3699    1068.8811    1421.3667    808.35735   -4097.2337 
  566000    134.97045   -5108.5008   -4838.5432   -5108.5008            0    6179.0732    17.888342    22.687556    19.303322    7834.1135    6437.7794    5814.3847    6285.0556    184.63302   -323.50721    739.46475   -4132.5686 
  567000    133.41166   -5124.6463   -4857.8064   -5124.6463            0    6829.1276    17.719847    22.833191    19.229503    7780.2694    7342.7496    6934.5075    6210.1256     511.0875   -285.93913    399.89266   -4082.9241 
  568000    133.66243   -5120.6909   -4853.3495   -5120.6909            0    6675.4979    18.055757     22.63659    19.170788    7835.4989    6837.5957    5897.6333    7291.2647   -762.30141    8.9153925    250.98716   -4090.5223 
  569000    125.25928   -5125.1174   -4874.5834   -5125.1174            0    5966.4449    17.908586    22.904247    19.088583     7829.806    5270.4465    5851.2625    6777.6259   -268.80877    905.67018   -1618.6788   -4193.2769 
  570000    134.71302   -5120.9418   -4851.4991   -5120.9418            0    7024.6216    17.898691    22.624397    19.261658    7799.9523    8182.9105    7100.7993    5790.1552   -138.94091     858.6135   -445.80413   -4052.4182 
  571000    133.61112   -5111.7398   -4844.5011   -5111.7398            0    7643.8483    17.782587    22.939683    19.071226    7779.6662    6794.0911    6785.9831    9351.4707    442.19497    589.91806   -541.70957   -3977.2419 
  572000    138.37694   -5102.0343   -4825.2634   -5102.0343            0    7204.5852    18.009216    22.542581    19.237065    7809.7525    7102.6768    7623.8628    6887.2161   -616.40132   -30.201177    168.16525   -4004.6811 
  573000    125.70533   -5123.3162     -4871.89   -5123.3162            0    6737.6946    17.792478    22.914815    19.098154    7786.5342    7374.2017    6570.7581    6268.1239   -639.30795   -242.47198   -825.92788   -4106.7667 
  574000    129.83844   -5128.4637   -4868.7708   -5128.4637            0    7841.3942    18.034295    22.465325    19.180533    7770.9218    6653.7952    9050.3753    7820.0121   -372.50779    282.16279   -804.96124   -3980.0983 
  575000    127.33386   -5110.6063   -4855.9228   -5110.6063            0     8047.168    17.839191    22.800237    19.084776    7762.4994    7587.2757    8441.4041    8112.8242   -84.449617    685.79755    418.70307   -3944.9183 
  576000    138.50611   -5124.8302   -4847.8009   -5124.8302            0    8141.1113    17.832939    22.537711    19.356547    7779.6602    10501.565    7581.7192    6340.0495    191.09014   -588.90792   -171.55191   -3924.1238 
  577000    123.70467   -5122.9575   -4875.5329   -5122.9575            0    6485.2961     17.69811    23.050474     19.15578    7814.5968    6548.3279    5793.9202    7113.6401    22.267631    233.59142    469.42573   -4136.4174 
  578000    137.05878    -5101.228   -4827.0935    -5101.228            0    8261.5082    17.959141     22.50965    19.256816     7784.644    9140.5923    7983.3854    7660.5469    88.132953    236.87874    -600.4561   -3889.1558 
  579000    133.30029   -5127.8846   -4861.2675   -5127.8846            0    7246.3116     17.65119    22.911198     19.24649    7783.4716    7938.2848    7598.2384    6202.4116   -105.15131    829.61506   -374.33824   -4038.7101 
  580000    136.28245   -5109.2289   -4836.6472   -5109.2289            0    6979.9558    17.854763    22.644052    19.285644    7797.2669    8065.5086    5977.0984    6897.2603   -282.95798   -799.12935   -232.13834   -4042.9205 
  581000    129.51663     -5108.13   -4849.0808     -5108.13            0    6812.6875    17.840992    22.663656    19.304924     7805.794      7797.91    7146.5546    5493.5979   -514.82863    271.55616    17.745677   -4073.5279 
  582000    128.91334   -5126.1515   -4868.3089   -5126.1515            0     7338.757    17.952113    22.616458    19.217335    7802.4917    8245.3884         7145    6625.8826   -1718.5392     79.63952   -847.85527   -4033.2219 
  583000    138.06765   -5117.2538   -4841.1015   -5117.2538            0    8605.3597    17.813329     22.71389    19.177947     7759.589    8145.2094    8488.4298    9182.4399    167.93609    426.73256   -1.1101436   -3867.2704 
  584000    139.07858   -5111.2632   -4833.0889   -5111.2632            0    7540.7762    17.758452    22.864122    19.201001    7796.2097     7439.118    8455.5396     6727.671    368.14421    231.43964     1600.156   -3975.7047 
  585000    130.39126   -5118.9004   -4858.1018   -5118.9004            0    8473.8355    17.847165    22.610746    19.240748    7764.3673    10151.113    7918.7139    7351.6793   -689.68776    94.433168   -223.34658   -3898.5642 
  586000    123.03436   -5103.3027   -4857.2188   -5103.3027            0    7026.0184    17.716656    22.952825    19.199352    7807.3649    8232.9129    6103.6931    6741.4493    633.08143    486.85265   -306.39078   -4057.2194 
  587000    132.14135   -5129.4584   -4865.1593   -5129.4584            0    5984.2306    17.973933    22.652349    19.269794     7845.731    4528.8545    6738.3731     6685.464   -1169.1654    367.49121   -142.64298   -4180.4321 
  588000    131.98723   -5124.5953   -4860.6045   -5124.5953            0    5292.8335    17.973223     22.78885    19.170746    7852.1284    5366.8177    4723.9048    5787.7779   -322.79878   -758.40215    17.582243   -4254.4944 
  589000    126.42068   -5133.7145   -4880.8575   -5133.7145            0    6460.9652    17.923791    22.705857    19.200558    7814.1477    8946.8377    5726.3817     4709.676    110.53761   -329.49228    1309.1721   -4144.5573 
  590000    128.80084   -5118.7682   -4861.1506   -5118.7682            0    6064.1015     17.89779    22.818485    19.168518    7828.4313    7059.2016    5914.6158    5218.4871    1077.7818   -433.43634    -77.33474   -4168.8143 
  591000    128.74131   -5119.1365    -4861.638   -5119.1365            0    6781.6866    17.815749    22.802596     19.22425    7809.7615    8375.4565     5638.814    6330.7894   -19.120162    -491.1522     841.5657   -4089.2218 
  592000    131.40279   -5117.0204   -4854.1986   -5117.0204            0    8682.4014    17.864568     22.64887    19.227189    7779.5571     9804.461    8245.3379    7997.4054   -211.95149   -112.77954    49.482873   -3869.1206 
  593000    134.54094   -5114.2591   -4845.1606   -5114.2591            0    6007.4581    17.920991    22.858375    19.173293    7854.2386     4884.665    5889.6693    7248.0401   -641.84081     -263.619   -252.06706   -4157.0302 
  594000    131.27458   -5117.1353   -4854.5699   -5117.1353            0    7342.9508    18.028721    22.600113    19.148101    7801.9158    6638.0441    7346.9429    8043.8653   -939.97286   -273.25478   -1767.9445   -4019.0674 
  595000    127.54995   -5127.2993   -4872.1837   -5127.2993            0    7020.8631    17.788898    22.818545    19.207696    7796.7262    8774.9874    6557.2469    5730.3551   -213.59184   -598.94491    614.53168   -4073.8606 
  596000    131.65732   -5110.3867   -4847.0558   -5110.3867            0    7093.4659    17.882816    22.729059    19.190362    7800.1064    8176.4233    7010.9971    6092.9772     987.5383   -1242.9861   -580.05838   -4040.1276 
  597000     128.7571   -5113.8007   -4856.2706   -5113.8007            0    6472.3794    17.813581    22.693506    19.326013    7812.5909    6737.1277     5789.695    6890.3154   -250.10029   -540.21513    -511.5888   -4118.8165 
  598000    129.43796   -5113.9323   -4855.0403   -5113.9323            0    6993.5313    17.816136    22.870022    19.158682    7806.3085    7319.5542    6799.4039    6861.6358   -211.51145    834.64145    198.08815   -4058.8478 
  599000    134.78907   -5123.6527   -4854.0579   -5123.6527            0    8690.8272    17.912993    22.399373    19.334378     7757.722    8401.8095    9209.6087    8461.0635    159.69203    293.68847   -652.95501   -3870.7915 
  600000    126.79159   -5110.4198    -4856.821   -5110.4198            0     7099.978    17.839815    23.018915    19.002517    7803.4442    6795.6245    5898.6524     8605.657   -1388.9758   -260.17693    -1093.947   -4048.8064 
  601000    122.96987   -5121.3232   -4875.3683   -5121.3232            0    7609.0613    17.969522    22.542603    19.267054    7804.6945    8214.3177    8320.4315    6292.4347    773.49099    156.63437    1177.0989   -4009.2786 
  602000    130.72272   -5113.5262   -4852.0646   -5113.5262            0    7934.9808    17.784025    22.970479    19.067547    7789.2372    9239.4968    6405.4295     8160.016    -255.8159    566.25235    -797.3132   -3950.6664 
  603000    132.55388   -5106.1151   -4840.9909   -5106.1151            0     7922.843    18.041084     22.46828    19.231361    7795.4728     6513.873    7944.9031    9309.7529   -244.96771    241.66177    1010.9475    -3940.251 
  604000    132.27268   -5111.2478   -4846.6861   -5111.2478            0    6520.6004    17.752756    22.949142    19.156847    7804.7009    6189.0486    7423.9484    5948.8041    53.397455    576.76684    550.44791   -4104.4882 
  605000    135.46578   -5105.5245   -4834.5762   -5105.5245            0    5610.8369    17.849189    22.667684    19.388644    7844.6412    6073.1806    5497.2105    5262.1196   -412.87642   -708.86502   -82.161597   -4192.6625 
  606000    123.89067   -5118.1404   -4870.3437   -5118.1404            0    7484.6716    17.905093    22.717916    19.167645    7796.7543    7788.9256    7664.7048    7000.3843     530.0293    73.600523    855.40591   -4019.2792 
  607000    137.30235   -5120.5965   -4845.9748   -5120.5965            0    7091.2958     17.80013    22.722587    19.275971    7796.4554    7369.4967    7756.9385    6147.4521    1439.7821    1016.1779    1067.0315   -4039.6711 
  608000    129.64001   -5104.4838   -4845.1878   -5104.4838            0    6470.1323    17.959403    22.698196    19.160824     7810.834    5585.5461    7696.6785    6128.1724   -1025.7683    451.43302   -759.26007   -4108.1556 
  609000    128.99138   -5112.0628   -4854.0641   -5112.0628            0    7840.1188    17.936631    22.711356    19.095023    7778.6479    8103.5671    7961.3099    7455.4793   -107.86137   -797.91431    -937.8013   -3964.6528 
  610000    133.79844   -5111.8865   -4844.2731   -5111.8865            0    6507.7854    17.764761    22.829731    19.269556    7815.0518    7866.6677    5952.9358    5703.7527    748.25123    99.092297   -889.29006   -4102.5514 
  611000    141.15215   -5111.5083   -4829.1865   -5111.5083            0    7419.2288    17.876292    22.652764    19.242511    7792.2054    5416.5785    7554.4714    9286.6365    99.182082   -120.82873    319.68913   -3986.0555 
  612000     133.4979   -5118.0537   -4851.0414   -5118.0537            0    6715.6191    17.806078    22.837226    19.204965    7809.5343     7929.318    6254.9261    5962.6133    790.13916    137.91514    184.81489   -4086.1724 
  613000    127.06376   -5113.6738   -4859.5306   -5113.6738            0    7759.4895    17.912599    22.574423     19.27599    7794.5662    7923.7886    7240.1618    8114.5181   -847.99291   -374.43559    52.491336   -3977.4648 
  614000    130.66932   -5108.1381   -4846.7833   -5108.1381            0    6983.1504    17.814716    22.882256    19.214333    7832.5476    6013.1279    7109.5597    7826.7638    516.91326    128.95136   -1079.0214   -4049.1003 
  615000    130.54129   -5113.4357    -4852.337   -5113.4357            0    7996.8388    17.890427    22.657999    19.202744    7784.0489    7759.4286    9106.5107     7124.577   -1486.0242     476.7521   -1395.0465   -3944.5169 
  616000    130.03734    -5123.292   -4863.2013    -5123.292            0    7682.3559    17.733253    22.760216    19.239809    7765.4307    8986.7467    7039.9581    7020.3631    1095.0591   -241.52524    1879.8095    -3993.168 
  617000     125.9569    -5124.998   -4873.0686    -5124.998            0    5915.1216     17.87538    22.828562    19.162551     7819.647    5680.5222    5564.1703    6500.6722     799.3408    682.01067    1491.5702   -4198.4991 
  618000    131.29009   -5131.9065   -4869.3101   -5131.9065            0    6057.2277    17.975359    22.805545    19.108572    7833.3272    6449.9572    5616.1742    6105.5517    1305.1339    434.07137    1164.0971   -4177.3261 
  619000    131.87116   -5130.0104   -4866.2518   -5130.0104            0    7364.3141    17.963947    22.658055    19.149774     7794.496    6646.0254     7931.972    7514.9449   -185.90419    171.81185   -296.37051   -4029.1154 
  620000    128.27545   -5115.8139   -4859.2471   -5115.8139            0    6032.6455    17.920951    22.843288    19.121048    7827.6488    6792.6603    5579.3779    5725.8984   -1545.7206   -458.76152   -59.346434    -4170.571 
  621000    125.56965   -5115.6772   -4864.5224   -5115.6772            0    7075.4053    17.900477    22.745164    19.155184    7799.0195    6622.4107    7197.8904    7405.9148   -179.31204   -452.00217   -370.12398   -4059.7608 
  622000     133.2369   -5104.9863    -4838.496   -5104.9863            0    7006.7025     17.90515    22.686975    19.187616    7794.2725    6357.1103    7745.5259    6917.4714    726.31498   -858.52436    30.285899   -4042.0339 
  623000    132.82295    -5120.023   -4854.3607    -5120.023            0    6753.3974    17.786288    22.708352    19.314329    7801.0052    6739.9032    7244.6983    6275.5906   -608.14645   -735.45744   -557.48811    -4086.029 
  624000    135.46337   -5120.4319   -4849.4885   -5120.4319            0    5622.7254     17.81036    22.814383    19.272489    7831.0362    6649.7067    5600.4983    4617.9712   -90.541457   -537.16778    235.31994   -4207.3303 
  625000    135.09181   -5113.3627   -4843.1623   -5113.3627            0    7169.6657    17.916149    22.568101    19.295354     7801.757    6735.0261    8268.2655    6505.7056    290.66272   -40.135309    176.44319   -4027.3933 
  626000    139.59924   -5137.6649   -4858.4492   -5137.6649            0    7812.2602    17.792802    22.849337    19.100312    7765.3032     7831.407    7937.2009    7668.1728    580.45598    466.51344   -158.05261   -3973.7187 
  627000     127.0581   -5116.0184   -4861.8865   -5116.0184            0    7131.2268    18.077756    22.527568    19.182811    7812.1595    7122.1887    7479.4946     6791.997     140.3827   -188.20442    -38.71926   -4049.4092 
  628000    131.20369   -5126.4581   -4864.0346   -5126.4581            0    6481.8277    17.888986    22.758942    19.107825    7779.4528    6703.0655    7398.0424    5344.3752    -33.47075    415.46161    637.42479   -4128.6366 
  629000    140.03583   -5107.8812   -4827.7922   -5107.8812            0    7228.1442    17.834472    22.846645    19.123931    7792.1958      7419.71    6931.5198    7333.2028   -485.90539   -86.909456    502.91491   -4006.3773 
  630000    123.87624   -5117.8683   -4870.1005   -5117.8683            0    7666.6112    18.020603    22.596533    19.159055    7801.6275    6924.7953    7230.4737    8844.5647    941.82669   -476.09527   -823.29468   -3997.8032 
  631000    124.66952   -5125.4565   -4876.1021   -5125.4565            0    6516.3308    17.843419    22.859842    19.164343    7817.0919    7344.1718    5329.6524    6875.1683   -117.66006   -133.36766   -134.64333   -4133.2126 
  632000    138.50955   -5115.4085   -4838.3723   -5115.4085            0    7183.0434    17.955203     22.48844    19.332743    7806.2621    7547.4412    8340.7043    5660.9848    160.94952    1207.9765    307.82414   -4020.6092 
  633000      135.933     -5110.61   -4838.7272     -5110.61            0    7683.7007    17.762339    22.962199    19.071624    7778.5973    6746.9248    7571.1084    8733.0688   -744.96257    492.87834   -1000.2875   -3967.0662 
  634000    130.57664   -5128.4091   -4867.2397   -5128.4091            0    7206.7808    18.026601    22.534714    19.188906    7794.9994    6409.1052    7415.7058    7795.5313    266.85411   -242.55594   -1263.5673   -4047.9579 
  635000    128.84502   -5119.9753   -4862.2694   -5119.9753            0    7238.6641    17.840773    22.796845    19.182441    7801.7548    6546.4074    7060.5398     8109.045   -848.94238    202.08684    48.574794   -4038.6499 
  636000    135.41208   -5111.5679    -4840.727   -5111.5679            0    8182.3652    17.791809    22.603331    19.365268    7787.8229    10419.845    7854.4135    6272.8367   -614.32061    -715.2419    146.02582   -3911.3952 
  637000    134.10586   -5129.5772   -4861.3489   -5129.5772            0    6957.2014    17.880282    22.696229    19.222214    7800.6625     7275.581    6304.6777    7291.3456     2.352628   -41.784359    -605.7717   -4069.8652 
  638000    129.98275   -5114.0393   -4854.0577   -5114.0393            0    8242.2333    17.790794    22.851459    19.117093    7771.9699     8996.126    7189.8208    8540.7531   -757.32256    79.325819   -662.79801   -3919.8318 
  639000    124.75896   -5115.6722   -4866.1388   -5115.6722            0    8845.3306    17.820559    22.631952    19.229455    7755.5092    8426.2629      9323.04     8786.689   -13.334205    217.18966   -132.47709   -3865.6776 
  640000    135.80593   -5117.6169   -4845.9883   -5117.6169            0    6763.3209    17.798993    22.912274    19.161792    7814.4737    7085.8822    5525.1153     7678.965   -778.88579   -628.20675    -1863.963   -4075.1991 
  641000    132.65677   -5124.2525   -4858.9226   -5124.2525            0    6976.2182    17.772508    22.623853    19.370496    7788.5396    7833.6964    7340.9669    5753.9912     485.9501    121.39817    1684.1988   -4066.5089 
  642000     139.6268   -5134.3056   -4855.0348   -5134.3056            0    6958.0717    17.837217    22.801669    19.183247     7802.178    7178.6907    6758.7099    6936.8144   -65.056561    293.08502   -510.48823   -4063.2983 
  643000    128.65984   -5122.6102   -4865.2746   -5122.6102            0    6693.7734    18.004673    22.739497    19.126671    7830.7883    5922.1732    7109.5147    7049.6324   -879.98901     1039.469    657.60001   -4100.8188 
  644000    132.50109   -5118.8898   -4853.8712   -5118.8898            0    6122.7324      18.0047    22.686327    19.165212    7828.2323    5935.3637    5720.0066    6712.8268    -185.6652   -368.42332   -920.23536   -4154.8588 
  645000    131.49254   -5118.2948   -4855.2935   -5118.2948            0    6618.6693    17.864139     22.77686    19.177826    7803.2461     6577.939    5895.8967    7382.1721    -738.5457     -1560.86   -298.17308   -4102.0734 
  646000    129.20592    -5116.541   -4858.1132    -5116.541            0    7540.8055     17.84018    22.743039    19.206223    7792.7312    8364.8366    7407.1601    6850.4199   -755.54781     77.76376    1278.8261   -4001.1082 
  647000    123.94415   -5117.6459   -4869.7423   -5117.6459            0    7506.0812    17.893469    22.733799    19.117136    7776.5933    5776.8252    8644.3166    8097.1017    14.529826    1038.4127   -1769.7117   -4018.4503 
  648000    132.60961   -5119.9884   -4854.7528   -5119.9884            0    9007.9802    17.857175    22.657722    19.137205    7742.9686    8349.9988    9165.5651    9508.3767    253.03435    503.84018   -496.23987   -3837.5424 
  649000    140.14103   -5116.4776   -4836.1782   -5116.4776            0    7846.4847    17.914113    22.560304    19.250602    7780.0891    7918.1233    8254.9771    7366.3537    1559.7609    421.80456    598.78532   -3945.8798 
  650000    128.81698   -5121.2974   -4863.6476   -5121.2974            0    6074.0116    17.888438    22.861725    19.129368    7823.1567    6362.3665    5623.8656    6235.8027   -245.85445   -362.47749    419.10539   -4170.6471 
  651000    136.26005   -5102.4238   -4829.8869   -5102.4238            0    6731.7232    17.938637    22.590621    19.274657    7810.9574     6871.082    6439.2035     6884.884   -235.37334   -655.41477   -513.79575    -4063.044 
  652000    136.51135   -5123.2812   -4850.2417   -5123.2812            0    7812.6773    17.817933    22.818948    19.146349    7784.6467    7483.5633    7536.5141    8417.9545    -584.7318    468.31076    412.67896   -3963.2599 
  653000    132.02036    -5115.017   -4850.9599    -5115.017            0    5600.1709    17.959256    22.738709    19.207912    7843.9404    5332.7703     5620.524    5847.2185    1494.2655    200.19882     928.8806   -4210.3238 
  654000    126.43693   -5108.6605    -4855.771   -5108.6605            0    6424.8801    17.723223    22.873477    19.252465      7804.79    7869.0008    6139.9187     5265.721    30.838997    307.24592   -59.138441   -4124.4599 
  655000    127.99312   -5114.0382   -4858.0362   -5114.0382            0    7825.3267    17.839123    22.672012    19.204178    7767.1068    8454.3623    8190.1205    6831.4974   -1151.2477    -325.6178   -1226.2153     -3971.62 
  656000    128.08805   -5124.5288   -4868.3369   -5124.5288            0    6571.5627    17.923798    22.686645    19.157765    7790.1381    6037.7378    6814.6286    6862.3217   -394.61798   -626.08811   -1156.7732   -4121.7339 
  657000      130.046   -5117.1569   -4857.0488   -5117.1569            0    7220.6927    17.805728    22.794924     19.22698    7803.8508     7637.689    7058.2564    6966.1328   -844.72911   -364.15714    677.79673   -4035.2534 
  658000    129.49704   -5125.6794   -4866.6693   -5125.6794            0    7851.0128    17.800477    22.650955    19.280857    7773.9992    8031.3711     7697.768    7823.8995   -244.37284   -264.73891   -809.11245   -3976.5544 
  659000    128.28126   -5121.0269   -4864.4485   -5121.0269            0     7444.963    17.990446    22.720164    19.033708    7779.9499    6284.4674    7687.8276    8362.5939   -1494.7876    34.010292   -243.08022   -4019.7237 
  660000    136.53487   -5115.4067   -4842.3201   -5115.4067            0    8851.2148    17.780452    22.757528    19.123863    7738.2633    10107.617    8308.8986    8137.1293    515.43324   -17.021934    446.19866   -3843.4195 
  661000    127.91666   -5124.4994   -4868.6502   -5124.4994            0    5913.2828    17.964469     22.62524    19.262558    7829.2745    4665.9692     6370.749    6703.1302   -561.65244   -886.64794   -741.28665   -4193.4602 
  662000    134.21955   -5118.8761   -4850.4205   -5118.8761            0    8025.4885    17.953506    22.598241    19.196184    7788.2307    7997.1285    8006.6671      8072.67   -736.98916    100.59958   -1189.6721   -3938.8585 
  663000    127.80582   -5113.5481   -4857.9207   -5113.5481            0    6964.4925    17.922122    22.816548    19.089891    7806.2565    5257.2117    7344.5535    8291.7122   -461.11444    700.36374   -277.43939   -4065.0394 
  664000    129.20665   -5120.2118   -4861.7826   -5120.2118            0    7891.2391    17.874673    22.567353    19.283188    7778.5302    7184.9041    9141.5192    7347.2941   -634.27532    -106.7126   -1539.9207   -3966.5855 
  665000    131.77327   -5122.6617   -4859.0989   -5122.6617            0    7235.6033    17.688348    23.039471    19.096547    7782.4196    8904.3957    5046.2825    7756.1317   -17.872335    -1093.562   -1032.1993    -4037.868 
  666000    140.81797   -5116.7072   -4835.0538   -5116.7072            0    5897.3479     17.87649    22.618186    19.355432    7826.0547    5311.7997    6876.6705    5503.5733    40.692673    31.346047     713.6712   -4161.9602 
  667000    134.00775   -5126.8798   -4858.8477   -5126.8798            0    6350.1136    17.761992     22.93034    19.187155     7814.708    7435.2958    6009.4338    5605.6113    845.56024    64.249542    1339.3267   -4135.1284 
  668000    129.04083   -5099.6298   -4841.5322   -5099.6298            0    7667.1833    17.886288    22.656528    19.209425      7784.45    8275.4476    8288.6535    6437.4488    380.70006    844.03404   -252.97536   -3971.0905 
  669000    135.70628    -5105.783   -4834.3537    -5105.783            0     7183.912    17.777691    22.900654     19.16047    7800.6246    7134.9116    7734.8206    6682.0038    106.25643    457.51471   -58.316243   -4017.0824 
  670000    132.06112   -5118.9085   -4854.7699   -5118.9085            0    5524.6926    17.856634    22.717571    19.351579    7850.1489    6518.9522    6319.6789    3735.4467    591.00767    164.92007    103.19581   -4222.2679 
  671000    130.86343   -5108.4217   -4846.6786   -5108.4217            0    7054.3998    17.924892    22.722784     19.17824     7811.363    7201.5665    7016.3366    6945.2964    501.90397   -424.42719    1064.7311   -4043.0364 
  672000    133.42778   -5129.2196   -4862.3476   -5129.2196            0    7627.7798    17.818128    22.889126    19.070059    7777.5592    8745.8141    6530.7961    7606.7293    1048.5231    455.65473   -1330.5337   -3997.1459 
  673000    127.28693   -5124.1572   -4869.5676   -5124.1572            0    7353.1074    17.920719    22.597405    19.249948    7795.4927     7230.224    7861.3245    6967.7737   -289.99733   -222.19338   -599.89269   -4033.5982 
  674000    129.91095   -5119.2672   -4859.4293   -5119.2672            0     7112.732     17.77105    22.993281    19.055712     7786.445    6803.0303    6779.2798    7755.8858    721.44684    264.46164    1591.2066   -4051.7265 
  675000    124.83238   -5110.9754   -4861.2952   -5110.9754            0    5803.3064    17.925217    22.560804    19.361603    7829.9739    5684.7062    6703.7536    5021.4595   -437.96806   -694.20164    -145.6024   -4198.6032 
  676000    129.64817   -5122.5369   -4863.2246   -5122.5369            0    6141.5513    17.809212    23.040355    19.095829    7835.6021    5978.5339    5377.9418    7068.1783   -847.69692    154.86233     1205.004   -4161.4036 
  677000    131.95801   -5104.6616   -4840.7293   -5104.6616            0    7857.2991    17.894894    22.522124    19.257877    7761.5221    7359.7474    8231.0238    7981.1261   -27.985081   -69.551853    807.71611   -3951.3315 
  678000    131.34726   -5109.2201   -4846.5094   -5109.2201            0    7493.0519    17.727274    22.862239    19.234584    7795.4919    8686.5293    6789.9228    7002.7035    57.646363    1162.2608   -334.08857   -3994.6299 
  679000     137.0172   -5115.7856   -4841.7343   -5115.7856            0    8166.3854    17.995774    22.540057    19.177811    7779.0141    7030.4835    8573.4671    8895.2055    -521.8932    670.04963   -1080.0351   -3915.2665 
  680000    131.77688   -5110.4816   -4846.9116   -5110.4816            0    7124.9603     17.84103    22.894817    19.085907    7795.9653    7505.5923    6095.4746     7773.814    -354.9901   -208.79335   -972.68107    -4036.831 
  681000    129.71579   -5115.8895   -4856.4419   -5115.8895            0    8833.8997    17.852328    22.655679    19.166231    7751.9086    8737.3344    8338.6132    9425.7516    345.96059   -241.28838    153.42263   -3857.7374 
  682000    131.98909   -5109.3594   -4845.3649   -5109.3594            0    7053.1347    17.864705    22.629386    19.255347    7784.3074    7418.7606    7238.2126    6502.4309    490.61438   -601.67586    820.18769   -4044.6497 
  683000    134.89735    -5132.179   -4862.3677    -5132.179            0    7846.8804    17.799808    22.718316    19.207935    7767.3368    8873.4085    6938.4585    7728.7743    512.89752   -1479.3536      45.4864   -3973.4837 
  684000    129.61771   -5131.6979   -4872.4465   -5131.6979            0     6145.003    17.951653    22.741213    19.188989    7833.7582    6346.7264    5999.6993    6088.5833    368.23558   -191.21682    848.07652   -4170.3963 
  685000    134.98705   -5109.4813   -4839.4906   -5109.4813            0    7031.4995    17.922571     22.77185    19.104436    7797.0953    5699.3364    7913.1188    7482.0433   -676.40632    885.27365    7.7952147   -4039.9202 
  686000     135.4511    -5119.492   -4848.5731    -5119.492            0    6577.0042    17.912558    22.775302    19.160791    7816.9115    6462.6747    6059.5731    7208.7649   -287.73078   -242.58357     188.4053   -4098.7838 
  687000     136.3252   -5132.9995   -4860.3323   -5132.9995            0    7795.0014    17.841947      22.7511    19.204517    7795.5728    8152.9837    7628.9859    7603.0347   -1742.7764    142.86722   -2797.4742   -3974.1152 
  688000    127.70699   -5100.6689   -4845.2391   -5100.6689            0    6781.7201    17.886475    22.770082    19.197206    7818.5712     5944.394    6920.2562    7480.5102    410.37099    533.94525   -1008.2313   -4071.9478 
  689000    127.67297    -5125.449   -4870.0873    -5125.449            0     6188.768    17.909251     22.66769    19.223069    7803.8229    6610.4519    6366.1199    5589.7323    918.44699    139.49711    894.81422    -4165.739 
  690000     141.0116   -5113.3743   -4831.3337   -5113.3743            0    6634.8519    17.798412    22.829138    19.204659    7803.2834    7724.1584    6141.2431    6039.1543    100.41302   -537.03398    331.50494   -4076.2684 
  691000    134.26769   -5118.1966   -4849.6446   -5118.1966            0    6157.9578    17.894583    22.740866    19.232337    7826.3751    5588.6512    6387.4484    6497.7739    630.69163    198.60158    697.01323   -4146.7775 
  692000    129.87297   -5112.3157   -4852.5537   -5112.3157            0    6042.3021      17.9641    22.680442    19.233272    7836.2841    6314.2893    5785.3489    6027.2681   -349.81863     -176.064   -692.02119   -4162.0143 
  693000    127.68774   -5111.0862   -4855.6949   -5111.0862            0    7983.9586    17.811507    22.810388    19.143737    7777.8589    8602.0328    8578.5407    6771.3022   -1930.2192   -69.093729   -1053.5078   -3950.0578 
  694000    134.33194   -5116.1613   -4847.4808   -5116.1613            0    7675.5638    17.915665    22.595109    19.217547    7779.3857    6872.5721    7663.3531    8490.7663    -40.85746    395.69779   -439.34517   -3976.6547 
  695000    127.64716    -5106.862   -4851.5519    -5106.862            0    8373.1031    17.824293      22.6962    19.222256    7776.2431    7461.6962    9223.9577    8433.6554    288.90296    804.94117    313.20336   -3901.9706 
  696000    128.77405   -5110.1331   -4852.5691   -5110.1331            0    8964.8502     17.85007    22.712384    19.127203    7754.5059    9303.9549    8974.5662    8616.0296    985.83565    269.14653    339.59972   -3838.7206 
  697000    131.26831   -5117.9771   -4855.4242   -5117.9771            0    6506.2092    17.987994    22.753161    19.107184    7820.2595    5538.9349    6733.1613    7246.5313    911.22468   -5.3338973    1428.9364    -4113.388 
  698000     134.4408   -5122.8528   -4853.9546   -5122.8528            0    6500.3579    17.905607     22.78754    19.151472    7814.2747    7624.2118    5991.6661    5885.1957   -789.68929   -382.66541    374.75716   -4113.1532 
  699000    131.33929   -5103.2182   -4840.5233   -5103.2182            0     8156.077    17.937668    22.633973    19.179058    7786.7109    7767.0224     8473.301    8227.9077   -685.52491    377.09007   -1765.0314   -3914.3095 
  700000    131.94584   -5121.9188   -4858.0108   -5121.9188            0    6625.5049    17.972684    22.879969    18.986211    7807.4045    5299.7204    7051.1654    7525.6289    305.84284    541.51874    560.85382    -4103.611 
  701000     133.3935    -5121.403   -4854.5995    -5121.403            0    6712.6803    17.931816    22.609313    19.257977    7807.6854    7325.7988    7198.3481    5613.8941    1202.0066   -388.28766    23.225474   -4090.2462 
  702000    134.52164   -5121.0898   -4852.0299   -5121.0898            0    7944.0912    17.707289    22.789506    19.254713    7770.0539    9272.9382    7358.2579    7201.0776    1026.5759    574.80806   -715.57013   -3951.8193 
  703000    130.64447   -5131.2915   -4869.9864   -5131.2915            0    7246.0125    17.929555    22.742064    19.138675    7803.8922    5383.3527    8046.4932    8308.1914   -339.47021   -77.422566    805.10293    -4045.305 
  704000    132.19982   -5134.9203   -4870.5043   -5134.9203            0    7134.7648     17.86469    22.775125    19.174348    7801.4777    7021.6751    6980.6172    7402.0021    145.32099     115.2471    -700.4845   -4058.7353 
  705000    133.44577   -5139.3297   -4872.4216   -5139.3297            0    6462.0321    17.795371    22.793062     19.26253    7813.0939    7968.0253     6192.514    5225.5569    493.32362   -432.63096    225.60394   -4136.0992 
  706000    124.16725   -5114.9962   -4866.6463   -5114.9962            0    6578.0641    17.880862    22.636926    19.310606    7816.3106    6890.5294    6341.5493    6502.1136   -603.24451    -1038.765    996.30659   -4116.7939 
  707000     129.0947   -5106.9387   -4848.7334   -5106.9387            0    8515.0558    17.847969    22.791219    19.053555    7750.5474     8080.114    8443.7508    9021.3026   -89.847707   -679.56717   -905.18067   -3886.2444 
  708000    137.98148   -5115.0388   -4839.0588   -5115.0388            0    8565.7852    17.900838    22.654445     19.16849    7773.4659      8161.82     8649.036    8886.4994    496.01316    685.60021   -812.24445   -3867.9727 
  709000    135.39406   -5122.2289   -4851.4241   -5122.2289            0    6910.0674    17.932136    22.685158    19.199266    7810.1335    6363.4155    7385.1764    6981.6103   -389.20743    28.306282   -373.36139   -4064.3481 
  710000    133.76122   -5102.8979   -4835.3589   -5102.8979            0    9496.3488    17.852444    22.928581     18.90238     7737.334    8283.7904    9955.7649    10249.491   -503.88468    1577.7795   -276.54492   -3763.7807 
  711000    131.96293   -5109.3998   -4845.4576   -5109.3998            0    9000.6296    17.958569    22.499299    19.202093    7758.7056    9345.5382    9655.5638    8000.7868   -1898.9521    610.87847   -963.96432   -3827.0115 
  712000    125.09329   -5105.5033   -4855.3013   -5105.5033            0    6586.8485    17.828415    22.897294    19.127498     7808.274     6049.085     6900.039    6811.4216   -424.24925   -101.26317   -545.39893   -4105.2195 
  713000    127.70951   -5105.3256   -4849.8908   -5105.3256            0      8117.12    17.938059    22.684707    19.117745    7779.3857    8068.7904    7466.2045    8816.3651   -519.68882   -453.31866   -1438.3342   -3928.9681 
  714000    135.32122   -5133.3177   -4862.6585   -5133.3177            0    7168.5056    17.863179    22.754184    19.245653    7822.6279    7799.7572    6323.8643    7381.8953    56.351151   -557.94573   -538.84566   -4044.8395 
  715000    124.24216   -5124.4177    -4875.918   -5124.4177            0    8427.4446    17.926037    22.591154    19.212465     7780.469    9245.4739    8001.9596    8034.9001     1590.279   -902.39294   -332.04675   -3919.6545 
  716000    130.39264   -5118.6282   -4857.8268   -5118.6282            0    6662.5842    17.794235    23.028733    19.062899    7811.5695     6308.029    6382.3139    7297.4096   -716.83606    442.15886    158.79221   -4098.8004 
  717000     123.2886   -5114.0472   -4867.4548   -5114.0472            0    8989.8097    17.867816     22.49675    19.297306    7756.8956    8585.7214    9526.5104    8857.1972   -867.56877    458.29672    104.61044   -3850.4703 
  718000    132.02743   -5111.2918   -4847.2206   -5111.2918            0    7037.9565     17.84461    22.923616    19.074251    7802.5699    7029.6586    6104.1129    7980.0979    14.549688    71.345609   -701.83961   -4046.3541 
  719000    132.59072   -5123.7082   -4858.5104   -5123.7082            0    6638.1837    17.954186    22.602241    19.287016    7826.7644    6971.2851    6674.9356    6268.3303   -380.00812    1.9207954     -630.357   -4100.7927 
  720000    123.51225   -5122.1209   -4875.0811   -5122.1209            0    6106.4949    17.717437    22.866363    19.314683    7825.0221     7265.468    5763.2276    5290.7891   -651.31357    406.11903   -2547.7665   -4178.2084 
  721000    128.93828   -5122.0436   -4864.1511   -5122.0436            0    7000.4877    17.969032    22.707598    19.139055    7809.3768    7285.5714    6735.5644    6980.3272    121.95877   -788.25229    1116.5013   -4066.8533 
  722000    120.12101   -5115.2837   -4875.0269   -5115.2837            0    7290.9782    17.843188    22.727656    19.201067    7786.6824    8769.9153    6731.5452     6371.474    1193.5491   -134.55848    716.56437   -4047.0577 
  723000    125.50781   -5119.1536   -4868.1225   -5119.1536            0    7876.9689    17.884781    22.682899    19.181584    7781.5593    7451.4233    8051.7958    8127.6875     523.8773    267.23755     708.0603   -3974.1963 
  724000     135.5358   -5126.2394   -4855.1511   -5126.2394            0    6828.8934    17.885103    22.756631    19.173415    7803.6698    7558.6502    6659.9081    6268.1219    756.34523   -283.70418    104.27214   -4077.9648 
  725000     130.0619   -5124.6801   -4864.5402   -5124.6801            0    7131.6984    17.926372    22.618342    19.269941    7813.2831    7566.5182    7514.6746    6313.9024   -510.16749    191.50629   -127.44839   -4051.8923 
  726000    134.59405   -5134.8102   -4865.6055   -5134.8102            0    6208.0465     17.89118    22.709173    19.261664    7825.8966    7085.6997      5727.84    5810.5999   -718.69921   -9.5819047   -385.02959   -4157.0646 
  727000    139.42259   -5105.8409   -4826.9785   -5105.8409            0    6660.7471    17.895749    22.834992    19.152982    7826.8522    6451.2589    6402.1089    7128.8736   -771.32531    568.20047    25.462504   -4066.6768 
  728000    138.54432   -5116.0705   -4838.9648   -5116.0705            0    7830.1386    17.889346    22.661781     19.18167    7776.3341    7019.3701    8285.2612    8185.7844   -1014.8163    422.99411    386.97196   -3950.9499 
  729000    136.21728   -5113.2117   -4840.7604   -5113.2117            0    8327.4451    17.800124    22.647159    19.304392    7782.0294    8779.6361    8307.0995    7895.5998    196.78931    830.57399    137.20607   -3895.6543 
  730000    138.07665   -5112.0738   -4835.9034   -5112.0738            0    5721.3754    17.793329    22.925044    19.202383    7832.8989    7267.2687    5615.4774    4281.3802    304.73525   -1238.1182     -636.272   -4182.3233 
  731000    137.45351   -5117.8739   -4842.9499   -5117.8739            0    6586.6895    17.955135    22.642254     19.24762    7825.0184    7323.3849    6152.3176     6284.366    587.74537   -1163.6585   -1380.2523   -4091.2778 
  732000    128.59117   -5111.3838   -4854.1856   -5111.3838            0     6427.155    17.836091    22.858215    19.190606    7824.0332    6835.1109    5001.0963    7445.2576    316.55097    -725.6622    1133.5018   -4120.8118 
  733000    128.06503   -5119.6796   -4863.5337   -5119.6796            0    6668.3017    17.989835    22.635836    19.175031    7808.3596     6689.692    7228.4874    6086.7258   -190.02047    84.086063    545.66169   -4104.1681 
  734000    132.83599   -5107.6458   -4841.9574   -5107.6458            0    7415.4791    17.934388    22.718894    19.113809    7787.9108    6999.2392    7228.6758    8018.5223   -100.61331   -595.82295   -448.13299    -3999.717 
  735000    130.84504   -5128.5616   -4866.8553   -5128.5616            0     7602.806    17.887689    22.761259    19.155337    7799.0252     6559.832    7401.1168    8847.4693    203.21443   -1406.1107   -1515.5793   -4002.1062 
  736000    129.00106   -5117.2609   -4859.2428   -5117.2609            0    6880.6346    17.866941    22.750705    19.156424    7786.8088    7377.3281    7133.1469    6131.4288   -568.84702   -464.97796     496.0928   -4077.8599 
  737000    128.66831   -5116.4548   -4859.1023   -5116.4548            0    7769.8469    17.850682    22.736164     19.16744    7779.2214    7206.5866    8406.2581    7696.6959      965.513    398.60724    267.82131   -3977.5979 
  738000    133.93826    -5112.839    -4844.946    -5112.839            0    7204.7548    17.970291    22.661241    19.154984    7800.4668    7530.9588    7103.3417    6979.9639    981.51378   -63.166056   -1270.9516     -4025.32 
  739000    134.54104   -5125.0604   -4855.9617   -5125.0604            0    5895.3061     17.78273    22.931823    19.185334    7823.5952    6831.5021    5613.6643    5240.7518    152.65879    837.89107    210.77852   -4183.3125 
  740000    132.83933   -5108.6382   -4842.9431   -5108.6382            0    7862.0676      18.0837    22.454533    19.147204    7774.9339    7762.3373    8590.0953    7233.7703   -786.01418    144.27438    508.21358   -3951.4677 
  741000     127.5553    -5117.937   -4862.8106    -5117.937            0    7336.2085    17.770879    22.949926    19.063359    7774.8073     7502.843     6671.401    7834.3815   -584.92718   -67.547372    746.99455   -4030.9756 
  742000    135.52955   -5128.1311   -4857.0553   -5128.1311            0    7858.3162    17.884953    22.626259    19.216816    7776.4609    7922.0477    7249.4215    8403.4795    492.07396   -823.31435   -517.04506   -3965.8302 
  743000    131.28301   -5101.2226   -4838.6403   -5101.2226            0    7229.4467    17.795302    22.892228    19.106169    7783.3587    7169.5507    6959.8926    7558.8969   -83.314547   -826.51376    555.58927   -4018.0092 
  744000     133.0742   -5109.4858    -4843.321   -5109.4858            0    7018.6557    17.845106    22.641867    19.345596    7816.5208    8754.3956    6813.0894    5488.4821   -557.23833   -274.44735    99.298564   -4043.2227 
  745000    135.99234   -5110.7015      -4838.7   -5110.7015            0    5633.6059    17.766317    22.726237    19.399117     7832.617    7315.1341    5587.2801    3998.4034    1222.4238   -237.43427    1068.6481   -4195.1693 
  746000     130.3708   -5122.3468   -4861.5891   -5122.3468            0    5865.7736    17.816689    22.789417    19.301167    7836.8904    7309.8684    5509.8777    4777.5748    368.22074    405.78337    199.20997   -4191.1722 
  747000    134.21393   -5123.2307   -4854.7862   -5123.2307            0     7392.365    17.865638    22.731747    19.169254    7784.9628    7713.0357    7287.0249    7177.0342    110.14286    396.53861    436.52959   -4015.4889 
  748000    134.74946   -5110.8182   -4841.3027   -5110.8182            0     8434.066    17.852132    22.654499    19.214477     7770.932    9871.9935    7694.4286    7735.7759   -391.96024   -819.72865   -850.13557   -3885.4609 
  749000    126.87316   -5116.2708   -4862.5088   -5116.2708            0    6835.6325    17.783438    22.853988    19.203431    7804.7059      7178.56    6144.3971    7183.9405   -956.75785   -978.83331   -339.68483   -4084.4523 
  750000    136.43648   -5111.4748    -4838.585   -5111.4748            0    6390.4927    17.883977    22.782263    19.157313     7805.407    6034.8709    6236.9144    6899.6928    62.411545    -1314.096   -1842.6072   -4111.1306 
Loop time of 593.901 on 64 procs for 250000 steps with 1008 atoms

Performance: 72.739 ns/day, 0.330 hours/ns, 420.945 timesteps/s
192.4% CPU use with 32 MPI tasks x 2 OpenMP threads

MPI task timing breakdown:
Section |  min time  |  avg time  |  max time  |%varavg| %total
---------------------------------------------------------------
Pair    | 36.765     | 41.429     | 51.955     |  42.8 |  6.98
Bond    | 0.92571    | 1.1574     | 2.0553     |  20.2 |  0.19
Kspace  | 290.5      | 305.06     | 310.19     |  25.0 | 51.37
Neigh   | 1.7869     | 2.0192     | 2.1264     |   5.4 |  0.34
Comm    | 98.185     | 103.65     | 113.36     |  35.0 | 17.45
Output  | 0.72555    | 0.72593    | 0.73033    |   0.1 |  0.12
Modify  | 110        | 113.83     | 117.52     |  18.9 | 19.17
Other   |            | 26.02      |            |       |  4.38

Nlocal:        31.5000 ave          37 max          25 min
Histogram: 1 3 3 0 4 10 2 3 3 3
Nghost:        2931.38 ave        2946 max        2903 min
Histogram: 1 0 1 1 2 4 8 6 6 3
Neighs:        10701.7 ave       12634 max        8381 min
Histogram: 1 2 4 0 5 7 4 3 3 3

Total # of neighbors = 342455
Ave neighs/atom = 339.73710
Ave special neighs/atom = 2.0000000
Neighbor list builds = 3533
Dangerous builds = 0

unfix		3
unfix		2
unfix		1

write_data	data.final.${pid}
write_data	data.final.1
System init for write_data ...
PPPM initialization ...
  extracting TIP4P info from pair style
  using 12-bit tables for long-range coulomb (../kspace.cpp:340)
  G vector (1/distance) = 0.38041332
  grid = 24 27 32
  stencil order = 5
  estimated absolute RMS force accuracy = 0.0023182638
  estimated relative force accuracy = 6.9813824e-06
  using double precision FFTW3
  3d grid and FFT values/proc = 5355 672
Last active /omp style is kspace_style pppm/tip4p/omp
WARNING: Not all mixed pair coeffs generated from mixing. Use write_data with 'pair ij' option to store all pair coeffs. (../write_data.cpp:312)

write_restart   restart.lmp.${pid}
write_restart   restart.lmp.1
System init for write_restart ...
PPPM initialization ...
  extracting TIP4P info from pair style
  using 12-bit tables for long-range coulomb (../kspace.cpp:340)
  G vector (1/distance) = 0.38041332
  grid = 24 27 32
  stencil order = 5
  estimated absolute RMS force accuracy = 0.0023182638
  estimated relative force accuracy = 6.9813824e-06
  using double precision FFTW3
  3d grid and FFT values/proc = 5355 672
Last active /omp style is kspace_style pppm/tip4p/omp
Total wall time: 0:09:54
