LAMMPS (30 Jul 2021)
  using 1 OpenMP thread(s) per MPI task
package omp 0
using multi-threaded neighbor list subroutines
echo both

include		in.partitions
variable        pid world 0
include		in.temp
variable        temperature equal 266.81
variable	tempDamp equal 100.0
include		in.pressure
variable        pressure equal 10000.0
variable        pressureDamp equal 1000.0 # This is 1 ps
include		in.seed
variable        seed world 745823

units		real
atom_style	full
read_restart    restart.lmp.${pid}
read_restart    restart.lmp.0
Reading restart file ...
  restart file = 30 Jul 2021, LAMMPS = 30 Jul 2021
  restoring atom style full from restart
  triclinic box = (-3.1415527 -0.16663624 -0.051912714) to (14.751552 22.746635 19.281911) with tilt (0.047168637 -6.1343400 0.10436715)
  4 by 4 by 4 MPI processor grid
  restoring pair style lj/cut/tip4p/long/omp from restart
  restoring bond style harmonic/omp from restart
  restoring angle style harmonic/omp from restart
  1008 atoms
  672 bonds
  336 angles
Finding 1-2 1-3 1-4 neighbors ...
  special bond factors lj:    0        0        0       
  special bond factors coul:  0        0        0       
     2 = max # of 1-2 neighbors
     1 = max # of 1-3 neighbors
     1 = max # of 1-4 neighbors
     2 = max # of special neighbors
  special bonds CPU = 1.782 seconds
  read_restart CPU = 2.133 seconds

include 	in.setup
variable	out_freq equal 1000
variable	out_freq2 equal 10000
variable	out_freq3 equal 1000

timestep	2.0

neigh_modify    delay 7 every 1

include		in.tip4p
# This is TIP4P/Ice

# create groups ###
group ox type 2
336 atoms in group ox
group hy type 1
672 atoms in group hy

# set charges - beside manually ###
set group ox charge -1.1794
Setting atom values ...
  336 settings made for charge
set group hy charge 0.5897
Setting atom values ...
  672 settings made for charge

# ### TIP3P Potential Parameters ###
pair_style lj/cut/tip4p/long/omp 2 1 1 1 0.1577 8.5
pair_coeff 1 1*2 0.000 0.000
pair_coeff 2 2 0.21084 3.1668
bond_style  harmonic
bond_coeff  1 450 0.9572
angle_style harmonic
angle_coeff 1 55 104.52
kspace_style pppm/tip4p/omp 1.0e-5
pair_modify tail yes

thermo          ${out_freq}
thermo          1000
thermo_style    custom step temp pe etotal epair emol press lx ly lz vol pxx pyy pzz pxy pxz pyz enthalpy

restart 	${out_freq3} restart.lmp.${pid} restart2.lmp.${pid}
restart 	1000 restart.lmp.${pid} restart2.lmp.${pid}
restart 	1000 restart.lmp.0 restart2.lmp.${pid}
restart 	1000 restart.lmp.0 restart2.lmp.0


include         in.dump
dump            myDump all atom ${out_freq2} dump.water.${pid}
dump            myDump all atom 10000 dump.water.${pid}
dump            myDump all atom 10000 dump.water.0
dump            myDump2 all dcd ${out_freq2} dump.dcd
dump            myDump2 all dcd 10000 dump.dcd
dump_modify     myDump append yes
dump_modify     myDump2 append yes


variable natoms 	equal  "count(all)"                        # NUMBER ATOMS
variable H      	equal  "enthalpy/v_natoms"                 # ENTHALPY-per-atom
variable Vol      	equal  "vol/v_natoms"                 # volume-per-atom
fix AVG all 		ave/time ${out_freq} 1 ${out_freq} v_Vol v_H file vol_enthalpy.dat
fix AVG all 		ave/time 1000 1 ${out_freq} v_Vol v_H file vol_enthalpy.dat
fix AVG all 		ave/time 1000 1 1000 v_Vol v_H file vol_enthalpy.dat



fix 		1 all shake 1e-6 200 0 b 1 a 1
       0 = # of size 2 clusters
       0 = # of size 3 clusters
       0 = # of size 4 clusters
     336 = # of frozen angles
  find clusters CPU = 0.662 seconds
fix             2 all nph tri ${pressure} ${pressure} ${pressureDamp}
fix             2 all nph tri 10000 ${pressure} ${pressureDamp}
fix             2 all nph tri 10000 10000 ${pressureDamp}
fix             2 all nph tri 10000 10000 1000
fix             3 all temp/csvr ${temperature} ${temperature} ${tempDamp} ${seed}
fix             3 all temp/csvr 266.81 ${temperature} ${tempDamp} ${seed}
fix             3 all temp/csvr 266.81 266.81 ${tempDamp} ${seed}
fix             3 all temp/csvr 266.81 266.81 100 ${seed}
fix             3 all temp/csvr 266.81 266.81 100 745823


run             250000
PPPM initialization ...
  extracting TIP4P info from pair style
  using 12-bit tables for long-range coulomb (../kspace.cpp:340)
  G vector (1/distance) = 0.37867763
  grid = 24 27 32
  stencil order = 5
  estimated absolute RMS force accuracy = 0.0025301396
  estimated relative force accuracy = 7.6194402e-06
  using double precision FFTW3
  3d grid and FFT values/proc = 3825 384
Last active /omp style is kspace_style pppm/tip4p/omp
Neighbor list info ...
  update every 1 steps, delay 7 steps, check yes
  max neighbors/atom: 2000, page size: 100000
  master list distance cutoff = 10.8154
  ghost atom cutoff = 10.8154
  binsize = 5.4077, bins = 5 5 4
  1 neighbor lists, perpetual/occasional/extra = 1 0 0
  (1) pair lj/cut/tip4p/long/omp, perpetual
      attributes: half, newton on, omp
      pair build: half/bin/newton/tri/omp
      stencil: half/bin/3d/tri
      bin: standard
Per MPI rank memory allocation (min/avg/max) = 9.313 | 9.326 | 9.337 Mbytes
Step Temp PotEng TotEng E_pair E_mol Press Lx Ly Lz Volume Pxx Pyy Pzz Pxy Pxz Pyz Enthalpy 
24000000    276.38162   -4805.4089   -4252.6115   -4805.4089            0    9729.6374    17.893104    22.913271    19.333823    7926.6657    9168.0921    11016.971    9003.8495    200.60509    145.08336   -891.52953   -3127.8432 
24001000    267.70217   -4814.0104    -4278.573   -4814.0104            0    9856.0921    17.837237    22.956089    19.140238    7837.4148    9623.0829    9573.2353    10371.958     840.9179   -761.34636   -258.21328   -3152.0152 
24002000    259.59133   -4790.9213   -4271.7065   -4790.9213            0    9148.1428    18.058874    23.013468    19.089364    7933.4887    8298.1303    8375.4626    10770.835   -930.18277   -470.75575   -1549.1202     -3213.25 
24003000    267.03101   -4816.9527   -4282.8577   -4816.9527            0    8431.4513    17.778709    22.999479    19.378864    7924.0379    9538.9424    8636.5292    7118.8824   -474.66723    -389.3154     997.2333   -3308.4857 
24004000     259.0945    -4845.898    -4327.677    -4845.898            0    7990.8263    17.973822    23.101371    19.109259    7934.5452    8136.3958     7559.534    8276.5492   -996.67709    155.13908   -2361.5578   -3403.0009 
24005000    265.07192   -4805.8978   -4275.7212   -4805.8978            0     9290.196     17.59921    23.157409    19.410939    7910.9692    11887.717    9038.5779    6944.2928   -878.35239   -201.15541   -1019.5833     -3203.88 
24006000    274.16021   -4800.3448   -4251.9905   -4800.3448            0    11533.748    17.993269    22.890571     19.06157    7851.0073    11594.328    11328.684    11678.232    144.95516   -893.84401     2134.693   -2931.3892 
24007000    271.09811   -4823.5108   -4281.2811   -4823.5108            0    8861.5759    17.899153     22.68123    19.465254    7902.4028    11121.566    9349.0904     6114.071     1263.367   -366.16543    747.23917   -3259.9983 
24008000    282.49397   -4840.0777   -4275.0549   -4840.0777            0    9349.8771     18.01553    22.661961     19.31412    7885.3225    9746.8194    9588.1456    8714.6662    1237.8278    440.59262    986.30504   -3199.8252 
24009000     270.1726   -4778.3017   -4237.9232   -4778.3017            0    10203.132    17.959662    22.677455    19.427459    7912.4043    10018.442    10013.769    10577.184    1584.0305   -534.95127   -408.13469   -3060.5399 
24010000    277.71583   -4809.0538   -4253.5878   -4809.0538            0    9071.6752    18.223516    22.659945    19.193598    7925.8791    8203.4382    8958.6595    10052.928     15.37297   -748.31613   -2549.2757   -3204.9855 
24011000    268.04023   -4818.0424   -4281.9289   -4818.0424            0     10482.06    17.802993    22.884934     19.37002    7891.7395    11652.717    10192.138    9601.3233    949.31982    -578.4418    1798.3431    -3075.518 
24012000    281.46917   -4791.0063   -4228.0332   -4791.0063            0    9201.7018    17.833432     23.01103    19.263142    7904.9318    8404.2789     8888.237     10312.59   -1263.4981     55.70621   -1235.2644   -3167.2121 
24013000    284.63403   -4807.9987   -4238.6955   -4807.9987            0    9677.9523    17.805362    23.188276    19.179289    7918.6616    10178.957    9503.8792    9351.0212    780.08386    583.88438    1016.6427   -3121.0318 
24014000    269.31572   -4807.9708   -4269.3061   -4807.9708            0    11286.902    17.719936    23.116874    19.151998    7845.2236     11303.56    11995.075    10562.071   -695.25485   -183.84153   -1719.7024   -2977.9204 
24015000     273.1353   -4813.2906   -4266.9863   -4813.2906            0    10052.629    17.608196    23.460205    19.072843    7878.8369    10750.448    8617.1131    10790.325    384.24314   -37.661044    775.21716   -3111.8915 
24016000    267.94271    -4796.676   -4260.7575    -4796.676            0    10854.007    17.627048    23.277309    19.157267    7860.4233    13380.954    9914.9338    9266.1343   -566.24536   -891.30493    -394.5064   -3016.4953 
24017000    280.82671   -4830.6416   -4268.9535   -4830.6416            0    9479.4978    17.782595    23.310684    19.042739    7893.6808    10883.797    8451.8415    9102.8551    843.32123    -287.2442    1837.2703   -3177.6619 
24018000    249.94774   -4798.6123   -4298.6859   -4798.6123            0    9286.4241    17.719689    23.253671    19.213701    7916.9636    13508.316    8675.4369    5675.5189   -528.57522    1263.6787    568.77323    -3226.468 
24019000    261.28895   -4790.7301   -4268.1199   -4790.7301            0    10669.845    17.779234    23.226483    19.018344    7853.6074    9850.3981    10623.877    11535.259   -561.88389   -1211.1513    1129.8668   -3046.0299 
24020000    263.45763   -4805.9754   -4279.0276   -4805.9754            0    9837.6849    17.675145    23.101396    19.273974    7869.9592    12457.815     8249.742    8805.4973   -290.92465    -388.9807    1040.2263   -3149.9045 
24021000    270.01204   -4832.4594    -4292.402   -4832.4594            0    9670.7271     17.93965     23.15098     18.92999    7862.0124    10095.456    7945.2829    10971.442    894.18378   -1774.5071   -613.40922   -3183.5623 
24022000     259.8277   -4785.1714   -4265.4839   -4785.1714            0    8982.1006    17.697072    23.126779    19.325769    7909.5787    9494.6318    8408.9693    9042.7008   -741.00409    687.84453     581.3917   -3229.3708 
24023000    267.48587   -4845.4121   -4310.4073   -4845.4121            0    7649.1657    17.954065    23.107059    19.139427    7940.2907    6282.7384    7461.0304    9203.7282   -31.555835   -515.93405   -710.23133   -3424.6263 
24024000     275.9279   -4767.8264   -4215.9365   -4767.8264            0    10693.918    17.531753    23.117768    19.425901    7873.2207    11739.804    10679.262    9662.6883   -1288.7796    532.85216    716.92074   -2988.0303 
24025000    273.13902   -4791.6979   -4245.3861   -4791.6979            0     9167.476    17.864419    23.337463    19.021575    7930.2889     7376.727    8546.6712     11579.03    -654.5467    393.22277   -328.19335   -3185.1205 
24026000    274.68095   -4800.0362   -4250.6404   -4800.0362            0    9617.6336    17.838333    22.810841    19.417195    7901.0001     9554.437    10624.728    8673.7361    585.19845    1498.2454    1103.2231   -3142.4199 
24027000    277.04208   -4789.7571   -4235.6387   -4789.7571            0    10645.035    17.931454    22.872129    19.220294    7882.8291    10358.748    11432.157      10144.2    644.67261    374.00128    173.68519   -3011.8538 
24028000    269.51837   -4832.2345   -4293.1645   -4832.2345            0    8875.5555    17.959193    23.025069    19.133457    7911.9075    9875.1193    6912.2039    9839.3432    1523.9777   -2127.4563   -469.09127   -3269.0403 
24029000    270.39347     -4809.85   -4269.0296     -4809.85            0    9560.2636     17.89719    22.928975    19.194758    7876.8416    9014.6347    10301.439    9364.7175   -612.74158    320.98281   -824.81915   -3170.7881 
24030000    279.15587   -4818.5572   -4260.2109   -4818.5572            0    9044.5108    17.971677    22.934189     19.23942    7929.8316    9638.4654    9231.6647    8263.4024   -1050.3006    601.88518    84.118496   -3214.2272 
24031000    272.65259   -4796.1236   -4250.7848   -4796.1236            0    8487.5289    17.883815    23.208174    19.177028    7959.4385    8631.9305    7816.6729    9013.9832    380.60194    25.668982    17.730306   -3265.5503 
24032000    267.63019   -4784.5642   -4249.2708   -4784.5642            0    11537.062    17.882324    22.816834    19.253485     7855.769    10554.284    12326.228    11730.675    255.77463    1431.0481   -38.410461   -2927.4888 
24033000    271.07555    -4822.166   -4279.9814    -4822.166            0    9565.1498    17.851654    23.071253    19.233525    7921.5202    10608.129    9802.3643    8284.9565   -361.38053    1595.4985    75.510013    -3174.946 
24034000    256.66918   -4823.0996   -4309.7295   -4823.0996            0    8388.7435     17.82081    23.109955    19.226832    7918.3424      8533.83    7590.5064    9041.8941    336.94634   -1429.7076    626.34463   -3340.9898 
24035000    264.87026   -4826.9221   -4297.1488   -4826.9221            0    10404.562    17.597057    23.131965    19.198209    7814.7171    10974.718    9345.9827    10892.986    164.96599   -1588.4326    1290.2963   -3111.3447 
24036000     267.7427   -4847.5311   -4312.0126   -4847.5311            0    8618.6012    17.928671    23.106853    19.096154    7911.0623    9424.6761    7383.7372    9047.3903   -837.91805   -650.14916   -477.05541   -3317.6439 
24037000    271.97734   -4814.7382   -4270.7499   -4814.7382            0    12212.728    17.653232    23.124927     19.15923    7821.3669    12426.588    12437.152    11774.442   -1717.1865       618.81   -3029.5668   -2877.6854 
24038000    259.17199    -4791.735    -4273.359    -4791.735            0    9501.0982    17.832604    23.224796    19.079447    7901.9165    9558.4827    9473.1623    9471.6495     184.3107    1620.5694   -943.73212   -3178.4397 
24039000    264.69254    -4810.796   -4281.3782    -4810.796            0    8926.3986    17.793151    23.128822    19.149422    7880.6501    7904.3124    10379.186    8495.6976    573.85127    2014.2508    588.63859   -3255.4565 
24040000    266.88307   -4789.6991      -4255.9   -4789.6991            0    11707.348    17.714249    23.302862    19.047393    7862.6248    9905.9118     12021.46    13194.673    1114.6114     671.2156    550.87541    -2913.438 
24041000    273.22486   -4820.8273   -4274.3438   -4820.8273            0    9524.4562    17.724262    23.227574    19.210172    7908.6664    11443.338    8188.0664    8941.9643    265.44268     1022.612     1066.137    -3175.795 
24042000    278.45545   -4828.4782   -4271.5329   -4828.4782            0    8894.4788    17.784995    23.400006    18.997922    7906.3464    6470.4044    9251.5875    10961.445    27.194405   -42.073429    561.26515   -3245.9465 
24043000    260.04025   -4772.0889   -4251.9763   -4772.0889            0    9193.5394    17.795539    23.255017    19.117242    7911.3944    9620.7386    8676.3076    9283.5721    385.97532    1288.4196    204.63804   -3191.2296 
24044000    263.04792   -4828.3147   -4302.1863   -4828.3147            0    9883.0406     17.79129    23.145268     19.14049    7881.7507    10365.031    9450.6411    9833.4493   -980.72731    1033.4275      961.739    -3166.158 
24045000    269.51586   -4828.2595   -4289.1945   -4828.2595            0    12875.023    17.654287    23.139244     19.10231    7803.4246    11939.067    13429.434    13256.568    1406.5716    1008.3528    1193.6062   -2823.9532 
24046000    263.74832   -4814.3793   -4286.8501   -4814.3793            0    10016.765    17.870318    22.942817    19.179872    7863.6605    8484.7416    10157.938    11407.617   -1209.1245   -88.071264   -1461.5705   -3138.0931 
24047000    270.21706   -4812.2463   -4271.7788   -4812.2463            0    10717.923    17.987261     22.75618    19.303818    7901.4648    9667.6109    12402.166    10083.993    -1003.235   -299.43249    1617.8289   -3036.7014 
24048000    263.57052   -4822.3607   -4295.1871   -4822.3607            0    11405.744    18.045682    22.672079    19.228639     7867.073    9977.5228     12604.69    11635.018    63.872935    569.36486    304.91754   -2986.5698 
24049000    269.58981   -4788.3106   -4249.0977   -4788.3106            0    11077.087     18.01371    22.736667    19.285462    7898.7803    10197.341    10980.181    12053.739    149.00901    912.30601    262.03266   -2973.0659 
24050000    256.17633   -4817.0794   -4304.6951   -4817.0794            0    8592.4035    18.031396    22.744177    19.344755    7933.4631    8486.9424    8181.1381    9109.1301    676.57189   -1350.7297    704.07607   -3310.5418 
24051000    277.61307   -4765.8694   -4210.6089   -4765.8694            0    8522.6028    17.978072    22.823033    19.382157    7952.7731    8575.6753    8409.9531      8582.18   -1142.7071    179.46247   -780.63956   -3222.1316 
24052000    248.67175   -4794.6157   -4297.2414   -4794.6157            0     10390.63    17.783028     23.10797      19.1711    7877.9742    11186.577    9557.7174    10427.596    -173.2147   -455.14193    681.55085   -3103.4394 
24053000    255.70254   -4821.3825   -4309.9459   -4821.3825            0    11415.655    17.721898     23.04009     19.21212    7844.5802    14558.948     11472.59    8215.4266    968.28935    1020.3005    627.79701   -3003.9361 
24054000    277.04459   -4788.6514    -4234.528   -4788.6514            0    10268.855    17.856696    23.158136    19.101616    7899.0489    10879.179    9616.6728    10310.712   -1068.4203     1374.794    513.31942   -3051.5608 
24055000    268.32664   -4796.5547   -4259.8682   -4796.5547            0    9069.0917     17.65729    23.290177    19.327715    7948.3568    10028.953     7421.757    9756.5653    1014.2554    1142.7191   -347.37638   -3208.5915 
24056000    276.17266   -4772.2375    -4219.858   -4772.2375            0    11047.636    17.776197    23.215161    19.049127    7861.1421    11991.833     10033.68    11117.396   -1008.4731   -594.87614   -889.54605    -2953.283 
24057000    256.11583    -4821.156   -4308.8927    -4821.156            0    9347.0878    17.840823    23.179349    19.148531    7918.6579    8125.6412    8938.8639    10976.758   -222.47844    478.58117    570.88127   -3229.4396 
24058000    264.03297   -4794.7759   -4266.6773   -4794.7759            0    9480.6465    17.713848    23.160116    19.236898    7892.0289    11240.102    9097.9585    8103.8793   -763.46658   -1447.8959   -1269.8996    -3175.482 
24059000    257.76525   -4799.6666   -4284.1043   -4799.6666            0    9727.0309    17.886383    23.082743    19.168871      7914.19    9229.4009    8230.2335    11721.458   -235.26264     354.8603    1949.8049    -3161.407 
24060000    258.74525   -4795.0569   -4277.5344   -4795.0569            0    12296.713    17.709542    23.014539    19.243478     7843.198    11823.472    12514.145    12552.522   -76.563677   -146.66678    452.16835   -2870.9749 
24061000    266.56769   -4788.6567   -4255.4884   -4788.6567            0     9467.283    17.853335    23.271932    19.044866    7912.7914    7664.2313    9617.3643    11120.253   -575.99349    879.50958   -260.84878   -3162.9645 
24062000    278.77489   -4783.3906   -4225.8064   -4783.3906            0    8672.8058    17.796647    23.221945    19.247986    7954.6684    8730.1729    7884.9326    9403.3118    638.01424   -505.37521    1401.8985   -3219.6683 
24063000    274.41543   -4794.6473   -4245.7825   -4794.6473            0    8902.0673    17.842559    23.136198    19.198022    7925.1154    8786.4812    9356.4684    8563.2523     326.7432    859.08562    194.50579   -3216.8844 
24064000    262.07887   -4803.1518   -4278.9617   -4803.1518            0    11200.086    17.797763     23.01677    19.159423    7848.6005    11185.767     11302.29      11112.2    114.74977   -1555.1102    424.21399   -2996.9575 
24065000    269.56451   -4835.8486   -4296.6863   -4835.8486            0    10604.883    17.805532    23.075389    19.141584    7864.6947    7929.1357    10793.705     13091.81   -36.181718    1504.0863   -757.65801    -3080.322 
24066000    267.95353   -4775.3904   -4239.4503   -4775.3904            0    10400.162    17.859373    22.985792    19.295727    7921.1242    9968.2638    10388.005    10844.217   -313.79465    1079.6037    722.94461   -3038.0083 
24067000    259.63597   -4813.1898   -4293.8858   -4813.1898            0    8999.6791    17.905997    23.022542    19.155197    7896.5682    10359.096    7863.6174    8776.3238    3.7869159   -644.82848    120.71445   -3257.4526 
24068000    262.98452   -4791.9136   -4265.9121   -4791.9136            0    11493.477    17.893227    23.004927    19.054048    7843.2633    11163.877    12099.971    11216.582    1320.8853    361.45015   -1245.7405   -2951.2198 
24069000    256.80739    -4824.979   -4311.3325    -4824.979            0    10183.842    17.662899    22.897606    19.431021    7858.6452    9968.5618    10749.457    9833.5068    268.53381   -161.75324    560.37286   -3144.1595 
24070000    265.34141   -4794.9951   -4264.2795   -4794.9951            0    8804.4439    18.083111    22.764338    19.287429    7939.6708    7154.1317    9432.0562     9827.144   -392.38366   -122.60506    445.71346   -3244.7957 
24071000    266.34342   -4813.4891   -4280.7694   -4813.4891            0    9031.4607    18.021316    22.663387    19.419063    7931.2124    9615.3234    9173.8921    8305.1667    254.60226   -388.11408   -817.71383    -3236.113 
24072000     278.8939   -4776.3549   -4218.5327   -4776.3549            0    9689.7556    18.115918     22.67701    19.308153    7932.0761    7619.4539    9957.9878    11491.825    355.66947    932.54321   -777.97485   -3097.6102 
24073000    263.95842   -4841.2138   -4313.2643   -4841.2138            0    9745.8329    17.975882    22.608349    19.400981    7884.6561    10640.594    9939.4298    8657.4754   -245.15448    -500.5417    321.15552   -3192.5947 
24074000    259.30215   -4835.7866   -4317.1503   -4835.7866            0    8126.2163    18.146349    22.605817    19.324862    7927.3101    6643.3424    8212.7424    9522.5643    487.91991   -504.39732     271.3881   -3377.6647 
24075000    268.97976    -4822.903   -4284.9102    -4822.903            0    8909.2347    17.990472    22.475473    19.507545    7887.7658    6761.6675    10399.182     9566.855   -713.74911    68.678473   -527.74474   -3260.0366 
24076000    274.16488   -4819.8738   -4271.5102   -4819.8738            0    8945.8721    18.138681    22.595447    19.342472    7927.5431    7610.6614     8449.515     10777.44   -136.99644   -1031.8654    -269.8909   -3237.2325 
24077000    255.55639   -4831.2769   -4320.1326   -4831.2769            0    9818.2428    17.972777    22.511309    19.504047    7891.1566    10977.645    10098.343    8378.7404   -468.58789    214.63808   -284.27446   -3190.2057 
24078000    281.75931   -4785.2897   -4221.7362   -4785.2897            0    10671.721    17.826241    22.741374    19.421382    7873.2965    10868.531    11525.814    9620.8172    963.86448   -413.45238    608.07158   -2996.3671 
24079000    265.55761    -4822.553    -4291.405    -4822.553            0    9385.3775    17.892545    23.038069    19.123079    7882.7185    7972.7866    10301.236    9882.1096   -384.73526    19.998751    579.49331   -3212.4492 
24080000    271.80654   -4785.7432   -4242.0965   -4785.7432            0    11884.454    17.812089    23.063721     19.16315    7872.4723    12360.445     11436.99    11855.928    678.68134   -109.47606    -55.42067   -2877.6194 
24081000    278.69953   -4820.1016   -4262.6681   -4820.1016            0    9748.3072    17.865308    22.931772    19.229853     7878.147    10351.002    9082.7639    9811.1559     586.6524    371.37411    174.88201   -3142.6393 
24082000    254.32107   -4819.3355    -4310.662   -4819.3355            0    7793.0131    17.904213    22.922947    19.288498    7916.3335    6942.6407    8217.3364    8219.0622    702.44482    851.03624   -122.94125   -3410.9461 
24083000    279.67276   -4817.7879   -4258.4078   -4817.7879            0    11171.791    17.853657    22.697223    19.335211    7835.1772    11429.947    12400.505    9684.9224    289.21662    761.01551     1004.324   -2981.8293 
24084000    294.68166   -4829.6855   -4240.2858   -4829.6855            0    10198.201    18.081485    22.790249    19.202305    7912.9156    9210.4002    11320.335    10063.869    1502.8919    113.29072    1036.9515   -3063.3954 
24085000    249.76474   -4797.1949   -4297.6345   -4797.1949            0    10498.323    17.796002    22.898069    19.310794    7869.0344    8279.5865    11554.847    11660.535   -816.51332   -16.262324    612.15163   -3092.8282 
24086000    263.59148   -4814.8679   -4287.6523   -4814.8679            0    10797.694    17.985476     22.85967    19.108543    7856.3253    8740.3957    12070.728    11581.959   -2138.6942   -15.751944    53.845396   -3050.4909 
24087000    256.88571   -4803.2491   -4289.4459   -4803.2491            0     9351.186    17.765065    22.953982    19.446833    7930.0098    10555.534    10082.221    7415.8032   -334.02677    970.71329    1284.5556   -3207.9714 
24088000    265.61132   -4811.1171   -4279.8617   -4811.1171            0    10717.818    18.073575    22.879405    19.112273    7903.1664     10497.41    10844.328    10811.716   -463.14965    1053.1531   -952.14359   -3044.5305 
24089000    259.62538   -4849.0416   -4329.7587   -4849.0416            0      10041.9     17.71745    23.089061    19.235344    7868.7808    11461.676    8879.7938    9784.2301    1760.5758   -755.96966    112.03408   -3177.3694 
24090000    269.98518   -4814.7204   -4274.7167   -4814.7204            0    12224.343     17.67904    23.185493    19.041936    7805.2371    13349.867    11737.174    11585.988   -454.93409   -242.01095   -306.45294   -2883.2029 
24091000    261.58489   -4808.1946   -4284.9925   -4808.1946            0    11301.196    17.977436    22.947871    19.043556    7856.3024    10793.025     11436.18    11674.384    229.89508    580.23082   -1988.4673   -2990.1454 
24092000    272.35848   -4835.6192   -4290.8686   -4835.6192            0    8825.1671    17.717114    23.123578    19.346481    7925.9255    8215.4615    9307.7781    8952.2616    558.10462   -259.92062   -1557.7682   -3270.7544 
24093000    263.01042   -4773.1714   -4247.1181   -4773.1714            0    10185.911    17.886224    23.306079    18.935904    7893.5788    10235.767    9954.2298    10367.736   -522.64331    572.95056    450.39743   -3074.5185 
24094000    258.29362   -4789.1164   -4272.4973   -4789.1164            0     11661.27    17.682951    23.088451    19.204403    7840.6191     14753.25    9279.7511    10950.809    847.08724    -1564.986    251.98354   -2939.0616 
24095000    265.14908   -4855.3951   -4325.0642   -4855.3951            0    9701.1586    17.863284      23.0725    19.137968    7887.7255    10016.056    8764.1879    10323.232    304.36987   -77.366723   -1392.3188   -3209.0973 
24096000    268.35929   -4795.4899   -4258.7382   -4795.4899            0    11525.702    17.790605    22.986437     19.23432    7865.7332    12553.626    10569.479        11454    642.93914   -158.67487    482.94684   -2936.5829 
24097000    275.21551   -4832.3142   -4281.8492   -4832.3142            0    9305.7132    17.715161    23.144767     19.25314    7894.0428    9971.7731    7903.3753    10041.991   -1833.7259   -1727.4824   -1006.4837   -3210.5148 
24098000    260.77616   -4803.3329   -4281.7483   -4803.3329            0    9709.2859    17.809294     22.87783    19.354626    7885.8103    11113.821    9770.1221     8243.914   -1238.3486   -921.13852   -671.03981   -3165.1178 
24099000    259.69861   -4804.4116   -4284.9823   -4804.4116            0     10064.21    18.003668    22.862347    19.164576    7888.2566    9887.6054    9214.9495    11090.074    707.15793   -1080.0698    842.68536   -3127.1741 
24100000    264.80425     -4811.35   -4281.7088     -4811.35            0    9090.3127    18.001125    22.700829     19.34035    7903.2497    8310.2412    9845.8745    9114.8226    1225.4106   -182.47767   -366.03174   -3233.9521 
24101000    245.96246   -4808.8831   -4316.9278   -4808.8831            0    9401.1617     18.00936    22.831976    19.184921    7888.6339    7279.7639    9702.6073    11221.114   -649.53189   -773.47078   -1022.6203   -3235.3464 
24102000     265.8505   -4818.9815   -4287.2477   -4818.9815            0    7710.4813    17.874413    22.804934    19.511349      7953.31    7581.0929    8886.5095    6663.8416   -1893.3919   -332.62528    -1352.706   -3392.9023 
24103000    260.49202   -4777.5765   -4256.5603   -4777.5765            0    9622.7416    17.943541     22.95905     19.20135    7910.3156    8300.7816    10886.101    9681.3417   -1078.0703    1287.5723   -151.52624   -3146.4439 
24104000    275.38406   -4798.9852   -4248.1831   -4798.9852            0     10914.05    17.889121    22.785231     19.24711    7845.2715    10946.141    10847.272    10948.738    67.552355   -357.53086    128.24841   -2999.4494 
24105000    276.95931   -4783.0591   -4229.1062   -4783.0591            0    10999.964    17.836442     22.90207    19.260151    7867.6066    10050.101    9930.7688    13019.022   -899.78482   -778.17523    1843.4569   -2966.9597 
24106000    261.41924    -4830.481   -4307.6102    -4830.481            0    9066.4133    17.967132    22.896751    19.205523    7900.9397    8303.6252    8909.0216    9986.5932    497.26888     135.5431    3497.4059   -3262.9137 
24107000    274.20001   -4812.1734   -4263.7395   -4812.1734            0    10224.105    17.758627    23.068921    19.199898    7865.6681    8951.1907    10044.839    11676.286    644.08991    171.37953    1439.3956   -3090.9047 
24108000    277.94478   -4806.8235   -4250.8996   -4806.8235            0    7832.2664    17.760341    23.350775    19.142655    7938.7979    9910.9467    6780.9331    6804.9195   -333.26715   -218.67784    1279.8707   -3344.0859 
24109000    253.98819   -4791.0453   -4283.0376   -4791.0453            0    10679.306    17.730726    23.222258    19.096462    7862.9205    11210.076    8909.0353    11918.807    6.0237766   -1992.0556    1993.3838   -3058.4134 
24110000    277.70566   -4803.4691   -4248.0235   -4803.4691            0    10467.291    17.522639    23.422551    19.159939    7863.7164    11655.914    10350.805     9395.154    910.52413    522.53288   -239.20756   -3047.5902 
24111000    281.09178   -4794.4839   -4232.2656   -4794.4839            0    10510.409    17.833011    23.199424    19.027105    7871.8096     7758.161    10934.844    12838.222     535.5001    764.43802   -771.92812   -3025.6468 
24112000    270.71001   -4808.8449   -4267.3915   -4808.8449            0    10160.633    17.760023    23.073611    19.231638    7880.8918    10639.175    9334.1287    10508.596   -665.90857   -1016.5084   -211.73044   -3099.5819 
24113000     267.8598   -4818.5717    -4282.819   -4818.5717            0    11699.456    17.861392    22.985268    19.048925    7820.5149    9178.4822    12534.046    13385.841    311.61102    1034.0765   -1268.9023    -2948.447 
24114000    268.18107   -4800.7612   -4264.3659   -4800.7612            0    10172.343    17.871452    22.911986    19.322912    7912.1614    9088.2921     9458.186    11970.551   -513.20355    1166.4846    53.834525   -3090.5715 
24115000    260.11024    -4802.251   -4281.9984    -4802.251            0    9299.5969    18.006172    22.809474    19.284609     7920.407    9276.0565     10382.89    8239.8444     142.1987    389.78546    704.28479   -3207.7926 
24116000     273.7782   -4846.8178   -4299.2276   -4846.8178            0    10512.023    17.910615    22.692414     19.26217    7828.8217    10766.936    9765.3346    11003.799    572.72546   -1531.7334   -255.81827   -3099.0139 
24117000     265.5674   -4842.9731   -4311.8055   -4842.9731            0    8268.6396    17.910578    22.623905    19.523893    7911.2223    9509.5229    9335.1317    5961.2643    87.844109    1131.1481   -1317.3177   -3357.7941 
24118000    253.78853   -4803.5753   -4295.9669   -4803.5753            0    10006.912    18.080511    22.584241    19.299476    7880.6443    9969.0763    10856.542    9195.1184   -776.41916   -373.49762    1078.1206   -3145.8613 
24119000    262.71616   -4821.1816   -4295.7168   -4821.1816            0    9772.5687    17.865101     22.69014    19.445695    7882.5389     11453.45    8983.6046    8880.6515   -448.34541    -392.4561   -625.88355   -3172.2746 
24120000     263.7563    -4817.247   -4289.7018    -4817.247            0    8331.8644    18.049253    22.804354    19.295522    7942.0669    7816.5626    8000.2946    9178.7361   -865.28712    -581.2273   -2173.1455   -3324.6477 
24121000    265.45007   -4826.4012   -4295.4682   -4826.4012            0    9153.9623    18.025632    22.597231    19.339046     7877.361    8095.8969    9813.7522    9552.2378    805.25025    -942.9059   -311.16459   -3243.8315 
24122000    259.58757   -4763.1201   -4243.9129   -4763.1201            0     8309.353    17.762804    23.162025    19.304219    7942.1905    9572.3271    8308.6943    7047.0377    -1008.704   -989.05478   -769.56572   -3281.4513 
24123000    265.66882   -4813.2849   -4281.9145   -4813.2849            0    9809.6165    17.833474    23.117607    19.228018    7927.0821    10887.105    9600.7115    8941.0326   -1587.3576    471.77875    -1765.138   -3147.8408 
24124000    279.65833   -4815.4496   -4256.0984   -4815.4496            0    10996.389    17.647227    23.372852    19.021227    7845.6098    12044.363    10782.045    10162.759    247.50659   -175.56898   -399.69438   -2997.8897 
24125000    278.60692   -4793.2512    -4236.003   -4793.2512            0    10013.124    17.662422      23.2621     19.14264    7865.0412    11371.578    9375.4765    9292.3161    39.402857   -2203.4867    474.27267   -3087.4621 
24126000    272.33357   -4827.5354   -4282.8346   -4827.5354            0    10298.711    17.856004    22.973169    19.210648    7880.3806    10825.856    10061.347    10008.932    1306.5813   -919.48721     39.53666   -3099.2319 
24127000    252.08317   -4802.7684   -4298.5709   -4802.7684            0    8025.0067    17.975181    22.840415    19.365055    7950.5287    8302.4443     8458.775    7313.8008    1878.0611    486.32857     704.3051    -3368.069 
24128000    269.10179   -4828.5481   -4290.3112   -4828.5481            0    9917.1433    18.089631    22.679472     19.32996     7930.373    10298.706    10241.426    9211.2983    657.76479   -900.64589    1132.2982   -3143.3306 
24129000    271.94953     -4762.06   -4218.1273     -4762.06            0     10438.04    17.863165     22.66716    19.453192    7876.7375    10309.145    11246.346    9758.6274    1263.8992   -173.43514   -805.66521   -3019.0666 
24130000       254.65   -4821.9527   -4312.6212   -4821.9527            0    10872.602    17.965299    22.743985    19.219584    7853.1699    10499.008    11164.881    10953.916    344.55884    625.62402   -1782.1091   -3067.3775 
24131000    253.77252   -4815.9332   -4308.3568   -4815.9332            0    11796.621    18.002445    22.568984    19.307257    7844.4788    11079.004    12628.474    11682.384   -1023.3511    781.65032   -175.59464     -2958.78 
24132000    261.98991   -4778.6676   -4254.6554   -4778.6676            0    8824.5073    17.986313    22.818219    19.393021    7959.1989    8132.3255    10047.793    8293.4034    799.11237    943.58169    1866.8344   -3230.3353 
24133000     283.7074   -4818.1286   -4250.6787   -4818.1286            0    9659.3517     17.84415    23.006531     19.21027    7886.4306    9387.5092    9817.9561    9772.5897   -520.20367    499.76851    894.39169   -3139.7035 
24134000    242.08305   -4787.2573   -4303.0613   -4787.2573            0    9766.8736    17.894302    22.906064    19.255634    7892.6537    10231.269    10297.465    8771.8867    1376.3627    648.83914    1790.4578    -3178.833 
24135000    274.85164   -4838.1476   -4288.4103   -4838.1476            0    10166.646     17.87878    22.936352    19.132424    7845.7096    9283.2113    10747.309    10469.417    -2447.079   -240.78722    163.24617   -3125.1262 
24136000    271.53568   -4792.9204   -4249.8155   -4792.9204            0    10329.789    17.879801    22.794485    19.370453    7894.6385    11719.291    9977.7395     9292.338    1211.9276   -563.28224    1334.2694   -3060.4931 
24137000    260.89634   -4811.7901   -4289.9652   -4811.7901            0    10113.931    17.876034    22.969033    19.158307     7866.309    10443.509    9316.7559    10581.528   -464.02395    724.43836    1138.4621   -3129.6743 
24138000    262.21653   -4801.0148   -4276.5494   -4801.0148            0    9772.7997    17.786272    22.998848    19.270103     7882.701    9420.5153    10517.972    9379.9117   -2776.4921   -722.50472   -1429.0952   -3153.0575 
24139000    251.40946   -4813.3969    -4310.547   -4813.3969            0    10653.253    17.835386    23.051777    19.131369    7865.6203    10425.903    9559.0925    11974.765   -487.85299    741.35008   -151.83546   -3088.4909 
24140000    273.61093    -4806.642   -4259.3863    -4806.642            0    10393.571    17.887791     22.99624    19.205265    7900.1232    7443.0187    11754.254    11983.441    -1089.405    2247.3082    1907.1987    -3061.889 
24141000    262.40541   -4815.4107   -4290.5675   -4815.4107            0    10397.174    17.909008    22.782264    19.282769     7867.519    10166.227    10455.575    10569.719    268.33951   -380.31238    237.89066    -3097.599 
24142000    264.36207   -4801.2178    -4272.461   -4801.2178            0    11151.613    17.996507     22.79668    19.177514    7867.7783    10824.336    11143.397    11487.106   -1520.5215   -475.24297    309.48987   -2992.8862 
24143000    260.70401   -4811.7432    -4290.303   -4811.7432            0    10514.035     17.84632     22.75114    19.369191    7864.3586    10983.298    11541.779    9017.0274    51.401009   -197.88195    1373.6378   -3084.4105 
24144000    272.67769   -4825.1392   -4279.7501   -4825.1392            0    9674.2315    18.099601    22.811176    19.139422     7902.154    10442.376    8900.4268    9679.8917   -1432.7059    125.98064   -334.38678   -3164.8451 
24145000    266.93627   -4812.7679   -4278.8624   -4812.7679            0    10595.853    17.737888    23.132397     19.15956    7861.5481    9252.0135    9877.2925    12658.254      6.28469    1437.4748   -348.55674   -3064.0201 
24146000    256.93312   -4798.9006   -4285.0026   -4798.9006            0    8984.8524    17.698751    23.433158     19.09341    7918.7554    10184.253    7673.8916    9096.4131   -539.75548   -708.99367   -1315.5191   -3247.3696 
24147000    251.92498   -4809.1314   -4305.2503   -4809.1314            0    10604.321    17.657638    23.208611    19.194456    7866.0653     9301.745     10880.88    11630.339    1228.1516   -15.297915   -20.655718   -3088.7386 
24148000    263.71851    -4814.581   -4287.1114    -4814.581            0    9379.9936    17.889016    23.066985    19.098885    7881.0721    9258.1534    8849.0234    10032.804   -355.65578   -239.87857    -1019.458   -3208.9998 
24149000    271.20176   -4788.9445   -4246.5075   -4788.9445            0    8531.3906    17.853806    22.904083    19.320404    7900.5974    8966.4188    8247.7582    8379.9947   -222.55224   -233.47945   -910.00273   -3263.5027 
24150000    257.58905    -4811.359    -4296.149    -4811.359            0    9685.1073    17.974662    22.830661    19.226848    7890.1873    9227.6869    9457.5786    10370.056    1609.0529   -1324.4883   -1760.6865    -3181.681 
24151000    273.74473   -4762.4325   -4214.9092   -4762.4325            0    12574.016    17.850804     22.71248    19.357141    7848.0824    11808.584    13088.517    12824.948    1064.7507    919.22723    612.53492   -2775.7347 
24152000    272.42631   -4822.7733    -4277.887   -4822.7733            0    7356.1927    17.993149    22.774208     19.44899    7969.8015    7306.9077    7933.8269    6827.8435    826.08732   -1097.7773   -473.20819   -3422.8666 
24153000     262.0091   -4785.3872   -4261.3366   -4785.3872            0    9846.2498    18.099426    22.760895    19.207161    7912.5654    9385.5155    10810.432    9342.8017    429.52316    899.53573    1612.1753   -3125.1124 
24154000    256.85401   -4802.9208    -4289.181   -4802.9208            0    9171.4889    17.996527    22.794731    19.339471    7933.5538    10395.696    7717.7343    9401.0369    227.33156   -1798.3091    1462.4754   -3228.0146 
24155000    263.24924   -4809.4143   -4282.8833   -4809.4143            0    10732.974    17.816014    22.701708    19.431497    7859.1455     12113.66    11138.466    8946.7965   -715.37272     158.3159     656.7878   -3052.6958 
24156000    260.31215   -4826.8274    -4306.171   -4826.8274            0    8509.4444    17.980376    22.991223    19.136308    7910.7743     8457.993    8067.7734    9002.5668    -471.7378    -932.3909   -530.14247   -3324.4319 
24157000    261.25069   -4809.4378   -4286.9042   -4809.4378            0    10684.954    17.868289    22.834007    19.334631    7888.6189     11575.13    10786.045    9693.6863   -444.83496    1015.5665   -1312.3542   -3057.6279 
24158000    266.92279   -4838.8946   -4305.0161   -4838.8946            0    9892.7597    17.960125    22.904341    19.174837    7887.8538    8405.5762    10579.223     10693.48   -905.57681    352.26048    970.53282     -3166.99 
24159000    265.01203   -4827.8106   -4297.7538   -4827.8106            0    9389.9608    17.740809    22.870638     19.44839    7891.0601    9773.9737    9881.9465    8513.9623    545.22602    896.03954    1513.7967   -3217.1288 
24160000     271.3417    -4811.772   -4269.0551    -4811.772            0    9794.2934    17.948241     22.99915    19.113103    7889.7798    10230.465    9121.4678    10030.947   -625.33515   -1153.0596     136.3508   -3142.0811 
24161000    268.74347   -4844.3187   -4306.7986   -4844.3187            0    9073.5969    17.723431     23.01774    19.384435    7907.9451    8280.5028    9305.8021    9634.4859    358.65337   -266.20825   -176.64124   -3260.3473 
24162000    272.52027   -4812.2825   -4267.2083   -4812.2825            0    10187.395    17.938946    23.133603    18.951325    7864.6569    10370.371    8667.5871    11524.228   -790.02737     156.5101    1291.6754   -3098.7349 
24163000    264.95709   -4809.4909    -4279.544   -4809.4909            0    11518.841    17.683875    23.033359    19.229858    7832.6874    12490.014    11089.038     10977.47    405.14657   -318.14159    1299.0696   -2963.7271 
24164000    260.50624   -4802.1495   -4281.1048   -4802.1495            0    11308.427    17.835536    23.184735    18.952774    7837.2031    11526.087    10756.438    11642.757    964.01361   -837.37982    1373.9113    -2988.579 
24165000    268.39712   -4824.5567   -4287.7293   -4824.5567            0    10148.273    17.825758    23.000803    19.225435     7882.558    8627.3493    9674.6438    12142.824    291.60615    226.09311   -1450.0069   -3121.0938 
24166000    278.27604   -4779.7278   -4223.1414   -4779.7278            0    9562.7837    17.815512    23.018738    19.279766     7906.451    10180.151    9664.5702      8843.63    330.02155    748.76874    353.02428   -3120.4809 
24167000    263.62748    -4813.231   -4285.9435    -4813.231            0    11270.211    17.885855    22.932535    19.138273    7849.9071    11052.811    10309.031     12448.79   -503.46252   -784.35206   -2017.4757   -2995.6977 
24168000    259.99903   -4775.7106   -4255.6804   -4775.7106            0    8702.6083    17.889445    23.065311    19.271565    7951.9415     9258.866    7246.8022    9602.1567    477.67036   -1530.2244   -636.79492    -3246.431 
24169000    274.72844   -4800.9178    -4251.427   -4800.9178            0    8778.4411    18.070151    22.773489    19.362936    7968.2431    7871.2655    9847.8677    8616.1901    24.083556    1080.6071    752.62259   -3231.2962 
24170000    263.97301   -4780.4888   -4252.5101   -4780.4888            0    9803.8747    17.997098    22.518195     19.44032     7878.426    9270.1325    10296.653    9844.8383     2001.554   -124.21404    -1250.406   -3126.0571 
24171000    263.58304   -4780.7168   -4253.5181   -4780.7168            0    9517.4636    18.164326    22.536138    19.372901    7930.3695    8651.4484    10114.819    9786.1234   -1643.6933    312.91127   -1186.1578   -3152.7634 
24172000    259.65859    -4807.613   -4288.2638    -4807.613            0    10958.339    17.810272     22.68552    19.424486    7848.1776    12318.258    11211.554    9345.2061    74.672196    348.90615   -91.708678   -3033.9983 
24173000    253.55241   -4817.5342    -4310.398   -4817.5342            0    10585.174    18.011316    22.910241    19.126961    7892.6179    10456.217    10843.595    10455.711    726.11227    825.12114   -307.09741   -3091.9838 
24174000    265.28222   -4822.9602    -4292.363   -4822.9602            0    9511.3225     17.80762     23.07536    19.151682    7869.7563    10555.557    9059.7667    8918.6441   -1562.1265    29.334832   -355.67074   -3200.7264 
24175000    265.27843   -4827.3051   -4296.7154   -4827.3051            0    9724.0232    17.738757    23.150606    19.277756    7916.6608    8874.2159    10819.939    9477.9151    50.844621   -163.55836   -80.531455   -3174.0149 
24176000    261.90639   -4815.0627   -4291.2176   -4815.0627            0    9691.2289    17.851389    23.234276    19.030289    7893.0808    9532.4082    8656.2405    10885.038    196.34959    671.46818    429.64208   -3175.6361 
24177000    262.94776   -4774.4681   -4248.5401   -4774.4681            0    11467.511    17.673893      23.0202    19.295758    7850.6058    14008.666    10442.936    9950.9313    1639.1336   -814.70984    1109.8733     -2935.59 
24178000    268.40954   -4805.5276   -4268.6753   -4805.5276            0    8539.8006    17.865423    23.179089    19.116842    7916.3656    8598.8898    7150.8289     9869.683   -651.91181   -945.40501    1091.9173   -3282.7377 
24179000    272.01841   -4800.3902   -4256.3198   -4800.3902            0    9571.7562    17.655953    23.174539    19.319536    7904.9468    12861.804    8071.2923     7782.172   -1197.7779    -497.5706    670.43539   -3152.8347 
24180000     270.3007   -4809.6123   -4268.9775   -4809.6123            0    10687.674    17.909783    22.969092    19.111936    7862.1045    10143.295    11774.313    10145.415   -1449.8791    745.63374   -516.60836    -3043.521 
24181000    267.36598   -4819.0859   -4284.3209   -4819.0859            0    11264.111    17.663684      23.0982    19.228763    7845.3223    11886.921    10156.667    11748.745   -117.66337   -821.06673     1185.363   -2995.5266 
24182000     263.8591   -4796.9709   -4269.2201   -4796.9709            0    9284.6885    17.883477    23.080785     19.25289    7946.9132    9319.1982    8968.3283    9566.5391   -1234.0291    350.13465    328.26678   -3193.1472 
24183000    261.95395   -4825.5597   -4301.6195   -4825.5597            0    9204.6675    17.641169    23.241648    19.189806    7868.0092    10236.907     8952.694    8424.4014   -584.35936   -656.44636    632.32307   -3245.4129 
24184000    256.62114   -4827.1732   -4313.8992   -4827.1732            0    8263.4013    17.837496    23.252005    19.169625    7950.7465    7896.3355    7902.9803    8990.8881    510.08587    395.02667    1225.4874   -3355.7291 
24185000    280.93117   -4795.6248   -4233.7278   -4795.6248            0    10641.264    17.769659    23.100304    19.086532    7834.7264     10703.59    9651.5502    11568.652    113.31393   -303.45251   -1682.0024   -3017.8415 
24186000    270.55861    -4801.242   -4260.0914    -4801.242            0    8422.2874    17.899729     22.86268    19.367709    7925.9592    8029.8012    8636.9982     8600.063    1467.9596     50.75554    1223.0548   -3286.5424 
24187000    278.65621   -4849.5986   -4292.2517   -4849.5986            0    7875.5751    18.107427    22.602079    19.331169    7911.5802    5660.3837    9206.9612    8759.3804     432.3883   -489.30827    385.52501   -3383.5499 
24188000    272.48782   -4800.6501   -4255.6408   -4800.6501            0    10835.135    18.033049    22.434543      19.4997    7888.8616    11438.355    10933.279    10133.771   -853.86997    222.12275   -659.29158   -3009.0482 
24189000    255.74195   -4813.2869   -4301.7714   -4813.2869            0    10362.387      18.1395    22.385949    19.311857     7841.964    9127.5502    11833.009    10126.603    313.99741    408.71474    3310.6359   -3116.6562 
24190000    274.03542   -4769.6185   -4221.5138   -4769.6185            0    11059.026    17.853845    22.860247    19.284519    7870.8473    11699.713    11038.754    10438.611   -1404.4825   -681.86338   -1344.6253   -2952.0677 
24191000    277.49811   -4817.8039   -4262.7734   -4817.8039            0    10174.094    17.887273     22.85392     19.24625    7867.7572    8887.0812    11160.476    10474.725    146.15321   -451.36699    921.90959   -3095.3656 
24192000    271.76648   -4795.9351   -4252.3685   -4795.9351            0    11858.192    17.969155    22.628089    19.287317    7842.3706    10719.273    12523.896    12331.408   -1031.8804    309.87252   -309.48353   -2896.1123 
24193000    271.67874   -4824.1088   -4280.7177   -4824.1088            0    11015.144    17.970886    22.666385     19.30926    7865.3379    10972.549    11725.504    10347.379    801.46135    474.76464     2383.634   -3017.1938 
24194000    264.90247   -4806.2538   -4276.4161   -4806.2538            0     8638.658    18.098816    22.792265    19.299071    7961.1178    9919.6281    7971.8726    8024.4732   -483.22882   -384.94536   -574.22469    -3273.427 
24195000    260.59663   -4792.5481   -4271.3227   -4792.5481            0    11745.385    18.004231    22.698925    19.237638     7861.974     11468.77    12635.724    11131.661     602.4113   -528.63056   -756.69649   -2924.6106 
24196000    259.91594    -4805.301    -4285.437    -4805.301            0    11721.607    17.880483    22.732257    19.264438    7830.2952    12805.017     11999.72    10360.084    -910.3097    138.18367    202.57687   -2946.8668 
24197000    268.67488   -4815.8814   -4278.4984   -4815.8814            0    9395.6601    17.948375    22.759842    19.312596    7889.2376     7905.934    11113.018    9168.0279    2204.9944    -365.6154    141.68346   -3197.4672 
24198000    277.27352   -4825.5457   -4270.9645   -4825.5457            0    10295.062    17.942981    22.908439    19.175949    7882.1912    8622.7857    10590.067    11672.335     1273.358    278.18258   -1427.4359   -3087.5092 
24199000    275.08645   -4806.7986   -4256.5917   -4806.7986            0    10854.369     17.69888    22.990676    19.365966      7880.19    11374.572    11044.475    10144.059    -1727.603    1415.3413   -1466.6368    -3009.159 
24200000    263.98121   -4804.3305   -4276.3355   -4804.3305            0    9273.7726    17.783418    23.234302    19.056938    7874.0466    9078.3018    8788.2409    9954.7749    665.39255   -168.92759    1511.3031   -3211.3828 
24201000    260.54251   -4795.7231   -4274.6059   -4795.7231            0    10513.605    17.762047    23.241957    19.086829    7879.5154     10416.32    10291.068    10833.428   -673.67757    297.53905   -1464.5591   -3066.4386 
24202000    262.03233   -4796.8513   -4272.7543   -4796.8513            0    9598.6795    17.820941    23.338033    18.957974    7884.7294    7769.3258    9699.4618    11327.251   -188.94175    1259.6971    45.218247   -3168.9955 
24203000    250.35865   -4810.6059   -4309.8577   -4810.6059            0    9922.6346    17.700218    23.257884     19.19117    7900.4212    10148.239    9825.3775    9794.2873    495.58211    752.07768   -76.048582   -3166.5763 
24204000    255.21465   -4821.1819    -4310.721   -4821.1819            0    10421.159    17.779422    23.053119    19.138756    7844.4234    13399.694    9148.4863    8715.2956    6.5336001    -1094.564    590.73355   -3118.5106 
24205000    269.01768   -4839.8791   -4301.8105   -4839.8791            0    9359.2728    18.134593     22.55606    19.297139    7893.3975    8292.0969    10382.394    9403.3272    798.09902    279.79693    133.57141   -3224.3981 
24206000    270.13762   -4839.1076    -4298.799   -4839.1076            0    9641.8912    17.791352     22.86978    19.353316    7874.5606    10472.693    10053.964    8399.0163    209.66265   -409.33061     470.3074   -3191.5012 
24207000    270.14991   -4811.3471   -4271.0139   -4811.3471            0    10413.151    17.949892     22.78919    19.245312    7872.5548    10040.412    9851.8084    11347.231    4.5868541    153.60288    1604.5403   -3075.4474 
24208000    266.52373   -4788.4946   -4255.4142   -4788.4946            0    9725.1195    18.025352    22.888629     19.19256    7918.3819     9087.845    10692.734    9394.7793   -150.71827     1376.853    787.49395    -3132.343 
24209000    269.35025   -4824.7638   -4286.0301   -4824.7638            0    7438.2856    18.013517    22.836762    19.342299    7956.8495    6326.0869    8010.3172    7978.4526    1434.4237    1003.9465    1057.9793   -3422.8729 
24210000    258.39758   -4774.0641    -4257.237   -4774.0641            0     9135.372    17.805356    23.220626    19.169269    7925.5633    9863.9657    8286.7762    9255.3742   -884.51466   -839.04464    79.300036    -3201.314 
24211000    268.79077   -4813.6964   -4276.0817   -4813.6964            0    10163.102    17.743916    23.072303    19.254735    7882.7538     7613.132    10467.507    12408.668    1974.6941   -783.95322    834.13041   -3107.7123 
24212000    263.31218   -4802.1126   -4275.4557   -4802.1126            0    12095.499    17.831738    23.008214    19.064875    7821.8693    12777.167    11714.722    11794.608    1519.7441    568.43722    1546.4769   -2895.6745 
24213000    267.78603    -4807.192   -4271.5869    -4807.192            0    10921.887    17.697816    23.348489    19.016853    7858.0921    10881.048    9861.2497    12023.363    539.57206    1336.8309    -540.7714   -3019.9145 
24214000    264.96148    -4814.658   -4284.7023    -4814.658            0     10034.65    17.658433    23.455721     19.06838    7897.9563    11052.956    9040.8498    10010.144    1459.9909    246.47456    626.13357   -3128.8753 
24215000    254.50487   -4825.5088   -4316.4676   -4825.5088            0    8806.2355    17.781697    23.163191    19.096963    7865.6732    10640.674     7849.451    7928.5811    1016.1697   -603.41999   -253.58997   -3306.2799 
24216000    271.66922   -4813.7253   -4270.3533   -4813.7253            0    11970.386    17.719437    22.970488    19.241419    7831.7218    11411.404    12512.331    11987.424   -1525.2491    -70.05057     -3121.54   -2903.1242 
24217000    266.04002    -4843.823   -4311.7101    -4843.823            0    8771.0041     17.84712    23.129092    19.197208    7924.3712    10715.712     7811.849    7785.4516    1253.2731   -670.06715    346.07351   -3298.0554 
24218000    274.11769   -4814.0787   -4265.8094   -4814.0787            0    8212.3084    17.867304    23.035174    19.360678    7968.3993    8843.1048    8589.5981    7204.2223   -346.48974    758.05337   -1712.1716   -3311.4494 
24219000    276.02907   -4832.4128   -4280.3206   -4832.4128            0    9611.3003    17.945047    22.961082    19.174749    7900.7195    8980.6323    11079.363    8773.9051    1570.6133   -104.00223    1076.8178   -3172.8692 
24220000    254.13362   -4820.6202   -4312.3215   -4820.6202            0    11315.249    17.865633     22.90451    19.149204    7835.9224    12196.801    9984.9328    11764.013   -1220.1866   -910.96973   -562.33647   -3019.2275 
24221000    267.36174   -4830.3489   -4295.5924   -4830.3489            0    8828.5052    17.993213    22.822931    19.355792     7948.608    8844.5913    9218.8841    8422.0403    802.80538    1454.1486    3476.8407   -3272.1718 
24222000    250.31831   -4819.1325   -4318.4649   -4819.1325            0    8281.1905    17.962117    23.006274     19.22123    7943.0082    8225.2828      7853.83    8764.4587    503.46889   -1420.9547    666.19131   -3359.1666 
24223000     254.6721   -4831.8156     -4322.44   -4831.8156            0    9015.9872    17.827312    22.879525    19.418513    7920.4317       7126.5    9945.1904    9976.2712   -38.602548    73.702227    1147.0718   -3280.9909 
24224000    264.27105   -4808.8557   -4280.2809   -4808.8557            0    9022.7382    18.009687    22.961329    19.108565    7901.8953    7600.0492    9099.3303    10368.835    98.853585   -830.43108   -1853.4863   -3240.4912 
24225000    260.42492    -4822.266   -4301.3839    -4822.266            0    10005.826    17.761582    22.944956    19.376841    7896.8129    9679.3654    10875.275    9462.8366    1311.7577    2452.4915    189.27617   -3149.0439 
24226000    262.34955   -4812.5499   -4287.8184   -4812.5499            0    8460.0814    17.997976    23.027714    19.173063    7946.3188    8724.5661    8419.1876    8236.4904   -250.67323    473.61048   -514.19859   -3307.3888 
24227000    284.67618    -4778.971   -4209.5835    -4778.971            0    10324.007    17.882521    22.883007    19.203898    7858.3475    11262.513    10189.589    9519.9203    439.76071    489.40756    -517.2921   -3026.3909 
24228000    273.75569   -4790.0343   -4242.4891   -4790.0343            0    11524.011    17.833059    22.849123     19.29604    7862.5526     10983.36    12181.625    11407.049    367.24933   -1152.8697   -3806.5931   -2921.0622 
24229000    262.45815   -4792.3924   -4267.4437   -4792.3924            0    8151.9748    17.732472    23.247844    19.304494    7958.1183    8850.8887    7823.2636    7781.7721    577.24152    903.66064    141.42625   -3321.3174 
24230000    281.01879   -4797.8335   -4235.7612   -4797.8335            0    9880.4775    17.834618    23.123233    19.091299    7873.1378     8151.825     9730.877    11758.731    466.82322    571.00518   -729.23323   -3101.2685 
24231000    275.36014   -4795.4307   -4244.6764   -4795.4307            0    12475.018    17.811993    22.981311     19.17526    7849.2577     11511.71    11673.913     14239.43   -108.03959   -380.34988    220.38744    -2816.619 
24232000    275.28247    -4825.991   -4275.3921    -4825.991            0    8980.3818    17.928155     22.95479    19.286255    7937.0082    8339.6504    8628.4979     9972.997    683.07018    416.37052    2501.4556   -3235.8848 
24233000    258.07184   -4810.3033   -4294.1278   -4810.3033            0    10137.196    17.881108    22.933476     19.23507    7887.8398    11069.827    9639.6254    9702.1351   -520.76571    501.93555   -375.40958   -3127.9848 
24234000    262.76622   -4785.8422   -4260.2773   -4785.8422            0    9735.5055    17.877251    22.941703    19.274154    7904.9972    8332.9248    10742.304    10131.288    1063.0837    835.98006    905.89829   -3137.9071 
24235000    267.84005   -4826.1549   -4290.4417   -4826.1549            0    11622.894    17.767939    22.994297    19.106226    7806.0638    10394.672    11072.397    13401.613    -110.3672    1.1384889   -1558.0532   -2967.2515 
24236000    262.00926   -4799.3217   -4275.2708   -4799.3217            0    11576.827    17.840558     23.10476    19.107943    7876.3287    11175.222    12588.412    10966.848    1871.9836    1204.0816    1962.3257   -2945.4618 
24237000    259.85459   -4806.9303    -4287.189   -4806.9303            0    9941.6647    17.736336    23.190106    19.222454    7906.3396    11142.201     9516.706    9166.0867    551.87946    773.70352   -129.79891   -3140.8569 
24238000    259.44128   -4777.3319   -4258.4173   -4777.3319            0    10570.929    17.724793    23.344423    19.019223    7869.6804    11382.281    8953.3741    11377.131    999.21392   -759.79961    1151.9937   -3045.1789 
24239000    277.79301    -4822.967   -4267.3467    -4822.967            0    9607.7957    17.658019    23.255509    19.164758    7869.9357    8765.0605    10632.953    9425.3736   -717.40322    1773.4003   -306.97399   -3164.6125 
24240000     280.2866   -4818.0448    -4257.437   -4818.0448            0    11183.043    17.771952    23.365221    18.936359    7863.2393    11572.135    9680.2937    12296.701     2748.199    -853.9699    570.32866    -2974.996 
24241000    266.51054   -4826.9658   -4293.9118   -4826.9658            0      11014.9    17.646036    23.096312    19.286154    7860.2334    12028.392    9744.0476    11272.261   -544.47583   -93.946395   -1837.0729   -3031.2358 
24242000    267.02485   -4813.1205   -4279.0378   -4813.1205            0    11102.577    18.002463    22.925593    19.034492    7855.8614    8987.3978     11248.87    13071.464   -136.06166   -480.80226   -840.63147   -3007.0191 
24243000     260.4496   -4760.1718   -4239.2404   -4760.1718            0    10204.348    17.673474    22.986067    19.461083    7905.9412    11586.359    10685.734     8340.952   -1348.7254   -399.90214    1440.7909   -3062.6787 
24244000    251.69375   -4761.0425   -4257.6239   -4761.0425            0    9769.0817    18.161232     22.70219    19.204664    7918.0778    6203.4191    11730.634    11373.192   -570.42069    761.18902   -865.69741   -3129.5192 
24245000    279.47293   -4798.9039   -4239.9235   -4798.9039            0    9607.5171    18.019095    22.782281     19.30595     7925.403    9320.9951    10211.742    9289.8146    88.459045   -618.94724    288.91124   -3129.4494 
24246000    258.69272   -4802.9758   -4285.5584   -4802.9758            0    9654.3831    18.015206    22.622945    19.385984    7900.8938    8668.3978    11346.492    8948.2593     918.2186    1098.2525   -1996.0258   -3173.1183 
24247000    264.71777   -4799.1634   -4269.6951   -4799.1634            0    10421.359    18.102709    22.711282    19.173807    7883.0374    8219.8207    10972.037     12072.22   -19.141477   -69.786954    -2742.954    -3071.593 
24248000    268.64454    -4788.632   -4251.3097    -4788.632            0    9976.8603    17.851947     22.94173    19.252306    7884.8696    10449.255    9816.8887    9664.4373   -80.383862    476.20699   -801.78833   -3104.0432 
24249000    258.04352   -4804.3318   -4288.2128   -4804.3318            0    10093.687    17.790748    22.938927    19.300414    7876.5122    9659.4558    9871.5824    10750.023   -311.44371   -245.74998   -1488.2495   -3128.7424 
24250000    266.46728   -4772.8342   -4239.8667   -4772.8342            0    10160.501    18.008694    22.940752    19.177673    7922.9294     9770.387    11474.699    9236.4171    853.51496    1993.8382    285.54673   -3065.8432 
Loop time of 530.503 on 64 procs for 250000 steps with 1008 atoms

Performance: 81.432 ns/day, 0.295 hours/ns, 471.251 timesteps/s
99.0% CPU use with 64 MPI tasks x 1 OpenMP threads

MPI task timing breakdown:
Section |  min time  |  avg time  |  max time  |%varavg| %total
---------------------------------------------------------------
Pair    | 29.227     | 33.37      | 36.901     |  33.9 |  6.29
Bond    | 0.28078    | 0.28723    | 0.29676    |   0.8 |  0.05
Kspace  | 240.52     | 249.2      | 256.62     |  21.6 | 46.97
Neigh   | 5.097      | 5.655      | 6.1867     |  10.4 |  1.07
Comm    | 103.8      | 110.58     | 119.43     |  29.7 | 20.85
Output  | 1.5086     | 1.5114     | 1.5212     |   0.3 |  0.28
Modify  | 118.63     | 121.3      | 125.2      |  17.9 | 22.87
Other   |            | 8.592      |            |       |  1.62

Nlocal:        15.7500 ave          20 max          11 min
Histogram: 1 1 6 5 15 15 12 4 4 1
Nghost:        2516.77 ave        2540 max        2501 min
Histogram: 7 9 9 10 5 6 10 4 0 4
Neighs:        5282.16 ave        6668 max        3704 min
Histogram: 1 1 6 5 15 15 11 4 3 3

Total # of neighbors = 338058
Ave neighs/atom = 335.37500
Ave special neighs/atom = 2.0000000
Neighbor list builds = 9875
Dangerous builds = 0

unfix		3
unfix		2
unfix		1

write_data	data.final.${pid}
write_data	data.final.0
System init for write_data ...
PPPM initialization ...
  extracting TIP4P info from pair style
  using 12-bit tables for long-range coulomb (../kspace.cpp:340)
  G vector (1/distance) = 0.37859797
  grid = 24 27 32
  stencil order = 5
  estimated absolute RMS force accuracy = 0.0025417864
  estimated relative force accuracy = 7.6545141e-06
  using double precision FFTW3
  3d grid and FFT values/proc = 3825 384
Last active /omp style is kspace_style pppm/tip4p/omp
WARNING: Not all mixed pair coeffs generated from mixing. Use write_data with 'pair ij' option to store all pair coeffs. (../write_data.cpp:312)

write_restart   restart.lmp.${pid}
write_restart   restart.lmp.0
System init for write_restart ...
PPPM initialization ...
  extracting TIP4P info from pair style
  using 12-bit tables for long-range coulomb (../kspace.cpp:340)
  G vector (1/distance) = 0.37859797
  grid = 24 27 32
  stencil order = 5
  estimated absolute RMS force accuracy = 0.0025417864
  estimated relative force accuracy = 7.6545141e-06
  using double precision FFTW3
  3d grid and FFT values/proc = 3825 384
Last active /omp style is kspace_style pppm/tip4p/omp
Total wall time: 0:08:55
