LAMMPS (30 Jul 2021)
Processor partition = 1
  using 2 OpenMP thread(s) per MPI task
using multi-threaded neighbor list subroutines
variable        pid world 0 1
variable        phase world IceIh IceIII

shell cd ${phase}
shell cd IceIII
include Restart.lmp
echo both
log log.lammps
#include		in.partitions
include		in.temp
variable        temperature equal 115.22
variable	tempDamp equal 100.0
include		in.pressure
variable        pressure equal 1992.6
variable        pressureDamp equal 1000.0 # This is 1 ps
include		in.seed
variable        seed equal 745823

units		real
atom_style	full

read_restart	restart.lmp.${pid}
read_restart	restart.lmp.1
Reading restart file ...
  restart file = 30 Jul 2021, LAMMPS = 30 Jul 2021
  restoring atom style full from restart
  orthogonal box = (-0.030680973 0.025896465 -0.042633715) to (20.030682 19.974105 20.742632)
  4 by 2 by 4 MPI processor grid
  restoring pair style lj/cut/tip4p/long/omp from restart
  restoring bond style harmonic/omp from restart
  restoring angle style harmonic/omp from restart
  972 atoms
  648 bonds
  324 angles
Finding 1-2 1-3 1-4 neighbors ...
  special bond factors lj:    0        0        0       
  special bond factors coul:  0        0        0       
     2 = max # of 1-2 neighbors
     1 = max # of 1-3 neighbors
     1 = max # of 1-4 neighbors
     2 = max # of special neighbors
  special bonds CPU = 0.002 seconds
  read_restart CPU = 0.010 seconds
include 	in.setup
variable	out_freq equal 1000
variable	out_freq2 equal 10000
variable	out_freq3 equal 1000

timestep	2.0

neigh_modify    delay 7 every 1

include		in.tip4p
# This is TIP4P/Ice

# create groups ###
group ox type 2
324 atoms in group ox
group hy type 1
648 atoms in group hy

# set charges - beside manually ###
set group ox charge -1.1794
Setting atom values ...
  324 settings made for charge
set group hy charge 0.5897
Setting atom values ...
  648 settings made for charge

# ### TIP3P Potential Parameters ###
pair_style lj/cut/tip4p/long/omp 2 1 1 1 0.1577 8.5
pair_coeff 1 1*2 0.000 0.000
pair_coeff 2 2 0.21084 3.1668
bond_style  harmonic
bond_coeff  1 450 0.9572
angle_style harmonic
angle_coeff 1 55 104.52
kspace_style pppm/tip4p/omp 1.0e-5
pair_modify tail yes

thermo          ${out_freq}
thermo          1000
thermo_style    custom step temp pe etotal epair emol press lx ly lz vol pxx pyy pzz pxy pxz pyz enthalpy

restart 	${out_freq3} restart.lmp.${pid} restart2.lmp.${pid}
restart 	1000 restart.lmp.${pid} restart2.lmp.${pid}
restart 	1000 restart.lmp.1 restart2.lmp.${pid}
restart 	1000 restart.lmp.1 restart2.lmp.1


include         in.dump
dump            myDump all atom ${out_freq2} dump.water.${pid}
dump            myDump all atom 10000 dump.water.${pid}
dump            myDump all atom 10000 dump.water.1
dump            myDump2 all dcd ${out_freq2} dump.dcd
dump            myDump2 all dcd 10000 dump.dcd
dump_modify     myDump append yes
dump_modify     myDump2 append yes


variable natoms 	equal  "count(all)"                        # NUMBER ATOMS
variable H      	equal  "enthalpy/v_natoms"                 # ENTHALPY-per-atom
variable Vol      	equal  "vol/v_natoms"                 # volume-per-atom
fix AVG all 		ave/time ${out_freq} 1 ${out_freq} v_Vol v_H file vol_enthalpy.dat
fix AVG all 		ave/time 1000 1 ${out_freq} v_Vol v_H file vol_enthalpy.dat
fix AVG all 		ave/time 1000 1 1000 v_Vol v_H file vol_enthalpy.dat


timer           timeout 02:55:00 every 1000
New timer settings: style=normal  mode=nosync  timeout=02:55:00

fix 		1 all shake 1e-6 200 0 b 1 a 1
Finding SHAKE clusters ...
       0 = # of size 2 clusters
       0 = # of size 3 clusters
       0 = # of size 4 clusters
     324 = # of frozen angles
  find clusters CPU = 0.001 seconds
fix             2 all nph aniso ${pressure} ${pressure} ${pressureDamp}
fix             2 all nph aniso 1992.6 ${pressure} ${pressureDamp}
fix             2 all nph aniso 1992.6 1992.6 ${pressureDamp}
fix             2 all nph aniso 1992.6 1992.6 1000
fix             3 all temp/csvr ${temperature} ${temperature} ${tempDamp} ${seed}
fix             3 all temp/csvr 115.22 ${temperature} ${tempDamp} ${seed}
fix             3 all temp/csvr 115.22 115.22 ${tempDamp} ${seed}
fix             3 all temp/csvr 115.22 115.22 100 ${seed}
fix             3 all temp/csvr 115.22 115.22 100 745823


run             250000
PPPM initialization ...
  extracting TIP4P info from pair style
  using 12-bit tables for long-range coulomb (../kspace.cpp:340)
  G vector (1/distance) = 0.37239683
  grid = 24 24 25
  stencil order = 5
  estimated absolute RMS force accuracy = 0.0034092338
  estimated relative force accuracy = 1.0266806e-05
  using double precision FFTW3
  3d grid and FFT values/proc = 3458 576
Last active /omp style is kspace_style pppm/tip4p/omp
Neighbor list info ...
  update every 1 steps, delay 7 steps, check yes
  max neighbors/atom: 2000, page size: 100000
  master list distance cutoff = 10.8154
  ghost atom cutoff = 10.8154
  binsize = 5.4077, bins = 4 4 4
  1 neighbor lists, perpetual/occasional/extra = 1 0 0
  (1) pair lj/cut/tip4p/long/omp, perpetual
      attributes: half, newton on, omp
      pair build: half/bin/newton/omp
      stencil: half/bin/3d
      bin: standard
Setting up Verlet run ...
  Unit style    : real
  Current step  : 27500000
  Time step     : 2
  Walltime left : 2:54:59.93
Per MPI rank memory allocation (min/avg/max) = 10.19 | 10.19 | 10.21 Mbytes
Step Temp PotEng TotEng E_pair E_mol Press Lx Ly Lz Volume Pxx Pyy Pzz Pxy Pxz Pyz Enthalpy 
27500000    121.37181   -5003.9191   -4769.8434   -5003.9191            0    2221.8724    20.061363    19.948208    20.785265    8318.0188    1659.2529    3224.1895    1782.1747   -73.703706    70.971065   -34.919764   -4500.3086 
27501000     116.1716   -5022.6351   -4798.5883   -5022.6351            0    1745.8479    20.105129    19.847523     20.73781    8275.1534    1803.2349    2097.3645    1336.9445   -430.80234    459.49063   -982.26493   -4587.8913 
27502000    114.83211   -5016.2665   -4794.8031   -5016.2665            0    1612.7855    20.135025    19.968213    20.667341    8309.5209    2453.6484    278.81417     2105.894    635.15359    544.31338   -229.97389   -4599.3563 
27503000    110.37308   -5013.3587   -4800.4949   -5013.3587            0    1650.0462    19.957651    19.840749    21.014639    8321.2663    1354.3326    1795.8762    1799.9298   -616.78467   -520.18356    179.78379     -4600.25 
27504000    117.09531   -5040.4985   -4814.6704   -5040.4985            0    2051.6576    19.965794    20.034234    20.712483    8284.9808    2900.7503    1550.5937    1703.6288   -108.63112    667.64543     766.1464   -4566.7728 
27505000    112.91606   -5020.2851    -4802.517   -5020.2851            0    611.33851    19.988542    20.012071    20.897654    8359.3147     1153.813    236.49254    443.70995   -270.65544   -90.582017   -144.22272   -4727.9875 
27506000    116.12036   -5014.0062   -4790.0584   -5014.0062            0    1408.7535    19.927886    20.071459    20.791988    8316.4156    2425.6833    54.681935    1745.8954   -405.55956    348.24141    1134.1191   -4619.1957 
27507000    114.93649   -5016.5974   -4794.9327   -5016.5974            0    2481.2091    19.965256    19.841563    20.849359    8259.3043    3416.1797    2469.5415    1557.9061   -234.69446   -205.64192     1295.147   -4496.0624 
27508000    115.41275   -5017.4408   -4794.8576   -5017.4408            0    830.22953    20.005963    20.078356    20.723991    8324.5545    1251.6587    582.45296    656.57696   -145.04125    1443.3999   -1033.2156   -4694.0635 
27509000    119.65348   -5013.1453   -4782.3835   -5013.1453            0    2355.0424    19.946323    19.981378    20.794947    8287.9301    3082.4642    1978.5181    2004.1448   -115.81297    -638.8677   -931.65133   -4497.7273 
27510000    116.56342   -5014.9104    -4790.108   -5014.9104            0    2105.6902    20.035141     19.94833    20.791051    8309.5095    2245.6732    2054.7891    2016.6083   -176.48351    1191.8909     96.29476   -4534.9286 
27511000     112.2328    -5017.021   -4800.5706    -5017.021            0    2116.3815    19.792856    19.955073    20.936747    8269.3427    3263.0113    1818.0307    1268.1024   -221.30249    -358.5696    830.63089   -4545.3352 
27512000    120.75491   -5008.5746   -4775.6886   -5008.5746            0    1166.2545    19.835957    20.084285    20.971786    8354.9709    2290.8859    538.96411    668.91356   -297.76559   -121.05715    136.13331    -4633.582 
27513000    119.73876   -5012.7649   -4781.8387   -5012.7649            0    1438.5119    19.961881     19.88099    20.931038    8306.7329    830.19771    2429.8005    1055.5375    38.226185    434.45089    129.69568   -4607.5699 
27514000     115.1518   -5024.4666   -4802.3867   -5024.4666            0    1314.2349    20.028525    19.840701     20.92262    8314.2304    1890.6067    2091.2482   -39.150376    326.94327   -790.27648    18.412908   -4643.0298 
27515000    116.60965    -5023.301   -4798.4095    -5023.301            0    2515.7263    19.957362    19.905318    20.829234    8274.5723    1309.9923    3907.7482    2329.4384   -247.06904    727.53153   -1124.5087   -4494.8213 
27516000    112.11026    -5015.148   -4798.9339    -5015.148            0    766.47202    20.076886     19.97447    20.866531     8368.004   -14.192333     1967.568     346.0404    334.06524    621.05317    -541.1026   -4705.3947 
27517000    116.67677   -5021.4745   -4796.4536   -5021.4745            0    2076.4507    19.963338    20.044385     20.79741    8322.1424    2613.7016    1538.9956    2076.6549    11.693784    122.84771   -401.66951   -4544.4349 
27518000    117.77319   -5036.8128   -4809.6773   -5036.8128            0    2051.1268    19.884208    20.033951    20.723783    8255.5107    1885.0629    1563.1405    2705.1769    124.30779    574.63357    249.91715   -4562.7254 
27519000    109.86508   -5012.6469   -4800.7629   -5012.6469            0    2264.0787    20.100516    19.899051    20.742089    8296.4459    1594.5861    2969.3665    2228.2836    120.94918   -172.61809   -628.14367   -4526.8203 
27520000    115.20577   -5021.5174   -4799.3334   -5021.5174            0    2641.2372    19.892038    19.957768    20.752324    8238.6866    3657.4962    1916.9194    2349.2958   -135.88692    23.465928    694.00215   -4481.9814 
27521000    114.98571   -5032.1991   -4810.4395   -5032.1991            0    1481.8545    19.981818    19.963185    20.867508     8324.064    1912.5833    764.39293    1768.5873    170.11836     870.4128    222.94303   -4630.5454 
27522000    115.60253    -5015.962   -4793.0128    -5015.962            0     2731.437    19.910648    19.975872    20.708178    8236.3166    2620.4232    2579.5358    2994.3521    410.03467   -231.76466     -144.036   -4464.9174 
27523000    114.05809   -5028.1122   -4808.1416   -5028.1122            0    2312.5028    19.952957    20.019288    20.729592    8280.3112    1067.9193    2559.6962     3309.893   -146.73049   -190.14682    173.28115   -4528.8841 
27524000    123.44493   -5013.0098   -4774.9358   -5013.0098            0     2073.843    20.091356    19.945618    20.567201    8241.9868    1131.2154    2261.0912    2829.2222    -57.74413    318.68252    188.09634    -4525.658 
27525000    121.04139   -5018.2019   -4784.7634   -5018.2019            0    1512.3298    19.959601    20.099401    20.768548    8331.8436    807.47981    2221.9213    1507.5882    128.24756   -44.229894   -231.78074   -4600.9981 
27526000    120.71389   -5010.8761   -4778.0692   -5010.8761            0    2852.6613    19.806018    19.904252    20.976657    8269.5006    1879.6536    3805.2819    2873.0483    192.25382   -533.15883     151.5785    -4434.032 
27527000    122.50911    -5017.496   -4781.2269    -5017.496            0    4669.1912    19.937009    19.910063    20.791869    8253.2721    5998.3091    4092.1191    3917.1455   -276.14685   -1157.7273    345.58235   -4219.2173 
27528000     114.8618   -5027.7494   -4806.2288   -5027.7494            0    2534.6592    20.004947    19.996336     20.73148    8293.1237    2787.2778    2047.1687    2769.5313    75.185898   -741.25847    624.96736   -4499.6701 
27529000    115.24688   -5013.5027   -4791.2394   -5013.5027            0    2232.0518    20.111011    19.867554     20.70838    8274.1699    1549.6573    2842.6633    2303.8348   -361.37509   -98.808425    -83.71572   -4521.8971 
27530000    125.17303   -5031.6513   -4790.2446   -5031.6513            0    2522.6646    19.901683     19.95258    20.761123    8244.0325    2365.2215    2696.9468    2505.8254    275.52522   -285.06515    510.74024   -4486.9427 
27531000    117.48589   -5013.3073   -4786.7259   -5013.3073            0    2314.7316    20.044654    19.996868    20.803143    8338.5301    3031.4329    2106.5346    1806.2274   -193.52388     489.8363     378.1721   -4505.2339 
27532000    121.57225   -5025.6143    -4791.152   -5025.6143            0    821.89341    19.938635    20.045998    20.789917    8309.5184    2302.7015    -954.7757    1117.7544   -783.81751    194.03896    267.47706   -4691.5502 
27533000    118.67477   -5022.0553    -4793.181   -5022.0553            0    1880.3232    20.041975    19.908714    20.837665    8314.4354    2049.6563    1411.9445    2179.3688    43.669163    125.32337   -388.92034   -4565.1777 
27534000    116.09762   -5031.7247   -4807.8207   -5031.7247            0    1614.1405     19.97235     19.95711    20.792713    8287.7753    1270.3309    1623.6506    1948.4399   -326.39049    584.59268    824.67485   -4612.7216 
27535000    110.28213   -5028.8754    -4816.187   -5028.8754            0    2176.3483    19.937409    19.808974    20.920075    8262.1663    1459.6004    3536.4305     1533.014    480.93458    349.61696   -996.37592   -4553.9474 
27536000    114.45116    -5031.403   -4810.6743    -5031.403            0    2306.8378    19.870308    20.011423    20.814334    8276.4689    3551.2587    1086.7837     2282.471    98.291947    511.25589   -439.44039   -4532.2302 
27537000    116.11293   -5024.9919   -4801.0583   -5024.9919            0    1490.2746    20.028279    19.978417    20.743139    8300.0206    1004.4943    2154.0206     1312.309   -132.60185    1172.4704   -693.95997   -4620.6646 
27538000    123.39529   -5028.2196   -4790.2414   -5028.2196            0    2123.7584    19.982917    20.054042    20.671445    8283.8391    1467.1604    2155.7065    2748.4084    136.06482      -60.181   -166.52056   -4533.6674 
27539000    111.53929   -5020.3209    -4805.208   -5020.3209            0    1911.7687    20.006939     20.01909    20.676426    8281.3369    1318.1225     2190.199    2226.9847   -26.160809    148.71994     130.1865   -4574.3145 
27540000    114.22895   -5021.9971    -4801.697   -5021.9971            0    1438.8348    20.010506    20.017639    20.738456    8307.0598    1560.8847    1581.0378    1174.5821   -238.76793   -747.39066   -396.42872   -4627.3822 
27541000     118.5596   -5019.6307   -4790.9785   -5019.6307            0    2114.1521    19.977379    19.851938    20.819441    8256.7754    2153.3552    2145.0457    2044.0556    139.76745    78.109735    453.10043   -4536.3995 
27542000    117.40506   -5031.8361   -4805.4106   -5031.8361            0    1746.0441    20.111161    20.009431    20.658316    8313.1728    475.91953    2514.2376     2247.975    120.97645    447.96902   -754.65078   -4593.7218 
27543000     110.6676   -5002.0167    -4788.585   -5002.0167            0    2074.2794    20.032988     19.97507    20.761269    8307.8364    2043.6599    2360.6239    1818.5544    409.00498   -495.20153    -491.6824   -4537.2626 
27544000    109.57771   -5020.2322   -4808.9024   -5020.2322            0    1964.3098    19.755609    19.957672    21.013526    8285.1282    4276.8508    787.40713    828.67152    111.96886   -275.24104    -427.4417   -4571.5546 
27545000    114.38193   -5034.3687   -4813.7735   -5034.3687            0    1325.2098    20.017392    19.865452    20.896528    8309.5994    453.97748    2563.2967    958.35514    213.01556    507.06585   -155.50919   -4653.1754 
27546000    112.24234   -5021.6336   -4805.1648   -5021.6336            0    3064.6034    19.930809    19.963001    20.797878    8275.0339    3434.5613    3416.9003    2342.3485   -306.45876   -198.77059   -182.88994   -4435.3196 
27547000     114.1502   -5019.8207   -4799.6725   -5019.8207            0    2654.1687    20.139392    19.993622    20.572518    8283.7175    2348.1859    3019.8133    2594.5069   -40.042008   -225.31288   -1293.3998   -4479.0236 
27548000    109.81208    -5022.674   -4810.8922    -5022.674            0    1805.8226    20.061871    19.975547    20.593553    8252.8015    380.28287    2813.9157    2223.2691    230.94348   -699.03489    136.55572   -4593.5458 
27549000    119.60702   -5022.9423   -4792.2701   -5022.9423            0    1940.2166    20.151056     19.92911    20.736229    8327.5165   -199.72138    2927.9469    3092.4243    157.06893    880.85233    1205.5946   -4556.6342 
27550000    113.04816   -5027.9981   -4809.9752   -5027.9981            0    2568.8696    20.019206    19.952989    20.786961    8303.2059    2812.1168    3023.1796    1871.3123    368.54173   -168.02452   -16.972454   -4498.9012 
27551000     120.7145   -5001.3882   -4768.5801   -5001.3882            0    1932.9693    19.920062    19.994732     20.79006     8280.604    3778.3671   -195.60228     2216.143   -197.38037   -293.88171    369.46861   -4535.1468 
27552000    109.11403   -5016.0323   -4805.5967   -5016.0323            0    3452.3657    19.963059    19.794956    20.824723    8229.2615    3962.6115    3945.3364    2449.1493   -488.25639    302.15234   -299.85061   -4391.2599 
27553000    111.83123   -5028.0569    -4812.381   -5028.0569            0    1501.8716    19.794957    20.141152    20.887234    8327.5984    2447.4623    767.46323    1290.6893    21.424913   -92.195516   -144.26696   -4629.9795 
27554000     118.9844   -5014.1889   -4784.7175   -5014.1889            0    1270.3442    19.927265    20.036619    20.778767    8296.4426    279.64737    2401.8238    1129.5614   -528.69023   -649.94272     287.4201    -4631.012 
27555000    120.16504   -5027.4832   -4795.7348   -5027.4832            0    2363.6608    20.014132    19.917771    20.809409    8295.3981    2252.3045    1773.9221    3064.7558    299.48248    653.71456   -830.03553   -4509.7794 
27556000     118.0141   -5004.0134   -4776.4133   -5004.0134            0    3491.6297    19.940356    19.933611    20.807527    8270.6446    3243.6483    3395.2192    3836.0216    39.860827    306.82376    433.87579   -4355.2569 
27557000    112.94608   -5030.5188   -4812.6928   -5030.5188            0    1609.0699    20.002471    19.986851    20.741088    8292.0051    1105.4369    1215.6826    2506.0902   -144.37085    87.155257    302.81456   -4618.1073 
27558000    115.90885   -5021.2738   -4797.7339   -5021.2738            0    2111.7327    19.964428    19.892966    20.821713    8269.3783    3283.6208    1780.1707    1271.4066    315.04389   -108.60947    125.89498   -4543.0581 
27559000    116.36466   -5026.1158   -4801.6968   -5026.1158            0    2335.7869    19.910707    20.016749    20.759447    8273.6284    2322.0601    2193.2652    2492.0355   -501.47587   -1047.8453   -106.32858   -4519.8552 
27560000    121.62535   -5032.6898   -4798.1251   -5032.6898            0    1838.5892    20.111928    19.902471    20.744907    8303.7102    1496.5953    2174.5165    1844.6557   -646.73688   -179.87802   -31.651303   -4575.4699 
27561000    113.15102   -5012.1091   -4793.8879   -5012.1091            0    2554.4605    20.027312    19.917564    20.793941    8294.6044    2335.8376    2467.7438    2859.8002   -85.878972    436.96365    495.90548   -4484.8791 
27562000    121.04243   -5011.6537   -4778.2132   -5011.6537            0    2136.3588    19.939965    19.886125    20.948315    8306.6071    2830.7246    1558.7269    2019.6248   -198.28299    670.26956    40.617849   -4519.4075 
27563000    119.20617   -5014.4457   -4784.5465   -5014.4457            0    2362.8513    19.904029    19.908774    20.857264         8265    2668.6208    2219.2443    2200.6888   -482.21011   -573.74915   -265.02617   -4499.7366 
27564000    109.90647   -5012.9713   -4801.0075   -5012.9713            0    2610.1724    20.013959    19.813138    20.926495    8298.1781     1647.592    3179.2911    3003.6341    96.452388    114.99839    108.08155   -4485.1233 
27565000     119.5576   -5033.9425   -4803.3656   -5033.9425            0    2444.1514    19.981677    19.941139    20.903588    8329.1893    2867.6758    2254.3484    2210.4298    102.40862    106.12307    -393.0076    -4506.468 
27566000    122.04088   -5015.1321    -4779.766   -5015.1321            0    1547.4934    19.878669    20.056354     20.79833    8292.1613    2843.3681    279.21067    1519.9014   -134.05557   -219.49377   -84.181948   -4592.6235 
27567000    110.32471    -5018.033   -4805.2625    -5018.033            0    2493.9232    20.101402    19.939912    20.582239    8249.7767    1996.9989    1562.7697    3922.0009   -151.85945    730.46315   -747.04341   -4505.2073 
27568000     116.3452    -5022.866   -4798.4845    -5022.866            0    2539.2492    19.964169    19.941567    20.792057    8277.6675    2148.1369    2593.5182    2876.0926   -19.364428   -858.67369    163.78115   -4491.9431 
27569000    108.57158   -5023.8074   -4814.4179   -5023.8074            0      2088.33    19.955888    20.006914    20.779401    8296.2955    2763.7373    1076.1631    2425.0896    -195.8263    244.70867   -435.27419   -4561.7447 
27570000    119.00368   -5022.8397   -4793.3311   -5022.8397            0     2431.036    20.002251    19.985891    20.773638    8304.5274    1782.5157    2291.8094    3218.7829    397.49034    296.75749    105.02012    -4498.901 
27571000    116.84104   -5017.2361   -4791.8983   -5017.2361            0    1590.1849    20.083298    19.927308    20.667693    8271.3359    957.58794    1800.5192    2012.4477    19.420441    1080.9554    16.322833    -4600.076 
27572000     121.5027   -5005.5549   -4771.2267   -5005.5549            0     2026.349    20.058556    19.880599    20.850178    8314.5526    1061.8242    3526.6119    1490.6108   -326.61069    420.16023    339.93974   -4525.5132 
27573000    112.08673   -5032.7414   -4816.5727   -5032.7414            0    2239.4367    19.962909     19.97461    20.683895    8247.7304    2097.2709     2797.223    1823.8162   -496.74096    112.80547   -397.92978   -4547.2027 
27574000    117.14609   -5032.4969   -4806.5708   -5032.4969            0    2291.8979    20.167503    19.968183    20.491154    8251.9596    942.67553    2315.4875    3617.5306   -105.00442    618.22171     62.04771   -4530.7492 
27575000    113.48694   -5021.4081    -4802.539   -5021.4081            0    2817.1807    20.009407    19.813929    20.771917    8235.3376    2148.2725    3928.5615    2374.7082   -93.467057     563.2482     694.9205   -4464.1844 
27576000    122.47059   -5038.1809    -4801.986   -5038.1809            0    2834.3985    20.003985    19.945225    20.828892    8310.3942    4241.6137    1715.3006    2546.2812     11.77004   -246.31734   -959.10724    -4458.461 
27577000    108.62207    -5027.703   -4818.2162    -5027.703            0    2230.0646    19.971139    19.842233    20.949236    8301.5957    3458.5578    2098.0841    1133.5519   -724.99204   -319.43189    538.73339   -4548.2217 
27578000    116.82088   -5006.5936   -4781.2948   -5006.5936            0    2338.6963    19.876711    19.969082     20.83534    8269.9563    2423.7293    2743.5796    1848.7801   -120.00005   -114.22718   -288.42668   -4499.2273 
27579000    116.58384   -5033.4758   -4808.6341   -5033.4758            0     1541.671    19.914338    19.916683    21.054039     8350.612    2090.6696    1995.7371     538.6063    234.57859    206.39256   -1212.7893   -4620.8815 
27580000    119.36525   -5018.5411   -4788.3352   -5018.5411            0    3058.3642    20.006004    19.965385    20.742333    8285.0595    3820.6182     2055.062    3299.4124   -683.08595    369.41576     293.4746   -4418.7958 
27581000    117.37404   -5020.2741   -4793.9084   -5020.2741            0    2576.9842    20.101026    19.945212    20.653068    8280.2123    2682.7794    2511.5257    2536.6474    133.32433    1063.3261    -559.5835   -4482.7159 
27582000    114.48111   -5029.1073   -4808.3208   -5029.1073            0     2488.279    20.080131    19.924891    20.647933    8261.1227    2026.4624    2757.8399    2680.5347    24.895135    847.93597   -730.05824    -4508.533 
27583000    115.19302   -5015.4842   -4793.3247   -5015.4842            0    1663.1648    19.839474    20.083949    20.936088    8342.0888    2636.8943     1766.076      586.524    93.303743   -87.977754   -578.01341   -4590.9828 
27584000    120.69935   -5015.4097   -4782.6308   -5015.4097            0    1992.0098    19.978741      19.9769    20.941779    8358.1426    2768.1054    1749.3015    1458.6225   -34.306503   -517.36513   -1086.0012   -4539.8149 
27585000    115.59063   -5033.1725   -4810.2462   -5033.1725            0    529.19664    20.014155    19.971803     20.87235    8343.0699    551.67698    378.18734    657.72559   -452.96722    424.68364   -433.29131   -4745.8561 
27586000    111.91255   -5021.7948    -4805.962   -5021.7948            0    1082.3441    20.111968    19.849755    20.772983     8292.941    334.72118    896.29579    2016.0155    183.83393    92.985183     -95.6967    -4675.059 
27587000    117.85312   -5032.1029   -4804.8132   -5032.1029            0    1404.4765    19.875195    19.973307    20.970058    8324.5546     1217.711    2067.1651    928.55335   -208.11794    81.297028    161.78428   -4634.3026 
27588000    116.13417   -5022.6149   -4798.6404   -5022.6149            0    2707.9693    19.981773    19.952366    20.864959    8318.5181    1865.2712    3352.9679    2905.6688   -450.75457    101.97756   -338.22037   -4470.1175 
27589000     110.2126   -5029.7016   -4817.1474   -5029.7016            0    2079.5732    20.010783    19.906941     20.78701    8280.5776    1035.9619    1943.3383    3259.4193    4.0302909   -834.47414    867.89053   -4566.0103 
27590000    116.66164    -5028.149   -4803.1573    -5028.149            0    2141.2317    20.083218    19.940901    20.664813    8275.7923    1920.1008    2337.4116    2166.1826    37.124543     220.2286   -208.87863   -4544.7236 
27591000    111.66814   -5021.0407   -4805.6793   -5021.0407            0    2373.7765    19.974163    20.039387    20.673047    8274.8001    2743.9749    1684.1977    2693.1568   -376.14459    60.881478    68.889601   -4519.2132 
27592000    114.50984   -5020.8665   -4800.0247   -5020.8665            0     1425.588    20.106998    19.836224    20.828953     8307.564    1719.4207    1386.9614    1170.3819   -677.27248    721.24634    410.82425   -4627.3043 
27593000    122.11832   -5023.4539   -4787.9384   -5023.4539            0    2080.3416    19.980603    19.957491    20.821589     8302.873    2545.3049    2040.8952    1654.8247    248.23218    436.56658   -117.59391   -4536.0322 
27594000    110.22634   -5010.3473   -4797.7665   -5010.3473            0    1943.7724    19.821478    20.039855    20.906914    8304.6347    2412.7017    1098.6519    2319.9635   -345.21547    229.47863    159.18514   -4562.3474 
27595000    108.75759   -5026.9218   -4817.1736   -5026.9218            0    923.45701    19.894549    19.923581    21.002233    8324.6686    1589.8666    1669.2989   -488.79447   -125.76961    47.183913   -422.12113   -4705.0597 
27596000    118.36983   -5019.8042    -4791.518   -5019.8042            0    3250.9762    20.253947    19.834143    20.623649    8284.9254     2274.266     4272.268    3206.3946     109.2969   -515.25141    425.76466   -4398.7119 
27597000    116.11091   -5023.5934   -4799.6637   -5023.5934            0    992.03172    20.037832    19.956872    20.788946    8313.3423   -315.76102     2383.068    908.78818   -525.28563   -231.59283   -956.51651   -4679.3882 
27598000    117.64115   -5024.4063   -4797.5254   -5024.4063            0    2724.1111    19.921206    20.030668    20.687124    8254.8878    2733.6238    3077.3138    2361.3957    135.84374   -229.32746   -301.35493   -4469.5722 
27599000    117.17746   -5026.6666     -4800.68   -5026.6666            0    2811.5501    20.063673    19.840113    20.750987    8260.2532    1597.7621    4239.3192    2597.5691   -101.73594   -513.89826   -576.95828   -4461.9801 
27600000    120.46878    -5032.785   -4800.4509    -5032.785            0    1610.0194    19.994155    19.864266    20.978978    8332.2042    1330.6862    2126.4956    1372.8763   -301.60827    1034.6379   -516.65137   -4604.8067 
27601000    111.78297    -5031.259   -4815.6762    -5031.259            0    1944.6938    20.006806    19.925359     20.80789    8294.9154     1387.612     2561.781    1884.6885     250.3432    373.61994   -682.90919    -4580.421 
27602000    115.59968   -5020.6185   -4797.6748   -5020.6185            0    2197.7666    20.029347    19.860964    20.868564    8301.5593    3056.3782    2214.3056    1322.6159   -360.21539    370.95944    25.790699   -4531.5918 
27603000    113.60324   -5010.7698   -4791.6764   -5010.7698            0    2821.9791    19.984889    19.952458    20.763493    8279.3942    2964.9946    2307.8566    3193.0861   -128.32973    425.14621    895.28154   -4450.9324 
27604000    115.84196   -5013.8238   -4790.4128   -5013.8238            0    2445.1204    19.904694    19.951013    20.766535    8246.7818     2879.077    1963.6498    2492.6343   -9.0227053   -297.06617    1065.1743   -4496.3361 
27605000    117.31498   -5005.4884   -4779.2366   -5005.4884            0    1133.9614     19.94011    20.036521    20.887384    8345.1457    79.636395    2248.6988     1073.549    16.551756    200.81095    307.94152   -4641.2273 
27606000    111.92695   -5028.8049   -4812.9444   -5028.8049            0    995.50004    19.968911    19.998951    20.860323    8330.7214    1639.0244    300.19558    1047.2801   -642.85534    263.34848    128.85542   -4691.9961 
27607000    115.82879   -5018.4404   -4795.0548   -5018.4404            0    2278.2949    19.886596    19.939699    21.046676    8345.6959    2006.4713     3008.291    1820.1223   -224.04699    326.76809   -548.57037   -4517.7558 
27608000    118.33627    -5018.865   -4790.6436    -5018.865            0     2626.952    19.959777    19.912276    20.820752    8275.0953    2894.9648    2515.7895    2470.1016   -295.21683   -308.55087    251.50361   -4473.6131 
27609000    118.02799   -5028.7046   -4801.0777   -5028.7046            0    3125.9817    19.942093    19.959901    20.842745    8296.2921    3079.4439    3225.6118    3072.8893    496.74652    266.34993    348.22419   -4422.8561 
27610000    117.75429   -5013.7951   -4786.6961   -5013.7951            0    952.81496    20.145411    19.996072    20.697856    8337.6987    582.75657    1029.3973     1246.291   -294.50746    102.44084   -416.65153   -4670.8368 
27611000    120.46618   -5019.7846   -4787.4555   -5019.7846            0    924.91811    20.156579    20.047941    20.631187    8337.0194    239.39408    249.35633    2286.0039   -24.272986   -5.0239332   -261.32724   -4674.9976 
27612000    118.47866   -5020.1577   -4791.6616   -5020.1577            0     1984.382    20.075382    19.842082    20.793639    8282.8834    1491.0968    2610.3539    1851.6952   -658.12211   -163.21885    308.81924   -4551.9535 
27613000    111.60648    -5020.985   -4805.7425    -5020.985            0    1833.8098    19.914805    19.893969    20.790332    8236.8077    2558.5964    1250.9039     1691.929     205.2429    784.74318    1017.9488   -4585.4554 
27614000    117.00123   -5015.6688   -4790.0221   -5015.6688            0    2409.6532    20.135114     19.93007     20.68233    8299.6996    1868.3233    2104.3862      3256.25    49.677148    281.17628    439.14839   -4498.3514 
27615000    115.37062   -5022.1665   -4799.6645   -5022.1665            0    2068.8185    20.112827    19.886327    20.718651    8286.8444    1326.1998    1873.4768    3006.7789   -402.34247   -235.83814    205.92416   -4549.6372 
27616000    112.95498   -5030.9074   -4813.0642   -5030.9074            0    1382.9917    20.030136     20.01922    20.774474    8330.3087    1878.3268     1099.624    1171.0244   -293.87888    445.78714    87.346367    -4645.046 
27617000    110.90282   -5026.9852   -4813.0998   -5026.9852            0    1187.0127    19.965904    19.991778    20.944307    8360.0024    2072.3333    923.47519    565.22974   -416.43674    26.916233    115.02229   -4668.3767 
27618000    111.61415   -5021.8831   -4806.6259   -5021.8831            0    1265.4519    20.072393    19.859839    20.925671    8341.6942    1592.7925    972.59779    1230.9653    41.550562   -285.05403    124.80471   -4652.6772 
27619000    113.94464   -5028.2555   -4808.5037   -5028.2555            0    1949.1288    20.130101    19.816457    20.870703    8325.4753    1556.7753    2647.5852    1643.0259    81.374609     744.5588   -1168.1377   -4571.8433 
27620000    118.69943   -5028.1369    -4799.215   -5028.1369            0     1761.917     20.15847    19.875916    20.776617    8324.5266    1601.0706    1862.2303      1822.45    479.20506    22.420033    -50.55354     -4585.31 
27621000    108.98194   -5021.4228    -4811.242   -5021.4228            0     2200.133    19.918781    20.024697    20.738543    8271.9322    2277.9261    2178.5095    2143.9633   -305.67307    -280.1253   -153.97705   -4545.8231 
27622000    119.56884   -5016.4984   -4785.8998   -5016.4984            0    1727.4128    20.070414    19.891464    20.862647    8328.9933    1545.8975    2246.7526    1389.5885    244.03663     3.438788    800.80448   -4576.0713 
27623000    114.45375   -5018.3761   -4797.6424   -5018.3761            0    1650.8339    20.037815    19.858623    20.867626    8303.7169    1502.8982    2423.3613    1026.2421    -274.3913   -605.15304    573.63563   -4597.7245 
27624000    119.37695   -5025.5736   -4795.3451   -5025.5736            0    2691.6927    19.912412    19.853363    20.982786    8295.0904    3980.8408    2100.8225    1993.4149    12.070169   -381.80845   -37.235272   -4469.7165 
27625000    113.71666   -5009.1726   -4789.8605   -5009.1726            0    1643.8012    20.047282    19.976683    20.786556    8324.5627    1720.5813    1469.2778    1741.5444   -490.39013   -265.50545     428.9262   -4590.2944 
27626000    108.96428    -5020.733   -4810.5862    -5020.733            0    1601.3035    19.925323    20.009907    20.724357    8262.8814    2151.7821    1423.1686    1228.9597   -418.13035    755.89529   -199.81618   -4617.6201 
27627000    111.76984   -5017.4819   -4801.9244   -5017.4819            0    1439.1538    19.971728     19.93869    20.839554    8298.5209    2390.3072    665.34011     1261.814   -67.068977   -62.040739   -44.260196   -4627.7502 
27628000    113.43659   -5024.1858   -4805.4138   -5024.1858            0    2511.9429    20.004621    19.941993     20.84068    8314.0142    1362.9177    3756.3463    2416.5647   -44.783275   -153.23682     108.3328   -4500.8373 
27629000    119.70055   -5010.8656    -4780.013   -5010.8656            0    2077.8907    20.016132    19.907073    20.856256    8310.4381    2733.4734    1806.9554    1693.2431   -705.84615     573.1907    157.58515   -4528.1743 
27630000    107.66399   -5023.6071    -4815.968   -5023.6071            0    1610.2443    20.017686    19.858044    20.907134    8310.8383    1767.4832    2371.6385    691.61108    227.88303   -464.13625    -12.00829   -4620.7983 
27631000    111.80174   -5032.0291     -4816.41   -5032.0291            0      1515.66    20.177996    19.933901    20.657725    8309.0775    831.53051    1436.4469    2279.0025   -195.15936   -209.80172   -294.45593   -4632.7433 
27632000    118.51501   -5009.5202   -4780.9541   -5009.5202            0    2698.3301    20.064937     19.84371    20.696175    8240.4468    2234.8156    3442.5283    2417.6464    238.08973   -109.78368   -1207.3547   -4456.6729 
27633000    125.44259   -5024.4648   -4782.5382   -5024.4648            0    2071.9381    19.904924     20.12234    20.775538    8321.3018    3007.4676    921.10355    2287.2432   -180.20672    195.10259   -1137.9516   -4531.0927 
27634000    111.91843    -5020.746   -4804.9019    -5020.746            0    2352.7837    19.993209    19.884272    20.734012    8242.8152     2033.767    3191.4232    1833.1608   -158.71372    -721.1787   -819.55578   -4522.0667 
27635000    114.68672   -5024.4732   -4803.2902   -5024.4732            0    1734.4965     19.96211    20.054914    20.779991    8319.0284    1904.2325    1394.7683    1904.4885   -159.91312    84.822329    615.23787   -4592.8533 
27636000      117.011   -5024.4832   -4798.8177   -5024.4832            0    2723.6101     20.03437    19.878307    20.746451    8262.2604    2984.4888    2688.4087    2497.9327    -116.9113    534.87345    44.510762   -4470.6319 
27637000    115.14785   -5029.3065   -4807.2341   -5029.3065            0    1241.9408    20.100723    19.833564    20.828995    8303.8746     762.2586    2248.5952    714.96878    195.10855   -92.092292   -59.794738   -4656.8308 
27638000    116.55863   -5030.4571    -4805.664   -5030.4571            0    2123.5338    19.933752    19.999283    20.814108    8297.7679    2072.6656     2328.842    1969.0937    71.191373    572.73736    508.03412   -4548.6858 
27639000    110.33302   -5032.6664   -4819.8799   -5032.6664            0    2971.3842     19.90046    19.977638    20.714353    8235.2851    2922.0108    3213.0942    2779.0474    295.72824    80.080662   -528.99687   -4463.0072 
27640000     121.8315    -5029.579   -4794.6167    -5029.579            0    990.05552    20.156056    19.964759    20.741559    8346.6278    708.58734    1475.3618     786.2174    274.24859     682.0915    19.147059   -4674.1002 
27641000     115.3963   -5024.6126   -4802.0611   -5024.6126            0    2072.1952    19.988412    19.992123    20.675186    8262.0272    1419.3465    1890.4035    2906.8356     166.9516   -438.73034    175.08135   -4552.3757 
27642000    112.61145   -5019.2606     -4802.08   -5019.2606            0    1745.9371    19.980139    20.040559    20.707547    8291.5741    1451.5905    1782.9827    2003.2382    285.97406   -185.73144    162.17306   -4590.9541 
27643000    113.81946   -5022.8472   -4803.3368   -5022.8472            0    2455.9305    19.909154    19.911242    20.761324    8230.1205    1955.9284    2273.2061    3138.6571   -265.00872   -306.80119    461.75829   -4508.5567 
27644000    119.55779   -5027.2488   -4796.6715   -5027.2488            0    1472.8048    19.783394     20.14538     20.83498    8303.6563    2131.5402    179.32574    2107.5485   -94.510377   -191.53758    21.941402   -4618.3144 
27645000    116.82679   -5025.9567   -4800.6464   -5025.9567            0    2369.2367    20.054039    19.958987    20.682591    8278.3785    1845.9579    3273.1684    1988.5837      164.002    119.15063   -752.84162   -4514.6045 
27646000    106.93194   -5012.0687   -4805.8415   -5012.0687            0    1730.6346    20.015349    20.081228    20.604925    8281.7951    1050.8648    1812.1678    2328.8713   -458.84833   -67.445544    65.610233   -4596.8129 
27647000    112.10686   -5027.6988   -4811.4912   -5027.6988            0     1800.575    20.001618    19.959807    20.718166    8271.2808    2564.0572    1393.1605    1444.5074   -322.21882    -214.5791    330.91759   -4594.2912 
27648000    113.07342   -5026.7367   -4808.6651   -5026.7367            0    2992.7717    19.849752    20.034165    20.788825    8267.1588    4355.4631    2058.6464    2564.2055    -7.003644   -456.92364   -179.37993   -4447.8325 
27649000     119.7005   -5021.3279   -4790.4754   -5021.3279            0    1598.4132    20.067069    19.877126    20.858472    8319.9366    1216.3627    2069.5669    1509.3099    -65.21637   -988.60507    448.60726   -4596.5276 
27650000    119.75274   -5034.4858   -4803.5326   -5034.4858            0    1761.7536    19.908129    19.849684    21.015626    8304.7465    1601.9965    2778.8365    904.42791   -472.14722    -202.1484    903.68548   -4590.1557 
27651000    117.40002   -5008.2962   -4781.8804   -5008.2962            0    1988.0059    19.923572    19.957899    20.926776    8321.1694    1709.4438    2179.8664    2074.7074   -224.51689    968.55641   -563.34726   -4540.6245 
27652000    118.71095   -5019.1962   -4790.2521   -5019.1962            0    1826.1374    20.055063    19.831197    20.878847    8303.8495    921.11745      2853.89    1703.4048   -280.36671    67.724757   -70.292126   -4569.1012 
27653000    115.24079   -5024.0458   -4801.7943   -5024.0458            0    1914.4555    20.070413    20.020418     20.71993    8325.6421    2561.5913    639.51608    2542.2592    326.81186   -266.37785   -575.93749   -4569.3393 
27654000    115.35815   -5018.6457   -4796.1678   -5018.6457            0    3683.2845    19.907643    19.850746     20.78158    8212.4972    3223.6949    4264.7214    3561.4371   -343.30041    176.22715    379.20279   -4355.0177 
27655000    115.76345    -5024.315   -4801.0555    -5024.315            0    1755.9671     19.96262    19.941514    20.788283    8275.5009      2970.71   -591.20633    2888.3975   -107.10233    154.09066     1294.437   -4589.1284 
27656000    104.41639    -5011.493   -4810.1172    -5011.493            0    979.67412    20.198876    19.997544    20.754994    8383.5212    773.27698    1081.1268    1084.6186    15.902878   -131.25093    503.34099   -4690.3373 
27657000    115.97034   -5017.3968   -4793.7383   -5017.3968            0    2684.6294    19.929864    20.002471    20.786128    8286.3181    2311.1365    3043.8535    2698.8984     218.8102    741.54559    609.62835   -4469.3076 
27658000    111.88361    -5027.961   -4812.1841    -5027.961            0    1749.8973    19.854024    19.943839      20.9569    8298.2087    2117.0053    1196.3599    1936.3268   -290.64677    1053.8988   -759.14188     -4600.41 
27659000    109.38887   -5020.4288   -4809.4631   -5020.4288            0    2408.5733    20.009849    19.878441    20.881859    8306.0643    1199.9602    2961.3364    3064.4234    317.53846    -377.7441   -991.07502   -4517.6996 
27660000    115.77835   -5019.1799   -4795.8916   -5019.1799            0    2135.8291    19.983386    19.782342    20.881945     8255.013    994.31751    3673.9444    1739.2253   -9.5053246    161.92838   -305.41765   -4538.7572 
27661000    113.50911   -5027.2888    -4808.377   -5027.2888            0    1865.1798    19.988153     20.01694    20.737264    8297.0139    258.37497    3352.8896    1984.2749   -87.845528   -901.15332   -365.19303   -4582.6838 
27662000    116.12337   -5021.3053   -4797.3516   -5021.3053            0    312.63374    20.096159    20.120722    20.665186     8355.952   -661.93289    451.32546    1148.5086   -235.29002   -352.57065   -188.97082   -4759.2531 
27663000    114.21709   -5012.7428   -4792.4655   -5012.7428            0    2672.9038    20.065398    19.898006       20.578    8216.0014    2067.4033    2785.6547    3165.6533   -50.371556    344.98053    370.77539   -4472.1929 
27664000    115.24393   -5026.6815   -4804.4239   -5026.6815            0     2470.508    19.970799    19.842621    20.801209    8242.9575    4145.3136    1548.4944    1717.7161   -606.66532    498.01903   -593.67412   -4507.4316 
27665000    114.52051   -5023.1907   -4802.3283   -5023.1907            0     1997.749    20.003059    19.854414    20.937339    8315.2434    2479.5304    1385.6113    2128.1055   -360.39071   -377.79396    -217.2369   -4560.0627 
27666000    119.99681   -5023.5545   -4792.1306   -5023.5545            0    3123.7588    19.880318    19.902329    20.890273    8265.5422    3715.9977    3405.3638     2249.915    107.62368    1524.5837   -479.48864   -4415.5787 
27667000    114.04131   -5019.4304   -4799.4921   -5019.4304            0    1300.7368     20.07739    19.947027    20.880039    8362.1262    2146.7558     98.14951    1657.3051    -407.0425    -392.4095   -559.48185   -4640.8633 
27668000    118.00323   -5010.9242    -4783.345   -5010.9242            0    2202.8616    19.973071    20.081812    20.730293    8314.8263    2670.7486    966.47617    2971.3599    28.939513   -206.58464    595.68425   -4516.2189 
27669000    125.24465    -5026.105   -4784.5601    -5026.105            0    1829.9111     19.97694    19.912414    20.919699    8321.6279    1487.3542    1731.4761    2270.9032   -132.15221    522.72026     304.0929   -4562.4777 
27670000    116.30066   -5021.6455   -4797.3499   -5021.6455            0    1986.6545    20.089054    19.782904    20.849431    8285.9774    933.78476    3262.6437    1763.5351   -187.42659    853.02517   -762.48456   -4557.2776 
27671000    116.83843   -5018.3755   -4793.0428   -5018.3755            0    1964.6755    19.996822    19.916785    20.847628    8303.0349    1661.5497    3509.4165    723.06041   -449.11868   -997.18241    169.50364   -4555.1378 
27672000    111.89547   -5020.9252   -4805.1254   -5020.9252            0    2336.3501     19.98931    19.956665    20.825242    8307.6048    2706.8221    1512.7507    2789.4776   -327.84149    286.35974   -810.21862   -4522.0582 
27673000    112.10791   -5026.7383   -4810.5288   -5026.7383            0    2802.1982    20.080007    19.823982     20.94739    8338.4375    2807.3278    3139.6201    2459.6468   -118.84081    37.444501   -382.22245   -4469.7603 
27674000    115.00262   -5019.3963   -4797.6041   -5019.3963            0    2838.1156    19.952935    19.888592    20.918217    8301.0973     3162.663    2401.6222    2950.0618   -188.98475   -680.54614    33.256351   -4454.0133 
27675000    115.25745   -5026.7871   -4804.5034   -5026.7871            0    2484.1134     19.95309    20.042519    20.754388    8299.8915    2263.3024    2362.7587    2826.2791   -236.73403    903.66502     675.2075   -4503.8129 
27676000    109.71127   -5023.5198   -4811.9324   -5023.5198            0    2498.2017    19.876396    19.995914     20.80224    8267.7816       3933.8     1588.082    1972.7232   -409.80931    1077.3022   -693.92213   -4510.7065 
27677000    112.73786   -5011.6678   -4794.2434   -5011.6678            0    2345.1543    19.880228    19.995652    20.833879    8281.8447    2385.0075    3264.6933    1385.7621   -69.970172     1337.235    536.56952   -4510.9905 
27678000    115.85515   -5021.1069   -4797.6705   -5021.1069            0     2013.318    20.024453    19.994539    20.677509    8278.8551    616.95494    2084.6186    3338.3805   -194.26248   -536.48044   -340.02307   -4554.5853 
27679000    115.25134    -5008.949   -4786.6771    -5008.949            0    2175.9707    19.976146    19.948276    20.807267    8291.4811    4506.3344    1169.6021    851.97555   -48.926312    397.19667    235.99594   -4523.5527 
27680000    115.35339   -5015.9163   -4793.4476   -5015.9163            0    966.88654    19.954801    19.880103    20.994529    8328.6034    1678.3844    1757.6853   -535.41006    76.869812    408.92454    447.92884   -4676.0056 
27681000    111.63839   -5021.0688   -4805.7648   -5021.0688            0    1842.1594    19.912193    20.106501    20.783419    8320.9436    1823.4541    1872.2232    1830.8009   -301.86574    1296.0004    136.08101   -4582.2143 
27682000    113.98337    -5020.314   -4800.4874    -5020.314            0    2889.5703    20.028239    19.879791    20.823818    8291.1531    3105.2134    2868.2051    2695.2925    273.35263    1269.2575    59.017485   -4451.0865 
27683000    111.18255   -5028.1574   -4813.7325   -5028.1574            0    1348.6926    20.085992    19.889558    20.896011    8347.9877    1178.2122    1779.6024    1088.2633    250.47839    584.15014   -84.509579   -4649.5335 
27684000    113.81922   -5030.4489    -4810.939   -5030.4489            0    2586.2861    19.973757    19.924384    20.762996    8262.9417    2606.9488    2802.2006    2349.7088   -504.21853     328.8407   -953.60417   -4499.2746 
27685000    116.71901   -5013.6752   -4788.5727   -5013.6752            0    1409.4394    20.087828    19.963693    20.683165    8294.5127    1567.9207    1320.6125     1339.785   -108.44333    33.636245   -242.35431   -4618.0771 
27686000    120.41576   -5020.7683   -4788.5364   -5020.7683            0    2354.5038     20.13957     19.78369    20.734269    8261.2586    1226.7345     3258.261     2578.516   -222.72519    630.63176    243.96719   -4504.8611 
27687000    112.64597   -5024.5486   -4807.3014   -5024.5486            0    737.00012    20.226359    19.881475    20.798514    8363.7035   -976.54381    2181.0472    1006.4969   -154.99325    673.94787     802.5841    -4717.405 
27688000     117.3705   -5016.5678   -4790.2089   -5016.5678            0    2662.6245     19.94056    19.914082    20.853964    8281.0663    3093.1284    2734.3317    2160.4135   -578.44832    799.45478    162.80061   -4468.6415 
27689000     109.9441   -5024.8322   -4812.7958   -5024.8322            0    2265.8911    19.971697    19.847043    20.861036    8268.8791    2439.9565    2308.9752    2048.7416    337.29929    721.84813    195.12944   -4539.5449 
27690000    114.87447   -5002.7032   -4781.1581   -5002.7032            0     2308.626     19.98856    19.808541    21.014865    8320.7143    2373.7379    2974.8278    1577.3123   -314.53165   -463.88219      831.347   -4501.0084 
27691000    115.85767   -5021.5779   -4798.1367   -5021.5779            0    2244.8934    20.041915    19.908783    20.807285    8302.3174    2056.0708    2416.0446    2262.5648   -101.25303    657.44189   -106.64767   -4526.3232 
27692000    114.95092   -5014.5243   -4792.8318   -5014.5243            0    1740.4898    19.890945    20.036319    20.887145    8324.3903    2389.5705    1631.4852    1200.4137    277.10893    1257.0312    979.42104   -4581.5316 
27693000    117.84532   -5023.8506    -4796.576   -5023.8506            0    1797.4566    20.111177    19.876129    20.721939    8283.2293    936.22748    2017.4809    2438.6615    -48.78779    600.27584   -408.43009   -4579.4389 
27694000    121.26969   -5018.9639   -4785.0851   -5018.9639            0    2871.6309    19.988858    19.986679    20.688459    8265.2647    2514.8108    3146.7203    2953.3615   -224.00291   -19.514811   -258.52991   -4438.9376 
27695000    121.37098    -5031.557   -4797.4829    -5031.557            0    1632.7788    20.047041    20.049273    20.590683    8275.9843    1397.8741    1518.4866    1981.9757    352.41738   -266.80475    149.95598   -4600.4118 
27696000    113.66163   -5020.2782   -4801.0722   -5020.2782            0    1133.2736    20.074705    20.036304      20.7387    8341.5799    723.08683    879.64471    1797.0891   -391.81308   -377.39433    221.72786   -4663.2056 
27697000    113.25033   -5015.9228     -4797.51   -5015.9228            0    2288.8767    19.959198    20.023605    20.756668     8295.508    2067.9186    1978.4248    2820.2868    713.12759   -836.80595     302.8263   -4520.5983 
27698000    115.07491   -5021.7278   -4799.7961   -5021.7278            0    2340.5967    19.966806    19.934056    20.850109    8298.7489     1326.757    3487.6667    2207.3665    89.898886   -1.4794755    862.05725   -4516.5166 
27699000    116.03321    -5011.072   -4787.2922    -5011.072            0    913.94043    20.111781    19.909652    20.843516    8346.1309    258.50469    1876.1667    607.14988    107.27753   -79.033474    129.15668   -4676.0476 
27700000    116.33312   -5029.4791   -4805.1209   -5029.4791            0    1688.2328    20.121859    19.848108    20.884785    8340.9828     1747.007    2046.7188    1270.9725   -379.18738    716.13453   -62.386179   -4599.7563 
27701000    116.87882   -5027.1413   -4801.7306   -5027.1413            0     1772.383    19.912452     19.99608    20.827885    8293.0598    2372.7581    1194.0461    1750.3448   -246.21143    740.40626    393.48984   -4587.3684 
27702000    115.45216   -5019.9709   -4797.3117   -5019.9709            0    1558.4984    20.042334    19.820038    20.902272    8303.2145    378.52301    2794.4171    1502.5551     79.88951   -326.92789    429.82544   -4608.5871 
27703000    112.00048   -5028.4278   -4812.4255   -5028.4278            0     1528.028    20.017393    19.960085    20.881851    8343.3199    1130.2838    1815.6831    1638.1172    192.13706    423.02795   -440.07144   -4626.4969 
27704000     110.6909   -5024.9954   -4811.5187   -5024.9954            0    2518.2765    19.934759    20.066399    20.748768    8299.8976     2964.038    804.05368    3786.7378   -36.655484    94.891629    201.05893   -4506.6926 
27705000    112.13316   -5030.6525   -4814.3943   -5030.6525            0    2434.7089    20.017335    19.961489    20.691864    8267.9682    1792.3638    2538.9269     2972.836   -188.92762    470.89913   -554.72482   -4520.8175 
27706000    110.83844   -5024.2522   -4810.4909   -5024.2522            0    2660.4495    19.890578    20.055084    20.692157    8254.2507    3279.8377    2201.4997     2500.011    216.90528   -156.54613   -372.45896   -4490.2266 
27707000    116.91173   -5026.2326   -4800.7585   -5026.2326            0    2078.7636     20.01417    19.932809    20.761835    8282.6978    2183.3891    1913.1361    2139.7656   -74.263504    184.69131    336.95765   -4549.6549 
27708000    118.92947   -5025.6876   -4796.3221   -5025.6876            0    635.29516      20.0336    20.034831    20.767755    8335.5495    300.72126    341.71672    1263.4475   -369.09369     750.9353    100.65794   -4719.0922 
27709000    114.93033   -5022.3569   -4800.7041   -5022.3569            0    2395.3177    20.147943    19.848732    20.648942    8257.7415    1503.7498    2693.9386    2988.2646   -223.18455    143.95726    1695.1383   -4512.2343 
27710000    118.11508   -5010.9624   -4783.1676   -5010.9624            0    2934.5821    20.031003    19.816983     20.85018    8276.5637    2289.0307    3400.5631    3114.1524   -228.08422   -95.696332    802.91776   -4428.9483 
27711000    116.17973    -5025.291   -4801.2286    -5025.291            0    1702.9927     19.89838    20.041507    20.933262     8348.049    3205.1509    906.12093    997.70638   -128.00833   -109.45958   -191.11535   -4593.8931 
27712000    116.37778   -5022.0178   -4797.5734   -5022.0178            0    2416.5904    20.085231    19.973132    20.620847    8272.3617     2249.279    1396.5798    3603.9124   -402.26731   -516.53339   -344.04585   -4506.0265 
27713000    114.97432   -5010.3524   -4788.6148   -5010.3524            0    1864.9726    20.002708    19.984866    20.793623    8312.2805    2319.2201    1909.9098     1365.788    92.686769    -1448.319   -10.674012   -4562.5315 
27714000    119.75149   -5026.3589   -4795.4081   -5026.3589            0    2503.5379    19.900341    19.937076    20.880357    8284.3777    3352.8011    2698.4521    1459.3605    151.03047    360.18215   -358.39057   -4492.9328 
27715000    111.50564   -5033.8419   -4818.7939   -5033.8419            0    2515.9687    20.011333    19.910968    20.773911    8277.2615    2816.7941    2514.6869    2216.4253    9.0990498    138.65212   -43.732376   -4515.0778 
27716000    110.92584   -5017.2739   -4803.3441   -5017.2739            0    2836.1929    19.944389    20.061143     20.60447    8243.9976    3081.3542    2451.4213    2975.8031    176.67454   -471.68479    740.18192   -4462.3479 
27717000    109.22334   -5024.7893   -4814.1429   -5024.7893            0    2840.1211    20.048042    19.856679     20.86189    8304.8586    2636.3659    3216.6036    2667.3938   -114.61666    182.11936   -335.41837   -4470.1536 
27718000    121.88627    -5029.237   -4794.1691    -5029.237            0    725.63195     19.98811    20.018124    20.956131    8385.0608    1502.0698   -304.94634    979.77239   -429.55884    163.65197    177.36338   -4705.4333 
27719000    117.50147   -5021.2321   -4794.6206   -5021.2321            0    2562.5172    19.967753    19.916834    20.797595    8271.0874     4560.845    688.73841    2437.9683    97.935304    604.92342    828.92864   -4485.5161 
27720000    113.27624   -5028.3492   -4809.8865   -5028.3492            0    1396.5176    20.083178    19.960179    20.682336    8290.8006    476.24149    2591.5171    1121.7943    132.62025    97.995028    676.98588   -4641.0296 
27721000    116.58397   -5025.6933   -4800.8513   -5025.6933            0    1213.6247    20.107707    19.904455    20.721159    8293.2906    857.43403    1367.3913    1416.0487    295.51429    81.751943   -626.74004   -4654.0644 
27722000    110.67391   -5018.6455   -4805.2016   -5018.6455            0    2425.7576    20.018989      19.8838    20.757637     8262.652     1544.721      2896.44    2836.1117   -69.297081    231.47045    56.463846   -4512.8922 
27723000    115.70453   -5029.9862   -4806.8403   -5029.9862            0    1225.7348    20.095454    20.085843     20.63745    8329.9794    1525.9736    455.93801    1695.2928    85.550331    998.98451   -3.5894274   -4657.9329 
27724000    116.12652   -5022.1386   -4798.1788   -5022.1386            0    2616.6427    19.979417    20.028567    20.601543    8243.8946    2994.2004     2107.753    2747.9748    73.778781    745.06569    1034.5213   -4483.5831 
27725000    112.89979   -5026.0928   -4808.3561   -5026.0928            0    2309.1144    19.967658    19.888046    20.842056    8276.7495    3389.3955    1413.5124    2124.4354   -338.22571     116.6761    494.23881   -4529.6277 
27726000    118.13613    -5029.269   -4801.4336    -5029.269            0    2661.9981    19.917753    19.897728    20.856003    8265.6099     3489.681    2490.2949    2006.0185   -45.406903    1378.8092   -238.86133   -4480.5418 
27727000    119.79269   -5002.2051   -4771.1748   -5002.2051            0    1066.4482    19.975777    19.976817     20.92791    8351.3339     309.4358    1129.9621    1759.9467    92.792955    1186.8556   -283.00202    -4641.286 
27728000    117.61465   -5013.8725   -4787.0428   -5013.8725            0    2493.8459    20.095399    19.979505     20.57398     8260.373    436.91648     4045.626    2998.9951   -410.09766    652.75455   -42.281865   -4486.6115 
27729000    116.06146   -5016.1326   -4792.2983   -5016.1326            0    3090.5932    20.012025    19.958773    20.649646    8247.7882     2913.264     3046.998    3311.5177    155.48836    524.50874   -990.68525   -4420.5447 
27730000     121.3178   -5013.3937   -4779.4221   -5013.3937            0    2136.3036    20.101882    19.874201    20.704904    8271.7923    1386.6432     2379.935    2642.3325   -5.4082274    1068.1595   -443.79155   -4521.7078 
27731000    119.47508   -5017.6357    -4787.218   -5017.6357            0    2330.2442    19.894077    19.963112    20.797782    8259.7909    4248.1996    791.91439    1950.6185   -358.94713    216.84445   -1697.7859   -4506.5154 
27732000    114.17589   -5019.4746   -4799.2768   -5019.4746            0    2447.9823    20.034384    19.955964    20.830045    8327.9655    2363.5446    2425.9116    2554.4908   -21.748534      494.465    318.19993   -4501.9575 
27733000    114.04367   -5025.0759    -4805.133   -5025.0759            0     2107.788     20.03298    19.894483    20.839787    8305.6092    528.64935    3749.1952    2045.5195    171.92971    1827.1921    612.49629   -4549.8192 
27734000    119.95176   -5023.3883   -4792.0512   -5023.3883            0    1994.3032    19.965798    19.933718    20.855085    8300.1691    2611.4143    1472.9956    1898.4995    168.96136    -157.5148   -388.74695   -4550.6419 
27735000    113.34656   -5029.4755   -4810.8771   -5029.4755            0    2027.4974    20.047254    19.930122    20.740087    8286.5818    2143.8398    2450.3779    1488.2746     291.0278    658.24857   -39.502504   -4565.8514 
27736000    110.92122   -5020.5459    -4806.625   -5020.5459            0    523.78912     19.99389    20.106191    20.746769    8340.2212     1679.073   -1148.2557      1040.55   -318.19056   -70.801323   -115.90507   -4742.9147 
27737000    110.23574   -5010.0544   -4797.4556   -5010.0544            0    3770.8942     19.99408    19.941784    20.593416    8210.9578    3437.5564    3387.0251    4488.1009   -246.22594    1720.2565     1154.263    -4345.897 
27738000    113.39745   -5011.9316    -4793.235   -5011.9316            0    723.66377    20.155685    20.041357    20.719308    8369.5079    558.25275    -408.3247    2021.0632   -460.66436    634.51968   -309.78483   -4704.9042 
27739000    113.18015   -5017.8349   -4799.5575   -5017.8349            0    1590.9695    19.909509    19.983608    20.849943    8295.4377    1323.6378    1281.0133    2168.2573   -528.15405    643.89566   -340.62668   -4607.0813 
27740000    120.00217   -5024.9065   -4793.4722   -5024.9065            0    1914.4579    20.025637    19.850812    20.849657    8288.2631    1895.5872    2318.0494    1529.7372   -58.989759     307.2266   -788.19548   -4562.0605 
27741000    109.49249   -5022.4822   -4811.3168   -5022.4822            0    1366.0762     20.04255    19.926009    20.764403    8292.6389    1134.8024    1750.7619    1212.6644   -98.885051    234.14667    834.58415    -4646.104 
27742000    114.61624     -5017.79    -4796.743     -5017.79            0    2588.3851    20.183209    19.896583    20.568831    8259.9677    1254.3298    3101.1134    3409.7121    14.853988    150.55529    3.0457603   -4484.9379 
27743000     116.1069   -5012.2865   -4788.3646   -5012.2865            0    1946.5697    19.990829    20.013335    20.658653    8265.1794    1575.3078    2171.4139    2092.9874   -429.69153    689.33487   -1653.4067   -4553.7267 
27744000    114.30865    -5010.361   -4789.9072    -5010.361            0    1829.7529    20.137973    19.788341     20.79634    8287.2807    1649.2228     1972.553     1867.483   -54.554124    402.60792   -311.49539   -4568.7605 
27745000    119.88057   -5012.1771   -4780.9773   -5012.1771            0     1546.001    19.958219    19.947649     20.88042    8312.9037    2563.9054    825.04022    1249.0574   -486.22225   -687.34361     527.1622   -4593.5476 
27746000    115.04322   -5015.9796   -4794.1091   -5015.9796            0    1667.1828    20.043453    19.819127    21.069345    8369.6655    2232.2398    2445.2171    324.09157    330.59596     863.9218    388.61896   -4590.6078 
27747000    113.08806   -5018.7245   -4800.6246   -5018.7245            0    1967.1751    19.928608    20.029404    20.793148    8299.7542    2660.0187    519.35551    2722.1513   -440.15369    424.70645    736.45691   -4562.5111 
27748000    116.42215   -5011.6266   -4787.0967   -5011.6266            0    2158.3906    20.059187    19.785174     20.82208    8263.7529    1437.7064    2439.2788    2598.1866   -257.37356   -355.93504    613.45302    -4526.971 
27749000    107.26513   -5016.0091   -4809.1392   -5016.0091            0    1284.0606    19.906673    20.127322    20.745031    8311.8703    2411.7846   -192.91343    1633.3105     644.3456    466.55848   -184.80793   -4653.4853 
27750000    118.84683   -5010.4678   -4781.2617   -5010.4678            0    1655.5466    20.125201    19.984179    20.844471    8383.3466    1058.1635    1904.1525    2004.3239   -84.924607    1103.6752   -267.13877   -4578.8504 
Loop time of 356.561 on 64 procs for 250000 steps with 972 atoms

Performance: 121.157 ns/day, 0.198 hours/ns, 701.142 timesteps/s
194.0% CPU use with 32 MPI tasks x 2 OpenMP threads

MPI task timing breakdown:
Section |  min time  |  avg time  |  max time  |%varavg| %total
---------------------------------------------------------------
Pair    | 26.151     | 34.903     | 43.21      |  76.6 |  9.79
Bond    | 1.0807     | 1.2249     | 1.7726     |  12.2 |  0.34
Kspace  | 159.53     | 169.2      | 176.99     |  38.6 | 47.45
Neigh   | 0.78515    | 0.82388    | 0.89159    |   3.7 |  0.23
Comm    | 58.635     | 63.142     | 65.792     |  23.7 | 17.71
Output  | 0.5861     | 0.58714    | 0.58894    |   0.1 |  0.16
Modify  | 67.932     | 69.837     | 73.387     |  16.1 | 19.59
Other   |            | 16.84      |            |       |  4.72

Nlocal:        30.3750 ave          38 max          22 min
Histogram: 1 0 2 6 5 6 7 2 2 1
Nghost:        2580.12 ave        2601 max        2561 min
Histogram: 2 2 1 8 4 4 4 2 4 1
Neighs:        9408.56 ave       12196 max        6663 min
Histogram: 2 2 3 3 6 3 9 1 2 1

Total # of neighbors = 301074
Ave neighs/atom = 309.74691
Ave special neighs/atom = 2.0000000
Neighbor list builds = 2451
Dangerous builds = 0

unfix		3
unfix		2
unfix		1

write_data	data.final.${pid}
write_data	data.final.1
System init for write_data ...
PPPM initialization ...
  extracting TIP4P info from pair style
  using 12-bit tables for long-range coulomb (../kspace.cpp:340)
  G vector (1/distance) = 0.37218073
  grid = 24 24 25
  stencil order = 5
  estimated absolute RMS force accuracy = 0.0034357056
  estimated relative force accuracy = 1.0346525e-05
  using double precision FFTW3
  3d grid and FFT values/proc = 3458 576
Last active /omp style is kspace_style pppm/tip4p/omp
WARNING: Not all mixed pair coeffs generated from mixing. Use write_data with 'pair ij' option to store all pair coeffs. (../write_data.cpp:312)

write_restart   restart.lmp.${pid}
write_restart   restart.lmp.1
System init for write_restart ...
PPPM initialization ...
  extracting TIP4P info from pair style
  using 12-bit tables for long-range coulomb (../kspace.cpp:340)
  G vector (1/distance) = 0.37218073
  grid = 24 24 25
  stencil order = 5
  estimated absolute RMS force accuracy = 0.0034357056
  estimated relative force accuracy = 1.0346525e-05
  using double precision FFTW3
  3d grid and FFT values/proc = 3458 576
Last active /omp style is kspace_style pppm/tip4p/omp
Total wall time: 0:05:56
