#include		in.partitions
include		in.temp
variable        temperature equal 272.65
variable	tempDamp equal 100.0
include		in.pressure
variable        pressure equal 9625.0
variable        pressureDamp equal 1000.0 # This is 1 ps
include		in.seed
variable        seed equal 745823

units		real
atom_style	full
read_restart	restart.lmp.${pid}
read_restart	restart.lmp.1
Reading restart file ...
  restart file = 30 Jul 2021, LAMMPS = 30 Jul 2021
  restoring atom style full from restart
  orthogonal box = (0.62158306 1.8236740 0.75832988) to (17.585989 21.805504 21.454866)
  2 by 4 by 4 MPI processor grid
  restoring pair style lj/cut/tip4p/long/omp from restart
  restoring bond style harmonic/omp from restart
  restoring angle style harmonic/omp from restart
  864 atoms
  576 bonds
  288 angles
Finding 1-2 1-3 1-4 neighbors ...
  special bond factors lj:    0        0        0       
  special bond factors coul:  0        0        0       
     2 = max # of 1-2 neighbors
     1 = max # of 1-3 neighbors
     1 = max # of 1-4 neighbors
     2 = max # of special neighbors
  special bonds CPU = 0.002 seconds
  read_restart CPU = 0.008 seconds
include 	in.setup
variable	out_freq equal 1000
variable	out_freq2 equal 10000
variable	out_freq3 equal 1000

timestep	2.0

neigh_modify    delay 7 every 1

include		in.tip4p
# This is TIP4P/Ice

# create groups ###
group ox type 2
288 atoms in group ox
group hy type 1
576 atoms in group hy

# set charges - beside manually ###
set group ox charge -1.1794
Setting atom values ...
  288 settings made for charge
set group hy charge 0.5897
Setting atom values ...
  576 settings made for charge

# ### TIP3P Potential Parameters ###
pair_style lj/cut/tip4p/long/omp 2 1 1 1 0.1577 8.5
pair_coeff 1 1*2 0.000 0.000
pair_coeff 2 2 0.21084 3.1668
bond_style  harmonic
bond_coeff  1 450 0.9572
angle_style harmonic
angle_coeff 1 55 104.52
kspace_style pppm/tip4p/omp 1.0e-5
pair_modify tail yes

thermo          ${out_freq}
thermo          1000
thermo_style    custom step temp pe etotal epair emol press lx ly lz vol pxx pyy pzz pxy pxz pyz enthalpy

restart 	${out_freq3} restart.lmp.${pid} restart2.lmp.${pid}
restart 	1000 restart.lmp.${pid} restart2.lmp.${pid}
restart 	1000 restart.lmp.1 restart2.lmp.${pid}
restart 	1000 restart.lmp.1 restart2.lmp.1


include         in.dump
dump            myDump all atom ${out_freq2} dump.water.${pid}
dump            myDump all atom 10000 dump.water.${pid}
dump            myDump all atom 10000 dump.water.1
dump            myDump2 all dcd ${out_freq2} dump.dcd
dump            myDump2 all dcd 10000 dump.dcd
dump_modify     myDump append yes
dump_modify     myDump2 append yes


variable natoms 	equal  "count(all)"                        # NUMBER ATOMS
variable H      	equal  "enthalpy/v_natoms"                 # ENTHALPY-per-atom
variable Vol      	equal  "vol/v_natoms"                 # volume-per-atom
fix AVG all 		ave/time ${out_freq} 1 ${out_freq} v_Vol v_H file vol_enthalpy.dat
fix AVG all 		ave/time 1000 1 ${out_freq} v_Vol v_H file vol_enthalpy.dat
fix AVG all 		ave/time 1000 1 1000 v_Vol v_H file vol_enthalpy.dat


timer           timeout 23:50:00 every 1000
New timer settings: style=normal  mode=nosync  timeout=23:50:00

fix 		1 all shake 1e-6 200 0 b 1 a 1
       0 = # of size 2 clusters
       0 = # of size 3 clusters
       0 = # of size 4 clusters
     288 = # of frozen angles
  find clusters CPU = 0.000 seconds
fix             2 all nph iso ${pressure} ${pressure} ${pressureDamp}
fix             2 all nph iso 9625 ${pressure} ${pressureDamp}
fix             2 all nph iso 9625 9625 ${pressureDamp}
fix             2 all nph iso 9625 9625 1000
fix             3 all temp/csvr ${temperature} ${temperature} ${tempDamp} ${seed}
fix             3 all temp/csvr 272.65 ${temperature} ${tempDamp} ${seed}
fix             3 all temp/csvr 272.65 272.65 ${tempDamp} ${seed}
fix             3 all temp/csvr 272.65 272.65 100 ${seed}
fix             3 all temp/csvr 272.65 272.65 100 745823

run             250000
PPPM initialization ...
  extracting TIP4P info from pair style
  using 12-bit tables for long-range coulomb (../kspace.cpp:340)
  G vector (1/distance) = 0.374313
  grid = 24 24 24
  stencil order = 5
  estimated absolute RMS force accuracy = 0.003155143
  estimated relative force accuracy = 9.5016195e-06
  using double precision FFTW3
  3d grid and FFT values/proc = 3549 432
Last active /omp style is kspace_style pppm/tip4p/omp
Neighbor list info ...
  update every 1 steps, delay 7 steps, check yes
  max neighbors/atom: 2000, page size: 100000
  master list distance cutoff = 10.8154
  ghost atom cutoff = 10.8154
  binsize = 5.4077, bins = 4 4 4
  1 neighbor lists, perpetual/occasional/extra = 1 0 0
  (1) pair lj/cut/tip4p/long/omp, perpetual
      attributes: half, newton on, omp
      pair build: half/bin/newton/omp
      stencil: half/bin/3d
      bin: standard
Per MPI rank memory allocation (min/avg/max) = 10.20 | 10.20 | 10.20 Mbytes
Step Temp PotEng TotEng E_pair E_mol Press Lx Ly Lz Volume Pxx Pyy Pzz Pxy Pxz Pyz Enthalpy 
 1500000    276.78818   -3786.0199   -3311.6145   -3786.0199            0    9332.1811    16.964406     19.98183    20.696536    7015.7093     9774.224     9035.404    9186.9154   -630.15677   -393.12291    -303.2826   -2356.7744 
 1501000     275.0094   -3820.6457    -3349.289   -3820.6457            0    9834.9313    16.887427    19.891158    20.602621    6920.6363    9925.1987    9357.2581    10222.337    835.30466    245.40126    1363.3643   -2356.6456 
 1502000    272.10619   -3837.3077    -3370.927   -3837.3077            0    8091.1138    16.950593    19.965559    20.679683    6998.5852    9851.1413    7440.9619    6981.2383    263.35537    633.98477   -89.581491   -2545.0898 
 1503000    272.42236    -3833.959   -3367.0364    -3833.959            0    9501.2887    16.951494    19.966621    20.680784    6999.7021    9745.4526     9735.206    9023.2075    728.95597    992.00801   -1679.8182   -2397.1119 
 1504000    240.34188   -3816.2561   -3404.3183   -3816.2561            0    9172.0161    16.950946    19.965975    20.680115    6999.0228    9490.7538    8358.5576    9666.7368   -1831.9615    218.15431     238.7593   -2468.0979 
 1505000    280.83177   -3823.8301   -3342.4941   -3823.8301            0    9912.6508    16.931604    19.943193    20.656517    6975.0911    9128.4607    9736.2771    10873.214    915.71763   -235.49245   -1261.0659   -2334.1341 
 1506000      279.607   -3821.7378    -3342.501   -3821.7378            0     8686.924    16.918216    19.927424    20.640184    6958.5584     8867.028    7875.0209    9318.7232   -163.64325   -131.73879   -277.93228   -2460.9221 
 1507000    268.50016   -3800.9485   -3340.7484   -3800.9485            0    10875.401    16.864489     19.86414    20.574637    6892.4742     9480.121    12008.212     11137.87   -838.89134    896.80893   -482.62406   -2247.5567 
 1508000    283.09566   -3818.4637   -3333.2475   -3818.4637            0    9689.9686    16.928956    19.940074    20.653287    6971.8194    8539.6928     10007.81    10522.403   -909.38877   -734.77864   -857.75795   -2348.0021 
 1509000    302.76666   -3836.2438   -3317.3121   -3836.2438            0    9910.8177    16.907782    19.915134    20.627455    6945.6918    11381.122     8802.745    9548.5865    745.71422    1061.5998   -457.22934    -2313.388 
 1510000    277.54561   -3804.8981   -3329.1944   -3804.8981            0    10942.333    16.831774    19.825607    20.534725    6852.4407    11443.208    10331.582    11052.209   -606.27729   -11.084754    486.32155   -2235.6634 
 1511000    284.65998   -3828.4467   -3340.5492   -3828.4467            0    10176.555    16.866816    19.866881    20.577476    6895.3276    7830.6834    12601.752    10097.231   -1696.9847    1520.5362    1752.5431   -2317.1818 
 1512000     282.4309   -3786.2002   -3302.1233   -3786.2002            0    10990.958    16.866556    19.866575    20.577159     6895.009    12595.635    10450.349    9926.8909    685.66483   -284.50682    481.87875   -2196.9095 
 1513000    276.25882   -3810.4409   -3336.9427   -3810.4409            0    10379.716    16.869335    19.869848    20.580549    6898.4177    10654.916     11596.11    8888.1212    1493.3809    175.83838    772.28193   -2292.6775 
 1514000    262.25631   -3841.3178   -3391.8194   -3841.3178            0    11207.278    16.915763    19.924535    20.637191    6955.5323    10945.863    11602.371    11073.599   -652.99448   -892.67585   -109.42313    -2254.961 
 1515000    271.47881   -3840.8345   -3375.5291   -3840.8345            0    8763.1488    16.985135    20.006245    20.721825     7041.458    7810.0771     9005.573    9473.7962   -1998.6376    1394.6983    1288.2152     -2475.62 
 1516000    272.82964   -3830.7307     -3363.11   -3830.7307            0    10936.647    16.880861    19.883425    20.594611    6912.5676    10127.226    11949.767    10732.948   -1194.8716     212.2391   -679.07468   -2260.5571 
 1517000    263.00496   -3793.8045    -3343.023   -3793.8045            0    9267.1124    16.893554    19.898375    20.610096    6928.1721    10564.717    7740.7047    9495.9155    175.48419    970.63236    353.78305   -2406.6713 
 1518000    260.11117    -3853.796   -3407.9743    -3853.796            0    8791.8297    16.933911    19.945911    20.659332    6977.9433     9155.543    9234.4174    7985.5288   -532.35805   -332.46342   -703.61016   -2513.2637 
 1519000    279.94301   -3832.4767    -3352.664   -3832.4767            0    11457.915    16.871677    19.872607    20.583407    6901.2916    11728.145    10866.532    11779.069   -448.21901    324.93503   -1023.1704   -2199.4448 
 1520000    266.08738   -3835.7041   -3379.6394   -3835.7041            0    8992.5253    16.908601    19.916099    20.628454    6946.7014    8174.1126    7724.6724    11078.791    1718.5054    1292.2834    -1205.221   -2468.6021 
 1521000    264.60493    -3838.655   -3385.1312    -3838.655            0    8530.9707    16.883084    19.886043    20.597323    6915.2986    7379.3289    9109.0188    9104.5644   -1904.3669    884.45843   -1708.0481   -2524.7611 
 1522000    283.96432   -3820.1592   -3333.4541   -3820.1592            0    9632.7233    16.915568    19.924305    20.636953    6955.2914    10350.719    9642.0371    8905.4133    799.03298    317.35846    -650.7317   -2356.3512 
 1523000    273.08323   -3873.5639   -3405.5086   -3873.5639            0    10730.357    16.916211    19.925062    20.637738    6956.0848    9317.8052    12438.701    10434.563    1200.4127    111.50114   -1270.6627   -2316.9422 
 1524000    273.99559     -3782.43   -3312.8109     -3782.43            0    8510.7923    16.941122    19.954404    20.668129    6986.8609    9402.3617    7166.9675    8963.0478    1049.3273    1002.1849    469.54278   -2445.5935 
 1525000    267.02019   -3799.4832   -3341.8198   -3799.4832            0    7547.8216    16.899387    19.905246    20.617213     6935.351    8156.0591    9295.9226    5191.4831   -218.06167   -1000.8838   -569.52639   -2578.3955 
 1526000    274.42474   -3771.8051   -3301.4505   -3771.8051            0    9195.7846    16.915645    19.924395    20.637047    6955.3863    8360.8126    8903.1274    10323.414    98.165027    2188.7046   -338.43555   -2368.6561 
 1527000    277.18313   -3792.9175   -3317.8351   -3792.9175            0    9468.8881    16.969113    19.987374    20.702278    7021.5504    9656.2541    10283.175    8467.2355   -83.934121    685.23082    -1226.493    -2348.201 
 1528000    282.73042   -3837.2881   -3352.6978   -3837.2881            0    9712.7639    16.992863    20.015348    20.731254    7051.0742    9318.0635     9134.705    10685.523   -301.80826    631.35894    559.92678   -2353.9082 
 1529000    257.98333   -3825.6228   -3383.4482   -3825.6228            0    9792.2282    16.944902    19.958856     20.67274    6991.5383    11335.783    10207.882    7833.0191   -1279.4152   -507.79837    920.44093   -2384.9893 
 1530000    283.85426   -3795.1401   -3308.6236   -3795.1401            0     9272.659    16.975543    19.994947    20.710123    7029.5354    8840.6678    9721.5121    9255.7973   -1690.2153    815.97163    734.35887   -2358.0039 
 1531000    284.95758    -3809.715   -3321.3074    -3809.715            0    10459.347    16.896054     19.90132    20.613146    6931.2482    9150.6124    11206.414    11021.015    1168.0337    682.54567    846.42553   -2264.0228 
 1532000    268.09677   -3786.8355   -3327.3268   -3786.8355            0    10211.087    16.924458    19.934776      20.6478    6966.2638    9634.1067    9969.9283    11029.225   -710.07519    778.99944    265.56046   -2289.9232 
 1533000    271.30273   -3802.8332   -3337.8296   -3802.8332            0    8254.5233    16.925986    19.936576    20.649664    6968.1511     8548.909    8419.8899    7794.7708   -485.17888    281.75458   -19.585306   -2498.9774 
 1534000     273.1397   -3844.0569   -3375.9048   -3844.0569            0    7802.9752    16.922232    19.932154    20.645084    6963.5155    7379.9067    7586.7287    8442.2903    1762.5166    1005.6737   -120.09446   -2583.4679 
 1535000    268.02732   -3831.4435   -3372.0539   -3831.4435            0    9716.9242    16.912044    19.920154    20.632654    6950.9452    8626.9043    10793.679    9730.1891    858.96465   -797.68731    213.09364   -2387.0259 
 1536000    263.89573   -3837.9516   -3385.6433   -3837.9516            0    9397.8918    16.904764    19.911579    20.623773    6941.9732    9716.1552    7958.1519    10519.368   -633.35443   -967.07048    145.94593   -2434.1861 
 1537000    270.64055   -3834.8207    -3370.952   -3834.8207            0    8580.8634    16.986098     20.00738       20.723    7042.6564     9280.527    7616.5747    8845.4885     102.7953    730.07109    1685.4319   -2489.6122 
 1538000    268.59743   -3827.4889   -3367.1221   -3827.4889            0    9958.2107      16.9892    20.011034    20.726785    7046.5153    7573.6757    10566.429    11734.528   -714.63794   -144.03353    822.88729   -2343.7546 
 1539000    263.73974   -3789.9115   -3337.8706   -3789.9115            0    9681.7204    17.005577    20.030324    20.746764    7066.9126    10733.395    8776.3781    9535.3883    1238.0415    651.64156    53.472704    -2340.037 
 1540000    282.60175    -3839.009   -3354.6392    -3839.009            0    9416.1164    16.966855    19.984714    20.699524     7018.748    9269.6781    8034.1787    10944.492    1570.4382   -109.07533    596.87881   -2390.7939 
 1541000    265.59772    -3807.806   -3352.5806    -3807.806            0    10600.127    16.911358    19.919346    20.631817    6950.0994    10495.201    10172.782    11132.399     864.6148    72.775552    1091.9002   -2278.1509 
 1542000    274.67551   -3849.0732   -3378.2888   -3849.0732            0    10342.277    16.907721    19.915062     20.62738    6945.6164    8761.8743    10452.525    11812.433    640.10546    1048.5766    963.25646    -2330.671 
 1543000    280.99793   -3834.9258    -3353.305   -3834.9258            0    9723.3656    16.930468    19.941855    20.655132    6973.6876    9540.0428    9872.1379    9757.9163   -471.95597    1409.6646    1483.2237    -2364.399 
 1544000     271.3069   -3822.2119   -3357.2011   -3822.2119            0    8586.5487    16.950327    19.965247     20.67936    6998.2565    8983.7561    6361.1331    10414.757   -156.54901    2574.5222    1037.9446   -2480.8374 
 1545000    266.44911   -3841.0321   -3384.3475   -3841.0321            0    9198.2356    16.915463    19.924181    20.636825    6955.1621    9175.5319     8703.612    9715.5629    868.89993    257.42647    117.07276   -2451.3345 
 1546000    272.19877   -3808.0758   -3341.5364   -3808.0758            0    9739.8896    16.890888    19.895234    20.606843     6924.892    9903.1942    10331.132    8985.3429    875.51064   -225.57245   -1724.5783   -2357.8811 
 1547000    263.13128   -3833.5987   -3382.6007   -3833.5987            0    8737.2738    16.926159     19.93678    20.649875    6968.3644    8064.7937    10288.977    7858.0505     702.3187    342.22466 0.0062234873   -2494.6626 
 1548000    287.69983   -3834.5568   -3341.4491   -3834.5568            0    10168.598    16.868152    19.868455    20.579106     6896.966    7682.9361    11123.582    11699.275   -1298.4696    -1019.936    876.45916   -2318.6389 
 1549000     285.1623   -3824.1636   -3335.4052   -3824.1636            0    11028.396    16.923329    19.933446    20.646422    6964.8697    10070.228    11651.901    11363.059   -371.23681    375.76453   -4.7384661   -2215.1906 
 1550000    282.70665   -3834.4132   -3349.8637   -3834.4132            0    11340.077    16.875159    19.876709    20.587655    6905.5652    11814.726     9504.837    12700.669    1211.7401   -2294.6735   -114.79482   -2207.7979 
 1551000    282.22384   -3807.2575   -3323.5355   -3807.2575            0    8958.8944    16.952125    19.967364    20.681553    7000.4831    10719.362    6028.5786    10128.743   -479.96266    696.56982    3096.0665   -2408.8784 
 1552000    264.94299   -3807.2187   -3353.1155   -3807.2187            0    9556.6256    16.921835    19.931686    20.644599    6963.0249     10538.98    9753.3929    8377.5041    -515.9054   -725.45537    626.59186   -2382.6538 
 1553000    266.73963   -3803.3699   -3346.1873   -3803.3699            0    12739.626    16.876117    19.877836    20.588823    6906.7406    12486.166    13613.776    12118.935    773.47246   -240.77412   -523.09129   -2062.9538 
 1554000    271.19859   -3772.9745   -3308.1494   -3772.9745            0    9948.1879     16.87469    19.876156    20.587082    6904.9892    10125.601    10796.422    8922.5407     1481.953    -389.9638   -485.26339   -2306.3452 
 1555000    268.92488   -3812.0225   -3351.0945   -3812.0225            0    8914.3719    16.902696    19.909143     20.62125    6939.4259    8454.9358    9508.3458    8779.8342   -835.41155   -245.57509   -509.55998   -2448.9207 
 1556000    280.00702   -3798.3747   -3318.4522   -3798.3747            0    8207.0919    16.936412    19.948856    20.662383    6981.0347    8045.5236    7795.5126    8780.2395    1378.5115   -700.69629   -900.69703   -2482.8781 
 1557000    282.14266    -3846.565   -3362.9821    -3846.565            0    9523.1322    16.891089    19.895472    20.607089    6925.1399    10336.121    8441.1854      9792.09    274.92304    230.37838   -527.23521   -2401.1833 
 1558000    269.77114   -3829.1789   -3366.8004   -3829.1789            0    9084.6938    16.911672    19.919716      20.6322    6950.4867    11370.131    7210.6918    8673.2584    1444.7592    320.23411    883.27499   -2445.9239 
 1559000    280.40169   -3832.2711   -3351.6722   -3832.2711            0    9119.2911    16.901047    19.907201    20.619238    6937.3947    8751.9899    7565.3449    11040.539   -420.68296    1018.2041    1345.1906   -2429.0299 
 1560000    261.54561    -3858.187   -3409.9068    -3858.187            0    9732.0228    16.910331    19.918136    20.630564    6948.8332     9665.456    9028.6122        10502    928.75373    629.03281   -1766.1539    -2423.648 
 1561000    260.48216   -3812.4402   -3365.9827   -3812.4402            0    9010.3395    16.951519     19.96665    20.680813    6999.7324    10341.173    6967.3171    9722.5284   -1735.7824   -78.351855    1680.6607    -2446.172 
 1562000    282.23327   -3815.4073   -3331.6691   -3815.4073            0    8709.0204    16.930869    19.942327    20.655621     6974.183    10858.946    7138.5351    8129.5799    500.76355   -243.89486   -879.18329   -2445.8633 
 1563000    274.94847   -3760.7414   -3289.4891   -3760.7414            0    11305.129    16.866967    19.867059    20.577661    6895.5131    10735.406    12085.307    11094.674    1984.7449   -1353.4684   -1073.7253   -2152.6003 
 1564000    273.37664   -3813.8906   -3345.3324   -3813.8906            0    10768.345    16.831378     19.82514    20.534242    6851.9569    10641.212    11503.944    10159.881    1782.7598   -1115.0972   -2166.6439    -2269.265 
 1565000    259.93064   -3807.5017   -3361.9895   -3807.5017            0    9599.2775    16.841969    19.837615    20.547163    6864.8999    10945.396    7606.8198    10245.617   -1278.5431   -742.49643   -804.05889   -2400.9336 
 1566000    279.61548   -3787.5404    -3308.289   -3787.5404            0    8620.3836    16.901596    19.907848    20.619908     6938.071     10753.93    7764.4693    7342.7519   -47.896231   -266.76575    205.20961   -2436.0386 
 1567000     271.0026   -3833.3358   -3368.8466   -3833.3358            0    10529.686    16.856038    19.854186    20.564327    6882.1178    10681.575    12242.102    8665.3818    122.70549   -380.44756   -541.12616   -2311.9964 
 1568000    271.20901   -3804.9656   -3340.1227   -3804.9656            0    10914.165    16.841043    19.836524    20.546033    6863.7673    12299.198    11811.612    8631.6843     809.1393   -857.97897   -121.28591   -2247.6038 
 1569000    257.87006   -3826.2796   -3384.2991   -3826.2796            0    9569.8838    16.918476     19.92773    20.640501    6958.8791    11188.754     9360.753    8160.1445   -1300.9214    211.53575    433.46168   -2413.0697 
 1570000    269.23372   -3818.3284    -3356.871   -3818.3284            0    8352.1205    16.921175     19.93091    20.643795    6962.2109     8459.642      6998.92    9597.7994    -2402.143   -1162.2083    882.47206   -2508.8242 
 1571000    259.21738   -3789.7878   -3345.4981   -3789.7878            0    8877.6864    16.918305    19.927529    20.640293    6958.6686    11004.628    5876.6429    9751.7881    587.21109    302.62876    861.25473   -2444.5457 
 1572000    285.36295   -3753.1992   -3264.0969   -3753.1992            0    10490.617    16.836044    19.830636    20.539934    6857.6568    8533.2517     11493.04     11445.56   -884.27569    2132.3234    1063.7934   -2214.9104 
 1573000    263.42019   -3846.4785   -3394.9853   -3846.4785            0    11057.184    16.930861    19.942318    20.655611    6974.1734    13239.993    9671.7077    10259.851    1018.7547   -1483.8148    -1781.423   -2270.3463 
 1574000    285.69595    -3879.037   -3389.3639    -3879.037            0    8084.4575     16.90737    19.914649    20.626952    6945.1844    6497.2698    9904.5219    7851.5808    992.01991    438.17608    1260.0282   -2570.5022 
 1575000    279.45367   -3859.2584   -3380.2844   -3859.2584            0    10184.176    16.908581    19.916075     20.62843    6946.6769    11305.123    9776.4229    9470.9819    398.88245    1317.2227    749.03482   -2348.5239 
 1576000    269.46683   -3811.7291   -3349.8721   -3811.7291            0      11649.4    16.862877    19.862242     20.57267    6890.4977    10120.789     12997.66    11829.752   -425.06415   -83.571683    660.41997   -2179.2141 
 1577000      259.461   -3827.3624   -3382.6551   -3827.3624            0    12812.696    16.868641    19.869031    20.579703    6897.5665     9611.934    15041.416    13784.738   -30.539084    128.38945    1103.0437   -2093.7756 
 1578000    287.73073   -3790.3203   -3297.1597   -3790.3203            0    12321.103    16.852971    19.850574    20.560585    6878.3615    10644.989     11740.54    14577.781    -1212.702    826.13086   -768.61212   -2061.1824 
 1579000    279.34315   -3853.3352   -3374.5506   -3853.3352            0    9541.3945    16.943487     19.95719    20.671015    6989.7877     8850.699    9381.0829    10392.402    844.95631   -1566.8046    526.94906   -2401.9115 
 1580000    284.34902   -3801.7552   -3314.3907   -3801.7552            0    9506.2952     16.88602    19.889501    20.600905    6918.9071    10293.181      8136.22    10089.485   -397.00941   -64.202598   -1213.9461   -2355.1564 
 1581000    259.74883   -3806.3592   -3361.1586   -3806.3592            0    9191.1498    16.948453     19.96304    20.677074    6995.9358    6976.8179    9634.2787    10962.353    38.298907     391.9823    647.96115   -2423.3989 
 1582000    252.58027   -3802.0022   -3369.0882   -3802.0022            0    10612.344    16.869816    19.870415    20.581136    6899.0079    11106.585    11429.156    9301.2892   -342.17044    1079.1138   -407.82234   -2301.3278 
 1583000    259.74316   -3801.9347   -3356.7438   -3801.9347            0    8561.1145    16.847801    19.844485    20.554278    6872.0338    8149.7344    9068.7564    8464.8525    2010.7085      332.169   -499.98191   -2498.7355 
 1584000    292.47502    -3803.993   -3302.7008    -3803.993            0    8978.9381    16.937202    19.949787    20.663347    6982.0125    9325.0823    9401.3625    8210.3694    1637.0186    -967.0238    1156.7873    -2388.416 
 1585000    282.82648    -3813.916   -3329.1611    -3813.916            0    9874.0328    16.880646    19.883171    20.594348    6912.3026    8458.4794    11109.905    10053.714    902.57439   -971.52503    1374.1051   -2333.7712 
 1586000    275.70601   -3790.2924   -3317.7418   -3790.2924            0     10325.95    16.861604    19.860743    20.571118     6888.938    11922.553    9757.1695    9298.1257    780.35003   -673.96192    202.92915   -2280.3133 
 1587000    268.24776   -3821.2708   -3361.5033   -3821.2708            0    9740.0923    16.876452    19.878231    20.589231    6907.1518    10364.425    11162.263    7693.5883   -1054.2624   -183.66175    15.401635   -2380.3475 
 1588000    281.12912   -3789.1582   -3307.3126   -3789.1582            0    11230.917    16.899979    19.905943    20.617934    6936.0794    11556.022    9828.3673    12308.363   -101.84986   -895.88639   -198.50844   -2171.2423 
 1589000    254.53519   -3830.5453   -3394.2807   -3830.5453            0    11820.383    16.857829    19.856296    20.566512    6884.3116    10984.003    11642.634    12834.512    -770.9076    2115.0114   -162.99335   -2207.5068 
 1590000    268.06125   -3792.3115   -3332.8637   -3792.3115            0     10494.28    16.880483    19.882979     20.59415    6912.1032    12931.013    9255.1684    9296.6575   -1991.8252   -212.60147    -785.4169    -2274.978 
 1591000    255.21199   -3818.4192   -3380.9946   -3818.4192            0    10988.873    16.920819     19.93049     20.64336    6961.7714    11125.898    11894.587    9946.1337    1019.9204   -97.282561   -1639.7097   -2265.2911 
 1592000    288.67204   -3833.9894   -3339.2154   -3833.9894            0    9901.7222    16.894632    19.899645    20.611412    6929.4983    10550.145    11061.653    8093.3688    252.00476    749.55503    553.31358   -2338.5511 
 1593000    266.43648   -3862.4623   -3405.7993   -3862.4623            0    7879.7575    16.890478    19.894753    20.606344    6924.3888    6681.5509    9478.1126     7479.609   -1552.4363    1137.8161    267.16494   -2610.0611 
 1594000    269.91719   -3875.4573   -3412.8285   -3875.4573            0    8629.3848    16.877317     19.87925    20.590287    6908.2139    8382.8618    6906.5828     10598.71    1998.2836    1256.9731    120.91037   -2543.4248 
 1595000    282.57134   -3894.9046    -3410.587   -3894.9046            0    10418.535    16.888171    19.892035    20.603529    6921.5513    10599.437    11377.803    9278.3652   -67.964628    1015.0005    517.11178   -2358.9012 
 1596000    265.90688   -3831.8532   -3376.0979   -3831.8532            0    10710.807    16.905866    19.912877    20.625117    6943.3306    10717.149    10141.288    11273.986   -891.83971   -315.62231    1128.5284    -2291.507 
 1597000    284.27263   -3857.4794   -3370.2459   -3857.4794            0    9747.1039    16.906211    19.913284    20.625538     6943.756    10823.409    9002.1166     9415.786   -1750.7898   -159.71303   -1085.5088   -2383.1805 
 1598000    259.62939   -3861.8299    -3416.834   -3861.8299            0    10486.412    16.923643    19.933816    20.646805    6965.2573    11029.061    10297.818    10132.356   -1806.6999   -878.41853   -1161.5145   -2351.6125 
 1599000    291.12663   -3872.2209   -3373.2398   -3872.2209            0    9849.5206    16.823478    19.815834    20.524603    6842.3126    9138.7231     9651.422    10758.417   -504.81773   -62.214872    2163.3976   -2390.3748 
 1600000    272.27177   -3851.8907   -3385.2262   -3851.8907            0     8257.198    16.888147    19.892007      20.6035     6921.522    5978.5255    10178.753    8614.3157   -813.95231   -355.63278   -801.03255   -2551.7174 
 1601000    264.94626   -3841.7338    -3387.625   -3841.7338            0    10669.729    16.851945    19.849366    20.559334     6877.106    10680.851     9522.923    11805.414    388.59969   -2080.9289   -258.82728   -2317.4988 
 1602000    281.88794    -3805.656   -3322.5097    -3805.656            0    10154.929    16.863445    19.862911    20.573364    6891.1945    11163.788    10217.031    9083.9674    1270.2432    22.675032    562.74606   -2301.9291 
 1603000    269.59649    -3810.455   -3348.3758    -3810.455            0    10343.673    16.928064    19.939023    20.652198    6970.7169    9952.3124    11277.257    9801.4484   -945.76764   -454.10495    542.49029   -2296.8302 
 1604000     279.3301   -3857.3251   -3378.5629   -3857.3251            0    9969.4798    16.915593    19.924335    20.636984    6955.3229    11343.879    9855.9123    8708.6484   -976.06866    26.129795   -41.441076   -2367.2962 
 1605000    283.11798   -3830.9593   -3345.7047   -3830.9593            0    9523.8765    16.925371    19.935851    20.648913    6967.3907    8041.6054    11664.728    8865.2964    1045.4169    775.04958    437.64183   -2377.9623 
 1606000    262.68942   -3846.3384   -3396.0978   -3846.3384            0    10598.295    16.918535    19.927799    20.640573    6958.9519    12070.493     9308.028    10416.363    899.76118    384.98167    1187.1825   -2320.4855 
 1607000    270.47815   -3870.3986   -3406.8083   -3870.3986            0    8232.6069    16.952454    19.967752    20.681955    7000.8912    8817.1031    7544.1599    8336.5576    1460.0118   -34.959188    568.55446   -2566.2525 
 1608000    265.50669   -3827.2704    -3372.201   -3827.2704            0    8262.5382    16.971228    19.989864    20.704858    7024.1756    11259.576    6321.9765    7206.0622    356.16433    898.08318   -1489.1967   -2525.7833 
 1609000    285.30886   -3842.7406   -3353.7309   -3842.7406            0    9880.6153    16.935478    19.947756    20.661243      6979.88    10923.231    9161.2743    9557.3404   -1077.7293    653.90496    1012.4101   -2347.9397 
 1610000    287.87486    -3836.479   -3343.0714    -3836.479            0    10404.451    16.835619    19.830136    20.539416     6857.138    10471.439    9172.3776    11569.535    637.62358   -1860.1302    714.79056   -2302.5813 
 1611000    264.96569    -3795.308   -3341.1658    -3795.308            0    8907.4853    16.970297    19.988768    20.703722    7023.0199    9120.6387    9476.9037    8124.9136   -15.025457    1268.8619   -216.91142   -2428.8297 
 1612000    275.18144    -3846.888   -3375.2364    -3846.888            0    7455.0662    17.005971    20.030788    20.747245     7067.404    8219.2277    8069.2525    6076.7185   -225.68144     8.316776   -1504.3974   -2606.8365 
 1613000    266.72079   -3831.1617   -3374.0114   -3831.1617            0    11965.926    16.843496    19.839414    20.549026    6866.7672    12223.823    12854.965    10818.991    1581.3028   -186.54386   -244.44318   -2175.6866 
 1614000    269.34182    -3777.224   -3315.5813    -3777.224            0    10657.364    16.891525    19.895985    20.607621    6925.6759    10450.742    9316.4357    12204.916    449.02239   -1851.0989    581.25127   -2239.1462 
 1615000    280.28533   -3821.4819   -3341.0824   -3821.4819            0    10048.059    16.924988      19.9354    20.648446    6966.9182    9187.6539    11241.367    9715.1556    555.78743    -705.8657   -274.61032   -2320.1458 
 1616000    269.44764   -3825.6677   -3363.8436   -3825.6677            0    10795.692     16.89842    19.904107    20.616033     6934.161    11570.561    11127.372    9689.1423    -901.5114   -814.02602    127.58914   -2272.1009 
 1617000    272.58247   -3849.1128   -3381.9157   -3849.1128            0    9847.5047    16.891265    19.895679    20.607304     6925.356     10006.13    8896.0251    10640.359    1120.3486   -752.54688    193.25698   -2387.3255 
 1618000    269.12865   -3843.3642   -3382.0869   -3843.3642            0    9817.8015    16.880991    19.883578     20.59477    6912.7269    10102.846    9721.2963    9629.2625    144.75565   -884.25563    946.85615    -2392.305 
 1619000    267.97544    -3802.696   -3343.3953    -3802.696            0    9268.7627    16.858655    19.857268    20.567519    6885.3233    10500.918     9056.957    8248.4133    241.75941    624.32481   -241.15689    -2412.669 
 1620000    271.58785   -3846.4225   -3380.9302   -3846.4225            0    9331.3635    16.848315     19.84509    20.554905    6872.6623    9884.6501    9205.2241    8904.2162    635.40728     227.2103   -810.77128   -2445.6408 
 1621000    269.79898   -3850.8084   -3388.3822   -3850.8084            0    9512.1399    16.905711    19.912695    20.624928    6943.1399    8227.8912    9505.2735    10803.255    378.29833    779.73838   -758.96608   -2425.1964 
 1622000    289.97395   -3811.1136   -3314.1081   -3811.1136            0    12126.914    16.815812    19.806806    20.515252    6832.9644    13030.624    11948.745    11401.374   -991.63643   -1013.1318    2968.4431   -2105.6396 
 1623000    263.11476   -3841.2295   -3390.2599   -3841.2295            0      8919.77    16.896157    19.901441    20.613272     6931.375    7920.1281    11857.289    6981.8923   -1833.9837    53.382319    -1344.945   -2488.5871 
 1624000    278.46372   -3821.2544   -3343.9771   -3821.2544            0    6667.9272    16.977256    19.996965    20.712212    7031.6631    7086.6459    7751.5966    5165.5392    572.98914    769.59062     86.05524   -2660.1838 
 1625000    296.05144    -3798.582     -3291.16    -3798.582            0    10624.184    16.906147    19.913208    20.625459    6943.6766    9476.2617    12650.367    9745.9229   -1606.2647    330.65293   -17.537616   -2215.2872 
 1626000    268.59717   -3798.5348   -3338.1684   -3798.5348            0     11171.57    16.880787    19.883337    20.594521    6912.4765    11042.692    12033.147    10438.872    392.01935   -628.14797    1951.1733    -2211.947 
 1627000    287.61882   -3850.9398    -3357.971   -3850.9398            0    10347.536    16.863433    19.862896    20.573348    6891.1791    9956.0525    10157.818    10928.739   -437.18115    -1856.704   -635.53508   -2318.0356 
 1628000    274.50512   -3841.6448   -3371.1524   -3841.6448            0     9488.839    16.891302    19.895723    20.607349    6925.4018    10937.075    10030.255    7499.1874   -371.31707    930.60956   -134.80827   -2412.7808 
 1629000     266.8737   -3803.4449   -3346.0325   -3803.4449            0     8664.009    16.984811    20.005864     20.72143     7041.055    8017.7281     9333.928    8640.3707     625.6129    1041.4431   -1132.5217   -2456.3552 
 1630000    261.03618   -3857.1748   -3409.7677   -3857.1748            0     9919.238    16.897947    19.903549    20.615456    6933.5781    8287.4641     10772.81     10697.44    1901.6158   -438.48946    970.43004    -2406.743 
 1631000    252.70217   -3851.0912   -3417.9683   -3851.0912            0    11855.673    16.889928    19.894105    20.605673    6923.7124    11244.655    11688.597    12633.769    838.20151    408.54873    -2741.908   -2220.8388 
 1632000    278.06618   -3809.8303   -3333.2344   -3809.8303            0    9172.1793    16.952076    19.967306    20.681493    7000.4222    10233.184    8600.8318    8682.5221   -399.51727    119.28769    902.98486   -2396.8101 
 1633000    262.20155   -3823.0646   -3373.6601   -3823.0646            0    8770.5125     16.91255     19.92075    20.633271    6951.5695    5862.7108    10275.936    10172.891   -284.24701   -1668.9003     1306.563   -2484.4923 
 1634000    258.77732   -3848.4021   -3404.8666   -3848.4021            0    8739.4568    16.962097     19.97911    20.693719    7012.8449    10208.572    7362.5659    8647.2329   -1481.0961   -1100.1472    1776.4668   -2511.0374 
 1635000    258.34586   -3852.3927   -3409.5968   -3852.3927            0    9439.9214    16.931288     19.94282    20.656131    6974.7004    10751.435    8874.2566    8694.0729    205.19537   -1667.8161    1372.0549   -2449.3788 
 1636000    279.53844   -3818.6652   -3339.5459   -3818.6652            0    10940.628    16.889309    19.893375    20.604917    6922.9502    11000.512    11440.287    10381.085   -533.73957   -793.39482    546.08614   -2234.9349 
 1637000    260.18061   -3836.2178   -3390.2772   -3836.2178            0    9380.9828    16.969246     19.98753     20.70244    7021.7154    8831.0027    9227.4929    10084.453   -4.6103508    12.149256   -671.00322   -2429.6222 
 1638000    280.98417   -3817.2516   -3335.6544   -3817.2516            0    9356.1351    16.896867    19.902277    20.614138    6932.2487    10577.546    9014.0932    8476.7666   -1614.7008    1996.0938    -374.9379   -2389.7516 
 1639000    254.63917   -3852.9835   -3416.5407   -3852.9835            0    10389.117    16.850389    19.847533    20.557435    6875.2009    8905.2934    11771.275    10490.784   -1039.5699    30.240749    65.839516   -2374.8472 
 1640000    273.13853   -3826.2038   -3358.0537   -3826.2038            0    9931.7611     16.85291    19.850502    20.560511    6878.2874    9085.9446     9882.073    10827.266    1661.7155    731.30545    -426.3072   -2361.7712 
 1641000     268.1644   -3854.1685   -3394.5439   -3854.1685            0    8998.0985    16.975722    19.995158    20.710341    7029.7572    9511.5843    8951.0821    8531.6292    956.25283   -311.37316    1118.1709   -2472.0427 
 1642000    267.96847   -3821.8354   -3362.5466   -3821.8354            0    10099.827    16.876713    19.878539    20.589551    6907.4734    9468.0466    10683.513     10147.92   -258.50004   -2902.9942   -1392.6643   -2345.1061 
 1643000    262.81054    -3847.071   -3396.6227    -3847.071            0    9890.1041    16.903661     19.91028    20.622427    6940.6143    11364.736    9268.9575    9036.6189   -1123.1525   -1622.3948   -928.84528   -2395.5292 
 1644000    266.98139   -3856.9403   -3399.3433   -3856.9403            0     9830.161    16.915535    19.924266    20.636913    6955.2508    8972.7676    10952.253    9565.4625   -986.01909    452.09687   -69.034234    -2402.219 
 1645000    284.97835   -3841.0537   -3352.6105   -3841.0537            0    11630.425    16.888115    19.891968     20.60346    6921.4821    9305.2716    14108.014     11477.99   -9.1928498   -278.66592   -1136.8851   -2178.6038 
 1646000    279.21178    -3894.935   -3416.3756    -3894.935            0    8036.8204    16.930718     19.94215    20.655437    6973.9967    9028.2289    7514.9985    7567.2339      499.816   -754.52374    1097.9613   -2598.9619 
 1647000    261.81001   -3855.5463   -3406.8129   -3855.5463            0    10840.944    16.867965    19.868235    20.578878    6896.7372     11415.93    10814.096    10292.806    1011.9133   -1274.7625    147.99781   -2316.4108 
 1648000    257.62249   -3870.5991    -3429.043   -3870.5991            0    8962.0648    16.963405     19.98065    20.695314     7014.467    9018.0159     7970.819    9897.3593   -1533.9476   -168.91835    1212.5423   -2512.2345 
 1649000    281.41471   -3814.1103   -3331.7751   -3814.1103            0    11273.108    16.902081    19.908418    20.620499    6938.6678    9317.3595    12648.916    11853.049    224.43565    951.74965    2260.8179   -2191.0115 
 1650000    266.74135   -3851.7639   -3394.5783   -3851.7639            0    9738.4379    17.014747    20.041124    20.757951    7078.3504    8809.1401     10760.66    9645.5139   -737.34862    194.11774   -1093.5554   -2389.2747 
 1651000    286.71307   -3832.8105   -3341.3941   -3832.8105            0    10397.047    16.927276    19.938095    20.651237    6969.7433     11585.34    9218.3901     10387.41   -1251.6176   -290.44963   -429.28179   -2284.5702 
 1652000    264.59325   -3842.5049   -3389.0012   -3842.5049            0    10652.394    16.886693    19.890294    20.601726    6919.7342    12477.701    8693.6597    10785.822    -934.3613    1759.1135    37.269426   -2313.9911 
 1653000    277.22004   -3841.5958   -3366.4501   -3841.5958            0    7815.3065     16.95505    19.970809    20.685121    7004.1077    9083.2205    6792.4146    7570.2844   -153.68338    340.85876    371.17749   -2568.1343 
 1654000    263.43699   -3841.9526   -3390.4306   -3841.9526            0    8792.2035    16.940162    19.953274    20.666959    6985.6737    8702.8708    9139.6872    8534.0526    1520.3311    2382.6302    937.05665   -2494.6907 
 1655000    255.77254    -3828.348   -3389.9626    -3828.348            0    7276.3957    17.013407    20.039546    20.756317    7076.6784    9753.6647    6646.9926    5428.5298   -3420.3097   -512.80685   -270.86401   -2638.9942 
 1656000    262.19968   -3890.0476   -3440.6463   -3890.0476            0    7820.6865    17.013911     20.04014    20.756932     7077.308     7915.996    6894.3462    8651.7175   -1009.3458   -169.32287    455.10606    -2633.432 
 1657000    275.02651   -3856.7625   -3385.3764   -3856.7625            0    10065.723    16.993079    20.015602    20.731516    7051.3424    8069.4488    10903.836    11223.883    293.35886    211.46909    234.44755   -2350.2518 
 1658000    272.70327   -3836.9599   -3369.5559   -3836.9599            0    9584.5605    16.973454    19.992486    20.707574    7026.9401    10698.815    7977.1517    10077.714    1127.4097    683.98644    205.97479   -2387.3233 
 1659000    263.71497   -3812.1755   -3360.1771   -3812.1755            0    9562.0815    16.914824    19.923428    20.636046     6954.374    7095.4347    11273.227    10317.583    2169.6454   -1184.7109    -1658.611   -2390.3677 
 1660000     277.0619   -3817.4408   -3342.5662   -3817.4408            0    10127.077    16.956116    19.972065    20.686422    7005.4294    9226.6537    11816.618    9337.9604   -1903.1164    294.93215   -771.07002   -2307.9131 
 1661000    266.32361   -3851.9899   -3395.5204   -3851.9899            0    9833.4436    16.943138    19.956778    20.670588    6989.3551    8585.0603    11310.916     9604.354    2256.7152   -576.90407    -1470.864   -2393.1721 
 1662000    261.36714   -3809.0211   -3361.0467   -3809.0211            0    9050.0743    16.988721     20.01047      20.7262    7045.9193    10116.861    8982.4782     8050.884   -138.67767    1026.4231   -949.21432   -2431.0837 
 1663000    291.10283   -3826.6347   -3327.6944   -3826.6347            0    10550.899    16.962272    19.979316    20.693932    7013.0614    9280.1888    9803.2163    12569.291   -21.876741   -44.539558    1296.2508   -2248.5663 
 1664000    266.52287   -3855.1396   -3398.3286   -3855.1396            0     8745.087    17.043476    20.074964    20.793001    7114.2663    8741.0116    7930.2053     9564.044     917.3545   -377.10962   -723.96498   -2490.9884 
 1665000    272.31616   -3844.1365   -3377.3959   -3844.1365            0    9888.9887    17.020738    20.048181     20.76526    7085.8301    8903.1644     8999.033    11764.769   -390.97069   -117.17616     364.1842   -2355.4722 
 1666000    266.37677   -3807.6559   -3351.0953   -3807.6559            0    8243.1879    17.014535    20.040875    20.757693    7078.0861    9354.2097    8542.5198    6832.8342    63.958105   -822.23226   -410.24274   -2500.1788 
 1667000    268.09304   -3850.6335   -3391.1312   -3850.6335            0    10117.277    16.926892    19.937642    20.650768     6969.269    11215.192    7501.2176    11635.422   -96.522181   -1567.0518    391.19287   -2362.8148 
 1668000    300.74136   -3824.6591   -3309.1987   -3824.6591            0    8662.1722    16.915111    19.923767    20.636396    6954.7283    10395.713    6375.8037    9214.9996   -168.03241    475.05044    1195.4612   -2430.6156 
 1669000    279.15912   -3816.6095   -3338.1403   -3816.6095            0    8371.5853    16.949912    19.964758    20.678853    6997.7425    8839.5655    8864.0815    7411.1089   -991.13015    -226.2844   -517.62928   -2483.7791 
 1670000    269.98664   -3809.9742   -3347.2264   -3809.9742            0    9749.2275    16.887997     19.89183    20.603317    6921.3374    8332.0967    11990.679    8924.9063    1458.1416   -1803.2947    746.89199   -2363.1334 
 1671000     260.8296   -3812.4428   -3365.3898   -3812.4428            0    9008.7004    16.972249    19.991068    20.706104    7025.4441    7794.7122    11674.894    7556.4947    491.23659    -812.8338   -31.469317   -2442.3683 
 1672000    277.58564   -3837.9177   -3362.1454   -3837.9177            0    8686.9012    16.874749    19.876225    20.587154    6905.0611    8604.8528    11154.461    6301.3899   -123.04931   -841.30372    -1724.638   -2487.3464 
 1673000    272.78912   -3850.2741   -3382.7228   -3850.2741            0    9746.5291     16.92579    19.936345    20.649424    6967.9081    10642.858    8392.3148    10204.415    1040.8789   -672.00796    120.37456   -2392.2826 
 1674000    274.77434   -3863.2663   -3392.3125   -3863.2663            0    10837.121    16.900194    19.906197    20.618198     6936.345    9922.9616    11708.066    10880.335    1125.1928   -1544.1126    613.23445    -2296.035 
 1675000     275.3592   -3835.2607   -3363.3045   -3835.2607            0    9840.4392    16.912397     19.92057    20.633085    6951.3811    9559.5826    10797.859    9163.8759   -455.32845    853.59081    975.20216   -2365.6929 
 1676000    282.40067    -3893.779   -3409.7539    -3893.779            0    7057.7397    16.908216    19.915646    20.627984    6946.2271    8364.9654    6123.3886    6684.8652   -1269.4024   -1558.6547   -1601.7694   -2694.7795 
 1677000    276.56052   -3815.0504   -3341.0351   -3815.0504            0    9574.4525    16.898511    19.904214    20.616145    6934.2731    9541.0707    10448.297    8733.9899   -94.592062    877.26828    -1506.345   -2372.7778 
 1678000     263.2444   -3795.6543   -3344.4624   -3795.6543            0    6619.9828    16.947206    19.961571    20.675552    6994.3917    6669.1523    7350.0216    5840.7747     1073.372   -398.00165   -169.05984   -2669.1843 
 1679000    264.69022   -3825.9622   -3372.2922   -3825.9622            0    7006.6611    16.956166    19.972124    20.686483     7005.491    6157.4315    7490.2802    7372.2718    478.25517   -81.440186    211.79048   -2656.4363 
 1680000    272.71033   -3857.8399   -3390.4238   -3857.8399            0    9971.5366     16.89755    19.903082    20.614971    6933.0892    9375.6999    10756.497    9782.4131   -333.43276   -408.00591   -1403.2698   -2382.1818 
 1681000    277.95817    -3820.864   -3344.4532    -3820.864            0    11617.746    16.840467    19.835845     20.54533    6863.0625    10822.058    12484.462    11546.719   -296.97236    670.16803    775.57169   -2181.6245 
 1682000    265.66805   -3783.8844   -3328.5384   -3783.8844            0    8810.3534    16.929545    19.940768    20.654005    6972.5468    7467.4874      9667.64    9295.9329    -620.8152     900.7046   -158.70657   -2432.6361 
 1683000    263.81096   -3818.3398   -3366.1769   -3818.3398            0     9204.777    16.861352    19.860445     20.57081    6888.6283    10117.572    8584.5062    8912.2529    1581.0881     1042.567    -462.2385    -2441.432 
 1684000    277.66762   -3879.4739   -3403.5611   -3879.4739            0    7561.6397     16.96149    19.978395    20.692978    7012.0919    9088.5835    6752.7914    6843.5444   -586.87026   -755.88383    -1267.285   -2630.2763 
 1685000    267.01849   -3824.7482   -3367.0876   -3824.7482            0    9906.6512    16.972761     19.99167    20.706728    7026.0792    9547.4656    8483.5881      11688.9    678.43354    1212.3049    378.86164   -2351.9713 
 1686000    269.85393   -3813.2262   -3350.7058   -3813.2262            0     9013.498    16.955102    19.970871    20.685185    7004.1722     8508.098    10321.901    8210.4951    865.07127   -153.77719    36.059114    -2429.989 
 1687000    266.53128   -3829.5064   -3372.6809   -3829.5064            0    8653.3524    16.935519    19.947804    20.661293    6979.9303    8839.2718     10865.48    6255.3049    37.199005    100.75991    896.60109   -2491.8118 
 1688000    279.52326   -3792.3108   -3313.2175   -3792.3108            0    12202.978    16.877455    19.879412    20.590455    6908.3834    12149.739    12990.567    11468.627   -935.74771    1349.2172   -1972.2964    -2083.747 
 1689000    263.56277   -3840.8089   -3389.0713   -3840.8089            0    9225.5753    16.860635    19.859601    20.569935    6887.7495    9801.5835    8483.4779    9391.6643    64.091057    58.040453    619.75044   -2462.3553 
 1690000    272.73187   -3803.6745   -3336.2214   -3803.6745            0    10078.864    16.921312     19.93107    20.643961    6962.3788    11824.514    7796.5208    10615.557   -1573.8091   -821.39064   -25.982388   -2312.8221 
 1691000     269.8847    -3842.359   -3379.7859    -3842.359            0    10403.897    16.896925    19.902346     20.61421    6932.3209    11478.718    9482.8106    10250.161    777.71965    511.47851   -1051.0126   -2327.9437 
 1692000    271.76489   -3833.4792   -3367.6835   -3833.4792            0    10750.871    16.895415    19.900567    20.612367    6930.4616    9512.1084    11447.078    11293.427    883.31495    47.764311   -892.16215   -2281.0535 
 1693000    267.04086   -3823.4891   -3365.7902   -3823.4891            0    9088.0479    16.903768    19.910406    20.622558    6940.7463    9386.9024    8729.3078    9147.9334   -1212.1457   -591.73236    1392.5873   -2445.8647 
 1694000    279.54802   -3832.7195   -3353.5838   -3832.7195            0    11117.613    16.885767    19.889203    20.600596    6918.5954    11031.498    10901.494    11419.847   -495.01109    -1588.636    -255.4066   -2231.8098 
 1695000    277.01493   -3841.2109   -3366.4168   -3841.2109            0     10190.49    16.911479    19.919488    20.631964    6950.2486    10100.883    8489.8736    11980.712   -407.65587   -1586.4826   -702.14887   -2333.4859 
 1696000     278.5112   -3832.9639   -3355.6052   -3832.9639            0    9261.2544    16.927888    19.938816    20.651984    6970.4999    8708.3551    8895.6428    10179.765   -1868.4276    443.40999   -580.28952   -2414.1284 
 1697000    273.07113   -3811.9181   -3343.8835   -3811.9181            0    9657.3616    16.921199    19.930938    20.643824    6962.2405    11098.077    9025.3706    8848.6376    609.77305    1423.5192   -1143.6577   -2363.3026 
 1698000    289.52038    -3853.744    -3357.516    -3853.744            0    10511.128    16.918308    19.927532    20.640296    6958.6723    8776.1612    12097.504     10659.72   -506.23319    351.90163   -887.58297   -2290.7931 
 1699000    270.98618   -3813.8873   -3349.4263   -3813.8873            0    12295.095    16.863138    19.862549    20.572989    6890.8179    12785.037    12200.587     11899.66   -372.25958    1600.9261   -646.65912   -2113.8244 
 1700000    278.63064   -3874.3191   -3396.7557   -3874.3191            0    11598.665    16.854066    19.851864    20.561921    6879.7027    11470.101    11484.527    11841.366    -521.3198   -335.34114    1514.5503   -2233.0222 
 1701000    276.38203   -3862.0567   -3388.3474   -3862.0567            0     8564.695    16.988225    20.009886    20.725595    7045.3023    10003.189    7594.1539    8096.7416   -221.85608   -1148.8983   -819.54901   -2508.3377 
 1702000    270.84589   -3797.1056    -3332.885   -3797.1056            0    10955.373    16.905639     19.91261    20.624841    6943.0516    11402.395    9615.0595    11848.663    2116.8522    723.81971   -1072.1025   -2223.5738 
 1703000    270.96674   -3833.2474   -3368.8197   -3833.2474            0    8298.1235    16.913504    19.921874    20.634436    6952.7462    7558.7233    9823.8817    7511.7656    1169.0238    -438.3207   -550.92988    -2527.401 
 1704000    270.16631   -3840.2993   -3377.2435   -3840.2993            0    10709.369    16.939838    19.952892    20.666563    6985.2728    10006.596     10125.78    11995.732   -245.62916   -674.95762    83.005926   -2286.2475 
 1705000    275.30272   -3843.6846   -3371.8252   -3843.6846            0    8704.1844    16.905529     19.91248    20.624706    6942.9153    9312.6173    6857.0597    9942.8763    270.19808    708.84517     718.3305   -2490.4804 
 1706000    268.49923    -3868.857   -3408.6585    -3868.857            0     7419.473    16.968585    19.986752    20.701634    7020.8953    6645.6597    7900.7945    7711.9649    883.26913    517.02649    624.73574   -2648.9597 
 1707000    263.91244   -3810.1289    -3357.792   -3810.1289            0    9236.3659    16.905002    19.911859    20.624063    6942.2664    9861.3073    8555.8495    9291.9409    613.37312    80.864492   -548.98445   -2422.6485 
 1708000    284.88399   -3832.4529   -3344.1715   -3832.4529            0    9432.2518    16.857311    19.855686     20.56588     6883.677    10482.083    8472.5317    9342.1402    857.96545   -1152.3811    1783.9386   -2397.2548 
 1709000     264.1393   -3824.8217    -3372.096   -3824.8217            0    10032.823    16.959578    19.976143    20.690646    7009.7208    10930.891    10520.315    8647.2629    837.49108    432.93996    619.16339   -2346.4447 
 1710000    269.46532    -3803.741   -3341.8866    -3803.741            0    8781.5716    17.010736      20.0364    20.753058    7073.3463    10094.815    7535.5846    8714.3156   -44.943578   -1134.7896    1091.5176   -2436.0016 
 1711000    267.73332   -3840.4485   -3381.5627   -3840.4485            0    9787.9655    16.891935    19.896468    20.608121    6926.1802    11065.965    8312.8183    9985.1135    641.48951   -433.11611      1422.57   -2392.8682 
 1712000    275.18698   -3859.4185   -3387.7574   -3859.4185            0    9317.5565    16.951994     19.96721    20.681393     7000.321    5886.3779     10821.82    11244.471   -55.936351   -274.29762    -180.6113   -2436.5048 
 1713000    273.29406   -3840.9114   -3372.4948   -3840.9114            0    9911.7389    16.944366    19.958225    20.672087    6990.8752    7740.7818    11886.913    10107.522   -2677.0992    47.006951    -1605.632    -2361.946 
 1714000    270.51851   -3868.0272   -3404.3677   -3868.0272            0    7855.3504    16.954478    19.970135    20.684423    7003.3982    9129.9124    6645.8199    7790.3189    545.27476    783.38351   -1311.1078   -2602.0428 
 1715000    251.56506   -3865.4246   -3434.2507   -3865.4246            0    9503.5106    16.905645    19.912617    20.624847    6943.0583    9085.1117    9526.3568    9899.0633   -52.567523   -145.52687    237.47602     -2471.95 
 1716000    261.22819    -3834.927   -3387.1909    -3834.927            0    8594.2018     16.94143    19.954767    20.668505    6987.2424       8341.7    7499.3657    9941.5398   -41.954038   -1075.5062     872.7949   -2511.4265 
 1717000    264.53104   -3851.9994   -3398.6022   -3851.9994            0     9948.598    16.945239    19.959253    20.673152    6991.9561    10743.227     8821.981    10280.586    54.546425   -191.81705   -1018.6194   -2384.1386 
 1718000    264.93074   -3779.9461   -3325.8639   -3779.9461            0    10596.032    16.970563    19.989082    20.704047    7023.3506    12709.996    9064.8118    10013.287   -361.23851     464.9072    750.08763   -2240.5297 
 1719000    266.80669   -3792.6285   -3335.3309   -3792.6285            0       7110.7    17.057467    20.091443     20.81007    7131.8011    9746.1625    6224.5263    5361.4111   -1515.6342   -98.365541    893.57699    -2595.747 
 1720000    261.23516   -3835.8705   -3388.1224   -3835.8705            0    10473.056    16.935707    19.948026    20.661523    6980.1638    13252.086     8800.304    9366.7782    732.04723   -409.41304    1600.8728   -2321.9807 
 1721000    274.63207   -3815.7206   -3345.0106   -3815.7206            0    9874.5198    16.951621    19.966771    20.680939    6999.8596    9594.8433     9661.152    10367.564   -354.48023   -669.80498   -396.31306   -2336.9626 
 1722000    266.79549   -3818.7393   -3361.4609   -3818.7393            0    9149.5411    16.966263    19.984016    20.698801    7018.0126     9737.055    7967.6522     9743.916   -761.20015   -3.0928978    163.49361   -2425.0007 
 1723000    267.93164   -3829.1504   -3369.9247   -3829.1504            0    9029.4371    16.916328    19.925199     20.63788    6956.2287    10753.217    8234.4161    8100.6782    1058.5499    578.56374     1853.238   -2453.8932 
 1724000    271.06501   -3806.8575   -3342.2614   -3806.8575            0    8215.4752    16.964942     19.98246    20.697189    7016.3734    8780.7197    8540.0634    7325.6425    1298.0457    713.16388   -333.28341   -2501.5996 
 1725000    267.26258   -3834.8476   -3376.7686   -3834.8476            0    9263.3354    16.957017    19.973127    20.687521     7006.546    9238.6022    8985.7742      9565.63    1231.1465   -391.60417   -581.50673   -2430.2106 
 1726000    275.24997   -3785.8077   -3314.0386   -3785.8077            0    9370.7391    16.822179    19.814304    20.523019    6840.7278    9933.3646    9430.3076    8748.5449   -834.75085   -76.614559   -592.04827   -2379.1669 
 1727000    274.79282   -3744.4098   -3273.4244   -3744.4098            0    9569.3539    16.933645    19.945597    20.659007    6977.6137    9739.2284    12162.205    6806.6278   -1158.6462   -2540.4367   -1186.3407   -2299.6341 
 1728000    281.85989   -3796.3231   -3313.2249   -3796.3231            0    10191.867    16.886973    19.890624    20.602068    6920.0787    9490.1161    11526.433    9559.0533    1236.3997    529.92389    833.38909   -2284.6387 
 1729000    280.12406   -3842.0618   -3361.9387   -3842.0618            0    7260.9432    16.990209    20.012222    20.728016     7047.771    6909.1422    7187.8428    7685.8445    228.67163    17.328176    430.99946   -2615.6262 
 1730000    281.58288   -3811.9876   -3329.3642   -3811.9876            0    6283.4937    17.016683    20.043404    20.760313    7080.7667    5454.9539    5129.8934     8265.634    17.262754     371.7471   -244.72918   -2680.4947 
 1731000    282.12977   -3797.1821   -3313.6214   -3797.1821            0    9759.8736    16.880576    19.883088    20.594263    6912.2168    10061.859    9090.0971    10127.664     1057.171     111.3874   -455.68359    -2329.752 
 1732000    275.74972   -3841.8763   -3369.2507   -3841.8763            0     7550.502     16.96769    19.985698    20.700542    7019.7841     8395.162     7981.996     6274.348    298.07663   -379.27271    805.95024   -2596.2579 
 1733000    256.81177    -3811.893   -3371.7264    -3811.893            0    9026.7271    16.948962    19.963638    20.677694    6996.5651    6089.7368     10564.39    10426.055    1406.7883   -286.03255   -90.784029   -2450.6597 
 1734000    270.36657   -3778.8073   -3315.4083   -3778.8073            0    9930.6198    16.883525    19.886562    20.597861    6915.8404    10420.264    8627.5673    10744.028   -170.48572   -1040.1931    32.065973   -2313.8016 
 1735000    272.73916   -3825.7019   -3358.2363   -3825.7019            0    10585.365    16.948518    19.963115    20.677152    6996.0152    11440.749    9169.0391    11146.308    1495.2497   -1582.8455    1037.4229   -2278.2146 
 1736000    278.56734   -3829.6958    -3352.241   -3829.6958            0    11917.157    16.974818    19.994093    20.709238    7028.6347     11701.99     12682.67     11366.81   -324.65011    1420.9578   -133.58671   -2130.6677 
 1737000    271.68503   -3835.1338   -3369.4749   -3835.1338            0    8048.0011    16.996873    20.020071    20.736145    7056.0665    7999.3574    7523.6141    8621.0317    623.24801   -933.92174   -478.12995   -2541.2914 
 1738000    271.43076   -3812.0192   -3346.7962   -3812.0192            0    11429.167    16.885636    19.889049    20.600437     6918.435    10886.996    12869.031    10531.473    449.85052    1536.2549   -409.66635   -2193.6129 
 1739000    279.00674   -3859.0264   -3380.8184   -3859.0264            0    8973.3476    16.958167    19.974481    20.688924    7007.9714    8501.0623    9263.5821    9155.3983   -682.72709    844.27167   -1611.4348   -2463.7057 
 1740000    271.79532   -3796.2391   -3330.3912   -3796.2391            0     10891.27    16.876691    19.878512    20.589523    6907.4455    11348.776    10916.632    10408.401    867.57444    297.08201    405.83198   -2233.2264 
 1741000    251.60145   -3831.4921   -3400.2558   -3831.4921            0    10937.354    16.967568    19.985553    20.700393    7019.6321    11545.577    9866.6623    11399.822   -287.89072     1113.551   -14.069219   -2280.5537 
 1742000    271.53954   -3845.8011   -3380.3916   -3845.8011            0    9387.4733    16.976539    19.996121    20.711338    7030.7731    10324.394    8532.3234    9305.7022   -26.324692    1267.2802   -88.887234   -2417.8319 
 1743000    285.98126   -3842.3387   -3352.1766   -3842.3387            0    10648.832    16.922976    19.933031    20.645992    6964.4341    13038.979    8860.8072    10046.708   -417.50563   -156.72532    1788.2059   -2270.5841 
 1744000    276.21215   -3827.5541   -3354.1359   -3827.5541            0    10188.444     16.89285    19.897546    20.609238    6927.3064    8989.7556    10600.067    10975.511     1377.639    47.128914   -12.226617   -2324.8212 
 1745000    287.03728   -3821.2224   -3329.2503   -3821.2224            0    8580.3933    16.968831    19.987042    20.701935    7021.2009    7662.6143    8608.6522    9469.9135    144.73676   -836.39457   -1114.9201   -2450.6437 
 1746000    269.98402    -3798.159   -3335.4157    -3798.159            0    11281.266    16.892338    19.896943    20.608613    6926.6758    12790.322    11134.826    9918.6504   -1223.7031   -744.08007    159.28902   -2195.7995 
 1747000    266.35414   -3826.5012   -3369.9794   -3826.5012            0    8026.6022    16.919577    19.929027    20.641844    6960.2378    7375.8071    9154.5469    7549.4525   -1582.8177    666.31592     -481.529   -2555.2156 
 1748000    288.81442   -3819.8145   -3324.7965   -3819.8145            0    10870.624    16.847665    19.844324    20.554112     6871.867    11301.682    9913.1287    11397.062    867.54351    493.89661    218.93025    -2235.352 
 1749000    252.36105   -3821.1447   -3388.6065   -3821.1447            0    9318.3984     16.95734    19.973507    20.687915    7006.9459    10273.207    10052.529    7629.4588   -365.11499   -982.18723   -561.78186   -2436.3676 
 1750000    283.98512   -3800.8369   -3314.0962   -3800.8369            0    9775.1438    16.924689    19.935048    20.648081    6966.5488    9002.7558    10931.805    9390.8706    611.20104    230.24587    301.55869   -2320.9419 
Loop time of 338.774 on 64 procs for 250000 steps with 864 atoms

Performance: 127.519 ns/day, 0.188 hours/ns, 737.955 timesteps/s
194.6% CPU use with 32 MPI tasks x 2 OpenMP threads

MPI task timing breakdown:
Section |  min time  |  avg time  |  max time  |%varavg| %total
---------------------------------------------------------------
Pair    | 27.588     | 33.657     | 38.565     |  58.4 |  9.93
Bond    | 0.77372    | 1.1183     | 1.578      |  14.7 |  0.33
Kspace  | 146.09     | 153.27     | 161.01     |  28.7 | 45.24
Neigh   | 3.911      | 4.2525     | 4.5737     |   9.4 |  1.26
Comm    | 67.401     | 70.941     | 76.015     |  24.0 | 20.94
Output  | 0.53519    | 0.5355     | 0.53734    |   0.1 |  0.16
Modify  | 63.941     | 66.551     | 68.673     |  15.0 | 19.64
Other   |            | 8.445      |            |       |  2.49

Nlocal:        27.0000 ave          33 max          21 min
Histogram: 1 0 5 3 7 6 5 2 1 2
Nghost:        2637.38 ave        2671 max        2609 min
Histogram: 3 3 3 3 5 4 5 3 2 1
Neighs:        8842.75 ave       11461 max        6735 min
Histogram: 2 2 6 3 8 4 3 0 3 1

Total # of neighbors = 282968
Ave neighs/atom = 327.50926
Ave special neighs/atom = 2.0000000
Neighbor list builds = 15219
Dangerous builds = 1

unfix		3
unfix		2
unfix		1

write_data	data.final.${pid}
write_data	data.final.1
System init for write_data ...
PPPM initialization ...
  extracting TIP4P info from pair style
  using 12-bit tables for long-range coulomb (../kspace.cpp:340)
  G vector (1/distance) = 0.37450618
  grid = 24 24 24
  stencil order = 5
  estimated absolute RMS force accuracy = 0.0031332091
  estimated relative force accuracy = 9.4355662e-06
  using double precision FFTW3
  3d grid and FFT values/proc = 3549 432
Last active /omp style is kspace_style pppm/tip4p/omp
WARNING: Not all mixed pair coeffs generated from mixing. Use write_data with 'pair ij' option to store all pair coeffs. (../write_data.cpp:312)

write_restart   restart.lmp.${pid}
write_restart   restart.lmp.1
System init for write_restart ...
PPPM initialization ...
  extracting TIP4P info from pair style
  using 12-bit tables for long-range coulomb (../kspace.cpp:340)
  G vector (1/distance) = 0.37450618
  grid = 24 24 24
  stencil order = 5
  estimated absolute RMS force accuracy = 0.0031332091
  estimated relative force accuracy = 9.4355662e-06
  using double precision FFTW3
  3d grid and FFT values/proc = 3549 432
Last active /omp style is kspace_style pppm/tip4p/omp
Total wall time: 0:05:38
