LAMMPS (30 Jul 2021)
Processor partition = 0
  using 4 OpenMP thread(s) per MPI task
using multi-threaded neighbor list subroutines
variable        pid world 0 1
variable        phase world IceII IceIh

shell cd ${phase}
shell cd IceII
include Restart.lmp
echo both
log log.lammps
#include		in.partitions
include		in.temp
variable        temperature equal 75.10
variable	tempDamp equal 100.0
include		in.pressure
variable        pressure equal 2025.7
variable        pressureDamp equal 1000.0 # This is 1 ps
include		in.seed
variable        seed equal 745823

units		real
atom_style	full
box tilt large
read_restart	restart.lmp.${pid}
read_restart	restart.lmp.0
Reading restart file ...
  restart file = 30 Jul 2021, LAMMPS = 30 Jul 2021
  restoring atom style full from restart
  triclinic box = (-10.609332 -9.1431815 0.095866042) to (12.589332 12.133179 21.764133) with tilt (-9.1252539 1.8486381 2.8889863)
  2 by 2 by 4 MPI processor grid
  restoring pair style lj/cut/tip4p/long/omp from restart
  restoring bond style harmonic/omp from restart
  restoring angle style harmonic/omp from restart
  1296 atoms
  864 bonds
  432 angles
Finding 1-2 1-3 1-4 neighbors ...
  special bond factors lj:    0        0        0       
  special bond factors coul:  0        0        0       
     2 = max # of 1-2 neighbors
     1 = max # of 1-3 neighbors
     1 = max # of 1-4 neighbors
     2 = max # of special neighbors
  special bonds CPU = 0.001 seconds
  read_restart CPU = 0.006 seconds
include 	in.setup
variable	out_freq equal 1000
variable	out_freq2 equal 10000
variable	out_freq3 equal 1000

timestep	2.0

neigh_modify    delay 7 every 1

include		in.tip4p
# This is TIP4P/Ice

# create groups ###
group ox type 2
432 atoms in group ox
group hy type 1
864 atoms in group hy

# set charges - beside manually ###
set group ox charge -1.1794
Setting atom values ...
  432 settings made for charge
set group hy charge 0.5897
Setting atom values ...
  864 settings made for charge

# ### TIP3P Potential Parameters ###
pair_style lj/cut/tip4p/long/omp 2 1 1 1 0.1577 8.5
pair_coeff 1 1*2 0.000 0.000
pair_coeff 2 2 0.21084 3.1668
bond_style  harmonic
bond_coeff  1 450 0.9572
angle_style harmonic
angle_coeff 1 55 104.52
kspace_style pppm/tip4p/omp 1.0e-5
pair_modify tail yes

thermo          ${out_freq}
thermo          1000
thermo_style    custom step temp pe etotal epair emol press lx ly lz vol pxx pyy pzz pxy pxz pyz enthalpy

restart 	${out_freq3} restart.lmp.${pid} restart2.lmp.${pid}
restart 	1000 restart.lmp.${pid} restart2.lmp.${pid}
restart 	1000 restart.lmp.0 restart2.lmp.${pid}
restart 	1000 restart.lmp.0 restart2.lmp.0


include         in.dump
dump            myDump all atom ${out_freq2} dump.water.${pid}
dump            myDump all atom 10000 dump.water.${pid}
dump            myDump all atom 10000 dump.water.0
dump            myDump2 all dcd ${out_freq2} dump.dcd
dump            myDump2 all dcd 10000 dump.dcd
dump_modify     myDump append yes
dump_modify     myDump2 append yes


variable natoms 	equal  "count(all)"                        # NUMBER ATOMS
variable H      	equal  "enthalpy/v_natoms"                 # ENTHALPY-per-atom
variable Vol      	equal  "vol/v_natoms"                 # volume-per-atom
fix AVG all 		ave/time ${out_freq} 1 ${out_freq} v_Vol v_H file vol_enthalpy.dat
fix AVG all 		ave/time 1000 1 ${out_freq} v_Vol v_H file vol_enthalpy.dat
fix AVG all 		ave/time 1000 1 1000 v_Vol v_H file vol_enthalpy.dat


timer           timeout 10:00:00 every 1000
New timer settings: style=normal  mode=nosync  timeout=10:00:00

fix 		1 all shake 1e-6 200 0 b 1 a 1
Finding SHAKE clusters ...
       0 = # of size 2 clusters
       0 = # of size 3 clusters
       0 = # of size 4 clusters
     432 = # of frozen angles
  find clusters CPU = 0.000 seconds
fix             2 all nph tri ${pressure} ${pressure} ${pressureDamp}
fix             2 all nph tri 2025.7 ${pressure} ${pressureDamp}
fix             2 all nph tri 2025.7 2025.7 ${pressureDamp}
fix             2 all nph tri 2025.7 2025.7 1000
fix             3 all temp/csvr ${temperature} ${temperature} ${tempDamp} ${seed}
fix             3 all temp/csvr 75.1 ${temperature} ${tempDamp} ${seed}
fix             3 all temp/csvr 75.1 75.1 ${tempDamp} ${seed}
fix             3 all temp/csvr 75.1 75.1 100 ${seed}
fix             3 all temp/csvr 75.1 75.1 100 745823


run             250000
PPPM initialization ...
  extracting TIP4P info from pair style
  using 12-bit tables for long-range coulomb (../kspace.cpp:340)
  G vector (1/distance) = 0.36765479
  grid = 27 40 32
  stencil order = 5
  estimated absolute RMS force accuracy = 0.0044722504
  estimated relative force accuracy = 1.3468049e-05
  using double precision FFTW3
  3d grid and FFT values/proc = 10353 2240
Last active /omp style is kspace_style pppm/tip4p/omp
Neighbor list info ...
  update every 1 steps, delay 7 steps, check yes
  max neighbors/atom: 2000, page size: 100000
  master list distance cutoff = 10.8154
  ghost atom cutoff = 10.8154
  binsize = 5.4077, bins = 7 5 5
  1 neighbor lists, perpetual/occasional/extra = 1 0 0
  (1) pair lj/cut/tip4p/long/omp, perpetual
      attributes: half, newton on, omp
      pair build: half/bin/newton/tri/omp
      stencil: half/bin/3d/tri
      bin: standard
Setting up Verlet run ...
  Unit style    : real
  Current step  : 33000000
  Time step     : 2
  Walltime left : 9:59:59.97
Per MPI rank memory allocation (min/avg/max) = 12.66 | 12.67 | 12.68 Mbytes
Step Temp PotEng TotEng E_pair E_mol Press Lx Ly Lz Volume Pxx Pyy Pzz Pxy Pxz Pyz Enthalpy 
33000000    80.023869   -6814.4446   -6608.5881   -6814.4446            0    2776.6462    23.198664    21.276361    21.668267    10695.091     2813.211    2816.4469    2700.2808    182.27977   -280.25159   -292.06159   -6175.4953 
33001000    76.965013   -6832.4283   -6634.4405   -6832.4283            0    1501.6789    23.165055    21.359339    21.704724    10739.286    1882.9951    1343.4867    1278.5549    -572.7824    561.55956    260.99041   -6399.2454 
33002000    74.675566   -6825.3647   -6633.2664   -6825.3647            0     1958.734    23.199323    21.324699    21.679247    10725.126    1657.3222    2343.1903    1875.6896    498.14166    111.75874   -390.77809   -6326.8911 
33003000    74.595143   -6827.6922   -6635.8007   -6827.6922            0    1763.8965    23.204548    21.354006    21.624606     10715.21    2210.5291    1463.3212    1617.8393   -426.86972    21.780852   -370.64432    -6360.156 
33004000    71.640797   -6830.8339   -6646.5423   -6830.8339            0    1981.6175    23.141226    21.356017    21.686438    10717.534    2287.4845    2021.8991    1635.4689    679.37679   -927.92777    560.33611   -6336.8071 
33005000    77.543771   -6835.7497    -6636.273   -6835.7497            0    1922.2329    23.281181    21.226106    21.705406    10726.135    1801.6136    2738.2648    1226.8202     -77.1753   -411.24804    211.56995   -6335.5788 
33006000    74.152856    -6820.082   -6629.3283    -6820.082            0    2101.8199    23.157359    21.380818    21.667183    10727.927     2353.922    1617.0693    2334.4684    712.18038    357.38765    420.30577   -6300.4864 
33007000    72.187718   -6826.1036   -6640.4051   -6826.1036            0    1772.8408     23.29952    21.234074    21.693007    10732.479    1049.9755    2221.2735    2047.2735    120.31279     268.0415    55.772868   -6362.9162 
33008000    76.279109    -6828.393   -6632.1697    -6828.393            0    1614.6125    23.141374    21.393869    21.702412    10744.507    1587.1072    2051.8772    1204.8532    61.374978    631.37586   -523.56261   -6379.1637 
33009000    81.197689   -6832.0041    -6623.128   -6832.0041            0    2135.6634    23.180776     21.25959     21.73055    10709.115     2513.988     2588.248    1304.7543   -1126.5975    438.43289   -424.69211    -6289.577 
33010000    77.710894   -6829.2305    -6629.324   -6829.2305            0    3097.3412    23.151804    21.313458    21.638414    10677.367    3357.9372    2970.3044    2963.7818   -221.82759    442.71329   -235.98114   -6147.0108 
33011000    74.487172   -6826.7056   -6635.0919   -6826.7056            0    2246.6152    23.206362    21.332956    21.626683    10706.512    2314.6903    1684.6571    2740.4981    673.29273   -66.499577    150.75485   -6284.2975 
33012000    78.352606   -6823.5963    -6622.039   -6823.5963            0    1576.5908    23.250081    21.356235    21.632243    10741.148    2429.9485    943.68318    1356.1406   -183.97683   -719.80238   -63.952086   -6375.0682 
33013000    75.351005   -6819.8866   -6626.0508   -6819.8866            0    1621.1352    23.265972    21.360502    21.617168    10743.145    961.54095    2278.0916     1623.773    668.43198    352.72621     41.24396   -6372.0549 
33014000    76.106559   -6840.7573   -6644.9778   -6840.7573            0    1508.5534    23.247573    21.342829    21.639032    10736.616    1389.1977    1079.5063    2056.9564    608.75424   -97.676786    322.35047   -6408.7647 
33015000    76.646762   -6830.6632   -6633.4941   -6830.6632            0    2007.2373    23.092349    21.418732    21.686518    10726.343    2921.4368    1449.2132    1651.0618    579.88621   -178.09192   -203.32872   -6319.4965 
33016000     76.89347   -6834.8914   -6637.0876   -6834.8914            0    1498.0578    23.281629     21.21979    21.750066    10745.213     840.9729    2556.7657    1096.4347   -309.92056    617.69346     16.26131   -6402.3301 
33017000     76.32477    -6830.678   -6634.3371    -6830.678            0    2333.9801    23.109783    21.369757    21.675217    10704.316    2869.6197    1801.3982    2330.9223   -82.427427    568.11161   -245.68791   -6269.9761 
33018000     75.11911    -6837.108   -6643.8686    -6837.108            0    2098.1941    23.150481    21.324104    21.670981    10698.167    2620.4457    2530.6475    1143.4892   -179.76348   -537.12767   -548.96299   -6316.5046 
33019000    75.246971   -6828.3329   -6634.7647   -6828.3329            0    2695.1804    23.289465      21.2387    21.618829    10693.494    2489.4319    3017.7764     2578.333    465.65825   -380.24905    -416.8123   -6214.4415 
33020000    74.062645   -6827.8465   -6637.3249   -6827.8465            0    2048.9797    23.090056    21.459488    21.625091    10715.249     2420.784    1215.7473    2510.4077    31.419823    614.48751    7.8043438   -6317.1289 
33021000    72.052732   -6829.3879   -6644.0366   -6829.3879            0    1190.7186      23.3631    21.161753    21.733421    10745.093    707.09621    2499.3371    365.72253    403.93464    305.43769     229.5605   -6457.4437 
33022000    73.876339   -6822.3641   -6632.3217   -6822.3641            0    1917.1681    23.140646     21.41245    21.652211    10728.626    2464.0066    1327.8055    1959.6924     731.8287    161.84373    241.74105   -6332.3501 
33023000    75.597947   -6835.2985   -6640.8274   -6835.2985            0     1753.796    23.229132    21.344064     21.65465    10736.464    1487.9588    1561.7851    2211.6442    256.35228     395.7662    52.160286   -6366.2175 
33024000     79.36458   -6819.8346   -6615.6741   -6819.8346            0    1653.8287    23.296824     21.26769    21.689505    10746.491    1522.0407    2087.6089    1351.8366   -518.99665    208.52384    131.19578   -6356.4752 
33025000    78.320744   -6822.5178   -6621.0425   -6822.5178            0    3102.5101    23.077178    21.451008    21.588411    10686.884    3711.9972    1959.4446    3636.0884   -26.772038    217.68083   -49.352438   -6137.4938 
33026000    75.637952   -6818.2562   -6623.6822   -6818.2562            0     2509.547    23.292344      21.1599    21.731787    10710.808    2243.6956    3417.9846    1866.9607     471.5007   -1000.5488   -28.143063   -6231.6755 
33027000    75.993454   -6824.8215    -6629.333   -6824.8215            0    2089.4531    23.112947    21.382027    21.698074    10723.224    2669.8832    1542.8199    2055.6563    552.48992    210.13751   -42.850449   -6302.5692 
33028000    72.210741   -6828.8132   -6643.0554   -6828.8132            0    1887.8047    23.165329    21.313418     21.72401    10725.846    1901.9836    2084.5841    1676.8464   -120.77979   -56.720155   -269.83922   -6347.7547 
33029000    73.418084   -6830.3728   -6641.5093   -6830.3728            0    1857.6673    23.315584    21.225031    21.678162    10727.959    798.59611    2727.5569    2046.8488    34.361234    833.02272   -771.42444   -6350.8656 
33030000    78.782141   -6825.7002    -6623.038   -6825.7002            0     1700.754     23.13203    21.467898    21.604865    10728.891    2394.5974    1079.3258    1628.3387    346.22655   -660.23128   -664.29422   -6356.9212 
33031000    76.091026    -6821.016   -6625.2765    -6821.016            0     2369.485    23.320762    21.168185    21.683079     10704.03    1834.4735    3229.1685    2044.8128   -58.021587    377.51099    144.48842   -6255.3826 
33032000    78.552601   -6829.8445   -6627.7727   -6829.8445            0     1707.481    23.136533    21.421047    21.642404    10726.165    1877.4645    1404.7051    1840.2736    1088.6974    233.55801    61.382759   -6360.6713 
33033000    74.839446   -6826.1177   -6633.5978   -6826.1177            0    1840.2862    23.231286    21.292259    21.680201    10724.037    1556.7509    1555.6769    2408.4307    -380.2227    723.17638    740.49769   -6345.7787 
33034000    75.787859   -6832.3687   -6637.4091   -6832.3687            0    2193.5848    23.229927    21.295972    21.654218    10712.426    2205.7211    2025.4066    2349.6266   -330.34467    20.385037    332.13144   -6294.7059 
33035000    72.966624   -6830.5377   -6642.8355   -6830.5377            0    2118.1995    23.153714    21.400115    21.626508    10715.765    2571.0492     1638.908    2144.6412    801.85328   -763.22238   -508.40216   -6311.8066 
33036000    72.253701   -6826.3344   -6640.4662   -6826.3344            0    1754.2978    23.330688    21.234879     21.66238     10732.07     1120.471    2609.6984    1532.7239   -112.98356   -61.864115   -248.36677   -6365.8901 
33037000    75.932064   -6828.9481   -6633.6175   -6828.9481            0    2209.2523    23.175151    21.394356     21.62124    10720.188    2050.6467    2504.4965    2072.6137    155.46661    481.56428   -467.80425   -6288.2165 
33038000    73.365937   -6824.5804    -6635.851   -6824.5804            0    1736.3075    23.232072    21.238287    21.765918    10739.509    1732.3046    1943.3842    1533.2338    98.493613    466.27628    140.16861   -6363.9024 
33039000     77.02065   -6829.9437   -6631.8128   -6829.9437            0    2674.1171    23.144064     21.30745    21.673349    10688.017    2659.9711    3042.8469    2319.5332   -806.49053     539.6355   -253.11606   -6214.9881 
33040000      74.2664   -6828.9451   -6637.8993   -6828.9451            0     2032.375    23.225636    21.289276    21.658188    10709.042    2513.7798    2068.6569    1514.6883   -775.42643    552.94494   -385.01632   -6320.4822 
33041000    73.211638   -6829.1986   -6640.8661   -6829.1986            0    2458.2028    23.184152    21.376108     21.59007    10699.757     2579.648    2031.2009    2763.7596   -1.6932854   -2.7331688   -647.76514   -6257.2759 
33042000    75.916861   -6833.3632   -6638.0717   -6833.3632            0     1119.132     23.29898     21.35218    21.636464    10763.795     654.6829    1034.3722    1668.3408     -189.626    329.65074    105.26693   -6462.3916 
33043000    75.726583   -6825.7267   -6630.9247   -6825.7267            0    2525.5049    23.180371    21.362904     21.60957     10701.06    2573.6216    2527.3558    2475.5373    1019.9179   -422.98963   -76.537484   -6236.7844 
33044000    78.829334   -6833.2525   -6630.4688   -6833.2525            0     2506.387    23.188721    21.323803    21.616094    10688.547    2821.8951    2375.1459    2322.1199     212.3552   -164.67171    417.05363   -6239.7695 
33045000    71.958473   -6839.3399   -6654.2311   -6839.3399            0    1423.0049    23.209458    21.303567    21.706162    10732.487    1626.1219    1513.0288     1129.864   -410.05106   -53.146857    82.514674   -6431.4991 
33046000    74.608375   -6823.4235    -6631.498   -6823.4235            0    1630.4425    23.181508    21.373238    21.666607    10735.022    1515.9134    1472.9808    1902.4333   -634.07504    880.50657    101.66252   -6376.2371 
33047000    76.793991   -6836.8899   -6639.3421   -6836.8899            0    1983.1392    23.266656    21.310263    21.614684    10716.961    1999.4937    1687.1241    2262.7999   -569.68186    780.82691   -273.16374   -6329.3856 
33048000     79.06315   -6832.7421   -6629.3569   -6832.7421            0    1918.5467    23.210302    21.411395    21.568865     10718.97    2044.9288    1830.2853     1880.426   -76.736227   -630.27881   -544.79158   -6329.4398 
33049000    74.703952   -6820.7706   -6628.5992   -6820.7706            0    2182.2057    23.247937    21.303128    21.638075    10716.339    2166.9215    2507.9662    1871.7295    653.30058   -170.56345    26.326856   -6287.5493 
33050000    75.239084   -6825.8033   -6632.2553   -6825.8033            0    1852.0216    23.231077    21.383766    21.564465    10712.535    1460.5607    1594.6989     2500.805    1360.3425    707.67083    821.83311   -6342.9116 
33051000    78.657994   -6829.4328   -6627.0899   -6829.4328            0    1786.5103    23.262155    21.321393    21.604202    10715.285      1243.52    2377.0416    1738.9693    676.89505   -34.554947   -571.77586   -6347.9094 
33052000    73.349084   -6830.0981    -6641.412   -6830.0981            0    2261.5042    23.269669    21.292953    21.606021    10705.351    2606.5829    1875.0108    2302.9189    137.65202    53.263137    218.62032   -6288.3312 
33053000    75.851638   -6834.0728   -6638.9491   -6834.0728            0    2123.1074    23.102782    21.509543    21.569696    10718.635    2454.3404    1095.6761    2819.3057    -687.9232    119.74183    60.526849   -6307.0643 
33054000    75.125847   -6823.1133   -6629.8566   -6823.1133            0    1958.6451    23.302397    21.280221    21.645868    10733.756    1686.5297      2456.64    1732.7657   -209.55829   -357.37365   -793.61237   -6323.2487 
33055000    75.958217   -6827.1813   -6631.7834   -6827.1813            0    1925.2824    23.198531    21.363636    21.632837    10721.341    1798.6008    1555.9682    2421.2781    286.98011   -210.68263    485.56864   -6330.7467 
33056000    78.429389   -6825.6768   -6623.9219   -6825.6768            0    1599.8356    23.224717     21.36769    21.622415    10730.308    1655.7396    1442.3923     1701.375    545.40017    58.804322    761.31317   -6373.5628 
33057000    73.167818   -6821.8076   -6633.5878   -6821.8076            0    1909.8237    23.315876    21.274443    21.612548    10720.521    1729.5061    1910.9478    2089.0172    561.12202    -402.8315    267.05276   -6334.9911 
33058000    73.856627   -6825.9688   -6635.9772   -6825.9688            0    2211.7715    23.119514    21.455134    21.583268    10705.997    2567.7651    1904.4227    2163.1267   -712.23571    576.09675   -177.12926     -6290.64 
33059000     74.05076   -6824.3805   -6633.8894   -6824.3805            0    1975.3935    23.297214    21.292905    21.631848    10730.811    1209.0763    2227.9585    2489.1457    126.51487    42.443229     25.81031   -6324.7445 
33060000    75.428862    -6841.238   -6647.2019    -6841.238            0    1469.9345     23.17298    21.423567     21.62438    10735.378    1376.5983    1158.2903     1874.915   -39.610002   -52.365869   -169.25061   -6417.0623 
33061000    74.542485   -6828.7077   -6636.9517   -6828.7077            0    2299.7064     23.18612    21.335755    21.649103    10709.668    2470.4096    1945.8211    2482.8884   -675.77079   -24.487817   -172.98091   -6277.7617 
33062000    79.001845   -6832.1997   -6628.9722   -6832.1997            0     2362.739     23.20618    21.257779    21.701111    10705.415    2206.2428     2834.236     2047.738    102.84184   -28.262843    203.23808   -6260.0837 
33063000    76.652791   -6817.5789   -6620.3943   -6817.5789            0    1614.2774    23.041296    21.457846    21.720288     10738.87    2569.0954     1136.411    1137.3258    -80.07185     471.3373    885.40904   -6367.5736 
33064000    75.195821    -6829.839   -6636.4023    -6829.839            0    2521.5903    23.275992    21.218808    21.681038    10708.022    2279.1669    3006.1379     2279.466    -146.5074   -10.305134    -464.2656   -6242.6169 
33065000    71.403771   -6833.7463   -6650.0644   -6833.7463            0    1713.9398    23.114132    21.401252    21.723158    10745.824    2313.0878    1794.7359    1033.9957   -218.24912   -161.43056    -459.0989   -6381.4612 
33066000    78.983084   -6829.4903   -6626.3111   -6829.4903            0    1590.5078    23.190738     21.33411    21.714873    10743.515    2414.3799    1565.6541    791.48943   -116.12311   -562.79335    -1021.761   -6377.1053 
33067000    73.945202   -6838.1168   -6647.8973   -6838.1168            0    1848.8619    23.228075    21.289573    21.663375    10712.882    1932.7072    1870.8787    1742.9999      216.709   -302.90591    188.70533   -6359.0378 
33068000    71.207784     -6824.64   -6641.4623     -6824.64            0    2077.4002    23.121563     21.37121     21.64629    10696.206     2705.625    1653.9535    1872.6222    454.52119   -264.48512    152.53759    -6317.402 
33069000    70.568052   -6830.6182   -6649.0862   -6830.6182            0    1530.0972    23.315556    21.309957     21.57275    10718.497     724.8374    1857.1623    2008.2919   -206.45683    85.398947    531.09309   -6409.9041 
33070000    73.570042   -6826.1468   -6636.8923   -6826.1468            0    2157.0873     23.24809    21.433408    21.508916    10717.587    2173.5244    1773.7554    2523.9821   -154.74545   -290.96367    72.254619   -6299.7287 
33071000    75.350955   -6827.2763   -6633.4406   -6827.2763            0    2271.7332    23.258335    21.390145    21.538281    10715.277    2341.9134    1978.9253    2494.3608   -81.357833   -459.42652   -115.12691   -6278.4338 
33072000    75.413431   -6812.4431   -6618.4467   -6812.4431            0    1513.3019    23.287431    21.294161    21.657291    10739.554    1765.2183    1324.8113     1449.876   -203.21679   -244.97365   -238.12981   -6381.4252 
33073000     73.30506   -6831.0619   -6642.4891   -6831.0619            0    2008.8757     23.16177    21.384286    21.610676    10703.723    2168.1651    1569.6314    2288.8307    722.07314   -283.66981    423.00579   -6328.8979 
33074000    75.026247   -6828.4869   -6635.4864   -6828.4869            0    2943.0756    23.247855    21.229034    21.610203    10665.273    2625.8665    3057.2281    3146.1321    840.56288   -326.80475    308.93716   -6177.7144 
33075000     76.54658   -6831.5905   -6634.6791   -6831.5905            0    2651.0339    23.120028    21.403693    21.618522    10698.012    2353.6143    2621.5566    2977.9309    186.35195   -133.09172    90.092402    -6221.066 
33076000    74.544723   -6828.2011   -6636.4393   -6828.2011            0    1479.6774    23.256004      21.3429    21.670768    10756.298    1015.4446    1767.6369    1655.9508    7.6065213    98.528492    -614.2853    -6404.323 
33077000    75.451306   -6837.0412   -6642.9473   -6837.0412            0    1909.8994    23.260142    21.249266     21.71937    10735.036    2544.5644    2016.4938      1168.64    185.46386   -168.87457   -39.557354   -6343.9344 
33078000    77.337849   -6821.1831   -6622.2362   -6821.1831            0     2681.838    23.062032    21.398189    21.663109    10690.435    2839.0607    2607.6834    2598.7698    749.29897    -91.31485    57.758534   -6204.1135 
33079000    73.694224   -6830.4498   -6640.8759   -6830.4498            0    2286.2281    23.211053    21.280105     21.67662    10706.812    2550.9684    2499.1013    1808.6147    186.30792   -765.93096     140.5672   -6283.8863 
33080000    77.495822   -6824.0453   -6624.6921   -6824.0453            0    1281.8449    23.151708    21.425832    21.686215     10757.33    1192.7909    1085.8499     1566.894    388.41466   -637.27404    292.69945   -6423.5903 
33081000    74.107243   -6831.6312   -6640.9949   -6831.6312            0    2407.3871    23.160401     21.34526    21.640939    10698.518    2949.3677    2053.7937         2219   -208.24881   -536.98901    303.85974   -6265.3777 
33082000    74.157512   -6829.9619   -6639.1962   -6829.9619            0    2404.8994    23.209167    21.312896    21.641248    10704.942     1712.111    3042.2661    2460.3212    -101.5704    289.79356   -94.549529   -6263.7418 
33083000    74.501143   -6829.9977   -6638.3481   -6829.9977            0    1192.9925    23.092498     21.43611    21.706507     10745.01     1450.407     699.1051    1429.4654   -356.77394    728.82417    158.97502   -6451.4003 
33084000    78.418428   -6821.2954   -6619.5688   -6821.2954            0     3194.111    23.196607    21.229674    21.668038    10670.564    3149.8662     3310.527    3121.9398    86.994211   -207.80735    333.36496   -6122.5037 
33085000    77.413487   -6836.2119   -6637.0704   -6836.2119            0    2394.5796     23.12039    21.362209    21.682975    10709.278    2370.5263    2391.7852    2421.4273    602.56492   -2.8855325    878.35114   -6263.0758 
33086000    75.384277   -6835.4927   -6641.5712   -6835.4927            0    1102.6108    23.294318    21.383627    21.607221    10762.924    1123.7462    1145.9272     1038.159   -571.44805   -882.86622   -216.07512   -6468.4986 
33087000    72.227596    -6831.662   -6645.8609    -6831.662            0    2245.8127    23.223887    21.370025      21.5774    10708.757    2377.7853    1492.5345    2867.1183   -728.30269   -698.87978    295.47576   -6295.1183 
33088000    76.313069   -6828.8987    -6632.588   -6828.8987            0    2184.6138    23.205799    21.400059    21.545128    10699.428    2213.1871    1693.1861    2647.4681   -817.32905   -36.095357    130.04693   -6291.7004 
33089000    74.160115   -6838.3784    -6647.606   -6838.3784            0    1921.0508    23.281196    21.262235    21.620667    10702.452    996.50689    3160.6487    1605.9968    491.31326    332.67624    32.599106   -6347.7602 
33090000    75.126896   -6834.4266   -6641.1673   -6834.4266            0    1309.8534    23.221638    21.392472     21.60861    10734.471    785.37416    1326.3995    1817.7867    833.76217    86.791332    1076.5954   -6436.1081 
33091000    76.494969   -6842.5111   -6645.7325   -6842.5111            0    2331.6518    23.235527    21.335192    21.561756    10688.905    1879.9585    2454.4255    2660.5715   -342.48169    423.93121   -378.73098   -6282.2589 
33092000    76.762891   -6831.7579     -6634.29   -6831.7579            0    2401.4201    23.290235    21.295803    21.572748    10699.744    1110.4656    3112.7998    2980.9949     158.0293    685.15017   -343.40064   -6259.5609 
33093000    73.658186   -6825.3699   -6635.8887   -6825.3699            0    2499.6353    23.084064    21.505951    21.534639    10690.759    2897.1152     1530.748    3071.0427   -261.48016   -126.73425   -361.27793   -6246.1612 
33094000    75.293423   -6825.4189   -6631.7311   -6825.4189            0    1885.4917     23.27074    21.219988    21.708141    10719.584    1551.9463    2757.4055    1347.1231    385.15381   -213.03659     9.037039   -6336.9644 
33095000    72.571353   -6834.6908   -6648.0055   -6834.6908            0    1681.0553    23.163447    21.341909    21.691988    10723.481    1973.7671    1752.7765    1316.6221   -293.19106    315.62277     220.6775   -6385.1036 
33096000    77.672452   -6826.4952   -6626.6876   -6826.4952            0    2058.1815    23.219425    21.345611    21.645695    10728.317    1623.5852    1943.2742    2607.6851     343.4432   -79.625954    479.35385   -6304.6614 
33097000    74.430829   -6829.4156   -6637.9468   -6829.4156            0    2254.2764     23.27909    21.275487    21.639301    10717.383    1984.2826    2817.3132    1961.2334    446.83995   -377.95265   -803.07142   -6285.5988 
33098000    71.763273    -6831.722   -6647.1153    -6831.722            0    1983.6989     23.17546     21.42008    21.589824    10717.625    1442.4313    2197.7945    2310.8708    354.75416    122.18281   -17.341358   -6337.0522 
33099000    77.745909   -6833.9857   -6633.9891   -6833.9857            0     1775.116    23.311965    21.271297    21.643359    10732.417    1936.1775    2025.6761    1363.4943    88.583922   -387.84468   -596.58376   -6356.1456 
33100000    72.110896   -6827.0742   -6641.5734   -6827.0742            0    2734.9065    23.153456    21.336232      21.6106    10675.798    1903.4047    3379.7476    2921.5672    533.83618    856.29206    1030.8286   -6215.7605 
33101000    73.142131   -6833.8582   -6645.7045   -6833.8582            0    2125.4664    23.248613    21.310038    21.616478    10709.427    2137.7055    2031.7602    2206.9334    146.27872   -443.37895    169.89371   -6313.7364 
33102000    75.761007   -6831.7953   -6636.9047   -6831.7953            0    2326.8644    23.297625    21.327577    21.543445    10704.548    2045.7383    2705.7513    2229.1037   -275.96101     354.1473   -326.53536   -6273.6466 
33103000     75.62159   -6820.7419     -6626.21   -6820.7419            0    1826.8812    23.192784    21.444177    21.587339    10736.466    2051.2827     1230.718    2198.6429   -48.443076   -32.270312   -533.05914   -6340.1563 
33104000    78.335891   -6834.6365   -6633.1222   -6834.6365            0    1482.0137    23.361968    21.274916    21.625734    10748.507    1631.7661    1107.6705    1706.6045   -360.28258   -154.99355   -654.66978   -6400.8078 
33105000    76.590847   -6830.0896   -6633.0643   -6830.0896            0     1786.479    23.120891    21.442126    21.624479    10720.575    2457.6309    1070.7078    1831.0984   -21.936531   -101.30415   -104.64458   -6353.7508 
33106000    72.519631   -6828.4931   -6641.9408   -6828.4931            0    2339.6791    23.223415    21.299186    21.631306    10699.706    2301.4099    2520.0165    2197.6109    370.56641   -84.775129    -36.54454   -6276.8473 
33107000    75.328273   -6832.5069   -6638.7295   -6832.5069            0    1831.4772    23.273437    21.263647    21.656089    10717.125    1712.2749    2269.8835    1512.2733    588.88124    328.58005    611.23427   -6352.4728 
33108000    73.047226   -6826.9861   -6639.0766   -6826.9861            0    1983.3448    23.137578    21.450663    21.599981    10720.424    2081.5947    1721.1938    2147.2459   -123.38714    251.96581    148.92479   -6328.9877 
33109000    75.866184   -6837.4755   -6642.3143   -6837.4755            0    1864.5647    23.351523     21.19221    21.674827     10726.23    1458.5989    2328.3632     1806.732    253.01696    388.06379    344.86729   -6350.6385 
33110000    78.099992   -6842.8615    -6641.954   -6842.8615            0    1635.3451    23.156162    21.422237    21.639748    10734.543    1524.8209    1374.9092    2006.3051    182.64459    176.66473   -288.93227    -6385.937 
33111000    75.436161   -6828.7092   -6634.6543   -6828.7092            0    2393.2033    23.230883    21.290087     21.62153    10693.739    2669.2129    2476.7659    2033.6311     97.53368   -21.250363   -515.37252    -6261.417 
33112000    78.278283   -6835.4195   -6634.0534   -6835.4195            0    1155.2605    23.293164    21.314776    21.640013    10744.019    778.50842    1348.9747    1338.2984    507.33507   -15.315625   -354.35049    -6453.035 
33113000    72.577596   -6821.9196   -6635.2181   -6821.9196            0    1301.3197    23.184125    21.432322    21.642619    10753.993    1869.7733    1079.0312    955.15465    89.706182    -149.7414   -115.35809   -6431.1244 
33114000    75.963999   -6826.8004   -6631.3877   -6826.8004            0    2160.0881    23.279739    21.224936    21.682394    10713.509    1616.4529    2636.7529    2227.0584    417.61157   -579.02588    70.870515   -6293.8836 
33115000    74.007995   -6823.0705   -6632.6894   -6823.0705            0    1959.2365    23.126052    21.456823    21.643211    10739.613    2652.6799    1408.7036     1816.326   -194.34205   -884.32225   -142.46457   -6325.8216 
33116000    72.328567   -6835.4235   -6649.3627   -6835.4235            0    1627.2181    23.250551    21.269363    21.720056    10741.098    1553.7932    2265.2395    1062.6216   -548.18764    161.76467   -172.54125   -6394.4624 
33117000    72.594417   -6843.0338   -6656.2891   -6843.0338            0    1763.3305    23.185625    21.325627     21.66417    10711.805    1926.5216    1978.0565    1385.4135    -56.52169   -641.38271   -244.61203   -6380.8204 
33118000     72.79054   -6830.1336   -6642.8844   -6830.1336            0    2263.6044    23.157084    21.349561    21.639168    10698.266    2525.5134    1895.5792    2369.7206    619.85389   -411.52764    23.552086   -6289.7095 
33119000    74.773301   -6830.5027    -6638.153   -6830.5027            0    2072.1134    23.390725    21.188275    21.602319    10706.306    1210.2127     2864.175    2141.9525    356.82199    21.170413    557.90764   -6314.6122 
33120000      74.0812   -6828.1931   -6637.6237   -6828.1931            0    2328.3626     23.15909    21.448748    21.548537     10703.88    2039.6312    1811.5684     3133.888   -304.59985    434.96198   -63.274933   -6274.1544 
33121000    74.074165   -6828.7923    -6638.241   -6828.7923            0    1846.6943    23.333265    21.277679    21.587076    10717.502    1245.0475    2833.4569    1461.5786    210.55215   -178.34733   -208.80735   -6349.5957 
33122000    80.428888   -6829.7905    -6622.892   -6829.7905            0    1740.2247    23.211807    21.403485    21.565983    10714.273    2102.1909    1346.9745    1771.5088    222.61201   -194.63499    333.09469   -6350.9703 
33123000    73.801994   -6830.0185   -6640.1673   -6830.0185            0    1982.6812     23.24749    21.362731    21.574154     10714.37     1369.377    2090.1091    2488.5575    94.856128   -66.737277   -73.330984   -6330.3574 
33124000    75.974808   -6827.3014   -6631.8609   -6827.3014            0    2485.7572    23.352771    21.235813    21.544698     10684.34    1884.8609    3026.4737    2545.9371   -512.51945    370.24091   -339.16412   -6244.5298 
33125000    74.780423   -6818.8475   -6626.4794   -6818.8475            0    2828.2231    23.150732    21.438508    21.533664    10687.527    2503.3396    2437.1216    3544.2083    858.83989    588.42478    82.453858   -6185.6539 
33126000    74.842606   -6830.2176   -6637.6896   -6830.2176            0    1822.8575    23.343493    21.255844    21.615426    10725.264    1234.5368     2441.795    1792.2406    -24.48083   -175.26997   -315.29463   -6352.5637 
33127000    76.164709     -6834.48    -6638.551     -6834.48            0    1731.3936    23.210081    21.445361    21.537575    10720.297    1887.8536    1523.2797    1783.0476    219.23769    99.940954   -186.65481    -6367.857 
33128000      76.4425   -6831.9042   -6635.2605   -6831.9042            0     2207.817    23.243657    21.316931    21.592788    10698.869    2034.6461    2079.6376    2509.1671   -256.10181    56.457752    71.747898   -6290.7704 
33129000    74.942049   -6816.7219    -6623.938   -6816.7219            0    1420.8284    23.280652    21.361614    21.636261    10759.979     1288.217    1616.0888    1358.1793   -203.41248    238.70236   -279.75898    -6400.977 
33130000    72.868696   -6839.1625   -6651.7122   -6839.1625            0    1964.9831    23.159977    21.404758    21.609894    10712.752    1957.5107    1533.1133    2404.3253   -1079.1122    409.18354   -466.22563   -6344.7141 
33131000    75.550187   -6841.1547   -6646.8064   -6841.1547            0    2189.3242    23.265799    21.205939    21.695095    10703.777     1890.153    3014.2935    1663.5262    94.527934   -387.93632   -325.31314    -6305.045 
33132000    78.947774   -6828.0447   -6624.9563   -6828.0447            0    2151.8919    23.095392    21.389561    21.683887    10711.847    2397.6725    1774.3663    2283.6369    570.15419    399.54628   -90.409504    -6288.785 
33133000    78.265471   -6833.5917   -6632.2585   -6833.5917            0    1876.2358    23.227962    21.237505    21.734973    10721.948    1669.3084    2673.8019    1285.5971    -127.9338    641.67236   -62.538493   -6338.8742 
33134000    71.682062   -6831.4347    -6647.037   -6831.4347            0    2173.0211    23.156908    21.315801    21.702383    10712.471    2526.9879    2728.4434    1263.6319    570.91043   -227.96807   -813.60654    -6307.545 
33135000    73.203752   -6834.2031   -6645.8909   -6834.2031            0    1490.2977     23.16058    21.381961    21.693777    10743.162     1583.793    1928.3793    958.72076    482.54073   -84.790832    143.40891    -6412.394 
33136000    75.338196   -6822.1204   -6628.3174   -6822.1204            0    1979.0769    23.293089    21.233001    21.706329    10735.564    1481.7965    2431.8675    2023.5668    365.45177    109.33232    72.599084   -6318.4589 
33137000    74.698985    -6828.471   -6636.3124    -6828.471            0    2858.7623    23.004141       21.516    21.565348    10673.922    3541.5941    2285.0936    2749.5992    299.70863   -309.32898   -88.351854    -6191.294 
33138000    72.778076   -6832.1131   -6644.8959   -6832.1131            0    1806.5058    23.269181    21.266484    21.669162    10723.064    1449.6553    2080.8822    1888.9798   -98.374008   -239.64097    45.040685   -6362.3857 
33139000    75.932942   -6837.9346   -6642.6017   -6837.9346            0    1765.4541    23.204139    21.353652    21.618038    10711.589    1637.6957    1875.1495    1783.5171   -205.62713    209.83203   -227.98047   -6366.8068 
33140000    75.054459   -6831.3703   -6638.2972   -6831.3703            0     2140.768    23.172891    21.366813    21.619023    10704.245    1992.9001    2265.2155    2164.1884   -113.20898    720.21198   -9.4976134    -6304.101 
33141000    73.006776   -6828.9643   -6641.1588   -6828.9643            0    2030.4096    23.358225    21.246927     21.58421    10712.038    1550.1014    2099.7594     2441.368    65.058688   -52.157006    181.94262   -6323.9599 
33142000      75.1735   -6830.3921   -6637.0129   -6830.3921            0    1696.2529    23.232617    21.433534    21.544169    10728.071    1345.3257    2115.6411    1627.7919   -149.75789    254.18311   -155.26723   -6371.6207 
33143000    73.999808   -6826.2249   -6635.8649   -6826.2249            0    2019.3023    23.320602    21.316171    21.539206    10707.267    1670.5322    1657.2383    2730.1363   -155.07732   -348.43514    110.99249   -6320.5418 
33144000    73.262982     -6827.66   -6639.1955     -6827.66            0     1853.482    23.247594    21.310969    21.617445    10709.904    2047.6291    1795.1077     1717.709    187.56445   -343.88084     6.016203   -6349.6946 
33145000    78.779943   -6826.5665   -6623.9099   -6826.5665            0    2379.2723    23.121802    21.364252    21.644966    10692.181     2626.483    2423.2818     2088.052    222.76386     160.5234    305.49968   -6252.8992 
33146000    74.373831    -6828.886   -6637.5639    -6828.886            0    2259.3418    23.267754    21.205955    21.688184    10701.273    1675.0242    3171.8594    1931.1419   -49.260408    -235.8793    630.33696    -6284.955 
33147000    71.077936   -6828.4602   -6645.6165   -6828.4602            0     1607.887    23.147007    21.443683    21.638004    10740.176    1496.6157    1283.8833    2043.1619   -665.40558    323.27863    397.80922    -6393.766 
33148000     74.71706   -6840.4278   -6648.2227   -6840.4278            0    1387.3877    23.272831    21.343192    21.631859    10744.901    1238.7271    1163.5468    1759.8893    -996.2389     445.9537    425.05526   -6430.8144 
33149000    74.096685   -6817.0659   -6626.4567   -6817.0659            0    2894.2449    23.230292    21.293881    21.599067    10684.261    3102.8815    2813.7334    2766.1198    149.08635   -744.76121   -171.14424   -6175.4784 
33150000    75.156189   -6834.0022   -6640.6675   -6834.0022            0    1536.4704    23.163984    21.387237    21.657121    10729.232    1498.7958    2014.7648    1095.8506     327.2315    32.099006   -227.77336   -6400.2485 
33151000     76.27169   -6824.8897   -6628.6854   -6824.8897            0    1837.6995    23.258997    21.229842    21.695129    10712.726    1920.4545    2223.0075    1369.6365   -311.02827   -115.15531    317.68651   -6341.5741 
33152000    72.580827   -6831.9391   -6645.2294   -6831.9391            0    1748.1605    23.127715    21.411398    21.648376    10720.205    1820.5025    1518.4112    1905.5677   -250.32496    268.71292     475.5573   -6371.9164 
33153000    75.045272   -6817.3336   -6624.2842   -6817.3336            0    2319.6479    23.221273    21.314201    21.667828    10724.337    2538.3324      2270.61    2150.0013    31.233812   -626.32518    -63.42885   -6261.4833 
33154000    75.336336   -6828.9468   -6635.1487   -6828.9468            0    2078.7121    23.253923    21.335181    21.608376    10720.492    1652.3974    2434.1354    2149.6036    268.92708    85.736608   -340.92125   -6310.1475 
33155000      73.3715   -6833.7161   -6644.9724   -6833.7161            0    1784.1973    23.172158    21.393668    21.623749    10719.702    1625.7876    1749.3775     1977.427    82.339128    162.79181    215.80302   -6366.0383 
33156000    73.217893   -6840.9568   -6652.6082   -6840.9568            0    1760.7698    23.256062    21.261871    21.661227    10710.771    1675.0211    1911.5166    1695.7717    142.72209   -96.227762    667.72955   -6377.5661 
33157000    72.864788   -6827.0855   -6639.6453   -6827.0855            0    2462.5673    23.154376    21.390319    21.602761    10699.405    2542.9131    1670.0791    3174.7099    178.38315    579.15816    1270.7123   -6255.3866 
33158000    75.164921   -6837.5931   -6644.2359   -6837.5931            0    1721.5498    23.270348    21.347757    21.614041    10737.201    1255.2988    1627.9558    2281.3949    55.382504    373.30728   -77.075231   -6374.6566 
33159000    75.217996   -6828.9116   -6635.4179   -6828.9116            0    2057.5159    23.261605    21.349715    21.586097    10720.274    1743.2528    2081.4129    2347.8818   -94.322416    -263.6377    180.10044   -6313.7372 
33160000    73.312701   -6827.1317   -6638.5393   -6827.1317            0    1797.5179    23.115468    21.440158    21.623063    10716.375    2063.5852     1587.827    1741.1416   -117.80889    438.21943   -95.307006     -6357.61 
33161000     75.47028   -6841.5828   -6647.4401   -6841.5828            0    1602.6342    23.315749     21.22576    21.667085    10722.921     901.0962     2002.554    1904.2523    555.83363       155.96    491.06037   -6396.8157 
33162000    75.474761   -6831.7122   -6637.5579   -6831.7122            0    1621.1629    23.133851    21.412642    21.636673    10717.875    2300.3675    1352.7917    1210.3295   -175.16595   -9.3287149    28.012012   -6384.1552 
33163000    75.044887   -6831.3745   -6638.3261   -6831.3745            0    2081.4195    23.249834     21.32241    21.622205    10719.046    1387.6416    2171.1663    2685.4506    56.477246   -256.94714   -195.73437   -6312.9455 
33164000    74.822086   -6835.9039   -6643.4287   -6835.9039            0    1532.6991     23.16963    21.375349    21.685954    10740.162    2086.3841    1410.2345    1101.4788   -1023.0983    103.17246   -757.04241   -6403.3555 
33165000    75.095825   -6832.0097   -6638.8303   -6832.0097            0    1927.9409    23.126416    21.378914    21.694217    10726.004    2344.9381    1540.4877    1898.3968   -94.933264   -287.01864    357.49423   -6337.2468 
33166000    73.660169   -6816.5437   -6627.0574   -6816.5437            0    2180.8437    23.308055    21.188907    21.725561    10729.651    1970.1454    2665.6408     1906.745   -377.31958    31.754205   -299.56675   -6285.7969 
33167000    73.945483   -6829.4303     -6639.21   -6829.4303            0    1489.4113    23.115978    21.451379     21.66588    10743.452    2614.1839      383.385    1470.6649    -509.0642   -112.64563    7.1639186   -6405.8458 
33168000    77.405762   -6829.1069   -6629.9853   -6829.1069            0     1901.369    23.317508    21.225181    21.672099    10725.919    1026.1575    2463.7591    2214.1905      797.534    85.806465    343.63665   -6332.5607 
33169000    78.959771   -6821.6575   -6618.5383   -6821.6575            0    2655.5181    23.190568    21.324099    21.638464    10700.609    2965.0851     2275.945    2725.5243   -102.71899   -299.16724    86.793335    -6204.125 
33170000    75.082892   -6833.7979   -6640.6517   -6833.7979            0    1634.6002    23.161417    21.439543    21.601425    10726.624    1745.9751    1374.0528    1783.7728   -128.60693    282.67235   -756.99572   -6384.9401 
33171000    73.227752   -6822.9389    -6634.565   -6822.9389            0    2914.4105    23.312828    21.137281    21.669367    10678.009    2698.5389    3335.0235     2709.669   -546.96115   -35.701838     175.4844   -6180.7102 
33172000    77.630606   -6833.4777   -6633.7777   -6833.4777            0    2113.4183    23.089147     21.42534    21.630057    10700.234    2258.8316    2083.0678    1998.3554   -184.86594    133.74615    311.46982   -6303.9747 
33173000    76.430623   -6837.9275   -6641.3144   -6837.9275            0    1974.0505    23.257214    21.251454    21.671883     10711.32    1556.2103    2210.9128    2155.0283    219.07668    204.26459   -171.87444   -6332.9408 
33174000    73.986804    -6834.925   -6644.5985    -6834.925            0    2160.8919     23.24222    21.312692    21.629813     10714.42    2138.5431    1922.3035     2421.829   -116.11663    323.23795   -267.39204     -6306.94 
33175000    77.343367   -6833.2203   -6634.2592   -6833.2203            0    1711.1554    23.172382    21.424195    21.617034    10731.768    1765.1385    1412.8533    1955.4743   -274.52903    626.90684   -442.81001   -6366.4432 
33176000    72.108094    -6829.227   -6643.7333    -6829.227            0    1927.3974    23.292446    21.255502    21.644418    10715.992    1430.3046    2203.6141    2148.2734    509.24516    137.91748   -394.59257   -6342.5163 
33177000    77.530112   -6822.4426   -6623.0011   -6822.4426            0    2188.0963    23.118155    21.393885    21.649607    10707.617    2326.3652    2150.1412    2087.7824    730.94811   -336.80581    212.45956   -6281.3088 
33178000    74.844666   -6823.9078   -6631.3744   -6823.9078            0    2578.1949    23.194269    21.274029    21.688896    10702.072    3407.1746    2797.1298    1530.2803    354.10757   -1080.5835    466.21076    -6228.973 
33179000    77.230657   -6834.3866   -6635.7154   -6834.3866            0    1876.5533    23.231669    21.303825    21.681825    10730.843    1645.5131    2170.6814    1813.4655    32.979707    87.521904   -63.317302   -6342.0379 
33180000    76.590361   -6830.9404   -6633.9164   -6830.9404            0    2317.7087    23.111959    21.413294    21.626119    10702.835    2403.0668    1540.2057    3009.8536   -184.42556     635.4494   -366.56413   -6272.1455 
33181000    74.140713   -6827.4652   -6636.7428   -6827.4652            0     2723.225    23.249293     21.24374     21.61355    10674.974    2589.4367    2877.2446    2702.9936    74.538242    340.51099   -824.18126   -6212.7814 
33182000    77.571261   -6826.2334    -6626.686   -6826.2334            0     2297.965    23.129858     21.41236    21.584515    10690.052    2588.0374    1772.6362    2533.2214   -275.74675    609.77043   -820.59425   -6268.4254 
33183000     75.50884   -6836.8336   -6642.5917   -6836.8336            0     1517.599    23.289488    21.281647    21.630651    10720.987    1324.6577    1599.3818    1628.7575    -290.2792    428.01122    35.756477   -6405.3081 
33184000    71.942604   -6827.9634   -6642.8954   -6827.9634            0    1894.8522     23.26061    21.343243    21.594589    10720.782    1887.4108    1810.5388    1986.6071    29.389464   -59.712092    75.337058   -6346.6322 
33185000    75.071338   -6823.3034   -6630.1869   -6823.3034            0     2448.975    23.264223    21.331941    21.569242     10704.19    1989.4929    2920.7233    2436.7088    246.87125    -375.2352    525.12129   -6247.8784 
33186000    76.306466   -6823.9308   -6627.6371   -6823.9308            0    2132.8459    23.282363    21.298263    21.608515    10715.098    2510.1464    1847.0638    2041.3276    621.90213   -635.06534   -432.36121     -6294.34 
33187000    73.437117   -6836.0051   -6647.0926   -6836.0051            0    1843.5659    23.218863    21.392029     21.58613      10721.8    1595.1233    1841.5095     2094.065   -348.76644    20.128799   -72.680075   -6358.8207 
33188000    77.332698   -6827.2658   -6628.3321   -6827.2658            0    1833.3106    23.340994    21.282274    21.601097    10730.333    1632.2717    1844.4582    2023.2019    37.188616   -456.68472   -629.97537   -6341.4357 
33189000    71.377901   -6832.4402   -6648.8249   -6832.4402            0     2633.774    23.096971    21.411987     21.59848    10681.573    2928.3296    2649.3536    2323.6387    376.04722    219.19203   -67.358515   -6238.5362 
33190000    76.869873   -6815.0084   -6617.2654   -6815.0084            0    2427.7306    23.250172     21.24909    21.652217    10697.169     2452.943     2635.654    2194.5948    165.51092    -115.4472    188.62421   -6238.5218 
33191000    75.019368   -6820.8141   -6627.8314   -6820.8141            0    2028.2262    23.201808    21.299512    21.682435    10715.182    2417.6256    2117.7558    1549.2973    105.31818    426.74911    115.88819   -6310.8806 
33192000     76.26269   -6829.0683   -6632.8872   -6829.0683            0    1767.9477    23.171285     21.40755    21.630518    10729.612    1606.8564    1730.7272    1966.2596    212.55757    15.035705   -81.265008   -6356.2381 
33193000    73.203425   -6827.9522   -6639.6408   -6827.9522            0    1850.2646    23.311239    21.253293    21.678836    10740.576    1891.7448    1378.8404    2280.2087   -641.63055     69.78095    188.19021   -6349.8148 
33194000    72.832347   -6824.1758    -6636.819   -6824.1758            0    1161.2859    23.132663    21.474605    21.671984    10765.879    1538.5903    315.55544    1629.7121    -9.696137   -130.64437    88.970148   -6454.4863 
33195000    75.533535   -6825.1044   -6630.7989   -6825.1044            0    1999.9065    23.207447    21.280278    21.721867    10727.581    2001.6152    2137.6493    1860.4552   -128.57001     109.6407     305.8881    -6317.912 
33196000    74.404571   -6832.2208   -6640.8196   -6832.2208            0    1812.5895    23.111387    21.305697     21.79349    10731.206    2807.5039    1893.9559    736.30885    -654.1949    328.76366   -490.94324   -6357.1427 
33197000    70.891761   -6816.0174   -6633.6526   -6816.0174            0    2259.8248     23.12022    21.375623    21.690601    10719.692    2576.0724    1948.2301    2255.1718   -112.45218    361.29961    269.71194   -6280.3613 
33198000    74.993927   -6823.2144    -6630.297   -6823.2144            0    1773.8437    23.277137     21.30027    21.639738    10729.183    1650.6389    2103.5672     1567.325   -263.08997   -194.38731    395.59435   -6352.7364 
33199000    75.846855   -6826.3298   -6631.2184   -6826.3298            0    1603.1001    23.176976    21.445674    21.601078    10736.727    1728.8784    1656.0584    1424.3635    1010.9699   -920.22346     52.97915   -6380.1983 
33200000    73.769726   -6832.0667   -6642.2986   -6832.0667            0    2072.7962    23.302479    21.279097    21.605489    10713.205    1846.9933    2422.4177    1948.9777   -174.79574    32.181826    502.88147   -6318.4426 
33201000    75.864815    -6827.434   -6632.2764    -6827.434            0    2627.4303    23.093226    21.446702    21.578154    10687.089     3027.657    1775.9072    3078.7267     246.5419    209.52435    271.78861   -6222.7645 
33202000    77.178808    -6834.107   -6635.5692    -6834.107            0    2719.7705    23.227033    21.284922    21.610113    10683.728     2705.286    2594.8542    2859.1711   -281.51049    266.14471   -348.25546   -6211.7984 
33203000    70.470095   -6833.9488   -6652.6687   -6833.9488            0    1545.1613     23.30175     21.33103     21.57553    10724.125    748.29638    1651.4317    2235.7559   -496.28392    424.12814    290.67264   -6411.0049 
33204000    76.236144   -6834.9571   -6638.8442   -6834.9571            0    1699.5108    23.159906    21.482871    21.544205    10719.131    1481.4575    815.56629    2801.5086   -129.45664    465.59684    371.77837   -6373.1639 
33205000    72.620161   -6829.2676   -6642.4566   -6829.2676            0    2165.7677    23.306033    21.249047    21.621159    10707.468    1994.6504     2473.084    2029.5687    -289.5225    471.53061    200.90892   -6304.2559 
33206000    75.660318   -6842.0204   -6647.3889   -6842.0204            0    2148.3916    23.178633     21.39875    21.564811    10696.012    2243.3092     2525.433    1676.4325    805.45621   -346.31333   -437.47618   -6312.2605 
33207000    73.209507   -6832.3475   -6644.0205   -6832.3475            0    2173.8236     23.34104    21.284711     21.52746    10694.999    1416.6941    2372.4204    2732.3562    240.22904   -202.56559    61.438933   -6304.9571 
33208000    74.275122   -6828.0177   -6636.9495   -6828.0177            0    1096.0878    23.295006    21.391314    21.574138    10750.626    858.73243    496.01394     1933.517    196.68158    603.25573    642.40303   -6465.0973 
33209000    76.453764     -6828.77   -6632.0973     -6828.77            0    2108.9053    23.222128    21.374678    21.567608    10705.417    2135.1477    2145.6131     2045.955   -405.77721    422.84951   -192.82762   -6302.8392 
33210000    74.447546   -6830.0181   -6638.5063   -6830.0181            0    2259.2883    23.304152    21.272415    21.599266    10707.525    1996.2468    2264.0363    2517.5818    236.51063    213.28663     34.80349   -6285.6997 
33211000    75.651937   -6825.4415   -6630.8315   -6825.4415            0     1907.696    23.216502    21.379471     21.61267     10727.59    2027.9865    2032.4058    1662.6957    426.41548    373.65231   -151.88748   -6332.3707 
33212000    73.881061   -6833.0089   -6642.9544   -6833.0089            0    1813.0408    23.317575    21.287318    21.618214    10730.604    1894.7036    1879.8955    1664.5233   -294.54072    56.372276   -387.03322   -6359.2228 
33213000    74.651591   -6832.9691   -6640.9324   -6832.9691            0    1597.7025    23.198608    21.352388    21.660116    10729.245     1510.563    1373.0639    1909.4807   -187.35836    690.62816    443.59149   -6390.9319 
33214000    78.008618   -6838.8265   -6638.1541   -6838.8265            0    2295.7962    23.133241    21.271224     21.73225    10693.839    2634.1406    2023.2438    2230.0043    562.36768    -128.5809   -15.397862   -6280.1048 
33215000    74.062467   -6836.7345   -6646.2133   -6836.7345            0    2329.6778    23.115585    21.278867    21.749508    10698.006    3352.0651     2507.567    1129.4012    85.617091    44.764317   -45.727028   -6282.7383 
33216000    74.970837   -6831.2599    -6638.402   -6831.2599            0    1712.0895    23.214776    21.308016    21.705175    10736.699     1241.832    2596.2574    1298.1792    633.35144     157.5576    -568.1179   -6370.3166 
33217000    75.840093   -6832.1166   -6637.0226   -6832.1166            0    2287.9676    23.192332    21.337842     21.67897    10728.366     2040.984    2400.0413    2422.8774    425.89099    8.5370266   -386.89259   -6279.0421 
33218000    74.330377   -6821.9073   -6630.6969   -6821.9073            0    1574.4593    23.213629    21.340305    21.709027    10754.346    1573.8944    1850.3701    1299.1135    493.01713   -96.243181   -153.35669    -6383.757 
33219000    76.650856   -6838.3219   -6641.1423   -6838.3219            0    2004.3917     23.17076    21.314761    21.713684    10723.938    2172.2647    2010.0431    1830.8673    488.54072   -124.93185    330.90316   -6327.6602 
33220000    74.393423   -6840.8241   -6649.4515   -6840.8241            0    2169.5539    23.180334    21.222492    21.756576    10703.027    2096.2146    3515.5821    896.86483   -284.40749    530.77167   -670.10454   -6310.8001 
33221000    75.071242   -6833.6669   -6640.5508   -6833.6669            0    2330.0237    23.121855    21.351718    21.685068     10705.73    2994.8761    2026.1431    1969.0519   -455.63614    246.50361   -309.09907   -6276.7593 
33222000    75.330867   -6837.3737   -6643.5897   -6837.3737            0    2413.1264    23.235268     21.27711    21.663712    10710.092     2222.761    2632.1034    2384.5147   -519.05287     197.0287   -690.22335   -6266.6697 
33223000    75.336539   -6836.2045   -6642.4058   -6836.2045            0    1868.0452    23.115744    21.394156    21.700349    10731.731    2048.7004    2266.8013     1288.634    102.32571    120.05457   -585.08515   -6350.0357 
33224000    79.678817   -6832.4229    -6627.454   -6832.4229            0    2216.5982    23.205762    21.270683     21.71046    10716.335    1822.0588    2717.9359       2109.8     561.9795   -37.983544    405.11938    -6281.029 
33225000      72.4253   -6829.1269   -6642.8172   -6829.1269            0    1567.1957    23.207171    21.310537    21.726081    10744.792     1564.788     1853.014     1283.785    43.915991   -21.967906     220.6212   -6397.2349 
33226000    72.137976   -6825.7433   -6640.1728   -6825.7433            0    2008.0287    23.148299    21.380031    21.648872    10714.273    2283.9112    1982.5452    1757.6296    101.13139   -670.92856    -237.4143   -6326.4049 
33227000    76.974597   -6818.0401   -6620.0276   -6818.0401            0    2863.7255    23.208249    21.250815    21.690798    10697.776    2769.2563    3021.8196    2800.1007    391.34867   -75.537082      209.622   -6173.2404 
33228000    78.220503   -6824.7021   -6623.4846   -6824.7021            0     1615.978    23.101074    21.474857    21.655801    10743.275     1998.994    1159.9797    1688.9602   -191.74008    125.14678    149.15979   -6370.2937 
33229000    74.197259   -6824.8195   -6633.9516   -6824.8195            0    2183.4256    23.272268    21.237547    21.659386    10705.062    1710.1858    2912.4862    1927.6047    192.30375   -198.33031    159.32051     -6293.07 
33230000    77.311013   -6824.5513   -6625.6734   -6824.5513            0     2608.509    23.161358    21.375572     21.58619    10687.048    2620.2893    1508.5351    3696.7027   -355.30784    567.36455    481.77263   -6219.1122 
33231000    77.498683   -6823.4291   -6624.0684   -6823.4291            0    2620.0226    23.269394    21.339765    21.551502    10701.687    2066.1998    3191.7198    2602.1481   -767.51244    629.28144   -474.44643   -6215.1533 
33232000    73.210284   -6821.6799   -6633.3509   -6821.6799            0    2201.0272    23.325147    21.315743    21.536242    10707.666    1404.7374    2536.6712     2661.673   -250.80733    -353.1934    236.23679   -6289.6378 
33233000    72.845698   -6830.7409   -6643.3498   -6830.7409            0    1945.5694    23.185943    21.448664    21.531156    10707.605    2274.5997     869.1944    2692.9141    525.58348   -946.69776    401.73081   -6339.5308 
33234000    73.089701   -6823.5314   -6635.5126   -6823.5314            0    2935.9677     23.28969    21.232639    21.585732    10674.179    2428.8547     3756.118    2622.9302   -199.51132   -396.38419    223.60594   -6178.4648 
33235000    77.099369   -6837.3086   -6638.9752   -6837.3086            0    2245.5519    23.177406    21.359189     21.61394    10699.994    1354.5135     2941.215    2440.9272     438.0451    286.57259    151.18291   -6288.5603 
33236000       73.868    -6828.764   -6638.7431    -6828.764            0    2358.7947    23.240699    21.299612    21.605047    10694.884    2494.1619    2565.8153     2016.407   -539.01268    -60.52071     314.0261   -6270.8326 
33237000     74.90989   -6838.6852   -6645.9841   -6838.6852            0    1131.3044    23.254384    21.325364    21.664552    10743.629    807.84235    1983.7196    602.35135   -129.68476    382.39685   -38.200602   -6468.7258 
33238000    76.078423   -6823.2315   -6627.5244   -6823.2315            0    2398.9341    23.154601    21.382567    21.622342    10705.325    2906.7836    1508.8657    2781.1532   -166.41398   -290.27949    281.21309   -6252.9879 
33239000    74.272774   -6830.5566   -6639.4944   -6830.5566            0    1890.7694    23.287095    21.263551    21.651935    10721.309    1469.1411    2957.3914    1245.7757   -267.53158   -62.596042   -154.51243    -6343.855 
33240000     76.01148   -6828.9989    -6633.464   -6828.9989            0    1305.1571    23.157095    21.392617    21.678919    10739.538    1504.3347    1210.0103    1201.1264    230.22831   -97.189277   -317.15694   -6429.0436 
33241000    71.087814   -6825.4249   -6642.5558   -6825.4249            0    2126.2668     23.16079    21.335009    21.693087    10719.328    1835.6169    3163.3885    1379.7949    375.47375   -423.15423    357.85926   -6310.1557 
33242000    74.377156   -6830.8247    -6639.494   -6830.8247            0    2600.2635    23.176621     21.28012    21.699636    10702.288     3779.572    1630.2243    2390.9941   -404.90553   -167.40195   -51.237572   -6233.6399 
33243000    74.533547   -6824.2586   -6632.5255   -6824.2586            0    1823.7183    23.133018    21.359663    21.722321    10733.292    2115.5851     2293.275    1062.2947    423.28447   -493.31868   -1.8979212   -6347.0515 
33244000    75.596903   -6831.7409   -6637.2725   -6831.7409            0    1693.2716    23.246599    21.253882    21.732037    10737.375    1567.6733    2135.6312    1376.5103   -280.09838   -1182.8384    243.21067    -6372.117 
33245000    78.124158   -6825.7093   -6624.7396   -6825.7093            0    2238.8405    23.154494    21.377084    21.652225    10717.322    2643.5964    1933.4943    2139.4309    -455.4026   -499.34452   -191.96612   -6274.8063 
33246000    73.675622   -6831.9936   -6642.4676   -6831.9936            0    2037.0638     23.18784     21.35065    21.649503    10718.137    2779.2787    1467.2305    1864.6821   -225.40041    14.919401    168.05675   -6324.0479 
33247000    72.764476   -6823.2373   -6636.0551   -6823.2373            0    1387.2703    23.275748    21.262619    21.687211    10733.074    779.82233    2216.5932    1165.3954    27.142329    949.34038    177.73789   -6418.9045 
33248000    76.375179   -6829.7261   -6633.2556   -6829.7261            0    1528.5211    23.185446     21.41192    21.614583     10730.45    1598.2991    1177.9209    1809.3431    179.69982    476.93404    415.06853   -6394.0534 
33249000    72.918224   -6831.1899   -6643.6122   -6831.1899            0    2121.4654    23.305619    21.269829    21.597514    10706.029    2048.8552    1982.0893    2333.4516    132.25892    108.48563    255.98127   -6312.3742 
33250000    78.655131   -6822.2604   -6619.9248   -6822.2604            0    2362.9178    23.211708    21.478775      21.4858     10711.94    2523.7579    1661.7013    2903.2943    130.92502    -626.5889    295.24558   -6250.7836 
Loop time of 481.485 on 64 procs for 250000 steps with 1296 atoms

Performance: 89.722 ns/day, 0.267 hours/ns, 519.227 timesteps/s
391.2% CPU use with 16 MPI tasks x 4 OpenMP threads

MPI task timing breakdown:
Section |  min time  |  avg time  |  max time  |%varavg| %total
---------------------------------------------------------------
Pair    | 38.734     | 48.682     | 60.179     |  79.8 | 10.11
Bond    | 1.532      | 1.7506     | 2.3144     |  17.3 |  0.36
Kspace  | 235.47     | 251.15     | 260.33     |  37.9 | 52.16
Neigh   | 0.54218    | 0.56166    | 0.57712    |   1.3 |  0.12
Comm    | 47.877     | 50.629     | 54.948     |  22.4 | 10.52
Output  | 0.47243    | 0.47276    | 0.47414    |   0.1 |  0.10
Modify  | 114.08     | 118.25     | 120.68     |  14.7 | 24.56
Other   |            | 9.988      |            |       |  2.07

Nlocal:        81.0000 ave          99 max          66 min
Histogram: 2 1 3 1 2 3 0 1 2 1
Nghost:        3708.75 ave        3741 max        3682 min
Histogram: 1 4 2 1 1 3 0 1 0 3
Neighs:        26075.8 ave       31702 max       21161 min
Histogram: 2 1 2 2 2 3 0 1 2 1

Total # of neighbors = 417212
Ave neighs/atom = 321.92284
Ave special neighs/atom = 2.0000000
Neighbor list builds = 1287
Dangerous builds = 0

unfix		3
unfix		2
unfix		1

write_data	data.final.${pid}
write_data	data.final.0
System init for write_data ...
PPPM initialization ...
  extracting TIP4P info from pair style
  using 12-bit tables for long-range coulomb (../kspace.cpp:340)
  G vector (1/distance) = 0.3668335
  grid = 30 40 32
  stencil order = 5
  estimated absolute RMS force accuracy = 0.0046701487
  estimated relative force accuracy = 1.4064014e-05
  using double precision FFTW3
  3d grid and FFT values/proc = 11832 2400
Last active /omp style is kspace_style pppm/tip4p/omp
WARNING: Not all mixed pair coeffs generated from mixing. Use write_data with 'pair ij' option to store all pair coeffs. (../write_data.cpp:312)

write_restart   restart.lmp.${pid}
write_restart   restart.lmp.0
System init for write_restart ...
PPPM initialization ...
  extracting TIP4P info from pair style
  using 12-bit tables for long-range coulomb (../kspace.cpp:340)
  G vector (1/distance) = 0.3668335
  grid = 30 40 32
  stencil order = 5
  estimated absolute RMS force accuracy = 0.0046701487
  estimated relative force accuracy = 1.4064014e-05
  using double precision FFTW3
  3d grid and FFT values/proc = 11832 2400
Last active /omp style is kspace_style pppm/tip4p/omp
Total wall time: 0:08:01
