#include		in.partitions
include		in.temp
variable        temperature equal 145.10
variable	tempDamp equal 100.0
include		in.pressure
variable        pressure equal 2058.1
variable        pressureDamp equal 1000.0 # This is 1 ps
include		in.seed
variable        seed equal 745823

units		real
atom_style	full
box tilt large
read_restart	restart.lmp.${pid}
read_restart	restart.lmp.0
Reading restart file ...
  restart file = 30 Jul 2021, LAMMPS = 30 Jul 2021
  restoring atom style full from restart
  triclinic box = (-10.664748 -9.2619793 0.13181866) to (12.644748 12.251977 21.728180) with tilt (-8.7467893 1.8297548 3.0433497)
  4 by 2 by 4 MPI processor grid
  restoring pair style lj/cut/tip4p/long/omp from restart
  restoring bond style harmonic/omp from restart
  restoring angle style harmonic/omp from restart
  1296 atoms
  864 bonds
  432 angles
Finding 1-2 1-3 1-4 neighbors ...
  special bond factors lj:    0        0        0       
  special bond factors coul:  0        0        0       
     2 = max # of 1-2 neighbors
     1 = max # of 1-3 neighbors
     1 = max # of 1-4 neighbors
     2 = max # of special neighbors
  special bonds CPU = 0.002 seconds
  read_restart CPU = 0.008 seconds
include 	in.setup
variable	out_freq equal 1000
variable	out_freq2 equal 10000
variable	out_freq3 equal 1000

timestep	2.0

neigh_modify    delay 7 every 1

include		in.tip4p
# This is TIP4P/Ice

# create groups ###
group ox type 2
432 atoms in group ox
group hy type 1
864 atoms in group hy

# set charges - beside manually ###
set group ox charge -1.1794
Setting atom values ...
  432 settings made for charge
set group hy charge 0.5897
Setting atom values ...
  864 settings made for charge

# ### TIP3P Potential Parameters ###
pair_style lj/cut/tip4p/long/omp 2 1 1 1 0.1577 8.5
pair_coeff 1 1*2 0.000 0.000
pair_coeff 2 2 0.21084 3.1668
bond_style  harmonic
bond_coeff  1 450 0.9572
angle_style harmonic
angle_coeff 1 55 104.52
kspace_style pppm/tip4p/omp 1.0e-5
pair_modify tail yes

thermo          ${out_freq}
thermo          1000
thermo_style    custom step temp pe etotal epair emol press lx ly lz vol pxx pyy pzz pxy pxz pyz enthalpy

restart 	${out_freq3} restart.lmp.${pid} restart2.lmp.${pid}
restart 	1000 restart.lmp.${pid} restart2.lmp.${pid}
restart 	1000 restart.lmp.0 restart2.lmp.${pid}
restart 	1000 restart.lmp.0 restart2.lmp.0


include         in.dump
dump            myDump all atom ${out_freq2} dump.water.${pid}
dump            myDump all atom 10000 dump.water.${pid}
dump            myDump all atom 10000 dump.water.0
dump            myDump2 all dcd ${out_freq2} dump.dcd
dump            myDump2 all dcd 10000 dump.dcd
dump_modify     myDump append yes
dump_modify     myDump2 append yes


variable natoms 	equal  "count(all)"                        # NUMBER ATOMS
variable H      	equal  "enthalpy/v_natoms"                 # ENTHALPY-per-atom
variable Vol      	equal  "vol/v_natoms"                 # volume-per-atom
fix AVG all 		ave/time ${out_freq} 1 ${out_freq} v_Vol v_H file vol_enthalpy.dat
fix AVG all 		ave/time 1000 1 ${out_freq} v_Vol v_H file vol_enthalpy.dat
fix AVG all 		ave/time 1000 1 1000 v_Vol v_H file vol_enthalpy.dat


timer           timeout 10:00:00 every 1000
New timer settings: style=normal  mode=nosync  timeout=10:00:00

fix 		1 all shake 1e-6 200 0 b 1 a 1
       0 = # of size 2 clusters
       0 = # of size 3 clusters
       0 = # of size 4 clusters
     432 = # of frozen angles
  find clusters CPU = 0.000 seconds
fix             2 all nph tri ${pressure} ${pressure} ${pressureDamp}
fix             2 all nph tri 2058.1 ${pressure} ${pressureDamp}
fix             2 all nph tri 2058.1 2058.1 ${pressureDamp}
fix             2 all nph tri 2058.1 2058.1 1000
fix             3 all temp/csvr ${temperature} ${temperature} ${tempDamp} ${seed}
fix             3 all temp/csvr 145.1 ${temperature} ${tempDamp} ${seed}
fix             3 all temp/csvr 145.1 145.1 ${tempDamp} ${seed}
fix             3 all temp/csvr 145.1 145.1 100 ${seed}
fix             3 all temp/csvr 145.1 145.1 100 745823


run             250000
PPPM initialization ...
  extracting TIP4P info from pair style
  using 12-bit tables for long-range coulomb (../kspace.cpp:340)
  G vector (1/distance) = 0.36684887
  grid = 30 40 32
  stencil order = 5
  estimated absolute RMS force accuracy = 0.0046407047
  estimated relative force accuracy = 1.3975344e-05
  using double precision FFTW3
  3d grid and FFT values/proc = 7888 1280
Last active /omp style is kspace_style pppm/tip4p/omp
Neighbor list info ...
  update every 1 steps, delay 7 steps, check yes
  max neighbors/atom: 2000, page size: 100000
  master list distance cutoff = 10.8154
  ghost atom cutoff = 10.8154
  binsize = 5.4077, bins = 7 5 4
  1 neighbor lists, perpetual/occasional/extra = 1 0 0
  (1) pair lj/cut/tip4p/long/omp, perpetual
      attributes: half, newton on, omp
      pair build: half/bin/newton/tri/omp
      stencil: half/bin/3d/tri
      bin: standard
Per MPI rank memory allocation (min/avg/max) = 10.66 | 10.66 | 10.67 Mbytes
Step Temp PotEng TotEng E_pair E_mol Press Lx Ly Lz Volume Pxx Pyy Pzz Pxy Pxz Pyz Enthalpy 
19250000    145.21669   -6598.6644   -6225.1033   -6598.6644            0    3052.1874    23.309496    21.513957    21.596362    10830.132    3047.7474    2296.4951    3812.3196   -1023.6486   -15.486053   -312.06672   -5743.0214 
19251000    142.84369   -6624.6823   -6257.2256   -6624.6823            0    2126.8116    23.246356    21.420901    21.785498    10848.261    3198.4272     1353.328    1828.6797    458.81372   -882.11635    156.92536   -5920.7412 
19252000    146.26551   -6632.5716   -6256.3125   -6632.5716            0    2651.7207    23.177534    21.405808    21.832972    10832.076    4173.9556    2282.4192    1498.7873   -540.65308   -486.46441    427.20515   -5837.4076 
19253000    150.27713   -6642.3642   -6255.7855   -6642.3642            0    2366.8087    23.377789    21.503392    21.517802    10817.037    1922.9251    2127.3727    3050.1283    394.62599    570.35978   -1237.3349   -5882.4086 
19254000    137.95386   -6635.4008   -6280.5229   -6635.4008            0    964.81908    23.357999    21.414191     21.78916    10898.778    380.77457    983.57664     1530.106    5.0578907    510.93372    145.11535   -6127.1673 
19255000    144.45007   -6632.7136   -6261.1246   -6632.7136            0    1786.3308    23.345471    21.379455    21.802014    10881.679    2119.0079    1103.5121    2136.4723   -632.48515     543.3629    -115.2027   -5977.6373 
19256000    150.75827   -6635.3941   -6247.5776   -6635.3941            0    1277.1315    23.433106    21.458484    21.674596     10898.83    756.10815    1461.9936    1613.2928   -23.219031    549.80819   -476.48995   -6044.5798 
19257000     146.8549   -6646.1294   -6268.3541   -6646.1294            0    1065.2091    23.325198     21.46997    21.766869    10900.659    1302.1901   -38.834611    1932.2718   -19.295358    11.309225    65.352249   -6099.0126 
19258000    146.00857   -6631.3939   -6255.7958   -6631.3939            0    1195.6307    23.308887    21.445454    21.865756    10930.028    506.37676    1776.5699    1303.9455   -567.83305     481.3249   -166.75931   -6065.2084 
19259000    151.16119   -6622.1404   -6233.2874   -6622.1404            0    2326.9611    23.369371    21.389308    21.705994    10849.843    2067.7474    2525.2916    2387.8444   -823.67518    448.59765    734.15845   -5865.0835 
19260000    146.69972   -6627.3536   -6249.9775   -6627.3536            0    1934.1378    23.543807    21.333094    21.590361    10844.023    844.02842    2421.9303    2536.4548    1097.2219   -725.54222    360.30777   -5944.0956 
19261000    143.76693   -6628.6994   -6258.8677   -6628.6994            0     2221.205    23.301262      21.3537    21.808585    10851.257     1633.202    2774.5242    2255.8888   -565.53827   -85.551094   -340.68409   -5907.3521 
19262000    144.08482    -6605.652   -6235.0025    -6605.652            0    2176.1853    23.275294    21.411375    21.819818    10874.038    2195.6445    2208.4046    2124.5069    514.59814    341.17926    52.821276   -5889.8885 
19263000    150.59567     -6628.74   -6241.3418     -6628.74            0    1982.2901    23.375259    21.488512    21.585244    10842.258    1724.8691    1441.4427    2780.5585   -107.02121   -25.242428    -250.4203   -5927.8958 
19264000    138.84111   -6633.2863    -6276.126   -6633.2863            0    2264.5433    23.222924    21.476939    21.806824    10876.313    3730.4224     1706.858    1356.3495   -630.77192   -754.40815   -591.16621   -5916.9244 
19265000    153.09388    -6650.447   -6256.6223    -6650.447            0    2784.3343     23.21932    21.456872    21.734211    10828.288    4182.6169    1766.5388    2403.8471    850.23072   -1131.3542    715.68034   -5816.9217 
19266000    148.55708   -6643.5698   -6261.4158   -6643.5698            0    1834.2953    23.281804    21.466822    21.721134    10855.926    1565.4817    2198.6325    1738.7717   -312.16244   -96.785976    110.42486   -5971.0055 
19267000    143.51824   -6629.2404   -6260.0485   -6629.2404            0    2485.1399    23.283949    21.410558     21.74896    10842.342    1714.7957    3194.7176    2545.9063    740.91112   -725.65808    93.738853   -5867.0871 
19268000    145.12087   -6647.5339   -6274.2194   -6647.5339            0    2466.2816    23.221077    21.338092    21.855739    10829.376    2694.3626    2772.8763    1931.6059   -475.18155    334.17495    332.44492   -5884.7063 
19269000    144.10771   -6627.4347   -6256.7264   -6627.4347            0     3811.557    23.309367    21.334633    21.701449    10792.061    3888.8683    4582.6641    2963.1388   -319.43014   -332.99951   -528.78588   -5656.8211 
19270000    147.42291    -6644.223   -6264.9865    -6644.223            0    1962.9455    23.462041    21.389766    21.602824    10841.325    1779.7438     1708.689    2400.4036    478.39403     -929.739    255.72566    -5954.626 
19271000    142.83521   -6641.8313   -6274.3964   -6641.8313            0    2155.5047    23.214361    21.335206    21.887599     10840.56    2729.4512     2428.024     1309.039    390.62803    344.87213    140.91485   -5933.6145 
19272000    149.97886   -6640.4191   -6254.6076   -6640.4191            0    1604.2577    23.369043    21.430778    21.693664    10864.551     1819.565    1341.7647    1651.4434   -441.88976   -277.13975   -987.56163   -6000.4156 
19273000    149.21362   -6649.4818   -6265.6389   -6649.4818            0    2505.0869    23.324916    21.428976    21.652535    10822.567    2133.0573    1658.3317    3723.8718    -1396.935    669.23327    1161.9223   -5870.2459 
19274000    154.96502    -6615.142    -6216.504    -6615.142            0    2169.1813    23.318031    21.460156    21.706816    10862.277    1739.2693    1998.7952    2769.4794    208.60508    630.31605     573.8376   -5872.8727 
19275000    149.38277   -6619.1976   -6234.9196   -6619.1976            0    1841.2417    23.289351    21.504674    21.713632    10874.836     1653.041    2215.7516    1654.9325   -475.70561   -140.57269   -199.35832   -5942.9017 
19276000    152.01924   -6623.4935   -6232.4332   -6623.4935            0    2481.5809    23.194888    21.456551    21.767563     10833.33    3134.2358    2092.1877    2218.3191    308.65914    1020.5256    228.91392   -5840.3608 
19277000    147.28303   -6620.2567   -6241.3801   -6620.2567            0    3805.5842    23.220414    21.393163      21.7051    10782.184    3866.5239    4048.4887      3501.74    792.94825   -181.13589   -527.55087    -5642.963 
19278000    141.60297   -6637.3145   -6273.0495   -6637.3145            0    2497.8459    23.241977    21.403724    21.755296    10822.495    3290.6615    2543.9812    1658.8951   -98.526403   -697.17989   -566.91075    -5878.802 
19279000    143.77428   -6636.3255    -6266.475   -6636.3255            0     1933.157    23.224152    21.449319    21.741954    10830.586    2449.8654    613.35464     2736.251   -120.25052    877.86238    1306.1767    -5961.127 
19280000    148.68539   -6615.0162   -6232.5321   -6615.0162            0    2630.8183    23.284123    21.438266    21.739197    10851.581    2905.9102     2435.341    2551.2036     770.7698   -525.31836    249.73259   -5816.1809 
19281000    148.16866   -6619.4988    -6238.344   -6619.4988            0    2484.6437     23.33236    21.450987    21.664087    10842.922     1540.061    3014.0866    2899.7836    -1028.018    566.80845    17.752289   -5845.4401 
19282000     150.9363   -6634.6629   -6246.3885   -6634.6629            0    1510.0085    23.326464    21.398939    21.776548    10870.016    2005.8916     1458.236    1065.8981    855.93704   -1120.0763    286.39444   -6007.0098 
19283000    144.07855   -6625.6746   -6255.0413   -6625.6746            0     1515.605    23.332432    21.396363    21.836942    10901.639    1371.6711    2418.9252    756.21862    242.05083   -923.26922    226.40509   -6014.0765 
19284000    145.57273   -6639.2334   -6264.7565   -6639.2334            0    1788.9354    23.455428    21.324225    21.768959    10888.154    452.37732    1923.0362    2991.3928    989.93059    1568.0436    893.31483   -5980.6868 
19285000    138.00427   -6629.0508   -6274.0432   -6629.0508            0    1972.2546    23.426891    21.352916    21.768692    10889.406    2095.3562     2682.257    1139.1506    280.86526     114.5427   -454.94596   -5960.8279 
19286000    143.10926   -6637.5234   -6269.3836   -6637.5234            0    906.52259    23.430178    21.352917    21.806809    10910.004     708.8532    1055.0255    955.68906   -1523.6751    392.01404   -607.30651   -6125.1457 
19287000    148.09161   -6633.1282   -6252.1716   -6633.1282            0    1357.0026    23.422083    21.366086    21.770076    10894.579     1657.406    984.12492    1429.4769   -177.79324   -391.47886    1225.9125   -6036.5625 
19288000    145.02884   -6633.1055   -6260.0276   -6633.1055            0    1339.3346    23.366467    21.376908    21.804736    10891.527    1739.0385    906.75308    1372.2121   -196.43406    263.31406   -245.82196   -6047.2854 
19289000    148.54035   -6638.1475   -6256.0365   -6638.1475            0    1072.1294    23.424619    21.490962    21.673045    10910.592   -31.044795    1255.4894    1991.9435   -47.265484    113.43079   -29.412343   -6085.4395 
19290000    143.19803   -6635.6483   -6267.2801   -6635.6483            0    1731.3063    23.376215    21.435646    21.684826    10865.925     2089.197    1516.8309    1587.8911    885.82921    340.80454     592.6897   -5992.9228 
19291000    143.39719   -6638.1415    -6269.261   -6638.1415            0     2651.267    23.237728    21.427265     21.74814    10828.855    2773.8951    3233.7209    1946.1849     70.62842   -17.702064   -895.48037   -5850.5524 
19292000    145.29524   -6639.0495   -6265.2863   -6639.0495            0    2116.6775    23.330496    21.468912    21.680147     10859.16    2742.5211    1328.4449    2279.0667   -28.265478    8.2205108   -178.30772   -5930.0687 
19293000    147.14011   -6625.1386   -6246.6296   -6625.1386            0    1999.8339    23.259793    21.489603    21.736767    10864.987     1901.656    1298.1147    2799.7311   -700.76426    649.90241    231.82667   -5929.7466 
19294000    148.61639   -6634.1893   -6251.8827   -6634.1893            0    2602.7435    23.260809    21.392296     21.79666    10846.064    2707.7656    3639.0477    1461.4172    1427.1406   -807.07864    5.2575522    -5840.184 
19295000    135.69409    -6648.386   -6299.3212    -6648.386            0    1625.3285    23.309077    21.480708    21.708245     10869.22    987.50302    2156.9175    1731.5651   -174.19423   -17.087119   -33.172795     -6041.68 
19296000    144.85359   -6625.9869   -6253.3599   -6625.9869            0    1466.6634     23.30871    21.498602     21.77162    10909.861    1808.8875    426.44975     2164.653    196.70599    1331.9164    837.50125   -6020.0003 
19297000    139.99697   -6634.3603   -6274.2266   -6634.3603            0    1364.7712    23.249884    21.513225    21.797163    10902.505    2723.4412     524.9053      845.967   -1277.6848   -327.65628    131.81659   -6057.2255 
19298000    144.05278   -6618.2258   -6247.6588   -6618.2258            0     1916.535    23.297424    21.483623    21.788308    10905.333    2037.5968    1817.6974    1894.3107   -673.79387    786.55513    38.140867   -5942.8471 
19299000     148.0662    -6626.275   -6245.3837    -6626.275            0     2398.728    23.302026    21.379416     21.80383    10862.313    2112.7705    1677.6172    3405.7963    805.66582    1292.3574    1523.8543   -5865.3875 
19300000    147.93097   -6634.4416   -6253.8982   -6634.4416            0     3306.327    23.244402      21.4704    21.626057    10792.843    2877.1263    3703.9006    3337.9541   -740.40168    294.47449   -930.94034   -5733.4739 
19301000    147.68538   -6623.9515   -6244.0398   -6623.9515            0    2247.3447    23.266557    21.466878    21.715316    10845.939    2121.0739    2116.7604    2504.1998    392.37724    575.64071    73.134126   -5888.5618 
19302000    146.00915   -6647.6789   -6272.0792   -6647.6789            0    2246.5445    23.181969    21.447713    21.797241    10837.593    2958.2167    2627.2007    1154.2162   -45.425117   -106.51556    382.86043   -5917.0012 
19303000    142.90482   -6636.2545   -6268.6406   -6636.2545            0    2224.4396    23.341509    21.486805    21.648564    10857.501    1553.7872    2216.2713    2903.2602    134.92754   -68.263953   -509.73977   -5916.4105 
19304000    147.33606   -6623.0252   -6244.0122   -6623.0252            0    1916.6581    23.369164    21.428028    21.701151    10866.962    888.25129    2370.5876    2491.1353   -439.43006    701.68335    581.81099   -5940.2535 
19305000    148.50043   -6631.9132   -6249.9049   -6631.9132            0    2277.5009    23.273247    21.354065    21.840048    10854.033    3038.7644    1933.4922    1860.2461   -62.710217   -103.03965    35.232521    -5889.388 
19306000    152.43121   -6627.3439   -6235.2239   -6627.3439            0     1540.462    23.446692    21.361775     21.72143    10879.459    720.38576    1878.1244    2022.8757   -946.39469   -290.03643    624.97245   -5990.8053 
19307000    144.46052   -6622.2725   -6250.6566   -6622.2725            0    3059.6767    23.368116    21.326233    21.682637    10805.626    3667.7174    2342.6782    3168.6346    393.05861   -301.90307    100.43809   -5768.4853 
19308000     144.7646    -6635.889   -6263.4909    -6635.889            0    1999.4095    23.340969    21.423967    21.731181    10866.811    1942.2122    1619.4432    2436.5731    -532.4176    23.419742    38.449612   -5946.6219 
19309000    146.75657   -6630.0146   -6252.4923   -6630.0146            0    1837.9245    23.369981    21.418772     21.75633    10890.268    910.84479    3110.6492    1492.2795    532.89309   -352.37336   -1420.4319   -5960.5869 
19310000    141.39631   -6644.6636   -6280.9302   -6644.6636            0    2510.3693    23.325824    21.431329    21.626649    10811.236    2014.6685    1653.1841    3863.2552    410.39218    2.9736441    1424.2473   -5885.1183 
19311000    144.47132   -6633.9603   -6262.3166   -6633.9603            0    2639.4561    23.281579    21.447708    21.680192    10825.711    2446.0844    2930.8659    2541.4179   -657.58566    438.33821   -109.88943   -5845.5943 
19312000    143.33188   -6615.0404   -6246.3279   -6615.0404            0    1609.7193    23.166775     21.52976    21.870551    10908.486    1867.6094    867.23366    2094.3148   -348.76508    187.67372   -240.30856   -5990.2391 
19313000    152.33752   -6626.0669   -6234.1879   -6626.0669            0    1399.5802    23.228151    21.540257    21.780073    10897.449    1450.2169    2087.9491    660.57462    436.93365    381.73185    417.86587   -6011.7553 
19314000    140.35942   -6624.8478   -6263.7817   -6624.8478            0    2267.4579    23.232303    21.545578    21.680494    10852.245    2205.4995    2115.9423    2480.9318    179.48821   -779.73005   -290.23379   -5904.9138 
19315000    141.10506    -6647.958   -6284.9738    -6647.958            0    2543.7765    23.140172    21.509216    21.727918    10814.571    3756.1883    1233.7377    2641.4036    358.53573   -706.46644    295.84075   -5883.7709 
19316000       147.98   -6617.4746    -6236.805   -6617.4746            0    2840.1925    23.155887    21.475439    21.746561    10814.192    3405.6332    2300.4389    2814.5054   -842.96751    161.44535   -925.65724   -5788.8672 
19317000    138.80848   -6639.9545   -6282.8782   -6639.9545            0    2124.1228    23.235089    21.491882    21.707504    10839.985    2462.9574    2120.6818    1788.7293   -600.43397   -1328.6351     118.0134   -5947.0755 
19318000    139.65095    -6630.754   -6271.5104    -6630.754            0    2076.6383    23.273002    21.496795    21.680483    10846.636    2616.2634    439.76972    3173.8819    719.40582     195.3401    1140.5045   -5943.0131 
19319000    139.25359   -6645.9035   -6287.6821   -6645.9035            0    2067.0989    23.287428    21.488762    21.703404    10860.774    1855.5881    2118.0335     2227.675    568.86508   -286.55448   -579.33195   -5960.2676 
19320000    144.24077   -6634.9948   -6263.9441   -6634.9948            0     1764.609    23.364656    21.315138    21.833926    10873.751    1578.8954    1923.6252    1791.3064   -253.85999    482.27532    153.95586    -5984.108 
19321000    150.32868    -6640.895   -6254.1837    -6640.895            0    1211.5459    23.463649    21.385596    21.757162    10917.399     888.7429    1242.8029    1503.0919   -136.67163    272.47774   -76.046144   -6061.2825 
19322000    153.08969   -6622.7442   -6228.9303   -6622.7442            0    1716.0666    23.420629    21.317025     21.80625    10886.948     1733.727    2659.0754    755.39745   -562.17284    276.31506    264.32977   -5956.4619 
19323000    140.85836   -6638.5168   -6276.1673   -6638.5168            0    1097.1923    23.425971    21.331344    21.795448    10891.348   -168.31521     1548.601    1911.2912    222.73919     839.2836    369.92292   -6101.8902 
19324000     147.7402   -6641.4583   -6261.4057   -6641.4583            0     1927.905    23.376573    21.394633    21.745417    10875.605    1488.1536    2310.3023     1985.259    343.14351   -414.01032   -573.16433   -5955.6215 
19325000    143.11308   -6627.3185   -6259.1688   -6627.3185            0    3348.5181    23.258849    21.362807    21.753653    10808.831    2425.0557    3701.0447     3919.454    213.62974    1703.5151    520.06333   -5731.3227 
19326000    144.15809   -6634.1767   -6263.3388   -6634.1767            0    2366.0549      23.3317    21.505684    21.586471    10831.318    2655.6727    1738.8067    2703.6852   -238.01568   -287.13304   -853.52643   -5889.5881 
19327000    144.19854   -6644.3097   -6273.3677   -6644.3097            0    2516.0484     23.24673    21.444866    21.697986    10816.945    3123.0706    1651.4828    2773.5919    59.690068   -172.42268   -486.02804   -5876.4509 
19328000    151.20071   -6625.6889   -6236.7343   -6625.6889            0    2297.8448    23.073551    21.418779    21.945687    10845.719    3643.2318    2656.9572    593.34549   -404.84655    474.50367   -60.637634   -5873.2757 
19329000    140.71606   -6636.3893   -6274.4058   -6636.3893            0    2029.6584     23.30732    21.524751    21.629439    10851.149    1567.4165    2145.8625    2375.6962    850.65309    -672.1081   -182.20085   -5953.2065 
19330000     151.0177   -6626.3565   -6237.8727   -6626.3565            0    2478.6239     23.34442    21.433097    21.658949    10836.908    1751.9534    2835.8156    2848.1026    539.63739    489.16903    275.13564   -5846.1381 
19331000    147.25749   -6648.5026   -6269.6917   -6648.5026            0    2062.4778    23.269203    21.327948    21.855236    10846.412    3165.1155    2022.1792    1000.1388    108.68154   -67.216581   -404.68921   -5943.4411 
19332000    141.73992   -6631.9403    -6267.323   -6631.9403            0    3365.5987    23.362877    21.381725    21.617465    10798.759    2680.5424    3757.6067    3658.6471   -1183.0338   -638.82425    -494.6961   -5737.2788 
19333000    141.39115   -6623.7548   -6260.0347   -6623.7548            0    2575.4551    23.358847    21.422606    21.682085    10849.875    3165.0363    1723.7356    2837.5935   -722.16159   -122.61735     123.5589   -5852.5093 
19334000    151.21523   -6618.3345   -6229.3425   -6618.3345            0    1764.9905    23.339959    21.385816    21.799488    10881.085    1576.3355    1411.3082    2307.3279    187.36241     458.3443    832.16081   -5949.2571 
19335000    141.77397   -6627.3539    -6262.649   -6627.3539            0     2800.686    23.321632    21.345966    21.760979     10833.11    2691.8248    2872.8538    2837.3793    42.442585   -306.94199   -764.76091   -5820.1692 
19336000     145.3872   -6642.7898   -6268.7901   -6642.7898            0    2226.2032    23.452935    21.308724    21.680045    10834.648    1299.9137    2855.9906    2522.7053     1103.508   -307.05641    451.46536   -5917.0228 
19337000    140.18142   -6637.2342    -6276.626   -6637.2342            0    842.06115      23.3993    21.312372    21.889667    10916.259    248.10738    1121.1372    1156.9389    71.154043    913.52274    75.661627   -6142.5678 
19338000    150.07634   -6640.8404   -6254.7781   -6640.8404            0    2383.3279    23.306994    21.370405    21.804348    10860.307    2558.3087    3133.7995    1457.8755   -301.63648   -91.882105   -740.78164   -5877.2913 
19339000    143.55996   -6657.1662    -6287.867   -6657.1662            0    1954.3231    23.401143    21.318481    21.721447    10836.327    1943.1794    2154.8955    1764.8943    10.965713   -253.55664    625.69692   -5979.0122 
19340000    141.72612   -6636.2176   -6271.6358   -6636.2176            0    1301.9811    23.378055    21.386338    21.749514    10874.126    649.98546    1532.9368     1723.021    407.97742    506.17241   -356.41053   -6065.1573 
19341000    147.13678   -6655.5012   -6277.0008   -6655.5012            0    1280.4798    23.315723    21.420181    21.793772    10884.398    1095.7897    1193.4468    1552.2029    463.49538   -640.91351    411.86659   -6073.7402 
19342000    141.22323   -6623.1262   -6259.8381   -6623.1262            0    2066.2537    23.302772    21.440937    21.770077    10877.055    2203.8774    2240.8095    1754.0743   -360.06098    375.22941   -234.44543   -5932.0668 
19343000    141.99467   -6627.2732   -6262.0006   -6627.2732            0    1307.1246    23.358872    21.482707    21.745811    10912.305    1310.4531    213.27071    2397.6499    842.50075   -810.41587     241.0251   -6053.9785 
19344000    146.08763   -6631.4508   -6255.6493   -6631.4508            0    1917.0196    23.356833     21.39086    21.758863    10871.223    1284.4018    2648.5812    1818.0757    753.48391   -80.419703    553.24175   -5951.7142 
19345000    141.06666   -6645.6506   -6282.7652   -6645.6506            0    1321.6403    23.366564    21.428972    21.715599    10873.466    1683.4884    1669.7808    611.65168   -220.75169    -288.5294   -284.81959   -6073.1816 
19346000    144.18325   -6614.3178   -6243.4152   -6614.3178            0    1321.8583    23.348438    21.490135    21.721168    10898.837    656.35695    1237.7628     2071.455    871.17542   -869.21469    183.85847    -6033.308 
19347000    140.63009   -6624.2744   -6262.5121   -6624.2744            0    1251.8799    23.277632    21.425485    21.838743    10891.735    1173.0843    1591.1624    991.39294    543.75328   -449.83818   -178.40607   -6063.6575 
19348000    140.18531   -6645.0334   -6284.4152   -6645.0334            0    1605.9213    23.275432    21.524651    21.700849    10872.029    1871.8662    1257.2447    1688.6531   -201.61638    -553.4374   -348.12482   -6029.7845 
19349000     152.9353   -6647.5491   -6254.1323   -6647.5491            0    1221.6393    23.190364    21.558411    21.726772    10862.243    932.12946    1064.9056    1667.8829   -362.96965    1185.2417    332.99052   -6060.6067 
19350000     147.7861   -6650.2907     -6270.12   -6650.2907            0    2586.8998    23.193976    21.518564    21.699803    10830.395    2521.2674    2747.5509     2491.881    148.70802    469.39414    423.62832   -5861.5187 
19351000    142.90183   -6648.4393   -6280.8331   -6648.4393            0    1962.5574    23.254311    21.502322     21.71537    10858.155    1799.4751    2073.9127    2014.2843    114.35148   -293.11532   -346.20105   -5970.0522 
19352000     143.8547   -6632.1035    -6262.046   -6632.1035            0    1851.7339    23.289667    21.500223     21.68035    10856.067    1411.2356    2279.8788    1864.0873   -124.72362    344.24422    68.834401    -5968.871 
19353000    151.38842   -6634.2373   -6244.7998   -6634.2373            0     1820.601    23.326978    21.471085    21.735878    10886.535    2082.9464    1679.2295     1699.627    1141.7701   -617.11154    -238.8528   -5955.7449 
19354000     147.9381   -6636.3419   -6255.7801   -6636.3419            0    1276.2728    23.272774    21.399562    21.888849    10901.241    2248.7697    368.65494    1211.3937   -1602.1155   -208.45167    252.78632   -6052.8739 
19355000    151.00737   -6642.1928   -6253.7355   -6642.1928            0    1594.4029    23.400837    21.437542    21.673067    10872.433    1077.6753    1905.2195    1800.3139    212.54759   -46.626171   -323.94317   -6000.9218 
19356000    137.18025   -6622.4213   -6269.5335   -6622.4213            0    2554.3077     23.31575    21.374249    21.754402    10841.451    2850.6279    3020.0372    1792.2581   -998.72255    215.52297   -593.69447   -5865.6682 
19357000    142.07725    -6631.084   -6265.5989    -6631.084            0    1909.9948    23.396168    21.331272    21.759136    10859.333    1312.7131     2458.397    1958.8743   -622.93594    576.33854    142.19084   -5963.1088 
19358000    144.83942   -6636.5257   -6263.9351   -6636.5257            0     1409.598    23.467285    21.307713    21.781578    10891.533   -142.34618     2913.478    1457.6623    466.67761   -426.98255    391.79688   -6040.0319 
19359000    146.98328   -6645.9656   -6267.8601   -6645.9656            0    1657.2174     23.47024    21.274233    21.792616    10881.301      1571.81    2256.6678    1143.1746   -1146.0523    1119.5422    312.80483   -6004.8719 
19360000    142.46188   -6633.7969   -6267.3223   -6633.7969            0    1512.9893    23.576824    21.235497    21.685134        10857    549.05153    2833.9374     1155.979     275.9194   -23.028278   -37.449155   -6027.7583 
19361000    142.27916   -6621.4395    -6255.435   -6621.4395            0    1741.8083    23.426871    21.364291    21.739793    10880.733    1503.1919    2340.9006    1381.3322   -956.79713   -271.45485    127.87436   -5979.0373 
19362000    143.98086   -6627.8928   -6257.5108   -6627.8928            0    2153.4682    23.386936    21.285004    21.793888    10848.802    866.37384    3728.5062    1865.5244    969.75081   -447.77601   -393.27923    -5916.792 
19363000    142.49062   -6623.9317   -6257.3833   -6623.9317            0    2640.5026    23.289782    21.390638    21.764025    10842.474    3553.2119     2131.634    2236.6621   -243.50721    -966.5628    378.58498   -5839.8502 
19364000    149.39938   -6630.9212   -6246.6004   -6630.9212            0    2459.5858    23.419609    21.430535    21.606457    10844.167     3084.341    1470.8244    2823.5921   -624.71296    -509.8937   -290.00119   -5857.6143 
19365000     146.7507   -6625.0479   -6247.5407   -6625.0479            0    2812.2659    23.287523    21.374908     21.74053    10821.755    2589.2119    3531.7909    2315.7948    138.49324   -546.25092    307.77183   -5803.6971 
19366000    144.93244   -6656.7135   -6283.8836   -6656.7135            0    2465.3126    23.266617    21.390815    21.727711    10813.706    1946.6799    2417.1964    3032.0614    798.22391   -249.87587    -579.9252    -5895.087 
19367000    139.39476   -6655.4566    -6296.872   -6655.4566            0    2146.4579    23.330283    21.439867    21.672488    10840.538    2041.8954     2392.612    2004.8664   -599.56013   -752.61963    -145.7324    -5957.521 
19368000    143.25503   -6644.0954   -6275.5805   -6644.0954            0    2344.1214    23.292555     21.43356    21.677062    10822.108    2173.4361    2017.3265    2841.6015   -544.01897    725.97659    423.39718   -5905.6094 
19369000    143.23914   -6632.9213   -6264.4473   -6632.9213            0    2028.3639     23.29611    21.468184    21.702329    10853.881    2542.8371     2119.172    1423.0826   -951.24555   -157.87259    -964.2209   -5943.3721 
19370000    146.44995   -6640.8367   -6264.1031   -6640.8367            0    1907.6968    23.328451    21.378461    21.772179     10858.36    1362.2667    2654.4414    1706.3823    688.35201    307.45855   -795.16813    -5962.004 
19371000    145.36688   -6639.3777   -6265.4302   -6639.3777            0    1437.5252    23.390116    21.445194    21.657456    10863.501     520.0743    2285.5846    1506.9167   -555.82557    758.59417   -73.755767   -6037.6787 
19372000    152.28779   -6626.1499   -6234.3988   -6626.1499            0    1836.9246     23.33616    21.381923    21.786578    10870.892    2053.1002    1538.9044    1918.7691    215.27424    130.56693     515.4531   -5943.1713 
19373000    145.04286   -6637.0926   -6263.9787   -6637.0926            0    2218.4004    23.310035    21.335915    21.774827    10829.513    1865.1445    2897.8915    1892.1652   -626.83519    492.83599    730.61997   -5913.6104 
19374000    148.34786   -6632.4225   -6250.8067   -6632.4225            0    3062.2576    23.440487    21.336011    21.629426    10817.449    2141.4964    3224.5025    3820.7739    203.93349    206.38721    421.70759   -5767.7007 
19375000    147.52335   -6625.3203   -6245.8255   -6625.3203            0    2092.5892    23.347942    21.371319    21.762479    10858.962    1634.5281    2137.4239    2505.8157    454.39992    197.08334    828.04674   -5914.4288 
19376000    148.70763   -6648.7375   -6266.1962   -6648.7375            0    2067.9022    23.327455    21.359918    21.790733    10857.724    1924.8789    3000.0559    1278.7717    7.6094115   -94.482302   -1132.4197   -5938.7464 
19377000     145.0649   -6640.0915   -6266.9208   -6640.0915            0    2169.4693    23.278199    21.447145    21.724896    10846.174    3017.4189    1652.0518    1838.9371   -300.76074   -652.75381   -539.81346   -5923.7535 
19378000    145.08776   -6633.5016   -6260.2722   -6633.5016            0    2507.1276    23.251688    21.475613    21.710818    10841.172    2252.2563    2678.9665    2590.1599   -709.58644    353.53919     294.2971   -5863.8768 
19379000    146.71832   -6615.3585   -6237.9346   -6615.3585            0     1724.467     23.28051    21.553568    21.672837    10874.954    2126.9952    1512.3694    1534.0364     1082.623   -251.88224     -1024.75    -5964.434 
19380000    140.25334    -6651.587   -6290.7938    -6651.587            0    1182.5606    23.145512    21.598926     21.75795    10877.195    1958.2269   -522.56358    2112.0186    284.77461     862.6784    891.39598    -6103.201 
19381000    136.50567   -6636.8838   -6285.7313   -6636.8838            0    2550.5372    23.084337    21.512314    21.835129    10843.271    3944.2058    1985.1116    1722.2942   -566.51347   -701.03447    402.13227   -5882.3945 
19382000    151.43471   -6631.7314   -6242.1749   -6631.7314            0    2248.4863    23.298999    21.516875    21.633657     10845.42    1561.7786    2388.2111    2795.4692   -149.75167    285.67904    298.00963   -5886.5333 
19383000    151.16618   -6640.4617   -6251.5959   -6640.4617            0     2239.216     23.21623    21.534763    21.684629     10841.36    1782.5243    2015.8752    2919.2483   -245.39891     251.5115   -16.036996   -5897.5532 
19384000    135.16638   -6626.4544   -6278.7471   -6626.4544            0    2325.2848     23.15565    21.485456    21.803465    10847.435    2743.9967    2483.4366    1748.4211     153.7445   -975.23338   -308.76863     -5910.89 
19385000    138.44194   -6638.1889   -6282.0555   -6638.1889            0    2562.7584    23.286341    21.392462    21.723622    10821.669    1937.3679    3663.8268    2087.0806    224.10589   -188.77169    77.117045   -5877.5934 
19386000    145.48547   -6621.5644   -6247.3119   -6621.5644            0    2949.3003    23.338163    21.358282    21.712438    10822.849    3368.5592    2812.2302    2667.1116     472.6089    -322.8033   -280.68256   -5781.7939 
19387000    145.03115   -6638.0251   -6264.9413   -6638.0251            0    2660.8225    23.273746    21.322121    21.816484    10826.335    2092.4742    3463.6285    2426.3649    273.21962    -144.2188   -69.035889   -5844.8214 
19388000    142.20792   -6640.0644   -6274.2431   -6640.0644            0    2398.8214    23.334445    21.330676     21.74236    10822.031     2650.197    2737.7684    1808.4988   -704.96281   -297.42057    227.16289   -5895.6414 
19389000    143.38475   -6636.0356    -6267.187   -6636.0356            0    2832.7111    23.377885    21.341582    21.683813    10818.511    2011.5026     3470.253    3016.3776    17.506941   -6.1596099   -247.32005   -5820.2507 
19390000    146.91181   -6640.5724   -6262.6507   -6640.5724            0    2170.9893     23.30823    21.300633    21.853369    10849.762      2269.63    2880.0817    1363.2563    423.93549   -783.94828   -319.93794   -5919.1293 
19391000    140.53711    -6635.637   -6274.1138    -6635.637            0    2170.5818    23.312072    21.465964    21.672012    10845.024    1731.4971    2392.8576    2387.3907   -1160.2683    144.58983   -708.99334   -5930.8069 
19392000     142.7308   -6625.9225   -6258.7562   -6625.9225            0     1475.258    23.339135     21.44245    21.720419    10869.945    1873.6696    797.95359    1754.1508   -505.91229   -83.038297    158.41846   -6024.8879 
19393000    147.20361   -6633.5534   -6254.8811   -6633.5534            0    2302.4936    23.325316    21.398581    21.723343    10842.743    1711.2928    3021.9477    2174.2403   -285.99076    729.21435   -320.05063   -5890.7871 
19394000    145.96646   -6638.4925   -6263.0027   -6638.4925            0    2550.9109    23.304754     21.43809    21.724135    10853.582    1473.6364    3157.2999    3021.7965     797.5193    247.98313     161.8814   -5859.2232 
19395000     144.7206    -6609.934   -6237.6491    -6609.934            0    1489.7718    23.285255    21.457666    21.789398    10887.012     2037.249    563.69792    1868.3684    433.21049    631.08685    87.173742   -6001.1092 
19396000    145.01303   -6637.8916   -6264.8544   -6637.8916            0    2644.7572    23.162802    21.601627    21.662152    10838.749    3535.5477    1788.4815    2610.2423   -382.87372   -531.51905    955.66814   -5846.7923 
19397000    148.40634   -6659.7335   -6277.9672   -6659.7335            0    1590.9648    23.171667    21.515956    21.792715    10864.988    1370.7865    1759.3369     1642.771   -543.82188    1550.0969   -474.21512   -6025.8713 
19398000    139.16587   -6635.4762   -6277.4805   -6635.4762            0    2280.4521    23.143232    21.541514    21.721172    10828.879    3550.9195    1370.4136    1920.0232   -1517.2602    426.43617   -43.365289   -5917.3331 
19399000    152.96245   -6637.9049   -6244.4183   -6637.9049            0    2042.0959    23.228244    21.552956    21.670935    10849.279    1488.6973    1974.9165    2662.6738    1150.9063   -228.24389    94.146057   -5921.3065 
19400000    147.59043    -6651.239   -6271.5716    -6651.239            0    1465.6395    23.313536      21.4952     21.69896    10873.981    1132.8704    1841.0178    1423.0302   -98.414811   -226.70066    264.08954   -6039.1419 
19401000    145.95074   -6624.0908   -6248.6414   -6624.0908            0     1787.905    23.399067    21.354066    21.754891    10870.162    1178.3997    2561.3683    1623.9469    219.58702    506.47387    43.525833   -5965.2045 
19402000    143.94157   -6649.1594   -6278.8785   -6649.1594            0    2804.9579    23.345346    21.323367     21.72854    10816.497    1414.8685    3880.4041    3119.6011    216.78391    1326.4187    501.53771   -5836.4034 
19403000     152.3487   -6633.1731   -6241.2653   -6633.1731            0    2086.0369    23.406027    21.328347    21.759633    10862.667    2313.4406     1684.535     2260.135    348.28462   -1395.0742    52.415575   -5910.7936 
19404000    142.64943   -6626.9392   -6259.9822   -6626.9392            0    1173.5506    23.447114    21.242711    21.922377    10919.103    577.15269    2929.3034    14.195872   -660.86539      -516.91   -758.47449   -6073.1014 
19405000    140.67152   -6634.7337   -6272.8647   -6634.7337            0    2470.8457    23.486171    21.184051    21.760936    10826.767    1414.8143    4311.6456    1686.0773   -74.062811    90.311817   -1247.7694   -5882.7249 
19406000    134.98182   -6639.3718   -6292.1393   -6639.3718            0     2510.077    23.412586    21.268246    21.737782    10824.212    2784.4471     2569.394    2176.3898   -648.02854   -732.93701    541.46458   -5895.8984 
19407000    139.76321   -6629.6398   -6270.1075   -6629.6398            0    1305.6072    23.432878    21.424165    21.699483    10893.788    823.87137    642.37019    2450.5801   -73.070639     182.3374    648.05411   -6062.6795 
19408000    147.30367    -6651.418   -6272.4883    -6651.418            0    1094.9484    23.340383    21.460781    21.784753    10912.045    477.02208    1535.0289    1272.7944    20.354581   -135.84226    176.80807   -6098.2371 
19409000    144.23171   -6629.9642   -6258.9369   -6629.9642            0    2275.6357    23.301516    21.406849    21.752336    10850.327    2795.4773    2582.8437    1448.5862    34.222511   -1047.2391    262.47089   -5898.8383 
19410000    149.02804   -6651.8119   -6268.4463   -6651.8119            0    1588.7932    23.365375    21.470697    21.665886    10869.145    1433.4267    1343.2443    1989.7086   -397.49395    456.73851   -652.35666   -6016.5983 
19411000    141.36499    -6649.255   -6285.6022    -6649.255            0     1236.768    23.275635    21.429802    21.837161    10892.206     687.9344    1802.4833    1219.8864    500.29462    -786.7515   -31.575871   -6089.1396 
19412000    142.24988    -6625.736   -6259.8069    -6625.736            0    2258.5514    23.228301    21.513248    21.715783    10851.729    1647.9316    1814.9561    3312.7666    -283.7929    564.82745    930.96094   -5902.3655 
19413000    147.34793   -6642.0854   -6263.0418   -6642.0854            0    2640.7884    23.216522    21.547639     21.64757     10829.44    3269.7288    1992.6469    2659.9895   -443.03948    113.91101    -963.7528   -5845.9655 
19414000    143.01969   -6644.3871   -6276.4777   -6644.3871            0    2569.6342    23.173319     21.49895    21.764622    10843.179    3296.4743    1948.3379    2464.0903   -65.351483    425.24086    404.80154   -5870.1244 
19415000    142.46468    -6626.783   -6260.3013    -6626.783            0    2458.6828    23.215308    21.545425    21.680618    10844.292    2890.5427    2061.9864    2423.5193    15.138904    775.37311    1182.6862   -5871.4536 
19416000    147.74357   -6622.4228   -6242.3614   -6622.4228            0    2257.3907    23.183748    21.594754    21.695742    10861.916    3637.4849     1195.459    1939.2281   -1019.1596   -659.94026   -139.33973   -5884.7684 
19417000    135.65768   -6618.7584   -6269.7873   -6618.7584            0    1840.3475    23.210066    21.448328    21.836459    10870.563    3259.4168    524.59806    1737.0277   -950.45556    88.743204    526.43494    -5978.026 
19418000    150.22794   -6631.1215   -6244.6692   -6631.1215            0    1420.8089    23.350474    21.460184    21.704859    10876.423     1135.278    1529.3708    1597.7778   -160.64446   -476.27765   -182.70536   -6019.2984 
19419000    151.48603   -6619.6369   -6229.9483   -6619.6369            0    2784.1034    23.308933    21.347585    21.764042    10829.557    2642.7277    2736.6231    2972.9595   -643.55834    702.42571    155.27459   -5790.2326 
19420000    145.17096   -6642.0521   -6268.6087   -6642.0521            0    1715.3892     23.26972    21.363018    21.876355    10874.986    2143.8762    2433.3802    568.91136   -161.40055   -384.95935   -766.42688    -5996.547 
19421000    143.35595   -6632.9637   -6264.1893   -6632.9637            0    1584.8834    23.411571    21.446434    21.684611    10887.728    952.72045    1362.4485    2439.4813    1207.9239    455.66746    88.153706   -6012.5314 
19422000    145.43805   -6632.9912   -6258.8606   -6632.9912            0    3072.6166    23.290947    21.339199    21.762446    10816.157    3726.3536    2637.7578    2853.7383   -776.38574   -754.68564    147.13441   -5774.1782 
19423000    145.70153   -6646.2123    -6271.404   -6646.2123            0     2816.337    23.353269    21.239572     21.83057    10828.256    2754.1007    2936.2495    2758.6607    787.63386   -797.55973   -100.10755   -5826.6509 
19424000    143.58112   -6645.1752   -6275.8216   -6645.1752            0    2149.0659    23.442966    21.295732    21.747227    10856.979    2140.0695    2048.8388    2258.2893   -1208.0959   -189.66074    117.02891    -5935.543 
19425000    142.26936   -6625.0264   -6259.0471   -6625.0264            0    2894.3116    23.437333    21.273723    21.708195    10823.691    2369.0815    3304.5107    3009.3425    218.85415    82.157975    380.64981    -5802.173 
19426000    143.40997   -6645.8545   -6276.9411   -6645.8545            0    1775.6942    23.631559     21.22026    21.614012    10838.732    335.78247    2670.2846    2321.0155    69.167262   -468.61167   -519.70494   -5996.2539 
19427000    149.95374   -6623.8358   -6238.0889   -6623.8358            0    1820.3577    23.415227    21.299867    21.783916    10864.536    1598.5631    1532.3079    2330.2021    127.12993   -823.49521     1021.202   -5949.6566 
19428000    145.98071   -6628.8371   -6253.3106   -6628.8371            0     2665.025    23.366268    21.306073    21.750463    10828.325    1632.5415    3411.6897    2950.8438     7.100675     427.2738    25.338048   -5832.4498 
19429000    146.84274   -6639.1418   -6261.3978   -6639.1418            0    1953.0887    23.366083    21.426219    21.661468    10844.745    1070.8165    1885.2538    2903.1959   -556.36239   -378.09899   -778.87796   -5952.4982 
19430000    146.22946   -6628.9021   -6252.7357   -6628.9021            0    3202.4467    23.265529    21.421972    21.669688    10800.032    3268.5437    3019.4862    3319.3101    502.98528   -188.85295    886.94818   -5748.3267 
19431000    140.31826   -6627.8765   -6266.9163   -6627.8765            0    2070.7896    23.182863     21.45739    21.819013    10853.731    1788.5801    2268.5972    2155.1916    563.08069   -310.07807   -306.08442   -5939.1299 
19432000    146.53112   -6625.1614    -6248.219   -6625.1614            0    2153.9466    23.240339    21.479324     21.73745    10851.047    2163.9007    1573.8254    2724.1137    282.78202   -266.41893   -125.90331    -5907.354 
19433000    140.22415   -6630.8379   -6270.1198   -6630.8379            0    4148.2288    23.288899    21.392687    21.581405    10752.118    3547.5382    4082.7373    4814.4109   -14.746653   -66.593184    628.95195   -5619.6418 
19434000      145.332   -6648.4344   -6274.5767   -6648.4344            0    2349.3255    23.287187    21.403246    21.735616    10833.496    2517.8566    2467.7581    2062.3616    1052.7355    205.92573     137.3823    -5903.394 
19435000    142.78213   -6618.7177   -6251.4194   -6618.7177            0    1771.3351    23.309292    21.475757    21.744793    10885.111    2026.8751     2587.711    699.41918   -957.39454   -548.07289   -1336.0884   -5970.2232 
19436000    149.15709   -6631.8396    -6248.142   -6631.8396            0    1155.5569    23.377068    21.461615     21.72633    10900.309    536.96785    609.77028    2319.9326     564.4673    813.06157    650.43362   -6064.4434 
19437000    143.92176   -6652.0539    -6281.824   -6652.0539            0    2870.0019    23.284179    21.441635    21.674027    10820.777    2780.6388     2343.001     3486.366   -908.47886    -780.0872    170.52929   -5828.9092 
19438000    146.10949   -6623.4093   -6247.5516   -6623.4093            0    1209.8356    23.286048    21.381165    21.849596    10878.539     1012.225    1188.7038    1428.5781   -119.43899   -461.40874   -547.83412   -6055.6083 
19439000    139.10999     -6644.14    -6286.288     -6644.14            0    1647.6258    23.345636    21.447224     21.69491    10862.622    1002.2474    1289.0911    2651.5389   -900.26407    494.62104    292.67981   -6025.2708 
19440000    148.70314   -6605.9604   -6223.4306   -6605.9604            0    3441.8473    23.317603    21.382186    21.682354    10810.417    3642.0409     3621.311    3062.1899    46.927398   -322.77937   -312.66458    -5680.793 
19441000    154.10348   -6642.7576   -6246.3358   -6642.7576            0     2809.393    23.224302    21.348635    21.826607    10821.788    3238.0486    2550.9112     2639.219   -90.979275   -650.21473    1031.8088   -5802.9443 
19442000    145.82522   -6630.6212   -6255.4947   -6630.6212            0    2137.1993    23.379193    21.385815    21.694086    10846.676    2362.5144    1197.4501    2851.6334    450.78114     -162.905   -191.03376   -5917.4162 
19443000    139.89137   -6629.2605   -6269.3984   -6629.2605            0    2443.0128    23.398462    21.328209     21.66882    10813.766    2353.1746    2889.6168    2086.2471    -11.52834   -866.10302   -79.531596   -5884.1165 
19444000    143.14915   -6626.0354   -6257.7929   -6626.0354            0    2130.7431    23.346062    21.304088    21.827792    10856.414    2813.8032    2076.8368    1501.5892    -66.79901    252.62409    260.00086   -5920.4331 
19445000    146.69912   -6624.3321   -6246.9576   -6624.3321            0    2327.2789    23.331091     21.37262     21.74939    10845.258    1903.6109    2559.4657      2518.76   -1064.6374   -79.528053   -506.22273    -5878.859 
19446000     143.1645   -6635.4969    -6267.215   -6635.4969            0    2583.0353    23.423357    21.296461    21.683163    10816.312    2056.5014    3554.3023    2138.3022   -361.06916    643.24765    135.28335   -5859.7545 
19447000    141.28319   -6623.9541   -6260.5117   -6623.9541            0    1031.0799    23.440663     21.37183    21.801644    10921.967    1158.6552    1078.7882    855.79633   -339.23347   -295.21818    92.707092   -6096.2755 
19448000    144.94786   -6623.4396     -6250.57   -6623.4396            0    2179.8717    23.327932    21.454613    21.701288    10861.316    2168.3268    2077.8898    2293.3986   -94.314238    1028.6812   -278.70556   -5905.2759 
19449000    146.48856    -6626.305   -6249.4721    -6626.305            0    1499.7043     23.15777    21.534461     21.81125    10877.054    2661.2016    638.78237    1199.1289   -714.48886    485.47704    382.08508    -6011.573 
19450000    146.95771   -6644.1282   -6266.0885   -6644.1282            0    2604.2925     23.15064    21.526969    21.791491    10860.075    4948.5526    1142.6937    1721.6313    506.76271    -1151.573   -315.39584   -5853.6127 
19451000    151.45156   -6645.8957   -6256.2958   -6645.8957            0    1636.3724    23.304324    21.518619    21.692706     10878.39    662.46357    1669.9422    2576.7113      353.905    750.10442    96.887763    -5996.685 
19452000    144.45581   -6635.7649   -6264.1611   -6635.7649            0    462.69693    23.253933    21.537331    21.842217    10939.187    11.683068   -191.89168    1568.2994    975.02309     684.8602    543.10814   -6190.3439 
19453000    139.36353   -6649.6789   -6291.1748   -6649.6789            0    416.82685    23.294478    21.519277     21.82488    10940.383    469.12165    1308.4128   -527.05387    160.65703   -795.23506    -24.01761   -6224.6682 
19454000    144.50675   -6638.4359   -6266.7011   -6638.4359            0    1709.9956    23.313086    21.480504    21.741513    10887.646    1616.9587    996.55048    2516.4776   -58.830791    616.49052    202.80056   -5995.1792 
19455000    143.84592   -6644.5163   -6274.4814   -6644.5163            0    1596.7526    23.299629    21.518586     21.69663     10878.15    2036.1562    1218.4299    1535.6716    389.73398    205.05582   -521.21785    -6021.162 
19456000    140.60637   -6645.8665   -6284.1652   -6645.8665            0    1250.2223    23.187956     21.48678    21.886466    10904.592    1794.4576    1136.0052    820.20421    296.58443   -315.94937   -894.54609   -6085.3395 
19457000    138.03514   -6635.2547   -6280.1677   -6635.2547            0    2069.1427    23.255472    21.502327    21.699587    10850.808    2364.6312    440.99717    3401.7996    295.88902    333.60037    1238.3047   -5952.7302 
19458000    141.99107   -6626.1546   -6260.8912   -6626.1546            0    1387.7788    23.300936    21.625284    21.630591    10899.425    1470.7082    1034.6697    1657.9585   -324.04239   -43.457657    447.73053   -6040.2941 
19459000    145.41363   -6625.8824   -6251.8147   -6625.8824            0    1313.4218    23.223361    21.484145    21.872886    10913.128    1862.0998    1846.6407    231.52474    157.74267     385.0881   -383.64037   -6042.7747 
19460000    134.49662   -6611.8701   -6265.8858   -6611.8701            0    1449.2353    23.360077    21.494594     21.69724    10894.518     1565.376    605.58231    2176.7477   -890.38213   -165.30773    490.17813   -6035.6235 
19461000     147.5214   -6632.5786   -6253.0887   -6632.5786            0    2613.6005    23.324467    21.446704    21.721112    10865.615    2632.3946     1889.628    3318.7788   -424.72624    182.48616    804.69275   -5838.9275 
19462000    141.31142   -6637.6756   -6274.1606   -6637.6756            0    1278.0747    23.329304    21.400519    21.842283    10904.961    807.38371    1855.0843    1171.7561    469.61665    910.56985   -375.22539   -6070.8986 
19463000    141.90758   -6633.1963   -6268.1477   -6633.1963            0    1552.4022    23.324176    21.441906    21.758784    10881.889    1310.7687    1471.9798    1874.4583   -505.70577    494.96459    981.57365   -6021.7797 
19464000    154.36594   -6660.6731   -6263.5761   -6660.6731            0     1335.985    23.333122    21.467066    21.690934    10864.851    1020.8731     1522.635    1464.4468   -481.82428    292.86515   -1097.0509   -6051.8856 
19465000    138.51123   -6640.5468   -6284.2351   -6640.5468            0    2478.3574    23.206367    21.459459    21.762391    10837.586    2728.4325    1946.4963    2760.1435    501.18622   -773.97162   -57.121143   -5892.5182 
19466000    147.17854   -6642.7864   -6264.1786   -6642.7864            0    2424.6128    23.241836    21.472592    21.694246    10826.784    3291.1203    1389.0513    2593.6667    270.53654    734.50949    747.28297   -5881.3382 
19467000    144.50954   -6637.6282   -6265.8862   -6637.6282            0    2025.7933    23.329644    21.536983    21.607346    10856.615    2834.8645    372.65395    2869.8615   -802.77881   -310.14342   -177.94924   -5945.1371 
19468000    142.87915   -6620.1546   -6252.6067   -6620.1546            0    2067.0718    23.244486     21.38289    21.882004    10876.106    1967.8733     2325.453    1907.8891    425.64749    588.52202    -374.6539   -5924.7342 
19469000    147.03456   -6647.1055   -6268.8681   -6647.1055            0      1256.96    23.264189    21.400819     21.87178    10889.362    1439.0368    1954.7405     377.1029   -683.57373    91.513908   -163.10017   -6069.2501 
19470000    139.34348   -6647.1535   -6288.7009   -6647.1535            0    691.05656    23.365701    21.513234     21.67831    10897.075    757.65483    179.52974    1135.9851   -606.57066    946.38648   -791.66729   -6178.8764 
19471000    143.28487   -6642.4244   -6273.8328   -6642.4244            0    1668.6897    23.223119      21.4354    21.844081    10873.914    2570.2704    1840.7924    595.00629     -962.141     83.02457   -46.837836   -6009.2039 
19472000    150.86018   -6662.8397    -6274.761   -6662.8397            0    1715.0966    23.294943    21.493821     21.70475    10867.511    2955.4945    640.44726    1549.3479   -277.59599   -607.53696     -190.194   -6002.9328 
19473000    139.02318   -6631.1309   -6273.5023   -6631.1309            0    2540.5635    23.376963    21.421006    21.571025    10801.864    1530.4533    2081.7252     4009.512   -1401.0466    676.22659    24.234309   -5873.2769 
19474000     145.9239   -6616.5949   -6241.2146   -6616.5949            0    2801.7358    23.336926    21.299617    21.779195    10825.732     2926.378    3219.6321    2259.1974    689.15077   -416.51559   -483.02759   -5798.8704 
19475000    138.47931    -6625.914   -6269.6844    -6625.914            0     1541.036    23.386629    21.356554    21.764589    10870.494    1850.7347     1373.066    1399.3073   -411.20766    97.201544   -29.387784   -6025.3763 
19476000    149.08411   -6647.9564   -6264.4466   -6647.9564            0    1439.0128    23.365825    21.349457    21.800962    10875.359    1037.4999    2370.7821    908.75646     308.5301    1031.5349   -114.10335   -6036.2106 
19477000    151.73784   -6616.0614   -6225.7251   -6616.0614            0    2373.8583    23.360034     21.39258    21.720226    10854.279    2162.5304    2637.9689    2321.0756    300.87081   -7.9360509    77.361778   -5849.9468 
19478000    152.69537   -6625.5144   -6232.7149   -6625.5144            0    2447.6843    23.387281    21.307009    21.730782    10828.731    2508.4215    3075.8614    1758.7701   -277.88555    589.05953   -693.36403    -5846.162 
19479000    148.67661   -6632.7774   -6250.3159   -6632.7774            0    2228.5902    23.505792    21.240218    21.714535    10841.376    735.68329    3354.4607    2595.6267    313.10179   -263.13209   -225.19393   -5897.9527 
19480000    144.23322    -6610.325   -6239.2939    -6610.325            0    1997.1271    23.384287    21.375749    21.754557     10874.16    2279.8963    1192.1526    2519.3325    84.290868   -331.90382    117.12497   -5922.5725 
19481000    149.34238   -6626.3932    -6242.219   -6626.3932            0    883.63713    23.455929    21.361413    21.804076    10924.971    34.539353    1672.4733    943.89875    740.39532    529.70879    698.47472   -6101.4295 
19482000    144.82354   -6627.5317    -6254.982   -6627.5317            0    1197.1802    23.431293    21.446738    21.739742     10924.76    973.85745    1466.0065    1151.6766    225.30012   -588.70516   -71.727566   -6064.2395 
19483000    142.73551   -6637.1587   -6269.9803   -6637.1587            0     1038.304     23.35475    21.420106    21.758148    10884.758   -35.040078    1379.3512     1770.601   -165.81576    615.90446    909.89715   -6105.1568 
19484000     145.2171   -6633.2793   -6259.7172   -6633.2793            0    2298.5615      23.3087    21.372578    21.794555    10857.328    2177.2674    2570.9751    2147.4419   -882.54253    112.51472   -140.35511   -5895.7561 
19485000    142.45389   -6630.9297   -6264.4757   -6630.9297            0    1546.8937    23.402684    21.348487    21.785918    10884.504    1368.2606    2225.0017     1047.419   -191.32479    397.95818   -95.635027   -6018.9229 
19486000    138.44712   -6622.6531   -6266.5063   -6622.6531            0    1474.7706    23.386404    21.454075    21.701056     10888.15    442.65077    1895.8926    2085.7683    779.95592   -423.72207   -174.56125   -6032.3238 
19487000    139.60728   -6632.8331   -6273.7019   -6632.8331            0    2170.2425    23.224936    21.450937    21.802859    10862.112    3021.9269    2687.8631    800.93756    -550.3473   -475.02706   -783.22767   -5929.9078 
19488000    145.30892    -6615.757   -6241.9586    -6615.757            0    2856.2638    23.193038    21.404279    21.823675    10833.932     3844.372    2868.7177    1855.7017    -49.04284   -513.93085    -381.1369   -5790.6639 
19489000    142.14358   -6633.7802   -6268.1245   -6633.7802            0    994.69503     23.31929    21.540775     21.65207    10876.172    1096.4972    1096.9322    790.65572    236.59844   -896.89291   -530.63769   -6110.3481 
19490000    151.16589   -6639.5447   -6250.6796   -6639.5447            0    1645.2104    23.285247    21.498074    21.731586     10878.57    1066.2989    2301.3119    1568.0203    168.45957    1361.5437   -40.241823   -5989.6624 
19491000    147.04672   -6645.3104   -6267.0416   -6645.3104            0    1357.4624     23.18601    21.510956    21.849326    10897.422    2201.9458     773.2207    1097.2207    740.70618   -1117.6681    354.42717   -6051.3032 
19492000    146.13777   -6645.0818   -6269.1513   -6645.0818            0    2643.1838    23.185985    21.491518    21.706365    10816.325    2300.0226    1960.9826    3668.5462   -133.87892    99.068223    -170.1514   -5852.2022 
19493000    146.88296   -6630.5787   -6252.7313   -6630.5787            0    2302.1333    23.282183    21.568689    21.579056    10836.272    2284.6208    1259.2595    3362.5196   -155.11155    556.70794    721.69188   -5888.9115 
19494000    141.29256   -6627.0732   -6263.6067   -6627.0732            0    2113.6938    23.234768    21.495897    21.762371    10869.263    1600.3751     3073.595    1667.1112    363.59856   -98.548737   -415.28768   -5928.5501 
19495000    154.58324   -6631.4938   -6233.8378   -6631.4938            0    1665.3952    23.284679    21.461322    21.794233    10891.015    1679.4937    1240.2301    2076.4617   -552.21933    594.82037    -89.77704    -5969.316 
19496000    140.34187   -6629.6551   -6268.6342   -6629.6551            0    2175.9521    23.374723    21.437106    21.614233    10830.599    1349.1295    2465.6797    2713.0469    17.619473   -680.25098     462.3467   -5924.9357 
19497000    140.88408   -6625.9002   -6263.4845   -6625.9002            0    1593.4736    23.287024    21.443101    21.786796     10879.15     1624.854    1298.0824    1857.4844   -332.36936    812.85686    325.63475    -6010.662 
19498000     143.7506   -6628.8268   -6259.0371   -6628.8268            0       1801.4    23.349825      21.4116     21.73482    10866.478    1670.0866    1952.1126    1782.0007    900.33924   -513.09028    -207.0385   -5973.5577 
19499000    145.88783   -6642.5688   -6267.2812   -6642.5688            0    2542.3267    23.403937    21.278271    21.728865    10820.873    1349.2508    3638.5359    2639.1933    375.31134     972.6747    50.053084   -5866.0733 
19500000    147.89338   -6609.7196   -6229.2729   -6609.7196            0    2235.1651    23.412649    21.328455    21.750129    10861.049    3212.5316     1701.601    1791.3627   -279.35289   -194.86465    534.31353   -5875.2289 
Loop time of 505.925 on 64 procs for 250000 steps with 1296 atoms

Performance: 85.388 ns/day, 0.281 hours/ns, 494.144 timesteps/s
196.6% CPU use with 32 MPI tasks x 2 OpenMP threads

MPI task timing breakdown:
Section |  min time  |  avg time  |  max time  |%varavg| %total
---------------------------------------------------------------
Pair    | 36.22      | 47.651     | 59.729     | 103.5 |  9.42
Bond    | 0.63807    | 0.97332    | 1.3315     |  15.1 |  0.19
Kspace  | 261.14     | 275.97     | 290.07     |  45.9 | 54.55
Neigh   | 1.7163     | 1.8166     | 1.9492     |   4.8 |  0.36
Comm    | 63.199     | 68.071     | 73.074     |  30.5 | 13.45
Output  | 0.54307    | 0.54338    | 0.54484    |   0.0 |  0.11
Modify  | 96.225     | 99.26      | 101.71     |  12.5 | 19.62
Other   |            | 11.64      |            |       |  2.30

Nlocal:        40.5000 ave          50 max          31 min
Histogram: 4 3 5 4 0 0 1 9 4 2
Nghost:        3062.47 ave        3091 max        3020 min
Histogram: 1 1 1 3 3 6 5 6 3 3
Neighs:        12860.4 ave       15968 max        9879 min
Histogram: 4 5 4 3 0 0 1 9 4 2

Total # of neighbors = 411532
Ave neighs/atom = 317.54012
Ave special neighs/atom = 2.0000000
Neighbor list builds = 4013
Dangerous builds = 0

unfix		3
unfix		2
unfix		1

write_data	data.final.${pid}
write_data	data.final.0
System init for write_data ...
PPPM initialization ...
  extracting TIP4P info from pair style
  using 12-bit tables for long-range coulomb (../kspace.cpp:340)
  G vector (1/distance) = 0.36543569
  grid = 30 40 32
  stencil order = 5
  estimated absolute RMS force accuracy = 0.0049901651
  estimated relative force accuracy = 1.5027734e-05
  using double precision FFTW3
  3d grid and FFT values/proc = 7888 1280
Last active /omp style is kspace_style pppm/tip4p/omp
WARNING: Not all mixed pair coeffs generated from mixing. Use write_data with 'pair ij' option to store all pair coeffs. (../write_data.cpp:312)

write_restart   restart.lmp.${pid}
write_restart   restart.lmp.0
System init for write_restart ...
PPPM initialization ...
  extracting TIP4P info from pair style
  using 12-bit tables for long-range coulomb (../kspace.cpp:340)
  G vector (1/distance) = 0.36543569
  grid = 30 40 32
  stencil order = 5
  estimated absolute RMS force accuracy = 0.0049901651
  estimated relative force accuracy = 1.5027734e-05
  using double precision FFTW3
  3d grid and FFT values/proc = 7888 1280
Last active /omp style is kspace_style pppm/tip4p/omp
Total wall time: 0:08:26
