LAMMPS (30 Jul 2021)
Processor partition = 1
  using 1 OpenMP thread(s) per MPI task
using multi-threaded neighbor list subroutines
variable        pid world 0 1
variable        phase world IceII IceIII

shell cd ${phase}
shell cd IceIII
include Restart.lmp
echo both
log log.lammps
#include		in.partitions
include		in.temp
variable        temperature equal 136.45
variable	tempDamp equal 100.0
include		in.pressure
variable        pressure equal 11543.8
variable        pressureDamp equal 1000.0 # This is 1 ps
include		in.seed
variable        seed equal 745823

units		real
atom_style	full

read_restart	restart.lmp.${pid}
read_restart	restart.lmp.1
Reading restart file ...
  restart file = 30 Jul 2021, LAMMPS = 30 Jul 2021
  restoring atom style full from restart
  orthogonal box = (0.15878757 0.33911482 0.17134409) to (19.841213 19.660886 20.528654)
  4 by 4 by 4 MPI processor grid
  restoring pair style lj/cut/tip4p/long/omp from restart
  restoring bond style harmonic/omp from restart
  restoring angle style harmonic/omp from restart
  972 atoms
  648 bonds
  324 angles
Finding 1-2 1-3 1-4 neighbors ...
  special bond factors lj:    0        0        0       
  special bond factors coul:  0        0        0       
     2 = max # of 1-2 neighbors
     1 = max # of 1-3 neighbors
     1 = max # of 1-4 neighbors
     2 = max # of special neighbors
  special bonds CPU = 0.006 seconds
  read_restart CPU = 0.018 seconds
include 	in.setup
variable	out_freq equal 1000
variable	out_freq2 equal 10000
variable	out_freq3 equal 1000

timestep	2.0

neigh_modify    delay 7 every 1

include		in.tip4p
# This is TIP4P/Ice

# create groups ###
group ox type 2
324 atoms in group ox
group hy type 1
648 atoms in group hy

# set charges - beside manually ###
set group ox charge -1.1794
Setting atom values ...
  324 settings made for charge
set group hy charge 0.5897
Setting atom values ...
  648 settings made for charge

# ### TIP3P Potential Parameters ###
pair_style lj/cut/tip4p/long/omp 2 1 1 1 0.1577 8.5
pair_coeff 1 1*2 0.000 0.000
pair_coeff 2 2 0.21084 3.1668
bond_style  harmonic
bond_coeff  1 450 0.9572
angle_style harmonic
angle_coeff 1 55 104.52
kspace_style pppm/tip4p/omp 1.0e-5
pair_modify tail yes

thermo          ${out_freq}
thermo          1000
thermo_style    custom step temp pe etotal epair emol press lx ly lz vol pxx pyy pzz pxy pxz pyz enthalpy

restart 	${out_freq3} restart.lmp.${pid} restart2.lmp.${pid}
restart 	1000 restart.lmp.${pid} restart2.lmp.${pid}
restart 	1000 restart.lmp.1 restart2.lmp.${pid}
restart 	1000 restart.lmp.1 restart2.lmp.1


include         in.dump
dump            myDump all atom ${out_freq2} dump.water.${pid}
dump            myDump all atom 10000 dump.water.${pid}
dump            myDump all atom 10000 dump.water.1
dump            myDump2 all dcd ${out_freq2} dump.dcd
dump            myDump2 all dcd 10000 dump.dcd
dump_modify     myDump append yes
dump_modify     myDump2 append yes


variable natoms 	equal  "count(all)"                        # NUMBER ATOMS
variable H      	equal  "enthalpy/v_natoms"                 # ENTHALPY-per-atom
variable Vol      	equal  "vol/v_natoms"                 # volume-per-atom
fix AVG all 		ave/time ${out_freq} 1 ${out_freq} v_Vol v_H file vol_enthalpy.dat
fix AVG all 		ave/time 1000 1 ${out_freq} v_Vol v_H file vol_enthalpy.dat
fix AVG all 		ave/time 1000 1 1000 v_Vol v_H file vol_enthalpy.dat


timer           timeout 02:55:00 every 1000
New timer settings: style=normal  mode=nosync  timeout=02:55:00

fix 		1 all shake 1e-6 200 0 b 1 a 1
Finding SHAKE clusters ...
       0 = # of size 2 clusters
       0 = # of size 3 clusters
       0 = # of size 4 clusters
     324 = # of frozen angles
  find clusters CPU = 0.001 seconds
fix             2 all nph aniso ${pressure} ${pressure} ${pressureDamp}
fix             2 all nph aniso 11543.8 ${pressure} ${pressureDamp}
fix             2 all nph aniso 11543.8 11543.8 ${pressureDamp}
fix             2 all nph aniso 11543.8 11543.8 1000
fix             3 all temp/csvr ${temperature} ${temperature} ${tempDamp} ${seed}
fix             3 all temp/csvr 136.45 ${temperature} ${tempDamp} ${seed}
fix             3 all temp/csvr 136.45 136.45 ${tempDamp} ${seed}
fix             3 all temp/csvr 136.45 136.45 100 ${seed}
fix             3 all temp/csvr 136.45 136.45 100 745823


run             250000
PPPM initialization ...
  extracting TIP4P info from pair style
  using 12-bit tables for long-range coulomb (../kspace.cpp:340)
  G vector (1/distance) = 0.37313651
  grid = 24 24 24
  stencil order = 5
  estimated absolute RMS force accuracy = 0.003395766
  estimated relative force accuracy = 1.0226248e-05
  using double precision FFTW3
  3d grid and FFT values/proc = 2197 216
Last active /omp style is kspace_style pppm/tip4p/omp
Neighbor list info ...
  update every 1 steps, delay 7 steps, check yes
  max neighbors/atom: 2000, page size: 100000
  master list distance cutoff = 10.8154
  ghost atom cutoff = 10.8154
  binsize = 5.4077, bins = 4 4 4
  1 neighbor lists, perpetual/occasional/extra = 1 0 0
  (1) pair lj/cut/tip4p/long/omp, perpetual
      attributes: half, newton on, omp
      pair build: half/bin/newton/omp
      stencil: half/bin/3d
      bin: standard
Setting up Verlet run ...
  Unit style    : real
  Current step  : 38000000
  Time step     : 2
  Walltime left : 2:54:59.89
Per MPI rank memory allocation (min/avg/max) = 9.228 | 9.231 | 9.233 Mbytes
Step Temp PotEng TotEng E_pair E_mol Press Lx Ly Lz Volume Pxx Pyy Pzz Pxy Pxz Pyz Enthalpy 
38000000    143.64229   -4931.6181   -4654.5919   -4931.6181            0      11584.4    19.682426    19.321771     20.35731    7741.8713    10986.017    12247.338    11519.846    320.23308     1136.897   -45.754617   -3346.6291 
38001000    137.07358   -4942.9255   -4678.5676   -4942.9255            0    12014.355    19.706024    19.458997    20.151494    7727.2809     11947.09    11185.058    12910.916    727.75937    63.942452    1389.1367   -3324.6163 
38002000    135.17156   -4942.5349   -4681.8452   -4942.5349            0    11511.785    19.568031      19.5487    20.364408    7789.9878    11123.762    10343.783    13067.809    129.18441    894.25323   -1848.7158   -3374.0031 
38003000    136.56018   -4951.1787   -4687.8109   -4951.1787            0    12057.602     19.49676    19.290931    20.649793    7766.6068     12741.73    13278.007     10153.07    142.29156    762.73409    -1380.707   -3322.0704 
38004000      133.681   -4956.3855   -4698.5705   -4956.3855            0    11193.625    19.657816    19.331914    20.437977    7766.9054    11008.163    12775.541    9797.1693     393.9695    989.33304   -930.31213   -3430.6424 
38005000     141.0521    -4947.821   -4675.7902    -4947.821            0    11754.096    19.670144     19.36051     20.31806    7737.6053    11983.371    11073.157     12205.76   -983.18204     771.2284   -365.82341   -3349.3988 
38006000    137.34307   -4943.3173   -4678.4397   -4943.3173            0    11556.884     19.66386    19.431517    20.405174    7796.7892    11748.607    10478.288    12443.759   -6.2987745    839.37662   -468.75688   -3364.3275 
38007000    127.66894   -4930.6668   -4684.4466   -4930.6668            0     10299.77    19.717474    19.384503    20.388853    7792.8938    10730.132    10313.097      9856.08   -726.86926    1050.5129    244.43684   -3513.8637 
38008000    135.09468   -4928.0568   -4667.5154   -4928.0568            0    12530.859     19.66398    19.383483    20.244512    7716.3261    12369.454     12493.19    12729.934    42.665977    826.07994    -420.1578   -3257.3589 
38009000    146.27622   -4945.5157   -4663.4097   -4945.5157            0    11738.911    19.699571     19.33724    20.360402    7755.9965    11835.407    11963.074    11418.253    209.29957    686.66376    506.56857   -3335.5833 
38010000    137.59618   -4939.2566   -4673.8908   -4939.2566            0    11048.975    19.700826    19.423793    20.359594    7790.8993    11006.587    11392.348    10747.989   -478.60294    -550.1618   -378.17658   -3418.4812 
38011000    136.37263   -4951.8516   -4688.8455   -4951.8516            0    11364.291    19.678436    19.438313    20.358839    7787.5737     11927.66    11380.399    10784.814    -165.0666    248.56563   -730.76232   -3398.1601 
38012000    146.48067   -4936.2169   -4653.7166   -4936.2169            0    11668.737     19.55944    19.623547    20.230549    7765.0022      11417.2    11957.807    11631.203    646.95127   -313.84638   -161.85984   -3332.2952 
38013000    144.09731   -4928.9561   -4651.0523   -4928.9561            0    11351.477    19.579635    19.479718    20.249398    7723.2371    11593.095    10873.591    11587.744   -125.51315    1063.7298    426.06804   -3372.4731 
38014000    134.98429   -4946.0363   -4685.7077   -4946.0363            0    11154.744    19.576975      19.4024    20.436377    7762.5598    13546.739    9814.0684    10103.425    153.17412   -38.308986    -1185.095   -3422.8906 
38015000    139.52054   -4950.6084   -4681.5313   -4950.6084            0     12028.13    19.534667    19.353534    20.507929     7753.327    12727.251    11160.555    12196.584   -507.72513    1355.8753   -641.62882   -3321.4586 
38016000    136.69079   -4947.2531   -4683.6334   -4947.2531            0    10904.574    19.675466    19.547826    20.265441    7794.3436    10990.349    9311.1353    12412.238   -63.995671   -541.15541   -1235.3081   -3444.0831 
38017000     135.0746    -4932.981   -4672.4783    -4932.981            0    12006.876    19.563168    19.295815     20.46743    7726.1941    11120.105    12934.642    11965.881    180.29259   -275.55111   -544.67579   -3319.5601 
38018000    130.80335   -4949.0805   -4696.8152   -4949.0805            0    10303.141    19.564994    19.453411     20.40362    7765.7374    10066.322    10744.787    10098.314    406.67777     164.5331    765.38371   -3529.9297 
38019000    131.03284   -4930.9323   -4678.2244   -4930.9323            0    10781.583    19.520656    19.372332    20.507364    7755.0777    12257.604    10362.792    9724.3524   -264.45762    670.70137    640.72545    -3458.829 
38020000    135.51363   -4952.0066   -4690.6572   -4952.0066            0    12685.567    19.668724    19.474043    20.344247    7792.4482    11180.944    14038.019    12837.737    391.21118   -787.88079    471.26121   -3249.0077 
38021000    129.78138   -4951.8705   -4701.5762   -4951.8705            0    10256.308    19.759472    19.327602    20.412483    7795.5925    9055.2809    10600.543    11113.102   -456.98115    567.22979   -460.63027   -3535.5291 
38022000    136.37291   -4940.0443   -4677.0377   -4940.0443            0    11956.048    19.657466    19.289576    20.469027    7761.5314    11942.616     12912.53    11012.998   -184.01245   -584.63789    1259.7741   -3323.6851 
38023000    132.89326   -4944.6302   -4688.3344   -4944.6302            0    11709.022    19.660504    19.393453    20.300914    7740.4351    10140.381    12772.712    12213.974   -83.602215   -472.39057   -907.82415   -3366.5461 
38024000    146.66678   -4947.3727   -4664.5135   -4947.3727            0    10632.363    19.768542    19.513604    20.258312    7814.7551    10034.083    10913.734    10949.272    103.59739    154.54533    190.65673   -3452.7411 
38025000    138.40165   -4934.5397   -4667.6205   -4934.5397            0     11533.88    19.678152    19.316662    20.498579    7791.8422    10397.118    13777.519    10427.003    305.66112   -157.37457    107.17049   -3356.9563 
38026000    142.43232   -4933.1123   -4658.4196   -4933.1123            0    12299.649    19.693575    19.392319    20.262362    7738.2791    13697.412    10507.016    12694.518    7.6007865    195.86736    435.68282   -3270.3444 
38027000    146.27578   -4941.5826   -4659.4775   -4941.5826            0    12532.437    19.716329    19.227665    20.426151    7743.5326    13859.608    11949.041    11788.662    850.87147   -233.77027    1157.5275   -3244.1708 
38028000    137.00646   -4954.4147   -4690.1862   -4954.4147            0    11427.531    19.769473    19.315187    20.355855    7772.9049    11011.423     11591.25     11679.92   -115.05447    848.48573    93.110746   -3394.7631 
38029000     137.9812   -4939.7301   -4673.6218   -4939.7301            0    12419.542    19.621477    19.329793    20.419008     7744.503    12055.332    12417.043     12786.25    295.05375    864.32899    312.90819   -3270.8888 
38030000    141.10547   -4939.7968   -4667.6631   -4939.7968            0    11529.341    19.688399    19.408708    20.284218    7751.1349    11570.398    11993.688    11023.936   -577.35466    255.18795    1230.1092   -3364.3593 
38031000    138.10736   -4931.9564   -4665.6047   -4931.9564            0    11734.715    19.860276    19.262519    20.304196    7767.5522    11180.366    11968.727    12055.052   -490.37779    1333.8796     126.8131   -3336.2753 
38032000    139.71168   -4944.2862   -4674.8404   -4944.2862            0    11476.644    19.712455    19.391403    20.379382     7790.063     11256.86    12448.397    10724.676   -9.7011862   -796.27621   -15.402516    -3370.978 
38033000    140.88101   -4955.1048    -4683.404   -4955.1048            0    10502.126    19.695719    19.452927    20.357496    7799.7583    11378.051    10286.088    9842.2379   -55.806707    1436.2738    658.71276   -3488.7717 
38034000        132.8   -4945.5236   -4689.4077   -4945.5236            0    11552.045    19.609797    19.424408    20.404402    7772.2144    11982.046    11192.644    11481.446   -189.86965    51.212682     173.3037    -3379.986 
38035000    127.64777   -4948.5533   -4702.3739   -4948.5533            0    10589.748    19.623865    19.460776    20.289743    7748.5643     11571.82    9473.7924    10723.633    279.20816   -522.68887     -835.927   -3505.6808 
38036000    133.20572   -4947.4061   -4690.5076   -4947.4061            0    11576.871    19.459991    19.431092    20.486443    7746.5158    12208.142    11459.762    11062.711   -653.38884    75.260704    -900.9371   -3382.6107 
38037000    133.97482   -4944.8696   -4686.4879   -4944.8696            0    10651.321    19.682914    19.528685      20.2629    7788.6824    10397.403    10502.132    11054.428    633.28879   -704.66102   -635.27472    -3476.605 
38038000    136.81392   -4931.9529   -4668.0957   -4931.9529            0     12097.05    19.593078    19.358249    20.415611    7743.3899    13402.604    12163.327    10725.219    -117.2026    209.92374    -1033.581   -3301.9831 
38039000    135.83516   -4952.0509   -4690.0814   -4952.0509            0     11767.33    19.666666    19.411248    20.383837    7781.6222    13432.091    9699.3737    12170.524   -262.72655    786.73322    216.93992   -3354.6427 
38040000    133.79338   -4944.0483   -4686.0165   -4944.0483            0    11659.958    19.561445    19.395587    20.536764    7791.7655    11475.299    11857.038    11647.537   -1047.2352    605.36589    636.35705   -3361.0383 
38041000    134.95802    -4942.106   -4681.8281    -4942.106            0    10635.347    19.745252    19.311444     20.44185    7794.6678    9326.5301    12072.247    10507.264    277.28307    1421.1128   -62.142104   -3472.8312 
38042000    137.25828   -4956.7068   -4691.9926   -4956.7068            0    10368.844    19.870761    19.308601    20.372079    7816.2898    9849.2122    10187.859    11069.461    108.60386    519.65032    342.71527   -3510.0215 
38043000    139.11267   -4936.4926   -4668.2021   -4936.4926            0    10865.643    19.708918    19.277231    20.387946    7746.0608    10292.701    11347.734    10956.495    673.88867   -12.964597    430.44577   -3440.7283 
38044000    136.52882   -4961.1703    -4697.863   -4961.1703            0    11120.595     19.77566     19.34722    20.340588    7782.3912    11899.236    10455.663    11006.886   -555.38604   -231.65806    1002.1311   -3435.6955 
38045000    132.96613   -4956.1124    -4699.676   -4956.1124            0    10911.784    19.822167    19.322214    20.274383     7765.254    10573.219    9606.4118    12555.723    336.72406    692.03038   -549.43224   -3463.9353 
38046000    131.77179   -4945.8151   -4691.6821   -4945.8151            0    11531.439    19.744049    19.315569    20.415098    7785.6557    9751.9141    12387.829    12454.575    157.80488    628.90195   -1147.0007   -3382.3356 
38047000    138.42197   -4947.0126   -4680.0542   -4947.0126            0    12992.617     19.47541    19.239842    20.663588    7742.7251     14743.66     11916.44    12317.752    507.54584   -1130.9895   -134.81113   -3212.9317 
38048000    130.72872   -4948.5565   -4696.4352   -4948.5565            0    12365.139    19.534352    19.409769    20.486675    7767.6715    11346.057    13678.201     12071.16   -56.378191    123.98007   -143.38772   -3295.6687 
38049000    140.45992   -4944.6768    -4673.788   -4944.6768            0    11796.039    19.617254    19.582845    20.190972    7756.5968    10710.765    12124.946    12552.406    297.89823   -618.53583   -1564.5278   -3339.3964 
38050000    135.83426   -4957.6687   -4695.7009   -4957.6687            0    10686.539    19.750106    19.442321    20.303051    7796.1263    10566.232    10048.961    11444.425    27.671527    799.76314    405.81371   -3480.6573 
38051000    142.53699   -4923.8367   -4648.9422   -4923.8367            0    11887.093     19.77998    19.460054    20.206104    7777.7231    12047.241    11381.162    12232.877   -59.893093    67.020182    807.10652   -3300.5878 
38052000    132.55968   -4944.6356   -4688.9831   -4944.6356            0    11826.058    19.714818    19.438527    20.212142    7745.8391    10141.581    12753.049    12583.544    49.163734    275.43486   -1984.8732    -3353.051 
38053000    127.51692    -4947.333   -4701.4059    -4947.333            0    10591.562    19.784811    19.454015    20.180839    7767.4841     10593.35    10124.386     11056.95   -378.59794   -250.04611   -196.86123   -3501.5854 
38054000    139.79292   -4943.9651   -4674.3627   -4943.9651            0    11121.891    19.832763    19.442043    20.243872    7805.8232     11064.06    10850.433    11451.179   -216.50135   -346.57776    -718.3466   -3408.2475 
38055000    137.18803    -4946.488   -4681.9094    -4946.488            0    10594.497    19.685549    19.397079    20.418479    7796.6362    10244.354     10605.62    10933.517    716.32067   -78.120268    844.73209   -3477.2521 
38056000    144.70075   -4942.3862   -4663.3187   -4942.3862            0    10851.459    19.671109    19.346522    20.487985     7797.062    11540.332    11018.326    9995.7199   -81.021804    312.05568    142.41335   -3429.3759 
38057000    139.84451   -4961.9865   -4692.2846   -4961.9865            0    11315.004    19.560201     19.44032    20.343074    7735.5877    12325.466    11000.687     10618.86    32.554306    736.60985    1320.2844   -3415.7754 
38058000    135.88753   -4944.3725    -4682.302   -4944.3725            0    12428.485    19.551548    19.430266    20.506083    7790.0922    11630.899    15217.673    10436.883    -278.1425    523.24083    196.71589   -3270.2955 
38059000    135.85983    -4940.024   -4678.0069    -4940.024            0    12554.917    19.644657    19.191097    20.497509    7727.6125    11305.236     13815.02    12544.495     424.3968   -17.380561     300.7546   -3263.0765 
38060000    130.24947   -4935.3051   -4684.1081   -4935.3051            0    11469.321      19.6562    19.324884    20.488512    7782.6387    10354.529    13164.113     10889.32   -274.86982   -79.550605    -811.7552   -3382.3195 
38061000    139.87554   -4941.3924   -4671.6307   -4941.3924            0    12866.371    19.558179      19.3354    20.486389    7747.2398    12737.629    13859.103    12002.381   -42.822704    738.70742   -254.62447   -3217.9167 
38062000    137.61447   -4919.5642   -4654.1631   -4919.5642            0    12457.427    19.551626    19.634186    20.247061    7772.4472    12389.077    12955.742     12027.46   -418.40386    500.18584     441.1692   -3242.0743 
38063000    140.69655   -4932.4593   -4661.1141   -4932.4593            0    12461.373    19.633503    19.400238    20.300975    7732.5325     12072.58    12330.463    12981.075   -688.14658    -299.3338   -651.53162    -3255.832 
38064000    140.59733   -4945.8103   -4674.6565   -4945.8103            0    12061.774    19.662562    19.343325     20.32762    7731.3935    12554.025    12785.685    10845.613   -555.59622    497.28824    1119.6036   -3314.6379 
38065000    135.03663     -4947.98   -4687.5505     -4947.98            0     11852.73    19.666658    19.502613    20.281636     7779.046    12268.905    11067.095    12222.189    318.83605   -356.18774   -277.35781   -3342.8654 
38066000    144.54992   -4934.9635   -4656.1869   -4934.9635            0    11633.471    19.626101    19.557578     20.22871    7764.5678    10652.784    11474.999     12772.63   -276.26448    378.12864    335.55999   -3338.8329 
38067000    128.33377   -4930.4097   -4682.9072   -4930.4097            0    12393.212    19.462204    19.495314    20.364421    7726.7048    14732.642    11028.223    11418.769    113.78023   -396.90222   -557.78145    -3286.365 
38068000    138.27921   -4944.7308   -4678.0477   -4944.7308            0    11652.632    19.581231    19.353843    20.440215    7746.2704     11711.78    12059.229    11186.888    182.06235    662.70752    698.65118   -3361.6334 
38069000     124.2517   -4939.5744   -4699.9445   -4939.5744            0    11461.059    19.616636     19.34565     20.41581    7747.7301    13309.306    9698.6159    11375.256     336.2804    520.25744    64.923616   -3404.9286 
38070000    136.93665   -4948.6384   -4684.5446   -4948.6384            0    10862.073    19.757429    19.439838    20.367141    7822.6363    10214.585      12150.8    10220.835    232.77422    282.91731    -1474.189   -3445.3436 
38071000     136.7117   -4933.7198   -4670.0597   -4933.7198            0    12322.303    19.720285    19.342859    20.282976     7736.874     11686.44    11288.165    13992.305    138.35563   -630.56097    117.76495   -3279.6804 
38072000    147.30918   -4939.2153   -4655.1171   -4939.2153            0    9814.4024    19.827243    19.519999    20.172469    7807.3055    8089.1011    10062.155    11291.951    230.34899    917.07987    1335.0045   -3537.6341 
38073000     131.8896   -4958.5117   -4704.1515   -4958.5117            0    10858.057    19.747541    19.486243    20.253341    7793.5943    10735.659    9180.8467    12657.667    460.29926    191.16789    822.99806   -3470.0076 
38074000    133.69473   -4944.4066   -4686.5651   -4944.4066            0    13234.743    19.604918    19.413351    20.275967    7716.9755    12653.256    14260.556    12790.418   -43.808347    302.50496     27.76569   -3197.0719 
38075000    133.59797   -4954.0073   -4696.3524   -4954.0073            0    10691.654    19.760336    19.390068    20.382008    7809.4534    9667.9444    12390.547    10016.471   -140.19796    26.601944     484.8961   -3478.6492 
38076000    138.55716    -4943.934   -4676.7149    -4943.934            0     13715.63    19.695612    19.351628    20.311771    7741.6722    12317.952    14853.926    13975.013    602.98353    660.14526    300.03009   -3128.1606 
38077000    127.45148   -4951.4133   -4705.6124   -4951.4133            0    11178.961    19.530358    19.418202    20.519401     7781.869    12078.083    11249.196    10209.603    277.35272    1284.5884   -657.78278   -3436.9057 
38078000    144.88038   -4939.8055   -4660.3915   -4939.8055            0    11943.437    19.667374    19.245728    20.482631     7752.941    11862.494    13082.473    10885.343    287.57861   -5.6310619   -523.57089   -3309.9628 
38079000     131.1774   -4955.9178   -4702.9312   -4955.9178            0    10398.592    19.674494    19.437511    20.467105    7827.0956     11573.92    9369.3548    10252.501    153.99771   -683.37342    -358.5182   -3515.9303 
38080000    140.81867   -4941.1523   -4669.5717   -4941.1523            0    11994.319    19.553367    19.376236    20.493223    7764.2808    13751.933    11692.557    10538.466   -35.295139   -335.57806    387.18519   -3311.4062 
38081000    142.28833   -4954.1283   -4679.7132   -4954.1283            0     11010.98    19.612756    19.466952    20.412127    7793.3622     10975.02    10518.628    11539.291   -380.58464   -352.29361    310.82973   -3428.2252 
38082000     137.2676   -4949.3114   -4684.5793   -4949.3114            0    12891.159    19.511697    19.399955    20.375695    7712.7312    11356.407    13800.277    13516.793   -486.79321    168.23929    260.16889   -3234.5524 
38083000    136.58126   -4940.3856   -4676.9771   -4940.3856            0    11400.841      19.6511    19.399199    20.406804     7779.392     10436.26      11525.3    12240.962   -294.50132    557.49453   -34.530973    -3383.501 
38084000    142.08903   -4936.6034   -4662.5728   -4936.6034            0    10770.547     19.73227    19.412547    20.283714    7769.7501    10740.562     10383.07    11188.009    612.36004   -1482.4202    13.653363   -3442.1208 
38085000     132.4057   -4938.7062   -4683.3507   -4938.7062            0    12395.299    19.513298    19.458512    20.366369    7733.1052    13561.064    11004.308    12620.526   -184.93587    948.80584    565.95793   -3285.4161 
38086000    137.71642   -4951.5857    -4685.988   -4951.5857            0    11620.055    19.521122    19.421695    20.430089    7745.7266    11699.707    10947.879    12212.579   -86.522641    461.45953   -1219.3744   -3373.3461 
38087000    132.69153   -4941.6681   -4685.7614   -4941.6681            0     12671.54    19.658179    19.526532    20.194693     7751.855    11840.292    13040.063    13134.265    439.86919   -575.44198   -599.29006   -3253.2076 
38088000    137.06907    -4953.844   -4689.4947    -4953.844            0    11121.597    19.717614    19.399843    20.410763    7807.4966    10302.007    12296.438    10766.345    -702.4824   -893.31899    -396.2947   -3423.1416 
38089000    126.59334   -4952.1234   -4707.9775   -4952.1234            0    11057.894    19.708674    19.326127     20.43447    7783.3327    9092.6836    12535.726    11545.273   -140.03005   -202.09431     112.1324   -3452.7747 
38090000     131.3326   -4938.1401   -4684.8541   -4938.1401            0    11293.567    19.645994    19.395399     20.39749    7772.2979    11910.696    11349.719    10620.286   -877.18802    767.01108    329.22039   -3404.7171 
38091000    128.41689     -4935.63   -4687.9672     -4935.63            0    11962.493    19.665207    19.363715    20.332883    7742.5885    12485.907    10993.023     12408.55   -994.88068   -218.84928    770.41107   -3337.1899 
38092000    133.85111   -4951.3806   -4693.2375   -4951.3806            0    10744.996    19.559438    19.429524    20.564727    7815.2251    12691.628    9969.5427    9573.8169   -483.45396   -447.16247   -893.46648   -3468.5547 
38093000    141.71238   -4948.2604   -4674.9561   -4948.2604            0    11038.619    19.574398    19.429215    20.525778    7806.2655    11061.273    11606.406    10448.177   -141.64459    1682.8866   -816.12764   -3418.2494 
38094000    129.62943   -4940.9062    -4690.905   -4940.9062            0    9750.0346    19.631541    19.368531    20.575624    7823.5544    10370.452    9151.1269    9728.5245   -566.75331    408.14144    97.546988   -3578.4405 
38095000    131.87297   -4961.8271    -4707.499   -4961.8271            0    10396.459    19.738488    19.370816    20.390974    7796.5019    10717.269    10012.103    10460.006     280.7654    302.74578   -297.90661   -3525.3802 
38096000    137.33761   -4943.0119   -4678.1448   -4943.0119            0    11393.854    19.746713    19.455987    20.257161    7782.6351    9822.1862    12212.614    12146.762    276.01586    465.91966    1350.2813   -3384.9224 
38097000    138.66686   -4948.3701   -4680.9394   -4948.3701            0    12364.077    19.637987    19.393159    20.399878    7769.1427    11818.762    13181.004    12092.465   -365.95889    716.59623   -457.58532   -3280.0279 
38098000    138.22552    -4946.056   -4679.4765    -4946.056            0    11521.985    19.611911    19.482752    20.285969    7751.1469    10668.731    12104.221    11793.004      822.263    760.88012   -123.08791   -3377.0021 
38099000    136.81058    -4950.848   -4686.9973    -4950.848            0     9731.211    19.553442    19.424598      20.4622    7771.9069    9879.0677    9247.1175    10067.448   -89.948199   -210.09603    -195.5639   -3584.0104 
38100000    137.28897   -4949.9401   -4685.1668   -4949.9401            0     11137.44    19.582176    19.474487     20.42845    7790.4474    12208.744    9013.6036    12189.972   -60.547823    564.45444   -1222.4669   -3419.7789 
38101000    129.70975   -4955.7919   -4705.6357   -4955.7919            0    10974.898    19.636986    19.503287    20.329003    7785.7188     11314.77    10702.312    10907.613   -92.531666    -154.6906    456.68055    -3459.472 
38102000    138.94042   -4953.6064   -4685.6481   -4953.6064            0    12015.133    19.682253    19.568244    20.259344    7802.8281    13351.843    10564.397     12129.16   -740.61379   -257.09203    584.06478    -3318.371 
38103000    143.34154    -4937.533   -4661.0868    -4937.533            0     10842.02    19.482149    19.370987    20.446352    7716.2171    11354.545    10634.983    10536.532    415.96054     227.3071   -636.10863   -3441.0006 
38104000    135.68826    -4934.772   -4673.0858    -4934.772            0    11725.567    19.669783    19.369686     20.38808    7767.8077    11094.159     12276.04    11806.502     846.2693     921.8478   -963.80792    -3344.749 
38105000    134.96254   -4927.9476    -4667.661   -4927.9476            0    10996.861    19.774776    19.542964    20.259488    7829.4355    11958.292    9262.8721    11769.419   -549.60093    285.05422    586.18782   -3411.9923 
38106000    138.45194   -4967.3564   -4700.3402   -4967.3564            0    11509.232    19.686332    19.470059    20.329936    7792.3435    10789.876    12258.617    11479.205   -273.37137    1846.9834   -465.87475   -3392.3926 
38107000    134.49282   -4933.4851   -4674.1044   -4933.4851            0    13294.961    19.511519    19.359355    20.483746    7737.3338    14822.832    12622.429    12439.621    137.79707   -236.51148   -821.45334   -3173.8867 
38108000    136.39897   -4933.7761   -4670.7192   -4933.7761            0    11276.052    19.475236    19.429503    20.522599    7765.6314     11055.25    12250.685    10522.222    11.531583    248.86266   -1327.8934   -3393.6638 
38109000    136.11277   -4936.4107   -4673.9058   -4936.4107            0    13174.055    19.587577     19.53942    20.206171    7733.5057     14591.47    12108.823    12821.871   -677.84291    792.90959    -645.3942   -3188.0668 
38110000    142.77973   -4947.7609   -4672.3982   -4947.7609            0    10092.336    19.547025    19.458408    20.507632    7800.1593    11358.747    11207.119     7711.144    247.35547   -13.400209    511.36759    -3524.321 
38111000    145.76007   -4944.1422   -4663.0316   -4944.1422            0    11890.395    19.468863    19.373871    20.550885    7751.5315    13435.809    10364.633    11870.744    418.39125    305.35024    773.38101   -3318.8446 
38112000     140.6097   -4941.2274   -4670.0498   -4941.2274            0    11828.403    19.586091    19.476341    20.331142    7755.6268    11579.524    10650.102    13255.582      -289.08    64.544368    -988.0335   -3332.1644 
38113000    132.74641   -4948.7501   -4692.7375   -4948.7501            0    10773.643    19.627388    19.379269     20.40997    7763.2267    10253.438    11894.242     10173.25    1100.4281    399.07861    828.03606   -3472.9596 
38114000    141.11416   -4946.5392   -4674.3887   -4946.5392            0    11576.154    19.667475    19.436928    20.324671    7769.6196     11422.74    11308.353     11997.37    375.41396    203.71023    819.27275   -3362.6723 
38115000    135.50934   -4937.7764   -4676.4352   -4937.7764            0    12666.373    19.642149    19.508294     20.22596    7750.2806     12591.74    11825.816    13581.564   -142.22218   -336.70088   -276.16804   -3244.7564 
38116000    135.88198    -4964.371   -4702.3112    -4964.371            0    9869.0616    19.706257    19.501702    20.270048    7789.8918    10059.458    7961.9385    11585.788   -378.44639    33.094414   -145.80065    -3581.111 
38117000    134.47404   -4947.5725    -4688.228   -4947.5725            0     12639.37     19.44304    19.476595    20.355137    7708.1687    13774.904    12434.023    11709.184   -288.43619   -72.608168    31.163054    -3267.364 
38118000    137.72928   -4951.9203   -4686.2978   -4951.9203            0    12675.696    19.640049    19.392816    20.285264    7726.1672    11862.268    13022.294    13142.527   -28.423078   -637.53224   -330.87166   -3258.0229 
38119000    135.73075    -4955.104   -4693.3358    -4955.104            0    12271.777    19.645461    19.523471    20.268628    7773.9838     12594.68    12004.982     12215.67   -428.02774    409.50165   -698.18466   -3302.0159 
38120000    134.91188   -4944.6002   -4684.4113   -4944.6002            0    11274.993     19.83071    19.238172    20.486419    7815.7042    9590.9292    13058.939    11175.111   -222.88164    891.00914   -257.30653   -3399.2421 
38121000    128.88743   -4951.5821   -4703.0118   -4951.5821            0    10811.809    19.671665    19.427285    20.397554    7795.2729    10811.325    10334.003    11290.099   -171.76657   -471.20257   -139.35352   -3473.8598 
38122000    141.89411   -4936.0639   -4662.4092   -4936.0639            0    11898.767    19.693778    19.439548    20.213873    7738.6414    10857.923    12131.275    12707.104    536.63425    859.27561    -147.2671   -3319.5126 
38123000    138.70105    -4941.041   -4673.5444    -4941.041            0    12235.206    19.444402    19.466202     20.39088    7718.1247    12761.504    12015.498    11928.617    592.50584    252.20078   -793.27488   -3296.3382 
38124000    134.72768    -4933.934   -4674.1003    -4933.934            0    10778.597    19.519931     19.53284     20.31002    7743.7978     11729.31     9355.649    11250.832   -208.31943   -310.43761   -155.41317   -3456.8157 
38125000    141.97593   -4935.9101   -4662.0976   -4935.9101            0    12339.863     19.58999    19.329354    20.450173    7743.7002    13013.412    11427.143    12579.033   -142.52262     -1007.53    218.64254   -3268.5084 
38126000    131.21886   -4966.0153   -4712.9486   -4966.0153            0    8972.1358    19.771079    19.446303    20.419813     7850.895     9350.402    7530.0456     10035.96    88.507247   -255.66379    150.55806   -3685.6638 
38127000    132.26071   -4934.1986   -4679.1227   -4934.1986            0    13014.068    19.544036    19.292255    20.466847    7716.9944    13363.589    14027.129    11651.487   -592.76304    691.74972   -907.58085   -3214.4616 
38128000    135.66983   -4951.8101   -4690.1595   -4951.8101            0    10850.972     19.76351    19.367266    20.322007    7778.5562    10622.433    10977.568    10952.916   -70.608244    537.24956   -1010.2543   -3459.2006 
38129000    138.87023   -4926.6553   -4658.8324   -4926.6553            0     12537.29    19.720944    19.413267    20.302778    7772.8772     12542.29    13630.996    11438.582    503.76526   -720.07672   -781.82028   -3237.6123 
38130000    127.59993   -4939.7855   -4693.6983   -4939.7855            0    12037.797     19.61641    19.250339    20.418285    7710.4048    10623.241    13294.643    12195.507   -593.58098    720.09573    86.020302   -3340.0679 
38131000    129.78034   -4960.0532   -4709.7609   -4960.0532            0    10006.706    19.729581    19.400299    20.344598    7787.0935    9879.9631     9911.656    10228.499   -1.3107661    1233.6012    869.46957   -3573.3316 
38132000    138.10225   -4926.8242   -4660.4824   -4926.8242            0    12111.026    19.563806    19.447725    20.364201    7747.9987    14165.164    11647.948    10519.966   -185.45438    670.44615   -28.365855   -3291.9774 
38133000    144.37182     -4938.07   -4659.6368     -4938.07            0     12278.02    19.480166    19.450167    20.412849    7734.2747    13855.578    10663.659    12314.822    102.03368    740.98517   -39.976563   -3274.7196 
38134000    134.95243   -4950.8683   -4690.6011   -4950.8683            0    11874.669    19.590547    19.538867    20.261967     7755.817    12078.645    10439.354     13106.01    329.04318   -1030.1606    1046.7826   -3347.4497 
38135000    132.90841   -4944.9123   -4688.5873   -4944.9123            0    11925.521    19.603425     19.64053    20.256315    7799.1202     13472.36    9696.0223    12608.182    231.80869   -195.18559   -690.91772   -3332.1526 
38136000    135.22123   -4936.9858   -4676.2003   -4936.9858            0    12246.343    19.623579    19.484787    20.294779    7759.9373    11172.272    13198.292    12368.466   -414.53642   -299.51479    1653.0558   -3290.2727 
38137000    132.89825   -4941.3987   -4685.0933   -4941.3987            0    10929.757     19.53025    19.463849     20.31797    7723.5479    10233.065    11092.738    11463.468   -50.304852     1737.078    584.01072   -3453.9651 
38138000    136.05776   -4948.9931   -4686.5943   -4948.9931            0    11546.176    19.675019    19.360401     20.33682    7746.6251    10321.443    11853.096    12463.988    102.46403   -58.244245   -300.17048   -3382.1468 
38139000    130.02986   -4951.3767   -4700.6031   -4951.3767            0    11995.541    19.782729    19.305396     20.26165     7738.196    10320.231    13759.563     11906.83   -88.888323    885.80372   -393.93995   -3346.8625 
38140000    135.21772   -4939.0736   -4678.2948   -4939.0736            0    10176.653     19.78825    19.364259    20.341683    7794.6236    8858.7334    11560.959    10110.265   -559.44449   -462.09256   -1272.1971   -3521.4477 
38141000    138.19252    -4959.872   -4693.3561    -4959.872            0     10513.13    19.707728    19.512356    20.260633    7791.1093    10824.485     8925.697    11789.209    43.576467    248.11348    61.476768   -3498.7981 
38142000    142.25639   -4959.6487   -4685.2953   -4959.6487            0    11339.189    19.620541    19.331319    20.511602    7779.8647    12779.161    10802.925     10435.48   -253.81466    -46.48645    680.81011   -3398.7357 
38143000    132.70617   -4943.9307   -4687.9957   -4943.9307            0    10728.662    19.660707    19.536192    20.264666     7783.564    9983.1475    11271.562    10931.278    163.08352    102.93494    39.354478   -3470.1284 
38144000    143.40647   -4960.5757   -4684.0043   -4960.5757            0     11645.24    19.631003     19.54318    20.243773    7766.5686    11331.479    11455.947    12148.295    250.59638   -205.83215     -338.609   -3364.9778 
38145000    136.90608   -4932.7726   -4668.7377   -4932.7726            0    12387.607    19.584844    19.343578    20.283951    7684.3915    12186.343    12260.044    12716.435    135.21842    115.73955   -308.15199   -3280.4713 
38146000     135.4411   -4954.7307   -4693.5212   -4954.7307            0    10888.481    19.680521    19.503372    20.229354    7764.7647    12472.501    9222.8063    10970.136    379.23143    393.64183    436.05796   -3460.4973 
38147000    133.23731   -4952.7182   -4695.7588   -4952.7182            0    12353.547    19.622945    19.433419    20.338339    7755.8403    12168.986    13373.633    11518.023   -155.71672    -244.7852   -478.22034    -3298.437 
38148000    135.54997   -4947.6062   -4686.1867   -4947.6062            0    11414.383    19.759896    19.457256    20.135088    7741.4047    10551.255    11543.792    12148.103   -188.28864    -899.4248   -218.78664   -3397.4977 
38149000    145.67623   -4948.8894   -4667.9405   -4948.8894            0    10964.674    19.586168    19.451609    20.376328    7763.0239     10402.28    11833.067    10658.675    690.48663    438.20194    -610.1528   -3426.5668 
38150000    135.26531   -4949.6233   -4688.7528   -4949.6233            0    10342.756    19.679095    19.425591    20.366513    7785.6707    9936.2341    11757.111    9334.9225    300.85541    84.547844    41.156113    -3514.374 
38151000    138.84246   -4929.5932   -4661.8239   -4929.5932            0    10757.987    19.780933    19.498968    20.182515     7784.553    10508.855    9651.7654    12113.342    485.61859    217.18706    586.26519   -3440.4726 
38152000    135.63255   -4937.4351   -4675.8564   -4937.4351            0    11132.929    19.749546    19.490971     20.25474    7796.8159    11535.595    10552.319    11310.875   -16.947095    335.53106    -841.3331    -3409.947 
38153000    135.55894   -4947.0745   -4685.6377   -4947.0745            0    10979.527    19.808066    19.211984    20.456554    7784.7876    10488.277    11526.529    10923.775   -775.07025    344.05566    516.02933   -3439.0975 
38154000    130.66816   -4930.4002   -4678.3956   -4930.4002            0    12296.597    19.728636    19.339237    20.298507    7744.6266    10217.653    14683.449     11988.69    71.641437    1003.2522    39.135537   -3289.5265 
38155000    134.62397   -4941.3042   -4681.6705   -4941.3042            0    11721.779     19.71447    19.459318     20.20095    7749.6933    10541.247    11439.125    13184.965    215.21703    995.14248   -1407.4138   -3356.8595 
38156000     128.4821   -4944.8633   -4697.0748   -4944.8633            0    9957.0494    19.750522     19.41149    20.315962    7788.8766    9136.6986     9530.283    11204.166    273.99157    -176.9112    876.35635   -3566.0259 
38157000    135.58856   -4942.4028   -4680.9089   -4942.4028            0    12877.052     19.72811    19.367913     20.34971    7775.4679    12142.939     12927.02    13561.197   -403.40832    307.30106   -435.14003   -3220.6869 
38158000    129.18044   -4950.6991   -4701.5638   -4950.6991            0    11121.632    19.652065    19.487279    20.346874    7792.1459    11069.167    11578.624    10717.105   -13.737297    477.48006    -654.8363   -3437.6965 
38159000    130.06123   -4944.7622   -4693.9281   -4944.7622            0    11890.092    19.701605    19.397954    20.374606    7786.5801    11235.558    13022.139    11412.581     648.8793   -1416.9415   -586.68095   -3343.6978 
38160000    135.31444   -4936.0521   -4675.0869   -4936.0521            0    11856.803    19.688206     19.42657    20.245813    7743.5033    10274.082    13372.193    11924.134   -211.12523    6.2313753   -1034.4823   -3336.0856 
38161000    133.16558   -4952.9754   -4696.1544   -4952.9754            0    11470.644     19.64142    19.452689    20.343921    7772.9735    11139.615    12412.274    10860.043    136.47279   -455.48316   -294.66538   -3395.8325 
38162000    140.10198   -4943.4335    -4673.235   -4943.4335            0     11001.51    19.482126    19.415158    20.503516    7755.4251    12191.015    10456.182    10357.333    423.60826    436.81617   -110.28025   -3428.9101 
38163000    135.60591   -4949.5632   -4688.0358   -4949.5632            0    10815.026    19.711735    19.473649    20.363962    7816.8983    10175.698     11552.71     10716.67   -11.408655   -26.720357    630.30702   -3455.1073 
38164000    138.28759   -4962.1999   -4695.5007   -4962.1999            0    11224.038    19.673156    19.369704    20.427934     7784.334    10231.812    12825.337    10614.966    285.40203    563.80208   -672.79998   -3421.2746 
38165000    134.80548   -4934.8772   -4674.8935   -4934.8772            0    12301.719      19.5238    19.479041    20.292576    7717.3659    12000.732    12564.472    12339.953   -444.17511    810.95307   -1722.0775   -3290.3367 
38166000    140.16336   -4936.9392   -4666.6224   -4936.9392            0     11734.96    19.630183    19.357173    20.382766    7745.1422    10550.112    13226.708    11428.059   -548.25197   -532.49212    278.44548   -3341.1005 
38167000    137.69965    -4948.394   -4682.8286    -4948.394            0     11869.69    19.763389    19.303737     20.39532    7780.9629    12037.195    12195.097    11376.779    471.03892    738.11018    424.97766   -3335.8875 
38168000    142.25375   -4936.8094   -4662.4611   -4936.8094            0    12514.652    19.637225    19.490138    20.319259    7776.8348    11976.751    13183.907    12383.298    723.41386     254.2388    -450.4872   -3243.0848 
38169000    138.04458   -4928.6204   -4662.3898   -4928.6204            0    11981.941    19.543172    19.313163    20.515997    7743.5672    13444.148    10830.265    11671.409    726.40903    159.85299   -1567.2804   -3309.2455 
38170000    140.43173   -4952.6779   -4681.8435   -4952.6779            0    10613.245    19.578852    19.402676    20.469821    7776.1191    10554.802    11219.121    10065.811    744.82167   -34.295844   -537.81545   -3478.2302 
38171000     144.6782   -4959.2816   -4680.2575   -4959.2816            0    10654.883    19.744082    19.539232    20.259726    7815.8821    10099.894    9763.0842     12101.67   -432.00075    917.05177   -551.34711   -3465.7434 
38172000    133.59884   -4941.6488   -4683.9922   -4941.6488            0    11674.556    19.500742    19.449325    20.414473    7742.7251    11094.752    12014.746    11914.169    280.15972   -243.10514    476.66006   -3365.7048 
38173000    133.83073   -4946.6479   -4688.5441   -4946.6479            0    11866.935    19.570447    19.381003    20.365896    7724.6806    12577.827    11027.255    11995.724    94.661709    832.86659    328.88728   -3351.6562 
38174000     138.3163   -4954.4212   -4687.6666   -4954.4212            0     11314.85    19.650825    19.411336    20.420789    7789.4846    12121.224     11217.32    10606.005   -183.47271     251.8376   -1086.3938   -3402.2811 
38175000    130.74124   -4947.7762   -4695.6307   -4947.7762            0    10592.461    19.556308    19.553873    20.498119    7838.5126    10418.087    10456.465    10902.833     216.7766   -211.86046     -898.839   -3484.7359 
38176000     131.7982   -4946.9717   -4692.7878   -4946.9717            0    11937.332    19.520813    19.404526    20.428152    7738.0228    12578.608    12034.554    11198.834   -32.120452    1281.1827   -513.13306   -3345.6465 
38177000    134.95534    -4935.692   -4675.4193    -4935.692            0    11543.524    19.706532    19.430392    20.245528     7752.127    12216.341    11231.911    11182.321    355.45413    893.92047    57.655171   -3370.3452 
38178000    136.87804   -4942.0948    -4678.114   -4942.0948            0    11419.489    19.710286    19.241941    20.443507    7753.4897    11612.899     11943.18    10702.387    153.08584    546.46275   -698.99678    -3386.836 
38179000    137.71908   -4942.0629     -4676.46   -4942.0629            0    10464.344    19.821777    19.418786    20.322949    7822.6048    10043.183    10015.408    11334.443    400.63721    339.94986   -781.03777   -3482.6388 
38180000    139.16162   -4932.5418   -4664.1569   -4932.5418            0    12388.278     19.69708    19.333394    20.267758    7718.1935    10296.893    14096.858    12771.082     475.4371   -38.122239    144.08648   -3269.7083 
38181000    135.94291   -4948.5018   -4686.3244   -4948.5018            0    12491.698    19.799454    19.279183     20.31562    7754.8238    11159.042    13747.042     12569.01   -91.831941    1060.2441   -416.22117   -3273.5615 
38182000    134.26129   -4942.3882    -4683.454   -4942.3882            0    11945.784    19.680828    19.361796    20.374231    7763.7265    11941.901    10945.669    12949.784     43.79835   -441.48919    219.75503   -3330.8808 
38183000    131.91819   -4950.5004   -4696.0851   -4950.5004            0    11730.531    19.745897    19.462373     20.18732    7758.0277    10464.771    12050.096    12676.726   -10.559149     20.22138    826.77338   -3368.8591 
38184000     131.0462   -4951.0429   -4698.3093   -4951.0429            0    10467.944    19.668062     19.30828    20.503991    7786.5232    11008.431    11045.934    9349.4671   -423.66776    428.31256   -221.91114   -3509.5857 
38185000    140.05356   -4935.5314   -4665.4264   -4935.5314            0    11761.491    19.668204     19.35774    20.348672    7747.3905    10061.578    12856.982    12365.912   -1025.7791     684.5324    -858.3509   -3336.5221 
38186000    140.73505   -4942.0115   -4670.5922   -4942.0115            0    11356.297     19.79837    19.436152    20.179483    7765.1486    10576.082    10572.232    12920.576    100.47314    160.59079  -0.34220829   -3384.5287 
38187000    134.16968   -4948.7044   -4689.9469   -4948.7044            0    11478.709     19.56514    19.481493    20.371419    7764.7318    11136.787    11261.209    12038.132   -106.64158   -1497.5497   -560.24582   -3390.0904 
38188000    137.54614   -4930.1095   -4664.8402   -4930.1095            0    12957.027    19.658059     19.32204    20.295759    7709.0153     12136.55    13827.323    12907.208   -126.26371    1049.3819   -1021.1157   -3208.1065 
38189000    132.09495   -4953.0178   -4698.2616   -4953.0178            0    10921.801    19.697342    19.424061    20.326983    7777.1521    10004.054    10921.277    11840.072    339.93915    329.41398   -1119.3676   -3459.4914 
38190000    137.51736    -4923.487   -4658.2732    -4923.487            0    12387.063    19.622527    19.402821    20.292382    7725.9668    13239.144    11526.909    12395.135    773.02725    1265.4861    -302.4197   -3262.5572 
38191000    138.85477   -4947.9791    -4680.186   -4947.9791            0    11027.158    19.793045    19.483477    20.210904    7794.0789    9044.6146    12696.334    11340.525   -159.60823   -319.74601   -334.45583   -3426.7439 
38192000    142.12331   -4949.2636   -4675.1669   -4949.2636            0    12025.033    19.690857     19.54168    20.183554    7766.4789    12886.033    10812.313    12376.753    328.42034   -1002.8861   -720.28628    -3313.138 
38193000    134.80759   -4938.3958    -4678.408   -4938.3958            0    11046.576    19.626026    19.493923     20.30604    7768.8522    10311.937    10624.458    12203.335   -346.83013    -589.6378   -760.07478   -3426.8227 
38194000    136.56825   -4933.9294   -4670.5461   -4933.9294            0    12417.028    19.663822    19.399486    20.424698    7791.3696    11464.867    13412.317    12373.901   -41.838867    524.65595   -795.18641   -3259.6099 
38195000    137.61834   -4945.7194   -4680.3108   -4945.7194            0    11639.104    19.665163    19.331981    20.421514    7763.5766    13494.662    10934.323    10488.328   -253.71812    1406.2872     1017.479   -3362.4872 
38196000    131.25416   -4937.5465   -4684.4118   -4937.5465            0    11681.635    19.687126    19.472736    20.224362     7753.256    10941.168    11064.058     13039.68   -229.22352    832.13907     225.1828   -3363.5309 
38197000    138.16642    -4945.163   -4678.6974    -4945.163            0    11597.256    19.659813     19.46032     20.27347    7756.3507    12148.173    11110.021    11533.573    609.19113    1500.7495    773.84155   -3366.8342 
38198000    137.83915   -4945.0716   -4679.2372   -4945.0716            0    11530.364    19.635903    19.434161    20.334387    7759.7504     11430.01    10698.303    12462.781    191.11038    -20.04555    1234.2318   -3374.3689 
38199000    136.47078   -4940.3353   -4677.1399   -4940.3353            0    10899.001    19.561282     19.55499    20.470905    7830.5442     11852.46    10496.022     10348.52   -368.01153    865.71083     347.6606    -3432.469 
38200000    132.08526   -4938.6454   -4683.9079   -4938.6454            0    13236.042    19.614735    19.404545    20.344344    7743.3624    14212.404    12919.826    12575.897   -809.59995    63.717941   -671.07896   -3189.1749 
38201000     132.0735   -4932.8462   -4678.1313   -4932.8462            0    13396.754    19.627513    19.446607    20.232815    7722.6333    11734.472    14384.887    14070.903   -33.491903    -426.0638    591.83133   -3169.2993 
38202000    135.39305   -4946.2572   -4685.1403   -4946.2572            0    10883.914    19.668263     19.38729     20.40735    7781.6146    10316.692     11184.55    11150.499    253.98428    1458.5719   -937.42217    -3449.959 
38203000    131.92774   -4951.3505   -4696.9167   -4951.3505            0    10876.501    19.747347    19.357612    20.329245    7771.0871    10234.307    11446.204    10948.992   -420.19119    38.598285    1053.5804   -3464.2466 
38204000    125.85342    -4942.887   -4700.1681    -4942.887            0    11344.282    19.722633    19.451049    20.312537    7792.4152    11400.507    11471.531    11160.808   -18.994549    261.67792    836.88652   -3410.9542 
38205000    131.65524    -4950.149   -4696.2408    -4950.149            0     12549.24    19.627755    19.382999    20.356024    7744.3427    11912.091    13006.253    12729.375    -132.6799   -953.62597    17.894987   -3278.8883 
38206000    128.16782    -4942.575   -4695.3926    -4942.575            0     11699.38    19.691352    19.426656      20.2924    7762.5964    11971.166    11859.477    11267.499    -416.6117     423.8035   -293.98701   -3370.9115 
38207000    131.05298   -4944.9703   -4692.2236   -4944.9703            0    11272.336    19.681684    19.523643    20.327122    7810.8625    10867.611    11329.342    11620.054   -208.12483   -679.29733   -171.64281   -3408.1534 
38208000    142.86594    -4944.569     -4669.04    -4944.569            0    10975.913    19.626158    19.280172    20.450063    7738.2157    10743.675    10635.498    11548.565   -325.09046   -301.84979   -447.59339    -3430.365 
38209000    132.46314    -4945.412   -4689.9457    -4945.412            0    11138.035    19.685743    19.484213    20.352721    7806.5145    10504.128    11775.996    11133.981   -231.31851    140.59862    69.598576   -3421.8803 
38210000    141.11922   -4933.8278   -4661.6675   -4933.8278            0    12124.096    19.525293     19.50929    20.317437    7739.4119    13644.771    10543.465    12184.052   -561.70027    -140.7701    646.17194    -3293.204 
38211000     140.5408   -4945.5541   -4674.5094   -4945.5541            0    11154.455    19.628099    19.394566    20.359355    7750.3679    12183.443    10085.668    11194.252    -215.1611    625.16224    230.39287   -3413.7084 
38212000    139.46241   -4954.5094   -4685.5444   -4954.5094            0    10997.017    19.636047    19.559914    20.273574    7786.6622    12242.977     8981.434     11766.64    122.02445   -93.304596    883.22028   -3436.7179 
38213000    145.17144   -4948.8067   -4668.8314   -4948.8067            0    12041.146    19.554241    19.444609    20.410257    7760.4816     12699.35    11754.738    11669.349    338.97129   -20.237522   -399.31832   -3306.0306 
38214000    137.88302   -4945.5485   -4679.6295   -4945.5485            0    9894.5157     19.73918    19.477442    20.283445    7798.3504    9644.6839    9035.4413    11003.422   -184.87289    59.074831    104.80504   -3554.3169 
38215000    129.43266    -4954.882   -4705.2602    -4954.882            0    10723.797    19.673191    19.276036     20.45455    7756.7976     12299.05    9804.4735    10067.867   -596.66788    1274.3573    -213.9868   -3492.1314 
38216000    139.80358   -4957.7766   -4688.1536   -4957.7766            0    11634.099    19.786903    19.429363    20.192711    7763.0258    12168.261    10866.226     11867.81   -143.72273    632.40227    624.15313   -3370.9902 
38217000    129.38879   -4951.6497   -4702.1125   -4951.6497            0    10715.587    19.839861    19.526769     20.11774     7793.781    9873.7643    10861.177    11411.819    182.03898   -192.14307   -97.604372   -3484.1328 
38218000    135.94964   -4928.0835   -4665.8932   -4928.0835            0    12667.738    19.636306    19.406818    20.337619    7750.2237    15697.699    10268.355     12037.16   -683.25955    603.36908   -553.38128   -3234.0706 
38219000    131.91403   -4933.0441   -4678.6368   -4933.0441            0    10890.396     19.66191     19.40516    20.386688    7778.3879    11358.466    10231.169    11081.554    10.359506    584.96582    1024.1254   -3443.2323 
38220000    132.77793   -4942.5135   -4686.4401   -4942.5135            0    11898.057    19.652705    19.239471     20.36382     7699.716    10928.971    12958.155    11807.045    245.42792    281.25782   -229.86457    -3350.378 
38221000    133.42602   -4940.7161   -4683.3927   -4940.7161            0    11259.045    19.693797    19.381167    20.335673    7761.8979    11742.258    11244.378    10790.499   -398.21011    578.36587    1209.2825   -3408.8765 
38222000    133.45203   -4959.2504    -4701.877   -4959.2504            0    10861.385    19.745098    19.340421    20.421824    7798.6555    10954.937    10820.727    10808.491    -1043.079    123.50277    1579.8602   -3466.5531 
38223000    138.63692   -4956.8191   -4689.4462   -4956.8191            0     11717.91    19.729964    19.501051    20.189313    7767.9399    10964.321    11601.985    12587.423    262.52218   -152.65461   -903.76531   -3361.9542 
38224000    134.82928   -4939.7736    -4679.744   -4939.7736            0    12326.627    19.780603    19.304417    20.249015    7732.1475    11717.188    13321.735    11940.959    107.10333   -67.171664     660.8699   -3289.7264 
38225000    135.55121    -4952.833   -4691.4111    -4952.833            0    10887.091    19.673286    19.333084    20.392236    7756.0911    9852.0458    12115.204    10694.025   -434.36227    259.90324   -568.99962   -3459.9217 
38226000    136.39947   -4948.6804   -4685.6225   -4948.6804            0     10936.29    19.473471    19.543002    20.449993    7782.6554    11717.896    10587.526    10503.447    354.50431   -716.01732   -201.27701   -3444.3312 
38227000    146.51767   -4932.7073   -4650.1356   -4932.7073            0    12696.427    19.484222    19.513673    20.402952    7757.3808    14306.227    11233.018    12550.037   -179.98851   -75.589153    751.92223   -3213.7451 
38228000    143.18179   -4933.4052    -4657.267   -4933.4052            0    12010.707    19.568472    19.274603    20.447595    7712.3119    10565.345    12715.197     12751.58    -436.3044    631.26697   -548.04034   -3306.3488 
38229000    136.78494   -4946.0404   -4682.2392   -4946.0404            0    9755.7914    19.730308      19.4303    20.417939    7827.5393    10190.043    9522.4462    9554.8853   -165.02961   -776.22374    125.25552   -3568.5509 
38230000    140.30016   -4935.1624   -4664.5818   -4935.1624            0    13352.924    19.747182    19.424537    20.263145    7772.5342     14769.28    12214.854    13074.638    182.94576    2278.7685   -564.46384   -3150.9686 
38231000    139.84794   -4940.1872   -4670.4787   -4940.1872            0    11165.034    19.585464    19.420301     20.40624    7761.6281    11555.199    11005.518    10934.384   -223.99617    1056.4441     799.7726   -3406.6484 
38232000    135.04844   -4938.0421   -4677.5898   -4938.0421            0    10189.341    19.539273    19.453934    20.427826    7764.9376    11227.159    10123.862     9217.002   -248.14125   -679.38567   -320.87575   -3523.7117 
38233000    134.82965   -4943.4631   -4683.4327   -4943.4631            0    12618.803    19.589893    19.377116     20.34684    7723.5715    12528.067    13155.278    12173.065    354.69994   -484.23619    673.58739   -3262.0461 
38234000    137.77196   -4939.3781   -4673.6733   -4939.3781            0    11883.331    19.651142    19.500832    20.260581    7764.1303    10912.437    12911.093    11826.464   -64.870689   -175.60217   -220.59785   -3328.1014 
38235000    134.52307   -4952.1861    -4692.747   -4952.1861            0     12178.72    19.591302    19.466878    20.303739    7743.4706    13250.845    11499.574    11785.743     545.4054    413.70337   -134.12115   -3317.3971 
38236000    131.34238     -4941.18   -4687.8751     -4941.18            0    12415.218    19.660706     19.34717    20.303855    7723.1608    11568.286    13599.145    12078.223    -772.0918   -284.56212    611.11379   -3289.4947 
38237000    132.54644   -4939.6439   -4684.0169   -4939.6439            0    12032.008    19.654551    19.504656    20.243489    7760.4479    11707.144    11468.281    12920.599   -330.09999   -453.33735    291.47636   -3322.2562 
38238000    138.89203   -4941.9047   -4674.0397   -4941.9047            0    10380.033     19.58589    19.292453    20.601359    7784.4266    10349.266    10921.303    9869.5284   -99.820842    -1189.513    292.68715   -3495.6166 
38239000    137.35757   -4951.3738   -4686.4682   -4951.3738            0    10111.954    19.634008    19.412699    20.422883    7784.1633    10208.123    9778.4924    10349.248    878.70241    25.697018     224.3989   -3538.5183 
38240000     140.9396   -4953.7333   -4681.9195   -4953.7333            0    11351.948    19.758619    19.504757    20.237227    7799.1652    10305.871    11750.413     11999.56    101.07773   -183.59442   -1383.1599   -3390.7168 
38241000    132.10319   -4943.9444   -4689.1723   -4943.9444            0    12763.493    19.719933    19.497224    20.168782    7754.5731    10587.699    15227.558    12475.222    880.55125     306.4588   -1021.9347    -3245.717 
38242000    132.49125   -4937.9715    -4682.451   -4937.9715            0    12325.117     19.55407    19.445487    20.381156    7749.6985    12210.508    12514.861    12249.982    463.85758    51.258383   -1302.3591   -3289.4489 
38243000    137.99674   -4932.2467   -4666.1084   -4932.2467            0    11873.285    19.561861    19.433217    20.350633    7736.2909    12477.319    10016.277    13126.259    53.300316    617.98195    1086.4605   -3326.4947 
38244000    137.84165    -4929.873   -4664.0338    -4929.873            0    12954.578    19.524287    19.509652    20.224205    7703.6434    14029.189    11843.495    12991.051    374.78009    1901.2935   -87.443444   -3208.5903 
38245000    144.69694   -4937.1599   -4658.0997   -4937.1599            0     10002.32    19.567773    19.462505    20.370454    7757.8404    10241.662    9827.6127    9937.6856    469.97149    675.39029   -81.642691   -3526.4357 
38246000    138.27914   -4943.7109   -4677.0279   -4943.7109            0    11836.205    19.678195     19.42143    20.354728     7779.143    8979.3868    14835.446    11693.782   -115.02985    4.3374411   -739.95203   -3334.2008 
38247000    132.68577   -4938.6747    -4682.779   -4938.6747            0    12814.206    19.733955    19.406098    20.255326    7756.9605    12885.665    13302.379    12254.574   -51.677934    1961.7998   -114.38503   -3233.1423 
38248000    135.59805   -4926.6236   -4665.1113   -4926.6236            0    12665.819    19.750122    19.260524    20.355089    7743.0288    11843.589    12981.211    13172.658    535.95664   -163.63503   -566.58076   -3234.8347 
38249000    130.37482   -4946.4435   -4695.0047   -4946.4435            0    11146.752    19.644489    19.373509    20.428107    7774.5839    11142.823    11305.243     10992.19    55.841258    668.99019    76.215408   -3431.1377 
38250000    138.65441   -4929.4829   -4662.0762   -4929.4829            0    10579.192    19.587101    19.674879    20.196826    7783.3285    10735.796    9280.8065    11720.972    672.51961    255.60181    134.44554   -3461.2125 
Loop time of 362.276 on 64 procs for 250000 steps with 972 atoms

Performance: 119.246 ns/day, 0.201 hours/ns, 690.081 timesteps/s
99.1% CPU use with 64 MPI tasks x 1 OpenMP threads

MPI task timing breakdown:
Section |  min time  |  avg time  |  max time  |%varavg| %total
---------------------------------------------------------------
Pair    | 19.683     | 29.365     | 38.543     |  84.0 |  8.11
Bond    | 0.25752    | 0.27507    | 0.28821    |   1.2 |  0.08
Kspace  | 141.15     | 150.36     | 160.06     |  37.5 | 41.50
Neigh   | 1.0432     | 1.052      | 1.0657     |   0.5 |  0.29
Comm    | 86.098     | 86.816     | 88.193     |   6.5 | 23.96
Output  | 0.53023    | 0.53781    | 0.5397     |   0.3 |  0.15
Modify  | 87.332     | 88.508     | 89.303     |   5.6 | 24.43
Other   |            | 5.362      |            |       |  1.48

Nlocal:        15.1875 ave          19 max          11 min
Histogram: 2 5 10 8 0 10 7 11 10 1
Nghost:        2378.31 ave        2411 max        2358 min
Histogram: 5 12 13 7 6 5 11 3 0 2
Neighs:        5027.66 ave        6797 max        3447 min
Histogram: 5 4 9 8 9 13 2 6 6 2

Total # of neighbors = 321770
Ave neighs/atom = 331.03909
Ave special neighs/atom = 2.0000000
Neighbor list builds = 2843
Dangerous builds = 0

unfix		3
unfix		2
unfix		1

write_data	data.final.${pid}
write_data	data.final.1
System init for write_data ...
PPPM initialization ...
  extracting TIP4P info from pair style
  using 12-bit tables for long-range coulomb (../kspace.cpp:340)
  G vector (1/distance) = 0.37306987
  grid = 24 24 24
  stencil order = 5
  estimated absolute RMS force accuracy = 0.0033989082
  estimated relative force accuracy = 1.0235711e-05
  using double precision FFTW3
  3d grid and FFT values/proc = 2197 216
Last active /omp style is kspace_style pppm/tip4p/omp
WARNING: Not all mixed pair coeffs generated from mixing. Use write_data with 'pair ij' option to store all pair coeffs. (../write_data.cpp:312)

write_restart   restart.lmp.${pid}
write_restart   restart.lmp.1
System init for write_restart ...
PPPM initialization ...
  extracting TIP4P info from pair style
  using 12-bit tables for long-range coulomb (../kspace.cpp:340)
  G vector (1/distance) = 0.37306987
  grid = 24 24 24
  stencil order = 5
  estimated absolute RMS force accuracy = 0.0033989082
  estimated relative force accuracy = 1.0235711e-05
  using double precision FFTW3
  3d grid and FFT values/proc = 2197 216
Last active /omp style is kspace_style pppm/tip4p/omp
Total wall time: 0:06:02
