LAMMPS (30 Jul 2021)
  using 1 OpenMP thread(s) per MPI task
package omp 0
using multi-threaded neighbor list subroutines
echo both

include		in.partitions
variable        pid world 0
include		in.temp
variable        temperature equal 281.54
variable	tempDamp equal 100.0
include		in.pressure
variable        pressure equal 11125.0
variable        pressureDamp equal 1000.0 # This is 1 ps
include		in.seed
variable        seed world 745823

units		real
atom_style	full
read_restart	restart.lmp.${pid}
read_restart	restart.lmp.0
Reading restart file ...
  restart file = 30 Jul 2021, LAMMPS = 30 Jul 2021
  restoring atom style full from restart
  orthogonal box = (-0.023854161 -0.16103376 -0.086312561) to (24.753855 24.891035 22.896313)
  4 by 4 by 4 MPI processor grid
  restoring pair style lj/cut/tip4p/long/omp from restart
  restoring bond style harmonic/omp from restart
  restoring angle style harmonic/omp from restart
  1920 atoms
  1280 bonds
  640 angles
Finding 1-2 1-3 1-4 neighbors ...
  special bond factors lj:    0        0        0       
  special bond factors coul:  0        0        0       
     2 = max # of 1-2 neighbors
     1 = max # of 1-3 neighbors
     1 = max # of 1-4 neighbors
     2 = max # of special neighbors
  special bonds CPU = 0.108 seconds
  read_restart CPU = 0.214 seconds
include 	in.setup
variable	out_freq equal 1000
variable	out_freq2 equal 10000
variable	out_freq3 equal 1000

timestep	2.0

neigh_modify    delay 7 every 1

include		in.tip4p
# This is TIP4P/Ice

# create groups ###
group ox type 2
640 atoms in group ox
group hy type 1
1280 atoms in group hy

# set charges - beside manually ###
set group ox charge -1.1794
Setting atom values ...
  640 settings made for charge
set group hy charge 0.5897
Setting atom values ...
  1280 settings made for charge

# ### TIP3P Potential Parameters ###
pair_style lj/cut/tip4p/long/omp 2 1 1 1 0.1577 8.5
pair_coeff 1 1*2 0.000 0.000
pair_coeff 2 2 0.21084 3.1668
bond_style  harmonic
bond_coeff  1 450 0.9572
angle_style harmonic
angle_coeff 1 55 104.52
kspace_style pppm/tip4p/omp 1.0e-5
pair_modify tail yes

thermo          ${out_freq}
thermo          1000
thermo_style    custom step temp pe etotal epair emol press lx ly lz vol pxx pyy pzz pxy pxz pyz enthalpy

restart 	${out_freq3} restart.lmp.${pid} restart2.lmp.${pid}
restart 	1000 restart.lmp.${pid} restart2.lmp.${pid}
restart 	1000 restart.lmp.0 restart2.lmp.${pid}
restart 	1000 restart.lmp.0 restart2.lmp.0


include         in.dump
dump            myDump all atom ${out_freq2} dump.water.${pid}
dump            myDump all atom 10000 dump.water.${pid}
dump            myDump all atom 10000 dump.water.0
dump            myDump2 all dcd ${out_freq2} dump.dcd
dump            myDump2 all dcd 10000 dump.dcd
dump_modify     myDump append yes
dump_modify     myDump2 append yes


variable natoms 	equal  "count(all)"                        # NUMBER ATOMS
variable H      	equal  "enthalpy/v_natoms"                 # ENTHALPY-per-atom
variable Vol      	equal  "vol/v_natoms"                 # volume-per-atom
fix AVG all 		ave/time ${out_freq} 1 ${out_freq} v_Vol v_H file vol_enthalpy.dat
fix AVG all 		ave/time 1000 1 ${out_freq} v_Vol v_H file vol_enthalpy.dat
fix AVG all 		ave/time 1000 1 1000 v_Vol v_H file vol_enthalpy.dat




fix 		1 all shake 1e-6 200 0 b 1 a 1
       0 = # of size 2 clusters
       0 = # of size 3 clusters
       0 = # of size 4 clusters
     640 = # of frozen angles
  find clusters CPU = 0.024 seconds
fix             2 all nph aniso ${pressure} ${pressure} ${pressureDamp}
fix             2 all nph aniso 11125 ${pressure} ${pressureDamp}
fix             2 all nph aniso 11125 11125 ${pressureDamp}
fix             2 all nph aniso 11125 11125 1000
fix             3 all temp/csvr ${temperature} ${temperature} ${tempDamp} ${seed}
fix             3 all temp/csvr 281.54 ${temperature} ${tempDamp} ${seed}
fix             3 all temp/csvr 281.54 281.54 ${tempDamp} ${seed}
fix             3 all temp/csvr 281.54 281.54 100 ${seed}
fix             3 all temp/csvr 281.54 281.54 100 745823


run             250000
PPPM initialization ...
  extracting TIP4P info from pair style
  using 12-bit tables for long-range coulomb (../kspace.cpp:340)
  G vector (1/distance) = 0.37449719
  grid = 30 30 30
  stencil order = 5
  estimated absolute RMS force accuracy = 0.0032662304
  estimated relative force accuracy = 9.8361558e-06
  using double precision FFTW3
  3d grid and FFT values/proc = 3600 512
Last active /omp style is kspace_style pppm/tip4p/omp
Neighbor list info ...
  update every 1 steps, delay 7 steps, check yes
  max neighbors/atom: 2000, page size: 100000
  master list distance cutoff = 10.8154
  ghost atom cutoff = 10.8154
  binsize = 5.4077, bins = 5 5 5
  1 neighbor lists, perpetual/occasional/extra = 1 0 0
  (1) pair lj/cut/tip4p/long/omp, perpetual
      attributes: half, newton on, omp
      pair build: half/bin/newton/omp
      stencil: half/bin/3d
      bin: standard
Per MPI rank memory allocation (min/avg/max) = 9.332 | 9.340 | 9.346 Mbytes
Step Temp PotEng TotEng E_pair E_mol Press Lx Ly Lz Volume Pxx Pyy Pzz Pxy Pxz Pyz Enthalpy 
 4500000    292.71593   -9036.8206    -7920.854   -9036.8206            0    10417.636    24.777709    25.052069    22.982625    14266.071    10912.304    10164.917    10175.686    683.17858   -599.48701    704.45108   -5753.4023 
 4501000    274.92346   -8997.4623   -7949.3287   -8997.4623            0    11067.464    24.813273     25.15127    22.847483    14258.779    11773.563    9525.7438    11903.084    531.28859    359.11038   -141.44435   -5647.8533 
 4502000    281.91619   -9009.5681    -7934.775   -9009.5681            0    10757.463    24.887076    24.969236    22.918483    14241.804    11405.077     10763.68    10103.633    583.19319     1030.162    955.67507   -5700.4274 
 4503000    275.11719   -8979.9026   -7931.0304   -8979.9026            0    11657.428    24.920772    24.891906    22.994584    14264.127    10986.378    12548.587     11437.32    94.386439   -784.51088    -322.4269   -5505.9629 
 4504000    268.16085   -9020.9915   -7998.6401   -9020.9915            0    10475.935    25.015966    24.948203    22.910822    14298.722    9759.7906    10341.784    11326.232    588.85313   -2424.9231   -116.18061   -5814.0703 
 4505000     279.4745   -8992.9448   -7927.4606   -8992.9448            0    9866.5136    24.959276    24.875398    23.075596     14326.99     10621.76    9989.8654    8987.9152    604.52007   -392.37683   -307.57859   -5865.9073 
 4506000      280.042    -8974.208   -7906.5602    -8974.208            0    10549.204    25.067641    24.918945    22.893176    14300.433    10299.113    10716.718    10631.782   -251.61451   -78.070005    370.70141   -5706.4483 
 4507000    271.31894   -9005.4272   -7971.0357   -9005.4272            0     10977.49     24.84093    25.030793    22.977182     14286.94    12097.211    8948.6475     11886.61    47.728463    347.82517    578.60812    -5683.762 
 4508000    281.59927    -9051.601   -7978.0162    -9051.601            0     10471.33    24.847919    24.939378    23.059636    14289.864    10392.822    10303.315    10717.853     463.2825   -513.06765    1780.5788   -5795.7595 
 4509000    292.73876    -9018.341   -7902.2874    -9018.341            0    10622.084      24.9294    25.052648     22.86665    14281.309     10014.06    10799.077    11053.113   -644.01848    1277.6251    30.278805   -5689.9384 
 4510000    283.80948   -8997.5702    -7915.559   -8997.5702            0    11828.977     24.85888    24.909802    23.014334    14251.161    12191.872    12302.053    10993.004    169.62366   -214.04273    1124.0921   -5457.0415 
 4511000    278.13161     -9029.98   -7969.6155     -9029.98            0    9391.2602    25.060441    24.907578     22.97137    14338.612    9212.0693    10721.142    8240.5696   -602.39263   -708.38207   -480.92748    -6005.772 
 4512000    289.76522   -9012.3265   -7907.6093   -9012.3265            0    9830.9975    24.986008    24.971526    22.944984    14316.264    9580.9646    9455.9244    10456.103    -116.2858    522.18165   -322.74337   -5855.0147 
 4513000    285.93974   -9012.8449   -7922.7122   -9012.8449            0    9554.6115     24.85559    24.900395    23.159308     14333.62    10034.838    10139.418    8489.5783    1137.9848   -107.02397    24.203102   -5925.4053 
 4514000     275.7547   -9050.2804   -7998.9777   -9050.2804            0    10415.057    24.911953    25.004054    22.886583    14256.049    12088.762    9500.1705    9656.2382    530.29357     665.2513   -1162.0206   -5833.5848 
 4515000    277.31824   -9002.7498   -7945.4862   -9002.7498            0    11533.473    24.848863    24.971954    23.000063    14272.107    11081.863    11215.569    12302.986    545.51492    374.67271    1060.2099   -5544.8626 
 4516000    280.88453   -8995.0622   -7924.2023   -8995.0622            0    11904.357      24.9251     24.91348    22.885876    14211.465    11832.013     11925.16    11955.898   -1063.8543    137.81928    -78.18278   -5456.9095 
 4517000    292.81984   -9043.6908   -7927.3281   -9043.6908            0    11991.566    24.934621    24.858436    22.866053    14173.195    11375.817    12063.501     12535.38    600.98912    876.19901   -445.09423   -5448.6532 
 4518000    280.17242   -9049.7899   -7981.6448   -9049.7899            0    10949.363    24.925277     24.87422    23.004141    14262.494    10624.459    11303.557    10920.071    4.5084805    412.14476    1417.1986   -5704.1352 
 4519000    274.32278   -8998.0818   -7952.2382   -8998.0818            0    10825.005    24.944687    24.845834    23.017477    14265.577     10751.56    12189.633    9533.8232    382.57719    390.01489    450.36365   -5700.1087 
 4520000     270.3927   -9005.2662    -7974.406   -9005.2662            0    12356.713    25.056957     24.89729      22.7791    14210.749    12429.931    11039.127    13601.081    222.53813   -691.18564    184.75708   -5413.4872 
 4521000    283.89116   -9041.2303   -7958.9077   -9041.2303            0    12104.653    24.896962     24.75462    23.030227     14193.87    12020.776    13143.464     11149.72   -600.34114    558.48582    381.81428   -5453.2076 
 4522000    286.95024   -8995.5459   -7901.5607   -8995.5459            0    11940.413    24.906144    24.998618    22.837112    14218.824    10666.996    11723.946    13430.298   -72.435121   -1241.2122    611.01228   -5425.5134 
 4523000     266.5075   -9004.2259   -7988.1778   -9004.2259            0     12038.31    24.865236    24.960371     22.87383     14196.54    11952.559    12492.757    11669.613     512.1981    1211.9715   -1190.4297   -5495.7424 
 4524000    296.85992   -9002.0464    -7870.281   -9002.0464            0     10485.05    24.803145    24.951741    23.096546    14294.028    11246.012    10845.275    9363.8642   -502.13947     -607.383   -709.11207   -5684.5282 
 4525000    284.49857   -9027.1329   -7942.4946   -9027.1329            0    9840.5582    24.938866     25.06316    22.877068    14299.238    9561.6702    8881.0127    11078.992    83.992189    -1528.162    156.17284   -5890.3474 
 4526000    286.29449   -9007.5319   -7916.0468   -9007.5319            0     8890.247    24.857123    25.071797    23.091347    14390.822    11143.016    6972.8494    8554.8753    48.653202   -780.93986      1859.42   -6050.2029 
 4527000    276.32244   -8993.9173   -7940.4502   -8993.9173            0    9599.5534    25.040107    24.882454    23.001546    14331.328    10023.001    9303.2381    9472.4212   -238.20765    99.962814    73.666387   -5934.0694 
 4528000    283.36642   -9051.3509   -7971.0289   -9051.3509            0    8669.0039    25.225614    24.890094     22.90149    14379.111    5680.8127    9776.8357    10549.363   -655.46146    832.65147   -721.10194   -6153.0991 
 4529000     280.2092   -9050.3637   -7982.0785   -9050.3637            0    9631.7461    24.939529    24.999677    22.967432    14319.738    9014.9378    9444.2212    10436.079   -766.05903    1288.9201    426.01865   -5970.5972 
 4530000    282.60508   -8989.9687   -7912.5492   -8989.9687            0     10380.06    24.820472    25.038898     22.97807    14280.348    11767.815    10273.564    9098.8023   -542.36067   -491.13595   -478.64126    -5750.754 
 4531000    279.41122   -8959.8941   -7894.6511   -8959.8941            0    10568.248    24.909419    24.995078     22.97236    14302.887    11715.185     10179.08    9810.4798    590.57084    397.62244    654.88632   -5690.1892 
 4532000    289.31445   -9014.6095   -7911.6108   -9014.6095            0    10630.306    24.758932    25.127979    22.970125    14290.678    12403.147    9124.1457    10363.626    512.90063   -1500.1076    266.18862   -5696.0968 
 4533000    285.38648   -9016.3258   -7928.3023   -9016.3258            0    11371.315    24.826983    24.990076    22.929828    14226.312    12082.738    11354.212    10676.993    458.33075     549.4586    1086.8372   -5569.0257 
 4534000    275.53025   -9049.5247   -7999.0777   -9049.5247            0    9465.1393    24.756621    25.092982    22.998352    14286.978    10824.156    9178.0856    8393.1762   -241.31646     1246.477   -1126.5234   -6026.9126 
 4535000    271.70039   -9049.9866   -8014.1408   -9049.9866            0    10646.777    24.911285    24.909651    22.964028    14249.901    10773.267    11395.244    9771.8213   -574.89577   -806.27966   -104.03107   -5801.5255 
 4536000    275.42124   -9012.3715   -7962.3401   -9012.3715            0    10991.226    25.046479    24.919196    22.850544    14261.896     9357.362    12194.456    11421.861   -110.07087    1137.3911    906.55419   -5676.2186 
 4537000    276.17608   -9003.1182    -7950.209   -9003.1182            0    11308.028    24.954896    24.867231    22.939725    14235.456    10061.652    12658.759    11203.673   -453.86659   -47.090266    1236.7977   -5602.5546 
 4538000    302.51342   -9064.8192      -7911.5   -9064.8192            0    11860.242    24.910272    24.955548    22.817745     14184.64    11644.736    12260.226    11675.764   -1287.0901   -120.19319   -772.88692   -5457.9904 
 4539000    285.11123   -9063.4112   -7976.4371   -9063.4112            0    10860.669    24.853286    24.990589    22.938058    14246.788    12867.529    8968.7722    10745.707      256.398    444.65659    22.109125   -5719.8638 
 4540000      284.427   -9045.4248   -7961.0594   -9045.4248            0    11032.596    24.910008    24.900847    22.936792     14227.24    11390.833    11738.215    9968.7404    191.57282   -233.75525    1192.8458   -5671.9093 
 4541000    280.15057   -9072.9018   -8004.8401   -9072.9018            0    11254.645    24.926002     24.93849    22.859674    14209.958    11110.744    10632.607    12020.586   -372.09961   -259.39116   -393.71471   -5672.4536 
 4542000    284.41664   -9040.1186   -7955.7927   -9040.1186            0    11586.697    24.929811    24.875859    22.936719    14224.217    10855.579    13196.879    10707.632   -862.29301    1016.0599    420.42537   -5552.1833 
 4543000     280.9509   -8999.5877   -7928.4748   -8999.5877            0    10571.211    24.975256     24.94215     22.94962    14296.158    10867.917    9984.7252    10860.989   -235.72537   -94.414106    -28.89811   -5724.4323 
 4544000    288.57789   -9046.7944   -7946.6038   -9046.7944            0    11630.448    25.023484    24.975879    22.717445    14198.028    10731.451    12146.819    12013.074   -730.72475    129.21068   -253.07395   -5538.3605 
 4545000    272.42948   -9044.3536   -8005.7282   -9044.3536            0    12492.993    24.896133    24.798194    22.950264    14169.014    11163.564     13304.79    13010.624    535.78586   -168.71422   -187.97003   -5424.1695 
 4546000    287.84876   -8985.7929   -7888.3821   -8985.7929            0    11838.196    24.880567    24.819155    23.022842    14216.943    12401.749    11518.986    11593.852    124.71173    669.97204   -19.938517   -5433.8562 
 4547000    282.74419   -9036.1221   -7958.1723   -9036.1221            0    12177.115    24.900879     24.94909    22.843893    14191.866    10960.052    12344.559    13226.735   -138.65172   -266.73743    756.50361   -5437.8284 
 4548000    273.98572   -9007.5544   -7962.9959   -9007.5544            0    11049.755     24.83845    25.040619    22.937995    14266.749    11639.287    10897.812    10612.168   -453.65985   -1175.5344   -596.75094   -5663.9187 
 4549000     291.8721   -9027.6354   -7914.8858   -9027.6354            0     10645.35    24.852312    25.077849     22.88649    14263.834    11645.765    9931.8447     10358.44   -499.40135   -102.47737    448.86309   -5700.4041 
 4550000    287.52914   -8982.8681   -7886.6759   -8982.8681            0     14362.83    24.767906    24.878339    22.934448    14131.849    15149.734    13649.143    14289.613   -392.16889   -116.15053    537.99782    -4926.518 
 4551000    285.70432    -9015.856   -7926.6209    -9015.856            0    11278.918    24.882719    24.967568    22.912794    14234.825    10694.601    11276.062     11866.09    235.76747   -1340.9014   -652.84387   -5585.1138 
 4552000    282.13537    -9024.132   -7948.5033    -9024.132            0     11149.97    24.821134    24.940222    23.071491    14282.281    11411.038    11325.215    10713.656    625.02699    57.033518   -972.63342   -5626.0491 
 4553000     287.7917   -9047.2685   -7950.0753   -9047.2685            0    11019.686    24.865794    25.050139    22.887601    14256.494    13031.311    9263.9464    10763.802   -1199.9866    692.09054   -187.96107   -5658.9024 
 4554000    286.16716   -9019.8071   -7928.8073   -9019.8071            0    10365.335    24.907844    25.030749    22.920134    14289.832    10983.676    9833.6411    10278.689   -41.825783   -909.06123    638.17319   -5768.6451 
 4555000    290.65553   -9021.1176   -7913.0061   -9021.1176            0    10743.615    24.878398    24.945288    22.982929    14263.178     11822.45    10713.561    9694.8337   -206.63816   -945.43276   -299.53732   -5678.1858 
 4556000    285.63534   -8996.9468   -7907.9747   -8996.9468            0    11113.956    25.048318    24.965661      22.8509    14289.761    10554.914    11187.083    11599.872    369.77116   -252.49094    590.45661   -5591.8094 
 4557000    285.14423   -9026.5597   -7939.4599   -9026.5597            0    10789.849    24.953508    24.822316    23.014597     14255.33    9879.4084    10919.436    11570.702    273.79115    -242.5246    705.93328   -5696.2571 
 4558000    274.50086   -9006.5677   -7960.0452   -9006.5677            0    11425.132    25.106839    24.776908    22.884931    14236.026    9472.9639    12481.383     12321.05   -312.15356    937.79947   -824.55634   -5587.9841 
 4559000    281.06664    -9013.054   -7941.4997    -9013.054            0    11633.886    25.057599    24.855268    22.848436    14230.311    10635.747    12084.091     12181.82    392.26499   -468.11837   -254.13534   -5527.0672 
 4560000    274.92836   -9035.0993    -7986.947   -9035.0993            0    11568.831    24.926886    24.878144    22.912907    14209.088    11313.324    13072.363    10320.807   -423.68349    732.62927    642.52102   -5589.5962 
 4561000     285.4863   -9054.3319   -7965.9279   -9054.3319            0    10421.869    24.901796    24.937395    22.977089    14268.449    9868.1466    10814.625    10582.836    1176.9109    507.41585   -822.98514   -5797.2339 
 4562000    288.77124   -9038.0886   -7937.1609   -9038.0886            0    10838.575    24.849188     24.91993     22.98084    14230.656    11354.189    9922.2296    11239.305   -1181.0364     563.6346   -309.50761   -5687.7283 
 4563000    287.50325   -8980.4981   -7884.4045   -8980.4981            0    11687.223     24.87323    25.020885    22.883391    14241.484    12227.613    11428.384    11405.673   -44.004191   -599.40026     676.3795   -5456.9983 
 4564000    287.71916   -9011.0054   -7914.0887   -9011.0054            0    12871.552    24.911355    24.816192    22.964292    14196.639    12621.275    14097.734    11895.647   -442.32354   -401.06882    94.762795   -5249.1186 
 4565000    273.94762   -9053.4405   -8009.0272   -9053.4405            0    9402.1211    24.911062    24.920634    23.053417    14311.549    8805.7277    10262.239    9138.3967   -517.65629   -209.35104   -780.58123   -6046.6235 
 4566000    285.81978   -8960.5602   -7870.8848   -8960.5602            0    10698.131    24.996031     25.02804    22.921282    14339.592    9716.8237    10781.431    11596.138    1186.4974   -788.70491    456.70257   -5633.6036 
 4567000    277.37951   -9053.9655   -7996.4683   -9053.9655            0    10963.657    24.856853    25.030874    22.934924    14269.852    10910.797    10433.817    11546.356   -683.14573    493.35904    35.716216   -5714.8091 
 4568000    276.72241    -9036.187    -7981.195    -9036.187            0     11347.08    24.806688    25.032102    22.925474    14235.884    12057.746    10002.961    11980.532   -111.62012   -1021.4048    956.32647   -5625.3623 
 4569000    286.56558   -9080.7984   -7988.2797   -9080.7984            0    10976.532    24.928118    24.951365    22.865547    14222.154    10319.086    10682.139    11928.372    403.25239   -546.92016   -88.033298   -5711.5764 
 4570000    275.01354   -9025.2486   -7976.7715   -9025.2486            0    11972.788     24.96449    24.937584    22.851142    14226.071    10074.173    11891.692      13952.5    673.59201    400.14319     297.5476   -5492.7453 
 4571000    284.27601   -9022.1276   -7938.3378   -9022.1276            0    10829.201     24.97777    24.756055    23.078536    14270.637    9473.2935        13029    9985.3104    127.02871   -13.989235    212.92524   -5684.5363 
 4572000    279.21198   -8959.3955   -7894.9121   -8959.3955            0    11751.592    25.020464    24.912361    22.853403    14244.957    11023.933    12261.595    11969.248   -496.47222   -338.03913    697.34332   -5453.5414 
 4573000    273.86523    -9061.251   -8017.1519    -9061.251            0     11934.74    24.834943    24.816361    22.997729    14173.797    12441.465    11532.955    11829.801   -698.18845   -664.40476    125.37314   -5550.1182 
 4574000    276.54804   -8975.9951   -7921.6678   -8975.9951            0    12854.412    24.905534    24.934908    22.883192    14210.856     13672.84    11783.064    13107.331    687.00201    262.41122   -598.54804   -5257.5812 
 4575000     295.7758    -9011.916   -7884.2837    -9011.916            0    11720.679    24.847571    25.033407    22.850202    14213.268    9882.9078    12246.109     13033.02    708.80512    160.95895    988.27847   -5454.7518 
 4576000    284.91659    -9020.386    -7934.154    -9020.386            0    12430.978    24.776866    24.833336    23.000713     14152.16    12561.481    13845.321    10886.133   -231.36653     38.01094    114.25787   -5368.4655 
 4577000    276.28038   -9049.1775   -7995.8707   -9049.1775            0    13231.673    24.922497    24.837459    22.876103    14160.571    12994.631    14276.402    12423.986   -77.781134    169.26176    150.94585      -5263.3 
 4578000     293.5305   -9013.4573   -7894.3852   -9013.4573            0    11316.186    24.991816    24.812663    22.930736    14219.659    10847.637    12876.785    10224.137    205.19253     403.2086   -235.87264   -5547.6443 
 4579000    279.53926   -9025.1349   -7959.4038   -9025.1349            0    12186.543    24.848937    24.838313    22.959731    14170.876    12344.833    12338.721    11876.076    106.77982    169.78582    -1333.074    -5440.839 
 4580000    280.15382   -9014.8863   -7946.8122   -9014.8863            0    11140.637    24.912619    25.043509    22.861721    14263.414    10714.641    11667.317    11039.953   -948.43195   -418.72894   -1059.4306   -5629.3674 
 4581000    293.09881   -9016.5935   -7899.1671   -9016.5935            0    11869.116    24.728666    24.947096    23.048481    14218.802    11758.425    12076.979    11771.942   -516.60009    -896.5587    962.19694   -5437.9085 
 4582000     287.5796   -9043.6596    -7947.275   -9043.6596            0    11625.343    24.829067    25.059418    22.828055     14203.66    12008.202    10760.766    12107.062   -395.55015   -610.46569    88.356801   -5539.1338 
 4583000    273.08256   -9035.9609   -7994.8456   -9035.9609            0    12723.076    24.711853    25.014999    22.884302     14146.32    13187.354    11812.522    13169.353   -113.89912    134.60188   -760.56024   -5369.9533 
 4584000    288.88615   -8991.6223   -7890.2565   -8991.6223            0    10757.108    24.890332    25.047058    22.938499    14300.539    11434.859    9317.3776    11519.086    1114.0774    739.37018    709.03989   -5646.7682 
 4585000    270.22245   -9001.0516   -7970.8404   -9001.0516            0    10249.114     24.83342    24.980432    23.083029    14319.547    10132.045    10344.688     10270.61     92.77573   0.73064679   -160.53108   -5830.4574 
 4586000    277.58027   -8992.1972   -7933.9347   -8992.1972            0    10528.118    25.062095    24.864475     22.94287    14296.984    7540.2988    12924.473    11119.583   -297.59559   -420.16683    946.24096     -5738.75 
 4587000    289.65039   -9052.1681   -7947.8887   -9052.1681            0    11397.404    24.930973    24.840569    22.991123    14238.392    10658.042    12433.669      11100.5   -230.41798   -747.69753   -469.63862   -5581.1912 
 4588000    289.44233   -8995.0238   -7891.5377   -8995.0238            0    12036.154    24.984579     24.87264    22.845676    14197.045    11990.638    12823.457    11294.368    157.81474   -380.30124    437.00179     -5399.46 
 4589000    280.45408   -9072.6532   -8003.4343   -9072.6532            0    11577.048     24.81924    24.950986    22.913628    14189.597    12316.581    10614.441    11800.123    23.361466    320.85822    934.56409   -5607.6717 
 4590000    283.69462   -9012.8607   -7931.2874   -9012.8607            0     10958.69    24.880859    24.991217    22.951724     14271.45    11861.294    10179.701    10835.076     482.6937    525.31554    477.68679   -5650.4064 
 4591000    279.00779   -9056.4948   -7992.7899   -9056.4948            0    10600.512    24.789697    25.032169    22.976114    14257.595    11500.381     10675.23    9625.9242    -130.1116    -822.6962    464.73597      -5788.6 
 4592000    287.83689   -9037.4384   -7940.0729   -9037.4384            0    11150.114    24.868598    24.914104    22.992934    14245.935    10392.323    11217.428    11840.592   -389.94228    -944.0392    579.43628   -5623.4989 
 4593000    290.13321   -9023.9317   -7917.8115   -9023.9317            0    12263.406    24.901718    25.004784    22.804203    14199.313    12428.825    10346.794    14014.599   -401.88417    467.75945    406.14648   -5378.2758 
 4594000     286.4092    -9051.614   -7959.6915    -9051.614            0    10627.652    24.865686    24.884145    23.032409    14251.564     11578.39    11122.127    9182.4397    -634.4233    761.99358    688.65737    -5750.793 
 4595000    269.20766   -9039.1513    -8012.809   -9039.1513            0    11452.243    25.022821    24.986252    22.721555    14206.119     10275.26    10997.382    13084.086    282.53517    38.916374    940.48967   -5640.1142 
 4596000      281.017   -9019.8664   -7948.5015   -9019.8664            0    10139.528    24.918282    24.984867    22.964652    14297.332    10529.201    9160.9876    10728.394    473.94915    897.86612    353.11138    -5834.289 
 4597000    280.46611   -8999.4109   -7930.1462   -8999.4109            0     10528.95    24.912226    24.966843    22.953153    14276.394    9935.9417    11453.671    10197.237   -962.17658   -177.66457    902.97489   -5737.9497 
 4598000    271.80766   -9049.4934   -8013.2387   -9049.4934            0    11203.814    24.776828     25.01303     22.97861    14240.845    11792.917    10676.286    11142.238   -679.61151   -522.14673   -13.259838   -5686.3396 
 4599000    276.41145   -8977.4932   -7923.6867   -8977.4932            0    11463.773    24.897114     24.96128    22.978532    14280.327    10526.395    12565.389    11299.535    502.13091   -121.73291    195.58802   -5536.1964 
 4600000    281.94814   -9061.3843   -7986.4694   -9061.3843            0    10922.966    25.130436    24.884058    22.787069     14249.83    10154.326     10510.33    12104.243    147.15155   -385.52045    622.14327   -5716.4678 
 4601000    277.08784   -9006.1006   -7949.7154   -9006.1006            0    11969.456    24.945402    24.812015    22.942813    14200.355    11007.255    13432.974    11468.138   -634.35765    3.3697005    244.45107   -5470.8696 
 4602000    289.18039    -9011.552   -7909.0645    -9011.552            0    11035.988    24.979319    24.883534     22.97167    14278.587    9152.4663    12559.857    11395.639   -160.96444    1308.8149   -383.83394   -5610.9465 
 4603000    285.81983   -9022.0565    -7932.381   -9022.0565            0    11398.336     25.05737     24.91537    22.839394    14258.945     10403.65    11187.336    12604.021   -71.191842    89.012812   -423.50174   -5562.0733 
 4604000    284.49553    -9041.362   -7956.7353    -9041.362            0    10618.527    24.885426    24.904865    23.003368    14256.755    11487.493    10653.116    9714.9735   -427.68401   -399.26397    48.558953   -5748.9295 
 4605000    276.36466   -8986.8364   -7933.2083   -8986.8364            0    10956.481    24.899373     25.05686    22.904798    14290.305     11487.14    9517.2221    11865.082   -401.02142    64.346817    278.05638   -5649.7741 
 4606000    279.24232   -9044.8141    -7980.215   -9044.8141            0     10729.23    24.765821    25.030646    22.985059    14248.542    12906.583    10069.489    9211.6175   -624.08334   -1048.9808    549.11768   -5750.6771 
 4607000    281.23615   -9025.0999   -7952.8994   -9025.0999            0    10370.236    24.865498     25.01012     22.95325    14274.376    12005.242    9862.0907    9243.3752    -336.2434   -929.74203     1184.391   -5794.0535 
 4608000    290.58639   -9046.2506   -7938.4027   -9046.2506            0     11959.26    24.869349    24.897217    22.915918    14189.023    11840.701    11787.263    12249.816    69.525687       532.34   -246.44074    -5463.645 
 4609000    282.79656   -9035.8516   -7957.7021   -9035.8516            0    11971.703    24.999807    24.895007    22.853915    14223.599    11819.543    11207.591    12887.975   -263.03774   -100.75257    2167.4886   -5474.3327 
 4610000    274.97858   -9020.2557    -7971.912   -9020.2557            0    10786.876    24.947335     24.75274    23.118419    14275.968    10725.867    10769.419    10865.343   -344.60702      95.8075   -572.72232   -5726.0806 
 4611000    281.98976   -9022.9255   -7947.8519   -9022.9255            0    10755.339    25.051325    24.935603    22.838432    14266.481    9091.8268    11090.559    12083.631    50.008888    15.564271    1781.4017   -5710.0746 
 4612000    276.09562   -8980.7932   -7928.1908   -8980.7932            0    12077.202    24.965332    24.886527     22.91819     14239.08     11064.25    12590.168    12577.187    175.58178    159.34016   -205.67178   -5420.2103 
 4613000    275.64509    -9010.018   -7959.1332    -9010.018            0    11588.998    24.950409    24.790821    22.986195    14217.907    11306.735    12458.588     11001.67    447.96126   -393.55843    -305.3681   -5556.1131 
 4614000    290.80621   -8987.4505   -7878.7646   -8987.4505            0    11222.099    24.946014    25.054889    22.838916    14274.771    12156.719    10650.624    10858.953   -780.48453    153.34601   -903.79338   -5542.5157 
 4615000    289.97753   -9000.7694   -7895.2428   -9000.7694            0     10608.59    24.789448    25.003798    23.085242    14308.933    10228.098    10702.996    10894.677   -1122.2594    -1293.391    1725.3204   -5681.4304 
 4616000    275.69138   -9014.7547   -7963.6934   -9014.7547            0    11671.823    24.899354    25.077015     22.77262    14219.258     11957.92    11002.236    12055.314    694.14382   -327.25754    121.61126    -5543.269 
 4617000    269.36531   -9036.1044   -8009.1609   -9036.1044            0    12111.644    24.774472    24.968363    22.954877    14199.382        11977     12737.12    11620.813   -611.17432   -897.04974    464.02748   -5501.0401 
 4618000    281.01533   -9080.9333   -8009.5747   -9080.9333            0    11661.187    24.787365    24.899496    22.984321    14185.759    12180.448    11946.849    10856.264    -808.6509   -122.91932    481.65845    -5597.053 
 4619000    271.43589   -8980.1918   -7945.3544   -8980.1918            0    10995.673    24.947929     25.05708    22.807675    14257.585    11137.616    10023.228    11826.174    461.48748    1254.8016    387.31337   -5658.9994 
 4620000     277.0477   -9023.9294   -7967.6972   -9023.9294            0    10190.937    24.909822    24.932124    22.995311    14281.348     10807.79    10395.555    9369.4639   -429.49503   -342.36624    628.25975   -5845.1411 
 4621000    276.68883   -9028.6705   -7973.8065   -9028.6705            0    9354.3392    24.978064    24.954976      22.9968    14334.526    9411.9841     9216.679    9434.3546   -187.55439   -47.072836    698.10306   -6018.2411 
 4622000    279.76483   -8991.9835   -7925.3924   -8991.9835            0    9938.3297    24.938195    24.943411    23.011411    14314.102    9123.3112    10010.351    10681.327   -103.02159   -549.01173   -205.05983   -5850.7015 
 4623000    275.47825   -9047.2436   -7996.9949   -9047.2436            0    9178.2719    25.026585    24.965959    22.921325    14321.535    10246.862    7693.0478    9594.9062    55.871366   -1337.3459      466.583   -6079.9761 
 4624000    284.32393   -8994.1387   -7910.1662   -8994.1387            0    10177.138    24.764514    25.100565    23.009029    14302.488    12389.999    8924.5278    9216.8881    566.86513    657.19301   -519.91092   -5787.3462 
 4625000    279.55224   -8954.3079   -7888.5273   -8954.3079            0    11772.199     24.89563    25.020224    22.875216     14248.84    13272.865    9828.3961    12215.336   -1412.3008   -106.07889    -676.6657   -5442.2087 
 4626000    288.15218   -9039.1526   -7940.5851   -9039.1526            0    11586.067    24.975275    24.768085    22.996156    14225.186    10593.441    13106.418    11058.343   -209.56343    676.31919   -417.96863   -5536.9426 
 4627000    281.04139   -9000.2393   -7928.7814   -9000.2393            0    11297.468    24.991156    24.879911    22.921911    14252.334    10763.955     11079.53    12048.919   -520.87833   -373.56606   -308.68595   -5580.5387 
 4628000    276.28727   -9017.4891    -7964.156   -9017.4891            0    10720.921    24.931544    24.958801    22.875159     14234.33    11514.856    9793.6176    10854.289    690.81328    145.25037     570.5176   -5738.5669 
 4629000    286.07496   -9022.3437   -7931.6955   -9022.3437            0    10997.913    24.751105    24.882864    23.114136    14235.496    11292.116    11981.006    9720.6174   -493.07384    803.75757   -786.31981   -5648.4175 
 4630000    269.73957   -9007.8174   -7979.4471   -9007.8174            0    11520.423    24.914791    25.036576    22.798917    14221.533    10979.506    11131.193     12450.57   -595.91105    7.6667862   -643.82886   -5590.0369 
 4631000    286.51618   -9073.2294    -7980.899   -9073.2294            0    11328.049    24.749153    25.007565    22.948706    14203.323    13222.348    10074.922    10686.878    716.47435   -331.63515   -738.79794   -5634.3968 
 4632000    278.69717   -9009.9508   -7947.4301   -9009.9508            0    10298.247    24.873976     25.00787    22.986297    14298.514    10460.873    10966.734    9467.1354   -139.41391   -343.98478    697.22466   -5799.9451 
 4633000    291.04746   -9080.8427    -7971.237   -9080.8427            0    9172.6874    25.055303    24.881482    23.002962    14340.347    7447.9532     10683.85    9386.2593   -101.26298   -321.23804    740.30306    -6052.868 
 4634000     281.2033   -9076.0106   -8003.9354   -9076.0106            0    9621.3039    24.934159    24.972492    22.962041     14297.73    10239.704    9630.2734    8993.9346   -110.58814   -2282.4904    468.67069   -5997.7229 
 4635000    276.00782   -9074.6205   -8022.3528   -9074.6205            0    9834.6346    24.989257    25.007098    22.887585    14302.653    9120.7549    9450.6345    10932.514    2.3450743   -91.757364    438.59432    -5970.951 
 4636000    282.52248   -9028.4073   -7951.3027   -9028.4073            0    9821.2835    24.885681    25.025415     22.98601    14315.101    11272.239    8350.1453    9841.4665    -209.4549   -1305.0611    1792.9488    -5900.903 
 4637000     273.2584   -9031.2605   -7989.4749   -9031.2605            0    10117.558    25.024463    24.866107    22.982627    14301.192     10103.42    9963.0376    10286.215    103.38057   -304.64353    22.046585   -5879.2739 
 4638000    288.23576   -9041.9578   -7943.0716   -9041.9578            0     11127.22    24.908383     24.98838    22.844092    14218.623    11594.294     9835.737     11951.63   -426.39114   -560.33743    1074.7533   -5635.6863 
 4639000    270.97367   -9031.7135   -7998.6383   -9031.7135            0    10996.628    24.867127    24.902268    22.980347    14230.531    10292.057    12101.378    10596.448   -984.93039    395.78149   -482.89575   -5716.4235 
 4640000     280.6465   -9014.6719   -7944.7194   -9014.6719            0    11916.444    24.905011    24.994836    22.819661    14205.163    11040.453    11279.651    13429.228   -630.60435   -362.23597   -240.33972   -5476.0167 
 4641000    274.80928   -9027.6584   -7979.9601   -9027.6584            0    11628.987    24.726933    24.973838    23.068822    14245.607    12988.026    10841.408    11057.528    126.74836    909.66316     113.0903     -5563.95 
 4642000    275.20791   -9053.0777   -8003.8596   -9053.0777            0    11611.201    24.881241    24.945528    22.901898    14214.652    10582.498    11908.166    12342.939    731.39879   -399.07602    712.81953   -5596.7867 
 4643000     279.7878   -9004.4292   -7937.7505   -9004.4292            0    11079.217    24.802486    24.981833    22.984242    14241.302    11957.816    11194.952    10084.884   -143.78719   -60.833103    1037.8743   -5636.6549 
 4644000    272.43391   -8998.1368   -7959.4945   -8998.1368            0    12037.089    24.914077     24.84715     23.00973    14244.031    12524.139    11697.632    11889.495   -638.31246     422.6447    1738.8677   -5458.9749 
 4645000    286.59411   -8985.8399   -7893.2124   -8985.8399            0    11224.835    25.129447    24.874298    22.858703    14288.458    10698.701    10969.241    12006.562    97.910903    293.77509    455.15821   -5554.1533 
 4646000     282.2859   -9040.3841   -7964.1816   -9040.3841            0    10365.462    24.899624     24.86369    23.073292    14284.595    10192.069    11452.175    9452.1418   -304.78125    1228.0846   -805.98504   -5804.7846 
 4647000    284.42348   -9050.4599   -7966.1079   -9050.4599            0    10288.164    25.020005     25.01006    22.779608    14254.382    9595.9334    9542.6756    11725.882   -70.524249   -1051.4118   -132.11623   -5827.3475 
 4648000    275.08411   -9046.9849   -7998.2388   -9046.9849            0    11177.573    24.865335    24.875752    22.997568    14225.006    11197.135    10932.111    11403.473    90.838987   -1243.3839    24.841163   -5679.3717 
 4649000    286.54305   -9030.7221   -7938.2894   -9030.7221            0    10616.006    24.831796    25.115108    22.850856     14251.01    11485.641    9064.6298    11297.748   -300.40241    644.21362   -38.169084   -5731.8972 
 4650000    283.89252   -9052.4153   -7970.0875   -9052.4153            0    11020.695     24.74896    25.004606    23.019126     14245.11    12363.169    9782.7877    10916.127   -557.57739   -658.60671    487.50746   -5680.5347 
 4651000    291.81366   -9042.3094   -7929.7826   -9042.3094            0    11417.263     24.84112    25.017221      22.8933    14227.174    11379.123    10873.904    11998.763   -565.64397    -1276.488    486.46034   -5560.8291 
 4652000    281.45686    -9065.359   -7992.3171    -9065.359            0    10034.953    24.919393    25.109566    22.831433    14285.973    11448.884    8313.5089    10342.466   -982.73913    358.83626   -753.67186   -5901.5721 
 4653000    280.39586   -9014.6933   -7945.6964   -9014.6933            0    10342.486    24.866346    24.928963    23.054691    14291.424    11237.694    10008.652    9781.1113   -208.42628     532.7358    1095.2649    -5790.056 
 4654000    282.98823   -9080.1982    -8001.318   -9080.1982            0     9866.651    24.932922    25.005194    22.912651    14284.951    9848.5636    9322.0437    10429.346    124.80374    514.89523    510.82337   -5945.7852 
 4655000    283.11414   -9043.5694   -7964.2091   -9043.5694            0    11344.228     24.78229    24.888269    23.096856     14245.87    12786.463    10740.795    10505.424   -240.13482    -1043.112   -1622.9396   -5607.3165 
 4656000    274.83044   -9099.7026   -8051.9236   -9099.7026            0    10443.005    24.948974     24.92619    22.855474    14213.428    10114.609     11002.64    10211.767   -171.10559    470.68215   -926.85676   -5887.2112 
 4657000    280.16705   -9039.1713   -7971.0467   -9039.1713            0    10209.975    24.993691    24.883522    22.944581    14269.948    9665.5964     9951.116    11013.213    363.69039    167.13509   -477.28018   -5846.2228 
 4658000    285.42873   -9041.7746   -7953.5901   -9041.7746            0    9907.6004    25.019182    24.977229    22.901739    14311.522    9548.0777    9470.5624    10704.161     508.3139    193.75741     533.1155    -5885.687 
 4659000    285.76638   -9010.4767   -7921.0049   -9010.4767            0    11307.165    24.988486    24.912345    22.876404     14241.06    10591.073    11146.182    12184.239    902.84434    1333.6888    105.25722   -5572.6057 
 4660000    273.06139   -8993.8861   -7952.8516   -8993.8861            0    12146.662    24.763289    24.869937    23.066444    14205.734    13902.736    11615.788     10921.46    -471.7869   -1046.2393    1100.3059   -5436.3541 
 4661000    277.88044   -9057.4839   -7998.0769   -9057.4839            0    11156.046    24.980416    24.972793    22.788011    14215.863    11589.848    11028.952    10849.337   -847.32642    166.45201   -218.75812   -5685.1635 
 4662000    278.28471   -9023.6831   -7962.7349   -9023.6831            0    10377.873    24.849407    24.876846    23.116798    14290.223    10467.825    11412.643    9253.1522    -409.0572    480.85148     21.04933   -5799.9006 
 4663000    281.19906    -9012.648    -7940.589    -9012.648            0    10186.532    24.936153    24.954791    22.993915    14308.572    11254.828     10351.13     8953.637    635.49739    216.75137   -88.927735   -5814.9058 
 4664000    280.36913   -9060.1974   -7991.3024   -9060.1974            0    10806.173    25.010019    24.934566     22.89968    14280.561    9180.7037    10994.809    12243.006   -420.70127    366.11957   -93.895686   -5740.7296 
 4665000    288.56969   -9074.8553    -7974.696   -9074.8553            0     8394.353    25.034715    24.963035    22.968792    14354.174    8395.8589    8074.4742    8712.7259    572.77338    1062.3915    495.62556   -6217.4146 
 4666000    288.56859   -9030.8147   -7930.6597   -9030.8147            0    10671.647    24.956591    24.905208    22.964741    14273.714     9563.376    11204.664    11246.902    856.73097    625.69824   -583.80864   -5709.1698 
 4667000    263.64147   -9031.3003   -8026.1788   -9031.3003            0    10207.033    24.921211    24.957785    22.944723    14271.119    10335.977    11463.187    8821.9364    554.63413    548.28096    -938.6018   -5901.7928 
 4668000    286.47733   -8997.5289   -7905.3467   -8997.5289            0    10086.242    25.104296    25.009195    22.795873     14312.12    9509.9398    9301.1951    11447.593   -1.2421355    -778.0138    244.23199   -5800.0695 
 4669000    277.46207   -9009.1824   -7951.3704   -9009.1824            0     11158.46    24.956155    24.920466    22.894724    14238.664    10613.104    11245.064    11617.213   -325.40068    457.72152   -34.939208   -5634.2459 
 4670000    270.70903   -8982.6084   -7950.5421   -8982.6084            0    13226.516    24.654586    24.969054    23.056501    14193.621      14622.4    12764.045    12293.102   -588.89969     661.7173    233.55366   -5212.6612 
 4671000    278.87425   -9020.9671   -7957.7713   -9020.9671            0    12101.507    24.828173    25.003381    22.842171    14180.152     13636.11    11290.684    11377.727   -110.98048   -1435.7097    1658.0825   -5455.1436 
 4672000    280.47558   -9032.0389   -7962.7381   -9032.0389            0    11049.147    24.912131    25.008518    22.848971    14235.263    11822.942    10187.117    11137.382    128.44186   -385.91337    618.79279    -5668.861 
 4673000    273.46373   -8997.2689   -7954.7005   -8997.2689            0    12037.506    24.798924    24.895539    23.024004    14214.619     12973.08    11437.071    11702.368   -76.837889    255.69745    1039.9514   -5459.2576 
 4674000    281.22333   -9043.6236    -7971.472   -9043.6236            0    11458.584    24.959966     24.87347    22.880578      14205.2    10131.378    11644.255     12600.12   -929.34264   -64.024034   -483.67438   -5597.6168 
 4675000     287.4656    -9066.826    -7970.876    -9066.826            0    9534.5883    25.022896    24.763748    23.090852    14308.493    8375.2511    11460.019    8768.4945   -222.19004    496.61196    256.47689   -5981.2488 
 4676000    285.06078   -9068.2414   -7981.4597   -9068.2414            0    11247.207    24.999248    24.813541    22.902934    14207.145    9991.3704    12189.246    11561.006   -508.56392    288.53469    377.55865   -5651.0762 
 4677000    276.43104   -8998.7451   -7944.8639   -8998.7451            0    10828.764    25.030026     24.86452    22.914404    14260.999    10625.553    11858.367    10002.371    383.53003   -577.90733    724.15281   -5692.6756 
 4678000    286.89785   -9062.5455     -7968.76   -9062.5455            0    9280.4773    24.916258     25.01241    22.948659    14301.964    9181.2486    9228.7642    9431.4189   -130.03169    139.77501    892.40877   -6033.0429 
 4679000    269.65356   -9009.7245   -7981.6821   -9009.7245            0    10213.703    24.930497    24.951831    23.021873    14321.022     9513.566    12295.341     8832.201    144.39074    1059.9135    31.888427   -5848.4746 
 4680000    279.53831   -9062.5911   -7996.8635   -9062.5911            0    10305.615    24.975885    24.991459    22.856727    14266.798    9561.2567    9923.3309    11432.258   -119.86143   -159.33062    269.12592    -5852.609 
 4681000    277.51158   -9015.2423   -7957.2416   -9015.2423            0    11938.168     24.82994    24.810924    23.088761    14223.918    11188.175    12544.176    12082.153   -559.38225    16.921276   -368.98723   -5480.7731 
 4682000    288.28685   -9002.7987   -7903.7177   -9002.7987            0    11897.613    24.909855      25.0268    22.750714    14183.113    11655.242    12165.541    11872.056    -193.1174   -378.08892   -199.79764   -5442.7422 
 4683000    279.61908   -9016.0558   -7950.0203   -9016.0558            0    12539.584    24.893631     24.88104      22.9295    14202.061    13357.529    12419.626    11841.599   -884.63566   -1589.1312    380.68256   -5352.7904 
 4684000    284.75147   -9010.8823   -7925.2798   -9010.8823            0    13074.863    24.827505    24.829094     22.97199    14160.956    14437.475    12094.116    12692.999   -728.85542   -277.14526    409.11982   -5225.0197 
 4685000    291.78028   -8991.1032   -7878.7038   -8991.1032            0    11644.593    24.953752    24.981979    22.812332    14221.074    10623.495    12425.457    11884.828    550.88101   -53.144928   -413.33178   -5463.6177 
 4686000    286.20489   -8995.8958   -7904.7523   -8995.8958            0    10456.568    24.874929    24.892231    23.108496    14308.607    10028.325    11727.971     9613.409    -149.8829   -938.71996    548.46703   -5722.7137 
 4687000    278.93081   -9075.1656   -8011.7541   -9075.1656            0     10704.51    24.968948    24.901862    22.881592    14227.163    10367.937    9887.5354    11858.057    1387.0806   -1287.7405    532.50052   -5790.6906 
 4688000    281.68613   -8984.1477   -7910.2317   -8984.1477            0     11942.51     24.93088     24.87539     22.86889    14182.493    10953.512    12103.642    12770.376    271.36063    165.92821    415.86354   -5440.0774 
 4689000    270.60622   -9042.1605   -8010.4862   -9042.1605            0    11859.432    24.836383    24.931608    22.963953    14219.532    11649.977    11632.908    12295.411    342.64822   -819.72908     500.0576   -5551.1094 
 4690000    290.13929   -9023.2084   -7917.0651   -9023.2084            0    9754.3786    24.914429    25.052265    22.959957    14330.753    11603.978     8427.021     9232.137    502.28217    313.08334    111.95331   -5878.4065 
 4691000    287.13389   -9040.1146   -7945.4293   -9040.1146            0     10548.66    24.887676     25.03664    22.927987    14286.515    11781.094    9199.8056     10665.08   -214.32919   -300.70545   -137.79493    -5747.572 
 4692000    278.81411   -8987.4428   -7924.4762   -8987.4428            0    11192.236    24.890336    25.026442    22.880735    14252.788    11435.237    10702.316    11439.155   -502.31817    97.942057    39.497095   -5598.0323 
 4693000    272.10678   -8998.9804   -7961.5853   -8998.9804            0    11318.628    24.892966    24.882349    22.976948    14231.818    12467.964    11494.881    9993.0394    258.00088    711.55036    263.82105   -5612.3309 
 4694000    274.08971   -9007.0399   -7962.0849   -9007.0399            0     11494.17    25.033739    24.881224    22.876698     14249.21    10457.045    11362.281    12663.185   -514.85663   -157.36955    160.92743   -5573.4801 
 4695000    273.67792   -8989.3006   -7945.9156   -8989.3006            0    11317.994    24.939268    24.907303    22.971711    14269.335    11122.241    11556.983    11274.759   -460.17031    14.225633    760.97327   -5590.6001 
 4696000    280.03835   -8982.9718   -7915.3379   -8982.9718            0     12638.42    24.972743    24.822731    22.901477    14196.435    11694.276    13286.346    12934.637   -394.39781   -659.22287    499.96228   -5298.6739 
 4697000    278.22974   -9007.9808   -7947.2422   -9007.9808            0    10561.051    25.003864    24.932968     22.92743    14293.431    9982.0905    11440.652    10260.411   -612.93731    311.77858   -590.49496   -5745.7379 
 4698000    286.27518   -9019.2804   -7927.8689   -9019.2804            0     11159.34    24.868285    24.964412    22.941312    14242.474    10971.852    10953.459    11552.709   -773.57807    128.21364   -78.752486   -5609.9415 
 4699000     283.4819   -8985.4434   -7904.6811   -8985.4434            0    11393.642    24.804692     24.96787     22.99735    14242.727    13238.945    10352.621     10589.36    358.85877   -405.90874    653.84761   -5538.0443 
 4700000    281.36473   -9010.2296   -7937.5389   -9010.2296            0    12054.045    24.845049    25.063038    22.807373    14201.978     13495.44    9756.5925    12910.101    1257.9903   -1055.4648    415.83606   -5440.8898 
 4701000    285.78462   -8977.7146   -7888.1733   -8977.7146            0    13581.045    24.791013    25.000777    22.866897    14172.779    13693.185    13339.584    13710.364    301.02208   -1290.5757     860.0136   -5081.0332 
 4702000    280.26553   -9025.2609   -7956.7609   -9025.2609            0    11771.309    24.760518    24.978052    22.964233    14202.677    12730.506    10803.602    11779.817   -588.13101   -1008.4253    453.64342   -5518.5523 
 4703000    278.06852   -9075.7884   -8015.6644   -9075.7884            0    11211.609    24.815352    24.941748    22.983702    14225.492    11485.077    10436.467    11713.283   -176.58419    281.50619    243.66114   -5689.6569 
 4704000     288.3271   -9043.5626   -7944.3282   -9043.5626            0    10314.301    24.959693    24.989791    22.877733      14269.7    9735.5948    10260.839    10946.469   -1181.5829   -814.78533   -229.75238   -5797.8299 
 4705000    285.23412   -9079.2874   -7991.8449   -9079.2874            0    10852.452     24.82611    24.827442    23.090817    14232.459    11374.884    11452.485    9729.9868   -1409.8965    271.94195    283.29518   -5739.2468 
 4706000    269.51757   -9066.6131   -8039.0892   -9066.6131            0    11336.559    24.900176    25.024844    22.779088    14194.174     11259.28    10716.219    12034.177   -167.78183   -298.73151   -547.56879   -5692.3368 
 4707000    280.53747   -9015.7137    -7946.177   -9015.7137            0    12204.431    24.781404    24.939522     22.96053    14190.442    11714.265    12863.601    12035.427    513.83981    165.36982    1002.4963   -5420.4328 
 4708000      285.119   -9041.7292   -7954.7255   -9041.7292            0    10553.449    24.911203    24.946751    22.950247    14262.513    9602.5266    10729.108    11328.714   -1702.1913    225.31976   -640.87494   -5759.5646 
 4709000    287.33145   -9008.9817   -7913.5432   -9008.9817            0    10941.197    25.037599    24.920694    22.903227    14290.568    8879.3438    11227.125    12717.121   -570.49493   -670.00987   -1561.6775   -5633.2526 
 4710000    293.92286   -9073.0729   -7952.5049   -9073.0729            0    9977.6272    24.923591    24.943399    23.020958    14311.648    9750.4863    10535.281    9647.1148   -824.24961   -473.10824   -1183.8108   -5869.9675 
 4711000    287.81416   -9026.4383   -7929.1594   -9026.4383            0     10964.41    24.936305    25.016265    22.869775    14266.468    10396.632    11492.748    11003.849   -85.635811   -1521.0647   -408.73525   -5647.8846 
 4712000    271.97866   -9010.9329   -7974.0262   -9010.9329            0     10822.72    24.825938     24.97888     23.00325    14264.871    11522.247    10951.156    9994.7583    124.58423   -148.02672    -706.3911   -5722.4835 
 4713000    276.09669   -9028.1891   -7975.5825   -9028.1891            0    10397.201    24.966929    24.977747    22.898969    14280.201    11031.281    10876.137    9284.1849    21.226117    326.43393    407.35975   -5810.2398 
 4714000    287.87368   -9039.4283   -7941.9225   -9039.4283            0    10786.737    24.892418    24.961286    22.936478    14251.507     10924.38    10754.026    10681.806    932.62115    424.77063   -712.48777   -5699.9682 
 4715000    275.82129   -9023.1498   -7971.5933   -9023.1498            0    12333.093    24.831181     25.08209    22.756766    14173.321    11752.282    11466.082    13780.915    285.51196    1042.9779   -159.05869   -5422.3016 
 4716000    276.15111   -9047.9156   -7995.1016   -9047.9156            0    11004.288    24.777852    24.976382    23.010888    14240.543      12148.8    10896.468    9967.5956    559.28546   -653.22659    463.21643   -5709.6903 
 4717000    280.46891   -9000.5611   -7931.2857   -9000.5611            0    11218.077    24.876349     25.12311    22.808461    14254.633    11677.173    10490.293    11486.766    336.94661    78.451016   -877.80606   -5599.1686 
 4718000    279.63511   -9011.9627   -7945.8661   -9011.9627            0     11126.55    24.878172    24.931399    22.944799    14231.458    10806.996    11115.875     11456.78    526.82702   -633.42513     20.16924   -5636.5371 
 4719000    282.55218   -9066.4192   -7989.2015   -9066.4192            0    12086.731    24.658613    25.030757    22.996952    14194.265    15004.977    10246.292    11008.923   -378.29406    1488.9828    336.16451   -5487.1419 
 4720000    282.61109   -9042.5223     -7965.08   -9042.5223            0    10115.531    24.953195    24.989686    22.897498    14278.251    9866.8291    9960.2246    10519.539   -153.56924    82.933559    24.910017   -5858.6861 
 4721000    283.30705   -9027.4129   -7947.3172   -9027.4129            0    11844.054    24.944675    24.873748    22.909288     14214.47    12568.454    11036.109    11927.599   -541.83785   -912.11288    134.18056   -5492.0038 
 4722000    284.20459   -9056.2212   -7972.7037   -9056.2212            0    12177.151    24.762816    24.956074    22.927374    14168.719    13641.238    11309.858    11580.356   -502.92306    1201.6345   -484.34941   -5456.4631 
 4723000    279.54119   -9022.3303   -7956.5918   -9022.3303            0    11300.032    24.932969    24.856067    23.006059    14257.673    11568.618    11922.393    10409.085   -178.98028    566.43876   -1191.5255   -5606.9362 
 4724000    289.37056   -8977.7279   -7874.5153   -8977.7279            0    11176.267    24.974483     24.95713    22.884786    14263.891    10413.183    11201.637     11913.98    221.41331   -553.92228   -565.00634   -5549.5811 
 4725000    277.78033   -9038.9411   -7979.9158   -9038.9411            0    10456.666    25.021691    24.857631    22.947515    14272.894    9873.3671    11159.457    10337.173   -338.73028    707.59326   -1046.8678   -5803.3031 
 4726000    281.58338   -9029.6472   -7956.1229   -9029.6472            0    11494.797    24.944058    24.904371    22.899264    14225.391    11268.725    11861.407    11354.259   -58.656711   -473.26059    422.55772   -5571.3808 
 4727000    277.16708   -8985.1681   -7928.4808   -8985.1681            0    10769.721    24.929128    24.878823    23.061486    14302.903     10946.29     10488.11    10874.762   -788.36055    1010.6528   -875.95499   -5681.9906 
 4728000    289.75944   -9019.0759   -7914.3808   -9019.0759            0     10203.31    24.909833     25.10681    22.839666    14284.074    11621.603    9005.7977    9982.5281   -742.30802     472.3781     377.9863   -5788.8419 
 4729000    275.32677   -9016.7506   -7967.0793   -9016.7506            0    10953.168    24.869006    24.943617      22.9935    14263.396    11249.757    11148.775     10460.97    88.524508    37.005045    1843.7965   -5688.6343 
 4730000    278.19107   -9006.6347   -7946.0435   -9006.6347            0    8441.7612    24.910331    25.184679    22.926894    14383.386     9190.245    6080.5293    10054.509    402.36533   -383.36106   -3.4763634   -6175.2411 
 4731000     284.6381   -8997.4062   -7912.2359   -8997.4062            0    10346.995    24.913889    24.996633    22.941025    14286.829    10889.656     9854.364    10296.966    -544.6976    305.47439   -341.36447   -5756.3489 
 4732000    282.97834   -9020.0799   -7941.2374   -9020.0799            0    11079.666     24.87823    24.880779    23.033047     14257.22    12398.004    10887.537    9953.4559    612.30317   -52.201653    728.64301   -5637.4766 
 4733000     288.7647   -9001.5625   -7900.6598   -9001.5625            0    12221.832    24.878948    24.931641    22.821877    14155.794    11921.563     12510.45    12233.482     96.89476   -497.99329   -1548.0569   -5377.4903 
 4734000    291.08995   -9040.4442   -7930.6765   -9040.4442            0    11448.159    24.986122    24.781917    22.923612    14194.392    10289.196    12129.602    11925.677   -157.37824    682.11405     731.9727   -5560.7858 
 4735000    282.12567   -9057.8268   -7982.2351   -9057.8268            0    11821.364    25.053342    24.840703    22.795267    14186.466    11046.215    11991.528     12426.35    287.36822    705.28569   -742.25083   -5536.4532 
 4736000    288.43948   -9018.4515   -7918.7887   -9018.4515            0    12476.039    24.878987    24.845648    22.954876    14189.202    13450.029    11382.374    12595.713   -934.53815     292.5699   -698.04528   -5337.0602 
 4737000    286.15222   -9045.9299   -7954.9872   -9045.9299            0    12624.336    25.026126    24.940815    22.692137    14163.796    11460.765    13310.358    13101.887    1194.8763    566.50998     605.3026   -5347.2482 
 4738000    291.91642   -9002.2827   -7889.3642   -9002.2827            0     10065.79    24.997599    24.893424    23.006218    14316.214    9294.1402     10662.64     10240.59    -604.8557    1089.8529   -242.78454   -5787.7551 
 4739000    286.14146    -9034.955   -7944.0533    -9034.955            0    10041.481     25.04986    24.851365     22.99901    14317.418    8565.0788    11562.803    9996.5606   -1329.8376   -1296.6834    415.64315   -5847.3433 
 4740000    288.67078   -9020.1455   -7919.6008   -9020.1455            0    9890.4112    25.165599    24.952649    22.798188    14316.085    7843.1608      10846.3    10981.773   -669.13253   -133.70759    300.39921   -5854.6273 
 4741000    277.54893   -8992.7592   -7934.6161   -8992.7592            0    10443.023    25.024265    24.894903    22.957717    14302.121    9502.6156    11917.253    9909.2023   -439.30773    -915.7092   -922.60704   -5756.3918 
 4742000    282.53606   -9003.6791   -7926.5228   -9003.6791            0    10362.823    24.965966     25.01577    22.922155    14315.868     9154.361    10572.084    11362.024   -825.22423   -51.313706    392.17867   -5762.9493 
 4743000     278.8479   -9025.2439   -7962.1485   -9025.2439            0    10270.959    24.881753    24.946043    23.020888    14289.095     10593.22    10306.409     9913.248   -851.23248   -594.67851    70.772047   -5821.7649 
 4744000    272.82531   -9028.3022   -7988.1677   -9028.3022            0    9649.3544    24.907774    25.095985    22.910378    14320.937    10399.855     8899.126    9649.0825   -986.50918   -473.56925   -457.56033   -5972.8405 
 4745000     281.7868   -9006.9746   -7932.6748   -9006.9746            0    11427.164    24.813268    24.983667    22.991792     14253.22    11265.015    10936.908    12079.569    206.04428    224.04152    698.04124   -5557.3263 
 4746000    272.22481   -9000.0225   -7962.1774   -9000.0225            0    11532.752    24.834096    25.070381    22.869054    14238.279    12862.415    10655.282    11080.559    351.91373    140.12205    -23.66008   -5567.3935 
 4747000     291.0715   -9005.5738   -7895.8766   -9005.5738            0    10549.151    24.904231     24.87638    23.084951    14301.753    10148.214    11062.552    10436.688   -268.90637    878.44214    135.25176   -5695.5725 
 4748000    271.76075    -9030.515   -7994.4391    -9030.515            0    10940.781    25.079336    24.946048    22.808816    14269.886    9568.1081    10691.924    12562.312   -1070.0772    446.58797    26.883728    -5717.535 
 4749000    272.41705   -9054.1826   -8015.6046   -9054.1826            0    10643.135    24.984947    24.822179    22.976268    14249.441    10431.572    10671.831    10826.001   -619.95594   -559.47359     -801.175   -5803.8177 
 4750000    281.96831   -8986.7902   -7911.7984   -8986.7902            0    10541.465    25.008127    24.948682    22.898551     14286.86     8848.898    10945.639    11829.858   -731.21951    545.40346   -73.697814   -5715.3872 
Loop time of 534.983 on 64 procs for 250000 steps with 1920 atoms

Performance: 80.750 ns/day, 0.297 hours/ns, 467.304 timesteps/s
99.2% CPU use with 64 MPI tasks x 1 OpenMP threads

MPI task timing breakdown:
Section |  min time  |  avg time  |  max time  |%varavg| %total
---------------------------------------------------------------
Pair    | 63.91      | 66.028     | 68.478     |  13.3 | 12.34
Bond    | 0.27568    | 0.2845     | 0.29704    |   0.8 |  0.05
Kspace  | 229.08     | 234.99     | 246.34     |  24.6 | 43.92
Neigh   | 7.1367     | 7.7344     | 8.9307     |  17.2 |  1.45
Comm    | 91.449     | 103.18     | 110.7      |  43.1 | 19.29
Output  | 1.3755     | 1.3825     | 1.3913     |   0.5 |  0.26
Modify  | 105.34     | 113.52     | 117.49     |  30.6 | 21.22
Other   |            | 7.862      |            |       |  1.47

Nlocal:        30.0000 ave          34 max          27 min
Histogram: 4 5 13 0 21 13 0 3 4 1
Nghost:        2822.62 ave        2841 max        2806 min
Histogram: 2 6 9 10 8 7 10 3 6 3
Neighs:        10631.4 ave       12107 max        9367 min
Histogram: 2 5 5 11 15 11 7 3 4 1

Total # of neighbors = 680409
Ave neighs/atom = 354.37969
Ave special neighs/atom = 2.0000000
Neighbor list builds = 13421
Dangerous builds = 2

unfix		3
unfix		2
unfix		1

write_data	data.final.${pid}
write_data	data.final.0
System init for write_data ...
PPPM initialization ...
  extracting TIP4P info from pair style
  using 12-bit tables for long-range coulomb (../kspace.cpp:340)
  G vector (1/distance) = 0.37440942
  grid = 30 30 30
  stencil order = 5
  estimated absolute RMS force accuracy = 0.0032794471
  estimated relative force accuracy = 9.8759576e-06
  using double precision FFTW3
  3d grid and FFT values/proc = 3600 512
Last active /omp style is kspace_style pppm/tip4p/omp
WARNING: Not all mixed pair coeffs generated from mixing. Use write_data with 'pair ij' option to store all pair coeffs. (../write_data.cpp:312)

write_restart   restart.lmp.${pid}
write_restart   restart.lmp.0
System init for write_restart ...
PPPM initialization ...
  extracting TIP4P info from pair style
  using 12-bit tables for long-range coulomb (../kspace.cpp:340)
  G vector (1/distance) = 0.37440942
  grid = 30 30 30
  stencil order = 5
  estimated absolute RMS force accuracy = 0.0032794471
  estimated relative force accuracy = 9.8759576e-06
  using double precision FFTW3
  3d grid and FFT values/proc = 3600 512
Last active /omp style is kspace_style pppm/tip4p/omp
Total wall time: 0:08:55
