#include		in.partitions
include		in.temp
variable        temperature equal 36.15
variable	tempDamp equal 100.0
include		in.pressure
variable        pressure equal -706.2
variable        pressureDamp equal 1000.0 # This is 1 ps
include		in.seed
variable        seed equal 745823

units		real
atom_style	full

read_restart	restart.lmp.${pid}
read_restart	restart.lmp.1
Reading restart file ...
  restart file = 30 Jul 2021, LAMMPS = 30 Jul 2021
  restoring atom style full from restart
  orthogonal box = (-0.016410505 0.022774533 -0.18559644) to (20.016412 19.977226 20.885594)
  4 by 4 by 4 MPI processor grid
  restoring pair style lj/cut/tip4p/long/omp from restart
  restoring bond style harmonic/omp from restart
  restoring angle style harmonic/omp from restart
  972 atoms
  648 bonds
  324 angles
Finding 1-2 1-3 1-4 neighbors ...
  special bond factors lj:    0        0        0       
  special bond factors coul:  0        0        0       
     2 = max # of 1-2 neighbors
     1 = max # of 1-3 neighbors
     1 = max # of 1-4 neighbors
     2 = max # of special neighbors
  special bonds CPU = 0.007 seconds
  read_restart CPU = 0.019 seconds
include 	in.setup
variable	out_freq equal 1000
variable	out_freq2 equal 10000
variable	out_freq3 equal 1000

timestep	2.0

neigh_modify    delay 7 every 1

include		in.tip4p
# This is TIP4P/Ice

# create groups ###
group ox type 2
324 atoms in group ox
group hy type 1
648 atoms in group hy

# set charges - beside manually ###
set group ox charge -1.1794
Setting atom values ...
  324 settings made for charge
set group hy charge 0.5897
Setting atom values ...
  648 settings made for charge

# ### TIP3P Potential Parameters ###
pair_style lj/cut/tip4p/long/omp 2 1 1 1 0.1577 8.5
pair_coeff 1 1*2 0.000 0.000
pair_coeff 2 2 0.21084 3.1668
bond_style  harmonic
bond_coeff  1 450 0.9572
angle_style harmonic
angle_coeff 1 55 104.52
kspace_style pppm/tip4p/omp 1.0e-5
pair_modify tail yes

thermo          ${out_freq}
thermo          1000
thermo_style    custom step temp pe etotal epair emol press lx ly lz vol pxx pyy pzz pxy pxz pyz enthalpy

restart 	${out_freq3} restart.lmp.${pid} restart2.lmp.${pid}
restart 	1000 restart.lmp.${pid} restart2.lmp.${pid}
restart 	1000 restart.lmp.1 restart2.lmp.${pid}
restart 	1000 restart.lmp.1 restart2.lmp.1


include         in.dump
dump            myDump all atom ${out_freq2} dump.water.${pid}
dump            myDump all atom 10000 dump.water.${pid}
dump            myDump all atom 10000 dump.water.1
dump            myDump2 all dcd ${out_freq2} dump.dcd
dump            myDump2 all dcd 10000 dump.dcd
dump_modify     myDump append yes
dump_modify     myDump2 append yes


variable natoms 	equal  "count(all)"                        # NUMBER ATOMS
variable H      	equal  "enthalpy/v_natoms"                 # ENTHALPY-per-atom
variable Vol      	equal  "vol/v_natoms"                 # volume-per-atom
fix AVG all 		ave/time ${out_freq} 1 ${out_freq} v_Vol v_H file vol_enthalpy.dat
fix AVG all 		ave/time 1000 1 ${out_freq} v_Vol v_H file vol_enthalpy.dat
fix AVG all 		ave/time 1000 1 1000 v_Vol v_H file vol_enthalpy.dat


timer           timeout 02:55:00 every 1000
New timer settings: style=normal  mode=nosync  timeout=02:55:00

fix 		1 all shake 1e-6 200 0 b 1 a 1
       0 = # of size 2 clusters
       0 = # of size 3 clusters
       0 = # of size 4 clusters
     324 = # of frozen angles
  find clusters CPU = 0.002 seconds
fix             2 all nph aniso ${pressure} ${pressure} ${pressureDamp}
fix             2 all nph aniso -706.2 ${pressure} ${pressureDamp}
fix             2 all nph aniso -706.2 -706.2 ${pressureDamp}
fix             2 all nph aniso -706.2 -706.2 1000
fix             3 all temp/csvr ${temperature} ${temperature} ${tempDamp} ${seed}
fix             3 all temp/csvr 36.15 ${temperature} ${tempDamp} ${seed}
fix             3 all temp/csvr 36.15 36.15 ${tempDamp} ${seed}
fix             3 all temp/csvr 36.15 36.15 100 ${seed}
fix             3 all temp/csvr 36.15 36.15 100 745823


run             250000
PPPM initialization ...
  extracting TIP4P info from pair style
  using 12-bit tables for long-range coulomb (../kspace.cpp:340)
  G vector (1/distance) = 0.37206663
  grid = 24 24 25
  stencil order = 5
  estimated absolute RMS force accuracy = 0.0034487186
  estimated relative force accuracy = 1.0385714e-05
  using double precision FFTW3
  3d grid and FFT values/proc = 2366 288
Last active /omp style is kspace_style pppm/tip4p/omp
Neighbor list info ...
  update every 1 steps, delay 7 steps, check yes
  max neighbors/atom: 2000, page size: 100000
  master list distance cutoff = 10.8154
  ghost atom cutoff = 10.8154
  binsize = 5.4077, bins = 4 4 4
  1 neighbor lists, perpetual/occasional/extra = 1 0 0
  (1) pair lj/cut/tip4p/long/omp, perpetual
      attributes: half, newton on, omp
      pair build: half/bin/newton/omp
      stencil: half/bin/3d
      bin: standard
Per MPI rank memory allocation (min/avg/max) = 9.228 | 9.231 | 9.237 Mbytes
Step Temp PotEng TotEng E_pair E_mol Press Lx Ly Lz Volume Pxx Pyy Pzz Pxy Pxz Pyz Enthalpy 
11250000    35.826172   -5182.6939   -5113.6001   -5182.6939            0   -1008.3743    20.032822    19.954452    21.071191    8423.0818   -443.34574   -1268.8297   -1312.9474    95.891443    232.23039   -407.50936   -5237.4708 
11251000    35.018144   -5181.0342   -5113.4987   -5181.0342            0   -767.59693    19.980253    19.971003    21.103331    8420.7715    85.755777   -1310.0983   -1078.4483    56.342234    146.97463    195.87324    -5207.766 
11252000     35.50241    -5179.565   -5111.0956    -5179.565            0   -695.18514    20.043529    19.964122    20.943944    8380.7494   -352.21239   -1019.1814   -714.16162   -269.12051   -117.72066   -499.29242   -5196.0643 
11253000    33.894958   -5179.4545   -5114.0852   -5179.4545            0   -495.18668    19.942147    19.990386     21.08023    8403.6589     27.31892    -919.2923   -593.58667   -285.05523     141.2443     372.7076   -5174.7747 
11254000     34.76532   -5185.0173   -5117.9695   -5185.0173            0   -768.44421    20.031384     19.96847     20.98509    8393.9541   -547.84375   -1165.5683   -591.92058   -364.75797    412.97328    170.24344   -5212.0403 
11255000    35.453769   -5180.8926    -5112.517   -5180.8926            0   -917.04238    20.041266    19.985341    20.971985    8399.9414   -1470.2635   -775.66832   -505.19534   -101.65792   -369.79807   -91.714447   -5224.8589 
11256000    37.407782   -5182.7091   -5110.5651   -5182.7091            0   -602.90238    20.068337     19.99389    20.858812    8369.4756   -1161.2537   -271.02006   -376.43343   -242.22265   -457.72821    815.00958   -5184.1555 
11257000     35.43297    -5181.253   -5112.9175    -5181.253            0   -722.86357    20.024194     19.90845    21.102872    8412.6739   -878.33343    42.353079   -1332.6104   -314.07289    128.15149    32.492832   -5201.6058 
11258000    35.152112   -5179.7256   -5111.9318   -5179.7256            0   -1300.9624    20.054702    19.913096      21.0882     8421.598    -1476.304   -1228.0151    -1198.568   -51.839264    287.72013    349.88928   -5271.7164 
11259000    37.979493   -5180.9709   -5107.7242   -5180.9709            0   -285.89062    20.010455    19.898945    21.026627    8372.5283   -844.45252    963.35527   -976.57463   -250.63958    228.93393   -54.734121   -5142.6328 
11260000    37.549695   -5182.4168   -5109.9991   -5182.4168            0    -859.8553    20.008324    19.990903    20.964744    8385.5718   -732.78684   -1089.9891   -756.78991   -31.819251   -55.135517   -208.96092    -5215.155 
11261000    35.199482   -5180.6169   -5112.7317   -5180.6169            0   -213.35243    19.972873    19.988048    20.971034      8372.03    79.948051   -480.98218   -239.02316   -436.28844   -430.17874   -4.3024739   -5138.7815 
11262000      40.2011   -5181.2444   -5103.7132   -5181.2444            0   -1216.3985    20.078442     19.99561    20.956206    8413.5118   -1849.3577   -846.66133   -953.17638   -141.48619    -54.04493   -38.954165   -5252.9682 
11263000    37.166406   -5178.5871   -5106.9085   -5178.5871            0   -647.76346    19.974035    20.004342      20.9663    8377.4507   -440.67566   -920.10658   -582.50814   -313.56641     43.40513    377.89493     -5186.05 
11264000    36.651544   -5183.9872   -5113.3016   -5183.9872            0   -292.22564     20.04758      19.9375    20.971862    8382.4244    -510.9781    281.41606   -647.11488   -41.846924    137.85017    22.808556   -5149.0259 
11265000    36.614548   -5185.2018   -5114.5876   -5185.2018            0   -722.72143    20.031739    19.956528    20.958757    8378.5558   -426.83856   -984.78438   -756.54136   -104.09957    549.90594    222.78397   -5202.8988 
11266000    37.079945   -5184.0057    -5112.494   -5184.0057            0   -341.14057    20.093106    19.957119    20.862323    8365.8026   -770.38479   -2.5634545   -250.47348   -153.80199     85.02188    285.50063   -5154.1154 
11267000    38.700216   -5188.5041   -5113.8675   -5188.5041            0   -512.15191    20.031254    20.008263    20.873622    8365.9513    -527.0785   -1068.1571    58.779896   -85.245148    365.25655      103.221   -5176.3545 
11268000    34.873871   -5183.3346   -5116.0774   -5183.3346            0   -941.19444    19.991209    19.933717    21.104321    8410.0529   -382.68207    -1222.962   -1217.9392      -152.43    433.77962    165.68653   -5231.5168 
11269000    35.837612   -5182.2612   -5113.1454   -5182.2612            0   -965.68912    19.933579    19.984618    21.089692    8401.3948   -1012.6633   -1102.3692    -782.0349   -25.578593    158.23679    102.97498   -5231.4672 
11270000    34.695721   -5180.7413   -5113.8277   -5180.7413            0   -1319.6125    20.047977    19.951961    21.054091     8421.562    -1859.434   -527.46935   -1571.9342    2.0229642   -198.06151   -100.48386   -5275.9023 
11271000     35.66757   -5185.2897   -5116.5018   -5185.2897            0    -616.9594    20.031871    20.027878    20.908408    8388.3666   -397.54361   -1394.3573    -58.97727   -326.70652    127.65902    -95.27046   -5191.9779 
11272000    35.160224   -5178.8949   -5111.0854   -5178.8949            0   -1325.4414    20.047914    20.008154    21.021468    8432.1681   -1363.4816   -1473.4717    -1139.371   -136.25607    331.25704   -348.60429   -5274.0809 
11273000    35.023475   -5182.2593   -5114.7136   -5182.2593            0   -709.05323    20.026405    19.959674    20.969323    8381.8683   -1226.4345   -439.86668   -460.85848    50.497908    217.45386    230.12051   -5201.3889 
11274000    38.464811   -5180.4752   -5106.2926   -5180.4752            0   -633.55759    19.993953    19.984067     20.96906    8378.4081   -867.79512   -417.00617   -615.87148   -217.66588   -5.7003636   -162.81131   -5183.7073 
11275000    36.440811   -5177.9492   -5107.6701   -5177.9492            0   -518.58582    19.987459    19.966435    21.018222    8387.9165   -511.80673   -262.62228   -781.32844    41.714267    613.81674    115.73994   -5171.1082 
11276000    38.734763   -5183.0445   -5108.3412   -5183.0445            0   -667.70016    20.003197    20.016915    20.979906    8400.4024   -445.28508   -661.32481   -896.49058   -127.30551    565.81065    458.95103    -5190.142 
11277000    37.730031   -5179.6686   -5106.9031   -5179.6686            0   -1542.7842    20.022255    20.000033    21.102621    8450.4555   -1456.1577   -1868.6825   -1303.5124    178.47266   -191.83599   -128.29466   -5297.0377 
11278000    36.016736     -5183.35   -5113.8887     -5183.35            0   -683.78952    20.061485    19.979694     21.03716    8432.1637   -972.67987   -836.47721   -242.21148   -50.136109   -14.085536    501.17752   -5197.9774 
11279000    34.490941   -5178.4999   -5111.9812   -5178.4999            0   -1126.7405    19.930829    20.001759    21.110361    8415.6803   -1420.9011   -686.22438    -1273.096   -435.27707    144.70846     19.06281   -5250.2707 
11280000    35.157866   -5178.0756   -5110.2707   -5178.0756            0   -754.57521    20.005866    19.938401    21.019331    8384.2957   -265.87701   -674.61687   -1323.2317   -307.15475    321.94862   -229.32125   -5202.5374 
11281000    36.256736   -5177.8681    -5107.944   -5177.8681            0   -672.99864    19.962455    20.059649    20.949849     8389.154   -775.75414   -1032.8525    -210.3893   -83.121713    605.36483   -119.99625   -5190.2835 
11282000    35.144543   -5177.1634   -5109.3841   -5177.1634            0   -518.66531     20.01815    19.984799      20.9479    8380.3896     -328.228   -891.32136   -336.44655   -3.5143262    230.27771   -4.0787757   -5172.7751 
11283000    35.267785   -5177.2833   -5109.2664   -5177.2833            0   -787.51197    19.987952    20.000637    20.917547    8362.2448   -1424.0545   -1117.0415    178.56012   -183.29061   -268.09124    635.02949   -5205.3072 
11284000    36.200464   -5183.6088   -5113.7932   -5183.6088            0   -561.00978    20.009418    19.992819     21.03995    8416.9199    -508.3214   -809.21345   -365.49448    34.472714   -309.76947    321.11091   -5182.6583 
11285000    36.451284   -5189.0218   -5118.7224   -5189.0218            0   -304.67012    19.909229    19.941348    21.132386    8389.9134    880.64255   -794.61225   -1000.0406   -217.94666    132.47678   -284.62804   -5156.0013 
11286000    35.292686   -5183.8648   -5115.7999   -5183.8648            0   -583.50982    19.927788    20.053917    21.023938    8401.8005    131.60323   -1265.5497   -616.58297    67.086654    542.62749    324.43636   -5187.2983 
11287000    36.484613   -5182.7839   -5112.4203   -5182.7839            0   -573.31854    19.987749    19.962915    21.027169    8390.1291   -730.02641   -176.78329   -813.14593   -274.73637    377.73648    102.71582   -5182.5723 
11288000    36.094024    -5178.933   -5109.3227    -5178.933            0   -467.48682    20.016089    19.929801    20.999758    8377.1534   -787.09297   -384.80871   -230.55877   -113.06625    2.0825566   -424.07845   -5166.4366 
11289000    35.794117   -5184.3248   -5115.2929   -5184.3248            0   -673.71286    20.001699    20.032367     20.94706    8393.0969   -448.40303   -822.98892   -749.74662   -303.00062    592.23003    204.41818   -5197.7585 
11290000    36.835508   -5184.0698   -5113.0294   -5184.0698            0   -711.18879    20.077848    19.959004     20.97132    8403.9175   -627.82833   -1277.2573   -228.48078    70.526915    461.67155    401.42565   -5200.1945 
11291000    36.120755   -5181.2307   -5111.5687   -5181.2307            0   -640.64595    20.030262    20.000379    20.964703     8398.729   -836.10063   -618.79418   -467.04303    129.48425    178.81596   -303.26722   -5190.0394 
11292000    35.469802   -5182.5969   -5114.1904   -5182.5969            0   -837.04113    19.993944    19.913646    21.052343    8382.0394   -1132.5102   -129.15873   -1249.4544    34.671081    392.43499   -56.639684   -5216.5132 
11293000    37.499659   -5181.9184   -5109.5972   -5181.9184            0   -1058.3484    19.976841    20.035257    21.043899    8422.6344   -1019.4075   -1007.6303   -1148.0072    28.982529   -74.522207     246.3859   -5239.5999 
11294000    34.053005   -5182.1847   -5116.5107   -5182.1847            0   -547.02535     19.98801    19.998116    20.983706    8387.6604    -584.3519   -480.53159   -576.19257   -158.32016     441.5419    67.816513   -5183.4258 
11295000    35.235352   -5185.4946   -5117.5402   -5185.4946            0   -661.66027     20.05363    19.938818    21.015329    8402.8887   -331.69238   -1119.5212   -533.76724    72.307283   -315.43197    303.93738   -5198.6251 
11296000    35.640067   -5185.2498    -5116.515   -5185.2498            0   -725.95298    19.976043    20.004712    20.985866    8386.2665   -960.67822    -603.6383   -613.54241   -58.356425   -100.86436    453.12029   -5205.3027 
11297000     34.61663   -5180.8045   -5114.0434   -5180.8045            0   -833.60474    20.021391    19.989047    20.979126     8396.025   -651.61957   -930.01162   -919.18302   -21.867594    247.09723    385.75377   -5216.1161 
11298000    36.467298   -5187.0283   -5116.6981   -5187.0283            0   -607.86403    20.016063    19.975092    20.926532    8366.9027   -185.85401   -1216.9621   -420.77597   -371.12138    295.04364   -195.69942   -5190.8713 
11299000    37.490217   -5182.6687   -5110.3656   -5182.6687            0   -749.68013    20.085773    19.968164    20.947881    8401.6928    -1135.534   -382.02401   -731.48236   -79.397442    206.08128    140.55724    -5202.224 
11300000     34.69643   -5183.6636   -5116.7487   -5183.6636            0   -1121.9342    20.018112    19.934051     21.06345    8405.2026   -1380.4978   -402.69457   -1582.6103    213.47042    697.74096   -108.60458   -5254.2768 
11301000    39.754526   -5180.6277   -5103.9577   -5180.6277            0   -1280.8745    20.064608    20.037868    20.927452    8413.9234   -1210.0843   -1909.9251   -722.61404   -163.50057   -98.027195   -432.86512   -5261.1319 
11302000    34.792061   -5183.5579   -5116.4585   -5183.5579            0   -1082.5385    19.965121    20.045263    20.938542    8379.7327     -423.084   -1877.2859   -947.24571   -298.89694   -3.4667653   -623.85115   -5248.7553 
11303000    33.650026   -5181.7974   -5116.9005   -5181.7974            0   -213.81156    19.968736    19.953391    21.050047    8387.2651    9.1529366   -319.91465   -330.67297   -185.71656    6.4231934    175.50779   -5143.0539 
11304000    36.457123   -5178.9837    -5108.673   -5178.9837            0   -1054.6336    19.980647    20.030765    21.016039    8411.1995   -603.75476     -1447.93    -1112.216   -211.91478   -429.77867    -71.12029   -5238.0436 
11305000    37.287464   -5184.2019   -5112.2899   -5184.2019            0   -545.20688    20.008846    19.904301    21.077434    8394.3433    -618.1916   -71.108752   -946.32029   -80.787284   -86.119057    195.58933   -5179.0357 
11306000    38.337321   -5180.6489   -5106.7122   -5180.6489            0   -883.67277    20.023032    19.915838    21.011843     8379.007   -1207.3947   -516.44445    -927.1792   -136.67617   -221.74186   -88.765111   -5214.6963 
11307000    35.145806   -5184.8679   -5117.0863   -5184.8679            0   -294.06764    19.975655    20.013028    20.985011    8389.2478    106.99992   -69.018456    -920.1844   -125.54545    208.23859   -309.73618    -5153.065 
11308000     36.95772   -5183.7506   -5112.4745   -5183.7506            0    -854.8441     20.06102    20.000297    20.959235    8409.3972   -811.78186   -994.06288   -758.68755   -297.92934   -183.02715   -261.80066   -5217.3147 
11309000    37.046217    -5185.887   -5114.4403    -5185.887            0   -780.22489    19.988755     20.00827    20.973336    8388.0845   -514.85578   -1419.3268   -406.49204   -247.98961     503.9327    1.6632327   -5209.8864 
11310000    36.869923    -5184.014   -5112.9072    -5184.014            0   -912.37552    19.993619    19.974868    21.023217      8396.04   -67.417279   -1350.3187   -1319.3906   -273.46034    557.41901    280.09574   -5224.6255 
11311000    36.183046   -5180.1097   -5110.3277   -5180.1097            0   -923.46398    19.965477    20.020644    21.057796    8417.2578   -1165.7556   -604.20775   -1000.4286     204.6161     450.6441   -54.093521   -5223.6894 
11312000    38.335218   -5181.0226   -5107.0899   -5181.0226            0   -990.03752     19.96994    19.992522    21.100946    8424.5412   -625.21585   -1354.1799   -990.71688    83.049388    424.87106    -203.6209   -5228.7292 
11313000    37.258818   -5180.4182   -5108.5614   -5180.4182            0   -1061.2978    20.031335    19.999203    21.036884    8427.6014   -851.55143   -1129.0112   -1203.3306   -6.8076478    363.91231    441.53051   -5239.0033 
11314000    34.984386   -5179.8107   -5112.3404   -5179.8107            0    -768.1159    20.014926    19.964151    20.985875    8385.5574   -677.32069    -879.5428   -747.48422   -150.94119   -440.04645    590.23447   -5206.2769 
11315000    36.092487   -5183.5152   -5113.9078   -5183.5152            0   -997.30872      19.9849    19.971144    20.954066    8363.2144   -529.27133   -1525.9559   -936.69894   -298.23117    345.07827    385.67318   -5235.5484 
11316000    38.332659   -5180.6932   -5106.7654   -5180.6932            0   -492.50931    20.022215    19.932387    21.014846    8386.8262   -803.91042   -223.98974   -449.62778   -248.49792   -117.65178    331.39712   -5167.0059 
11317000    36.355614   -5184.9075   -5114.7926   -5184.9075            0   -561.38584    20.051277    19.976865    20.887118    8366.5787   -846.47968   -459.57743    -378.1004   -98.598249    87.316615   -117.16937   -5183.2918 
11318000    36.099492    -5182.409   -5112.7881    -5182.409            0   -158.08653    19.998622     19.95075    21.053356     8400.026   -75.794581    203.14547   -601.61046    -243.9964    390.07895   -181.69171   -5132.1546 
11319000    35.118658   -5186.6525   -5118.9232   -5186.6525            0   -853.67892    20.014471    19.921071    20.993041    8370.1289   -1233.5303   -274.01518   -1053.4913    63.320245   -164.32761   -450.80208   -5223.1316 
11320000    35.565699   -5179.8645   -5111.2731   -5179.8645            0   -1046.4213    20.109525    19.904154    21.017314    8412.4549    -1206.845    -892.1068    -1040.312   -161.41323    124.03408    234.62159   -5239.6554 
11321000     36.55725   -5180.0952   -5109.5914   -5180.0952            0   -756.27009    20.026607    20.032748    20.922717    8393.9423   -55.151518   -1447.6046   -766.05415   -142.21088   -144.28199    35.596808   -5202.1718 
11322000    38.353265   -5177.7846   -5103.8171   -5177.7846            0   -715.63052    20.018222    19.995917    21.058603    8429.3945   -875.59626   -846.66439   -424.63092    84.018385    512.57816   -251.68546   -5191.7925 
11323000    35.156595   -5185.8398   -5118.0373   -5185.8398            0   -835.24701       20.016    20.024043    20.904176    8378.4193   -789.08294   -1079.6672   -636.99086   -103.54162   -442.72347   -230.87948   -5220.0967 
11324000    33.408417   -5179.0678   -5114.6369   -5179.0678            0   -684.04427    19.983113    19.920243    21.098319    8398.5756   -407.22792   -170.01396   -1474.8909   -17.362649    757.76946    -444.6194   -5198.4218 
11325000    34.977598   -5181.5933   -5114.1361   -5181.5933            0   -762.56263    19.993345    19.965142    21.069335    8410.2456   -115.95068   -1429.0281   -742.70912   -239.70076    173.52705    14.406352    -5207.668 
11326000    36.793034   -5183.2945    -5112.336   -5183.2945            0   -910.90897    19.992438    20.008324    21.063031     8425.532   -307.67858   -1730.8885   -694.15984   -192.21108     376.1176   -157.77153   -5224.2665 
11327000    35.106779   -5186.3305   -5118.6241   -5186.3305            0   -937.43314    20.041698       19.994    20.998907    8414.5498   -1283.2145   -1229.1671    -299.9179    -179.4486   -13.255661   -66.397948   -5233.6636 
11328000    36.793448   -5179.4149   -5108.4556   -5179.4149            0   -505.57073    20.005692     19.97565    20.924699    8362.0686   -128.02892   -1044.3784   -344.30484    59.221039    480.04489     181.0994   -5170.1111 
11329000    35.761501   -5183.9982   -5115.0291   -5183.9982            0   -134.05781    20.051286    19.953418     20.91756    8368.9417   -457.34485   -296.73413    351.90554    187.54091    371.51824   -568.85676   -5131.3912 
11330000    37.990932   -5183.5099   -5110.2412   -5183.5099            0   -563.79205    20.017839    19.987193    20.932735    8375.1963   -808.62125   -464.62264   -418.13227    45.902605    258.97793   -22.116306   -5179.1048 
11331000    37.130374   -5183.9166   -5112.3076   -5183.9166            0   -798.70242    20.009502    19.926114    21.065623    8399.1085   -571.00656   -513.20437   -1311.8963   -343.50722   -175.28509    493.77848   -5210.1425 
11332000    36.326626   -5188.1825   -5118.1235   -5188.1825            0   -182.09438    19.989901    19.899476    21.044503    8371.2623   -36.221888   -454.44381   -55.617435   -174.42788    42.210299   -265.13073   -5140.3548 
11333000    37.548855   -5182.3913   -5109.9752   -5182.3913            0   -759.73515    20.117243    19.909369    20.947539    8389.9426   -843.11875   -667.40425   -768.68245    292.96833    402.85149    268.65739   -5202.9354 
11334000    37.604702   -5179.3871   -5106.8632   -5179.3871            0   -977.08813    19.991504    20.013821    21.037576    8417.2684   -714.94242   -1213.6187   -1002.7033   -78.993012    269.01055    95.334271   -5226.8079 
11335000    37.944856   -5189.1629    -5115.983   -5189.1629            0   -872.20747    19.962282      19.9356      21.1116    8401.5736    -35.27767   -1250.2891   -1331.0556   -121.46091    601.77701   -168.30822   -5222.8532 
11336000    34.628642   -5181.0717   -5114.2875   -5181.0717            0   -1084.4684    19.987944    19.979985    21.102212    8427.3545   -1299.9135   -850.06632   -1103.4254   -35.421163    428.43026    163.55355   -5247.5733 
11337000    34.284351   -5179.9866   -5113.8664   -5179.9866            0   -690.11577    20.003225    20.010737    20.974167    8395.5238   -1039.3762   -687.35479   -343.61627    69.550542    373.95809    231.40314   -5198.3642 
11338000    35.950804   -5180.2379   -5110.9038   -5180.2379            0   -962.18847    20.019179    19.965355    21.098549    8432.8794   -1423.4436   -414.69794   -1048.4239   -146.41782   -92.471146    -36.73954   -5229.2384 
11339000    33.827824   -5184.6009   -5119.3611   -5184.6009            0   -733.72744    20.000098    20.012983    20.992789    8402.6077   -782.81221   -1045.8953   -372.47477   -185.37275    131.70754   -224.01643   -5209.2745 
11340000    36.358698   -5183.6014   -5113.4806   -5183.6014            0   -790.00552    19.981125    19.995582    21.136675    8444.8252   -185.84442   -1412.9114    -771.2607    29.633507   -11.346509    158.07757    -5210.777 
11341000    36.046165   -5183.3601    -5113.842   -5183.3601            0   -788.18583    20.061612    20.011726    20.919464    8398.4844   -1162.2774   -1141.0365   -61.243534   -118.14604    626.45338   -182.17698   -5210.3816 
11342000     36.10004   -5183.4803   -5113.8584   -5183.4803            0    115.40604    19.961019    20.048494    20.862972    8349.1188    26.938223   -396.57996    715.85987      -195.92   -46.552019    378.32644   -5099.8061 
11343000    37.539622   -5181.3327   -5108.9344   -5181.3327            0   -528.87647    19.964613    19.962885    21.002411    8370.5373   -18.069168   -939.43836   -629.12188   -136.30865   -65.906789   -172.58811   -5173.4974 
11344000    36.736642   -5182.8553   -5112.0056   -5182.8553            0   -447.53838    19.971679    20.033832    20.951976    8383.0797   -179.30816   -473.09937    -690.2076   -73.306135    259.97145   -233.43519    -5166.721 
11345000    34.131618   -5183.4275   -5117.6018   -5183.4275            0   -919.73786    20.033512    19.928236    21.019278    8391.5801   -746.48228   -899.63103   -1113.1003   -144.84375    417.43327    255.42133   -5230.1617 
11346000    36.308881   -5180.2641   -5110.2394   -5180.2641            0   -730.05348    20.054362    19.944309    20.957713    8382.4643   -1149.5301   -623.05597   -417.57437   -368.04832     106.2405   -592.84229   -5199.4882 
11347000    35.053401   -5178.2909   -5110.6875   -5178.2909            0   -934.21989    20.046226    19.962666     21.03446    8417.4887   -1663.2495   -407.76846   -731.64175   -92.614104    610.30711    470.36659   -5225.3727 
11348000     36.87306   -5183.5274   -5112.4146   -5183.5274            0   -973.19968    20.037789    20.003204    20.945115    8395.2205   -1495.0725   -316.84011   -1107.6864    40.547155   -181.99779   -152.24844    -5231.569 
11349000    35.677501   -5182.0551    -5113.248   -5182.0551            0   -657.58776    19.957266    19.956271    20.994285    8361.4485   -649.49493   -786.35328   -536.91508    -88.38577   -340.71858    197.87096   -5193.4363 
11350000    36.458409   -5182.9864   -5112.6733   -5182.9864            0    -294.9028    19.964757    19.947974     21.00658    8366.0059   -230.55798    129.88734   -784.03777    39.672329   -34.300818    221.19337   -5148.6543 
11351000    35.107228   -5185.9833    -5118.276   -5185.9833            0   -861.57083    19.959072    19.910592    21.111145    8389.5045   -1329.0972    89.292136   -1344.9074   -105.43262    81.781047     260.2301   -5223.6912 
11352000    35.555666   -5179.4067   -5110.8346   -5179.4067            0   -397.59111    20.042934    19.929612    21.083793    8421.8768   -489.39589   -149.88933   -553.48812    -154.2912    153.32756    -556.4904   -5159.6685 
11353000    35.878696   -5177.4611    -5108.266   -5177.4611            0   -789.20238    19.963811    20.065374    21.050733    8432.5303    138.41183   -1779.0443   -726.97466   -205.25343   -479.41971    60.950839    -5205.322 
11354000    37.460394   -5182.3632   -5110.1177   -5182.3632            0   -879.92368    20.071392    19.929384    21.016583    8406.8537   -1379.3678   -255.29875   -1005.1045   -9.7935246    -241.5846    169.17997    -5218.001 
11355000    37.155187    -5177.801   -5106.1441    -5177.801            0   -528.80203     19.98133    19.960555    21.073463     8404.907   -1054.5036   -84.289089    -447.6134   -311.32767    60.225459   -30.965659   -5170.9631 
11356000    34.481697   -5180.0385   -5113.5376   -5180.0385            0   -421.93718    20.065445    19.963569    20.973672    8401.5896   -117.87878    -628.7301   -519.20267   -110.62156   -316.10613   -207.39986    -5165.237 
11357000    36.797828   -5181.4251   -5110.4574   -5181.4251            0   -337.74288    20.042458    19.933641    21.011769    8394.6044   -428.69467   -553.28203   -31.251944   -214.97397   -199.27508   -142.93335   -5151.8061 
11358000    35.845745   -5177.7816   -5108.6501   -5177.7816            0   -683.85302    20.013185    20.033604    20.976935    8410.4131   -447.66692   -1179.1342   -424.75799    143.12806    37.884867    220.67195   -5192.5296 
11359000    36.297751   -5182.5673   -5112.5641   -5182.5673            0   -457.15122    20.034655      19.9263    20.996292    8382.0673   -575.17713   -367.98969   -428.28683   -189.87266    -354.1159    35.315818    -5168.448 
11360000    37.849787   -5181.6759   -5108.6794   -5181.6759            0    -430.3036    20.005857    19.910303    20.994836    8362.7189   -370.86016    24.009688   -944.06033   -37.088379    325.06238    328.07858     -5161.16 
11361000    37.026711   -5179.1935   -5107.7844   -5179.1935            0   -434.36534    20.063283    19.948076     20.94685      8383.43   -279.83267   -526.97333   -496.29002    19.852324    647.81901   -182.02734   -5160.8915 
11362000    36.038502   -5180.4979   -5110.9946   -5180.4979            0   -1314.8885      20.0081    20.008183    20.978118    8398.0806   -917.81889   -1787.9962   -1238.8505   -31.225624    401.53415    -738.3931   -5272.0387 
11363000    35.748075   -5185.0497   -5116.1065   -5185.0497            0    -631.7014    20.013678    20.042392     20.92201    8392.2781   -593.28115   -1284.7477    -17.07536   -128.84696   -32.680179   -32.269948   -5193.4222 
11364000    36.635353    -5182.192   -5111.5377    -5182.192            0   -869.83538     20.04916    19.903434    21.074024    8409.5293    -979.9812   -463.53915   -1165.9858   -44.660274   -409.49637   -41.639869   -5218.2181 
11365000    35.589206   -5180.8808    -5112.244   -5180.8808            0   -683.49567    20.030503    19.911286    21.064528    8401.2302   -1057.6386   -28.238271   -964.61014    280.08057    561.04327    311.79299   -5195.9882 
11366000    35.544418   -5184.4467   -5115.8963   -5184.4467            0    -672.8454    19.938538    20.001719     21.05958    8398.6664   -643.34748   -642.47976   -732.70897   -124.63768   -276.38276   -232.26172   -5198.3104 
11367000    34.816941   -5183.8917   -5116.7443   -5183.8917            0   -916.35759    20.026197    19.985837    21.004676    8406.9182   -916.13722   -1025.7249    -807.2106   -252.10292   -288.31751    25.138495   -5229.0955 
11368000    35.017607   -5182.8693   -5115.3349   -5182.8693            0   -1095.9231    20.043931    20.006527     20.95758    8404.1874   -1332.7191   -870.42224   -1084.6279   -245.97879    437.65639   -1036.5033   -5249.6583 
11369000    33.775833    -5181.143   -5116.0035    -5181.143            0    -654.3766    20.064017    19.939085    21.012698    8406.3011   -267.31001   -703.12029   -992.69949    8.9635892    130.18812    185.58344   -5196.2283 
11370000    35.914596   -5181.1991   -5111.9348   -5181.1991            0   -520.21783     20.01831    19.942649    21.056357    8406.0794    -540.4123   -202.07506   -818.16613   -250.90764    494.31453   -146.49069   -5175.7104 
11371000     34.95265   -5185.5862    -5118.177   -5185.5862            0   -661.92202    20.031571    19.963173     20.96611    8384.2158   -791.41824   -744.70214   -449.64567   -300.33494    442.57495   -271.07402   -5199.1137 
11372000     37.05821   -5179.8613   -5108.3914   -5179.8613            0   -526.92682     19.97618    19.981978    20.998943    8382.0136   -554.90862   -336.60617   -689.26568   -139.73507   -210.14929   -237.52549   -5172.8045 
11373000    36.292707   -5182.1094   -5112.1159   -5182.1094            0   -101.48304    19.918105    19.887034    21.063793    8343.6217    118.86971    -123.9843   -299.33453    69.112713     307.6961    610.23934   -5124.4646 
11374000    37.013299   -5182.2635   -5110.8802   -5182.2635            0   -1046.2955    20.033266    19.963068     21.03893    8414.0037   -720.81072   -1209.1191   -1208.9566    28.807391    44.775757    376.63163   -5239.2707 
11375000    37.218266   -5180.7691   -5108.9905   -5180.7691            0   -749.30432    20.027632    19.944682    20.979307    8380.0739   -1278.2342   -344.53424   -625.14449   -167.93579    953.34596    256.00261   -5200.5666 
11376000    34.389009   -5184.3431    -5118.021   -5184.3431            0   -630.92382    20.045994    19.975678    20.970271    8397.1745   -432.22345   -702.29927   -758.24873   -177.64898    108.53513    140.14406   -5195.2866 
11377000    36.353968   -5182.3128   -5112.2012   -5182.3128            0   -995.25015    20.048097    19.922635    21.114529    8433.3734   -1036.0631   -1182.3608   -767.32653   -307.44587    84.441527    315.58603   -5234.6091 
11378000    34.724565   -5182.4383    -5115.469   -5182.4383            0    -344.6999    19.962438    19.996982    20.959449    8366.7713   -26.901807   -835.35754   -171.84035   -40.088125    86.628192    366.09633   -5157.5296 
11379000    37.126728   -5178.1369   -5106.5349   -5178.1369            0   -193.02351    20.013352    19.982587    20.954345     8380.031    32.427329   -256.90517   -354.59268    22.143917    964.33606   -530.15796   -5130.1251 
11380000    34.297794   -5183.4219   -5117.2758   -5183.4219            0   -614.88053    19.974428    20.072013    20.953981    8401.0166   -959.46855    -732.8115   -152.36154   -372.64353    512.10182   -272.62515   -5192.6111 
11381000    34.063499   -5183.4852   -5117.7909   -5183.4852            0   -508.51803    20.010884    19.930495    21.088878    8410.8102   -703.82353    121.32557   -943.05612   -137.49504    845.69691    365.48819   -5180.1672 
11382000    39.085945   -5182.4123   -5107.0318   -5182.4123            0   -769.59275    20.015022    19.991475     21.05753    8425.7452   -780.30602   -356.25328    -1172.219    68.668017   -364.75584    338.50777      -5201.6 
11383000    37.994189   -5181.9327   -5108.6577   -5181.9327            0   -1064.4566    19.980249    19.955661    21.119691    8420.8239   -765.54441   -750.25858   -1677.5668   -55.616226    262.42477    143.73339   -5239.3826 
11384000    34.483954   -5180.6448   -5114.1396   -5180.6448            0   -859.19507    19.956685    19.970156    21.150721    8429.3687   -1363.1067   -154.81495   -1059.6636    106.06873    597.24773   -59.717883   -5219.7636 
11385000    35.273401   -5181.1312   -5113.1035   -5181.1312            0   -305.74791    20.006401    19.969468    21.035926    8404.2141   -17.337778   -425.56976    -474.3362   0.56793043    13.940637    66.455196    -5150.578 
11386000    37.504912    -5184.685   -5112.3536    -5184.685            0   -943.55107    20.002884    19.977808    21.035363    8406.0206   -916.78546   -543.43928   -1370.4285   -32.376151    -166.2771    212.40648   -5228.0266 
11387000    34.954239   -5182.2331   -5114.8209   -5182.2331            0   -522.43016     20.03236    19.889698    21.037857    8382.2731   -351.09904   -497.82293    -718.3685   -28.643548    362.93934    422.23396   -5178.6863 
11388000    36.453697   -5184.3189   -5114.0148   -5184.3189            0   -806.37486    20.092741    19.931601    20.994253    8407.7889   -1507.9956   -313.69356   -597.43544   -90.554594    335.55559   -174.35817   -5212.8917 
11389000     33.98696     -5183.94   -5118.3933     -5183.94            0   -776.37786    19.958797    20.049037     20.97977     8395.153   -441.63034   -1722.0382   -165.46501   -124.10685    555.04762    169.21561   -5213.4489 
11390000    36.215948   -5180.3713   -5110.5258   -5180.3713            0   -777.72967    20.085303    20.022255    20.921963    8413.8315   -457.95323   -1671.4513   -203.78452   -1.0653921    409.47103   -116.18607   -5205.9587 
11391000    36.170912    -5183.209   -5113.4504    -5183.209            0   -192.08848    20.010317    19.916892     21.00543    8371.5737    202.24842   -710.61089   -67.902984    172.68146    858.67595    52.279172   -5136.9026 
11392000    36.178995    -5183.078   -5113.3038    -5183.078            0   -783.81547    20.029227    19.962902     20.98882     8392.201   -977.23341    -1243.065   -131.14802   -17.647222     406.5536    555.73165   -5209.2362 
11393000      34.4516   -5180.1422   -5113.6994   -5180.1422            0   -1101.9395    19.970837    19.939718    21.125646    8412.5043   -803.39332   -1284.8487   -1217.5765    9.7364423    34.657491    317.87978   -5248.8938 
11394000    36.106053   -5182.3887   -5112.7552   -5182.3887            0   -859.80482    19.994831    19.999501    20.973088    8386.8575   -343.82569   -1562.1221   -673.46669   -205.59631   -91.253719   -65.525678   -5217.9211 
11395000    36.016108   -5181.9488   -5112.4887   -5181.9488            0   -153.54541    19.954299    19.956411     21.07029    8390.5306       249.38   -328.39334   -381.62288   -4.3980263   -187.55396   -472.21904   -5131.2776 
11396000    35.470651   -5184.0691   -5115.6609   -5184.0691            0   -113.63631    20.022192    19.981734    20.916668    8368.3014   -715.17952    307.28061    66.989971   -325.39776   -133.33378    184.07555   -5129.5295 
11397000    35.017882   -5185.2127   -5117.6778   -5185.2127            0    -968.8357    20.019094    19.967686    21.028086    8405.6617   -1339.8347   -330.43032   -1236.2421   -90.302452    553.62629    229.17286   -5236.4454 
11398000    34.665932   -5180.6313   -5113.7751   -5180.6313            0   -591.33039    19.987316    20.023217    20.937336    8379.3389   -1026.0896   -43.095187   -704.80635   -332.65397    560.44445    551.39563   -5186.0381 
11399000    37.931234   -5181.5773   -5108.4237   -5181.5773            0   -687.65475    20.036076    20.035986     20.89589    8388.4991   -1585.7432   -118.92559   -358.29542   -93.906669    70.162114   -195.76495   -5192.5498 
11400000    35.092138   -5182.2055   -5114.5274   -5182.2055            0   -265.50622    20.009134    19.975669    21.047515    8412.6037   -624.01388    281.16537   -453.67016   -3.6972896     230.6731    659.93007   -5147.1021 
11401000    37.723572   -5180.1623   -5107.4092   -5180.1623            0    -811.7792    20.053422     19.94526    21.024504     8409.186   -1272.1412   -206.83781   -956.35864   -16.717844    134.78549    171.52083   -5206.9653 
11402000    35.534575   -5177.9663   -5109.4349   -5177.9663            0   -228.37882    19.948424    20.031996    20.969519    8379.5611     262.2219   -430.57491   -516.78345   -307.54126    -340.3264   -29.661559   -5137.3444 
11403000    36.051228   -5182.6077   -5113.0799   -5182.6077            0   -908.23372    20.031136    20.028289    20.941929    8401.6799    -834.0037   -1074.3553   -816.34212   -299.86661    286.71406   -383.42444   -5224.3657 
11404000    36.506665   -5182.5271   -5112.1209   -5182.5271            0   -385.45804    20.037831    19.897952    20.967535    8360.0038   -79.526159   -670.36099   -406.48698    11.517203    34.692463    237.04068   -5159.1167 
11405000    36.500198   -5183.8123   -5113.4186   -5183.8123            0   -734.24007    20.000092    19.879292    21.114955    8395.0455   -677.17236   -12.590652   -1512.9572   -51.876209   -432.18894   -229.27526   -5203.3139 
11406000    35.184027    -5182.821   -5114.9656    -5182.821            0   -694.70774    20.036687    19.931699    21.027639    8397.7078   -534.57071   -963.74636   -585.80614   -69.649842    103.02221    426.82474   -5200.0479 
11407000    36.609123   -5180.9042   -5110.3004   -5180.9042            0   -409.54278    20.000105    19.986824     20.98689    8389.2697   -953.69001    272.64636   -547.58468    169.15245   -302.87982     60.85946   -5160.4075 
11408000    35.639467    -5185.399   -5116.6653    -5185.399            0   -843.20314    20.011102     19.97572     20.96928    8382.1797   -950.19305   -844.18273   -735.23365    268.21965    1.8840838   -134.14577   -5219.7431 
11409000    35.906679   -5184.0009   -5114.7519   -5184.0009            0   -1130.9235    20.053629    19.977615    20.971502    8401.6806   -1686.1216    -853.7891   -852.85977      -103.59    8.3251687    43.243268   -5253.3238 
11410000    35.478082   -5182.1981   -5113.7756   -5182.1981            0   -275.25499    20.038569    19.956553    20.894179    8355.5982   -933.43785    185.33854   -77.665654   -175.53586    297.34819    -144.1046   -5147.3176 
11411000    35.843036   -5184.0826   -5114.9563   -5184.0826            0   -743.32116    19.937896    20.063782    20.995062    8398.6463    -43.43059   -1628.7179   -557.81493   -185.39956   -534.04355   -361.40701   -5206.0025 
11412000    37.454145   -5184.6623   -5112.4288   -5184.6623            0    -430.7935     20.00553    19.979124    20.916515     8360.184   -596.85347    -275.2657   -420.26134   -293.56246    169.46973     99.63429   -5164.9532 
11413000    36.221292   -5181.7005   -5111.8447   -5181.7005            0   -603.77576    20.031082    19.934769    20.956628    8368.2957   -963.68959   -273.44335   -574.19434   -246.49414    208.38258    143.97037   -5185.5313 
11414000    34.733875   -5181.7149   -5114.7277   -5181.7149            0   -449.13757    19.950138     19.96943    21.043601     8383.621    441.96149   -1222.3761   -566.99811   -221.42616    3.5404228   -384.64608   -5169.6422 
11415000    36.217338   -5182.0093   -5112.1611   -5182.0093            0   -778.95352    20.003276    19.965644    21.041361    8403.4631   -435.47351   -675.01559   -1226.3715    85.698526    294.42469    681.12667   -5207.6265 
11416000    36.141667   -5180.0122   -5110.3099   -5180.0122            0   -790.28412     19.94893    20.025949    21.038881    8404.9544   -143.44266   -1215.0124   -1012.3972   -8.8344767    57.080316    17.948687   -5207.1811 
11417000    36.830188   -5183.7793   -5112.7492   -5183.7793            0   -937.91301    20.005269    19.994574    20.960342    8384.0702   -1022.9942   -639.82677   -1150.9181   -21.439544   -36.234777    235.06845   -5227.4307 
11418000    38.069892   -5181.2506   -5107.8296   -5181.2506            0   -451.63385    20.024934    19.951888    20.975196    8380.3298   -387.94387   -541.69308   -425.26459    151.02882   -12.473587    98.470135   -5163.0276 
11419000    37.742286   -5180.6117   -5107.8226   -5180.6117            0    -287.8651    19.988234    19.992544    20.953367    8373.2934   -222.71702   -237.11731   -403.76096   -105.08922    478.23994    140.55327   -5142.9755 
11420000    36.491731   -5181.9865   -5111.6091   -5181.9865            0   -823.79446     20.02426    20.017574    20.990415    8413.7371   -644.09137   -1033.7386   -793.55346    15.318087    668.42789    12.263756   -5212.6934 
11421000    36.806321   -5181.4401   -5110.4561   -5181.4401            0   -827.53987    20.024583    20.035173    20.894349    8382.7292   -982.55412   -486.90533   -1013.1602   -159.66974      471.511   -443.30653   -5211.6257 
11422000    35.106514    -5182.298   -5114.5922    -5182.298            0   -999.78043    20.062324    20.033102    20.872677    8388.9495   -1219.2238   -1495.4875   -284.63001   -349.79441    557.17116   -147.02417   -5236.9095 
11423000    34.149674   -5181.9717   -5116.1112   -5181.9717            0    -988.4681     20.05072    20.030418    20.909413    8397.7284   -845.18588   -1206.7811   -913.43733   -172.13933    26.769537   -108.78003   -5237.1711 
11424000    36.067094   -5181.8888   -5112.3304   -5181.8888            0   -1091.7829    20.030516    19.965846    21.024424    8408.2178   -1098.2762   -1084.6334   -1092.4391    19.529925    329.51515   -289.84176   -5246.2105 
11425000      36.7931   -5185.5139   -5114.5553   -5185.5139            0   -1255.6695    20.013897    19.974332    20.992617    8392.0972   -1247.3772   -1455.6817   -1063.9497    40.915382    450.89498    3.7662638   -5268.2369 
11426000    36.495346   -5187.5528   -5117.1684   -5187.5528            0   -534.11799    20.050941    19.970288     20.87038    8356.9817     -795.968   -603.74695   -202.63902   -182.48315    91.512463   -230.27654   -5182.2657 
11427000    36.164317   -5181.1358   -5111.3899   -5181.1358            0    -584.8258    20.053906     19.92198    20.967876    8376.9499   -535.95894   -876.32727   -342.19118   -57.679591     10.97514   -203.34945   -5182.8376 
11428000    36.361129   -5182.4741   -5112.3486   -5182.4741            0   -30.755911    19.975159    19.972459    20.903045    8339.3333   -170.15398    247.35059   -169.46435   -135.06169    151.26723   -22.831136   -5116.0891 
11429000    36.439197    -5179.108    -5108.832    -5179.108            0    -622.4242    19.984524    19.910614    21.098025    8394.9912    -603.0805   -264.36437   -999.82773    52.452622     302.5462   -34.505628   -5185.0368 
11430000    37.690163   -5183.3764   -5110.6878   -5183.3764            0   -476.00842    19.994099    19.978497    20.954059    8370.1416   -302.45852    -662.8117   -462.75503    195.51985    83.062397    347.18954   -5168.7941 
11431000    34.907812   -5180.5988   -5113.2762   -5180.5988            0   -776.97015    20.043432    19.976372    21.017742    8415.4002   -456.96659   -857.98001   -1015.9639   -346.09433    208.95453     117.9976   -5208.6337 
11432000    35.736054   -5181.0965   -5112.1765   -5181.0965            0   -963.89065    19.976222     19.96385    21.030932     8387.184   -725.98391    -1359.485   -806.20308   -40.351097   -69.075674    152.01231   -5230.0781 
11433000     36.55876   -5188.4214   -5117.9147   -5188.4214            0   -682.66177    20.016393    20.035291    20.880439    8373.7717   -520.89464    -1001.803   -525.28768   -84.305981   -308.44958    162.00696   -5201.2833 
11434000    34.821701    -5183.942   -5116.7854    -5183.942            0    -607.8234    20.074949    19.959532     20.94069    8390.6536   -986.90637   -345.33191   -491.23193   -287.76349    84.479635    -558.0606   -5191.1642 
11435000    37.317267   -5181.2144   -5109.2449   -5181.2144            0   -890.65172    20.092777    19.928293    21.006725    8411.4026    -1895.406    378.55912   -1155.1083   -50.520704   -346.91682   -354.83036   -5218.5026 
11436000    36.612221   -5179.3004   -5108.6907   -5179.3004            0    -1055.223     20.04329    19.977041    21.067516    8435.5517   -810.38202   -707.70996    -1647.577    2.2951154    254.09914   -377.58193   -5238.5083 
11437000    34.310404   -5180.3349   -5114.1644   -5180.3349            0   -756.17751    19.982811    20.047426    20.981441    8405.2477   -830.91637   -929.11795   -508.49821   -595.44821    114.03042   -402.29484    -5206.858 
11438000    35.428758   -5178.8979   -5110.5705   -5178.8979            0   -811.16373    19.957095    20.040969    20.957084    8381.9853     -366.584   -1562.8391   -504.06811   -135.95691    443.98227    182.99615   -5209.7294 
11439000    35.461776   -5183.3955   -5115.0045   -5183.3955            0   -842.36831    19.987529    19.935052    21.101886    8408.0977   -503.79269   -605.61695   -1417.6953   -131.59588    364.93019    95.752386   -5218.2986 
11440000    37.482547   -5181.5957   -5109.3074   -5181.5957            0   -621.65949    19.999892    20.003022    20.977173    8392.0916   -908.98069   -389.20472   -566.79307   -145.00247    482.74897    59.185378   -5185.3924 
11441000    36.797223   -5182.7745   -5111.8079   -5182.7745            0    -380.0105    20.020559    20.024815    20.958602    8402.4711   -712.67332   -751.84414    324.48596    6.4930664    321.83903    261.18874    -5158.375 
11442000    34.836348   -5178.3338    -5111.149   -5178.3338            0   -235.83693    19.972715    19.937147    21.018584    8369.5779   -387.15746    242.40606   -562.75938    75.970788    55.261805   -376.77189   -5139.9356 
11443000    35.786088   -5180.6551   -5111.6386   -5180.6551            0   -475.20031    19.970891    20.018094    20.945639    8373.6302    125.87205   -849.12283   -702.35016     50.40587    278.78641   -195.43528   -5169.6704 
11444000    37.389621   -5180.0243   -5107.9153   -5180.0243            0   -612.12504    19.968019    19.982501    21.069768    8407.0687   -580.17745   -526.06169   -730.13598   -178.94954    346.92033   -264.09767    -5182.967 
11445000    36.056131   -5182.7159   -5113.1787   -5182.7159            0   -290.34869    20.048051    19.999576    21.024072    8429.6551   -405.43374    37.448143   -503.06047   -136.76751    478.14274    188.15629   -5148.8735 
11446000    35.258781   -5180.7849   -5112.7853   -5180.7849            0    -638.6674    19.980067    20.087436    20.966084    8414.7025   -351.83262   -1174.3295   -389.84005    -431.8412    362.12924   -210.32168   -5191.1625 
11447000    35.320674   -5180.0062   -5111.8873   -5180.0062            0   -1065.8915     20.03466    19.982913    21.048574    8426.8149   -763.55579   -1462.7629   -971.35573   -42.732753    294.92569    147.72068   -5242.8816 
11448000    35.834733   -5181.2475   -5112.1372   -5181.2475            0   -767.54879    19.981595    20.023295    20.995274    8400.1539   -329.72634   -1356.7005    -616.2195   -133.72921   -55.966553    76.268657   -5206.1678 
11449000    36.132985   -5178.8075    -5109.122   -5178.8075            0   -530.60792    20.075551     19.94604    20.937206    8383.8381   -740.66936   -280.91112   -570.24328   -39.877941    289.55188    123.81169   -5173.9992 
11450000    35.515308   -5182.5971   -5114.1029   -5182.5971            0   -665.18114     19.96571     20.03955    20.925349    8372.3127    11.101183   -1179.0986   -827.54602   -2.6251948    152.85487    242.45547   -5195.3226 
11451000    35.052119   -5180.3059    -5112.705   -5180.3059            0   -1283.3268    19.954612    20.006799    21.046339    8402.2856    -370.6759   -1796.2231   -1683.0815    22.318612     31.01109   -144.40809   -5269.9622 
11452000    35.035135   -5180.2116   -5112.6434   -5180.2116            0   -1079.2531    20.004049    19.952139     21.03692    8396.3303   -1233.8987   -641.01201   -1362.8487  -0.49970275    -14.18586   -107.18274      -5244.8 
11453000    34.610692   -5183.1188   -5116.3692   -5183.1188            0   -646.26857    19.965428    19.952464    21.054574    8387.2894     -171.579   -725.30703   -1041.9197   -289.82593    257.27114   -429.53851   -5195.4207 
11454000    33.334352   -5179.2672   -5114.9791   -5179.2672            0   -1142.7914    20.093501    19.996613    20.964608    8423.6207    -1558.444   -1048.9955   -820.93479    4.6562521    234.02245    276.40795   -5255.3708 
11455000    33.889835    -5181.421   -5116.0616    -5181.421            0   -991.92794    20.038153    19.963466    21.058774    8424.1622   -792.92617   -1000.5992   -1182.2584   -104.22177    235.92285    154.69523   -5237.9276 
11456000    34.893894   -5182.9871   -5115.6913   -5182.9871            0   -834.27469    20.002302    19.914024    21.076622    8395.3733   -1372.5116    4.4442809   -1134.7568   -262.50794    205.99031    322.89887   -5217.8381 
11457000    34.873388   -5180.2095   -5112.9532   -5180.2095            0   -1044.3871    20.030129    19.968131    20.985669     8393.517   -858.92675   -1150.8148   -1123.4197    26.570988    17.556145   -475.14622   -5240.7975 
11458000    36.299475   -5181.5277   -5111.5212   -5181.5277            0   -763.22265    19.994847    19.939827    21.012736    8377.6469   -295.03108     -827.042   -1167.5949   -327.33894    -7.675389   -175.37675   -5204.7712 
11459000    35.246393    -5181.432   -5113.4564    -5181.432            0   -609.37453    20.000594    20.020541    20.929837    8380.7821   -260.43126   -1108.0154   -459.67694    96.154075    -34.62771   -113.31983   -5187.9373 
11460000    37.048712   -5180.3423   -5108.8908   -5180.3423            0   -579.05689    20.011221     19.96318    20.994896    8387.2011   -1099.3477    -95.02817   -542.79477    183.59802   -60.226336   -184.04541   -5179.7203 
11461000    36.886325   -5182.4447   -5111.3063   -5182.4447            0    -434.5343    20.018786    19.998454    20.985586    8401.4692   -743.67646   -563.35178    3.4253346   -100.01512    198.68003   -97.071957   -5164.5484 
11462000    36.354528   -5182.3637   -5112.2509   -5182.3637            0   -1153.6611    20.021982    19.933814    21.076159    8411.7998   -962.05021   -1185.4791    -1313.454   -59.430195    598.75516    446.06783   -5253.7792 
11463000    37.606333   -5182.3558   -5109.8289   -5182.3558            0   -429.02132    19.976473    20.011269    20.964444    8380.6324   -694.68592   -464.39586   -127.98217    48.809095    256.71003   -143.49753   -5162.2651 
11464000    36.716161   -5183.8231   -5113.0129   -5183.8231            0   -1073.2507    19.949891    20.060707    20.958163    8387.6433   -485.16389    -1586.433   -1148.1553    -333.6373    192.20868    45.824192   -5244.2985 
11465000    34.195553   -5185.4398   -5119.4908   -5185.4398            0   -875.73235    20.027358    20.064425    20.836851    8373.0262   -764.90813   -1613.3051   -248.98379    160.16579     262.6456    51.318173   -5226.4282 
11466000    35.703869   -5183.1673   -5114.3094   -5183.1673            0   -957.24413     20.00757    19.971457    21.085407    8425.3137   -577.29766   -1374.9807   -919.45405   -299.78122    347.80063    131.19415   -5231.9303 
11467000    34.323825   -5183.5015   -5117.3052   -5183.5015            0   -874.72816    20.055364    19.974638    21.067673     8439.681   -416.61383   -1308.5986   -898.97207   -22.054588   -437.63333    -148.9618   -5224.9703 
11468000    36.114048   -5180.2225   -5110.5735   -5180.2225            0   -819.88103    20.086292    19.932409    20.987082      8402.56   -1172.7816   -655.43431    -631.4272   -221.79476   -104.82389    -332.8741    -5211.044 
11469000    34.409088   -5176.0486   -5109.6878   -5176.0486            0   -507.48109    19.925025    20.110098    20.937944    8389.7127   -193.20413   -1165.9829   -163.25625   -142.23785   -90.772508    260.81994   -5171.7808 
11470000    35.094819   -5184.1086   -5116.4253   -5184.1086            0   -398.41494    19.935325    19.999933    20.985106    8366.8701   -64.951582   -255.66642   -874.62683   -217.44539    352.60373      192.528   -5165.0408 
11471000    35.831283   -5182.4442   -5113.3405   -5182.4442            0    -422.5985     20.00477    19.944487    21.094797    8416.5051    -814.3404    53.667373   -507.12249   -6.7595009    325.13638   -83.852388   -5165.2129 
11472000    35.260036   -5184.6189    -5116.617   -5184.6189            0   -668.60749    20.007417    20.008546     20.93569    8380.9611   -435.03875   -939.53825   -631.24545   -69.320339    573.46026    95.854706   -5198.3394 
11473000    34.753022    -5181.441   -5114.4169    -5181.441            0   -659.64353    19.979682    19.984425    21.041051    8401.3228   -316.03711   -701.17129   -961.72219   -95.725942   -333.85573   -54.187164   -5195.2395 
11474000    36.570185   -5184.1774   -5113.6487   -5184.1774            0    45.813355    19.978529    19.938956    21.029063    8376.9482    657.40733    -43.29228   -476.67499   -107.00347    324.74789   -386.20629   -5108.0518 
11475000    35.165665   -5183.0771   -5115.2572   -5183.0771            0   -305.32743    20.015316    19.956489     21.01968     8396.005    143.25868   -600.75372   -458.48725   -254.03306   -186.98119    373.97061   -5152.6436 
11476000    34.756213   -5180.4027   -5113.3724   -5180.4027            0   -246.40431    19.959484    19.973663    21.001268    8372.4498    101.22133   -680.74391   -159.69036   -227.36179    129.27602    113.09289   -5143.4593 
11477000      39.2159   -5180.4597   -5104.8286   -5180.4597            0   -161.10079    19.985165    19.964018    21.068158     8405.862    676.38631   -749.97501   -409.71368   -194.51905   -325.08924    84.218608   -5124.5781 
11478000     37.01128   -5180.4632   -5109.0838   -5180.4632            0    81.800479    20.030133    19.921409     20.96581    8365.9547   -177.74981     421.5232    1.6280466    -156.9591   -509.43221   -61.682858   -5099.1034 
11479000    37.570039   -5183.0967   -5110.6398   -5183.0967            0    -898.3151     19.91433     20.02354      21.0388    8389.3351    71.778392   -1754.0033   -1012.7204   -69.915671    125.72144    94.106554   -5220.5485 
11480000    37.504008   -5179.7898   -5107.4602   -5179.7898            0   -714.08576    19.976295    19.922986    21.062047    8382.4304    80.893983   -1093.5967   -1129.5546    64.659779    525.99255   -181.66053   -5194.7565 
11481000    37.652135   -5181.6024   -5108.9871   -5181.6024            0   -1070.7599    20.029563    19.995775    21.028126    8421.9038   -592.99633   -1226.8503   -1392.4331   -42.207544     259.6742   -134.36945    -5240.503 
11482000    36.245313   -5182.8772   -5112.9751   -5182.8772            0   -701.90972    20.008581    20.040868     20.94712    8399.5714   -1118.2575   -406.40072   -581.07091   -178.19239   -1.5113928    410.87671   -5198.9584 
11483000    36.307619   -5184.7944   -5114.7721   -5184.7944            0   -473.17449    19.977087    19.983507    21.016696    8390.1229   -543.90354   -36.270541    -839.3494   -11.060886    73.167964    408.90097   -5172.6704 
11484000    35.798625   -5179.6602   -5110.6196   -5179.6602            0   -556.94565    19.964853    20.019271    21.018629    8400.7637    337.82644   -1495.8188   -512.84462   -209.82618   -88.670306   -218.70863   -5178.8546 
11485000    35.068279   -5184.1279   -5116.4958   -5184.1279            0   -563.78112    20.005404    19.940581    21.047859    8396.3989   -99.231772   -918.34474   -673.76686   -209.45944    467.54455   -483.88465   -5185.5324 
11486000    36.361642   -5184.6482   -5114.5217   -5184.6482            0   -866.58343    19.988692    19.957118    21.069114    8404.8208    -1180.679   -220.29601   -1198.7753   -174.31696    106.22436   -327.23396   -5220.7437 
11487000    36.740446   -5184.2191   -5113.3621   -5184.2191            0   -516.14856    20.056744    19.946796    20.948457    8380.8025   -655.85683   -533.75733    -358.8315   -317.43033   -155.36437    29.368162   -5176.4485 
11488000    35.123262   -5177.2891   -5109.5509   -5177.2891            0    -279.2172    19.954717    19.937417    21.050123    8374.6975   -540.18163    293.88364    -591.3536   -95.063105    251.88725    245.81721   -5143.6535 
11489000    34.995488   -5179.8001   -5112.3084   -5179.8001            0   -1080.7227    20.010928    19.965121     21.03995    8405.8933   -593.96254   -1156.4789   -1491.7267    40.710434    25.744965    119.22388   -5244.7956 
11490000    37.050418   -5183.3525   -5111.8976   -5183.3525            0   -613.98765    20.064282    19.953705    20.904485    8369.2518   -726.36763   -841.22856   -274.36674   -251.59533   -7.9084085   -138.65418   -5186.8391 
11491000    34.916781   -5183.3708   -5116.0309   -5183.3708            0   -580.14461    19.990059    19.975911    21.023777    8395.2074   -905.82068   -461.70596   -372.90717   -342.25508    145.43276   -287.57622   -5187.0611 
11492000    35.351797   -5181.1309    -5112.952   -5181.1309            0   -857.31656     19.96552    19.969765    21.100129    8412.7636   -229.68855    -907.4876   -1434.7735    305.38322   -4.9658249     -595.272   -5218.1375 
11493000    36.498529   -5181.1742   -5110.7837   -5181.1742            0   -772.32324    20.041352     19.97324    21.047269    8425.0269   -1096.9709   -371.21821   -848.78058    -11.58899    226.04572    73.848376   -5205.6794 
11494000    37.015543   -5181.6907   -5110.3031   -5181.6907            0   -1224.2673    19.968282    20.004568    21.053689    8410.0404   -1057.7936   -1421.5743    -1193.434   -149.46432    99.572881    525.71388   -5260.4617 
11495000    37.328204   -5180.1237   -5108.1331   -5180.1237            0   -1092.1429    20.063973    20.019242    20.903157    8396.0776   -377.31319    -1603.799   -1295.3164   -126.48322    412.60683   -44.269889    -5241.864 
11496000    37.882598   -5182.7296   -5109.6699   -5182.7296            0   -848.99389    20.031653    20.044392    21.006834    8434.7128   -1540.2074   -605.01724     -401.757   -302.10409    492.99893   -514.66349    -5214.106 
11497000    35.163843   -5180.5281   -5112.7117   -5180.5281            0   -496.37597    20.034729    20.033593    21.017769    8435.8515   -937.24342   -683.53896    131.65448   -164.33729    177.05623    156.52678     -5173.78 
11498000    36.735184   -5179.1038   -5108.2569   -5179.1038            0   -857.24363      20.0262    19.966858    21.094947    8435.0315   -700.18127   -919.40742   -952.14219    -130.6688    64.210108    165.58263   -5213.7118 
11499000    34.704722     -5181.99    -5115.059     -5181.99            0   -785.17291    20.001271     19.99417    21.017703    8405.1647   -429.24142   -899.23439   -1027.0429   -350.34218   -28.261746    397.74742   -5211.3061 
11500000    38.423761   -5179.8946   -5105.7911   -5179.8946            0   -1051.0532    19.910474    20.013095    21.049448    8387.5777   -589.93866   -1368.3576   -1194.8633   -161.45396     193.6528   -359.80345   -5234.3604 
Loop time of 341.849 on 64 procs for 250000 steps with 972 atoms

Performance: 126.372 ns/day, 0.190 hours/ns, 731.317 timesteps/s
99.1% CPU use with 64 MPI tasks x 1 OpenMP threads

MPI task timing breakdown:
Section |  min time  |  avg time  |  max time  |%varavg| %total
---------------------------------------------------------------
Pair    | 17.147     | 26.488     | 36.239     |  90.2 |  7.75
Bond    | 0.25868    | 0.27376    | 0.288      |   1.2 |  0.08
Kspace  | 135.53     | 145.52     | 155.12     |  39.0 | 42.57
Neigh   | 0.078137   | 0.080315   | 0.082787   |   0.3 |  0.02
Comm    | 79.762     | 80.739     | 82.012     |   7.0 | 23.62
Output  | 0.51538    | 0.5163     | 0.51795    |   0.0 |  0.15
Modify  | 78.944     | 80.633     | 83.904     |  12.4 | 23.59
Other   |            | 7.596      |            |       |  2.22

Nlocal:        15.1875 ave          20 max          11 min
Histogram: 3 5 10 7 9 10 8 9 2 1
Nghost:        2215.75 ave        2241 max        2183 min
Histogram: 1 2 4 6 6 19 12 3 7 4
Neighs:        4703.45 ave        6113 max        2758 min
Histogram: 1 1 7 8 6 12 10 4 6 9

Total # of neighbors = 301021
Ave neighs/atom = 309.69239
Ave special neighs/atom = 2.0000000
Neighbor list builds = 250
Dangerous builds = 0

unfix		3
unfix		2
unfix		1

write_data	data.final.${pid}
write_data	data.final.1
System init for write_data ...
PPPM initialization ...
  extracting TIP4P info from pair style
  using 12-bit tables for long-range coulomb (../kspace.cpp:340)
  G vector (1/distance) = 0.37218289
  grid = 24 24 25
  stencil order = 5
  estimated absolute RMS force accuracy = 0.0034344365
  estimated relative force accuracy = 1.0342704e-05
  using double precision FFTW3
  3d grid and FFT values/proc = 2366 288
Last active /omp style is kspace_style pppm/tip4p/omp
WARNING: Not all mixed pair coeffs generated from mixing. Use write_data with 'pair ij' option to store all pair coeffs. (../write_data.cpp:312)

write_restart   restart.lmp.${pid}
write_restart   restart.lmp.1
System init for write_restart ...
PPPM initialization ...
  extracting TIP4P info from pair style
  using 12-bit tables for long-range coulomb (../kspace.cpp:340)
  G vector (1/distance) = 0.37218289
  grid = 24 24 25
  stencil order = 5
  estimated absolute RMS force accuracy = 0.0034344365
  estimated relative force accuracy = 1.0342704e-05
  using double precision FFTW3
  3d grid and FFT values/proc = 2366 288
Last active /omp style is kspace_style pppm/tip4p/omp
Total wall time: 0:05:42
