LAMMPS (30 Jul 2021)
Processor partition = 0
  using 2 OpenMP thread(s) per MPI task
using multi-threaded neighbor list subroutines
variable        pid world 0 1
variable        phase world IceV IceIII

shell cd ${phase}
shell cd IceV
include Restart.lmp
echo both
log log.lammps
#include		in.partitions
include		in.temp
variable        temperature equal 131.47
variable	tempDamp equal 100.0
include		in.pressure
variable        pressure equal 7112.8
variable        pressureDamp equal 1000.0 # This is 1 ps
include		in.seed
variable        seed equal 745823

units		real
atom_style	full
read_restart    restart.lmp.${pid}
read_restart    restart.lmp.0
Reading restart file ...
  restart file = 30 Jul 2021, LAMMPS = 30 Jul 2021
  restoring atom style full from restart
  triclinic box = (-3.1103099 -0.12393779 0.0021501151) to (14.720309 22.703937 19.227848) with tilt (-0.069659823 -6.2812178 0.14849846)
  2 by 4 by 4 MPI processor grid
  restoring pair style lj/cut/tip4p/long/omp from restart
  restoring bond style harmonic/omp from restart
  restoring angle style harmonic/omp from restart
  1008 atoms
  672 bonds
  336 angles
Finding 1-2 1-3 1-4 neighbors ...
  special bond factors lj:    0        0        0       
  special bond factors coul:  0        0        0       
     2 = max # of 1-2 neighbors
     1 = max # of 1-3 neighbors
     1 = max # of 1-4 neighbors
     2 = max # of special neighbors
  special bonds CPU = 0.002 seconds
  read_restart CPU = 0.006 seconds

include 	in.setup
variable	out_freq equal 1000
variable	out_freq2 equal 10000
variable	out_freq3 equal 1000

timestep	2.0

neigh_modify    delay 7 every 1

include		in.tip4p
# This is TIP4P/Ice

# create groups ###
group ox type 2
336 atoms in group ox
group hy type 1
672 atoms in group hy

# set charges - beside manually ###
set group ox charge -1.1794
Setting atom values ...
  336 settings made for charge
set group hy charge 0.5897
Setting atom values ...
  672 settings made for charge

# ### TIP3P Potential Parameters ###
pair_style lj/cut/tip4p/long/omp 2 1 1 1 0.1577 8.5
pair_coeff 1 1*2 0.000 0.000
pair_coeff 2 2 0.21084 3.1668
bond_style  harmonic
bond_coeff  1 450 0.9572
angle_style harmonic
angle_coeff 1 55 104.52
kspace_style pppm/tip4p/omp 1.0e-5
pair_modify tail yes

thermo          ${out_freq}
thermo          1000
thermo_style    custom step temp pe etotal epair emol press lx ly lz vol pxx pyy pzz pxy pxz pyz enthalpy

restart 	${out_freq3} restart.lmp.${pid} restart2.lmp.${pid}
restart 	1000 restart.lmp.${pid} restart2.lmp.${pid}
restart 	1000 restart.lmp.0 restart2.lmp.${pid}
restart 	1000 restart.lmp.0 restart2.lmp.0


include         in.dump
dump            myDump all atom ${out_freq2} dump.water.${pid}
dump            myDump all atom 10000 dump.water.${pid}
dump            myDump all atom 10000 dump.water.0
dump            myDump2 all dcd ${out_freq2} dump.dcd
dump            myDump2 all dcd 10000 dump.dcd
dump_modify     myDump append yes
dump_modify     myDump2 append yes


variable natoms 	equal  "count(all)"                        # NUMBER ATOMS
variable H      	equal  "enthalpy/v_natoms"                 # ENTHALPY-per-atom
variable Vol      	equal  "vol/v_natoms"                 # volume-per-atom
fix AVG all 		ave/time ${out_freq} 1 ${out_freq} v_Vol v_H file vol_enthalpy.dat
fix AVG all 		ave/time 1000 1 ${out_freq} v_Vol v_H file vol_enthalpy.dat
fix AVG all 		ave/time 1000 1 1000 v_Vol v_H file vol_enthalpy.dat



fix 		1 all shake 1e-6 200 0 b 1 a 1
Finding SHAKE clusters ...
       0 = # of size 2 clusters
       0 = # of size 3 clusters
       0 = # of size 4 clusters
     336 = # of frozen angles
  find clusters CPU = 0.000 seconds
fix             2 all nph tri ${pressure} ${pressure} ${pressureDamp}
fix             2 all nph tri 7112.8 ${pressure} ${pressureDamp}
fix             2 all nph tri 7112.8 7112.8 ${pressureDamp}
fix             2 all nph tri 7112.8 7112.8 1000
fix             3 all temp/csvr ${temperature} ${temperature} ${tempDamp} ${seed}
fix             3 all temp/csvr 131.47 ${temperature} ${tempDamp} ${seed}
fix             3 all temp/csvr 131.47 131.47 ${tempDamp} ${seed}
fix             3 all temp/csvr 131.47 131.47 100 ${seed}
fix             3 all temp/csvr 131.47 131.47 100 745823


run             250000
PPPM initialization ...
  extracting TIP4P info from pair style
  using 12-bit tables for long-range coulomb (../kspace.cpp:340)
  G vector (1/distance) = 0.37932089
  grid = 24 27 32
  stencil order = 5
  estimated absolute RMS force accuracy = 0.002458318
  estimated relative force accuracy = 7.4031516e-06
  using double precision FFTW3
  3d grid and FFT values/proc = 5355 672
Last active /omp style is kspace_style pppm/tip4p/omp
Neighbor list info ...
  update every 1 steps, delay 7 steps, check yes
  max neighbors/atom: 2000, page size: 100000
  master list distance cutoff = 10.8154
  ghost atom cutoff = 10.8154
  binsize = 5.4077, bins = 5 5 4
  1 neighbor lists, perpetual/occasional/extra = 1 0 0
  (1) pair lj/cut/tip4p/long/omp, perpetual
      attributes: half, newton on, omp
      pair build: half/bin/newton/tri/omp
      stencil: half/bin/3d/tri
      bin: standard
Setting up Verlet run ...
  Unit style    : real
  Current step  : 26000000
  Time step     : 2
Per MPI rank memory allocation (min/avg/max) = 10.31 | 10.32 | 10.33 Mbytes
Step Temp PotEng TotEng E_pair E_mol Press Lx Ly Lz Volume Pxx Pyy Pzz Pxy Pxz Pyz Enthalpy 
26000000    143.16249   -5113.5623   -4827.2197   -5113.5623            0    6138.5272    17.830619    22.827875    19.225698    7825.5344    6603.4983     5988.966    5823.1174   -33.217536   -1334.5854   -1234.3158   -4126.6456 
26001000    129.13404   -5113.7654   -4855.4813   -5113.7654            0    7010.6901    17.859909     22.71368    19.236206    7803.4413    7584.1866    6644.5383    6803.3453    407.19268   -361.57453    344.17705   -4057.6284 
26002000    128.78001    -5112.301    -4854.725    -5112.301            0    6366.8546     18.01792     22.67554    19.184141    7837.9891    6155.6106    7008.9379    5936.0151   -705.20436    541.13848   -1073.6934    -4126.936 
26003000    127.31066    -5110.315   -4855.6779    -5110.315            0     7207.734    17.889696    22.706394    19.180641    7791.3776    8284.4081    6847.7206    6491.0733    -688.6515    1157.4113    350.84138   -4036.6685 
26004000    126.80184   -5127.9626   -4874.3432   -5127.9626            0    6431.9987     17.87153    22.713162    19.301752    7834.9472    6755.3643    7361.1716    5179.4601   -599.92459    529.42482    853.41366    -4139.393 
26005000    130.61967   -5114.3628   -4853.1073   -5114.3628            0    7322.8445    17.740492    22.824596      19.2176    7781.5825    6805.6055    7672.0118     7490.916    325.06819   -147.86936   -809.57684    -4022.064 
26006000    133.24802   -5108.2129   -4841.7004   -5108.2129            0    8184.4455    17.813995    22.631573     19.25414    7762.4743    8497.5444    9213.8976    6841.8946   -242.66206   -118.75989   -1199.8695    -3915.158 
26007000    128.35941   -5108.0078   -4851.2732   -5108.0078            0    7609.3964    17.731118    22.776534    19.264578    7780.0653    8036.4107    7924.1318    6867.6466    422.91826   -401.41408    -927.8463   -3987.8785 
26008000    136.85016   -5126.5168   -4852.7996   -5126.5168            0    7077.7457     17.78168    22.743071    19.317405    7812.1519    8342.7099    6588.3006    6302.2268      664.894    476.41725    159.65875   -4046.4163 
26009000    136.71374   -5111.0388   -4837.5944   -5111.0388            0    6770.7991     17.98237    22.628817    19.160348    7796.7245    5114.8197     7640.353    7557.2246   -1207.0602   -109.60397    561.39633   -4067.7056 
26010000     129.9187   -5104.7447   -4844.8912   -5104.7447            0    6405.1993     17.93776    22.869304    19.093755    7832.7179    5415.4201    6283.0412    7517.1364    343.10591   -7.2138691   -834.85161   -4113.2115 
26011000    136.18187   -5127.8002   -4855.4197   -5127.8002            0    7235.3506    18.001943    22.521984    19.218513    7791.9438    5975.0757    8369.8969    7361.0792   -487.25863    133.51065   -636.16585   -4033.2125 
26012000    135.25266   -5097.7718   -4827.2497   -5097.7718            0    6722.6834    17.777489    23.017642    19.090079    7811.5817    8206.5478    5505.3515    6456.1509   -801.65934   -386.77968    855.04903   -4061.3754 
26013000    136.85057   -5103.7076   -4829.9896   -5103.7076            0    7818.6123    17.776166    22.715814     19.25093    7773.5274    8506.0217    6993.8934    7955.9219     478.7018   -169.02765    -842.7942   -3943.6019 
26014000    130.44373   -5119.3769   -4858.4733   -5119.3769            0    6175.4131      17.9737    22.677755    19.170746     7814.057    6147.3594     6248.284     6130.596   -1448.4649   -756.70612    128.41714   -4154.7232 
26015000    130.80205   -5114.6813   -4853.0611   -5114.6813            0    6928.4157     17.87898    22.842227    19.097565     7799.364    6899.3135    6737.0255    7148.9082   -531.09542   -322.12706   -965.10276   -4064.9834 
26016000     135.1402   -5124.9795   -4854.6824   -5124.9795            0    6360.8323    17.954945    22.522469    19.374832    7834.9823    6728.3026    7278.8915    5075.3028      384.969   -376.06523    738.73073   -4127.8608 
26017000    133.15225    -5115.177    -4848.856    -5115.177            0    7794.9302    17.833312    22.714758    19.181534    7770.0436     7069.067    8586.4093    7729.3144    287.61961    1134.5661    1835.5726   -3965.5492 
26018000    129.93104   -5122.3907   -4862.5125   -5122.3907            0    7632.6713    17.901906    22.877605    19.011165    7786.0744    6277.5784      7494.43    9126.0055   -403.01523    372.72551   -445.19507   -3995.8081 
26019000    128.75482    -5109.204   -4851.6784    -5109.204            0    7098.8957    17.970647    22.592525    19.211751    7800.0147    6441.3321    7527.7109    7327.6441   -9.8404843    685.72304   -480.79171   -4044.1421 
26020000    131.41803   -5117.2472   -4854.3949   -5117.2472            0    7135.0777    17.853345    22.768638    19.156983    7787.2433    5518.3725    7526.7346     8360.126   -279.20025    -810.8927   -544.10255   -4044.0716 
26021000    131.15657   -5128.9318   -4866.6025   -5128.9318            0    6210.7731    17.816569    22.917045    19.141752    7815.6369     6529.047    5216.8575    6886.4147     632.0887   -685.74292     -1961.22   -4158.6796 
26022000    133.82564   -5119.5812   -4851.9134   -5119.5812            0    6875.8903    17.957519    22.661777    19.186029    7807.7411    6214.6104     7170.506    7242.5544   -124.79703   -99.675572   -27.845271   -4068.9703 
26023000    133.63408    -5134.144   -4866.8593    -5134.144            0    7566.5061    17.799979    22.947857    19.060036    7785.4792    7064.3676    7924.9127    7710.2379    -28.38103    685.69962    767.58369   -4007.7338 
26024000    138.97952   -5101.6065   -4823.6303   -5101.6065            0    7446.5053     18.09583    22.567034    19.117666    7807.0663     6189.322    8306.6702    7843.5238    1376.1711    925.24603   -1110.9119   -3975.7857 
26025000    136.33279   -5110.8479   -4838.1655   -5110.8479            0     8074.834    17.922544    22.767336    19.118444    7801.2541    8863.0166    7392.1678    7969.3174   -748.43674    252.04761      378.549   -3919.4651 
26026000    134.74916   -5111.9627   -4842.4477   -5111.9627            0    8301.1338    17.781181    22.844799    19.143822    7776.3639    10195.431    7897.4595    6810.5108    1023.6275    524.97056    1607.1568   -3901.0137 
26027000    137.14577   -5112.3945    -4838.086   -5112.3945            0    6440.9083    17.846561    22.657124    19.315739    7810.3526    7021.8596    6187.6853    6113.1802   -246.57192    -1283.666    -143.3306    -4104.428 
26028000    130.12566   -5117.9488   -4857.6814   -5117.9488            0    7879.9987    17.821675    22.782849    19.121674     7763.945    7502.2004    7440.1918    8697.6039   -56.283522   -206.93614   -63.649206   -3965.4357 
26029000    129.76988   -5106.4572   -4846.9015   -5106.4572            0    7591.3134    17.838306    22.717014    19.176729    7771.0439    7838.8655    7363.9329    7571.1416   -437.01763    -540.6481   -440.94164   -3986.5574 
26030000    138.16745   -5115.3305   -4838.9785   -5115.3305            0    6377.7216    17.867895    22.583456    19.334513    7801.8398    8916.7482    6228.2588    3988.1578   -761.33443   -758.96522   -556.61583   -4113.3097 
26031000    139.15951   -5125.4787   -4847.1425   -5125.4787            0    5432.8596    17.907568    22.866849    19.217363    7869.3111    4695.9542    5656.7519    5945.8726    678.60637    372.78428     154.3703   -4223.6358 
26032000    132.09691    -5109.626   -4845.4159    -5109.626            0    8091.8657    18.051309    22.564796    19.126525    7790.6948    6024.8659    8858.9038    9391.8274    227.82489    697.75614    1002.5343   -3926.0238 
26033000    130.97813    -5117.846   -4855.8735    -5117.846            0    5836.6587    17.793331    22.913881    19.218973    7835.8495    6931.5522    5296.0897    5282.3342    -822.2966    403.75862   -2016.7473   -4188.8729 
26034000    129.23982   -5125.4309   -4866.9353   -5125.4309            0    5899.0297    18.040825    22.536218    19.245957    7824.8666    5253.3098    6134.9204    6308.8588    1388.8537    149.06875    923.35269   -4193.7519 
26035000    128.87568   -5127.1419   -4869.3746   -5127.1419            0     7040.117    17.886491    22.793475    19.107917    7790.2077     6823.476    7371.4485    6925.4265   -96.033897    24.030836    537.92892   -4069.5315 
26036000    128.40787   -5125.8248   -4868.9932   -5125.8248            0     5756.426    18.048077    22.616487     19.19834     7836.457    5499.2455    6520.7118    5249.3207    164.46516   -1006.9201   -1749.3188   -4211.1103 
26037000    129.79779   -5109.9421   -4850.3305   -5109.9421            0    6720.2082    17.858296    22.773513    19.207933    7811.7925    7502.1815    6273.1524    6385.2905   -674.27441   -1032.6065    -1311.224   -4084.7175 
26038000    131.00551   -5114.2953   -4852.2681   -5114.2953            0    7988.3419    17.801142    22.792685     19.14273    7766.8913     6532.839    8477.0717    8955.1149   -1032.3785    843.40826   -548.48139   -3947.4115 
26039000    133.22658   -5122.7143   -4856.2447   -5122.7143            0    6871.1356     17.99463    22.658982    19.153689    7809.7255    5402.1307    6969.7023    8241.5736    172.73313    74.622844   -483.82315   -4073.6441 
26040000    133.05787   -5118.2353   -4852.1031   -5118.2353            0    6259.2508    17.906894    22.766492    19.199091     7827.031    7095.5865    6205.4098    5476.7561    469.10315    815.47559    640.41089   -4137.6145 
26041000    129.37601    -5109.943    -4851.175    -5109.943            0    7560.3311    17.810411    22.772594    19.218646    7794.8765    9464.8604    7481.8662    5734.2668    -878.1573    1206.0599    -580.4472   -3991.7145 
26042000    132.60662   -5117.4759   -4852.2463   -5117.4759            0    6786.0077     17.85388    22.675999    19.285262    7807.7264    7500.5414    5874.3527    6983.1289    1540.5538     16.93745   -1149.2449   -4079.5393 
26043000    135.96957   -5120.9337   -4848.9777   -5120.9337            0    5337.7092    17.803848    22.947131    19.214862    7850.1788    5732.8708    4530.1772    5750.0795     603.3622   -318.52735    217.52385   -4237.8805 
26044000    126.88844   -5122.8171   -4869.0245   -5122.8171            0     7943.154    17.901519    22.739547    19.152008    7796.2545    7423.9935    8211.1085      8194.36   -767.05565   -184.30802    -488.8001   -3965.8849 
26045000    129.18436   -5126.7156   -4868.3309   -5126.7156            0    6991.3745    17.796494     22.84352    19.156124    7787.6265    7509.3999    7239.6949    6225.0287    226.47862   -96.516593    737.23616   -4074.2887 
26046000    128.65816   -5123.0872    -4865.755   -5123.0872            0    6839.4806    17.964356    22.618414    19.209646    7805.3641    6084.2948    6952.7276    7481.4193   -329.00732   -732.88398    393.93435   -4087.1949 
26047000    134.79019   -5126.4041    -4856.807   -5126.4041            0    6024.9809    17.927798    22.863033    19.125262    7839.1358    6337.9527     5129.344    6607.6459    1278.0501   -140.89373    506.85593   -4167.9965 
26048000    129.93648   -5121.5612   -4861.6722   -5121.5612            0    6863.1573    17.806557     22.88166    19.112762    7787.3722    7862.8396    6524.3467    6202.2855    1641.0943   -252.10798    1283.8502   -4082.2177 
26049000    135.91123   -5113.4104   -4841.5711   -5113.4104            0    7910.8986    17.935616    22.529729    19.263661    7784.1483    8322.0203    8060.2863    7350.3893   -1369.0039    997.81362   -238.95798   -3943.4957 
26050000    124.32912   -5117.0647    -4868.391   -5117.0647            0    6917.9937    17.827344    22.865876    19.165356    7812.5245    6282.7739    7696.2632     6774.944   -337.31226    796.00122   -99.698614   -4080.1711 
26051000    135.76739   -5091.5041   -4819.9525   -5091.5041            0    7707.6012    18.043543    22.368765    19.318387    7797.1284    7173.6536    8431.4788    7517.6712   -38.331628    891.79538    1029.8575   -3943.4972 
26052000    125.24853   -5109.5919   -4859.0794   -5109.5919            0    8801.4135    17.683814    22.997851    19.065254    7753.6432    8739.9586    8546.9776    9117.3045    360.76812    298.82106    656.72174   -3863.8249 
26053000    128.31215    -5130.998   -4874.3579    -5130.998            0     7482.494    17.975773    22.586694     19.21527    7801.6549    7821.7111    7073.1836    7552.5872    -446.6995    955.41706   -1194.1354   -4023.0062 
26054000    130.72566   -5097.3856   -4835.9181   -5097.3856            0    7471.9105    17.911738    22.817771    19.125587    7816.7407    8529.0119    6829.7127     7057.007   -598.16263    614.15337   -1675.1771   -3984.1267 
26055000    135.70028   -5115.9012   -4844.4839   -5115.9012            0    6991.6263    17.928367    22.826318    19.079226    7807.9557    5655.7901    8012.1271    7306.9617   -176.47218   -43.154958   -906.61585   -4048.3402 
26056000    138.09542   -5104.4782   -4828.2703   -5104.4782            0    8274.5677    17.971274    22.657285    19.121437     7785.872    7707.0858    8868.5452    8248.0722   -324.30985   -12.449766   -284.78584   -3888.7018 
26057000    126.09783   -5121.5774   -4869.3662   -5121.5774            0    7654.6397    17.862345    22.955998    19.003756    7792.4515    7484.8746    6824.8441    8654.2004    286.35313   -698.61371   -386.52586   -3999.4553 
26058000    136.04198   -5126.5651   -4854.4644   -5126.5651            0    7421.2827    18.004385    22.524969     19.24077    7803.0599    7542.0775    7841.0896    6880.6811    14.604994    882.33086    1061.1412   -4009.9252 
26059000     130.6991   -5117.7219   -4856.3076   -5117.7219            0    7149.9211    17.885353    22.769984    19.126261    7789.1544    7364.5913    7080.3928    7004.7792   -114.42379    310.17085   -499.27988   -4044.0992 
26060000    132.75452   -5122.7519   -4857.2264   -5122.7519            0    6263.1732    17.876508    22.777117    19.208304    7821.1472    5601.2449    6193.7142    6994.5604    268.72382   -314.64023    716.56029   -4142.8275 
26061000    135.24559   -5113.2177   -4842.7098   -5113.2177            0     6834.539    17.808807    22.665286    19.359054    7814.1217    7158.9074     6671.166    6673.5436    730.64008   -1102.0813    995.55345   -4063.8392 
26062000    139.51858   -5104.4634    -4825.409   -5104.4634            0    8114.4423    17.825906    22.722952    19.150889    7757.2055     8526.196    8064.9313    7752.1995    72.613451    232.40835   -104.65716    -3907.415 
26063000    141.84312   -5121.6665   -4837.9628   -5121.6665            0     7479.267    17.911201    22.619182    19.239759    7794.7324    7311.3144    7518.7711    7607.7154    343.35049   -979.29574     1321.109   -3987.7333 
26064000    130.29558   -5117.4961   -4856.8889   -5117.4961            0    6739.5298    17.886665    22.645197       19.248    7796.3456    5871.1404    7054.6733    7292.7756   -814.51407   -455.04163   -365.31278   -4090.5929 
26065000    130.46966     -5126.68   -4865.7246     -5126.68            0    6196.2117    17.933661    22.815874    19.114915    7821.2908    6247.8977    6076.9024    6263.8349    272.62651    1048.4163   -471.21911   -4158.9506 
26066000    136.53393   -5106.8506   -4833.7659   -5106.8506            0     7685.443    17.944159    22.698094    19.112298    7784.4047    7883.5564    6480.4387    8692.3339   -261.67902   -886.90097    407.99009   -3961.2563 
26067000    131.80752   -5124.1326   -4860.5013   -5124.1326            0    7536.8253    17.839249     22.72972    19.210013    7789.2974    7338.1255     7258.044    8014.3063    945.46631    77.114918    317.68353   -4004.3261 
26068000    131.72152   -5115.6023    -4852.143   -5115.6023            0    7513.4475    17.711835    22.743024    19.310584    7778.7029    9079.8135    7544.2569    5916.2722    389.81106     324.5723    959.48054   -3999.7844 
26069000    122.24124   -5110.0113   -4865.5137   -5110.0113            0    9876.9654    17.804429    22.606566    19.191329    7724.4522    10148.739    9646.3456    9835.8117      1510.66   -312.63324    1059.3747   -3752.8419 
26070000    132.47994   -5105.5052    -4840.529   -5105.5052            0    8774.0723    17.803031    22.994014    18.915612    7743.3544    8826.3039    7779.3918    9716.5212   -136.72688   -862.74859   -450.64899   -3849.6828 
26071000    133.45823   -5115.6698   -4848.7369   -5115.6698            0    8084.7612    17.971608    22.603522    19.105991    7761.2669    6601.4406    8683.0551    8969.7879   -625.48651   -497.49836    1309.1137   -3933.6218 
26072000    134.54109   -5098.1142   -4829.0154   -5098.1142            0    6486.7626    17.826017    22.810268    19.232002     7820.044     5919.314    6669.4443    6871.5296     1245.414    254.95884     1333.845   -4089.2175 
26073000     123.6169   -5115.3114   -4868.0624   -5115.3114            0    9265.6539     17.80839    22.616739    19.200421    7733.3094    8948.8889    9639.2538    9208.8191    998.27077    300.68093    568.97273   -3823.0598 
26074000    125.33353   -5120.3663   -4869.6837   -5120.3663            0    7078.5823    17.813101    22.814444    19.165909    7788.9486    5611.6805    7522.7535    8101.3128   -316.30051    289.05349    434.69135   -4065.6005 
26075000    128.39449     -5116.38   -4859.5751     -5116.38            0    7746.7877    17.806304     22.69948    19.272893    7789.9844    8765.4281    7676.8662    6798.0689    396.87063     13.84084   -740.95863   -3979.4708 
26076000    135.90933   -5125.2596   -4853.4242   -5125.2596            0    7261.5995    17.857227    22.712487    19.240795     7803.721    8371.4008     7074.804    6338.5937    64.406924    535.66766   -1026.5703   -4026.9869 
26077000    123.00452   -5121.8037   -4875.7795   -5121.8037            0    7555.3697     17.87174    22.621529    19.257791    7785.6568    6797.2294    9116.4543    6752.4253    144.49629    1042.0941    853.37694   -4017.8988 
26078000    135.05482   -5102.6919   -4832.5656   -5102.6919            0    6728.6003    17.784354    22.773962    19.291025    7813.2549     6540.245     6945.349    6700.2071   -1695.6869    735.21548   -569.41326    -4065.853 
26079000    131.37136   -5125.9722   -4863.2133   -5125.9722            0    6790.5285     17.87075    22.619593    19.326155    7812.1944    8068.4676    6701.3264    5601.7916    1035.9243   -681.98189   -240.77391   -4089.5491 
26080000    142.36329   -5123.9813   -4839.2371   -5123.9813            0     6872.084    17.850871    22.705252    19.272227    7811.1982    7692.7099    6755.1584    6168.3837     414.5702    -230.6987   -501.00276   -4056.3809 
26081000    133.60547   -5122.1845   -4854.9571   -5122.1845            0    7573.4458    17.750955    23.028799    19.098436    7807.1194    9481.5337    6542.3638    6696.4399   -694.92241   -592.90306    484.16944   -3992.6534 
26082000    129.55688   -5124.5111   -4865.3813   -5124.5111            0    8869.0126    17.944028    22.471707    19.270519     7770.508    7708.1169    10594.647    8304.2741   -73.874219    821.30855   -357.54676   -3860.3014 
26083000     132.4906   -5114.9736   -4849.9761   -5114.9736            0    6779.3751    17.952689    22.708411    19.165186    7813.2059    6048.5321    7287.6858    7001.9073    1165.8065    366.09284    1484.1879   -4077.4826 
26084000    135.40415   -5105.8908   -4835.0658   -5105.8908            0    7296.5625    17.910923    22.726144    19.161621    7799.6653    7726.7289    7173.7301    6989.2287    25.302189   -137.66317    363.31295    -4005.081 
26085000    130.69544   -5123.2547   -4861.8477   -5123.2547            0    7558.0972    17.929967    22.628217    19.173172         7779    7924.8593    7052.1974    7697.2349   -499.69653    106.26686   -929.80424   -4004.3911 
26086000      128.238   -5117.2969   -4860.8051   -5117.2969            0    6523.3602    17.939223    22.634676    19.233436     7809.708    5662.4711    6954.8843    6952.7251   -682.77818    354.74193    208.78738   -4117.8167 
26087000    127.52645   -5113.9186     -4858.85   -5113.9186            0    7965.4127    17.869986    22.866483    19.045806    7782.5682    8478.9291    7610.3157    7806.9933   -899.71439   -303.30834   -211.03962   -3954.7695 
26088000    132.33538   -5124.3787   -4859.6916   -5124.3787            0    6001.2749    17.987082    22.502176    19.351168    7832.3563     4786.857    7162.9076    6054.0601   -784.59248   -307.80317    372.36005   -4174.1847 
26089000    128.54563   -5137.9877   -4880.8806   -5137.9877            0    5726.2988     17.83189    23.091709    18.981651     7816.052    7415.1146    4021.0225    5742.7592    443.96249   -846.51134   -101.55131    -4228.145 
26090000     133.0845   -5120.7527   -4854.5672   -5120.7527            0    7561.9511    17.935519    22.536733    19.186503    7755.3382    7239.5149    8246.3507    7199.9875    641.74843   -290.36081    -46.66666   -3999.2829 
26091000    122.08961    -5108.688   -4864.4937    -5108.688            0    6992.1475    17.847996    22.813951    19.166962     7804.467    6905.1403    6859.1554    7212.1469   -632.67986   -302.76486    -58.53653   -4068.6465 
26092000    133.82456   -5123.2676    -4855.602   -5123.2676            0    8475.0238    17.796426    22.584338    19.284216    7750.7218    10708.557    8166.4294    6550.0846   -583.43508   -285.11487    356.68982   -3897.6164 
26093000    138.35427    -5117.422   -4840.6964    -5117.422            0    8535.0864    17.929016      22.6737    19.115945     7770.959    7051.2309    9372.1975    9181.8307    -43.12923     657.6375    767.51602   -3873.4025 
26094000    137.56235   -5124.8279   -4849.6862   -5124.8279            0    7776.2449    17.881618     22.75082    19.091799    7766.9538    7716.8888    7981.3072    7630.5388   -92.995558    632.16294   -427.27966   -3968.8472 
26095000    131.10058   -5135.9926   -4873.7752   -5135.9926            0    7700.5789    17.883491    22.481385    19.365801     7785.936      7483.98    8903.0488    6714.7078   -542.49421    295.50911   -580.55663   -3999.3753 
26096000    137.87016   -5128.2845   -4852.5271   -5128.2845            0    5415.4523    17.919342    22.925964    19.055825    7828.4796    4264.2464    5972.1549    6009.9555   -970.70516    812.85002    485.32445   -4234.2431 
26097000    132.21286   -5121.8544   -4857.4124   -5121.8544            0    6488.3039    17.896972    22.719797    19.222685    7816.2431    8279.9322    6263.2173     4921.762   -425.46952   -673.86081   -546.85793   -4117.7984 
26098000    131.57568   -5118.2441   -4855.0765   -5118.2441            0    7261.0887    17.867188    22.769103    19.171399    7799.3059    8602.4968    7103.1288    6077.6406    584.33641   -719.29072    1844.5791   -4029.1649 
26099000    136.57032   -5131.1665    -4858.009   -5131.1665            0    7257.4679    17.882705    22.777556    19.126043    7790.5019    6622.5068    7495.9265    7653.9704    683.33131   -1013.7303    1505.3444   -4033.4411 
26100000    131.86049   -5126.3153   -4862.5781   -5126.3153            0    5249.3493    17.825024    22.766209    19.355959    7854.8071     6754.095    5074.8612    3919.0918    866.37696    794.12749   -644.60879   -4261.2425 
26101000    128.45923   -5132.4575   -4875.5231   -5132.4575            0    7182.6898     17.85121    22.665524     19.24724    7787.5686    7263.3393    7568.1319    6716.5981   -106.88672    1035.3994    1003.8143   -4059.7585 
26102000    134.70213    -5125.134   -4855.7131    -5125.134            0    6199.2273    17.764504    22.818785    19.302479    7824.5379    6639.7395    6392.5111    5565.4312   -215.60481   -67.960919   -32.297792   -4148.3016 
26103000    136.16026   -5120.1208   -4847.7834   -5120.1208            0     7184.388    17.969504    22.515123     19.27083       7796.7    6051.0173    7568.5975    7933.5491    93.407736    211.52527   -329.94263   -4030.8692 
26104000    138.84321   -5127.9491   -4850.2456   -5127.9491            0    6672.6407    17.826074    22.836132    19.156464    7798.1861    6397.1902     7053.034    6567.6978   -761.85621    643.06573    50.064896   -4091.3759 
26105000    139.97992   -5110.8063   -4830.8292   -5110.8063            0    7580.9521    17.810339    22.743891    19.225981    7787.9914    7704.3682    8253.9195    6784.5686   -652.92963   -434.53575   -972.68893   -3969.7857 
26106000    128.49676   -5129.4269   -4872.4175   -5129.4269            0    6205.9467    17.976432    22.671776    19.195946    7823.4543    5934.2589     6001.398    6682.1832    -377.0157   -1066.6036    694.17282   -4164.3372 
26107000    130.67445   -5105.6285   -4844.2635   -5105.6285            0    8288.7177    17.826898    22.849284    19.049296     7759.385    7355.3734    8595.1865    8915.5931   -446.94748    110.31382   -1337.3653   -3906.2901 
26108000    135.73243   -5113.2957   -4841.8141   -5113.2957            0    7911.2334    17.925281    22.507668    19.311736    7791.4412    8484.4085    8424.4669    6824.8247   -1305.0611    99.594188   -931.18281   -3942.8592 
26109000    137.04764   -5137.5893   -4863.4771   -5137.5893            0    6222.2888    17.862449    22.906989    19.111187    7819.8184    5799.0893    6777.9779    6089.7991    949.48019    747.06312    419.58135   -4153.8622 
26110000    131.43291     -5107.62    -4844.738     -5107.62            0    7374.8719    17.980091    22.587073    19.221205    7806.0704    6781.0257    7020.1838    8323.4064    207.93716   -816.72306    62.077549   -4005.1565 
26111000    138.16768   -5106.3769   -4830.0245   -5106.3769            0    8514.0342    17.787827     22.73508    19.252273    7785.7666    10188.241    8098.9065    7254.9555   -1289.7967    105.89412   -1281.9203   -3863.2779 
26112000    131.96026   -5116.5047   -4852.5678   -5116.5047            0    6460.6723    17.844128     22.77412    19.256296    7825.4563    5769.4853    7043.1639    6569.3677    263.74159    1016.6717    705.91392   -4115.2355 
26113000    128.00323   -5118.8816   -4862.8594   -5118.8816            0    6454.9941    17.901044    22.673797    19.224937    7803.1067    5007.8112    6955.9032     7401.268   -349.08311    122.68129    151.38615    -4128.279 
26114000    138.56652   -5118.4731   -4841.3229   -5118.4731            0    7487.5508    17.737777    22.944342    19.126941    7784.3133    8082.8136    7851.4504    6528.3883    238.62661    87.080985   -505.11787   -3991.2896 
26115000      133.659   -5118.0926   -4850.7581   -5118.0926            0    8254.7839     17.93486    22.582585    19.150575    7756.2799    7837.5833    8886.5314    8040.2371    577.18067   -253.06345   -355.08589   -3916.9985 
26116000    124.76792   -5120.5251   -4870.9739   -5120.5251            0    7127.9347    17.895691    22.842811    19.062738    7792.6164    7174.4159    6197.0511    8012.3372   -489.24556    922.06492    444.76332   -4060.9032 
26117000    121.80276   -5118.3454   -4874.7249   -5118.3454            0    5865.7365     17.95605    22.780409    19.159574    7837.1504    5928.5235    5409.1792    6259.5068     1365.919    5.3096229    446.74763   -4204.2899 
26118000    122.75612   -5108.0227   -4862.4953   -5108.0227            0     8436.595    17.872826    22.615469    19.230221    7772.9002    7840.7224    8977.3725    8491.6901    267.68566   -174.29093    485.57105   -3906.1248 
26119000    130.19939   -5124.1766   -4863.7617   -5124.1766            0    6805.0002    17.667507    23.054943    19.132695    7793.1938    7752.5868    5753.3627    6909.0512    358.71164   -124.83657   -670.51043   -4090.3344 
26120000      134.808   -5128.2761   -4858.6435   -5128.2761            0    7266.3091     17.98556    22.466479     19.28997    7794.5406    6650.6462    7236.4513    7911.8299    424.34099   -787.52338    156.43927    -4032.643 
26121000    133.43828   -5130.8133   -4863.9203   -5130.8133            0    7934.6394    17.698214    23.001667    19.079614    7767.0896    8116.6982    7868.8989    7818.3212    940.70474    781.43133   -32.765798   -3965.1237 
26122000    134.67297   -5112.2175   -4842.8549   -5112.2175            0    5803.2556    17.910264    22.567394    19.428963    7852.9537    4898.4727    6674.6598    5836.6342   -387.39358   -216.07124   -499.66622   -4178.2238 
26123000    133.25195   -5120.0444    -4853.524   -5120.0444            0    6741.5975    17.995153    22.710573    19.120423     7814.139    6579.1529    6765.2898    6880.3498    99.767559   -446.79039   -587.63714   -4085.2435 
26124000    132.66273   -5113.6806   -4848.3388   -5113.6806            0    6257.5081    17.870818     23.01514    19.013761    7820.3484    5792.0474    5868.1378    7112.3392    222.32684      167.834   -935.46633    -4134.659 
26125000    141.30419   -5124.2741   -4841.6483   -5124.2741            0    7807.9299    17.917511    22.548296    19.290212    7793.4258    8312.2197    8053.9002    7057.6699   -488.77346   -82.663413   -552.37702   -3954.2058 
26126000    127.14324   -5113.9188   -4859.6166   -5113.9188            0    7053.8051    17.659162    23.084303    19.071241    7774.3808    7840.7572    5966.9711     7353.687   -176.39651   -214.55036   -577.21653   -4059.8465 
26127000    124.76691   -5111.5859   -4862.0367   -5111.5859            0     6402.066    17.985216    22.487056    19.298517    7804.9874     5448.901    7448.7333    6308.5638    181.20169    447.50898     225.4637    -4133.304 
26128000    132.23128   -5130.2794   -4865.8005   -5130.2794            0    7521.4898    17.751435    22.888672     19.18396    7794.5727    9440.5736    7135.0522    5988.8435   -851.39662   -292.60555   -2044.4374   -4010.7888 
26129000    138.74401   -5107.2483   -4829.7431   -5107.2483            0    7697.9232    17.837862    22.637827     19.26884    7780.9583    8139.6643    7211.9267    7742.1787    670.23939   -1184.5975    1239.9944   -3956.2036 
26130000    127.68249   -5124.8596   -4869.4788   -5124.8596            0     7777.505    17.801754    22.768299    19.152597    7762.8474    8560.7423    7854.7014    6917.0711    1271.3838    869.56673    1570.1619   -3988.9628 
26131000    127.26399   -5131.7809   -4877.2372   -5131.7809            0    6085.1485    17.946599    22.636225    19.265486    7826.4741     5586.833    6352.9395    6315.6731    50.316937   -463.22807   -316.46689   -4182.6717 
26132000    132.71144   -5106.0851   -4840.6458   -5106.0851            0    7357.7645    17.919577    22.704418    19.207864    7814.7882    7565.8722    7021.4176    7486.0038    1115.2676   -583.09406    -260.4328   -4002.0764 
26133000    138.96273   -5115.6167   -4837.6741   -5115.6167            0    7635.5596    17.937881    22.761788    19.045347    7776.1817    6732.5981     8629.471    7544.6096    104.71506   -37.499109   -574.96696   -3971.7434 
26134000    126.82424   -5125.6639   -4871.9998   -5125.6639            0    6115.3487    17.937941    22.575323    19.323703    7825.2264    5631.4833    6929.7191    5784.8437    -1399.801    417.65216   -641.22147   -4174.0984 
26135000    126.80103   -5115.5555   -4861.9378   -5115.5555            0    6829.6756    17.781401    23.052936    19.003502    7789.7919    7951.7787    5407.4785    7129.7696   -1171.4855    -1162.799   -196.82207   -4086.0448 
26136000    134.60482   -5119.4746   -4850.2484   -5119.4746            0    6234.9833    17.996852    22.609827     19.24703    7831.7262    6363.4925    6123.2521    6218.2054    587.95663   -674.79197    528.05739   -4138.1029 
26137000    132.70496   -5129.8895   -4864.4632   -5129.8895            0    7455.1829    17.848461    22.735233     19.18593    7785.4376    7789.9969    7384.7783    7190.7733   -837.50669    475.66551   -884.08926   -4017.9821 
26138000    136.82985   -5133.2345   -4859.5579   -5133.2345            0    6903.5394    17.879052    22.887027    19.079227    7807.1883    7744.6571    6443.3675    6522.5937    930.43615    568.39255   -303.23726    -4073.522 
26139000    122.36816   -5119.6465   -4874.8951   -5119.6465            0    5103.0403    17.990655    22.607106     19.30257    7850.6763     4128.978    6107.0155    5073.1274   -567.69628    287.56842   -765.44572   -4290.6273 
26140000    132.24126   -5115.8251   -4851.3262   -5115.8251            0      5382.94    17.831672    22.852044    19.243986    7841.7346    4604.6831    6010.2504    5533.8865   -468.78997    275.56145   -1046.7845   -4235.7135 
26141000     132.0356   -5120.9724   -4856.8849   -5120.9724            0    7888.1733    17.899592    22.504843    19.305249    7776.6856    8475.8207    7930.0669    7258.6325    1023.7831   -506.27272   -53.333225   -3962.2479 
26142000    132.17462   -5118.6224   -4854.2568   -5118.6224            0    6460.2335    17.724544     22.89618    19.249432    7811.8881    6471.7839    6492.3098    6416.6068   -1112.7188     105.9295   -137.12383   -4118.2529 
26143000    125.83977   -5113.7065   -4862.0114   -5113.7065            0    6160.0304    17.848118    22.664307    19.328322    7818.6005    6642.7218    7129.7808    4707.5885     664.7195    782.02215    230.60452   -4159.6061 
26144000    132.80993   -5117.5206   -4851.8843   -5117.5206            0    7930.4131    17.771639    22.632378    19.341409    7779.3941    9197.5078    8012.2796    6581.4518   -1103.5959   -92.977438     408.6496   -3952.1434 
26145000    132.20345   -5124.7993   -4860.3761   -5124.7993            0    6586.4992    17.854138    22.782865    19.175037    7799.7995    7281.7191    6276.3881    6201.3904    13.899862    234.64137   -604.17774   -4111.1482 
26146000    126.72416   -5112.9718   -4859.5078   -5112.9718            0    9042.0178    17.923785     22.55881    19.213301    7768.6919    9206.0474    9293.6966    8626.3093    943.51378    1323.0172     1016.713   -3835.0617 
26147000    127.53541   -5133.2785   -4878.1919   -5133.2785            0    5512.5814    17.894612    22.892332    19.134851    7838.5801    4768.5599    5385.0222    6384.1621   -469.69312   -278.91625   -205.75098   -4248.0066 
26148000    132.85632   -5128.2493   -4862.5202   -5128.2493            0    6542.6734    17.898647    22.639108     19.25732    7803.2473    7814.2273    5732.1789    6081.6139   -1098.6958   -402.78045   -541.09252   -4117.9486 
26149000    137.18375   -5113.9272   -4839.5428   -5113.9272            0    7388.0355    17.794209    22.975286    19.058635    7791.6853    7999.4136    6633.5825    7531.1104   -1149.8094   -278.04633   -1075.6814   -4000.0127 
26150000    127.61989   -5117.9702   -4862.7146   -5117.9702            0    8713.4454    17.886188    22.641416    19.152054    7755.9808    8181.9491    9329.9706    8628.4164    77.769597   -241.65247   -885.18877   -3877.1105 
26151000    136.23678    -5101.203   -4828.7127    -5101.203            0    7845.3847    17.870038    22.702936     19.20852    7792.9409    7106.1529    8329.6022    8100.3991   -42.949082    15.410342    607.50516   -3937.0686 
26152000    130.56315   -5110.9187   -4849.7763   -5110.9187            0    7744.8835    17.774426    22.734768    19.258135    7782.1634    8911.5635    7610.1493    6712.9376    274.95198   -406.64241    2229.2626   -3970.7717 
26153000    132.21807   -5111.8712   -4847.4188   -5111.8712            0    6689.9474    17.934389    22.538804    19.313828    7807.0292    7497.2448    7668.4817    4904.1156    1293.2034    89.822889    69.679295    -4085.718 
26154000    135.43125   -5126.9571   -4856.0779   -5126.9571            0    7500.4272    17.778564    22.995131    19.035927    7782.2755    6589.3503    7605.1792    8306.7521    180.07353    450.02578   -1121.4242   -4004.8056 
26155000    129.92847   -5118.7223   -4858.8493   -5118.7223            0    8598.3095    18.029292    22.559452    19.128725    7780.2442    8541.1024    8741.2164    8512.6097    -586.1398    1098.1061    -1689.655   -3883.2259 
26156000    127.51423   -5128.6782    -4873.634   -5128.6782            0    6459.2154    18.035302    22.711001     19.07996    7815.1471    5248.9667    7454.2342    6674.4454    116.48824    428.26332   -175.24277   -4137.4391 
26157000    130.40685   -5114.8931   -4854.0633   -5114.8931            0    7941.1161     17.92193    22.877423    18.966028    7776.2152    7075.4257    7740.3129    9007.6099    28.975447    422.75073    -126.5371   -3953.4762 
26158000     126.1449   -5120.2678   -4867.9624   -5120.2678            0    7640.3865    17.871135    22.476483    19.345443    7770.6825    7738.6405    9258.0412    5924.4777    261.46507   -528.70711    200.95063    -4002.097 
26159000     128.2717   -5120.4263    -4863.867   -5120.4263            0     6963.064    17.758316     22.87549    19.160995    7783.7746    7593.8362    6584.3202    6711.0358   -477.90092    269.38121   -590.63607   -4073.4314 
26160000    133.27931   -5117.3881    -4850.813   -5117.3881            0    6985.0109    17.908319    22.569662     19.31422    7806.5126    7884.3203    6401.5802    6669.1323    1055.1043   -789.61573    653.42126   -4055.5696 
26161000    129.43656   -5124.1184   -4865.2293   -5124.1184            0    6641.8436    17.881035    22.979825     19.00903    7810.8685    6040.7799     6618.462     7266.289    751.73858   -337.32707   -230.24078   -4108.6336 
26162000    129.03105   -5112.9028   -4854.8248   -5112.9028            0    6343.9592    17.934951    22.855262     19.10187    7830.0097    5175.3301    6364.4633    7492.0844   -686.88637    38.335749   -681.40263   -4130.3912 
26163000    127.39562   -5115.1771   -4860.3702   -5115.1771            0    7118.6492    17.872027    22.712009    19.195555    7791.6608    7155.3241    7542.3742    6658.2492    234.17792   -665.61452    33.932366    -4051.454 
26164000    134.38483   -5128.2378   -4859.4515   -5128.2378            0    8285.5158    17.789607    22.714758    19.234037     7772.217     8421.971    7941.3891    8493.1873     224.9294   -640.15889   -392.20725   -3920.2899 
26165000    129.74379   -5119.8827   -4860.3791   -5119.8827            0    7251.1265    17.794105    22.768814    19.240209    7795.1835    7595.6663    6912.4617    7245.2517    788.00761   -535.02101    818.10504   -4036.0366 
26166000    135.61917   -5113.0062   -4841.7511   -5113.0062            0    4926.2704    17.971332    22.838203    19.227204    7891.4774    5750.4426     4939.103    4089.2654    143.07886   -321.21025   -55.267419   -4274.7911 
26167000    130.41662   -5121.9845   -4861.1352   -5121.9845            0    6677.4726    17.854043    22.810618    19.191529    7815.9757    6197.9668    6803.7792    7030.6716   -720.45639   -136.33782     888.8511   -4099.9835 
26168000    134.83444   -5114.2821   -4844.5966   -5114.2821            0    7076.4935     17.94668     22.64806     19.20566    7806.2842     6673.812    7937.7038    6617.9646   -9.9353033    296.71822    1257.5443   -4038.9615 
26169000     142.2617    -5121.324    -4836.783    -5121.324            0    6535.4963    17.912698    22.609092    19.311179    7820.8313    6422.2992    6971.8209    6212.3687    485.77639    1323.8495   -1571.3769   -4091.3521 
26170000    132.97963   -5113.6535   -4847.6778   -5113.6535            0    8969.5991    17.832694    22.811234    19.059716    7753.2212    8618.3725    8149.8122    10140.613   -388.69243    -1146.209   -280.38602   -3833.4603 
26171000    135.86477   -5119.1757   -4847.4294   -5119.1757            0    6345.5454    18.051999    22.610683    19.165814    7822.8721    5482.7019    6790.6403     6763.294    1115.0647   -1352.8068    1060.4789   -4123.4752 
26172000    128.31501   -5122.9469    -4866.301   -5122.9469            0    7566.0049    17.877803    22.728804    19.153419    7782.8211    7534.0901    7219.7487    7944.1759   -963.40798    110.00902    603.92952   -4007.5257 
26173000    126.77379   -5122.1364   -4868.5731   -5122.1364            0      7624.54    17.776443    22.897406    19.132846    7787.7268     7908.904    6445.6934    8519.0227    628.58747   -5.7416972    369.91554   -4002.6083 
26174000    131.27273   -5118.8527    -4856.291   -5118.8527            0      8622.54     17.95733    22.361761     19.30815     7753.333    8237.3044    9424.1772    8206.1384    988.87025   -459.68671   -40.459493   -3881.3024 
26175000    126.02022   -5110.3163   -4858.2603   -5110.3163            0     7655.826    17.798892    22.876236    19.093776    7774.4444    8098.7308     8159.369    6709.3782    -810.7556   -234.05845   -1048.3769   -3990.2251 
26176000    130.04086   -5120.3459   -4860.2481   -5120.3459            0    6858.6182    17.910456    22.683131    19.202344    7801.2446    7288.6869    6654.7148    6632.4528    1408.5972   -585.59281   -959.62181   -4079.9215 
26177000    129.89787   -5102.4798    -4842.668   -5102.4798            0    6940.3263    17.798007    22.613526    19.361517      7792.54    8207.8187    6842.2451    5770.9151    -989.9458   -365.22124    978.55221   -4053.9263 
26178000     132.6707   -5109.2982   -4843.9404   -5109.2982            0    7637.0055    17.563726    23.029795    19.234165    7780.0082    8961.9972    6788.2642    7160.7551    489.28089   -140.68979    419.70314   -3977.4195 
26179000    127.51686   -5099.0334   -4843.9839   -5099.0334            0    8038.4546    17.896596    22.519211    19.337752     7793.447    7598.3018    8501.3241     8015.738    1298.6478   -236.12983   -44.480213   -3930.3377 
26180000    135.11479    -5122.962   -4852.7158    -5122.962            0    7370.8301    17.794699    22.865293    19.116942    7778.3208    7932.7491    6705.8378    7473.9033   -5.9913316    387.49942    1335.1518   -4016.5774 
26181000    134.52952   -5128.9477   -4859.8721   -5128.9477            0    7901.3499    18.038703    22.360588     19.27864     7776.155    8970.6993    7984.2009    6749.1495    127.18239   -1254.8433    303.17553   -3963.8018 
26182000      134.646   -5122.9997    -4853.691   -5122.9997            0    6781.4948    17.846609     22.94782    19.067955    7809.1047    6500.2104    5941.9695    7902.3046   -182.58672    182.07386   -750.29422   -4081.3616 
26183000    130.11174   -5127.0558   -4866.8163   -5127.0558            0    7660.2316    17.897716    22.660192    19.219312    7794.6934     7317.764    8664.5056    6998.4252   -593.37608    656.47884   -1495.8473   -3996.0195 
26184000    131.89634   -5134.7435   -4870.9346   -5134.7435            0    6988.5301    17.966682    22.662491    19.183503    7810.9425    6394.3022    7909.9611     6661.327     381.4021    127.16067   -427.16475   -4074.8391 
26185000    133.24045   -5112.9683    -4846.471   -5112.9683            0    7011.9885    17.887531    22.853834     19.10967    7812.0079    6511.9507     5636.214    8887.8008   -177.09947    -481.4126    721.00347   -4047.5943 
26186000    132.51448   -5112.4874    -4847.442   -5112.4874            0    6324.3508    18.041177    22.648168    19.147355     7823.602    4814.6748    6925.4559    7232.9217    415.73866   -613.64719    512.99998   -4125.8386 
26187000    133.40964   -5129.8256   -4862.9899   -5129.8256            0     6568.738    17.854414    22.777805     19.17575    7798.4773    5642.7708    6706.5334    7356.9099    919.89552    204.18527    764.76406    -4115.909 
26188000    133.36407   -5110.4402   -4843.6956   -5110.4402            0    7799.7141    17.836201    22.766527    19.142541    7773.1801    7824.3598    7988.0639    7586.7186    957.85286     914.9574    1602.9836   -3959.4899 
26189000    127.69734   -5120.5213   -4865.1108   -5120.5213            0     8677.539    18.012708    22.568733    19.070251    7752.5143    7528.6151    9488.0466    9015.9553    974.91711    284.29897   -159.51018   -3884.0068 
26190000    136.23488   -5103.5485   -4831.0619   -5103.5485            0    8024.8217    17.783213    22.919688    19.079124    7776.3779    7539.5728    7522.5596    9012.3329   -153.15212    247.05902    531.83807   -3920.9629 
26191000    132.92129   -5117.0906   -4851.2316   -5117.0906            0    6238.9326    17.958455    22.673913    19.236617    7832.9279    5817.5082    6671.2688    6228.0209   -650.28418    -49.21211   -838.30971   -4138.5257 
26192000    137.65429   -5122.1767   -4846.8511   -5122.1767            0    7274.2075    17.772895    22.837641    19.165902    7779.2673    7806.7603    6707.1454    7308.7167    1073.4709   -1123.5124    176.96209   -4021.5731 
26193000    128.74953   -5109.8535   -4852.3385   -5109.8535            0     8392.095    17.926163    22.626915    19.132043    7760.2203    7828.6155    8794.3923     8553.277    462.44159   -646.24819    856.32775   -3902.5644 
26194000    129.77157    -5106.678   -4847.1189    -5106.678            0     7424.056    17.839651       22.839    19.111191    7786.6595    7425.2699    7457.9117    7388.9866    529.13509    371.43951   -662.36507   -4004.0398 
26195000    128.93439   -5111.7707    -4853.886   -5111.7707            0    6583.6603     17.78646    22.798685     19.29704    7825.1023    7140.3799    6080.0286    6530.5723   -1058.0178    303.95575      -1298.4   -4102.5515 
26196000    132.71462    -5128.686   -4863.2404    -5128.686            0    7309.5942    17.903339    22.764983    19.110428    7788.8218    7548.1344    7242.2056    7138.4425    303.81934   -267.78633   -15.531944   -4032.9291 
26197000     131.3311   -5108.2629   -4845.5844   -5108.2629            0    9727.1524    17.906101    22.620956    19.125284    7746.7559    9750.3951    8859.2904    10571.772   -317.46632   -952.72749    -1109.991   -3746.6255 
26198000    130.79375   -5117.2604   -4855.6568   -5117.2604            0    8198.7082    17.732839    22.819699    19.207945    7772.6494    9794.6208    7801.3499    7000.1538    569.36593    15.358233   -66.814762    -3926.283 
26199000    136.86239   -5122.1146   -4848.3729   -5122.1146            0    6377.7211    17.797117    22.656526     19.40699    7825.3031    7287.5535    6775.9116    5069.6982    -1719.677    125.60214   -1648.3441   -4120.5218 
26200000    124.08303   -5109.0514   -4860.8701   -5109.0514            0    5628.5819    17.896446    22.802305    19.204068    7836.8003    8040.9083    4483.2229    4361.6145   -1157.9354   -424.47445   -279.36183   -4217.5699 
26201000     133.5032   -5120.5982   -4853.5753   -5120.5982            0    7139.7199    17.920932    22.780727    19.105663    7799.9226    5825.8599     7794.315     7798.985    437.12494    1271.3884    737.33405   -4041.4045 
26202000    127.80361   -5112.8394   -4857.2164   -5112.8394            0    7227.2499    17.958892    22.605729    19.219457    7802.5971    7395.1979    7106.8452    7179.7067   -320.96974   -140.42467   -414.42163   -4034.8068 
26203000    126.77684   -5117.5992   -4864.0298   -5117.5992            0    7368.8199    17.739851    22.923112    19.126285    7777.7532    7440.9445    7002.5905    7662.9247    1152.4469    320.82892   -209.35757   -4028.1805 
26204000    125.11805   -5121.3424   -4871.0909   -5121.3424            0     6701.641    17.921514    22.765973     19.17179    7822.1041    6234.1091    6450.3827    7420.4313    468.63788   -1031.5676   -17.745383   -4106.5853 
26205000    130.26958   -5131.3183   -4870.7631   -5131.3183            0    6830.5883    17.874714    22.797102    19.157745    7806.6214     6571.374    7401.4004    6518.9904   -197.20795    1011.2327   -512.76399   -4093.0899 
26206000    124.48801    -5116.903   -4867.9116    -5116.903            0    6473.1132    17.910335    22.759432     19.20296    7827.6846    5998.7722    7569.2318    5851.3357   -741.62119    1055.5632    1294.6588    -4128.949 
26207000    132.57726   -5129.0001   -4863.8292   -5129.0001            0    5450.9691     17.92459    22.614336    19.334287    7837.2055    6281.3022    5653.5331     4418.072   -352.94833    186.65073   -83.689558   -4240.7965 
26208000    134.14417   -5107.0609    -4838.756   -5107.0609            0    8377.3534    17.836593    22.790898    19.088225    7759.5919    6927.6273    9259.2835    8945.1495   -632.87807    1219.1144   -1429.7418   -3890.7271 
26209000    133.36075   -5122.5022   -4855.7642   -5122.5022            0    6223.6214    17.918828    22.693222    19.260201    7831.8899    6828.9783    6752.5517    5089.3344    397.19359    640.15774    -857.1371   -4144.9017 
26210000    136.58018   -5119.6879   -4846.5106   -5119.6879            0     7125.032    17.955168    22.614276    19.226431    7806.7603    5894.6833    8401.0391    7079.3738   -410.39888    467.04434   -627.90591   -4035.3002 
26211000    132.93692   -5124.5833   -4858.6931   -5124.5833            0    5338.6482     17.79041    22.990099    19.185783    7847.0482    6008.0452    4947.3997    5060.4997    74.527189    60.751505    901.81653   -4247.7321 
26212000     130.0424   -5114.0423   -4853.9415   -5114.0423            0    8197.9581     17.94046    22.602021    19.204601    7787.2862     8294.929    7718.4055    8580.5399    789.32134   -1144.5521    627.81001   -3922.9028 
26213000    131.61126   -5116.1339   -4852.8951   -5116.1339            0    7073.3627    17.897272    22.869452    19.028995     7788.583    6231.3866    6959.0891    8029.6125    145.20177   -905.35816     783.6917   -4049.4425 
26214000    131.21332    -5122.652   -4860.2092    -5122.652            0    7378.8799    17.850197    22.795085    19.155602    7794.3523    7602.1339    7331.5391    7202.9666   -579.29786   -5.0776769    59.726442   -4021.4324 
26215000    127.20342   -5134.0644   -4879.6418   -5134.0644            0    7125.0951    17.929173    22.622759    19.215799    7794.0695     5836.027    8203.3282    7335.9302    415.68831    678.99694    397.19692   -4069.7429 
26216000    129.77628   -5112.9537   -4853.3851   -5112.9537            0    8321.1205    17.821988    22.761203    19.146275    7766.6842    8229.4876    8188.3549    8545.5191   -366.58366    570.01786    807.71424   -3910.8591 
26217000    119.64344   -5113.7069   -4874.4053   -5113.7069            0    6614.6947    17.960424    22.532416    19.315774    7816.9347    6581.7601    7178.4318    6083.8923    1217.3233   -423.42707    353.27178    -4120.317 
26218000    135.41374   -5112.9444   -4842.1002   -5112.9444            0    8565.1643    17.657585    22.796716    19.244768    7746.6913    9412.8256    8381.1533    7901.5139   -422.91925    24.670628    -1177.741    -3874.429 
26219000    131.38643   -5124.1102   -4861.3211   -5124.1102            0    5725.3629    17.806867     22.65942    19.353198    7808.8856    7149.8679    5695.6932    4330.5276   -474.46441   -1115.7317    809.23845   -4209.2905 
26220000    123.08932   -5118.1739   -4871.9801   -5118.1739            0    6439.4046    17.841788    22.718147    19.273927    7812.3459    7376.4609    6361.3541    5580.3989   -500.61119    -832.2424   -50.545901   -4138.3062 
26221000    132.11448   -5128.1105   -4863.8652   -5128.1105            0    5767.3094    17.775243    22.926586    19.209137    7828.2155    4790.7678    5875.4564     6635.704   -205.15689    866.98308   -77.873079   -4205.4317 
26222000    127.15032   -5133.8199   -4879.5035   -5133.8199            0    6978.5892    17.930992    22.500262    19.329791    7798.6436    7654.8132    6757.4617    6523.4926   -786.29988   -1334.4196   -585.17616   -4085.7922 
26223000    128.09911   -5130.8809   -4874.6668   -5130.8809            0    6387.0995    17.752337     22.96079    19.163706    7811.2738    7291.1142    6052.0454     5818.139    850.51394    356.96467     52.73103   -4147.0522 
26224000    132.59848   -5124.1279   -4858.9146   -5124.1279            0    6497.6665    17.880928    22.506617    19.411361    7811.8923    8496.7486    6063.9675    4932.2835   -847.57441   -363.00652    271.26007   -4118.6456 
26225000     125.3837   -5113.2098   -4862.4269   -5113.2098            0    8184.1852    17.700789    22.748048     19.25037    7751.3231    8237.7066    8403.3936    7911.4553    1168.8174   -670.92947   -806.71936   -3937.2449 
26226000    128.23566   -5115.4314   -4858.9442   -5115.4314            0    7547.7759    17.820561    22.670787     19.31829    7804.7075    9298.4548    6871.2494    6473.6235    369.58425    566.29512   -876.83411   -3999.8288 
26227000    139.81345   -5102.6901   -4823.0459   -5102.6901            0    7246.4482    17.773931    22.791529    19.278967    7809.8146    8527.7129    6570.7776    6640.8542    158.10087   -185.58869   -95.776488    -3997.689 
26228000    133.19798   -5106.9188   -4840.5064   -5106.9188            0    7800.6935    17.925337    22.648676    19.149344    7774.3493    6274.5202    8754.3611    8373.1991    302.78837    1202.2492    1041.8596   -3956.0566 
26229000    140.67188   -5128.5917   -4847.2306   -5128.5917            0    7167.7368    17.954772    22.710102    19.138677    7803.8856    6891.9131    7535.6994    7075.5981   -624.37766    233.83843     -293.016   -4031.4585 
26230000    132.20923   -5094.8199   -4830.3851   -5094.8199            0    6661.7455    18.018092    22.683191    19.111831    7811.1549    5522.5538    7359.6755    7103.0072   -670.59267   -17.108433   -127.69828   -4071.4945 
26231000    138.66676   -5118.4439   -4841.0932   -5118.4439            0    7852.5418      17.8481    22.818518    19.104105    7780.4753    7660.2902    8385.8919    7511.4433   -178.36897    503.22195   -193.24344   -3950.0633 
26232000    127.05915   -5110.2152   -4856.0812   -5110.2152            0    5892.8963    17.860351    22.706129    19.298629    7826.3549    5828.1221    6459.8193    5390.7475    -49.69404    195.38845   -222.25626   -4183.4698 
26233000    129.66097   -5123.4407   -4864.1027   -5123.4407            0    6553.9745    17.783225     22.94392    19.111349    7797.7535    6734.7428    6406.2384    6520.9422     707.4579    420.22108    885.60783   -4118.7701 
26234000    138.59015   -5124.0103   -4846.8128   -5124.0103            0    6500.6159    17.931957    22.693002    19.246271    7831.8838    6128.2115    6612.5746    6761.0614    155.58041    147.61524    529.40467   -4104.3126 
26235000    125.43977   -5118.3308   -4867.4358   -5118.3308            0    6383.0882    17.864124      22.7141    19.243209    7808.2691    7392.4742    5940.3036    5816.4866    84.547662   -1029.2473   -965.04648   -4140.5578 
26236000    129.81495   -5119.3901   -4859.7442   -5119.3901            0    7667.7614    17.830036     22.77079    19.168084    7782.3189    7662.6706    7771.4906    7569.1232    579.07559   -337.85561    835.30687   -3989.4752 
26237000    125.95135   -5113.0672    -4861.149   -5113.0672            0    6798.9841    17.857123    22.904607    19.094615    7809.8958    6850.7384    5575.4298    7970.7841   -1373.8963   -426.82018    647.36478   -4086.7493 
26238000    132.76776   -5114.8125   -4849.2606   -5114.8125            0    6741.2879    17.976327    22.716029    19.199089    7839.9628     7163.263    6318.4858    6742.1149   -515.37096    254.80035   -2145.4399   -4078.4764 
26239000     130.6568   -5116.2404   -4854.9107   -5116.2404            0    5726.3788    17.915271    22.952364     19.07828    7844.9474    5343.4121    5610.5714    6225.1529    -360.6379    260.94297   -601.21788   -4199.7527 
26240000    132.92257    -5116.687   -4850.8254    -5116.687            0    6744.5669     17.94833    22.651561    19.206592    7808.5874    5257.6154    7436.5707    7539.5145    530.58158    179.83128    952.67173   -4082.7525 
26241000    127.73869   -5121.8295   -4866.3363   -5121.8295            0    6764.8972    17.958888    22.634056    19.183503    7797.7578    7484.3574    6464.7568    6345.5774   -74.798895    117.67788    1591.9343   -4097.0167 
26242000    132.16094   -5123.4363   -4859.0981   -5123.4363            0    7534.9725    17.739567    23.047526    19.033709    7781.9913    8017.6783    6738.3889    7848.8504    937.65802     96.06047    690.69102   -4003.9363 
26243000    139.59718   -5124.1663   -4844.9547   -5124.1663            0    6147.1502    17.983186    22.545424    19.328308    7836.4413    5951.7514    7144.9547    5344.7444   -80.619124    -173.0328   -495.71426   -4142.4186 
26244000    132.57268   -5106.8131   -4841.6514   -5106.8131            0    6327.5322    17.777025    22.937399    19.148898    7808.1302    5601.0641    6366.9304    7014.6022     436.4744   -840.35669    1269.0278   -4121.1127 
26245000    131.71168   -5102.9055   -4839.4659   -5102.9055            0    6528.2092    17.909012    22.636289    19.276932    7814.7443    6383.3361    7299.2626    5902.0288   -116.81623   -297.33514    1152.3618   -4095.4457 
26246000    133.60981   -5126.7916   -4859.5555   -5126.7916            0    8008.0977    17.820238    22.725933    19.242339    7792.7918    8552.2177    8269.3946    7202.6806   -336.94214    67.692035    -806.7124   -3949.4362 
26247000    131.00243   -5116.0873   -4854.0663   -5116.0873            0     8078.402    17.794486    22.719419    19.245617    7780.6254    8322.5869    8560.2675    7352.3517    444.12619    1638.4649    1987.2134   -3937.3903 
26248000    132.17867   -5109.2363   -4844.8626   -5109.2363            0     7426.752    17.869779    22.501525    19.413798    7806.2354    8456.3049    7890.4391    5933.5121   -389.25187    449.05387    618.77724   -3999.3571 
26249000    129.25976   -5122.8444   -4864.3089   -5122.8444            0    6613.6482    17.703424    22.920592     19.20315     7792.119    7820.3466    6248.7976    5771.8005    378.26614   -80.249828   -494.94534   -4112.7335 
26250000    132.26227   -5103.2088   -4838.6679   -5103.2088            0    6527.2077    17.889085    22.555169    19.382089    7820.5049    8334.1579     6587.941    4659.5243    823.83018    249.92254    200.64054   -4094.2135 
Loop time of 433.749 on 64 procs for 250000 steps with 1008 atoms

Performance: 99.597 ns/day, 0.241 hours/ns, 576.371 timesteps/s
195.0% CPU use with 32 MPI tasks x 2 OpenMP threads

MPI task timing breakdown:
Section |  min time  |  avg time  |  max time  |%varavg| %total
---------------------------------------------------------------
Pair    | 35.061     | 40.628     | 44.877     |  34.5 |  9.37
Bond    | 0.92303    | 1.2514     | 1.6586     |  13.9 |  0.29
Kspace  | 211.66     | 217.28     | 222.87     |  19.2 | 50.09
Neigh   | 1.4175     | 1.4889     | 1.5587     |   4.2 |  0.34
Comm    | 68.403     | 72.682     | 75.8       |  22.3 | 16.76
Output  | 0.4566     | 0.4569     | 0.45845    |   0.0 |  0.11
Modify  | 84.403     | 86.194     | 88.26      |  10.2 | 19.87
Other   |            | 13.77      |            |       |  3.17

Nlocal:        31.5000 ave          36 max          27 min
Histogram: 2 1 1 5 7 10 0 1 4 1
Nghost:        2940.06 ave        2957 max        2918 min
Histogram: 1 1 2 2 6 5 6 6 1 2
Neighs:        10684.0 ave       12191 max        9123 min
Histogram: 2 1 1 5 7 8 2 1 2 3

Total # of neighbors = 341889
Ave neighs/atom = 339.17560
Ave special neighs/atom = 2.0000000
Neighbor list builds = 3507
Dangerous builds = 0

unfix		3
unfix		2
unfix		1

write_data	data.final.${pid}
write_data	data.final.0
System init for write_data ...
PPPM initialization ...
  extracting TIP4P info from pair style
  using 12-bit tables for long-range coulomb (../kspace.cpp:340)
  G vector (1/distance) = 0.38033181
  grid = 24 27 36
  stencil order = 5
  estimated absolute RMS force accuracy = 0.0023264209
  estimated relative force accuracy = 7.0059474e-06
  using double precision FFTW3
  3d grid and FFT values/proc = 5670 1296
Last active /omp style is kspace_style pppm/tip4p/omp
WARNING: Not all mixed pair coeffs generated from mixing. Use write_data with 'pair ij' option to store all pair coeffs. (../write_data.cpp:312)

write_restart   restart.lmp.${pid}
write_restart   restart.lmp.0
System init for write_restart ...
PPPM initialization ...
  extracting TIP4P info from pair style
  using 12-bit tables for long-range coulomb (../kspace.cpp:340)
  G vector (1/distance) = 0.38033181
  grid = 24 27 36
  stencil order = 5
  estimated absolute RMS force accuracy = 0.0023264209
  estimated relative force accuracy = 7.0059474e-06
  using double precision FFTW3
  3d grid and FFT values/proc = 5670 1296
Last active /omp style is kspace_style pppm/tip4p/omp
Total wall time: 0:07:13
