LAMMPS (30 Jul 2021)
Processor partition = 1
  using 2 OpenMP thread(s) per MPI task
using multi-threaded neighbor list subroutines
variable        pid world 0 1
variable        phase world IceII IceV

shell cd ${phase}
shell cd IceV
include Restart.lmp
echo both
log log.lammps
#include		in.partitions
include		in.temp
variable        temperature equal 131.79
variable	tempDamp equal 100.0
include		in.pressure
variable        pressure equal 7108.3
variable        pressureDamp equal 1000.0 # This is 1 ps
include		in.seed
variable        seed equal 745823

units		real
atom_style	full
read_restart    restart.lmp.${pid}
read_restart    restart.lmp.1
Reading restart file ...
  restart file = 30 Jul 2021, LAMMPS = 30 Jul 2021
  restoring atom style full from restart
  triclinic box = (-3.1258118 -0.063669817 -0.023411684) to (14.735811 22.643669 19.253410) with tilt (-0.37521269 -6.6396927 0.23172663)
  2 by 4 by 4 MPI processor grid
  restoring pair style lj/cut/tip4p/long/omp from restart
  restoring bond style harmonic/omp from restart
  restoring angle style harmonic/omp from restart
  1008 atoms
  672 bonds
  336 angles
Finding 1-2 1-3 1-4 neighbors ...
  special bond factors lj:    0        0        0       
  special bond factors coul:  0        0        0       
     2 = max # of 1-2 neighbors
     1 = max # of 1-3 neighbors
     1 = max # of 1-4 neighbors
     2 = max # of special neighbors
  special bonds CPU = 0.002 seconds
  read_restart CPU = 0.007 seconds

include 	in.setup
variable	out_freq equal 1000
variable	out_freq2 equal 10000
variable	out_freq3 equal 1000

timestep	2.0

neigh_modify    delay 7 every 1

include		in.tip4p
# This is TIP4P/Ice

# create groups ###
group ox type 2
336 atoms in group ox
group hy type 1
672 atoms in group hy

# set charges - beside manually ###
set group ox charge -1.1794
Setting atom values ...
  336 settings made for charge
set group hy charge 0.5897
Setting atom values ...
  672 settings made for charge

# ### TIP3P Potential Parameters ###
pair_style lj/cut/tip4p/long/omp 2 1 1 1 0.1577 8.5
pair_coeff 1 1*2 0.000 0.000
pair_coeff 2 2 0.21084 3.1668
bond_style  harmonic
bond_coeff  1 450 0.9572
angle_style harmonic
angle_coeff 1 55 104.52
kspace_style pppm/tip4p/omp 1.0e-5
pair_modify tail yes

thermo          ${out_freq}
thermo          1000
thermo_style    custom step temp pe etotal epair emol press lx ly lz vol pxx pyy pzz pxy pxz pyz enthalpy

restart 	${out_freq3} restart.lmp.${pid} restart2.lmp.${pid}
restart 	1000 restart.lmp.${pid} restart2.lmp.${pid}
restart 	1000 restart.lmp.1 restart2.lmp.${pid}
restart 	1000 restart.lmp.1 restart2.lmp.1


include         in.dump
dump            myDump all atom ${out_freq2} dump.water.${pid}
dump            myDump all atom 10000 dump.water.${pid}
dump            myDump all atom 10000 dump.water.1
dump            myDump2 all dcd ${out_freq2} dump.dcd
dump            myDump2 all dcd 10000 dump.dcd
dump_modify     myDump append yes
dump_modify     myDump2 append yes


variable natoms 	equal  "count(all)"                        # NUMBER ATOMS
variable H      	equal  "enthalpy/v_natoms"                 # ENTHALPY-per-atom
variable Vol      	equal  "vol/v_natoms"                 # volume-per-atom
fix AVG all 		ave/time ${out_freq} 1 ${out_freq} v_Vol v_H file vol_enthalpy.dat
fix AVG all 		ave/time 1000 1 ${out_freq} v_Vol v_H file vol_enthalpy.dat
fix AVG all 		ave/time 1000 1 1000 v_Vol v_H file vol_enthalpy.dat



fix 		1 all shake 1e-6 200 0 b 1 a 1
Finding SHAKE clusters ...
       0 = # of size 2 clusters
       0 = # of size 3 clusters
       0 = # of size 4 clusters
     336 = # of frozen angles
  find clusters CPU = 0.000 seconds
fix             2 all nph tri ${pressure} ${pressure} ${pressureDamp}
fix             2 all nph tri 7108.3 ${pressure} ${pressureDamp}
fix             2 all nph tri 7108.3 7108.3 ${pressureDamp}
fix             2 all nph tri 7108.3 7108.3 1000
fix             3 all temp/csvr ${temperature} ${temperature} ${tempDamp} ${seed}
fix             3 all temp/csvr 131.79 ${temperature} ${tempDamp} ${seed}
fix             3 all temp/csvr 131.79 131.79 ${tempDamp} ${seed}
fix             3 all temp/csvr 131.79 131.79 100 ${seed}
fix             3 all temp/csvr 131.79 131.79 100 745823


run             250000
PPPM initialization ...
  extracting TIP4P info from pair style
  using 12-bit tables for long-range coulomb (../kspace.cpp:340)
  G vector (1/distance) = 0.38030686
  grid = 24 27 32
  stencil order = 5
  estimated absolute RMS force accuracy = 0.0023299138
  estimated relative force accuracy = 7.0164661e-06
  using double precision FFTW3
  3d grid and FFT values/proc = 5355 672
Last active /omp style is kspace_style pppm/tip4p/omp
Neighbor list info ...
  update every 1 steps, delay 7 steps, check yes
  max neighbors/atom: 2000, page size: 100000
  master list distance cutoff = 10.8154
  ghost atom cutoff = 10.8154
  binsize = 5.4077, bins = 5 5 4
  1 neighbor lists, perpetual/occasional/extra = 1 0 0
  (1) pair lj/cut/tip4p/long/omp, perpetual
      attributes: half, newton on, omp
      pair build: half/bin/newton/tri/omp
      stencil: half/bin/3d/tri
      bin: standard
Setting up Verlet run ...
  Unit style    : real
  Current step  : 250000
  Time step     : 2
Per MPI rank memory allocation (min/avg/max) = 10.31 | 10.32 | 10.34 Mbytes
Step Temp PotEng TotEng E_pair E_mol Press Lx Ly Lz Volume Pxx Pyy Pzz Pxy Pxz Pyz Enthalpy 
  250000    132.18118   -5102.9496   -4838.5709   -5102.9496            0     6163.235    17.861623    22.707339    19.276821    7818.4843    5626.3782    6473.8612    6389.4655    1030.6538   -565.61706   -206.66376   -4135.8107 
  251000    130.85165   -5117.9838   -4856.2644   -5117.9838            0    6951.4329    17.949339    22.579091    19.234939    7795.5316    6895.1937     7668.079    6291.0259   -140.45799    758.15561    1214.0947   -4065.9571 
  252000    134.97233   -5124.4987   -4854.5374   -5124.4987            0    6409.7431    17.917937    22.818279    19.091456    7805.6658    6346.9186     6352.019    6530.2918   -862.95636     -637.828   -1965.7619   -4124.8674 
  253000    120.82457   -5097.7974   -4856.1333   -5097.7974            0    7353.1547    17.912161    22.597264    19.256722    7794.4628    7827.3983    7365.4971    6866.5688   -759.72435   -911.73214   -1572.6777    -4020.269 
  254000    129.31486   -5126.0649   -4867.4193   -5126.0649            0    7766.3914    17.803865    23.004815    18.966327    7768.1262    6637.1838    6964.9763     9697.014    142.11031   -531.12775    799.23831   -3987.5636 
  255000    126.89835   -5100.6987   -4846.8863   -5100.6987            0    8694.6333    17.833494    22.554841    19.270849     7751.345    8786.3764    8722.8283    8574.6953   -157.38847    192.35187   -692.65154   -3863.9979 
  256000    136.76113   -5117.4639   -4843.9248   -5117.4639            0    7587.7043    17.898612    22.709275    19.135027    7777.7094    6579.1831    8007.2894    8176.6404   -457.23256     236.1616   -537.75824   -3983.2521 
  257000    133.08262   -5126.6751   -4860.4934   -5126.6751            0    5134.7955    17.986626     22.69098    19.255783    7858.9427    5365.3957    5323.1706    4715.8202    485.97251    133.41008   -108.04465   -4271.9708 
  258000    129.79644   -5106.4948   -4846.8859   -5106.4948            0    7532.6343    17.757703    22.783319    19.244787    7786.0446    8155.4286     7764.423    6678.0513    639.44096     -85.4184    271.48169   -3991.5441 
  259000    138.85826   -5114.1942   -4836.4606   -5114.1942            0    7110.7208     17.84451    22.779096    19.196685    7803.1031    7200.6234    7616.9081    6514.6309    464.31169    16.013382    651.38653   -4027.2587 
  260000    132.61512   -5109.6114   -4844.3647   -5109.6114            0    7567.3261    17.922199    22.655573    19.168619     7783.182    6656.6779    8504.2586    7541.0418   -495.95398    458.75916   -58.119449   -3985.3996 
  261000    131.99877   -5120.7427   -4856.7289   -5120.7427            0    6629.0695     17.85875    22.750083    19.213155    7806.0751    6023.2122    8135.1835    5728.8127   -856.92813    1232.1888     148.2245   -4102.0517 
  262000     134.0004   -5091.9696   -4823.9523   -5091.9696            0    8869.8055    17.830188    22.674305    19.208641    7765.8061    9937.8638    8191.5516    8480.0012   -189.68999    48.431922    457.95012   -3819.3908 
  263000    134.88068   -5102.8019   -4833.0239   -5102.8019            0    7619.1208    17.924761    22.757984    19.148696    7811.3549    7985.1933    7412.7201    7459.4491    814.76105   -120.30395    917.20244   -3965.0491 
  264000    131.20311   -5115.7507   -4853.3283   -5115.7507            0    7346.6139    17.756187    22.723038    19.254017    7768.5053     7690.885    7383.5365    6965.4203   -532.12361   -586.67551    884.27952   -4020.9886 
  265000    134.60465   -5120.5511   -4851.3252   -5120.5511            0    6698.6555    17.910331    22.747711     19.13522    7796.0526    6849.1782    6248.9634    6997.8248    -203.2501    -57.95232    184.44117   -4089.7053 
  266000    127.24341   -5104.7823   -4850.2798   -5104.7823            0    6484.4949    17.991176    22.680261    19.165186    7820.2503    5143.2242    6972.1237    7338.1369    97.776568    1100.6488    770.33936    -4110.721 
  267000    136.47131   -5120.9052   -4847.9457   -5120.9052            0    7910.5811    17.832308    22.709967     19.19102     7771.809    8787.0212     7279.321    7665.4012    50.270353   -363.61181    782.97703   -3951.3299 
  268000    135.07627   -5125.6727   -4855.5034   -5125.6727            0    8308.3586    17.879421    22.539913    19.233133    7750.9642    8378.9426    9018.4483     7527.685     630.8365    154.63111    745.42711   -3916.3277 
  269000    131.63264   -5112.5224   -4849.2409   -5112.5224            0    8384.5878    17.796717    22.800781    19.139443    7766.3849    9389.8806    8322.7673    7441.1156   -241.66716    366.99867    666.11636   -3899.5625 
  270000    132.57611   -5117.9228   -4852.7542   -5117.9228            0    6265.6645    17.899716    22.608923    19.285903    7804.8756    6855.3581    6293.6492    5647.9864    682.15864   -373.49532   -224.12589    -4139.558 
  271000    127.81324    -5123.661   -4868.0187    -5123.661            0    5848.4145    17.740365     22.89519    19.303618    7840.5319    6247.0406    5562.2778    5735.9251    1638.7625   -314.95869    80.691938   -4199.2752 
  272000    129.02542    -5107.305   -4849.2383    -5107.305            0    7917.7523    17.909805    22.510219    19.302695    7781.9513    7690.3585    8482.2428    7580.6555   -254.11422   -434.64661    290.55942   -3950.6385 
  273000    127.87111    -5122.527    -4866.769    -5122.527            0    7250.6771    17.804472    22.905509    19.056322    7771.5587    6735.1524    7473.4997    7543.3792    491.58984    33.670884    -419.2077   -4044.9757 
  274000    143.67707   -5119.8934   -4832.5215   -5119.8934            0    5741.8751    17.955412    22.713547    19.222916    7839.7032    7276.5145    4922.0983    5027.0127    174.74197    -191.4723    177.14976   -4176.0298 
  275000    136.42147   -5103.4804   -4830.6206   -5103.4804            0    8595.4738    17.934212      22.7269    19.111464    7789.6231    7559.0317    9172.2906    9055.0989    1009.8144   -661.93662   -1627.0188   -3854.1433 
  276000    134.94023   -5108.9458   -4839.0487   -5108.9458            0    6616.5896    17.939405    22.646974    19.209143    7804.1604     6829.237    6870.3855    6150.1464     1318.882   -850.71168    3667.8515   -4085.9771 
  277000    135.86528   -5111.1208   -4839.3735   -5111.1208            0     4854.956    17.875699    22.896747    19.216286    7865.1367    5925.9613    4353.6347     4285.272   -357.00185   -828.61439   -1261.7188    -4282.486 
  278000    129.31144   -5117.1306   -4858.4918   -5117.1306            0    7912.6628    17.949421    22.560451    19.196302    7773.4857    7210.1252    8497.7776    8030.0856     270.0018     462.7956     212.6933   -3961.4465 
  279000    135.62029   -5121.5427   -4850.2854   -5121.5427            0    6581.7948    17.900371    22.755659    19.173767     7810.141    6574.2553    6246.0789    6925.0501   -1063.5665    501.51182   -164.02979   -4100.5999 
  280000    137.43295   -5119.2192   -4844.3363   -5119.2192            0    7433.5291    17.813331    22.819011    19.188701    7799.8729    8742.5604    5753.5291    7804.4977    906.90711   -650.57267   -191.86222    -3998.749 
  281000    135.63325   -5107.1353    -4835.852   -5107.1353            0    6450.6264    17.858023    22.594986    19.357726    7810.8771    6198.5871    6628.5488    6524.7431    405.58314    477.82547   -1213.9927   -4101.0378 
  282000    133.92989   -5109.0894   -4841.2131   -5109.0894            0    8186.1112    17.763018    22.817539     19.17185    7770.5109    7103.0614    9193.1146    8262.1577     1235.865     204.5552    1307.0282   -3913.5226 
  283000    127.39129   -5105.9624   -4851.1641   -5105.9624            0    6339.8193    17.903257    22.621191    19.310233    7820.5092    5455.3922     7016.272    6547.7938   -872.79361   -56.158579    -714.6133   -4128.0817 
  284000    126.83137   -5121.0087   -4867.3303   -5121.0087            0    6339.0963    17.868183    22.838429    19.136691    7809.3241    5564.7163     6269.597    7182.9756    525.28928     680.8245    498.22802   -4145.3644 
  285000     130.0446   -5119.0865   -4858.9813   -5119.0865            0    9321.3806    17.874121    22.651889    19.081206    7725.6486    7629.4995    10171.206    10163.436   -380.66247    742.56354    251.50638   -3808.7351 
  286000    131.96262   -5133.3016     -4869.36   -5133.3016            0    6418.0232    17.919561    22.748735    19.228592    7838.4845    5665.7234    6719.4095    6868.9366    38.545209    367.07489   -2343.1628   -4135.6757 
  287000    137.96427   -5120.6223   -4844.6767   -5120.6223            0    7865.5659    17.892457    22.733961    19.102349    7770.1943    7469.5098    8235.2914    7891.8964   -2090.3098   -97.906487    93.672145   -3953.3483 
  288000    128.83452    -5110.766   -4853.0811    -5110.766            0    7459.9178    17.920692    22.618778     19.24536    7800.9938      6938.21      7761.11    7680.4333    491.06942    141.52933   -130.39237     -4004.37 
  289000    126.15554   -5103.9689   -4851.6422   -5103.9689            0    7644.9768    17.783829    22.923912    19.093802    7784.0645    7205.1199    7201.3999    8528.4106    369.07013   -539.22228    -792.6723   -3983.7646 
  290000    134.67294   -5118.0365    -4848.674   -5118.0365            0    8032.0602    18.002237    22.524227    19.234417    7799.2961    7731.6771    9236.7692    7127.7343    102.93814    800.03212    940.61503   -3935.0694 
  291000    134.90112   -5119.7269    -4849.908   -5119.7269            0    7050.9581    17.877906     22.81391    19.153694    7812.1201    7353.1994     6229.284    7570.3909    316.22996    238.48669    198.57029   -4046.5799 
  292000    130.37756   -5113.0183   -4852.2471   -5113.0183            0    6968.7795    17.931056    22.628351    19.264448    7816.5541    7713.2848    6898.4725    6294.5811   -1460.2292    519.42619   -571.62917   -4057.8311 
  293000    128.95067   -5100.7704   -4842.8532   -5100.7704            0    5958.1627    17.900163    22.961402     19.07912    7841.7634    5969.2547    5215.4588    6689.7746   -669.35549     322.5571   -1671.2578   -4161.4534 
  294000    128.57222    -5123.338   -4866.1777    -5123.338            0    7105.7159    17.944235    22.615996    19.196919    7790.6233    4913.2501    7559.7001    8844.1974    317.87407   -154.23428   -422.75585   -4058.8387 
  295000     126.7878   -5119.5898   -4865.9986   -5119.5898            0    6751.8591    17.806312    22.793739    19.181858    7785.3875     4652.229    7363.7972     8239.551    672.92723   -115.67611     1785.452   -4099.3797 
  296000    130.44544    -5121.341    -4860.434    -5121.341            0    7956.2506      17.8282    22.687904    19.252607    7787.3809    7635.5222    8322.9864    7910.2431    438.38432      247.912    910.97025    -3956.835 
  297000    132.13346   -5117.7402   -4853.4569   -5117.7402            0    7630.0999     17.91587    22.615321    19.199923    7779.2933    4983.4316    9167.8536    8739.0144   -456.79817     1348.009   -131.92546   -3987.7991 
  298000    131.88888    -5125.606   -4861.8119    -5125.606            0    7309.9103    17.840979     22.81443    19.152627    7795.7274    7587.1745    7085.6374    7256.9189   -146.49519    740.97095   -363.52956   -4030.7286 
  299000    138.45214   -5118.7312   -4841.8098   -5118.7312            0    7384.1355    18.024735    22.596273    19.121021    7787.8359    5341.0026    8929.5607    7881.8432     771.7514   -258.60869   -495.70189   -4003.1374 
  300000    127.69966   -5115.2282   -4859.8131   -5115.2282            0    8039.9453    17.887284    22.668092    19.237789    7800.3578    8469.5839    7907.5059    7742.7461   -405.36028   -632.57702     257.5596   -3945.1872 
  301000    138.01461   -5096.0074   -4819.9611   -5096.0074            0    7517.7931    17.865631    22.820681    19.178025    7818.9932    7866.4918    6796.2249    7890.6626   -871.51497   -967.03173    76.268988   -3962.6921 
  302000    131.44278   -5123.3506   -4860.4488   -5123.3506            0     7203.279    17.907654    22.777554    19.076674    7781.2335    8268.9187    6646.3214    6694.5967   -651.33939   -1245.2872   -442.51453   -4043.0113 
  303000    123.06953   -5119.1688   -4873.0146   -5119.1688            0    7031.1451    17.934722    22.844841    19.059568    7809.0073    6611.3088    6209.3112    8272.8153    80.972234    13.184616    1006.7229    -4072.263 
  304000    136.21457   -5110.5142   -4838.0682   -5110.5142            0     5895.474     17.92078    22.617466    19.365826    7849.4077    5426.8666    6368.3211    5891.2342   -158.39289    77.029757   -401.90826   -4163.1805 
  305000    137.84786   -5118.7903   -4843.0776   -5118.7903            0    7643.6411    17.774081    22.857561    19.139862    7775.9926    9442.2372    6573.3679    6915.3183   -70.168556    -240.8972    74.771824   -3976.2514 
  306000    145.76051   -5119.2251   -4827.6861   -5119.2251            0    7210.5016    17.740102    22.796578    19.271644    7793.7157     8255.306    6851.5626    6524.6363   -2128.7356   -1169.1973    569.86063   -4008.1164 
  307000    126.22405   -5119.9493   -4867.4856   -5119.9493            0    6976.5464    17.859499    22.729011    19.211405    7798.4616     8291.676    6393.5382    6244.4249    925.23511   -1263.2115    68.863919   -4074.0251 
  308000    131.92828   -5123.2771   -4859.4042   -5123.2771            0       5528.3    17.981063    22.695969    19.223632    7845.1193    5736.9743    5727.6792    5120.2465   -218.13088    905.99878   -601.92309   -4226.8947 
  309000    130.30747   -5115.2925   -4854.6615   -5115.2925            0    7823.7177    17.928609    22.693795    19.138959    7787.0334    8257.2658     7703.538    7510.3492    1010.2891    839.59482    489.71089    -3966.154 
  310000    130.78693    -5115.178    -4853.588    -5115.178            0    6654.4812    17.895329    22.772777    19.162637    7809.2793    5978.1864    6810.0067    7175.2505    47.567471     430.3624   -196.52329   -4095.7069 
  311000    131.77084   -5100.6123   -4837.0543   -5100.6123            0    7070.4922    17.946225    22.799357      19.0582    7797.8988    6715.9612    7093.3473    7402.1681   -1601.7133   -1452.1043   -1335.6275   -4032.9671 
  312000      132.497   -5089.8105   -4824.8001   -5089.8105            0    7654.6071    17.845567    22.758627    19.228885    7809.6309    7716.9407    7865.9017     7380.979   -1073.9694   -210.03116   -261.62451   -3952.9752 
  313000    138.20627   -5112.5062   -4836.0766   -5112.5062            0    7972.4243    17.904416     22.85899    19.060201     7800.899    6858.9131    7794.1821    9264.1779   -50.948867    2.0779766   -317.80411   -3929.0689 
  314000    130.10895   -5116.1047   -4855.8707   -5116.1047            0    7407.2185    17.939434    22.721202    19.162976    7810.9343    6571.4444    7112.4438    8537.7674     970.6601    547.32624    277.77304   -4012.0814 
  315000    126.03454   -5112.9543   -4860.8696   -5112.9543            0    7117.8773    17.871959    22.740767    19.204298    7805.0506    6792.2464    7591.1438    6970.2418    176.85239    676.15453    203.21538   -4050.6512 
  316000    135.05311   -5102.6488   -4832.5259   -5102.6488            0    7916.4585     17.89439    22.673886    19.177114    7780.8335     8757.893    7363.2519    7628.2305    69.604579   -216.18624    730.23113    -3934.202 
  317000    130.09868   -5114.3814    -4854.168   -5114.3814            0    7628.7711    17.828412    22.838795    19.110315    7781.3276    7501.3558    7446.6454    7938.3121    -1.974761   -217.68079   -117.90419   -3988.4346 
  318000    135.93046   -5117.6839   -4845.8062   -5117.6839            0    7961.1902     17.89799    22.667472     19.14828    7768.4987    7027.9936    8467.8769       8387.7   -588.75736   -397.61341   -951.38045   -3943.8385 
  319000    132.05014   -5129.6342   -4865.5177   -5129.6342            0    8044.2278    17.725351    22.788282    19.241709    7772.3091    8561.5325    7924.3217    7646.8292    639.49424    705.64063    489.35856   -3953.6951 
  320000     132.8686    -5114.856   -4849.1024    -5114.856            0    6982.9446    17.909054    22.642863    19.283623    7819.7456    7157.9419    7635.1332    6155.7588   -721.29612    918.17818    727.64877   -4052.7467 
  321000    134.41021   -5125.7765   -4856.9395   -5125.7765            0    5761.4403    17.921275    22.877761    19.109401    7834.8285    6052.2836    4873.8647    6358.1726   -203.67523   -14.650216   -1105.9061   -4198.6204 
  322000    139.26983   -5107.0581   -4828.5012   -5107.0581            0    5826.5447     17.89637    22.759067    19.267377     7847.693    5657.1205    6451.8821    5370.6314    376.48827   -172.02586    1185.2088     -4161.65 
  323000    127.67209   -5125.6534   -4870.2934   -5125.6534            0    7869.6851    17.796908    22.762397    19.179275    7769.5299    7998.2978    8070.0291    7540.7283    308.76517    129.28851    62.904066   -3978.5745 
  324000    124.20166   -5115.7277   -4867.3091   -5115.7277            0    7206.7282    17.863187     22.63721    19.248696    7783.6477    7130.5236    8113.9939     6375.667     -968.779    -112.1234     24.93916   -4049.2264 
  325000    130.37187   -5115.6254   -4854.8656   -5115.6254            0    7603.9008    17.840377    22.877368    18.993725    7752.1154    7010.0209    7026.6376     8775.044   -155.78519   -244.86444    690.21502    -3995.194 
  326000    133.96949   -5112.8953   -4844.9398   -5112.8953            0     8075.388    17.903472     22.57341     19.21611    7766.0454    7359.8213    7969.3256    8897.0173    194.12064   -568.56632     409.6945   -3930.3229 
  327000      124.646   -5124.3104    -4875.003   -5124.3104            0    6919.3118    17.813797    22.814421    19.142944    7779.9118    6569.2304    6480.8585    7707.8465   -246.16816    419.34845   -819.91497   -4089.9238 
  328000    140.43861   -5108.5113   -4827.6167   -5108.5113            0    7587.9335    17.912241    22.701466     19.16485    7793.0825    8376.6808    6328.2202    8058.8996    -136.9864   -1491.8824    584.28431   -3965.2169 
  329000    126.04837   -5112.8835   -4860.7711   -5112.8835            0    6669.1939    17.832337    22.945454    19.078748    7806.4717    6919.4843    6567.1563     6520.941   -146.89068   -601.84599    250.56828   -4101.4875 
  330000     137.7121    -5113.831   -4838.3898    -5113.831            0    7363.7316    17.932419    22.611917    19.271147    7814.1874    6568.7782    8327.4212    7194.9953   -353.15613    59.072381   -2417.0357   -3999.2049 
  331000    135.76599   -5126.7126   -4855.1639   -5126.7126            0    5243.6069    17.861108    22.806568    19.267703    7848.7099    5707.9518    5466.3098     4556.559    -607.7981   -243.65726    168.73441   -4254.9524 
  332000    128.02396   -5122.6972   -4866.6335   -5122.6972            0    7984.8521    17.993607     22.51893     19.25356    7801.4804    7833.4646    7976.4857     8144.606    527.20094   -35.001293   -43.425962   -3958.1442 
  333000    129.73644   -5100.5513   -4841.0624   -5100.5513            0    7203.2869    17.828169     22.85544    19.113492     7788.187    7539.0566    7313.8037    6757.0004    370.15509    149.88786   -585.74996   -4022.8935 
  334000     131.0986    -5096.052   -4833.8386    -5096.052            0     6506.579    17.968815    22.568661     19.27434    7816.3634    6632.3909    7255.7317    5631.6145    444.13835    621.62516   -1216.9497     -4092.13 
  335000    129.71375   -5120.5437   -4861.1002   -5120.5437            0    7208.4466     17.85327    22.835211    19.130445    7799.1608    5669.8382     6989.875    8965.6267    39.857779   -731.17523    946.38663   -4041.1916 
  336000    133.67259   -5126.9555   -4859.5938   -5126.9555            0    6767.8559    17.948064    22.512228    19.343481    7815.7511    5606.5897     7556.778       7140.2    228.70466   -217.79395   -1172.7078   -4088.1617 
  337000    128.06938   -5116.0195   -4859.8649   -5116.0195            0    7033.8073    17.728109    22.880004    19.239937     7804.088    7708.9701    6920.5428    6471.9092    85.228981    31.940821    146.22658   -4059.3148 
  338000    127.16877   -5110.6433     -4856.29   -5110.6433            0    6979.2737    17.933852    22.680608    19.244572    7827.7424    6344.9897    7294.0765    7298.7549   -1237.5505    308.08797   -2097.9723    -4059.539 
  339000    122.37577   -5121.4437    -4876.677   -5121.4437            0    6715.0477    17.798712    22.856586    19.161973    7795.4316    8854.5734    5658.2205    5632.3492   -74.587721    609.83729   -1469.5099   -4113.2542 
  340000    132.54786   -5120.4465   -4855.3344   -5120.4465            0    8308.0033    17.795105    22.820292    19.138919     7772.114    9024.5039    8379.6111     7519.895    167.25202    575.36052   -651.60388   -3913.6363 
  341000    125.98553   -5107.6382   -4855.6516   -5107.6382            0    8566.1671    17.894069    22.569137    19.192784    7751.0769    7595.7607     9870.596    8232.1447   -78.590199    424.09565    928.45783   -3887.3191 
  342000     131.5321   -5122.2342   -4859.1538   -5122.2342            0    6602.1871    17.883228    22.766716    19.165173    7802.9536    5482.7894    6539.7328    7784.0392    371.72223    -126.0614   -895.14195   -4107.8376 
  343000    133.70798   -5115.6918   -4848.2593   -5115.6918            0    5708.2433     17.94809    22.760046    19.230475    7855.6366    4986.5237    5928.8654    6209.3409   -288.65812      74.8628   -136.93417   -4194.2864 
  344000    132.70781   -5120.2857   -4854.8537   -5120.2857            0    6023.7364    17.913692    22.722669    19.222396    7824.4167    6143.0542    5887.9571    6040.1979    1690.8398   -758.21938   -1006.5055   -4167.4786 
  345000    131.05218   -5132.1213   -4870.0008   -5132.1213            0    6765.4093    17.897552    22.739649    19.177743    7805.0352    7044.6747    6062.9168    7188.6364   -926.96703    -409.9336    546.82171   -4099.9048 
  346000    131.52745   -5108.7551   -4845.6839   -5108.7551            0    7294.5034    17.902224    22.760192    19.136886    7797.4785    6642.1187    7346.5491    7894.8423   -506.34095   -55.787526   -78.497507   -4016.1659 
  347000    132.58412    -5120.369   -4855.1844    -5120.369            0    7590.2517    17.903354     22.63023    19.228282    7790.4733    7193.5634    7891.5463    7685.6454    616.10358   -501.03948       1982.9   -3992.8099 
  348000    133.43925   -5115.5261   -4848.6312   -5115.5261            0    8200.9558    17.751254    22.978044    19.035553    7764.3946    7863.4021    7713.0795    9026.3859    498.34726   -262.93449    567.60616   -3919.9899 
  349000    131.62669   -5116.7168   -4853.4471   -5116.7168            0    8075.5336    17.970837    22.542012    19.229746    7789.9473    7050.0621    8117.3122    9059.2264     428.7917   -526.93752   -1920.9354   -3935.9988 
  350000    129.92561   -5114.3228   -4854.4555   -5114.3228            0    8214.0821    17.815067    22.951363    19.033258    7782.3198    8102.1585    7700.4568    8839.6309   -901.33409    1018.4143    767.98368   -3922.1806 
  351000    127.07605   -5122.9859   -4868.8181   -5122.9859            0    8307.7916    17.933583    22.449455    19.250684     7750.309    9260.8518    8439.1871     7223.336    1328.0918   -842.81678    961.17896   -3929.7858 
  352000    132.71978   -5112.1123   -4846.6563   -5112.1123            0    7868.2719      17.6852    22.929685    19.166604    7772.3659    8472.0345    7581.9098    7550.8713   -1577.1053   -104.41078   -1876.3653   -3954.7721 
  353000    134.67968   -5115.4532   -4846.0772   -5115.4532            0    7020.2944     18.04284    22.444439    19.296836    7814.4743    5308.5339    7731.1617    8021.1877   -86.626775   -18.973228   -5.7077638   -4046.0017 
  354000    138.41596   -5126.3695   -4849.5205   -5126.3695            0    5617.4331    17.783349    23.042277    19.119077    7834.4022    5912.8208    5227.8788    5711.5997    208.33145    816.90799    823.41174    -4207.691 
  355000    138.53451   -5110.5007   -4833.4146   -5110.5007            0    5541.7789      17.9742    22.668843     19.28557    7857.9891    4881.0994    6053.6308    5690.6064      -727.15    696.61762   -326.87542   -4198.3228 
  356000    121.86392   -5111.1353   -4867.3924   -5111.1353            0     7229.993    17.780807    22.885507    19.136108    7786.9182    7313.4648    6063.9232    8312.5911    63.351042    132.69642   -570.26965   -4046.3239 
  357000    132.43159   -5113.3442   -4848.4647   -5113.3442            0    8615.9853    17.882934    22.567316    19.220958    7756.9988    8681.5142    9391.7176    7774.7242   -1353.5489    228.26682   -1004.9563   -3873.7566 
  358000    137.89031   -5120.5299   -4844.7323   -5120.5299            0    6156.5716    17.733228    22.865911    19.299783       7825.8    5979.8603    6094.0641    6395.7905    231.42079    945.59202    41.754852    -4142.075 
  359000    133.19111   -5129.7122   -4863.3135   -5129.7122            0    5478.5388    17.988528     22.63539    19.265396    7844.4332    6122.8759    4838.8165    5473.9242   -692.14246    83.531637    812.78516   -4236.5521 
  360000    138.09466   -5118.7851   -4842.5787   -5118.7851            0    7495.0382    17.836071    22.800314    19.141899    7784.3979    7523.8047    7596.0157    7365.2941    975.60993    909.30932    658.95307   -3991.6861 
  361000    140.54928   -5110.0583   -4828.9424   -5110.0583            0    7724.3742    18.028356    22.453472    19.247524    7791.3821    8050.5961    7586.8235    7535.7028     -116.609    -58.71205   -272.75006    -3951.227 
  362000    137.61541   -5122.7222   -4847.4743   -5122.7222            0     7467.823     17.87221    22.941598    19.003663    7791.8257    7918.0609    6065.0422     8420.366    223.51201   -263.69812    840.26813   -3998.8624 
  363000    129.55022   -5123.9658   -4864.8494   -5123.9658            0    7174.4931    18.013415    22.539905     19.25562    7818.1797    8086.0918    7482.1702    5955.2173    265.21624     283.3262    -572.3249   -4046.8127 
  364000     138.1064   -5120.7224   -4844.4926   -5120.7224            0    5998.5265    17.818985    22.833672     19.20438     7813.741    6750.2712    5954.6075     5290.701   -612.85346    60.817199    12.277731   -4160.9281 
  365000    129.38335   -5109.8697    -4851.087   -5109.8697            0    8085.9913    17.877998    22.618795    19.186694    7758.6915    8170.9815    8464.0364     7622.956    1007.1735   -330.59105   -526.74414   -3936.1364 
  366000    125.20432   -5118.6643   -4868.2402   -5118.6643            0    5987.6698    17.801198    22.733546    19.357029    7833.4863     6877.352    6867.7821    4217.8753    500.24812   -370.55589   -665.08956   -4184.1887 
  367000    130.21631   -5132.0575   -4871.6088   -5132.0575            0    6603.4228    17.899454    22.764226     19.15063    7803.2542    6173.1768    6950.7428    6686.3489    1122.2514   -189.16292   -356.75109    -4120.123 
  368000    126.98282   -5117.5809   -4863.5995   -5117.5809            0     6626.353    17.937698    22.732651    19.156405    7811.4343    7377.3915    6206.7957    6294.8719     1.575376   -1192.3793    731.30434   -4108.7138 
  369000    131.47354   -5124.4475   -4861.4842   -5124.4475            0    7663.6667    17.892996    22.688946    19.172399    7783.4807     8669.001    7420.2117    6901.7874   -122.24068    720.83312    62.152965   -3991.5501 
  370000    134.78945   -5127.4298   -4857.8342   -5127.4298            0    7099.1558    17.966818    22.628952    19.185878    7800.4072    6397.5948    8050.7739    6849.0985     1262.446   -330.51708    1238.0967   -4050.2276 
  371000    127.51662   -5123.9447   -4868.8957   -5123.9447            0     5892.475    17.875884    22.853452    19.115252    7809.0708    4156.6515    6372.8291    7147.9443   -916.51137   -410.88276   -171.52504   -4197.8178 
  372000    142.91774   -5119.3452   -4833.4921   -5119.3452            0    7963.2936    17.805511    22.682381    19.237189    7769.3497    8712.7156    7039.1798    8137.9855   -954.28803   -1192.2683    160.20506   -3931.1873 
  373000    134.54169   -5125.0465   -4855.9465   -5125.0465            0    6816.1981    17.766868    22.948056     19.14105    7804.0946    8435.4863    5494.8412    6518.2668    72.398994   -308.94972    452.44703   -4080.1628 
  374000    133.04016   -5113.0247   -4846.9279   -5113.0247            0    7518.9873    17.894041    22.754751    19.148065    7796.6027    6516.0446    7845.8737    8195.0437   -140.55406   -55.630568    593.73563   -3991.9781 
  375000    132.69726    -5106.176   -4840.7651    -5106.176            0    7712.4349    17.979585    22.639681    19.155397     7797.244    7359.2909    8002.7823    7775.2317    862.32343    622.27735   -369.75123    -3963.747 
  376000    126.71982   -5112.9803    -4859.525   -5112.9803            0    7734.2929    17.827882    22.812326    19.097269    7766.7724    8362.4159    7152.8748    7687.5881    793.35987   -97.237191    7.1055418   -3983.4585 
  377000    125.84407   -5114.3669   -4862.6632   -5114.3669            0    7293.8024    17.879355    22.671019     19.25152    7803.4729    7151.8128    7610.2063    7119.3882    920.08487   -911.82774    578.26346   -4032.5873 
  378000    128.86726    -5122.901   -4865.1506    -5122.901            0    7390.5572    17.783751    22.831726    19.180945    7788.1104    7784.2712    7150.6262    7236.7742   -498.87646   -320.61378   -1599.7689   -4025.7192 
  379000    134.33257   -5097.6296   -4828.9479   -5097.6296            0    7249.6937    17.849491    22.704046    19.244752     7799.045    7176.3618    8142.2483     6430.471   -233.02699    1115.0766   -608.03775     -4004.36 
  380000    124.98492   -5122.4487   -4872.4634   -5122.4487            0    6980.7756    17.894147    22.694923    19.185305    7791.2729      6948.75    7099.6065    6893.9704    -386.6489    655.52061   -12.910547   -4079.2538 
  381000    123.74504   -5119.7921   -4872.2867   -5119.7921            0    7160.8252    17.821029    22.825356     19.19481    7807.8986    7896.2658    6817.3744    6768.8353   -165.64892    428.90902   -1255.7353   -4056.8822 
  382000    132.69397    -5107.558   -4842.1537    -5107.558            0    6260.7679    17.934876    22.651909    19.278319    7831.9941    6958.5398     6100.565    5723.1988    764.68498   -310.25723    839.07776   -4127.0388 
  383000    134.71927   -5105.3454   -4835.8902   -5105.3454            0    8234.9947    17.837032    22.793367    19.076049    7755.6737     8776.143    8070.9209    7857.9202    129.51588   -189.49074   -53.886553    -3904.442 
  384000    134.58556   -5131.1429   -4861.9551   -5131.1429            0    7963.1847    17.886496    22.691195    19.093806    7749.5262    7515.7923    8197.3209    8176.4409   -300.21288   -847.06004    -1666.007   -3961.9648 
  385000    130.98781   -5121.6091   -4859.6173   -5121.6091            0    7042.5245    17.804808    22.693552    19.238192    7773.2748    7444.1384    7843.1632    5840.2719   -370.93269   -71.634898   -73.698089   -4061.2398 
  386000    133.59877   -5106.5105   -4839.2964   -5106.5105            0    7374.3689    17.781962    22.654207    19.353097     7796.129    8054.1308    7781.3694    6287.6066   -676.79055    539.00126   -221.92839   -4000.8414 
  387000    129.67217   -5109.3795   -4850.0191   -5109.3795            0    9180.1705    17.804382    22.661613    19.147912    7725.7235    8043.5392    9589.1814     9907.791    452.95725     120.1188    596.46704   -3815.6732 
  388000    136.52289    -5122.271   -4849.2084    -5122.271            0    7855.5692      17.7702    22.660046    19.262857    7756.6428    9575.7236    7301.5842    6689.3998   -664.78191    56.023039    224.49023   -3960.5653 
  389000    122.51322   -5112.7552   -4867.7136   -5112.7552            0    7919.0018    17.819314    22.674631    19.241419    7774.4252    7918.5575    7933.4149    7905.0331    308.77045    176.08175    250.71457   -3969.8412 
  390000    134.29685   -5117.9828   -4849.3725   -5117.9828            0    5993.9206     17.85653    22.909506    19.159987    7838.0496    6274.8826    5496.6095    6210.2697   -49.878637     805.2983    1120.4031   -4164.2079 
  391000    136.02554   -5127.0049    -4854.937   -5127.0049            0    8579.9164    17.829815    22.708372    19.174454    7763.4695    9227.2211    8394.5091    8118.0191    -495.6889    421.59924    -934.7031   -3883.4996 
  392000    132.02042   -5123.6858   -4859.6287   -5123.6858            0    6459.7589    17.827542     22.70594    19.320781      7820.88    6222.4912    7186.1625     5970.623    637.07625   -347.51855    977.00003   -4122.8317 
  393000    126.12492   -5109.3503   -4857.0849   -5109.3503            0    7056.7712    17.931027    22.703365    19.118695    7783.1183    7048.0398    7628.4162    6493.8577   -231.50557   -773.77064    169.92275   -4056.0793 
  394000    132.47356   -5113.1997   -4848.2362   -5113.1997            0    9180.1622    17.829373    22.742378    19.121966    7753.6197    8044.8521    9141.3759    10354.259    1562.3088    646.33569    -859.2701   -3810.1564 
  395000    129.52851   -5116.1621   -4857.0891   -5116.1621            0    6696.9434    17.883992    22.693112     19.23936    7808.1677    7287.5292    7260.5825    5542.7184    566.58282    875.04354    1498.3208   -4094.4806 
  396000    130.15091   -5115.4845   -4855.1666   -5115.4845            0    7715.5723    17.905989    22.747485     19.08641    7774.2043    8494.2709    7329.0338    7323.4122   -843.73911    100.87619    482.74552   -3980.3843 
  397000    129.42343   -5131.9193   -4873.0565   -5131.9193            0    6700.6292    17.849277    22.721625    19.245076    7805.1212    6892.8419    7249.3722    5959.6734    816.52531    135.32876    1073.0358   -4110.3259 
  398000    128.09136   -5112.8756   -4856.6771   -5112.8756            0    7603.7473    17.848355     22.80147    19.081879    7765.7279    7670.3599    7066.5264    8074.3557    556.04257   -592.49862    1595.2343   -3995.5134 
  399000    134.29386   -5110.0292   -4841.4249   -5110.0292            0    7037.8674    17.932402    22.728594    19.163891    7810.7856    7430.3596     7045.119    6638.1237     445.1906    367.70429    127.76294   -4039.7253 
  400000    135.55328   -5134.9759   -4863.8526   -5134.9759            0    6871.3384    17.902053    22.708405    19.201907    7806.0949    6534.0566    7830.6543    6249.3042   -342.23507    362.26538    191.43205   -4081.5927 
  401000    142.86045   -5116.2897   -4830.5511   -5116.2897            0    6886.7689    17.879478     22.71293    19.239041    7812.8846    6452.8182    8125.2048    6082.2838    433.49043    1074.5697    1055.1448   -4045.8526 
  402000    133.73081   -5117.8074   -4850.3293   -5117.8074            0    7363.5471    17.883661    22.668329    19.230814     7796.032    5416.0001     8483.467    8191.1743   -1255.1787    26.877208    123.07603   -4013.1151 
  403000    131.63674   -5112.8376   -4849.5479   -5112.8376            0    6795.5435    17.762109    22.871287    19.265337    7826.3945    8206.5165    5978.5976    6201.5164    1159.0978    612.06024    1665.9881    -4073.905 
  404000    128.26197   -5112.3398      -4855.8   -5112.3398            0    7341.7546    17.932204    22.494589    19.338374    7800.6661    6743.8049    8485.9817    6795.4773   -395.19058    313.56369   -464.68706   -4020.5674 
  405000    129.17777    -5120.354   -4861.9825    -5120.354            0    6765.5094    17.868181    22.786817    19.214178    7823.2248    7965.7077    6629.8692    5700.9514   -537.16721   -428.06539    454.68529   -4090.0804 
  406000    131.09867   -5131.2894   -4869.0758   -5131.2894            0    7863.5808    17.905609     22.56337    19.224432    7766.8793    7656.8399     8630.138    7303.7646    377.89367    1025.2309   -154.86168   -3978.3525 
  407000    134.66574   -5125.7821    -4856.434   -5125.7821            0    7754.5804    17.836228    22.783769    19.131215     7774.476    8148.8675    6773.7512    8341.1225   -67.981666   -175.89936   -154.99211   -3977.1982 
  408000    126.61789   -5123.6957   -4870.4442   -5123.6957            0    6259.6058    17.921181    22.744212    19.170748    7814.0574    6158.8606    6355.9965    6263.9601   -205.42449    135.51615   -595.66415   -4157.0995 
  409000    131.27986   -5125.1679   -4862.5919   -5125.1679            0    7962.9029     17.83973    22.728102    19.200968    7785.2858    7170.8467     8059.961     8657.901    117.87479   -304.48031   -830.02559   -3958.4807 
  410000    133.41855   -5117.7381   -4850.8845   -5117.7381            0    6374.1422    17.906254    22.753991    19.181035    7815.0968    7870.9259     6011.443    5240.0577   -642.69522   -250.42417   -456.03134   -4124.3906 
  411000    128.90793   -5126.1692   -4868.3374   -5126.1692            0    6628.5664    17.965126    22.699905    19.151532    7810.1222    6424.7821    6748.4594    6712.4577   -108.12703    216.15687   -35.637041   -4113.3263 
  412000    126.78388   -5107.7109   -4854.1275   -5107.7109            0    6973.0584    17.970308    22.629426    19.211202    7812.3844    6866.2277     7126.307    6926.6404    32.924924    7.3671963    1114.7054   -4059.6478 
  413000    135.95574   -5128.4142    -4856.486   -5128.4142            0    7451.7333    17.843612    22.715903    19.139094    7757.7211    7132.4145    8058.4175    7164.3681   -618.00182   -1125.4041   -707.49779   -4013.4087 
  414000    128.16059   -5118.1467   -4861.8097   -5118.1467            0    6518.3751    17.911666    22.686542    19.236476    7816.8142     6648.125    6302.4898    6604.5104   -300.80957   -886.33643    820.21064   -4118.7135 
  415000    135.32374   -5127.5059   -4856.8417   -5127.5059            0    6486.6805    17.865657    22.806878    19.151072    7803.2929    5844.9513    6350.6319    7264.4583    190.91582  -0.94944288    -814.9663   -4118.6379 
  416000    136.32017   -5104.8492   -4832.1921   -5104.8492            0    7137.6556    17.923348    22.613914    19.266552    7809.0621    7408.1663    7166.9297    6837.8708   -1140.0388   -505.12878   -463.04036   -4019.3047 
  417000    131.76856   -5126.7202   -4863.1668   -5126.7202            0    7033.2926    17.891737    22.837159    19.096831    7802.8974    6111.7854    7152.4177    7835.6748    504.52433    316.90399    -271.2631   -4062.7974 
  418000    131.09969   -5102.4577   -4840.2421   -5102.4577            0    7783.8468    17.875438    22.566442    19.318993    7792.9928    8872.0273    7180.5066    7299.0065   -327.22385   -405.53263   -200.98124   -3955.5861 
  419000    135.98047   -5105.2654   -4833.2876   -5105.2654            0    7710.0034    17.833848    22.745683    19.197022    7787.1386    7292.1497    8298.5413    7539.3193    73.804343   -221.00729    153.58106   -3957.6823 
  420000    132.77327   -5113.6793   -4848.1163   -5113.6793            0    7803.2601    17.797039    22.744868    19.178131    7763.1406    8070.7566    7609.8343    7729.1896   -313.25706    321.26625    284.49312   -3964.6512 
  421000    132.92292   -5116.8183    -4850.956   -5116.8183            0    6250.2339    17.772725    22.830246    19.307761    7834.2337    6546.1626     6762.017    5442.5222    405.48117    247.13289    675.07441   -4136.8401 
  422000    129.87659   -5121.4921   -4861.7229   -5121.4921            0    7470.4295    17.826846    22.721838    19.204735    7779.0456      8824.68    7260.8031    6325.8054    260.92797     823.6114    942.16929   -4014.2072 
  423000    125.26241   -5114.2003     -4863.66   -5114.2003            0    8031.6107    17.922788    22.619325    19.167783    7770.6454    7730.0239    8252.4197    8112.3884    367.49831    1551.2455   -730.95469   -3953.4625 
  424000    135.12928   -5126.1997   -4855.9244   -5126.1997            0     7175.277     17.67868     22.79087    19.280742    7768.4521    7905.7261    7010.5267    6609.5781    373.04712    144.20255    977.83732   -4043.0021 
  425000    128.78765   -5113.5116   -4855.9203   -5113.5116            0    7221.3725    17.886939    22.574688     19.22738    7763.8633     6257.501    8576.9068    6829.7099    -588.4876    543.17562    151.37692   -4038.2589 
  426000    129.53804   -5116.2698   -4857.1777   -5116.2698            0    6784.6515     17.76702    22.994992    19.091353    7799.8193    6239.3899     6493.754    7620.8106    382.53245    150.44069    1957.0418   -4085.4075 
  427000    137.16611   -5121.5815   -4847.2323   -5121.5815            0    5295.7377    17.942981    22.644361    19.310429    7845.9691    5485.0059    4800.3657    5601.8415   -361.73099   -557.79058   -199.25459   -4241.2654 
  428000      135.802   -5115.6702   -4844.0494   -5115.6702            0    7363.1384    17.765762    22.693762    19.273413    7770.4997    8323.1141    7850.3052    5915.9958   -279.81537     313.6555    1619.8291   -4009.6234 
  429000    134.43055   -5114.3126   -4845.4349   -5114.3126            0    7004.6536    18.002965    22.803778    18.999992    7800.1736    7052.6881     6604.522    7356.7507   -1052.9556   -51.046057   -809.55839   -4048.6028 
  430000     134.7624   -5121.1006   -4851.5592   -5121.1006            0    6890.4451    17.956362    22.636129    19.274409     7834.325     7026.626    7045.7544    6598.9548    244.06703    151.99799     -619.649   -4064.2873 
  431000    133.58259   -5129.9426   -4862.7609   -5129.9426            0    6718.1799    17.869641     22.80374    19.179303     7815.463    5571.1893    7197.5034    7385.8469    213.69654    523.66111   -75.471223   -4097.0193 
  432000    127.10726   -5109.8604   -4855.6302   -5109.8604            0    5425.8985    17.899622    22.645487    19.380152    7855.6603    7445.0012    5484.1914    3348.5028   -185.20723    -773.2718    -1212.808   -4234.0027 
  433000    125.33724   -5119.4314   -4868.7414   -5119.4314            0    6168.1808     17.80633    22.952315    19.137175    7821.2961    7461.0886    4739.4566    6303.9972    -313.8631   -955.45901   -42.816104   -4165.1643 
  434000    129.00181    -5130.685   -4872.6655    -5130.685            0    7311.5768    17.846455    22.527994     19.42817    7810.9952     7214.025    8984.7637    5735.9417    69.148143    975.96176    1157.2323   -4039.7646 
  435000     139.4786   -5121.3506   -4842.3762   -5121.3506            0    7219.2662    17.824918    22.844308    19.163548    7803.3566    7355.5778    6820.4942    7481.7266      438.483   -60.813266   -450.85215   -4020.7952 
  436000    130.77977   -5107.0753   -4845.4996   -5107.0753            0    7295.4514    17.957758    22.669418    19.160208    7799.9659     7423.865    7277.7998    7184.6893   -1156.8548   -21.873493    53.160408   -4015.6091 
  437000    123.84103   -5110.2655   -4862.5681   -5110.2655            0    7712.7836    17.877119    22.675885    19.246447    7802.1153    7765.8244    7388.0523    7984.4742     737.6289    113.36823   -1014.1406   -3984.9625 
  438000    133.99659   -5113.1074   -4845.0977   -5113.1074            0    6583.6078    17.831125    22.832969    19.187383    7811.9036    6307.9282    7392.6135    6050.2817    128.32279    459.40705    60.007897   -4095.0364 
  439000    127.03342   -5124.2553   -4870.1728   -5124.2553            0    7004.7174     17.82557    22.698716     19.25526     7791.016    8554.0812    5775.6204    6684.4507   -309.94239   -1090.1677   -1393.7657   -4074.2689 
  440000    134.19988   -5099.1175   -4830.7012   -5099.1175            0    7655.5387    17.763669    22.801867    19.274241    7806.9316    9043.2063    7024.9016     6898.508   -1508.9636   -629.73144    488.48604   -3959.0715 
  441000    141.51143   -5128.6296   -4845.5892   -5128.6296            0     6887.473    17.810383    22.748678    19.215959    7785.5895    7097.0157    6408.7407    7156.6626    510.11841   -519.00059    671.28124   -4063.5522 
  442000    135.60992   -5113.8836    -4842.647   -5113.8836            0    8992.7114    17.876227    22.545434    19.223206    7747.4767    8673.4297    9705.6802    8599.0243   -48.967498    309.09933   -62.266597   -3826.5696 
  443000    130.93961   -5112.8221   -4850.9267   -5112.8221            0    8352.0398    17.719502    22.882866    19.113004    7749.8069    7997.0731    8189.3637    8869.6825   -974.03438    496.18939   -1696.6609   -3906.9542 
  444000    137.43276   -5124.2104   -4849.3279   -5124.2104            0    7777.7644    17.986131    22.593377    19.153148    7783.2155    7481.8862    7868.9317    7982.4752   -685.53897   -404.43254    947.06559   -3966.4722 
  445000    125.17525   -5097.2759   -4846.9099   -5097.2759            0    9132.2897    17.816965    22.739977    19.110939    7742.9376    10382.777    8159.6514    8854.4409   -10.748232   -614.17987    358.51737   -3815.6662 
  446000    131.71959   -5118.4186   -4854.9631   -5118.4186            0    7309.3252    17.889907    22.552661    19.278045    7778.0164    7646.7656    8582.6312    5698.5788    971.56389   -689.51115    1647.8592   -4025.8343 
  447000     126.5281   -5103.1748    -4850.103   -5103.1748            0    6972.7481    17.811095     22.83841    19.156311    7792.3485    8404.5512    6321.8845    6191.8085   -867.85806   -297.61621    -110.7655   -4057.6961 
  448000    134.65337   -5119.4174    -4850.094   -5119.4174            0     8153.568    17.909435    22.638567    19.152121    7765.1116    7864.1319    9152.3666    7444.2056    -841.7194    384.70241   -152.60555   -3926.7335 
  449000    133.77554   -5112.8375   -4845.2698   -5112.8375            0    7286.2076    17.853953    22.798472      19.1605    7799.1442    7391.8931    6431.4471    8035.2826   -1123.8289    73.408324   -725.27982   -4016.5182 
  450000    128.93457   -5114.8575   -4856.9724   -5114.8575            0    7124.4292    18.083676    22.765236    18.967138    7808.3753    7382.7787    7425.8973    6564.6117   -360.79359    251.28709   -11.461738   -4045.6628 
  451000    131.66183   -5120.2451   -4856.9051   -5120.2451            0     6192.076    17.952265    22.627327    19.224975    7809.4109    5471.9141    6789.1621    6315.1516   -2.0367824     362.8202   -449.28513   -4151.6757 
  452000     128.5773   -5113.6495    -4856.479   -5113.6495            0    6570.0964    17.727228    22.792964    19.348434    7817.8522    7255.4245    7631.2944    4823.5702    274.83546    1259.1524    34.974922   -4107.3872 
  453000    127.61781   -5120.8234    -4865.572   -5120.8234            0    7602.4767    17.891109    22.804279     19.08123    7785.0243    6105.2523     8513.354    8188.8238    522.97345    343.49777    303.60491   -4002.4126 
  454000    128.34605   -5127.8781   -4871.1702   -5127.8781            0    6754.1467    17.868999    22.694677    19.222087    7795.1551    7229.6468    6147.4424    6885.3509   -914.22198    452.33346    276.15927   -4103.3295 
  455000    129.45654   -5125.9933   -4867.0642   -5125.9933            0    7632.7945    17.790151    22.809329    19.189878    7786.8957    7353.7663    7412.9878    8131.6294    121.58818   -69.536318    556.88062   -4000.2544 
  456000    124.96494   -5111.6092   -4861.6639   -5111.6092            0    8645.6022     17.94877    22.458277    19.245112    7757.6749    8209.4972    9852.1941    7875.1152    286.93812   -131.52876    770.18834   -3883.5201 
  457000    130.23282   -5117.6102   -4857.1285   -5117.6102            0    6730.7162    17.803745    22.834211    19.210892    7809.8902    5588.8962    6400.4458    8202.8065    1101.2749   -1082.1003    274.56946   -4090.5051 
  458000    133.67396   -5116.1274    -4848.763   -5116.1274            0    6165.6944    17.985068    22.767692    19.171452    7850.2972    4966.8391    6700.2656    6829.9784   -1143.6742    209.01219    223.75093   -4142.8617 
  459000    128.05364    -5108.314   -4852.1909    -5108.314            0     7404.294    17.944368    22.692946    19.145524    7796.2595     6829.774    7890.9441     7492.164   -1621.5948    357.98459   -1194.0777   -4010.3194 
  460000    131.10028   -5108.1335   -4845.9168   -5108.1335            0    5983.9086    17.813766    22.841177     19.20923    7815.9934    7302.6135    5778.7649    4870.3474   -150.18346   -209.67079    340.84909   -4163.8215 
  461000    131.53591   -5108.7798   -4845.6917   -5108.7798            0    7849.1035    17.905578    22.647773    19.190008    7781.9602    8904.0451    6635.2338    8008.0315   -935.11388   -155.64646    1092.9133    -3954.882 
  462000    129.39484   -5109.6093   -4850.8036   -5109.6093            0    8078.3012    17.839844    22.936111    19.027198     7785.485    9606.7602    6830.1404    7798.0029   -744.58659    42.323884   -725.83036   -3933.5665 
  463000    129.09028   -5113.9348   -4855.7383   -5113.9348            0    6759.8468    17.902317    22.625921    19.245821    7795.6433    5676.7697    6553.4237    8049.3472   -66.099513   -57.946025    140.53237   -4087.2014 
  464000    128.89963   -5114.9742    -4857.159   -5114.9742            0     7785.542    17.828122    22.826516    19.169252    7801.0023    7342.7966    7813.2092    8200.6203     541.8222    534.77854   -558.55176   -3971.4008 
  465000    128.52778   -5136.8049   -4879.7334   -5136.8049            0    7119.6916    17.916315    22.499569    19.376133     7810.701    7960.4067     7620.987    5777.6812   -116.02273   0.72648743   -18.358893   -4068.7218 
  466000    128.34236   -5117.0669   -4860.3663   -5117.0669            0    6539.1677    17.797973    22.956457    19.154714    7826.2024    6731.0387    6345.7959    6540.6684    398.32679    897.42436    1105.2536   -4114.0045 
  467000     129.7023   -5132.7148   -4873.2942   -5132.7148            0    6278.9546    18.002988    22.502587    19.294467    7816.4548    6593.8096    6632.6894    5610.3648    91.379453   -302.22323   -653.17927   -4157.5249 
  468000    132.73278   -5102.9168   -4837.4348   -5102.9168            0    8570.8231     17.63752    23.191797     19.00919    7775.6289    8709.2538    7382.8416    9620.3741   -957.15229     1007.745    -326.8868   -3865.5072 
  469000    129.93754   -5121.5718   -4861.6806   -5121.5718            0    6816.7147    17.973077    22.599216    19.248892    7818.4657    7505.5259    7134.1461     5810.472    374.52241    239.37936   -384.01287   -4084.4095 
  470000    131.12961   -5135.4126   -4873.1372   -5135.4126            0    6791.9814    17.717397    23.062226    19.075321    7794.2264    8282.9406    5767.0507    6325.9531   -1021.4218   -647.24095   -784.33846   -4101.0872 
  471000    130.59897   -5122.7391    -4861.525   -5122.7391            0    6544.6263    17.988196    22.615827    19.205488    7813.1369    5995.9685    7570.6575    6067.2529    1062.6751   -169.13923    904.27476   -4115.7872 
  472000    122.73526   -5120.6191   -4875.1334   -5120.6191            0     7862.995     17.82889    22.904256    19.042088    7775.9785    7444.1664    8231.7887    7913.0299    62.526472    145.96698    887.05159    -3983.433 
  473000    128.41633   -5126.5093   -4869.6608   -5126.5093            0    7374.5595    17.949053     22.58647    19.189577    7779.5646    7617.2187    8149.7725    6356.6874   -213.76907    2.5338428   -1838.9505   -4032.9656 
  474000    136.78172   -5125.5131   -4851.9328   -5125.5131            0    7703.7349    17.837034    22.784301    19.131513    7775.1303     9551.715    6480.4882    7079.0015   -449.63748   -1126.2928   -489.45029   -3978.3886 
  475000    132.07687   -5123.2635   -4859.0934   -5123.2635            0    9094.7818    17.916287    22.533929      19.1953    7749.6101    7316.6833    10387.096    9580.5657   -2114.3882    1066.7903   -1253.5689   -3831.2002 
  476000    130.67395   -5116.1924   -4854.8284   -5116.1924            0    7447.2133    17.873959    22.814207     19.08573    7782.7826    6877.3984    7293.6592    8170.5821   -60.334725   -93.122401    263.53622   -4009.5406 
  477000    138.64645   -5098.2038   -4820.8938   -5098.2038            0    7722.1319     17.88212    22.519169    19.321907    7780.7481     6856.416    8185.8335    8124.1464    1037.0546   -232.05735    876.38947   -3944.6308 
  478000    132.84286   -5106.5829   -4840.8807   -5106.5829            0    7220.0403     17.78986    22.955641    19.094178    7797.6351    7079.6197    7194.7585    7385.7429    1446.0029    819.56744    1563.3186   -4019.8141 
  479000    136.84272   -5122.3243    -4848.622   -5122.3243            0    6875.9267    17.985051    22.562583    19.248402    7810.7936    7722.3522    6211.3662    6694.0616   -919.65913     61.72576    767.02711   -4065.3686 
  480000    135.84568   -5101.9954   -4830.2872   -5101.9954            0    7430.9401    17.791648    22.863089    19.179963    7801.8724    9372.8133    6008.9539    6911.0532     271.0348    424.37646   -539.67976   -3984.7777 
  481000    130.57435   -5104.7131   -4843.5483   -5104.7131            0     6816.525    17.911044    22.683198    19.248837    7820.4129    5992.8059    7816.1741     6640.595   -132.25363    996.44431   -86.645504   -4066.1052 
  482000    133.32448   -5120.2301   -4853.5646   -5120.2301            0    7305.3258    17.883957    22.834567    19.077602    7790.7665    6525.7342    7617.9883    7772.2548    388.63373    700.85627     1133.452   -4023.5311 
  483000    129.43722   -5122.8008   -4863.9104   -5122.8008            0     7754.796    17.791424    22.675272    19.298908    7785.6695    7625.6517    8275.1108    7363.6255   -319.95901    411.55805    394.32547   -3983.3843 
  484000    133.87552   -5109.7055   -4841.9379   -5109.7055            0    6962.3403    17.770151     22.80681    19.268243    7809.0422    8116.5348    6985.7963      5784.69   -139.56044    67.957439    765.09521   -4049.0188 
  485000    125.39831   -5117.7542   -4866.9421   -5117.7542            0    7155.3493    17.830486    22.531289    19.422792    7802.9868    7093.9057    7720.9799    6651.1623   -204.45056    176.83724    425.79145   -4052.6737 
  486000    130.31703   -5117.1021   -4856.4519   -5117.1021            0    7798.8174    17.846078    22.597803    19.291035    7779.7302    7380.3545    8584.9983    7431.0994   -830.46746    421.84781     847.5089   -3971.6029 
  487000     129.5654   -5124.7849   -4865.6381   -5124.7849            0    6410.5731    17.883104    22.773051    19.243811    7837.0966    4912.9648    7009.6291    7309.1253   -133.16276    203.08006    -80.88591   -4132.9351 
  488000    134.71093   -5114.6151   -4845.1766   -5114.6151            0    6887.2585    17.910148    22.625887    19.294425    7818.7372    6865.6466    7502.3117    6293.8173   -781.15662      501.337   -145.04033   -4059.8345 
  489000    130.44802   -5115.5931   -4854.6809   -5115.5931            0    6810.2252    17.905107     22.63574     19.26921    7809.7216    6714.2365    6574.0811    7142.3578    975.10214   -19.235624    2295.1962   -4079.0182 
  490000    131.06189   -5103.9203   -4841.7804   -5103.9203            0     8979.849     17.73475    22.725004    19.227358    7749.0537    10200.965    8618.8351    8119.7468    916.26314   -356.66401   -444.35351   -3826.9497 
  491000    130.52216   -5119.5613   -4858.5009   -5119.5613            0    8099.0989    17.803768    22.656226    19.200027     7744.642    8013.5799     8468.392    7815.3249   -500.97152    109.11228   -528.22516   -3943.7266 
  492000    130.56418   -5124.3249   -4863.1804   -5124.3249            0    6643.3505    17.964434    22.593275    19.243944    7810.6434    7134.4499    6399.2723    6396.3293    476.70801   -936.71753    790.06491   -4106.4349 
  493000    134.99861   -5108.7834   -4838.7695   -5108.7834            0    7202.4647    17.820545    22.823097    19.132931    7781.7462     7774.102    6981.4434    6851.8488   -124.71333   -871.55306    1593.4522   -4021.3705 
  494000    133.87353   -5113.0886    -4845.325   -5113.0886            0    7337.1793    17.991014    22.661361    19.152391    7808.4464    6592.7767    7477.3256    7941.4357    82.225304    433.62555   -26.972957   -4009.7803 
  495000      132.462   -5102.1681   -4837.2278   -5102.1681            0    6931.4665    17.829898    22.778707    19.214137    7803.6686    5545.6904    8000.7576    7247.9516   -1010.7462    751.78851    -601.7712    -4048.368 
  496000    131.05369   -5120.2832   -4858.1596   -5120.2832            0    6896.4741    17.845272    22.851232    19.182896    7822.5251    7230.1069    6573.7797    6885.5359    63.254347    40.570567   -1714.8452   -4071.3857 
  497000    130.59454    -5122.313   -4861.1078    -5122.313            0    5036.9298    17.898115    22.753735    19.280974    7852.1566    5508.8724    5369.9061    4232.0109   -1092.2983   -332.41379   -730.35487   -4284.3005 
  498000    138.63872   -5115.6568   -4838.3622   -5115.6568            0    7917.6117    17.864332    22.644452    19.261144    7791.6726    7970.5326    8227.0942    7555.2081   -54.576647    1421.3391    982.71958   -3938.6559 
  499000     129.6589   -5120.6403   -4861.3065   -5120.6403            0    6539.0705    17.863908    22.787431    19.176583    7806.2613    6332.2065    6768.2749    6516.7302    386.08645    157.18685   -1106.1207   -4116.8574 
  500000    135.57042   -5101.0646    -4829.907   -5101.0646            0    8751.1388    18.169154    22.383273    19.099978    7767.6766    7999.0647    8854.2214    9400.1302    171.80427   -6.9322278    264.80271   -3838.5466 
Loop time of 464.51 on 64 procs for 250000 steps with 1008 atoms

Performance: 93.001 ns/day, 0.258 hours/ns, 538.202 timesteps/s
195.5% CPU use with 32 MPI tasks x 2 OpenMP threads

MPI task timing breakdown:
Section |  min time  |  avg time  |  max time  |%varavg| %total
---------------------------------------------------------------
Pair    | 36.56      | 39.812     | 43.563     |  27.4 |  8.57
Bond    | 0.89547    | 1.0265     | 1.3872     |  10.5 |  0.22
Kspace  | 226.11     | 232.45     | 238.62     |  20.1 | 50.04
Neigh   | 1.4145     | 1.5538     | 1.646      |   5.7 |  0.33
Comm    | 78.658     | 82.501     | 87.565     |  28.6 | 17.76
Output  | 0.52293    | 0.52318    | 0.52444    |   0.0 |  0.11
Modify  | 91.156     | 93.138     | 94.518     |   8.3 | 20.05
Other   |            | 13.51      |            |       |  2.91

Nlocal:        31.5000 ave          39 max          27 min
Histogram: 4 1 6 4 7 7 2 0 0 1
Nghost:        2952.78 ave        2973 max        2940 min
Histogram: 5 3 5 3 5 5 3 2 0 1
Neighs:        10779.2 ave       13401 max        9214 min
Histogram: 4 1 6 4 12 1 3 0 0 1

Total # of neighbors = 344933
Ave neighs/atom = 342.19544
Ave special neighs/atom = 2.0000000
Neighbor list builds = 3571
Dangerous builds = 0

unfix		3
unfix		2
unfix		1

write_data	data.final.${pid}
write_data	data.final.1
System init for write_data ...
PPPM initialization ...
  extracting TIP4P info from pair style
  using 12-bit tables for long-range coulomb (../kspace.cpp:340)
  G vector (1/distance) = 0.37944315
  grid = 24 27 32
  stencil order = 5
  estimated absolute RMS force accuracy = 0.002450981
  estimated relative force accuracy = 7.3810564e-06
  using double precision FFTW3
  3d grid and FFT values/proc = 5355 672
Last active /omp style is kspace_style pppm/tip4p/omp
WARNING: Not all mixed pair coeffs generated from mixing. Use write_data with 'pair ij' option to store all pair coeffs. (../write_data.cpp:312)

write_restart   restart.lmp.${pid}
write_restart   restart.lmp.1
System init for write_restart ...
PPPM initialization ...
  extracting TIP4P info from pair style
  using 12-bit tables for long-range coulomb (../kspace.cpp:340)
  G vector (1/distance) = 0.37944315
  grid = 24 27 32
  stencil order = 5
  estimated absolute RMS force accuracy = 0.002450981
  estimated relative force accuracy = 7.3810564e-06
  using double precision FFTW3
  3d grid and FFT values/proc = 5355 672
Last active /omp style is kspace_style pppm/tip4p/omp
Total wall time: 0:07:44
