#include		in.partitions
include		in.temp
variable        temperature equal 90.10
variable	tempDamp equal 100.0
include		in.pressure
variable        pressure equal 2035.4
variable        pressureDamp equal 1000.0 # This is 1 ps
include		in.seed
variable        seed equal 745823

units		real
atom_style	full
box tilt large
read_restart	restart.lmp.${pid}
read_restart	restart.lmp.0
Reading restart file ...
  restart file = 30 Jul 2021, LAMMPS = 30 Jul 2021
  restoring atom style full from restart
  triclinic box = (-10.629527 -9.1383637 0.057987883) to (12.609527 12.128362 21.802011) with tilt (-9.2669545 1.8804762 3.0171004)
  2 by 2 by 4 MPI processor grid
  restoring pair style lj/cut/tip4p/long/omp from restart
  restoring bond style harmonic/omp from restart
  restoring angle style harmonic/omp from restart
  1296 atoms
  864 bonds
  432 angles
Finding 1-2 1-3 1-4 neighbors ...
  special bond factors lj:    0        0        0       
  special bond factors coul:  0        0        0       
     2 = max # of 1-2 neighbors
     1 = max # of 1-3 neighbors
     1 = max # of 1-4 neighbors
     2 = max # of special neighbors
  special bonds CPU = 0.001 seconds
  read_restart CPU = 0.006 seconds
include 	in.setup
variable	out_freq equal 1000
variable	out_freq2 equal 10000
variable	out_freq3 equal 1000

timestep	2.0

neigh_modify    delay 7 every 1

include		in.tip4p
# This is TIP4P/Ice

# create groups ###
group ox type 2
432 atoms in group ox
group hy type 1
864 atoms in group hy

# set charges - beside manually ###
set group ox charge -1.1794
Setting atom values ...
  432 settings made for charge
set group hy charge 0.5897
Setting atom values ...
  864 settings made for charge

# ### TIP3P Potential Parameters ###
pair_style lj/cut/tip4p/long/omp 2 1 1 1 0.1577 8.5
pair_coeff 1 1*2 0.000 0.000
pair_coeff 2 2 0.21084 3.1668
bond_style  harmonic
bond_coeff  1 450 0.9572
angle_style harmonic
angle_coeff 1 55 104.52
kspace_style pppm/tip4p/omp 1.0e-5
pair_modify tail yes

thermo          ${out_freq}
thermo          1000
thermo_style    custom step temp pe etotal epair emol press lx ly lz vol pxx pyy pzz pxy pxz pyz enthalpy

restart 	${out_freq3} restart.lmp.${pid} restart2.lmp.${pid}
restart 	1000 restart.lmp.${pid} restart2.lmp.${pid}
restart 	1000 restart.lmp.0 restart2.lmp.${pid}
restart 	1000 restart.lmp.0 restart2.lmp.0


include         in.dump
dump            myDump all atom ${out_freq2} dump.water.${pid}
dump            myDump all atom 10000 dump.water.${pid}
dump            myDump all atom 10000 dump.water.0
dump            myDump2 all dcd ${out_freq2} dump.dcd
dump            myDump2 all dcd 10000 dump.dcd
dump_modify     myDump append yes
dump_modify     myDump2 append yes


variable natoms 	equal  "count(all)"                        # NUMBER ATOMS
variable H      	equal  "enthalpy/v_natoms"                 # ENTHALPY-per-atom
variable Vol      	equal  "vol/v_natoms"                 # volume-per-atom
fix AVG all 		ave/time ${out_freq} 1 ${out_freq} v_Vol v_H file vol_enthalpy.dat
fix AVG all 		ave/time 1000 1 ${out_freq} v_Vol v_H file vol_enthalpy.dat
fix AVG all 		ave/time 1000 1 1000 v_Vol v_H file vol_enthalpy.dat


timer           timeout 10:00:00 every 1000
New timer settings: style=normal  mode=nosync  timeout=10:00:00

fix 		1 all shake 1e-6 200 0 b 1 a 1
       0 = # of size 2 clusters
       0 = # of size 3 clusters
       0 = # of size 4 clusters
     432 = # of frozen angles
  find clusters CPU = 0.000 seconds
fix             2 all nph tri ${pressure} ${pressure} ${pressureDamp}
fix             2 all nph tri 2035.4 ${pressure} ${pressureDamp}
fix             2 all nph tri 2035.4 2035.4 ${pressureDamp}
fix             2 all nph tri 2035.4 2035.4 1000
fix             3 all temp/csvr ${temperature} ${temperature} ${tempDamp} ${seed}
fix             3 all temp/csvr 90.1 ${temperature} ${tempDamp} ${seed}
fix             3 all temp/csvr 90.1 90.1 ${tempDamp} ${seed}
fix             3 all temp/csvr 90.1 90.1 100 ${seed}
fix             3 all temp/csvr 90.1 90.1 100 745823


run             250000
PPPM initialization ...
  extracting TIP4P info from pair style
  using 12-bit tables for long-range coulomb (../kspace.cpp:340)
  G vector (1/distance) = 0.36577259
  grid = 30 40 32
  stencil order = 5
  estimated absolute RMS force accuracy = 0.0049295935
  estimated relative force accuracy = 1.4845324e-05
  using double precision FFTW3
  3d grid and FFT values/proc = 11832 2400
Last active /omp style is kspace_style pppm/tip4p/omp
Neighbor list info ...
  update every 1 steps, delay 7 steps, check yes
  max neighbors/atom: 2000, page size: 100000
  master list distance cutoff = 10.8154
  ghost atom cutoff = 10.8154
  binsize = 5.4077, bins = 7 5 5
  1 neighbor lists, perpetual/occasional/extra = 1 0 0
  (1) pair lj/cut/tip4p/long/omp, perpetual
      attributes: half, newton on, omp
      pair build: half/bin/newton/tri/omp
      stencil: half/bin/3d/tri
      bin: standard
Per MPI rank memory allocation (min/avg/max) = 12.75 | 12.76 | 12.76 Mbytes
Step Temp PotEng TotEng E_pair E_mol Press Lx Ly Lz Volume Pxx Pyy Pzz Pxy Pxz Pyz Enthalpy 
30250000    92.019328   -6773.1026   -6536.3885   -6773.1026            0    2501.9883    23.239053    21.266725    21.744023      10746.3    2804.4033    3125.3069    1576.2546     137.7117   -199.28437   -618.82926   -6144.2674 
30251000    93.108825   -6796.2321   -6556.7153   -6796.2321            0    1634.7856    23.183669    21.388782    21.699759    10760.269    2122.4055    1820.1485    961.80289    81.240256    53.215871   -465.10006   -6300.1725 
30252000    91.203586   -6788.7626    -6554.147   -6788.7626            0    1910.0336    23.200327    21.353214    21.705014    10752.698    2218.3566    1670.0328    1841.7114    255.39288    -391.5702    266.94404   -6254.6211 
30253000    83.435107   -6770.2311   -6555.5993   -6770.2311            0    1617.7489     23.30032    21.313793    21.692535    10772.907    1993.7465    1753.5202      1105.98    209.16476   -905.25473   -453.00282   -6301.4319 
30254000    85.069535   -6785.3516   -6566.5154   -6785.3516            0    1945.3399    23.126871    21.534802    21.572391    10743.754    1884.8945    1332.5179    2618.6072    99.203301    51.980625    825.89167   -6261.7067 
30255000    87.549375   -6782.3406   -6557.1251   -6782.3406            0    2052.8872    23.308332    21.330777    21.589004    10733.725    1521.8363     2521.495    2115.3304   -359.61316   -442.93312   -27.655028   -6235.7654 
30256000     90.60272   -6779.5551   -6546.4852   -6779.5551            0    2590.6126    23.215835    21.378759    21.593642     10717.48    2073.5445    2388.4973     3309.796    12.423507    340.83604    16.089112   -6141.5635 
30257000     89.85938   -6792.2179   -6561.0602   -6792.2179            0    2187.7543    23.297166    21.298972    21.649733    10742.721    2145.5606    2247.2722    2170.4302    214.65217    798.10471   -321.81968   -6218.3013 
30258000    93.011222   -6793.5379   -6554.2722   -6793.5379            0    2184.5616    23.153778     21.39669    21.697099    10749.051    2560.2017    1851.7137    2141.7695    313.62078    417.91389   -4.0606014   -6211.8119 
30259000    92.583088   -6779.1842   -6541.0198   -6779.1842            0    1841.7034     23.28367    21.314205    21.677758    10758.084    1921.5813    1401.2298    2202.2992   -750.05122    114.98562   -423.80983   -6252.0646 
30260000    91.657769   -6785.9033   -6550.1193   -6785.9033            0    1784.0346    23.241536    21.373592    21.657242    10758.346    2256.4845    2001.8611    1093.7582    691.38993     751.4376   -957.31135   -6270.2052 
30261000    88.536729   -6780.9883   -6553.2329   -6780.9883            0    3019.4797    23.241214     21.35985    21.573303     10709.61     2627.213    3189.2595    3241.9666   -286.39759    -135.0758   -259.89104   -6081.6244 
30262000    90.526591    -6775.723   -6542.8488    -6775.723            0    1839.7199    23.261883    21.355342    21.646286    10753.128    1862.2783    1536.8253    2120.0562   -975.65376    272.50243    -130.1966   -6254.3378 
30263000    91.571258   -6780.2344   -6544.6729   -6780.2344            0    1241.7747     23.22831    21.436717    21.662419    10786.557    981.03138     1498.114    1246.1787    238.49597     162.6081    -102.6484   -6349.3282 
30264000    90.774327   -6800.3592   -6566.8478   -6800.3592            0     2251.901    23.262519    21.255464    21.716925    10738.056     1829.402    2723.0401    2203.2609   -591.76717    -6.663097    169.48292   -6214.1922 
30265000    90.855447    -6786.982   -6553.2619    -6786.982            0     2386.707     23.10299    21.427152    21.660699    10722.724    2438.6068    2348.9482     2372.566     124.8371    195.12794   -162.67247   -6180.0289 
30266000    89.649393   -6785.8582   -6555.2406   -6785.8582            0    2680.9074    23.273431     21.21094    21.716271    10720.267    1894.1289    3854.2218    2294.3716    584.38591    382.34749    776.12143   -6136.0965 
30267000    93.912223    -6793.975   -6552.3915    -6793.975            0    1842.6686    23.035382    21.529092    21.684299    10753.913    3054.7658    1106.3817    1366.8583    561.86069    199.69277    161.23467   -6263.3969 
30268000    87.668418   -6792.5064   -6566.9848   -6792.5064            0    1668.2734    23.313185    21.278253    21.691737    10760.486    1997.5134    1116.6549    1890.6519   -127.61544   -904.74301    858.05366   -6305.1815 
30269000    91.076652   -6793.0078   -6558.7187   -6793.0078            0    2025.8726    23.151366    21.429476    21.635842    10734.009    2376.1779    1912.7263    1788.7137    228.93384   -121.10339   -521.44419   -6241.5794 
30270000    90.857875   -6791.8043    -6558.078   -6791.8043            0    2777.8074    23.255453    21.260939    21.620057    10689.665    3101.0895    2956.8723    2275.4604   -283.20736   -198.07361   -454.65222   -6125.0239 
30271000    89.762614   -6797.6914   -6566.7825   -6797.6914            0    1527.1526    23.288844    21.368263    21.646909    10772.414    607.61958    2055.7424    1918.0958    212.09167    354.21288     103.0666   -6326.8598 
30272000    90.939498   -6787.3252   -6553.3889   -6787.3252            0    2020.5104    23.139689    21.460225    21.645444    10748.758    3108.4132    1023.6044    1929.5136   -610.98117   -428.30404   -75.468071   -6236.6545 
30273000     88.60768   -6787.1033   -6559.1654   -6787.1033            0    2164.9967    23.282786    21.253495    21.681024     10728.65    2322.2112    2553.5015    1619.2774    954.54785   -855.63962   -335.66852   -6220.4163 
30274000    95.557273   -6774.0946   -6528.2794   -6774.0946            0    2393.8117    23.132893    21.418134     21.68008    10741.686    2375.6316    1900.8132    2904.9903   -297.00839    669.96988    180.15911   -6153.2732 
30275000    92.786074   -6779.9185   -6541.2319   -6779.9185            0    1956.2445    23.320264    21.296155    21.650907    10752.532    1831.8916    1480.0512    2556.7906   -183.48694    -120.5426    409.19891   -6234.4641 
30276000    89.567334   -6770.5416    -6540.135   -6770.5416            0    2610.0843    23.205035     21.38038    21.600895    10716.905    2314.8303    2480.6274     3034.795    399.70135     -489.456     162.0355   -6132.1918 
30277000    87.188412   -6769.5991   -6545.3123   -6769.5991            0    2664.2833     23.24458    21.296664    21.667326     10726.02    2796.6026    2503.5823    2692.6648    168.50649    117.90615    434.98997   -6128.5438 
30278000    86.415195   -6788.2892   -6565.9914   -6788.2892            0    2043.8354    23.204871    21.306673    21.712311     10734.97     2983.258    2120.9319    1027.3162    -746.8017     225.9847   -83.355504   -6246.0116 
30279000    86.292287   -6785.6588   -6563.6771   -6785.6588            0    1573.1708    23.190644    21.427295     21.67756    10771.856    2087.4972    1094.9854    1537.0297   -676.20816    326.05378    123.41381   -6316.5375 
30280000    95.576063   -6787.3319   -6541.4683   -6787.3319            0    2201.5559    23.295529    21.270771    21.648777    10727.269    1565.1087    2534.6521     2504.907   -219.64251    419.47886    289.51398   -6197.0432 
30281000    94.553788   -6787.5562   -6544.3224   -6787.5562            0    2044.4497    23.108243    21.476596    21.642792    10741.023    2776.6382    1415.6385    1941.0723   -33.264799   -754.66114   -564.06348   -6224.0659 
30282000    92.155764   -6784.6617   -6547.5967   -6784.6617            0    1614.6898    23.364715    21.226025    21.715893    10769.781    1245.3341    2765.1057    833.62968    76.485971   -63.437355   -411.74778   -6293.9835 
30283000    90.371945   -6786.2567   -6553.7804   -6786.2567            0    2155.5972     23.08924    21.537531    21.633566    10758.053    2526.6075    1976.7709    1963.4132   -278.30872    786.86713   -186.32155   -6215.5776 
30284000    90.689704    -6793.389   -6560.0953    -6793.389            0    1992.4169    23.307978    21.264731    21.676377    10743.634    2504.6628    1890.5005    1582.0873   -251.34936    40.579693   -212.51342   -6247.9137 
30285000    88.803589   -6791.3422   -6562.9004   -6791.3422            0    2624.9191    23.084231    21.486746    21.600926    10714.167    3084.1748    2179.8752    2610.7072    645.96727   -311.87699    29.586147   -6152.7433 
30286000    90.321505   -6793.6582   -6561.3117   -6793.6582            0    2529.6411    23.327532    21.240429     21.65536    10729.945    2072.9818    2812.0999    2703.8417   -708.86351    395.40306     -63.5625   -6165.4602 
30287000    91.205744   -6788.0276   -6553.4063   -6788.0276            0    1565.3006    23.230517    21.358867     21.67381    10754.057    2118.1482     764.9934    1812.7603   -308.86048    85.759941    53.572462   -6307.9094 
30288000    90.348471   -6788.1495   -6555.7336   -6788.1495            0    1689.4651    23.161212    21.412685    21.703573    10763.751    1657.9513    1764.2211    1646.2228    738.69674    106.12697   -167.58011   -6290.5243 
30289000    93.149869   -6792.9648   -6553.3424   -6792.9648            0    2040.9451    23.310972    21.207376    21.746621    10750.758    1399.9768    3064.2036     1658.655    272.48675   -19.261407   -218.95555   -6233.3451 
30290000     91.28435   -6796.5231   -6561.6997   -6796.5231            0    1029.4121     23.07955    21.546764    21.678369    10780.428    1704.2932   -647.85229    2031.7954     87.01201    284.21161    644.85827    -6399.854 
30291000     89.51228    -6791.381   -6561.1161    -6791.381            0    2106.3918     23.35898    21.183143    21.708345     10741.65    1531.4724    3253.4654    1534.2375    72.003782   -115.68773   -597.13045   -6231.1373 
30292000    92.135152   -6794.1321     -6557.12   -6794.1321            0    2770.5184    23.140833     21.39465    21.634802    10711.174    3562.5203    1603.4136    3145.6212    255.50017   -59.170562    1291.4041   -6124.3332 
30293000    90.249008   -6781.6436   -6549.4836   -6781.6436            0     1717.118    23.294959     21.33635    21.655432    10763.386    1818.5047    1413.2946    1919.5548    419.83461   -447.82545    291.72368   -6279.9425 
30294000    93.070172   -6788.6822   -6549.2649   -6788.6822            0    2317.6691    23.199367    21.314721    21.703092    10731.919    2180.1801    2243.9581    2528.8692    281.02799    32.058552    301.60435   -6186.5171 
30295000    88.219412   -6806.8999   -6579.9608   -6806.8999            0    1768.3799    23.163549     21.34111    21.735694    10744.733    1746.5175    2208.3432    1350.2789   -363.77041    528.36756   -66.134024   -6302.8541 
30296000    90.887786     -6784.94   -6551.1367     -6784.94            0    1661.7333    23.252865    21.265744     21.77125    10765.654     1501.658    2340.3925    1143.1496    82.275384   -137.27498    575.68466   -6290.2345 
30297000    89.544375   -6793.9856   -6563.6382   -6793.9856            0    2067.7066    23.092425    21.420527    21.724744    10746.186    2390.3821    1586.7554    2225.9823    151.71401   -212.15992    81.980978   -6239.5829 
30298000    89.820215   -6780.1059   -6549.0489   -6780.1059            0    2257.4061    23.325246    21.292635    21.628515     10741.93    2110.5461    2267.9845    2393.6877   -100.33355   -215.25668   -410.94133   -6195.4036 
30299000    93.222766   -6787.7125   -6547.9026   -6787.7125            0    1923.1232    23.182008    21.473462    21.574108    10739.547    1600.2974    1497.6906    2671.3817   -204.56866     532.5611    163.93749   -6246.6929 
30300000    89.019693   -6778.9961   -6549.9984   -6778.9961            0    2693.3032    23.403555    21.225358    21.585823    10722.733     2461.981    2534.1139    3083.8146    31.021254   -875.48975   -77.043587   -6128.8195 
30301000    91.102467   -6778.8285    -6544.473   -6778.8285            0    2498.0167    23.173088    21.465022    21.575783    10732.029     2130.336    2592.2659    2771.4483    927.67611    182.85916   -472.39313   -6153.4943 
30302000    91.296098   -6800.5245   -6565.6708   -6800.5245            0    1909.4588    23.291468    21.298757    21.673267    10751.659    1819.8748    2357.5191    1550.9826    404.12654   -919.79112   -741.85762    -6266.264 
30303000    90.337968   -6795.9396   -6563.5507   -6795.9396            0    959.67591    23.239048    21.379878    21.727155    10795.093    1255.7439    788.71418    834.56962    55.782641    460.64947    -523.9015   -6412.4638 
30304000    89.007879   -6778.1965   -6549.2292   -6778.1965            0    1550.3319    23.214187    21.381723    21.714048     10777.97    1938.6765    1588.2575    1124.0618   -204.52093    180.38467   -465.70924   -6305.5393 
30305000    88.925836   -6781.1657   -6552.4094   -6781.1657            0    1927.6876    23.242604    21.332979    21.726265     10772.62     1822.102    2177.1437     1783.817     -630.907   -274.60817   -272.11173    -6249.555 
30306000    93.751866   -6783.9535   -6542.7826   -6783.9535            0    2301.1927    23.073866    21.487829    21.669234    10743.764    2367.7403    1610.1577    2925.6803    122.07206    -665.9018    461.32332   -6182.2161 
30307000    89.404798   -6783.6268   -6553.6385   -6783.6268            0    2677.9943    23.348409    21.208309    21.640831    10716.113    2267.1213    3121.6614    2645.2003   -814.73372   -331.64844   -95.032445   -6135.1121 
30308000    89.208756   -6786.1158   -6556.6317   -6786.1158            0    2623.5557    23.070311    21.526478     21.58013    10717.179    2835.2497    2136.2191    2899.1982   -39.810515    34.931487   -303.67602   -6146.5724 
30309000    88.542607   -6781.7814   -6554.0109   -6781.7814            0     1498.453    23.368364    21.308735    21.629578    10770.454    451.27563    2188.7116    1855.3717     254.4108   -150.06085    66.973126   -6318.6399 
30310000    87.052094   -6794.2143   -6570.2781   -6794.2143            0    1845.6477    23.218117    21.399358    21.662275    10762.962    1499.9223    1916.0574    2120.9634    277.55389     326.7396   -27.732148   -6280.5728 
30311000    86.605764   -6778.0685   -6555.2804   -6778.0685            0    2560.1723      23.1508    21.365778    21.705244     10736.17    2748.6339    2888.8352    2043.0479    751.41445    -467.0471   -421.54248   -6154.4188 
30312000    89.779186   -6782.0627   -6551.1112   -6782.0627            0    1496.7277    23.269552    21.253216    21.785905     10774.28    1408.5217    2009.8223    1071.8392   -597.37753   -494.86813    476.36443   -6315.9276 
30313000    93.165572   -6777.5293   -6537.8665   -6777.5293            0    2136.8815     23.09926    21.435264     21.69615    10742.604    2531.5443    1333.6797    2545.4204    238.94742   -76.044861   -233.72456   -6203.0816 
30314000     89.48391   -6788.6223   -6558.4304   -6788.6223            0    2587.2921    23.349712    21.178847     21.66978    10716.139    1799.0832     3626.167    2336.6261    -674.4294    228.58494    81.840905   -6154.0783 
30315000    85.128702   -6792.8898   -6573.9014   -6792.8898            0    1685.4555     23.17136    21.471781     21.58663    10740.004    1900.7775    946.54747    2209.0415   -325.48668    572.31252    362.70927   -6309.9052 
30316000    94.559624   -6785.6002   -6542.3514   -6785.6002            0    1455.0158    23.359481     21.32348    21.604652    10761.394    1391.5269    610.59311    2362.9275   -109.61323    444.38524    1014.0965   -6313.9955 
30317000    87.161111   -6791.4878   -6567.2711   -6791.4878            0    2092.8633    23.220985    21.376256    21.618322    10730.854     1698.219     2504.634    2075.7368     -274.456    403.95737   -97.635513   -6239.7412 
30318000     84.38185   -6779.8307   -6562.7636   -6779.8307            0    2511.9008    23.245277    21.287979    21.655081    10715.908    3065.2156    2387.9998    2082.4871   -18.274918    246.53204   -285.90771   -6170.2024 
30319000    89.076914   -6801.8754   -6572.7305   -6801.8754            0    1284.3129    23.225073    21.317143    21.736497     10761.57    953.70055    2013.2389     885.9993   -103.80374    861.71193   -6.8241161   -6371.1621 
30320000    89.306719   -6786.0655   -6556.3294   -6786.0655            0    2427.0601    23.137777    21.376144    21.694132    10729.841    2795.6214    2064.9602    2420.5987    90.863931     478.0797    554.20431    -6176.534 
30321000    92.618513   -6790.4028   -6552.1473   -6790.4028            0    1861.2924    23.269499    21.250869    21.766716    10763.577    1158.2783    2510.2153    1915.3835   -572.67482    212.54549    207.59609   -6259.9696 
30322000    93.861064   -6776.6597   -6535.2078   -6776.6597            0    1858.9738    23.128667    21.449713    21.695687    10763.301    2757.5346    1700.5419    1118.8448   -145.48478      201.864    409.01534   -6243.4015 
30323000    88.745613   -6792.9767   -6564.6841   -6792.9767            0    2571.0853    23.312996    21.247889    21.634105    10716.497    1859.0412    3206.4581    2647.7565    605.53943   -4.3947216   -28.381409   -6162.8514 
30324000    92.372851    -6794.588   -6556.9645    -6794.588            0    2211.3909    23.199326    21.438476    21.519632    10702.966    1478.9063    2562.5891    2592.6773    754.70881     338.4528   -39.918836   -6211.7846 
30325000    93.044929   -6794.8294    -6555.477   -6794.8294            0    1563.2071    23.359533    21.352459      21.5654    10756.465    824.51775    1325.5105     2539.593   -196.50423    273.83268    431.38324   -6310.2535 
30326000    89.172728   -6787.1928   -6557.8013   -6787.1928            0    1901.2201    23.286094    21.323392    21.640475    10745.329    1639.3301    2133.4331    1930.8972    75.324263   -424.23384     358.5525   -6259.8619 
30327000    87.184515   -6787.3522   -6563.0754   -6787.3522            0    2007.6838    23.136012    21.432985    21.681468    10751.272    2210.9643    1834.3162     1977.771    73.804716    133.84585    731.73495    -6248.278 
30328000    93.131956   -6779.9517   -6540.3755   -6779.9517            0    2143.9641    23.285373    21.194928    21.816473    10767.123    2127.6065    3006.1837    1298.1021    86.204089   -1063.4234   -443.90579   -6203.7143 
30329000    88.112334   -6790.7917   -6564.1281   -6790.7917            0    1912.4079    23.083221    21.451588     21.76407    10776.953    3633.5368    1061.3883    1042.2985   -568.76672   -359.92267   -365.86974   -6263.5534 
30330000    90.355274   -6775.3802   -6542.9467   -6775.3802            0    2027.6166    23.276927    21.236945    21.761166    10757.215    1927.8619    2756.2029    1398.7849   -139.14161    188.70286     240.0313   -6224.8483 
30331000     87.50013   -6787.2538   -6562.1651   -6787.2538            0    2213.1528     23.18663    21.368232    21.640762    10722.073     2350.492    1947.0326    2341.9337   -274.75683    321.11012    301.39274   -6216.0934 
30332000    90.453324   -6794.7516   -6562.0659   -6794.7516            0    2127.2986    23.260516    21.340247    21.620668    10732.178      2234.92    1730.9667     2416.009    336.23421     257.2346    534.77237   -6229.1058 
30333000    87.942899   -6785.1273   -6558.8995   -6785.1273            0    1064.3394    23.346915    21.309128    21.671504    10781.625    522.90558    1601.9168    1068.1957   -101.01532    766.85031    40.427532   -6391.5439 
30334000     91.13512   -6770.2849   -6535.8454   -6770.2849            0    2373.5039    23.152854    21.398086    21.656369    10729.145    2791.5145     1503.054    2825.9431   -13.163067    429.93015    493.51755   -6164.4547 
30335000    88.282072   -6784.2023   -6557.1021   -6784.2023            0    3408.3273    23.256875    21.175278    21.716364    10694.675    3375.5565    3815.9984    3033.4271     14.46299   -100.50992   -405.35238   -6025.5023 
30336000    91.104839   -6799.7813   -6565.4197   -6799.7813            0    701.06818    23.183804    21.433326    21.726077    10795.819    1058.4875    1052.6314   -7.9143629    418.56399    87.138335   -410.85361   -6455.0394 
30337000    88.800636   -6797.1673   -6568.7331   -6797.1673            0     1623.958    23.189969    21.326137    21.753401    10758.198    2187.4396    1925.8084    758.62586   -83.000691   -165.87789     20.03438   -6313.9385 
30338000    91.464279   -6787.4163     -6552.13   -6787.4163            0    2504.4927    23.120948    21.345672     21.74243    10730.589     2696.777     2109.017    2707.6842    115.93415    480.39652   -599.07119   -6160.1903 
30339000    87.473142   -6801.2687   -6576.2494   -6801.2687            0    1281.0346    23.249943    21.380989     21.65691    10765.797    1598.4309    1000.3558    1244.3171   -8.7033637   -333.07859   -230.38573   -6375.1166 
30340000    86.829339   -6784.2989   -6560.9357   -6784.2989            0    1826.9978    23.301598     21.35228    21.607104    10750.447    1829.9923    1416.2692    2234.7318   -372.53275    453.05082   -246.25252   -6274.4912 
30341000     90.00175   -6796.4946   -6564.9706   -6796.4946            0    2297.7959    23.229478    21.482097    21.496602    10727.189    1877.2702    1626.2821    3389.8353    -912.9541    400.01986   -529.34841   -6205.4918 
30342000    91.141078    -6789.632   -6555.1772    -6789.632            0    1982.2565    23.268527    21.306467    21.690974    10753.736    2286.0946    1883.8774    1776.7976    13.578552   -673.28811    94.761634   -6244.2955 
30343000    92.035887   -6794.6837    -6557.927   -6794.6837            0    1914.6643    23.142816    21.398058    21.721815    10756.889    2158.6295    1971.3483    1614.0149    91.304146    374.63434   -625.86739   -6257.5579 
30344000    92.873618   -6791.0584   -6552.1467   -6791.0584            0    2306.4192    23.229959     21.26567    21.744698    10741.895     2605.539    2548.2793    1765.4392   -205.94633    227.20534   -535.45005   -6190.8242 
30345000     89.28224   -6800.4675   -6570.7944   -6800.4675            0    2117.4512     23.16508    21.347707    21.730423    10746.158    2916.8538    1979.2908    1456.2089    476.10539   -394.18009    -430.5119   -6238.9439 
30346000    91.989199   -6783.1378   -6546.5012   -6783.1378            0    1562.9524    23.230103    21.432016    21.632391    10770.073    2026.8919    1047.7638    1614.2016   -153.06037    94.200596    183.03294   -6301.0075 
30347000    92.698898   -6795.6958   -6557.2335   -6795.6958            0    2325.1402    23.367912    21.323888    21.542033    10734.282    2137.3596    2065.6913    2772.3697   -400.70014   -311.92425   -571.30737   -6193.2363 
30348000    86.486672    -6794.906   -6572.4243    -6794.906            0    2100.0548    23.270381    21.461673    21.505459    10740.285    1665.1527    1445.0678    3189.9439     932.2734   -475.27895   -57.925843   -6243.4801 
30349000    89.785539   -6783.6825   -6552.7147   -6783.6825            0    2240.1001    23.273423    21.363619    21.617524    10748.331    1925.2136    2403.9202    2391.1666   -263.67067    758.96568   -379.51057   -6201.5714 
30350000    90.059512   -6797.9902   -6566.3176   -6797.9902            0    2181.4866    23.214817    21.371841    21.676915    10754.858    1387.1505    2892.4924    2264.8171    364.76066    143.17655   -966.36179   -6224.1545 
30351000    86.548315   -6793.0649   -6570.4246   -6793.0649            0    1432.0137    23.198174    21.380654    21.732305    10779.052    2036.8721    1745.6027    513.56642   -1059.0389   -631.96554   -108.45714     -6345.31 
30352000     91.44747   -6792.1908   -6556.9478   -6792.1908            0    2524.8874    23.184267     21.32898     21.70755    10734.314    2892.9636    2069.9951    2611.7035    29.541775   -120.78685    363.46095   -6161.6793 
30353000    89.874982   -6776.9703   -6545.7724   -6776.9703            0     1832.001    23.155434    21.418755    21.707884    10766.254    2144.0714    1550.7358    1801.1958    966.07745   -775.61576   -19.944307   -6258.1212 
30354000    88.593964   -6780.8743   -6552.9717   -6780.8743            0    1892.7411    23.286176    21.274646    21.710559    10755.523    1625.2378    2108.8508    1944.1347     344.1501    200.65307    684.22209   -6256.0797 
30355000    88.977269   -6779.3158   -6550.4272   -6779.3158            0    2272.0376    23.204211    21.365018    21.659648    10737.952    2051.0164    2584.2455    2180.8507   -553.74657    67.035759    -399.5203   -6194.6216 
30356000    86.635852   -6784.5094   -6561.6439   -6784.5094            0    2500.4616    23.223767    21.341212    21.655569    10733.005    1964.1061     2524.889    3012.3897    391.07995    1105.6965    656.22372    -6170.247 
30357000    89.459251   -6791.2643   -6561.1358   -6791.2643            0    1383.3561    23.244829    21.317784    21.722286    10764.007    1438.6297     2237.364    474.07453    10.814834    740.93486   -296.18756   -6343.9738 
30358000    90.434898   -6791.4529   -6558.8147   -6791.4529            0    1786.9037    23.210257    21.348475    21.724569    10764.602    1587.9734    2103.7626    1668.9753    534.96413   -302.38639    809.31151   -6278.2874 
30359000    88.778613   -6789.3183   -6560.9407   -6789.3183            0    2497.8232    23.178135    21.301936    21.726275    10727.112    2463.7283    2308.1214    2721.6198    789.09951    30.487119    1297.3111   -6170.1714 
30360000    87.888244   -6787.4172     -6561.33   -6787.4172            0      2669.23    23.199286    21.318845    21.671259    10718.214     3220.924    2495.4925    2291.2734   -379.38722    378.94076   -557.71227   -6144.0916 
30361000    90.629314   -6787.0954    -6553.957   -6787.0954            0    2366.2536    23.253341    21.350766    21.598381    10723.092    2379.0524    2560.1633    2159.5451    624.55298   -902.91818    122.19011   -6183.9097 
30362000    90.495145    -6785.866   -6553.0727    -6785.866            0    1964.9699     23.21867    21.373635    21.654521    10746.432    2029.1065     1733.185    2132.6182   -344.90077   -410.72473   -190.30556   -6245.1115 
30363000    92.214384   -6792.0325   -6554.8166   -6792.0325            0    1991.9098    23.166597     21.39012    21.701524    10753.893    2421.0205    2185.3377    1369.3714   -158.99469    410.05981   -325.73377   -6242.4164 
30364000    93.765018   -6788.1401   -6546.9353   -6788.1401            0    2197.6422    23.245716    21.273837    21.741183    10751.571    3008.3751    2875.1477    709.40371   -200.25093   -280.66573   -854.21966   -6202.3437 
30365000    88.593027    -6783.498   -6555.5979    -6783.498            0     1639.056    23.225057    21.380471    21.691344    10771.112    1568.4415    2305.2687    1043.4578    1018.9246    -197.5846   -739.66907   -6298.1257 
30366000    88.418338   -6799.4653   -6572.0145   -6799.4653            0    1927.8448     23.28247    21.365797    21.623379    10756.518    1423.3082    1712.0012     2648.225   -540.78791    508.84717    13.543143   -6269.5881 
30367000    86.910924   -6802.8091    -6579.236   -6802.8091            0    1932.2819    23.228969    21.416939    21.588963    10740.367    1866.2873      1448.31    2482.2483   -193.14095    68.734439   -641.96513   -6276.5687 
30368000     88.59638    -6794.201   -6566.2922    -6794.201            0    2128.0574    23.329587    21.320628    21.586363    10737.088    2160.3966    1827.4017    2396.3739    -1105.882   -145.40512   -615.77534   -6233.0609 
30369000    86.647994   -6782.0916   -6559.1949   -6782.0916            0    2068.7869    23.228199     21.39806    21.617257    10744.606    2012.5915    1795.6196    2398.1497   -171.30587   -111.95387    256.72149    -6235.018 
30370000    88.272581   -6785.8288    -6558.753   -6785.8288            0    2772.5194    23.232052    21.285359     21.67593    10718.803    2935.1945    3220.4734    2161.8904   -471.55375    12.279702    -1212.917   -6125.3451 
30371000    89.795286   -6791.8047   -6560.8118   -6791.8047            0    2386.8714    23.116745    21.362129    21.752229    10741.748     2996.325    2688.0954    1476.1938    372.62202    63.689582    40.721035   -6186.8908 
30372000     91.13096   -6778.1857   -6543.7569   -6778.1857            0    2135.4041    23.209407    21.339781    21.678402    10736.958    1949.9807    2174.0146    2282.2169    127.23812   -230.34743    -227.1222   -6209.3793 
30373000    87.605662   -6785.8507   -6560.4905   -6785.8507            0    2470.7791    23.257672    21.309621    21.638487    10724.298    2553.6061    2829.4119    2029.3195   -177.64895   -423.74605   -664.50678   -6174.0535 
30374000    91.419999   -6786.7369   -6551.5645   -6786.7369            0    1924.3015    23.196103    21.507214    21.573118    10762.474    2255.0496    539.49363    2978.3614   -540.90332    437.98105    32.209441   -6249.5268 
30375000    93.794036   -6789.9851   -6548.7057   -6789.9851            0    1365.8683    23.368645    21.346696     21.58477    10767.419    671.43794    1763.5989    1662.5682   -978.98341    69.211325   -349.30941   -6334.2209 
30376000    90.458994   -6791.1886   -6558.4883   -6791.1886            0    2494.6248     23.22881     21.43811    21.536332    10724.701    2133.9688    2337.8976    3012.0078    367.41864    189.89323    439.26085   -6168.3071 
30377000     92.52742   -6795.6982   -6557.6771   -6795.6982            0    1802.9305    23.248575    21.416089    21.609826    10759.393    1990.5285    1714.7207    1703.5423    295.82399   -1356.8652   -221.49556   -6274.7708 
30378000    89.774982   -6788.7628   -6557.8221   -6788.7628            0    1187.3863    23.305798    21.340482    21.693556    10789.441    603.12658    1763.0039    1196.0284   -307.65722    497.78743    133.58022   -6370.9834 
30379000    93.299038   -6781.8647   -6541.8586   -6781.8647            0    1622.6025    23.169194    21.432718    21.700675    10776.095    2281.4759    895.84683    1690.4847   -178.55819    -57.74088    260.69765   -6286.8531 
30380000    86.231772   -6792.1304   -6570.3044   -6792.1304            0    3498.5026    23.262222    21.146721    21.706782    10677.995    3597.6935    4614.7595    2283.0548    913.93023   -350.10428   -157.15771    -6025.491 
30381000    87.353528   -6796.4494   -6571.7378   -6796.4494            0    1996.6963    23.113898    21.445473      21.6654    10739.289     2619.233    1543.0524    1827.8035   -57.548171    245.46887    270.44994   -6259.0122 
30382000     92.00604   -6780.6879   -6544.0079   -6780.6879            0    1637.5572    23.304028    21.284242    21.729066    10777.803    1135.3449    2531.8876    1245.4392     490.4401    551.87167     370.8191   -6286.6114 
30383000    91.443588   -6785.6369   -6550.4038   -6785.6369            0    2245.7564    23.180106    21.379475     21.65971    10734.087    2552.0184    1891.4334    2293.8174    310.91547   -99.574144     -30.6066   -6198.8404 
30384000    85.205747   -6790.3197   -6571.1331   -6790.3197            0    2474.6942    23.233967    21.300417    21.658816      10718.8    2714.0461    2542.3993     2167.637    8.5979651    32.415573   -268.44114   -6184.2822 
30385000    87.801839   -6796.0916   -6570.2267   -6796.0916            0    1339.9978      23.2794    21.350188    21.639748    10755.378    449.78813    1923.0141    1647.1911    -96.41171    647.71568    400.78554   -6360.0398 
30386000    93.991392   -6789.6673   -6547.8802   -6789.6673            0     1609.996    23.195477    21.435499    21.651034    10765.037    2520.9995    392.83702    1916.1514     136.9285   -435.84116    1033.9446   -6295.1156 
30387000    88.404043   -6787.5254   -6560.1114   -6787.5254            0    2352.9675    23.319274    21.215128    21.701627    10736.259    2639.1974    1886.0147    2533.6903    80.757692   -645.84261    495.43539     -6191.69 
30388000    87.832981   -6790.2122   -6564.2672   -6790.2122            0    2053.6315     23.03626    21.530189    21.667184    10746.382    2654.6965     1642.476    1863.7219    623.20025    58.644897   -206.73207   -6242.4119 
30389000    90.113944   -6794.5432   -6562.7306   -6794.5432            0    1853.1469    23.313634    21.252594    21.707023    10755.292    1430.8863    2624.1758    1504.3786    157.05244    436.60338    23.751413   -6272.0554 
30390000    90.265316   -6789.7785   -6557.5765   -6789.7785            0     2920.827    23.097089    21.417709    21.627077    10698.628    3865.8336    1802.6848    3093.9628     582.3615   -145.45608    352.32732   -6101.8442 
30391000    86.582905   -6786.5351   -6563.8058   -6786.5351            0    1420.3768    23.377526    21.248454    21.647205    10752.952    495.98334    2034.7611    1730.3859    791.88848    316.46561   -77.323193   -6341.0612 
30392000    89.611655   -6787.8719   -6557.3514   -6787.8719            0    2104.3362     23.22993    21.332192    21.688141    10747.457    1165.3013    2731.3156    2416.3917    671.36777    1290.3719    1104.2713   -6227.5164 
30393000    90.665567   -6787.1751   -6553.9434   -6787.1751            0    2976.3914    23.128039    21.301617    21.708546    10695.033    3387.9079    3125.1774    2416.0887    65.225475    279.55402   -146.19731   -6089.6976 
30394000    88.433789   -6788.1612   -6560.6707   -6788.1612            0    1783.3096    23.210646    21.340682    21.726703     10761.91    2103.9159    1967.4629      1278.55   -656.68284      -50.282    -136.0828   -6280.7777 
30395000    91.209061   -6779.4261   -6544.7963   -6779.4261            0    1534.6214      23.1669    21.445429    21.700818    10781.489    2047.2925    821.86003    1734.7118   -579.97008   -19.886998    200.94522   -6303.4971 
30396000    93.810658   -6801.4169   -6560.0947   -6801.4169            0    2373.0074     23.27054    21.289429    21.648715    10725.131    1945.2656    3242.8438    1930.9127    -501.2903   -169.64479   -183.92255   -6188.9207 
30397000    89.042639    -6795.411   -6566.3543    -6795.411            0     1843.842    23.225531    21.399117    21.596539    10733.607    992.03385    1654.4054    2885.0868    46.324147    177.47661    461.47347   -6277.7217 
30398000    86.409748   -6788.9641   -6566.6802   -6788.9641            0     1998.438    23.264202    21.344866    21.655541    10753.519    2349.0385     1500.109    2146.1664   -580.28669   -686.10904   -29.697315   -6253.2671 
30399000    91.091734   -6779.2722   -6544.9443   -6779.2722            0    2195.5623    23.200559    21.393741    21.667186    10754.437     2742.408    1998.2043    1846.0745    385.52852   -648.56745   -123.94747    -6200.587 
30400000    90.683553   -6795.8487   -6562.5708   -6795.8487            0    1468.0513    23.198044    21.338565    21.791461    10787.055    2092.2212    1107.2396    1204.6931    162.73988    267.47477    -935.0326   -6331.6197 
30401000    90.473244   -6779.3104   -6546.5735   -6779.3104            0    1688.9914    23.225745    21.366999    21.685596     10761.79    1396.0266     1856.158    1814.7895    -201.1093   -312.82004   -14.226924   -6281.4868 
30402000    90.718648   -6801.5413   -6568.1731   -6801.5413            0    1957.0069    23.207956    21.416394    21.643788    10757.628     2063.712    1756.4705    2050.8381    277.82218   -506.77576   -759.55997   -6261.1404 
30403000    92.670514   -6783.3054   -6544.9161   -6783.3054            0    1358.7545    23.349239    21.341075    21.649223    10787.761    756.87101    1755.3617     1564.031    50.913863   -272.07813   -664.69416   -6331.1454 
30404000    86.421329   -6780.0502   -6557.7366   -6780.0502            0    2030.1296    23.213414    21.428619    21.609469    10749.229    2304.1686    1592.5654    2193.6549   -570.66146    302.98526   -90.863271   -6239.4804 
30405000    85.675172   -6786.2429   -6565.8487   -6786.2429            0    2632.2953    23.282757    21.317174    21.601163    10721.145    3063.6579    2483.2456    2349.9825    347.91694   -485.41323   -361.66565   -6154.2712 
30406000    86.082788   -6800.2895   -6578.8467   -6800.2895            0    1674.1061    23.269966    21.368238    21.623424    10751.992    2142.0341    1373.2015    1507.0828   -535.87055   -169.09011   -694.73912   -6316.3356 
30407000     87.58801   -6791.4095   -6566.0947   -6791.4095            0    1624.4062    23.230755    21.373285    21.700245    10774.553    2336.3285    1739.9564    796.93369    467.13036    -124.0483   -729.76688   -6310.8423 
30408000    90.098402   -6797.1527     -6565.38   -6797.1527            0    1953.5083    23.229773    21.301686    21.734676    10755.042    2980.8668    1730.0162    1149.6419    -176.2408   -459.75166   -186.92249   -6258.9698 
30409000    91.355223   -6791.7131   -6556.7074   -6791.7131            0    1569.2162    23.156689    21.441454    21.657419    10753.192    1788.9244    1399.3213     1519.403   -517.10785    538.84802   -175.87197   -6310.6162 
30410000    90.387007   -6794.6022   -6562.0871   -6794.6022            0    2438.4587    23.264219    21.289663     21.65205    10723.987     2342.616    2668.9409    2303.8193   -275.91185   -131.07431   -233.03955   -6180.7162 
30411000    88.298897   -6797.5291   -6570.3855   -6797.5291            0    1566.8394    23.210595    21.469337    21.586337    10756.819    2146.9835    567.86836    1985.6663   -300.97798   -312.49736    740.08856   -6324.5842 
30412000    87.525612   -6780.4945   -6555.3402   -6780.4945            0    1760.1195    23.293209    21.338706    21.642444     10757.31    618.03876      2494.53    2167.7897    800.86983   -436.29976   -338.70936    -6279.205 
30413000    93.219633   -6797.5209    -6557.719   -6797.5209            0    1857.1159    23.203595    21.416151    21.580563    10724.066    1397.4861    1564.6089    2609.2528   -84.986389   -17.783653    167.62778    -6267.267 
30414000    89.950849   -6797.2788   -6565.8857   -6797.2788            0    1824.4987    23.346248    21.269571    21.625883     10738.65    1303.9298    1829.5631    2340.0033    581.64168    83.719515    1062.8542    -6280.147 
30415000    90.493034   -6791.2155   -6558.4277   -6791.2155            0    1270.5932     23.24448    21.386126    21.683768    10779.204    1395.8704    1078.5203    1337.3889    1670.8168   -31.623981   -254.92281   -6358.6858 
30416000    91.691616   -6781.8782   -6546.0071   -6781.8782            0    2247.1445    23.220252    21.341396    21.690152    10748.611     2935.029    1960.6822    1845.7224   -132.05027   -422.85354    3.3066313   -6193.7504 
30417000    89.848947   -6789.3493   -6558.2184   -6789.3493            0    3040.3075    23.224964    21.283103     21.67147    10712.192    2322.6424    4232.0337    2566.2465    370.13735    183.96818   -153.94022   -6083.2423 
30418000    93.483992   -6786.0038   -6545.5219   -6786.0038            0    1684.7052    23.163179    21.462779    21.624213    10750.395    3069.0127    319.67673    1665.4261   -155.03133    8.9777279    -430.2237    -6281.388 
30419000    93.433247   -6779.7452   -6539.3938   -6779.7452            0    1578.0855    23.341214    21.284675    21.686847    10774.246    1289.4264    1398.9623    2045.8679   -250.15891   -267.57727    169.25603   -6291.4271 
30420000    89.788151   -6790.0768   -6559.1023   -6790.0768            0    1980.6017    23.099478    21.466118    21.664163    10742.308    3014.5197    1005.9157    1921.3698   -397.04182    -607.8346   -289.80283   -6248.8102 
30421000    89.226183   -6786.6733   -6557.1443   -6786.6733            0     2228.283    23.259706    21.311475     21.66833    10740.962     1654.644    2721.7871    2308.4178    403.68191   -175.77275    327.60953   -6208.0929 
30422000    88.887749   -6780.6617   -6552.0034   -6780.6617            0    3265.7588    23.249057    21.349975    21.552766    10698.077    3113.6749     2999.413    3684.1886    127.84548     258.4045    770.16142   -6042.4781 
30423000    88.223171   -6791.6136   -6564.6648   -6791.6136            0    2187.7312    23.200683    21.349982    21.663569    10730.706    2338.9853     1953.812    2270.3962     333.7195    263.27854   -315.94517   -6222.2929 
30424000    85.687296   -6785.3693   -6564.9439   -6785.3693            0    1142.4371     23.30465     21.29899    21.736609    10789.303    1044.1955    1162.8357    1220.2803    624.66522   -672.58202   -646.03263   -6385.1804 
30425000    91.602978   -6790.3172   -6554.6741   -6790.3172            0    2280.3767    23.114163    21.394386    21.719668    10740.665    2863.3831    2097.8608    1879.8863    228.35724    134.42562    97.202653   -6197.4723 
30426000    88.476196   -6794.0477   -6566.4481   -6794.0477            0    2349.7058    23.267434    21.226294    21.719908    10727.058     2978.511    2123.5251    1947.0812    5.2033607    66.776311    100.29569   -6198.8527 
30427000    92.862755   -6783.3072   -6544.4234   -6783.3072            0    1467.9598    23.213479    21.393027     21.66531    10759.135    1706.2162    1080.0076    1617.6556   -108.52189   -140.15616   -53.228923   -6314.0844 
30428000    89.753038   -6781.7328   -6550.8486   -6781.7328            0    2035.4991    23.319157    21.354118    21.584936    10748.435    1510.2749    1844.8395    2751.3829   -613.16828   -155.47147    499.62464   -6231.7741 
30429000      87.0927   -6780.1732   -6556.1325   -6780.1732            0    2733.8978    23.186537    21.396535    21.580704    10706.436    2928.2141    2200.5054    3072.9739   -594.97042    323.75882    700.77493   -6129.2552 
30430000    92.530457   -6792.2262   -6554.1972   -6792.2262            0    1903.1076    23.221593    21.344094    21.664563    10737.908     2151.377    2029.8021    1528.1437   -627.57997      318.453    197.52267    -6256.168 
30431000    88.235885   -6786.2015   -6559.2201   -6786.2015            0    1735.3021     23.25322    21.331284     21.65809    10742.869    1762.7019      1327.27    2115.9343    595.74752   -242.38578   -19.871671   -6287.3439 
30432000    92.449835   -6787.3227   -6549.5011   -6787.3227            0    2335.9999    23.247227    21.336719    21.650327    10738.985    1965.0657    3155.6282    1887.3058    357.21535    412.29291   -209.10728   -6183.6436 
30433000    87.927499   -6793.2341   -6567.0459   -6793.2341            0    2464.3053     23.20729    21.288413    21.687704    10714.731    1395.4517    3186.5408    2810.9234    903.54659    1267.7044    678.79948   -6181.9653 
30434000    89.424665   -6795.2843   -6565.2448   -6795.2843            0    1899.5015     23.18225    21.347603    21.718315    10748.079     2347.795    1938.8045     1411.905   -184.80614    170.02474   -176.90413   -6267.4985 
30435000    94.803533   -6793.1636   -6549.2873   -6793.1636            0    1711.4882    23.205806    21.308234    21.769124    10764.282    1954.4802    1571.0518    1608.9324    193.98032   -152.58273    1029.1894   -6280.6076 
30436000    93.142265   -6789.8249   -6550.2221   -6789.8249            0      2284.47    23.236398     21.34306    21.653759    10738.875    2456.1822    2058.8042    2338.4236    605.78786   -114.17293    690.60064   -6192.4387 
30437000    87.751888   -6796.1559   -6570.4195   -6796.1559            0    1365.4328    23.265379    21.396334    21.612323    10758.481    936.54538    1288.6732    1871.0799    310.94175   -105.40254   -101.25785   -6356.1811 
30438000      90.4864   -6776.5727   -6543.8019   -6776.5727            0    2126.0859    23.327545    21.368065    21.564739    10749.256    1693.9413    1476.6226    3207.6939   -370.77406     144.0101    708.16516   -6210.5021 
30439000     85.44804   -6793.5256   -6573.7158   -6793.5256            0    2804.9533    23.185803    21.366307    21.628781    10714.789    2779.4309    2806.1055    2829.3234    124.51453    109.35351   -225.19711    -6135.402 
30440000    94.612678   -6778.7298   -6535.3444   -6778.7298            0    1553.4942    23.290197    21.292318    21.719216    10770.609    1417.7171    2616.4033    626.36205    388.65399   -447.24038   -347.91788   -6291.3242 
30441000     91.77048   -6781.4445   -6545.3705   -6781.4445            0    2287.8824    23.027967    21.463531    21.761917    10756.077     3478.311    1846.6318    1538.7046   -369.94422   -333.63216   -17.564187   -6186.4787 
30442000    90.729627   -6789.0624    -6555.666   -6789.0624            0    1648.5761    23.223553    21.324395    21.748542    10770.492    1888.1789    2283.3188    774.23061   -669.05234   -93.883854   -320.21124   -6296.7133 
30443000    90.480725   -6795.1813   -6562.4251   -6795.1813            0    1866.1398    23.138812    21.413968    21.721276    10762.757    2252.8844    1428.9918    1916.5432    257.04225   -40.791296   -389.88202   -6269.5088 
30444000    89.066557   -6785.4948   -6556.3765   -6785.4948            0    1930.7609    23.327163    21.312098    21.633365    10755.044    1229.6879     2697.809    1864.7857   -178.51533     127.0476   -663.81316   -6253.5341 
30445000    94.070087   -6790.7432   -6548.7537   -6790.7432            0    2723.3023    23.270338    21.378385    21.562595    10727.008    2751.2488    2259.0161    3159.6421    197.99339    76.873861   -424.80644   -6122.7137 
30446000    86.711821   -6786.5248   -6563.4639   -6786.5248            0    2053.2238    23.249114    21.379679    21.616376    10744.606    1415.3813    1795.6144    2948.6756   -130.07391    533.83689   -312.82271   -6241.7257 
30447000    89.190162   -6781.6955   -6552.2592   -6781.6955            0    2556.4418    23.268885    21.350044    21.549445    10705.586    2260.3706    2833.2793    2575.6755   -536.77897    479.09504   -822.18976    -6153.122 
30448000    91.474194   -6782.8406   -6547.5288   -6782.8406            0    3257.2195    23.203652    21.359104    21.611122    10710.671    3718.3131    3178.0809    2875.2646   -381.75873    238.39192   -108.15756   -6038.7376 
30449000    92.942706   -6789.0039   -6549.9145   -6789.0039            0    1521.9747    23.223404    21.361594    21.721309    10775.701    1174.6532    2231.2818    1159.9892    667.25145   -1005.5408   -602.87466   -6310.7323 
30450000    85.864894   -6782.7699   -6561.8877   -6782.7699            0    1753.0098    23.148437    21.432415    21.685932    10758.974    2149.6965    1348.5023    1760.8305    142.28776   -186.86764    457.38151   -6286.8254 
30451000    91.701861   -6791.7137   -6555.8162   -6791.7137            0    2181.4234    23.194765    21.361974     21.66462    10734.515    2228.3205    1743.7199    2572.2297   -280.55783    -86.92231   -308.90004   -6214.3102 
30452000     90.41037   -6792.7903   -6560.2152   -6792.7903            0    2325.2166    23.197065    21.292927    21.706035    10721.336    2291.2142    2484.6819    2199.7537   -79.756444    25.119357    693.92023    -6196.645 
30453000    88.102874   -6802.7812   -6576.1419   -6802.7812            0    1548.9839     23.21981    21.354734    21.685913    10753.022    1033.0739    1799.5619    1814.3159    1123.4399   -286.78552    222.18935   -6333.2275 
30454000    88.405969   -6789.7502   -6562.3313   -6789.7502            0    1994.7844    23.245135    21.297691     21.70872    10747.286    1615.6905    3263.9623    1104.7003    1174.9906    206.09278   -436.03286   -6249.6725 
30455000    87.821156   -6790.3945   -6564.4799   -6790.3945            0    1953.9927    23.209707    21.383072    21.629627    10734.672    1967.7675    2073.6815    1820.5292    183.71639    337.41492    101.55738   -6258.5742 
30456000    88.231035   -6797.7315   -6570.7625   -6797.7315            0    1324.9956    23.272727    21.346352    21.694836    10777.731    994.42918     1758.208    1222.3497   -936.13766    116.60986    235.21887   -6362.4969 
30457000    87.476947   -6793.4817   -6568.4525   -6793.4817            0     1949.084    23.173974    21.391376    21.671065    10742.849    2189.4173    1225.5057    2432.3291   -567.38721    475.16349    407.34352   -6263.0828 
30458000    91.223723   -6790.9462   -6556.2787   -6790.9462            0    2071.1823    23.200419    21.375139    21.677249    10750.012    1254.0794    2065.4399    2894.0276    305.98203    834.67814    755.06148   -6231.5631 
30459000    93.053821   -6790.0581   -6550.6828   -6790.0581            0    1849.9979    23.279234     21.28997    21.698325    10753.998     1816.052      2263.57    1470.3717   -1041.3677    626.11906   -67.059848   -6260.5365 
30460000    90.070224   -6790.0197   -6558.3195   -6790.0197            0    2325.4545    23.149971    21.329614    21.734943    10732.279    2849.2039    2254.6609    1872.4986    444.78976   -180.37615    144.42031    -6194.341 
30461000    88.691586   -6779.6892   -6551.5355   -6779.6892            0    2278.6077    23.223535    21.295456    21.715313    10739.433    1938.5239    2935.8303    1961.4689    946.30629    144.22583    702.43466   -6194.6517 
30462000    85.558515   -6784.3969   -6564.3029   -6784.3969            0    1618.7706    23.254161    21.378618    21.673657    10774.881    1466.9484    1456.2962     1933.067    317.25002    286.78882    124.69381   -6309.9283 
30463000    88.608705   -6788.2136   -6560.2731   -6788.2136            0    1990.5227    23.256334    21.388097    21.600797    10744.425    2429.6602    1288.6059     2253.302   -231.76926    2.1199695    250.57116   -6248.3654 
30464000    91.390675   -6790.4395   -6555.3426   -6790.4395            0    2435.8454    23.243249    21.273937    21.655509    10708.117    2139.4313    2502.0826    2666.0223   -362.63867    776.43628    632.34766   -6174.9441 
30465000    85.192988   -6791.7427   -6572.5889   -6791.7427            0    1310.0931    23.232889    21.421641    21.638178    10769.031    1870.5912    950.82596    1108.8621    455.08272    100.93731    147.22273   -6366.8319 
30466000    87.673812   -6786.1399   -6560.6044   -6786.1399            0    1946.4991    23.243868    21.317685    21.721357    10763.051    2449.3211    2450.0943    940.08177    474.69832   -478.04471   -620.70654   -6255.0662 
30467000     91.07514   -6792.5832   -6558.2979   -6792.5832            0    3179.4741    23.080432    21.303925     21.74982    10694.469    3502.6881    3582.7111     2453.023   -552.41589   -455.10296    73.719865   -6062.4022 
30468000    97.098446   -6801.8584   -6552.0786   -6801.8584            0    1360.9307    23.176763    21.413791    21.699205    10769.366    1523.5075     637.8982    1921.3864   -126.24663    778.29832   -165.52738   -6338.3306 
30469000    91.430846   -6796.1259   -6560.9257   -6796.1259            0    1415.4238    23.285612    21.309172    21.721859    10778.324    1789.9365    1620.2076    836.12743   -498.45283    725.54588   -33.655899   -6338.4341 
30470000    85.966817   -6792.6227   -6571.4783   -6792.6227            0    3081.0341    23.190625    21.332297    21.612806    10692.056    2543.4243    3182.1418    3517.5362     129.9933    853.22355    116.38757   -6091.0444 
30471000    88.019492   -6790.7954   -6564.3707   -6790.7954            0    2266.8112    23.300451    21.295527    21.615381    10725.452    1479.7054    3398.5881      1922.14    315.22154   -325.33812   -270.60559   -6209.7967 
30472000    89.251212    -6794.488   -6564.8947    -6794.488            0    1432.7217     23.18129    21.516626    21.564987    10756.252     1349.337     682.9178    2265.9103    252.89475    378.33926    427.93413   -6340.1452 
30473000    88.124172   -6791.0108   -6564.3167   -6791.0108            0    2446.5289    23.238313    21.323881    21.643754    10725.151    2494.4237    2160.5445    2684.6185   -230.93219   -725.45245    394.72045   -6181.6421 
30474000    90.346687   -6779.5801   -6547.1688   -6779.5801            0    2006.5762      23.1508    21.396666    21.733194    10765.536     2704.277    1611.5663    1703.8854    489.10219    -1016.748    8.4512895   -6232.1277 
30475000    85.619075   -6785.9609    -6565.711   -6785.9609            0    1585.6846    23.153593    21.351923    21.792066    10773.425    2581.3669    1499.8188    675.86797   -146.41741   -522.00078   -536.59633   -6316.5693 
30476000    86.910494   -6783.1216   -6559.5496   -6783.1216            0    1548.1457     23.23165    21.313717    21.725233     10757.31    2044.8747      932.496    1667.0663   -218.55503     183.6639    225.89241   -6316.6698 
30477000    94.370745   -6780.0141   -6537.2511   -6780.0141            0    2895.2081    23.186772    21.374798    21.603767    10707.098    2397.2051    3392.0691      2896.35    186.17351    845.62435   -258.44341   -6085.1584 
30478000    92.739504   -6780.2394   -6541.6727   -6780.2394            0    2593.4338    23.345707    21.288959    21.565238    10718.048    1433.6255    2934.3404    3412.3354    125.64385    82.874719    779.51736   -6136.2885 
30479000    87.371535   -6780.2209   -6555.4629   -6780.2209            0     1188.133    23.228631    21.483882    21.617927    10788.235    1133.8327    1088.7559    1341.8104    4.8627256    167.93412    149.42335   -6368.5276 
30480000    88.779003   -6773.4847   -6545.1061   -6773.4847            0    2255.4903    23.239531    21.302375    21.705864    10745.644    1852.9892    2462.3463    2451.1354    151.38184    27.955296    343.26326   -6191.6388 
30481000    93.531559   -6787.2813   -6546.6771   -6787.2813            0    1938.5882    23.156152    21.378207    21.725657    10755.004    2247.4016    2169.3526    1399.0104     -495.103    594.33181   -140.27309   -6242.6081 
30482000    94.355605   -6797.1803   -6554.4562   -6797.1803            0    1713.4357    23.196988    21.386959    21.707256    10769.252    1974.4686    1332.7468    1833.0919   -524.13961   -145.78558    64.556137   -6285.3466 
30483000    86.612718   -6787.9639    -6565.158   -6787.9639            0    2446.7239    23.241265    21.306573    21.674317    10732.942    2559.2253    2186.2404    2594.7059   -65.531866   -261.09065   -404.11195   -6182.1748 
30484000     92.81184   -6795.8284   -6557.0756   -6795.8284            0    2458.1627    23.152385    21.393766    21.622023    10709.749    3003.3089    2548.6433    1822.5358   -277.50331    265.17109   -695.01766   -6173.1335 
30485000    90.106778   -6790.8981   -6559.1039   -6790.8981            0    2248.4077    23.331219    21.296496    21.627998    10746.373    1678.4461    2470.8984    2595.8786   -361.00887    478.94171   -814.71816   -6206.7226 
30486000    88.822847   -6790.1736   -6561.6823   -6790.1736            0    2012.5603    23.266497    21.405353    21.569591    10742.251    977.73059     2077.507    2982.4434    389.45621    518.47186     104.1288   -6246.3851 
30487000    89.415179   -6796.1453   -6566.1302   -6796.1453            0      1799.82    23.267984    21.322724    21.647553    10740.148    1628.7266    1661.2065    2109.5269    285.15072   -367.28575    52.126128   -6284.2171 
30488000    91.517813   -6782.4164   -6546.9924   -6782.4164            0     2087.957    23.186706    21.329629    21.759593    10761.508     2101.428    2390.6104    1771.8325    537.27667    87.150174    293.90937   -6219.2968 
30489000    87.423891   -6788.5423   -6563.6497   -6788.5423            0    1264.9056    23.217343    21.353375    21.736545    10776.297    1547.4548    1561.3503    685.91189    251.59854   -484.75766    104.59195   -6364.8555 
30490000    91.352667   -6789.4415   -6554.4424   -6789.4415            0    1471.3211    23.228483    21.337414    21.725386    10767.878    1161.6208    1607.0131    1645.3295   -1083.8522   -307.97307    125.86297   -6323.3884 
30491000    88.795114   -6787.6978   -6559.2778   -6787.6978            0    3292.3979     23.19396    21.400165    21.544547    10693.734    3418.6048    2527.5464    3931.0425   -287.96339   -160.13173    1130.7339   -6045.8048 
30492000    90.912492   -6796.3394   -6562.4726   -6796.3394            0    2023.9463     23.29918    21.359998    21.572216    10735.854    1787.0292    1693.7426    2591.0669   -487.68139    443.80928    106.05041   -6245.5804 
30493000    91.093294   -6787.5993   -6553.2674   -6787.5993            0    2300.0908    23.186574    21.385853    21.625187    10723.166      2934.28    1870.3361    2095.6564   -592.97348    263.66113   -43.906214   -6193.5645 
30494000     89.41909    -6787.728   -6557.7028    -6787.728            0    1918.5797    23.213604    21.338085    21.688426    10743.012    1893.2414    1962.0083    1900.4895   -21.445744     598.5561    248.62149   -6257.1078 
30495000    94.295408   -6783.5999   -6541.0307   -6783.5999            0    1659.9802    23.226673    21.302101    21.766141    10769.385    2297.6631    1379.6329    1302.6446    695.42254    541.02032   -208.07436   -6280.3135 
30496000    87.391535    -6786.599   -6561.7896    -6786.599            0    2070.1834    23.188401    21.333979    21.725592    10747.669    1977.8205    2065.1169    2167.6128   -442.68095    1057.4399    477.06614   -6237.3013 
30497000    89.444676   -6786.4558   -6556.3648   -6786.4558            0    2914.9087    23.225043    21.276502    21.662052    10704.252    2448.2384    3806.8712    2489.6166    327.01397    8.9801594    30.277149   -6101.3168 
30498000    91.762036   -6790.7326   -6554.6803   -6790.7326            0    1611.7704    23.187067    21.402464    21.680754    10759.299    2288.1848    1531.6332    1015.4931    233.79616   -195.72589    402.12609   -6301.7721 
30499000    87.631127   -6788.8871   -6563.4613   -6788.8871            0    1791.5051    23.246251    21.307201    21.740524    10768.354    844.58968    2798.5915    1731.3342    25.422979   -284.55239    319.55011   -6282.1137 
30500000    93.425286   -6779.9689    -6539.638   -6779.9689            0    1918.8112    23.177814    21.414617    21.668767    10755.163    2732.3074    915.48606    2108.6402    -88.36563   -1167.3388   -7.8743192   -6238.6667 
Loop time of 504.323 on 64 procs for 250000 steps with 1296 atoms

Performance: 85.659 ns/day, 0.280 hours/ns, 495.714 timesteps/s
392.3% CPU use with 16 MPI tasks x 4 OpenMP threads

MPI task timing breakdown:
Section |  min time  |  avg time  |  max time  |%varavg| %total
---------------------------------------------------------------
Pair    | 41.971     | 49.584     | 59.81      |  72.8 |  9.83
Bond    | 1.4428     | 1.8362     | 3.0129     |  25.9 |  0.36
Kspace  | 252.52     | 264.65     | 272.32     |  35.2 | 52.48
Neigh   | 0.8082     | 0.83625    | 0.85394    |   1.4 |  0.17
Comm    | 49.057     | 50.616     | 52.986     |  16.7 | 10.04
Output  | 0.51406    | 0.51438    | 0.51565    |   0.0 |  0.10
Modify  | 121.1      | 125.47     | 129.99     |  15.1 | 24.88
Other   |            | 10.82      |            |       |  2.14

Nlocal:        81.0000 ave          99 max          58 min
Histogram: 1 1 0 2 1 3 2 3 1 2
Nghost:        3664.56 ave        3697 max        3624 min
Histogram: 1 0 2 1 2 3 3 1 1 2
Neighs:        25964.9 ave       31776 max       18535 min
Histogram: 1 1 0 2 1 3 3 2 2 1

Total # of neighbors = 415438
Ave neighs/atom = 320.55401
Ave special neighs/atom = 2.0000000
Neighbor list builds = 1930
Dangerous builds = 0

unfix		3
unfix		2
unfix		1

write_data	data.final.${pid}
write_data	data.final.0
System init for write_data ...
PPPM initialization ...
  extracting TIP4P info from pair style
  using 12-bit tables for long-range coulomb (../kspace.cpp:340)
  G vector (1/distance) = 0.36804649
  grid = 30 40 32
  stencil order = 5
  estimated absolute RMS force accuracy = 0.0043650406
  estimated relative force accuracy = 1.314519e-05
  using double precision FFTW3
  3d grid and FFT values/proc = 11832 2400
Last active /omp style is kspace_style pppm/tip4p/omp
WARNING: Not all mixed pair coeffs generated from mixing. Use write_data with 'pair ij' option to store all pair coeffs. (../write_data.cpp:312)

write_restart   restart.lmp.${pid}
write_restart   restart.lmp.0
System init for write_restart ...
PPPM initialization ...
  extracting TIP4P info from pair style
  using 12-bit tables for long-range coulomb (../kspace.cpp:340)
  G vector (1/distance) = 0.36804649
  grid = 30 40 32
  stencil order = 5
  estimated absolute RMS force accuracy = 0.0043650406
  estimated relative force accuracy = 1.314519e-05
  using double precision FFTW3
  3d grid and FFT values/proc = 11832 2400
Last active /omp style is kspace_style pppm/tip4p/omp
Total wall time: 0:08:24
