LAMMPS (30 Jul 2021)
Processor partition = 0
  using 2 OpenMP thread(s) per MPI task
using multi-threaded neighbor list subroutines
variable        pid world 0 1
variable        phase world IceIh IceIII

shell cd ${phase}
shell cd IceIh
include Restart.lmp
echo both
log log.lammps
#include		in.partitions
include		in.temp
variable        temperature equal 72.72
variable	tempDamp equal 100.0
include		in.pressure
variable        pressure equal 2094.7
variable        pressureDamp equal 1000.0 # This is 1 ps
include		in.seed
variable        seed equal 745823

units		real
atom_style	full
#include		in.box
read_restart	restart.lmp.${pid}
read_restart	restart.lmp.0
Reading restart file ...
  restart file = 30 Jul 2021, LAMMPS = 30 Jul 2021
  restoring atom style full from restart
  orthogonal box = (0.14215921 0.12968504 0.15645147) to (18.065413 23.499493 22.056744)
  2 by 4 by 4 MPI processor grid
  restoring pair style lj/cut/tip4p/long/omp from restart
  restoring bond style harmonic/omp from restart
  restoring angle style harmonic/omp from restart
  864 atoms
  576 bonds
  288 angles
Finding 1-2 1-3 1-4 neighbors ...
  special bond factors lj:    0        0        0       
  special bond factors coul:  0        0        0       
     2 = max # of 1-2 neighbors
     1 = max # of 1-3 neighbors
     1 = max # of 1-4 neighbors
     2 = max # of special neighbors
  special bonds CPU = 0.002 seconds
  read_restart CPU = 0.007 seconds
include 	in.setup
variable	out_freq equal 1000
variable	out_freq2 equal 10000
variable	out_freq3 equal 1000

timestep	2.0

neigh_modify    delay 7 every 1

include		in.tip4p
# This is TIP4P/Ice

# create groups ###
group ox type 2
288 atoms in group ox
group hy type 1
576 atoms in group hy

# set charges - beside manually ###
set group ox charge -1.1794
Setting atom values ...
  288 settings made for charge
set group hy charge 0.5897
Setting atom values ...
  576 settings made for charge

# ### TIP3P Potential Parameters ###
pair_style lj/cut/tip4p/long/omp 2 1 1 1 0.1577 8.5
pair_coeff 1 1*2 0.000 0.000
pair_coeff 2 2 0.21084 3.1668
bond_style  harmonic
bond_coeff  1 450 0.9572
angle_style harmonic
angle_coeff 1 55 104.52
kspace_style pppm/tip4p/omp 1.0e-5
pair_modify tail yes

thermo          ${out_freq}
thermo          1000
thermo_style    custom step temp pe etotal epair emol press lx ly lz vol pxx pyy pzz pxy pxz pyz enthalpy

restart 	${out_freq3} restart.lmp.${pid} restart2.lmp.${pid}
restart 	1000 restart.lmp.${pid} restart2.lmp.${pid}
restart 	1000 restart.lmp.0 restart2.lmp.${pid}
restart 	1000 restart.lmp.0 restart2.lmp.0


include         in.dump
dump            myDump all atom ${out_freq2} dump.water.${pid}
dump            myDump all atom 10000 dump.water.${pid}
dump            myDump all atom 10000 dump.water.0
dump            myDump2 all dcd ${out_freq2} dump.dcd
dump            myDump2 all dcd 10000 dump.dcd
dump_modify     myDump append yes
dump_modify     myDump2 append yes


variable natoms 	equal  "count(all)"                        # NUMBER ATOMS
variable H      	equal  "enthalpy/v_natoms"                 # ENTHALPY-per-atom
variable Vol      	equal  "vol/v_natoms"                 # volume-per-atom
fix AVG all 		ave/time ${out_freq} 1 ${out_freq} v_Vol v_H file vol_enthalpy.dat
fix AVG all 		ave/time 1000 1 ${out_freq} v_Vol v_H file vol_enthalpy.dat
fix AVG all 		ave/time 1000 1 1000 v_Vol v_H file vol_enthalpy.dat


timer           timeout 23:50:00 every 1000
New timer settings: style=normal  mode=nosync  timeout=23:50:00

fix 		1 all shake 1e-6 200 0 b 1 a 1
Finding SHAKE clusters ...
       0 = # of size 2 clusters
       0 = # of size 3 clusters
       0 = # of size 4 clusters
     288 = # of frozen angles
  find clusters CPU = 0.001 seconds
fix             2 all nph aniso ${pressure} ${pressure} ${pressureDamp}
fix             2 all nph aniso 2094.7 ${pressure} ${pressureDamp}
fix             2 all nph aniso 2094.7 2094.7 ${pressureDamp}
fix             2 all nph aniso 2094.7 2094.7 1000
fix             3 all temp/csvr ${temperature} ${temperature} ${tempDamp} ${seed}
fix             3 all temp/csvr 72.72 ${temperature} ${tempDamp} ${seed}
fix             3 all temp/csvr 72.72 72.72 ${tempDamp} ${seed}
fix             3 all temp/csvr 72.72 72.72 100 ${seed}
fix             3 all temp/csvr 72.72 72.72 100 745823


run             250000
PPPM initialization ...
  extracting TIP4P info from pair style
  using 12-bit tables for long-range coulomb (../kspace.cpp:340)
  G vector (1/distance) = 0.37200915
  grid = 24 27 25
  stencil order = 5
  estimated absolute RMS force accuracy = 0.0031240025
  estimated relative force accuracy = 9.4078406e-06
  using double precision FFTW3
  3d grid and FFT values/proc = 4410 672
Last active /omp style is kspace_style pppm/tip4p/omp
Neighbor list info ...
  update every 1 steps, delay 7 steps, check yes
  max neighbors/atom: 2000, page size: 100000
  master list distance cutoff = 10.8154
  ghost atom cutoff = 10.8154
  binsize = 5.4077, bins = 4 5 5
  1 neighbor lists, perpetual/occasional/extra = 1 0 0
  (1) pair lj/cut/tip4p/long/omp, perpetual
      attributes: half, newton on, omp
      pair build: half/bin/newton/omp
      stencil: half/bin/3d
      bin: standard
Setting up Verlet run ...
  Unit style    : real
  Current step  : 36000000
  Time step     : 2
  Walltime left : 23:49:59.93
Per MPI rank memory allocation (min/avg/max) = 10.19 | 10.22 | 10.23 Mbytes
Step Temp PotEng TotEng E_pair E_mol Press Lx Ly Lz Volume Pxx Pyy Pzz Pxy Pxz Pyz Enthalpy 
36000000    82.228814   -4607.9618   -4467.0244   -4607.9618            0    1803.4512    17.923254    23.369808    21.900293    9173.2224    1891.1396    1910.2235    1608.9905   -489.78472    230.41929   -213.77973   -4225.7551 
36001000    73.823342   -4610.1604   -4483.6297   -4610.1604            0    2242.4579    17.782565    23.336696    22.004082    9131.3932    2069.2216    2193.8359    2464.3164    121.26921   -41.777115    565.42064   -4184.9971 
36002000    74.771071   -4615.0204   -4486.8653   -4615.0204            0    2622.8351    17.901843    23.310384    21.895131    9136.8124    3221.3189    2846.9852    1800.2012    389.68431     83.79622    462.61188   -4137.3698 
36003000    75.675218    -4617.723   -4488.0182    -4617.723            0     1961.643    17.891958    23.271736    21.962929    9144.8567    2339.3377    915.51349    2630.0777    268.01216    84.387968    78.008242   -4226.3971 
36004000    68.458827   -4615.0163   -4497.6802   -4615.0163            0    1508.5919    17.853765    23.404014    21.976924    9183.0526    2131.1273    917.28393    1477.3643    92.733771    64.629884   -35.389686   -4295.6414 
36005000    75.612552   -4615.5508   -4485.9534   -4615.5508            0    1774.9787    17.855054    23.349248    22.013167    9177.3351    1812.1741    2458.5415    1054.2206    25.173858   -21.211569   -263.41678   -4248.3867 
36006000    78.249974   -4613.9826   -4479.8649   -4613.9826            0    2442.5467      17.8487     23.35713    21.927261    9141.3527    2071.5171    2687.4774    2568.6455    96.566356    129.52489   -385.64006   -4154.2312 
36007000    74.089526   -4612.8017   -4485.8148   -4612.8017            0    2357.4817    17.806877    23.501032    21.811806    9127.8039    3064.7436    1018.3045    2989.3969    312.76682   -93.301625    -457.3857   -4171.9876 
36008000    74.001079   -4607.9117   -4481.0764   -4607.9117            0    2098.9914    17.947289    23.330268    21.847555    9147.9005    1691.0662    2767.8306    1838.0773    791.99343   -479.37068    -121.4909   -4201.0442 
36009000    76.065761   -4608.7537   -4478.3796   -4608.7537            0    1683.1126    18.049527    23.268298    21.858301    9180.0878    677.45119    2339.8404    2032.0463    379.30722    129.88739    37.298778   -4253.0408 
36010000    71.933135   -4609.2474   -4485.9564   -4609.2474            0    2645.4237    17.950436    23.195502    21.935157    9133.1272    2996.9273    2407.6128    2531.7311   -122.48442     208.5138    756.90105   -4133.5932 
36011000    74.730885   -4614.2503   -4486.1641   -4614.2503            0    2037.0085    17.914163    23.179018    22.038448    9151.0842    2126.5651    2491.8007    1492.6597   -259.23583    9.1743868   -94.005269   -4214.3067 
36012000    73.573944   -4602.4027   -4476.2994   -4602.4027            0    1777.1867    17.985153    23.263696    21.930403    9175.7057      1051.99    1211.5161     3068.054   -545.05948    97.448197    533.57023   -4238.4794 
36013000    71.121519    -4602.912   -4481.0122    -4602.912            0     2116.621    17.913806    23.159091    22.064141    9153.6939    1922.5521    2510.9013    1916.4097    318.86983    181.55434    70.245249   -4198.4491 
36014000    70.775186   -4613.9588   -4492.6525   -4613.9588            0    2145.2511    17.964025     23.26721    21.894239    9151.1951    1935.6982    1567.6998    2932.3552    116.62485    130.95531    33.948529   -4206.3456 
36015000    73.527393   -4610.6164    -4484.593   -4610.6164            0    2297.1979    17.986671    23.282703    21.808116    9132.7662    1558.4893    2790.5617    2542.5427    460.16074   -30.063551   -192.11324   -4178.6245 
36016000    75.408931   -4613.3574   -4484.1091   -4613.3574            0    1812.5258    17.958377    23.135307    22.003045    9141.6617    832.29199    2725.4272    1879.8582   -396.09038   -183.99227    -314.8729     -4242.46 
36017000    72.609512   -4608.8725   -4484.4223   -4608.8725            0    1912.8142      17.9373    23.183024    21.981181     9140.673    1869.0988    3181.0983    688.24551   -94.083477  -0.63257082    54.639237   -4229.4301 
36018000    71.019102   -4618.3949   -4496.6706   -4618.3949            0    1792.2553    17.931582    23.280173    21.924319    9152.3144    1053.8173    1929.2897    2393.6589    786.50487    207.42356    175.79716   -4257.4455 
36019000    75.244646   -4615.8255   -4486.8588   -4615.8255            0    1350.3689     18.06576    23.209329     21.87522    9172.1518    1569.3357    1136.3057    1345.4653   -681.25496    463.93096   -224.68247   -4306.2248 
36020000    71.665969   -4615.1822   -4492.3492   -4615.1822            0    1597.0726     17.93417    23.316362    21.930415    9170.4137    1175.5586    1496.6033    2119.0559   -654.60325    22.338566    56.672704    -4278.755 
36021000    69.565994   -4613.8442   -4494.6104   -4613.8442            0    812.12237    17.960598    23.272358    21.983411    9188.7465    395.28076     1390.735    650.35133   -19.266269   -63.311165   -19.344274   -4385.7792 
36022000    73.113416   -4606.2735   -4480.9596   -4606.2735            0    2011.0618    18.012341    23.216727    21.905663    9160.6766    928.08751    3240.3761    1864.7219   -381.19597    160.50308   -41.390379   -4212.2836 
36023000    70.634703   -4612.5034   -4491.4379   -4612.5034            0     2479.615    17.886748    23.252478    21.950543    9129.4772    3196.5183    1957.4415    2284.8852   -444.86371    240.57181   -500.92608   -4161.2919 
36024000    75.660317   -4602.0521   -4472.3729   -4602.0521            0    2245.7739    17.943804    23.391017    21.796248    9148.4044    1899.8256    2041.4473    2796.0488   -260.65904    72.694404   -276.23909   -4172.7416 
36025000    70.701097   -4604.4187   -4483.2395   -4604.4187            0     2243.764    17.791434    23.333103    21.977908    9123.6749    2448.6817     1815.586    2467.0244   -616.02133   -417.15503    96.478443   -4184.6855 
36026000    76.325812   -4607.8724   -4477.0526   -4607.8724            0    1640.8325    17.846174    23.385719    21.967781    9168.1571    1594.7486    1255.1269     2072.622    441.54553   -263.71981    232.67426   -4257.6599 
36027000    74.657918   -4608.7989   -4480.8378   -4608.7989            0    2521.7749    17.887484    23.398606    21.839406     9140.713    3000.5491    1996.4506     2568.325    32.839665   -306.37118    3.7960938   -4144.6653 
36028000    70.904351   -4611.2703   -4489.7426   -4611.2703            0     3035.889    17.913671    23.237958    21.858108    9099.0309     2855.364    3007.1535    3245.1496   -46.680492    85.478238    135.79533   -4086.8801 
36029000    70.442168   -4615.8125    -4495.077   -4615.8125            0    1239.5107    18.072243    23.149963    21.955218    9185.4434    682.21484    2111.0807    925.23653    283.04103   -471.93262   -32.108031   -4329.0318 
36030000    74.116582   -4608.1841   -4481.1508   -4608.1841            0    1820.3599    17.849599    23.402052    21.925842     9158.802    2314.3925    1446.6447    1700.0425    -405.5103   -370.01416   -161.20437   -4238.0022 
36031000    75.969664   -4606.4685   -4476.2591   -4606.4685            0    2478.9329    17.842367    23.290182     21.95432    9123.1607    2735.1548    2747.3108    1954.3332    568.13849   -68.862762   -50.137253   -4146.4323 
36032000    71.566881   -4604.7428   -4482.0796   -4604.7428            0    1937.3352    17.858687    23.407032    21.882158    9147.1549    2497.6366    1534.3362    1780.0328   -175.77217   -258.24828   -72.698703   -4223.6355 
36033000    74.058267   -4611.4894   -4484.5561   -4611.4894            0    1644.3503    17.879222    23.264504    22.005365    9153.1588    1742.1613    2364.8022    826.08752    324.44746    -169.6807   -374.22736   -4265.0527 
36034000    69.877014   -4615.8497   -4496.0829   -4615.8497            0    1432.9195    18.014749    23.246624    21.920556    9179.9361    724.37936    1747.5399    1826.8393    11.655445    161.08856   -11.463532   -4304.2437 
36035000    68.874724   -4614.0632   -4496.0143   -4614.0632            0    2127.6632    17.997592     23.15496    21.940208    9143.2206    2396.2658    1963.4057     2023.318    275.00742   -307.93216    487.24675   -4212.3021 
36036000    71.028144     -4612.12   -4490.3802     -4612.12            0    1747.1899    17.992115    23.220508    21.930032    9162.0618    1303.6845    1630.8949    2306.9905   -74.672001     197.9651    600.23734    -4256.922 
36037000    75.443643   -4611.4519   -4482.1441   -4611.4519            0    2214.8407    17.837021    23.123646    22.130426    9127.8485    2221.4184    2675.9576     1747.146   -124.96853    148.75573    403.55947   -4187.3038 
36038000    73.048578   -4611.3006   -4486.0979   -4611.3006            0    1783.8346    17.989764    23.250643    21.892471    9157.0426    2107.4532    1615.1086    1628.9421   -269.39014   -795.03141    447.60542   -4247.8737 
36039000     73.20194   -4609.0254   -4483.5597   -4609.0254            0    3423.5488     17.86145    23.195877    21.939293    9089.7122    3297.8673    3441.1112    3531.6679   -137.08169   -188.29192    435.09914     -4029.72 
36040000    69.266671   -4607.6848   -4488.9641   -4607.6848            0     1796.686    18.030503    23.275357    21.819538    9156.9267    1579.4353    1766.4185    2044.2042   -571.41791    141.06582    222.46195   -4249.0268 
36041000    73.158486   -4614.0287   -4488.6375   -4614.0287            0    1800.4495    17.846619    23.261563    22.029694    9145.4124    1907.5738    2365.5449    1128.2298      221.825   -341.24805    218.76923      -4248.5 
36042000    71.247414   -4610.7797   -4488.6641   -4610.7797            0    1748.0781     17.90102    23.283506    21.946731    9147.3647    1775.6201    1992.0426    1476.5715   -70.952311    157.60798    153.51523   -4255.4618 
36043000    72.648421   -4607.7436   -4483.2267   -4607.7436            0    1868.5744    17.984976    23.310302    21.816709    9146.3331    962.20023    1330.0438    3313.4791   -422.26758   -319.02818    -347.9516   -4233.9777 
36044000    72.761461    -4606.293   -4481.5823    -4606.293            0    2362.1101    18.062779    23.238594    21.747235    9128.4802    1321.4379    3392.3934    2372.4992    10.757126   -239.38531    137.38245   -4167.1158 
36045000    69.466028   -4617.4064    -4498.344   -4617.4064            0    1897.2743    17.931073    23.239587     21.93189    9139.2536    1704.3984     2113.308    1874.1165   -355.74308   -350.73995    426.65059   -4245.4626 
36046000    73.578657   -4605.9057   -4479.7944   -4605.9057            0    2977.5788    17.909619    23.286205    21.820474    9100.1645    2646.0153    2360.1681    3926.5531    246.68923    -60.53417    92.764357   -4084.6203 
36047000    71.669055   -4615.3321   -4492.4938   -4615.3321            0    1761.3093    17.877546    23.335832     21.95821    9160.6888    2037.9168    1097.5426    2148.4684    171.00041    46.619807   -223.29874   -4257.1842 
36048000    74.713186   -4612.7628   -4484.7069   -4612.7628            0     2533.762    17.933496    23.210906    21.940951    9132.9799    2116.7996     3055.939    2428.5473    158.88039   -201.52849    312.82717   -4147.2222 
36049000    75.986854    -4614.223   -4483.9842    -4614.223            0    1456.1296    18.050216     23.21106    21.874105    9164.4767    1275.4503     1718.629    1374.3095    10.360628    -94.64356     184.1231   -4289.3659 
36050000    72.453475   -4615.3175   -4491.1347   -4615.3175            0    2812.5669    17.870874    23.253746    21.898792    9100.3663    3796.1833    2930.8605    1710.6569    138.01576   -499.98446   -190.46011   -4117.8522 
36051000    75.622174   -4610.8167   -4481.2029   -4610.8167            0    2217.0585    17.901327    23.354508     21.88476    9149.5079    1849.7897    1988.2607    2813.1252    39.551606    282.76491    130.42898    -4185.367 
36052000    75.179327   -4616.7065   -4487.8517   -4616.7065            0    1645.9349    17.884757    23.303011    22.013442    9174.5137    2273.4749    1630.3232    1034.0067    100.00518   -346.49776    507.46126   -4267.6242 
36053000    68.221536   -4608.9719   -4492.0425   -4608.9719            0    1657.3968    17.883651     23.37197    21.913759    9159.4286    1158.1155    1472.7845    2341.2904   -368.67624   -189.89756    156.99866    -4270.646 
36054000    73.667018   -4609.2745   -4483.0118   -4609.2745            0     1882.959    17.945979    23.285755    21.890624    9147.7783    2284.1207    2431.5557    933.20076   -433.54807    307.23489   -323.38963   -4231.8044 
36055000    69.575555   -4606.4812    -4487.231   -4606.4812            0    2027.3409    17.827771    23.240394    22.045891    9134.1509    2215.0493    1869.1689    1997.8044    66.163322   0.85520655   -461.47848   -4217.1645 
36056000    75.073234    -4605.122   -4476.4491    -4605.122            0    2375.2004    17.876135    23.303426     21.89537    9121.0683    2216.3771    2630.6047    2278.6195    338.74055    340.75096   -401.43779   -4160.4965 
36057000    74.377255   -4613.4484   -4485.9684   -4613.4484            0    1593.5191    17.925832    23.238009    22.008128    9167.7203    1434.2809    1698.2664    1648.0099   -281.09885    163.72745   -225.46612    -4272.912 
36058000    70.986395    -4606.227   -4484.5588    -4606.227            0    2860.2039    18.057125    23.200298    21.759915    9115.8957    2309.2168    3565.2508    2706.1439    212.48787    234.90615   -128.29029   -4104.3062 
36059000    72.148191   -4606.4216    -4482.762   -4606.4216            0    1615.2868     17.98693    23.214963    21.941058    9161.8381    1910.7717    1271.0709    1664.0178   -781.93042   -22.647499   -14.062887   -4266.9338 
36060000    69.018862   -4615.1047   -4496.8088   -4615.1047            0    1078.9645    17.967841    23.310737    21.945704    9191.8179    608.37245    1876.3122    752.20888    250.87947   -77.740102    450.15078   -4352.1701 
36061000    68.640324   -4606.2036   -4488.5564   -4606.2036            0    2258.1937    18.034802    23.128985    21.898111    9134.2858    1952.0279    2823.9507    1998.6026   -3.4559532   -401.42694    158.12053    -4187.733 
36062000    73.269445   -4607.0309   -4481.4496   -4607.0309            0     2366.367    17.939244    23.098466    21.997382    9115.0336    2345.4772    2716.0876    2037.5362   -485.93371    66.756376   -46.513695   -4166.8803 
36063000    77.966065   -4609.4297   -4475.7985   -4609.4297            0    1636.1399    17.927132    23.267686    21.930998    9147.9207    1666.3146    1857.9896    1384.1154   -176.30017   -224.47836   -189.11761   -4257.5161 
36064000    69.426718   -4606.9093   -4487.9143   -4606.9093            0    1454.9736    17.996064    23.367536    21.805434    9169.7012    994.34497    1195.9977     2174.578    262.88934   -158.56112    87.615124   -4293.3397 
36065000    68.970124   -4614.4121   -4496.1996   -4614.4121            0    2551.3936     17.84556    23.289564    21.933662    9115.9658    2469.5432    3299.0431    1885.5943   -85.263083   -153.27282   -76.387505   -4156.9995 
36066000    75.807921   -4609.6031    -4479.671   -4609.6031            0    1672.2504    17.908329    23.353379    21.933458    9173.0109     1703.952    1437.8684    1874.9307    72.968606   -14.672777    -187.8375   -4255.9591 
36067000    67.405732   -4612.2865   -4496.7554   -4612.2865            0    1661.9036    17.851015    23.476836    21.834397    9150.4763    1740.8555    1808.7048    1436.1506    330.28072    862.12734   -342.40128   -4274.9738 
36068000    77.687335   -4619.7906   -4486.6371   -4619.7906            0    2267.1954    17.782609     23.24184    22.059535    9117.2183    2093.6004    3025.1229    1682.8628    570.34165    406.04701    141.11024   -4185.1789 
36069000    68.536379   -4614.9459   -4497.4769   -4614.9459            0    1699.1556    17.889918    23.290705    21.952087    9146.7498     1528.473    1445.3995    2123.5943   -384.55527    242.77927   -435.68783   -4270.8164 
36070000      70.9554    -4607.583   -4485.9678    -4607.583            0    2066.6972    17.811165    23.382968    21.909513    9124.8276    2313.5012    2700.9366    1185.6537    203.40891    15.540937   -216.17428   -4210.9395 
36071000    69.634185    -4606.623   -4487.2724    -4606.623            0    2313.3074    17.871788     23.31738     21.92861    9138.1619    2424.3798    2657.8549    1857.6876    177.51965    127.28424   -411.58205   -4178.9762 
36072000    77.342338   -4602.7508   -4470.1887   -4602.7508            0    2785.4978    17.742219    23.495574    21.837927    9103.4369    3582.1383    2283.7169    2490.6383    -301.7415   -504.53097   -208.30952    -4100.374 
36073000    67.739005   -4613.4483    -4497.346   -4613.4483            0    1166.3902    17.895571    23.500508    21.857746    9192.3844    931.86143    729.80415     1837.505    177.84583   -358.61337    279.75857   -4340.9779 
36074000    73.132978   -4614.0097   -4488.6623   -4614.0097            0    1842.7416    17.809711    23.459103    21.874681    9139.2382    2787.8057    1356.6691    1383.7499    -254.4786   -362.79555   -94.207429   -4243.0499 
36075000    71.271421   -4609.6601   -4487.5033   -4609.6601            0     2049.955    17.742799    23.395944    22.042418    9150.0177    2238.5343    2127.4713    1783.8593    40.450991   -388.05215   -12.976977   -4213.9499 
36076000    68.552222   -4605.9682    -4488.472   -4605.9682            0     2014.614    17.910947    23.368749    21.853824    9147.0586    1597.6132    2265.0523    2181.1765   -596.66334    301.75297   -202.15327   -4219.7216 
36077000    67.400371   -4606.7999   -4491.2779   -4606.7999            0    1921.9458    17.901403    23.276341    21.939504    9141.7343    1708.5318    2173.7646    1883.5411      283.855    101.36032   -16.881928   -4235.0387 
36078000     76.26152   -4602.5408   -4471.8312   -4602.5408            0    3122.3293    17.935226     23.23154    21.824478    9093.4504    3147.8322    2259.4934    3959.6625    20.529575    305.18534    144.98686   -4057.7521 
36079000    73.641945   -4611.7988   -4485.5791   -4611.7988            0    2333.9107    17.896077    23.300883    21.876328    9122.3064    2490.4962    2548.0799     1963.156    138.03563    122.09217    165.80185   -4175.0768 
36080000     79.42657   -4610.7473   -4474.6129   -4610.7473            0    1893.0053    18.021319    23.240593    21.848554    9150.7455     2170.547    1118.8179    2389.6509    259.96996    98.846073    407.20298   -4221.9833 
36081000    72.200991   -4610.0703   -4486.3203   -4610.0703            0    2323.3511    17.997071    23.161303    21.915824    9135.2959    1933.7511     2521.226    2515.0764   -528.47954    481.25785    156.42168   -4176.7827 
36082000    70.459857   -4611.7255   -4490.9597   -4611.7255            0    2666.9147    18.019362    23.047857    21.965036    9122.2481    2554.2458    2787.6474    2658.8509   -283.75865   -515.67372    140.20639   -4136.1571 
36083000    69.926609   -4611.8208    -4491.969   -4611.8208            0    2793.6206    17.878217    23.122036    22.008551    9097.9121    3396.8286    2802.7511    2181.2821    316.57195    103.72973   -160.98834   -4121.3011 
36084000    74.831034   -4602.4082   -4474.1503   -4602.4082            0    2440.6614    17.929913    23.250752    21.923171    9139.4186    3632.5287    2625.2428    1064.2127   -1229.4979    219.23536   -41.396193   -4148.8369 
36085000    72.640695   -4611.2103   -4486.7067   -4611.2103            0    1187.7157    17.993618    23.236583    21.971519    9186.5165    898.88341    1741.4678    922.79589    24.360362    154.96431   -207.53846   -4327.5814 
36086000     71.82647   -4610.3109   -4487.2028   -4610.3109            0    2082.7964    17.817437    23.253399    22.059264    9139.5055    2444.0741    2556.0422     1248.273    309.49027    190.87718   -543.67333   -4209.5862 
36087000    70.680863   -4614.2983   -4493.1537   -4614.2983            0    1889.8272    17.910439    23.271294    21.977331     9160.132    2345.3423    1923.6871    1400.4521    704.32231    253.38534   -575.99896   -4240.6896 
36088000    74.332481   -4608.4618   -4481.0585   -4608.4618            0    1265.0886    18.074595    23.274479    21.837487    9186.5236     1142.051     1174.874    1478.3407    482.39706    193.78873    106.52396   -4311.5669 
36089000     68.84861   -4613.4971    -4495.493   -4613.4971            0    2145.5118    17.938793    23.179043    21.992805    9144.6975    2233.2473    2629.0658    1574.2222     119.3429    189.80984    51.567279   -4209.3546 
36090000     68.68066   -4603.8168   -4486.1005   -4603.8168            0    2090.6853    18.013854    23.322614     21.79354    9156.1235    902.26767    1964.1763    3405.6119    35.609101    236.74292    59.268555   -4206.9257 
36091000    67.521626   -4612.7223   -4496.9925   -4612.7223            0    1997.3878    17.901796    23.286843    21.980034    9162.9552    1879.2728    1914.7967     2198.094    314.36293    315.97952   -54.575882    -4230.077 
36092000    71.981211   -4604.0742   -4480.7009   -4604.0742            0    2141.3803    17.987169    23.406193    21.723012    9145.6304    1859.9927    1677.3108    2886.8374   -193.86442    306.89145    183.79346   -4195.0843 
36093000    69.694538   -4612.4484   -4492.9944   -4612.4484            0    2524.9831    17.882041    23.194269    22.005851    9127.1661    3133.3199    2310.3334    2131.2961    307.56827    -252.6141    263.86658    -4156.893 
36094000    74.525616   -4617.6424   -4489.9081   -4617.6424            0     1694.879    17.997036     23.35568    21.788822    9158.5613    1395.3393    1767.3047     1921.993    56.128831    162.94986    79.520559   -4263.5261 
36095000    69.413594   -4611.2707   -4492.2982   -4611.2707            0    2344.2145    17.819804     23.31146    21.978079    9129.8181    2444.6645    2246.1683    2341.8108   -99.238286    273.40601    504.08953   -4180.1683 
36096000    73.973568   -4608.6872   -4481.8991   -4608.6872            0    2595.3246    17.864136    23.428436     21.79177    9120.4823    3395.0773    1923.4539    2467.4427   -274.07061   -163.45743   -98.376375   -4136.6875 
36097000    74.218349   -4613.7648   -4486.5571   -4613.7648            0    1884.2876    17.783118     23.38264    22.003408    9149.3744    1944.3746     1635.378    2073.1101    15.544632   -59.280627   -146.94295   -4235.1286 
36098000    71.198404   -4617.8856   -4495.8539   -4617.8856            0    2288.8943    17.882982    23.309049    21.903244    9130.0456    2054.9753    2016.3498    2795.3577    266.14252   -519.81195    159.36073   -4191.0823 
36099000    70.780892   -4604.6363   -4483.3203   -4604.6363            0     2636.572    17.868986    23.288096    21.927474     9124.782    3348.9095    2033.6091    2527.1975   -167.30617    259.82934   -548.27831   -4132.4569 
36100000    72.227822   -4616.5072   -4492.7112   -4616.5072            0    2159.0685    17.907286    23.337439    21.880697    9144.1664    2343.7166    2882.0078    1251.4812    313.19152    209.48381   -378.99243   -4204.7815 
36101000    69.057148    -4615.493   -4497.1314    -4615.493            0    1476.7915    17.948989    23.279512    21.956798    9174.5097     1183.171     1342.061    1905.1427   -95.343903    356.83332    80.289417   -4299.5355 
36102000    73.861927    -4608.111   -4481.5142    -4608.111            0    2978.2473    17.875504    23.211641    21.976008    9118.2804    4013.9129    3252.9439    1667.8852    121.18447    62.329158    149.29384   -4085.4646 
36103000    74.417951   -4610.0325   -4482.4827   -4610.0325            0    2144.2146    18.006853    23.357643    21.756518      9150.74    2402.1376    2014.4884    2016.0178   -154.80792    355.95293   -328.26553   -4196.3283 
36104000    72.145004   -4610.2892   -4486.6351   -4610.2892            0    2059.3207    17.975989    23.229083    21.904485    9146.5629    1781.3212    2181.8136    2214.8272    146.11665    137.24073    138.87975   -4211.9357 
36105000    76.127987   -4611.0969   -4480.6162   -4611.0969            0    1774.3942    17.932889    23.355665     21.90938    9176.4053    1401.7552    1675.7008    2245.7267     266.3349   -367.39367    150.39639   -4243.1517 
36106000    72.289492   -4618.9572   -4495.0555   -4618.9572            0    1830.7162    17.783319    23.402189    22.006537    9158.4291    2379.8273    672.39315     2439.928    -474.6343   -101.87475    250.96189   -4250.5335 
36107000    71.516226   -4615.5046   -4492.9282   -4615.5046            0    2301.1147    17.918607    23.258413     21.90738     9130.084     2407.834    1656.5948    2838.9151    297.48101    578.74453    363.52752   -4186.5281 
36108000    73.431118   -4613.3857   -4487.5273   -4613.3857            0    1756.6383      17.8651    23.386172    21.905609    9152.0825    1687.6468    1354.4012    2227.8669    70.576416    494.74477    276.61811   -4253.0622 
36109000     70.81469   -4613.7094   -4492.3354   -4613.7094            0    1769.3935    17.928578    23.436685    21.789721    9155.7453    2327.3481    667.99063    2312.8417    132.64196   -319.97227     198.8362   -4256.0734 
36110000    69.069825   -4609.1058   -4490.7224   -4609.1058            0    2750.8112    17.861687    23.233038    22.006329    9132.2142    3419.4193    3141.7441    1691.2704   -478.25178   -109.49446    425.76112   -4124.3585 
36111000    74.312653   -4612.7103    -4485.341   -4612.7103            0     2168.339    17.894172    23.329463    21.916497     9149.292    1439.3928    1634.3094    3431.3147   -718.58854   -243.16684   -115.33019   -4196.0129 
36112000    72.196976   -4608.9753   -4485.2321   -4608.9753            0    2265.1968    17.960439    23.359815    21.794703    9144.0226    2063.6775    2158.2818    2573.6312    46.538112   -292.47383    231.31167   -4183.1541 
36113000    70.021608   -4607.6435   -4487.6288   -4607.6435            0    1807.6687    17.896216    23.286512    21.962052    9152.4756    2291.6826    1673.9591    1457.3645    285.41421   -407.00599    436.22888   -4246.3422 
36114000    79.669041   -4612.4795   -4475.9295   -4612.4795            0    2487.0888    17.923857    23.321588     21.84317    9130.7247    2931.3804    2375.2986    2154.5875    170.69498    160.90501    278.09882   -4144.7432 
36115000    72.969478   -4605.6172     -4480.55   -4605.6172            0    2234.7461    17.894154    23.269905    21.968043    9147.3888    1971.4862    2416.6585    2316.0936   -740.55451   -436.09385    47.789989   -4182.4231 
36116000     72.79403   -4616.3885   -4491.6221   -4616.3885            0    1989.4501    17.951954    23.290532    21.883118    9149.5628    1202.1081    1803.6814    2962.5607   -296.72864   -48.601149   -206.36173   -4226.1558 
36117000    71.158539   -4618.4911   -4496.5278   -4618.4911            0    1762.0657    17.820971    23.373979    21.951394    9143.7872     2733.303    878.53806    1674.3562    180.60532    98.106492    211.12716   -4261.5515 
36118000    75.411799   -4622.0031   -4492.7499   -4622.0031            0    1953.9332    17.878071    23.352689     21.89591    9141.5651    1521.6712    2223.6812    2116.4472   -293.10361   -390.95725    238.38785   -4232.2508 
36119000    74.571521   -4611.6786   -4483.8656   -4611.6786            0    2118.8766    17.858404    23.473264    21.793132    9135.5728    2521.4324    1931.5875    1903.6098   -952.26237    12.496042    273.49749   -4201.5614 
36120000      71.3962   -4614.4362   -4492.0656   -4614.4362            0    1907.4174    17.829398     23.56391    21.761357    9142.6059    2189.0882    473.04532    3060.1188   -472.20574    198.45484   -5.1288873   -4237.7391 
36121000    69.531331   -4608.6898   -4489.5154   -4608.6898            0    2413.2604    17.814508    23.406411    21.890993     9127.968    2935.4242    1992.8987    2311.4585    78.486958   -55.110883    3.0067608   -4168.2573 
36122000    73.585657   -4604.1058   -4477.9825   -4604.1058            0    2105.9199    17.803211    23.367028    21.928286    9122.3448    1833.3347    2578.0006    1906.4243   -66.983285   -256.98792   -71.777992   -4197.8108 
36123000    72.313295   -4620.5825     -4496.64   -4620.5825            0    2263.0307    17.832867     23.28413    22.009149    9138.7003    2100.6989    1451.8279    3236.5652    171.03687   -221.88669   -191.61257   -4195.0265 
36124000     71.55007   -4604.2426   -4481.6082   -4604.2426            0    1475.5585    17.985113     23.20307    22.006687    9183.6071    1801.5517    1854.1512    770.97269    822.42159   -389.91002    178.07483   -4283.9815 
36125000     73.09861   -4600.2345    -4474.946   -4600.2345            0    2349.3204    18.037924    23.099226    21.908828    9128.5778    1277.9767    3197.0205    2572.9639   -44.951655   -31.877476   -13.143379   -4162.1787 
36126000    71.730628   -4611.2095   -4488.2657   -4611.2095            0    1007.9181    18.038754    23.169269    22.005423    9197.0509    2167.1514    1567.0137   -710.41085    77.963612    211.99584    138.03759   -4353.0741 
36127000    71.236108   -4606.6161   -4484.5199   -4606.6161            0    1885.0192    17.997482    23.172792    21.972741    9163.7737    776.29523    2846.8605    2031.9017    338.99019   -267.92128    338.58641   -4232.5979 
36128000    74.855946   -4615.6037   -4487.3032   -4615.6037            0    1500.2882    17.942258    23.163754    22.093751    9182.3851    1212.3333    2074.0771    1214.4544   -69.606697    301.52024    213.22536   -4286.3911 
36129000     78.57058   -4614.0573     -4479.39   -4614.0573            0    2963.4202    17.943486    23.112878    21.948923    9102.7804    3483.0155    3405.9034    2001.3417   -196.60631   -138.48468    78.536005    -4085.982 
36130000    73.337919   -4619.5588   -4493.8602   -4619.5588            0     2394.194    17.929864    23.253197    21.890414    9126.6973    3231.3003    1231.7928    2719.4889   -60.625786    549.60461   -369.58979   -4175.1845 
36131000    72.475996   -4620.7316   -4496.5102   -4620.7316            0    1716.9756    18.077477    23.167497    21.878815    9163.0643    1420.7764    2367.0908    1363.0595   -67.080446    248.17419     42.09212   -4267.0641 
36132000    74.917245   -4608.6493   -4480.2437   -4608.6493            0     2315.132    17.926893    23.254369    21.902674    9130.7559    2054.0657    2179.1628    2712.1675   -798.33867    234.99107   -174.70408   -4171.9544 
36133000    72.266367   -4615.4765   -4491.6145   -4615.4765            0     1964.303    17.854131    23.382209    21.939044    9158.8713    2132.4388    2073.7691     1686.701   -83.657473    405.45065    218.50342   -4229.2371 
36134000    71.435214    -4618.154   -4495.7165    -4618.154            0    1587.5841    17.882792    23.233046     22.03841    9156.3362    1575.6175    2251.6595    935.47536   -583.62668    286.04737    88.724313   -4283.7172 
36135000    71.647844   -4621.7658   -4498.9639   -4621.7658            0    2519.8098    17.968837    23.241464    21.837728    9119.9177    2697.1584     2752.565    2109.7061     327.9089   -131.31359    301.12293   -4163.8175 
36136000    72.515247   -4610.6257    -4486.337   -4610.6257            0    1822.0427    17.965667    23.152818    21.996217    9149.4547    1723.5414    1920.5708     1822.016   -472.26866    646.23852     292.0682    -4243.212 
36137000    71.811917   -4616.6423   -4493.5591   -4616.6423            0    2215.0459    18.035681    23.157107    21.867359    9132.9942    1993.3639    2728.3935    1923.3805    479.99492    284.47648   -15.091143   -4198.5253 
36138000    72.359559   -4608.2299   -4484.2081   -4608.2299            0    2887.5065    17.865526    23.285054    21.907198    9113.3887    3527.6424    2569.9371    2564.9398    508.95908    137.59489   -249.66799   -4100.4313 
36139000    67.290587   -4617.8189   -4502.4851   -4617.8189            0    1452.3719     17.92063    23.234764    22.029791    9172.7996    1196.1473    1274.6313    1886.3373   -391.77232    231.99537     218.7914   -4308.1928 
36140000    70.402914   -4608.1167   -4487.4486   -4608.1167            0    2178.6848    17.856502    23.317096    21.956028    9141.6508    3113.5037    2735.5838    686.96679    120.36342    121.18602   -76.577647   -4196.9828 
36141000    70.614985   -4616.5438   -4495.5121   -4616.5438            0     2282.405    17.867939    23.325015    21.922514     9136.645    2205.1071     2117.274    2524.8338    778.61945   -171.66102    189.96843   -4191.3849 
36142000    71.550307   -4614.5835   -4491.9487   -4614.5835            0    1619.7799    17.819195    23.383721    21.953326    9147.4918    1983.4097     1617.184    1258.7459    247.59688   -74.842018   -128.53093   -4275.8591 
36143000    73.488911   -4617.4102   -4491.4527   -4617.4102            0    2326.0395    17.843589    23.368206    21.873248    9120.5467    2885.6841    1668.7774     2423.657    186.22478   -272.26255    249.01125   -4182.0573 
36144000     72.22233   -4612.4944   -4488.7078   -4612.4944            0    1718.1786    17.870332    23.472832    21.844227    9162.9391    1732.1079    1883.4455    1538.9825    8.1647169    335.82936    24.925807    -4259.104 
36145000    73.362838   -4607.2189   -4481.4775   -4607.2189            0    1978.8846     17.86491    23.361264    21.922145    9149.1389    3451.0985    1137.5015    1348.0538   -96.545926    228.86743   -109.44735   -4217.4333 
36146000    73.308193   -4615.6383   -4489.9906   -4615.6383            0    2531.8904    17.986214    23.275256    21.766169    9112.0529    1388.7206    3133.5314    3073.4191    83.786482    248.34286    32.729067   -4153.5278 
36147000    67.642755   -4611.4532   -4495.5159   -4611.4532            0    2256.6379    17.903075    23.284766    21.891574    9125.9165    3273.8947     2908.308    587.71089   -151.66571    82.197056   -599.94799   -4195.1751 
36148000     69.90026   -4618.3769   -4498.5703   -4618.3769            0    1147.4687    17.974255     23.38828    21.843917    9182.8968    546.30595    822.86385    2073.2363    396.84899   -10.091057   -295.59168   -4344.8977 
36149000    72.412276   -4601.8695   -4477.7574   -4601.8695            0    1850.5599    17.792617    23.481514     21.90876    9153.4269    2399.3654    1751.6714     1400.643   -331.29171   -22.565249    182.22154   -4230.7199 
36150000    73.204993   -4616.6337   -4491.1629   -4616.6337            0    2092.5765    17.847232    23.402015    21.884769    9140.4186    1973.5656     2418.725    1885.4389   -224.84515    542.80422    144.01752   -4212.2148 
36151000    71.337909    -4605.337   -4483.0662    -4605.337            0    1702.8684    17.982832    23.215471    21.958996    9167.4398    1781.2767    1450.1008    1877.2277    126.96653   -208.09461    262.87355   -4255.3966 
36152000    67.909666   -4613.3623   -4496.9674   -4613.3623            0    2015.2226    17.862265    23.254012    21.999973    9138.1141    2273.0422    1713.7784    2058.8471    291.13444    177.94068   -53.061086   -4228.3987 
36153000    76.337777   -4615.2414    -4484.401   -4615.2414            0    2402.0877    17.924364    23.243702    21.900636    9124.4305    2136.9368    3015.3468    2053.9794   -152.36762    231.19147   -278.33679   -4164.7541 
36154000     70.42662   -4613.9296   -4493.2208   -4613.9296            0    1395.7517    17.944821    23.208408    22.014722    9168.4872    1435.8586    1437.1654     1314.231   -314.17027    166.77841    6.6438591   -4306.5907 
36155000    73.504349   -4617.0861   -4491.1021   -4617.0861            0     1310.976    17.981089    23.344882    21.887278    9187.5438    1383.0032    1755.6749    794.24995   -410.47943    352.77369     -198.756   -4315.4433 
36156000    67.160488   -4616.6519   -4501.5411   -4616.6519            0    1856.5022     17.93301    23.262319    21.911883    9140.8357    1868.3893    2591.5122    1109.6051    507.23227    155.41583   -64.122155   -4254.0513 
36157000    72.184563   -4616.9032   -4493.1814   -4616.9032            0    1730.7786    17.846646     23.38069    21.938778     9154.326    1306.5021    1490.2586    2395.5751    -174.6148    229.52163    337.25793   -4262.1113 
36158000    72.718922   -4617.1769   -4492.5391   -4617.1769            0     2194.266     17.78454    23.426748    21.941831    9141.7112    2915.4778    1769.4549    1897.8653   -32.003255   -87.977754    50.610073   -4199.9941 
36159000    70.527445   -4610.6568   -4489.7752   -4610.6568            0    1845.6971    17.940756    23.327012    21.918163    9172.8438     2417.542    1759.7813    1359.7681    329.45997    143.47688    214.89631   -4242.8643 
36160000    72.280328   -4604.2593   -4480.3733   -4604.2593            0    1730.0522     18.05445    23.264515    21.857761    9180.8721    1527.6702    2216.2245    1446.2621   -114.14378     -140.083    593.64114   -4248.7303 
36161000    69.655623   -4616.1491   -4496.7618   -4616.1491            0    2184.9564    17.998778    23.251821     21.82401    9133.4439    2101.4218    1698.6578    2754.7897   -210.91545   -474.38934    401.54778   -4205.7214 
36162000     70.79138   -4611.2797   -4489.9456   -4611.2797            0    2414.8079    17.843073    23.349681    21.920552    9132.7612    2208.3922    2913.0022    2123.0293    85.048878   -55.557486    28.626783   -4168.3127 
36163000    71.578795   -4611.4341   -4488.7505   -4611.4341            0    2276.6463    17.828659    23.379083    21.937524    9143.9486    2693.4476    2004.6492     2131.842   -320.33875   -127.04577   -112.69421   -4185.1481 
36164000    72.003031   -4613.4094   -4489.9987   -4613.4094            0    2641.5651     17.83404    23.417102    21.866052    9131.7344    2778.5156    2927.2366    2218.9432   -55.042473   -41.621388   -40.359347    -4138.203 
36165000    70.091455   -4605.7469   -4485.6125   -4605.7469            0    1896.0201    17.704058     23.38758    22.101222    9151.1234      3174.15    2095.8553    418.05489   -766.25948   -18.926149    30.313127   -4232.5702 
36166000    75.697725   -4614.5435   -4484.8001   -4614.5435            0    1739.0873      17.9897      23.2594    21.892793    9160.5935    808.20278    2500.1981     1908.861   -186.48658    256.98155     86.39786   -4252.4618 
36167000    70.611839   -4617.6484   -4496.6221   -4617.6484            0    1580.8525      17.9498    23.265117     21.91491    9151.7588    1872.2685    1390.8753    1479.4138    -478.0688   -382.45025    641.01979   -4285.6273 
36168000    78.563376   -4611.4942   -4476.8392   -4611.4942            0    2218.1404    17.957294    23.299531    21.848741    9141.4369    2793.9324    2187.6715    1672.8173    -97.91131   -746.52867    390.61069   -4181.1201 
36169000     74.10302   -4608.1355   -4481.1254   -4608.1355            0    2048.0511    17.919451    23.249035    21.936369    9138.9093    2181.0516    1633.3561    2329.7456    -851.1354   -309.58318    77.178496   -4208.1579 
36170000    74.504724    -4617.442   -4489.7435    -4617.442            0    2051.3233    17.949874    23.252082     21.87399    9129.5898    1558.2296    2055.8127    2539.9276   -124.48808    150.65968    425.88465   -4216.6186 
36171000     73.74744   -4612.5401   -4486.1395   -4612.5401            0    2885.8562    17.886242    23.302193    21.861248    9111.5201    3096.1927     3597.797    1963.5789    181.62369   -410.39615   -140.33529   -4102.6607 
36172000    76.149262   -4621.8389   -4491.3217   -4621.8389            0    1753.8496    17.866223     23.36151    21.936891    9156.0623     2297.416    935.44081    2028.6919   -813.86383   -169.39311    301.12251    -4257.127 
36173000    73.108599   -4616.2311   -4490.9254   -4616.2311            0    2254.7427    17.898727    23.324215    21.887936    9137.6393    1772.2228    2269.3884    2722.6169    44.030328   -15.565952   -194.30418   -4190.4514 
36174000    69.223256   -4610.9604   -4492.3141   -4610.9604            0    2039.4361    17.868452    23.272122    21.990474    9144.4484     1745.757    2271.2452    2101.3061   -605.68407   -87.105266    337.18851     -4220.33 
36175000    76.566078    -4616.749   -4485.5174    -4616.749            0     1255.458    17.943685    23.316613    21.978472    9195.4842    1821.8699    1678.9123    265.59194    637.99266   -56.526809    334.13233    -4317.152 
36176000    73.590958   -4617.2026   -4491.0702   -4617.2026            0    2518.6393    17.895041      23.2619    21.904322    9118.1707    2372.8938    3272.7002    1910.3241    332.25021    133.84826   -151.98729   -4156.1436 
36177000    74.504315   -4606.5329   -4478.8351   -4606.5329            0    2375.1781    17.973666    23.318793    21.817866    9144.3952    2109.9122    2249.7349    2765.8873    412.59065    426.06227   -334.64662   -4162.0775 
36178000    70.736314    -4604.062   -4482.8223    -4604.062            0    2404.3083    17.919113    23.333867    21.864919    9142.2085    2483.4367    2829.8016    1899.6865     228.6991     509.6734    131.20996   -4162.2566 
36179000    73.142138   -4615.3767   -4490.0135   -4615.3767            0    1406.8317    17.918239    23.336117    21.957183    9181.2232    2183.3675    1109.2411    927.88669    6.4464123   -44.487478   -100.87734   -4301.6406 
36180000    75.669928   -4620.2311   -4490.5355   -4620.2311            0     1993.697    17.916741    23.415692    21.838744    9162.0711    1868.7255    1509.3419    2603.0237   -367.25133    81.310355   -94.735176   -4224.1388 
36181000    74.242605   -4612.7835   -4485.5342   -4612.7835            0    1987.4573    17.828388    23.392742    21.965316    9160.7417    2569.6806    1925.3355    1467.3557   -306.47395   -193.64555   -282.51059   -4220.0099 
36182000     75.83654   -4608.4557   -4478.4745   -4608.4557            0    2467.9877    17.992743    23.162877    21.958219     9151.388    1694.4872    3419.0836    2290.3923   -276.34741    300.24998    161.15183   -4149.0879 
36183000    73.673074   -4619.3154   -4493.0423   -4619.3154            0    2049.5056    17.921828    23.215323    22.006632    9156.1022    2319.8373    2034.2106    1794.4689   -32.744979    575.60234   -389.78999    -4219.367 
36184000    73.342851   -4618.0574   -4492.3503   -4618.0574            0    2760.6337    17.812482    23.366256    21.896741     9113.665    3888.5261    2565.7219    1827.6533   -372.13461    130.46199   -117.71606   -4125.4249 
36185000    76.147915   -4612.5416   -4482.0266   -4612.5416            0    2160.3488    17.883091    23.264935    21.989356    9148.6481    1878.5516    1972.0469    2630.4478    237.82846   -293.09856   -141.16126    -4193.785 
36186000    74.004112   -4607.7533   -4480.9127   -4607.7533            0    2251.3534    17.924046     23.24265    21.970701    9153.0451    1813.9953    2769.5368     2170.528    9.8265766    484.34294    33.922858   -4180.3846 
36187000    72.098292   -4615.6088   -4492.0348   -4615.6088            0    1086.8656    17.889101     23.43667    21.895263    9179.8288    2023.3298    697.34213    539.92482   -439.01858    250.86043   -50.465069    -4346.527 
36188000    77.991939   -4612.4389   -4478.7634   -4612.4389            0    2313.0746     17.87576    23.265658    21.975911    9139.5909    2430.7565    2612.9667    1895.5006    10.729461    423.07318     280.9445   -4170.4501 
36189000    66.971581   -4608.8508   -4494.0638   -4608.8508            0    2469.0629    17.860129    23.185862    22.045551    9129.1173    2377.9737    3082.5088    1946.7061   -410.53295    43.173753   -84.806112   -4165.3357 
36190000    72.854518   -4601.5723   -4476.7022   -4601.5723            0    1898.8757    17.791722    23.446225    21.915091    9141.8524    2455.4669    2155.4713     1085.689   -489.50022   -176.29179    136.04395   -4223.5354 
36191000    75.464529   -4614.3468   -4485.0032   -4614.3468            0    1911.1402    17.882229    23.415881    21.867828    9156.6752    2471.7273    994.23183    2267.4615   -139.23406    321.91519    211.01511   -4229.7882 
36192000    74.674206   -4612.6412   -4484.6521   -4612.6412            0    1639.4648    17.938557    23.303966    21.933999    9169.2786    1758.8319    1523.3754    1636.1872    196.17587    273.45101    345.79347   -4265.4155 
36193000    71.019439   -4608.8389    -4487.114   -4608.8389            0    1849.5692    18.056241    23.149369    21.887842    9148.9118    1369.5038    2618.4586    1560.7453    260.46948    465.11658    313.00112   -4240.3306 
36194000    76.058962   -4610.4232   -4480.0608   -4610.4232            0    1942.1818    18.027462    23.254532    21.839601    9155.6018    2033.8429    1546.4177    2246.2849     -243.966     1008.058    307.77478   -4220.7308 
36195000    70.249867   -4610.0568   -4489.6509   -4610.0568            0    2699.2094    17.798231    23.252933    22.018871    9112.7536    3076.2342    2149.0807    2872.3135    310.11326    89.154102    2.8638162   -4130.9256 
36196000    75.683012   -4618.6593   -4488.9412   -4618.6593            0    1774.5876    17.967396     23.34775    21.832572    9158.7261    1854.4868    2441.3701    1027.9058    535.78167   -7.6506292    263.71803   -4251.9084 
36197000    73.470068   -4612.3184   -4486.3932   -4612.3184            0    1802.6097    17.886542    23.334141      21.9187    9148.1441    2250.6095    1502.8478    1654.3719   -277.40522     221.8695   -392.54389   -4245.8957 
36198000    72.143518   -4608.3849   -4484.7333   -4608.3849            0    2284.5363    17.860833     23.43534    21.849175    9145.5118     2706.244    1932.5612    2214.8037   -204.12318    24.619627   -21.322985   -4180.0267 
36199000    77.317065   -4614.0428    -4481.524   -4614.0428            0    1821.8432     17.92632    23.390571    21.815662    9147.4565    1358.2418     1171.959    2935.3287    333.27889   -346.09623    348.05788   -4238.4787 
36200000    71.796127   -4612.5217   -4489.4656   -4612.5217            0    1845.5738     17.92816    23.372149    21.863313    9161.1576    1801.4203    1876.2338    1859.0674    -270.3983   -5.9803338    179.78125   -4242.8857 
36201000    71.499138   -4609.1911    -4486.644   -4609.1911            0    2388.6819    17.896611    23.325484    21.864125    9127.1163    2208.2725    2824.5935    2133.1796   -603.86905     313.5984    434.09759   -4168.6875 
36202000    72.909796   -4612.1604   -4487.1955   -4612.1604            0    1954.9735    17.797644     23.38152     22.00876    9158.6367    2013.8828    1787.3242    2063.7136   -401.19366   -394.17592   -172.44922    -4226.071 
36203000    70.408576   -4612.4183   -4491.7404   -4612.4183            0     3049.115    17.945824    23.194924    21.889554    9111.5712    2919.9496    2770.7548    3456.6405    567.01781    332.31178   -124.69482   -4086.5651 
36204000    69.755789   -4610.3414   -4490.7824   -4610.3414            0     2797.357    17.827514    23.290278    21.937856    9108.7682    3706.2877    2195.5201    2490.2633    558.30249   -97.441034   -52.035336   -4119.1758 
36205000    71.051907   -4616.5116   -4494.7311   -4616.5116            0     2090.858    17.949774     23.21198     21.90842    9128.1387    1671.1763    2140.0599    2461.3378   -208.20837   -277.37744    266.13726   -4216.3866 
36206000    69.379412   -4612.8853   -4493.9714   -4612.8853            0    2146.7065    17.818315     23.42286    21.891628    9136.6002    2101.1936     2417.391    1921.5349    564.12471   -190.50191    34.577952   -4207.9272 
36207000    69.309258   -4608.7489   -4489.9552   -4608.7489            0    1706.2519    17.988922    23.251393    21.891488     9156.498    1514.0219    1192.6919    2412.0418   -286.63934   -426.44532    501.08084   -4262.1055 
36208000    74.028242   -4610.6462   -4483.7643   -4610.6462            0    2030.8377    17.791665     23.32146    22.049292    9148.8599    2845.7791    1686.5956    1560.1385   -394.06182    61.422481    144.54975   -4212.7963 
36209000    72.670358   -4613.1801   -4488.6256   -4613.1801            0    2361.1259    17.919017     23.24915    21.894241     9121.183    2632.1391    2481.5424    1969.6961    483.05519     220.0857   -94.460215   -4174.5413 
36210000    75.245159   -4609.0841   -4480.1165   -4609.0841            0    1781.3085    17.877051    23.214091     22.07771    9162.2387    1316.6289    2611.3383    1415.9583    527.80456   -267.72269   -94.449616   -4242.0947 
36211000    71.050493   -4610.7873   -4489.0092   -4610.7873            0    2312.2551     17.93102    23.234846    21.909022     9127.835    2556.3579    1249.4575    3130.9497    -23.34862   -214.49758     89.07343   -4181.2016 
36212000    75.292775   -4613.2336   -4484.1843   -4613.2336            0     2368.883    17.786191    23.243616    22.058776    9119.4374    3173.8314    2161.9747     1770.843    299.33422    14.670278    397.05633   -4169.1285 
36213000    74.645206    -4612.619   -4484.6797    -4612.619            0    1183.1707    17.951796    23.349818    21.920749     9188.546    1705.6618    1716.8563    126.99385    383.16371    171.09322    419.59961   -4326.1283 
36214000    72.154268    -4613.599    -4489.929    -4613.599            0    1532.1759    17.983154    23.216364    21.925985    9154.1742    393.25163    1251.6515    2951.6247   -248.53991    -246.4025   -203.48655   -4285.3771 
36215000    67.961897   -4620.7436   -4504.2592   -4620.7436            0    1623.5241    18.041318    23.284797     21.77865    9148.9586    1135.0987    2231.2666     1504.207    86.914682   -115.88288   -541.09145   -4287.6353 
36216000    69.820998   -4610.5044   -4490.8336   -4610.5044            0    2265.2774    18.013521    23.129681     21.93738    9140.1432     1892.485    2266.1575    2637.1897   -379.99783   -656.14236    21.152196    -4188.873 
36217000    72.575742   -4617.9771   -4493.5847   -4617.9771            0    2139.2513    17.974881    23.072153    22.037556    9139.3976    1581.8846    2983.0722    1852.7971     53.08416    -114.1497    260.61162   -4208.4466 
36218000    71.573908   -4608.0074   -4485.3321   -4608.0074            0      2594.94     17.92793    23.198844    21.924912    9118.7301     3433.143    1656.1669    2695.5102    63.531717    381.53598    459.97987    -4140.238 
36219000     73.66153   -4608.9693    -4482.716   -4608.9693            0    3216.4979    17.943402    23.252819    21.806686    9098.5058    3015.1378    4158.6555    2475.7005    17.309851   -103.52536    488.28454   -4055.9112 
36220000    67.448516   -4608.1417   -4492.5372   -4608.1417            0    2845.1633    17.851291    23.259292     21.95297    9115.0574    2864.8747    2592.9955    3077.6196   -184.22375    124.45904   -435.29456    -4114.319 
36221000    70.619208   -4610.1678   -4489.1289   -4610.1678            0    2225.1146    18.073439    23.256612    21.750018    9142.1188    1751.8648    2827.2642    2096.2149   -280.82389   -242.71091   -269.83773   -4192.4578 
36222000    74.879738   -4620.4249   -4492.0836   -4620.4249            0    2076.5166    17.869298    23.418795    21.835697    9137.7459    2019.8934    1582.2468    2627.4094    210.34321    312.32609    433.81669   -4215.3574 
36223000    70.053745   -4612.3533   -4492.2835   -4612.3533            0    1882.6813    17.926336     23.38292    21.838566    9154.0739    1424.2483    2091.7842    2132.0114   -302.41521    412.54482   -384.91822   -4240.9404 
36224000    72.973242   -4612.4908   -4487.4171   -4612.4908            0    2133.4481    17.797974    23.387641    21.955075    9138.8577    2227.6356    2047.3989    2125.3097   -265.32025   -93.764119    9.2279115   -4203.0693 
36225000    71.106761   -4614.0979   -4492.2234   -4614.0979            0    2113.8944    17.851507    23.385929    21.907502    9145.8142    2250.7202    1897.2612    2193.7017   -852.99996    315.20856    101.60863   -4210.2673 
36226000    72.569033   -4612.3227   -4487.9419   -4612.3227            0    2427.3668    17.909359    23.248277    21.894716    9116.1221    1808.9827     3075.577    2397.5407   -159.39493    85.854977    -367.5541   -4165.2252 
36227000    74.242526   -4598.1137   -4470.8646   -4598.1137            0    2085.6473    17.891055    23.377874    21.901272    9160.3126    2398.6952    1687.9988    2170.2479    468.73569    213.92136    271.70479   -4192.2351 
36228000      73.6614   -4606.3371   -4480.0839   -4606.3371            0    3058.2615    17.916077    23.160757    21.931923    9100.6495    2253.4925    4119.4493    2801.8427   -1021.7333    536.98275   -77.981152   -4074.1803 
36229000    75.425905   -4611.1842   -4481.9068   -4611.1842            0    2246.9011    17.834077    23.395248    21.901289    9137.9331    2519.2601    2249.4911    1971.9522   -477.68949     303.0507    522.19725   -4182.4682 
36230000    77.767451   -4609.9106   -4476.6198   -4609.9106            0    2588.5276    17.914218    23.333597    21.790952    9108.6864    3247.5694    2818.2379    1699.7755   -279.61334    563.90882   -422.55629   -4132.7576 
36231000    76.255101   -4613.0033   -4482.3047   -4613.0033            0    2101.3708    17.910665    23.272983    21.948733    9148.9916    2253.3447    2232.2858    1818.4817   -86.263093    70.926645     185.2127   -4201.9216 
36232000    74.365484   -4614.2134   -4486.7535   -4614.2134            0    2364.3193    17.889045    23.153735    22.034136    9126.4999    2712.0213    2811.9101    1569.0266    87.833987    118.04848    57.098374   -4172.0611 
36233000    73.021652   -4616.7417   -4491.5851   -4616.7417            0    2172.3228    17.894406    23.205689    21.996134    9133.9388    2328.7169    3109.7536    1078.4978    128.57691   -74.995841   -344.17661   -4202.2119 
36234000    71.003947   -4601.7462   -4480.0479   -4601.7462            0    2473.7847    17.788902      23.3311    21.971139    9118.7842    4161.1155    1623.7467    1636.4918    304.42748    507.47092   -85.767323   -4151.0639 
36235000     71.18085   -4616.2993   -4494.2977   -4616.2993            0    2043.3789    17.963457    23.320501    21.840889    9149.5157    2079.3628    1348.9675    2701.8063    233.80104     758.9809    57.266797   -4221.6368 
36236000    72.977681    -4614.268   -4489.1867    -4614.268            0    2462.7884    17.863423    23.195557     22.04391    9133.9392    2745.6643    2434.6902    2208.0108   -15.657523    411.76093    108.27238   -4161.1208 
36237000    71.447254   -4612.1819   -4489.7238   -4612.1819            0    1375.2949    18.111896    23.295717     21.77094    9185.8038    644.27233    1420.9221    2060.6901   -91.364184    -188.8983    42.440556   -4305.4817 
36238000    73.305388   -4609.9466   -4484.3037   -4609.9466            0    1552.2228    17.953595    23.215263    22.004668    9171.4892    1670.7511     2417.603    568.31421    351.02643    9.6298352    547.97165   -4276.6834 
36239000    70.671491   -4606.4583   -4485.3298   -4606.4583            0    2557.2654    17.966762    23.051087    22.006791    9114.1875     2885.638    2697.2659    2088.8923    568.70337    -395.6083    62.505171   -4145.4153 
36240000    74.971978   -4615.2438   -4486.7444   -4615.2438            0    2118.2106    17.937087    23.188398    21.984236     9143.954    2181.5779     1719.962    2453.0919   -146.46999    453.00922    176.08817     -4204.27 
36241000    71.877046   -4618.1258    -4494.931   -4618.1258            0    2384.5692    18.020356    23.212905    21.839659    9135.6343    2171.8619     2332.704    2649.1417    64.035094    360.20764    205.11857   -4177.2256 
36242000    72.602046   -4612.0835   -4487.6461   -4612.0835            0    2454.5181    17.913367    23.224216     21.95729    9134.7577    2768.0955     2588.783    2006.6757    89.460886   -66.707178   -53.940746   -4160.6526 
36243000    74.102768   -4606.9369   -4479.9273   -4606.9369            0    2642.6826    17.860059    23.300435    21.909122    9117.4186    2729.4893    2556.1687    2642.3898   -999.36021     9.282116   -9.9424519   -4128.5346 
36244000    75.628637   -4613.2417   -4483.6168   -4613.2417            0    2158.7082    17.957623    23.285389    21.889977    9153.2986    2074.5299    2979.1184    1422.4763   -117.22859     43.96433    172.64117   -4195.4476 
36245000    72.149774   -4603.1281   -4479.4658   -4603.1281            0    2191.8636      17.9536    23.295865    21.866217    9145.4277    2655.9563     1603.442    2316.1925    -242.5499   -275.22443   -64.609492   -4187.1223 
36246000      72.8919   -4613.8245   -4488.8903   -4613.8245            0    1127.3477    17.980393    23.226606    21.975376    9177.4335    816.59196    1705.4661    859.98505   -649.15231    18.727579    29.298234   -4338.0022 
36247000    72.994635   -4616.2829   -4491.1725   -4616.2829            0    1510.1656    17.916827    23.266071    21.997414    9169.7137    935.57776    1895.7911    1699.1279    8.0710314   -195.49053   -153.60983   -4289.2168 
36248000    76.524769    -4610.928   -4479.7671    -4610.928            0    2376.5342    17.868344    23.361213    21.871104    9129.5715    2253.2955    2557.0697    2319.2374    214.00398   -95.468749   -163.80032   -4163.3424 
36249000    71.810723   -4617.3687   -4494.2876   -4617.3687            0    2014.8278    17.808688    23.497189    21.852734    9144.3665    3055.1404    1011.3111     1978.032   -171.33054   -89.513693    430.51278   -4225.5877 
36250000    72.433817   -4599.9865   -4475.8374   -4599.9865            0     2747.013    17.880038    23.336314    21.869654    9125.2046    2351.9762    3044.6864    2844.3763    141.53721    100.00646   -57.418946   -4110.2601 
Loop time of 371.131 on 64 procs for 250000 steps with 864 atoms

Performance: 116.401 ns/day, 0.206 hours/ns, 673.616 timesteps/s
193.3% CPU use with 32 MPI tasks x 2 OpenMP threads

MPI task timing breakdown:
Section |  min time  |  avg time  |  max time  |%varavg| %total
---------------------------------------------------------------
Pair    | 16.865     | 24.936     | 33.856     | 104.2 |  6.72
Bond    | 0.99025    | 1.2119     | 1.6374     |  13.2 |  0.33
Kspace  | 185.63     | 195.25     | 205.41     |  40.6 | 52.61
Neigh   | 0.18519    | 0.2018     | 0.21552    |   2.1 |  0.05
Comm    | 54.637     | 59.686     | 63.636     |  27.8 | 16.08
Output  | 0.61821    | 0.6186     | 0.62057    |   0.0 |  0.17
Modify  | 67.772     | 69.772     | 74.13      |  20.0 | 18.80
Other   |            | 19.46      |            |       |  5.24

Nlocal:        27.0000 ave          38 max          17 min
Histogram: 1 8 6 1 0 3 3 3 1 6
Nghost:        2157.59 ave        2263 max        2053 min
Histogram: 11 5 0 0 0 0 0 0 8 8
Neighs:        6655.28 ave        9316 max        4082 min
Histogram: 1 7 6 2 0 3 4 2 3 4

Total # of neighbors = 212969
Ave neighs/atom = 246.49190
Ave special neighs/atom = 2.0000000
Neighbor list builds = 616
Dangerous builds = 0

unfix		3
unfix		2
unfix		1

write_data	data.final.${pid} nocoeff
write_data	data.final.0 nocoeff
System init for write_data ...
PPPM initialization ...
  extracting TIP4P info from pair style
  using 12-bit tables for long-range coulomb (../kspace.cpp:340)
  G vector (1/distance) = 0.37214181
  grid = 24 27 25
  stencil order = 5
  estimated absolute RMS force accuracy = 0.0031098623
  estimated relative force accuracy = 9.3652581e-06
  using double precision FFTW3
  3d grid and FFT values/proc = 4410 672
Last active /omp style is kspace_style pppm/tip4p/omp

write_restart   restart.lmp.${pid}
write_restart   restart.lmp.0
System init for write_restart ...
PPPM initialization ...
  extracting TIP4P info from pair style
  using 12-bit tables for long-range coulomb (../kspace.cpp:340)
  G vector (1/distance) = 0.37214181
  grid = 24 27 25
  stencil order = 5
  estimated absolute RMS force accuracy = 0.0031098623
  estimated relative force accuracy = 9.3652581e-06
  using double precision FFTW3
  3d grid and FFT values/proc = 4410 672
Last active /omp style is kspace_style pppm/tip4p/omp
Total wall time: 0:06:11
