#include		in.partitions
include		in.temp
variable        temperature equal 110.10
variable	tempDamp equal 100.0
include		in.pressure
variable        pressure equal 2055.4
variable        pressureDamp equal 1000.0 # This is 1 ps
include		in.seed
variable        seed equal 745823

units		real
atom_style	full
box tilt large
read_restart	restart.lmp.${pid}
read_restart	restart.lmp.0
Reading restart file ...
  restart file = 30 Jul 2021, LAMMPS = 30 Jul 2021
  restoring atom style full from restart
  triclinic box = (-10.691084 -9.1624128 0.083514383) to (12.671084 12.152411 21.776485) with tilt (-9.1256745 2.0808134 2.9238078)
  2 by 2 by 4 MPI processor grid
  restoring pair style lj/cut/tip4p/long/omp from restart
  restoring bond style harmonic/omp from restart
  restoring angle style harmonic/omp from restart
  1296 atoms
  864 bonds
  432 angles
Finding 1-2 1-3 1-4 neighbors ...
  special bond factors lj:    0        0        0       
  special bond factors coul:  0        0        0       
     2 = max # of 1-2 neighbors
     1 = max # of 1-3 neighbors
     1 = max # of 1-4 neighbors
     2 = max # of special neighbors
  special bonds CPU = 0.001 seconds
  read_restart CPU = 0.007 seconds
include 	in.setup
variable	out_freq equal 1000
variable	out_freq2 equal 10000
variable	out_freq3 equal 1000

timestep	2.0

neigh_modify    delay 7 every 1

include		in.tip4p
# This is TIP4P/Ice

# create groups ###
group ox type 2
432 atoms in group ox
group hy type 1
864 atoms in group hy

# set charges - beside manually ###
set group ox charge -1.1794
Setting atom values ...
  432 settings made for charge
set group hy charge 0.5897
Setting atom values ...
  864 settings made for charge

# ### TIP3P Potential Parameters ###
pair_style lj/cut/tip4p/long/omp 2 1 1 1 0.1577 8.5
pair_coeff 1 1*2 0.000 0.000
pair_coeff 2 2 0.21084 3.1668
bond_style  harmonic
bond_coeff  1 450 0.9572
angle_style harmonic
angle_coeff 1 55 104.52
kspace_style pppm/tip4p/omp 1.0e-5
pair_modify tail yes

thermo          ${out_freq}
thermo          1000
thermo_style    custom step temp pe etotal epair emol press lx ly lz vol pxx pyy pzz pxy pxz pyz enthalpy

restart 	${out_freq3} restart.lmp.${pid} restart2.lmp.${pid}
restart 	1000 restart.lmp.${pid} restart2.lmp.${pid}
restart 	1000 restart.lmp.0 restart2.lmp.${pid}
restart 	1000 restart.lmp.0 restart2.lmp.0


include         in.dump
dump            myDump all atom ${out_freq2} dump.water.${pid}
dump            myDump all atom 10000 dump.water.${pid}
dump            myDump all atom 10000 dump.water.0
dump            myDump2 all dcd ${out_freq2} dump.dcd
dump            myDump2 all dcd 10000 dump.dcd
dump_modify     myDump append yes
dump_modify     myDump2 append yes


variable natoms 	equal  "count(all)"                        # NUMBER ATOMS
variable H      	equal  "enthalpy/v_natoms"                 # ENTHALPY-per-atom
variable Vol      	equal  "vol/v_natoms"                 # volume-per-atom
fix AVG all 		ave/time ${out_freq} 1 ${out_freq} v_Vol v_H file vol_enthalpy.dat
fix AVG all 		ave/time 1000 1 ${out_freq} v_Vol v_H file vol_enthalpy.dat
fix AVG all 		ave/time 1000 1 1000 v_Vol v_H file vol_enthalpy.dat


timer           timeout 10:00:00 every 1000
New timer settings: style=normal  mode=nosync  timeout=10:00:00

fix 		1 all shake 1e-6 200 0 b 1 a 1
       0 = # of size 2 clusters
       0 = # of size 3 clusters
       0 = # of size 4 clusters
     432 = # of frozen angles
  find clusters CPU = 0.000 seconds
fix             2 all nph tri ${pressure} ${pressure} ${pressureDamp}
fix             2 all nph tri 2055.4 ${pressure} ${pressureDamp}
fix             2 all nph tri 2055.4 2055.4 ${pressureDamp}
fix             2 all nph tri 2055.4 2055.4 1000
fix             3 all temp/csvr ${temperature} ${temperature} ${tempDamp} ${seed}
fix             3 all temp/csvr 110.1 ${temperature} ${tempDamp} ${seed}
fix             3 all temp/csvr 110.1 110.1 ${tempDamp} ${seed}
fix             3 all temp/csvr 110.1 110.1 100 ${seed}
fix             3 all temp/csvr 110.1 110.1 100 745823


run             250000
PPPM initialization ...
  extracting TIP4P info from pair style
  using 12-bit tables for long-range coulomb (../kspace.cpp:340)
  G vector (1/distance) = 0.36599428
  grid = 30 40 32
  stencil order = 5
  estimated absolute RMS force accuracy = 0.0048606963
  estimated relative force accuracy = 1.4637842e-05
  using double precision FFTW3
  3d grid and FFT values/proc = 11832 2400
Last active /omp style is kspace_style pppm/tip4p/omp
Neighbor list info ...
  update every 1 steps, delay 7 steps, check yes
  max neighbors/atom: 2000, page size: 100000
  master list distance cutoff = 10.8154
  ghost atom cutoff = 10.8154
  binsize = 5.4077, bins = 7 5 5
  1 neighbor lists, perpetual/occasional/extra = 1 0 0
  (1) pair lj/cut/tip4p/long/omp, perpetual
      attributes: half, newton on, omp
      pair build: half/bin/newton/tri/omp
      stencil: half/bin/3d/tri
      bin: standard
Per MPI rank memory allocation (min/avg/max) = 12.75 | 12.76 | 12.76 Mbytes
Step Temp PotEng TotEng E_pair E_mol Press Lx Ly Lz Volume Pxx Pyy Pzz Pxy Pxz Pyz Enthalpy 
26000000    115.41021   -6714.4796   -6417.5939   -6714.4796            0    2349.2426    23.362169    21.314824     21.69297    10802.242    2151.6277    2389.5095    2506.5908   -8.0288985   -700.81015   -317.15202   -6047.4951 
26001000    111.15684   -6736.7761   -6450.8319   -6736.7761            0    2299.3449    23.335006    21.312216    21.686876    10785.332    2107.0487    2672.5579    2118.4281    613.95082     367.9508   -34.755236    -6089.161 
26002000    107.70839   -6722.0552   -6444.9819   -6722.0552            0    2124.9859    23.200057    21.464213     21.67101    10791.534    3091.8552    1261.4522    2021.6503    377.57869    19.661314   -453.18658   -6110.5443 
26003000    107.60101   -6725.1267   -6448.3297   -6725.1267            0    1987.0833    23.127544    21.481599    21.677667    10769.825    2404.7229    1741.9322    1814.5948    458.86965    192.18421    320.25588   -6136.2248 
26004000     107.3344   -6739.7994   -6463.6882   -6739.7994            0    1133.6347    23.339357    21.369189    21.670413    10807.969    757.63895    1337.4184    1305.8469    16.046551    402.10277   -11.861662   -6285.0011 
26005000    109.86599   -6731.4858   -6448.8622   -6731.4858            0    2504.8491    23.338552    21.235821    21.707382    10758.467     2107.143    2472.1583     2935.246    254.99666    291.80772    243.20681   -6055.8484 
26006000    110.70848   -6725.3968    -6440.606   -6725.3968            0     599.2834     23.36656    21.359648    21.716403    10838.689    177.23908    707.43595    913.17518    285.29864   -362.72699    74.514877   -6345.8766 
26007000    110.47132   -6739.9964   -6455.8156   -6739.9964            0    2105.9207    23.067054    21.488508    21.743476    10777.732     3013.539    1350.0287    1954.1944    162.11131   -463.82958    456.40494   -6124.8025 
26008000    112.46813   -6733.0231   -6443.7056   -6733.0231            0    1948.9613    23.204297     21.48612    21.643775    10790.944    1459.9737    1455.0258    2931.8844    26.613094    523.41153   -619.18078   -6136.9882 
26009000    118.65413   -6734.7821   -6429.5516   -6734.7821            0    1508.8433    23.326875    21.351541    21.710775    10813.371    1542.4489    1432.6591     1551.422   -54.810253    170.81896   -264.13967   -6191.6041 
26010000    110.47672   -6725.8523   -6441.6577   -6725.8523            0    2082.6485    23.399599    21.267345    21.671142    10784.586    2112.3511    2890.0048    1245.5894    173.26091   -1200.5414   -260.99613   -6114.0943 
26011000    110.55997   -6731.1731   -6446.7643   -6731.1731            0    2425.7958    23.278945    21.303089     21.69466    10758.674    2144.3471    2396.7425    2736.2978   -132.44681    425.87486    503.12995   -6066.1467 
26012000    113.45777   -6721.1126   -6429.2494   -6721.1126            0    2043.5933    23.203838    21.399226    21.740371    10795.055    2517.6184    1920.9523    1692.2092   -196.78171    856.94212    167.97169   -6107.5167 
26013000    112.12451   -6724.5741   -6436.1406   -6724.5741            0     1823.836    23.133727     21.54241    21.658697    10793.747    2262.4307    1212.2412    1996.8359   -342.32593    372.04244   -255.44186   -6149.0402 
26014000     107.6175   -6736.8276   -6459.9881   -6736.8276            0    2016.6152    23.301591     21.40304    21.622525    10783.691    1738.9034    725.11413    3585.8282    -126.8015    498.52617    339.69913   -6142.8369 
26015000    110.54964   -6733.2005   -6448.8183   -6733.2005            0    2473.1354    23.261305     21.33562    21.669596    10754.499    2970.6416    1580.0224    2868.7421   -882.21894    83.749013   -599.12839   -6060.9235 
26016000    110.33437   -6732.6328   -6448.8044   -6732.6328            0    1196.0307    23.437402    21.286126    21.649016     10800.51   -45.473975    1911.2375    1722.3285    608.31314    3.3529675    250.59644   -6260.4124 
26017000    111.80204   -6734.2167   -6446.6128   -6734.2167            0    3132.0701    23.203334    21.302049    21.723198    10737.311    2594.9772    3220.0028    3581.2304   -311.96791    468.72112    290.14735   -5956.1536 
26018000    106.55201   -6739.3849   -6465.2863   -6739.3849            0    148.27147    23.304486    21.467621     21.71895    10865.815    285.96263   -104.50396    263.35573       492.65    346.50922    175.31247   -6441.7902 
26019000    105.85611   -6721.9339   -6449.6255   -6721.9339            0    2191.7807      23.1772    21.451755    21.699526    10788.822    2719.5773    1880.3004    1975.4645    80.234278   -267.45013   -441.11609   -6104.7622 
26020000    111.16008   -6738.6806   -6452.7281   -6738.6806            0    2261.9673    23.334784    21.426796    21.573848    10786.701    2312.2988    1792.2189    2681.3842    -17.74851   -497.69875   -225.47808   -6096.8913 
26021000    107.71476   -6738.3996   -6461.3099   -6738.3996            0    1964.1692    23.300885    21.296713    21.755101    10795.583     1469.133    1962.1857    2461.1887   -309.82754   -264.89133   -397.08422   -6152.0662 
26022000     105.4806    -6716.119   -6444.7766    -6716.119            0     2081.785    23.417061    21.308324    21.612126    10783.982    798.57598    2775.7318    2671.0472    312.13862   -154.36812   -45.168941   -6117.3673 
26023000    109.81997   -6736.0077   -6453.5025   -6736.0077            0     1452.769    23.170516    21.408263    21.806444    10816.879    2362.3587    1048.9458    947.00237     101.4478   -1173.7185   -94.811354   -6224.3237 
26024000    113.49692   -6707.0782   -6415.1143   -6707.0782            0    2688.3616    23.183895    21.453951    21.630618    10758.769    3159.0066    1475.9314    3430.1469   -590.29084    186.33777    889.00426   -5993.2953 
26025000    112.18177   -6719.0363   -6430.4555   -6719.0363            0    2252.1857    23.273477    21.421586    21.674926    10806.138    2010.4077    2116.1249    2630.0247    223.83618   -247.30287   -154.81033    -6075.519 
26026000    112.44093   -6719.2242   -6429.9767   -6719.2242            0    3090.4282    23.271193    21.325696    21.687982     10763.19    3183.8933    2884.4366    3202.9546    -1355.309   -386.60603   -613.45238   -5944.8719 
26027000    115.31883   -6736.4833   -6439.8326   -6736.4833            0    1827.6867    23.350488    21.424794    21.567645    10789.848    2621.2601    1100.3894    1761.4106   -1501.6561    3.9827084   -268.66268   -6152.2299 
26028000    105.38699   -6733.1946    -6462.093   -6733.1946            0    2512.7864    23.248684    21.330519    21.707083    10764.684    2002.6456    2630.2963    2905.4174    808.51194    923.80407    91.708217   -6067.6059 
26029000    107.87186   -6736.4324   -6458.9386   -6736.4324            0    2033.6694    23.212391    21.354638    21.777713    10795.042    2499.9091    2297.7141    1303.3851    11.621714    125.27078    773.37865   -6138.7686 
26030000    118.70156   -6733.7403   -6428.3878   -6733.7403            0    2181.1171    23.254601    21.402251     21.66336    10781.872    2294.7485    2432.3494    1816.2535    590.92105   -500.95682    749.84739   -6085.4234 
26031000    110.96598    -6722.428   -6436.9748    -6722.428            0    1817.2408    23.325968     21.31804    21.721813    10801.474      1128.02    2995.4103    1328.2921   -635.76623    568.02139   -1149.5576   -6150.7077 
26032000    114.91304   -6736.1381   -6440.5313   -6736.1381            0    1895.3121    23.302674    21.375871    21.669745    10794.024    2073.7858    1604.6299    2007.5206    19.012243    -408.6962    205.64612   -6142.1717 
26033000    110.94367   -6733.2305   -6447.8346   -6733.2305            0    2261.4169    23.199416    21.500033    21.628487    10788.034    2547.6898    1861.8427    2374.7182   -1698.5113   -122.89563   -1162.0251   -6092.0404 
26034000    109.65698   -6735.0421   -6452.9562   -6735.0421            0    1754.5385    23.261517    21.432922     21.61783    10777.834    1104.8233    2111.8377    2046.9545   -163.48068    1003.5365    217.68978   -6177.1714 
26035000    108.77407   -6740.6453   -6460.8306   -6740.6453            0    1421.2339    23.288562    21.323341    21.744214    10797.958    1014.7234    2231.1775    1017.8008    393.76808    170.27606   -300.88195   -6237.0188 
26036000    110.34935   -6740.7795   -6456.9126   -6740.7795            0    2133.2451    23.325947    21.299382    21.681687    10772.075     2030.092    2386.2901    1983.3532   -588.46811    181.04152   -200.41536   -6121.7805 
26037000    107.67932   -6721.4934   -6444.4949   -6721.4934            0    1877.2524    23.340118    21.406531    21.609492    10796.771    2545.5614    1248.0006    1838.1952   -683.88333    -1024.574    -495.1773   -6148.9031 
26038000    108.89884   -6727.5177   -6447.3821   -6727.5177            0    2180.5173    23.189135    21.432987    21.692869    10781.625    2259.3939    2036.1814    2245.9766    301.92908    267.88829   -649.66747   -6104.5199 
26039000    109.99304   -6728.2794    -6445.329   -6728.2794            0    2120.8486    23.197122    21.458964    21.663669    10783.876    3398.1151    1567.2488    1397.1818   -48.031315   -1063.9619    222.05391   -6111.7794 
26040000    108.73868   -6735.8617    -6456.138   -6735.8617            0    1714.7401    23.259443    21.387668     21.70371    10796.842    1482.5601    1947.1732    1714.4869   -45.962277   -10.536112   -6.2769895   -6186.1336 
26041000    109.13299   -6735.3397   -6454.6017   -6735.3397            0    2940.0333    23.282088    21.243635     21.73812    10751.591     3016.871    3124.2669    2678.9619    367.82289   -128.94234   -59.670432   -5993.6018 
26042000    107.63665    -6727.771   -6450.8822    -6727.771            0    1985.6571     23.28725    21.341826    21.702147    10785.803    1707.4767    2019.4323    2230.0622    77.820914    -330.4402   -498.94306   -6138.5386 
26043000    111.98664   -6729.6029   -6441.5241   -6729.6029            0    2024.3828    23.221097    21.441689    21.634967     10772.04    2501.8814    1669.4151    1901.8519   -1165.3885    28.928877    112.92614   -6123.4953 
26044000    109.48746   -6726.0166   -6444.3667   -6726.0166            0      1865.05    23.140272    21.465064    21.752448    10804.602    2446.5064    899.17282    2249.4706     332.8379   -343.72495    100.67227   -6150.4833 
26045000    101.88514   -6738.9661   -6476.8728   -6738.9661            0    2129.4076    23.248207     21.38744    21.639133    10759.402    2316.4605    1608.2054    2463.5569    129.66726    491.75513    174.05992   -6142.7372 
26046000    110.46879   -6727.3149   -6443.1407   -6727.3149            0    2084.8387    23.267852    21.292487     21.77562    10788.305    2126.1182     2912.826     1215.572   -208.65149   -371.78043    151.15606   -6115.1198 
26047000    110.28602   -6744.4036   -6460.6995   -6744.4036            0     1975.912    23.333985    21.299267    21.736647    10803.043    1289.1754     1976.043    2662.5178    746.89958   -652.55089   -9.9146613    -6149.392 
26048000    114.32685    -6731.733   -6437.6341    -6731.733            0    3777.1649    23.326618    21.225098    21.614476    10701.538    3846.7976    3898.7187    3585.9784    189.37265   -312.75699   -25.258297   -5848.1284 
26049000    110.16593   -6720.1419   -6436.7468   -6720.1419            0    2248.4373    23.191764    21.391687    21.768283    10799.483    2785.8865    2205.0205     1754.405    140.73335   -602.04702    330.84784   -6082.6193 
26050000    111.91945   -6734.7379   -6446.8319   -6734.7379            0    2737.2898    23.200058    21.452878    21.604413     10752.69    2225.8594     2653.477    3332.5329   -689.43118    745.42389    56.405787   -6017.5785 
26051000    111.20126   -6723.2475    -6437.189   -6723.2475            0    1579.1642    23.259927    21.381002    21.741882    10812.685    2162.8399    1364.3461    1210.3066    530.92498   -358.58087   -799.04625   -6188.1676 
26052000    108.61404   -6740.4423   -6461.0393   -6740.4423            0    1177.0317     23.30691    21.327103    21.713189     10792.95    765.40197    1313.3336    1452.3595     95.76437    230.63021   -90.149019   -6275.7697 
26053000    107.31325   -6730.3625   -6454.3057   -6730.3625            0    2466.8425    23.300872    21.354847    21.647696    10771.602    868.56488    3546.4408    2985.5217    512.68659    238.47217   -108.71634   -6066.7825 
26054000     113.6317    -6733.098   -6440.7874    -6733.098            0    1942.7924    23.159255    21.474806    21.698821    10791.703    2421.4343    1388.1011    2018.8417    507.15349   -239.56553   -369.73813   -6135.0192 
26055000    113.18722    -6735.269   -6444.1018    -6735.269            0    2044.3957    23.235142    21.488938    21.624059     10796.86    2620.9397    1058.9737    2453.2738   -440.06252    751.25911   -532.70812   -6122.1889 
26056000    113.87027   -6723.9305   -6431.0062   -6723.9305            0    2290.1022    23.252671     21.41885    21.663523     10789.42    1976.9123    2290.6279    2602.7664   -236.50098   -507.97949    404.31001   -6070.6526 
26057000    109.36275   -6725.5113   -6444.1823   -6725.5113            0    3242.4285    23.278153    21.231582    21.715056    10732.276    2729.6941    3861.0101    3136.5812   -13.753779    800.30313    215.35165   -5936.6799 
26058000    110.01138   -6732.3655   -6449.3679   -6732.3655            0    1454.5005    23.386274     21.24083    21.779863    10819.013    701.84292    2429.6034    1232.0551    105.29243    765.52381    448.29812   -6219.8707 
26059000    110.33696   -6727.1155   -6443.2803   -6727.1155            0     2587.081    23.276732    21.358723    21.639984    10758.562    1615.8651    3248.2465    2897.1315   -72.754549    508.47641   -216.85183   -6037.3606 
26060000    109.97385    -6747.762    -6464.861    -6747.762            0     2584.213    23.199109     21.45488    21.621255    10761.636    2129.9094    2424.5978    3198.1317    -837.8143    332.48942   -345.31427   -6059.2754 
26061000    107.43742   -6724.9235   -6448.5473   -6724.9235            0    1611.1235    23.279367    21.419477    21.672404    10806.551    1539.4032    1451.0027    1842.9647    277.17397   -124.32046   -530.37533   -6194.6303 
26062000    108.95853   -6721.1554   -6440.8662   -6721.1554            0    1749.6527     23.36581    21.358266    21.620546    10789.802    1411.8386    1655.6448    2181.4747   -518.67635   -127.37704   -226.81939   -6165.5441 
26063000    114.74175   -6723.8109   -6428.6447   -6723.8109            0    2454.6617    23.238911    21.313672    21.798335    10796.857    3084.2674    2833.3679    1446.3497    136.22771    73.494659   -256.91183    -6042.131 
26064000    107.66493   -6728.5295    -6451.568   -6728.5295            0     2578.319    23.252309    21.393548    21.659882    10774.695    2714.6705    2161.4975    2858.7891    746.06052   -42.986962     901.0499   -6046.4164 
26065000    104.96038   -6737.8817   -6467.8775   -6737.8817            0    1764.2711    23.213894    21.417437    21.745649    10811.547    1602.6922    1738.0938    1952.0272   -616.19163     180.2851    171.41561   -6189.6955 
26066000    114.84533   -6730.2243   -6434.7917   -6730.2243            0    1684.7041    23.292555    21.414013    21.683109    10815.255    1022.9564    2416.2162    1614.9397    320.34976   -358.52436   -195.54912   -6169.0643 
26067000     104.9144   -6737.0074   -6467.1215   -6737.0074            0    2614.7641    23.319246    21.296652    21.657014    10755.347    1493.7603    2889.7926    3460.7395   -57.484574    615.13342    182.53713   -6056.9809 
26068000    109.45724    -6742.276   -6460.7039    -6742.276            0    2745.8195    23.211561    21.304473    21.733687    10747.528    2411.2398    3378.2841    2447.9348    10.270786    67.865542    98.926574   -6030.3195 
26069000    105.89407   -6742.5593   -6470.1532   -6742.5593            0    1016.7274    23.257556     21.46041    21.648797    10805.276     728.4836    1164.2798    1157.4188   -83.521324    140.91043    550.48497   -6309.9334 
26070000    107.96752   -6730.9821   -6453.2422   -6730.9821            0    1742.9797    23.156547     21.46164    21.728247    10798.449     2535.699    1178.6094    1514.6307   -671.97435   -355.27952    89.839117   -6178.7503 
26071000    110.84655   -6729.8926   -6444.7466   -6729.8926            0    1906.1238    23.371177    21.396052    21.596092    10799.146    1446.1341    2066.8326    2205.4046    727.04737   -367.54405   -1017.1842   -6144.5427 
26072000    112.75649   -6711.2212    -6421.162   -6711.2212            0    2311.3517    23.306101    21.396102    21.617417    10779.735    1812.7793     1983.127    3138.1487   -580.94828   -55.060854   -859.52558   -6057.7912 
26073000    103.10524   -6726.5315   -6461.2995   -6726.5315            0    2235.5638    23.253281    21.408962    21.663153    10784.537    3196.0064    757.92915    2752.7558   -261.25401   -1362.3404    343.65221   -6109.6869 
26074000    112.52251   -6740.1516   -6450.6943   -6740.1516            0     2412.203     23.16509    21.354629    21.770666    10769.554    2852.7783    3200.6974    1183.1335    293.73743    1321.4754   -662.60913   -6071.8267 
26075000    107.22232   -6725.6042   -6449.7813   -6725.6042            0    1100.0664    23.260104    21.384575    21.770688    10828.902    812.46087    1416.8954    1070.8429     1204.293    748.68484    820.81138   -6276.0496 
26076000     112.1378   -6738.5161   -6450.0484   -6738.5161            0    1555.7113     23.31211    21.371796    21.692759    10807.803    1121.9207    1528.5229    2016.6903   -371.17515    218.02073    1300.3355   -6204.8361 
26077000    109.63776   -6742.5851   -6460.5486   -6742.5851            0     1807.984    23.395782     21.27641    21.656569    10780.169    1444.4804    2165.0338    1814.4377   -263.20036    214.94437   -68.482821   -6176.3015 
26078000    114.21516    -6723.131   -6429.3194    -6723.131            0    1923.3796    23.252971       21.383    21.744249    10811.638    2470.5394     2232.583    1067.0165    482.95573     66.68605    -692.4867   -6126.0474 
26079000    105.94914    -6733.558   -6461.0103    -6733.558            0    2341.8721    23.225326     21.47801    21.601659    10775.637    1946.5189    1523.4219    3555.6755   -1027.2895     91.60109    22.694141   -6092.9814 
26080000    109.11436   -6709.6545   -6428.9645   -6709.6545            0    2389.4567    23.125564    21.482653    21.709252    10785.123    2614.4531    2208.9291    2344.9877   -677.02134     560.4328    874.68433   -6053.1269 
26081000    110.99909   -6742.6486   -6457.1102   -6742.6486            0    2003.0637    23.345213     21.31634    21.629405    10763.538     1851.075    2297.0251    1861.0909    86.138944    269.09142   -173.12742   -6142.6789 
26082000    106.48676   -6728.4711   -6454.5404   -6728.4711            0    1739.2258    23.285847    21.339477    21.698117    10781.964    2010.5673    1218.2536    1988.8566     264.6186   -418.99043    907.29488   -6181.0578 
26083000    113.12428   -6742.9165   -6451.9112   -6742.9165            0    1496.3019    23.381277    21.328751    21.670509    10806.941    1531.5466    1224.4857    1732.8734    -688.6127    69.010882   -102.38106   -6216.0818 
26084000    114.93211   -6722.1409    -6426.485   -6722.1409            0    2587.7734    23.159283    21.494383      21.6642     10784.32    2753.9013    2047.7854    2961.6336     469.9386   -816.52488   -716.10016   -6019.4846 
26085000    108.87291   -6732.7736   -6452.7047   -6732.7736            0    1623.7068    23.197853    21.497636    21.652461    10798.061    2249.8394    801.13354    1820.1476   -208.82651    498.73432   -240.04556   -6197.0055 
26086000    109.13495   -6735.7747   -6455.0317   -6735.7747            0    1799.7683    23.209843    21.417272    21.698919    10786.349    2183.0497     1320.981    1895.2741   -962.07536   -33.867997    312.13108    -6171.914 
26087000    109.48218   -6745.1817   -6463.5455   -6745.1817            0    2888.9988    23.324873    21.270825    21.648491    10740.667    2054.2589    3405.6629    3207.0746    478.05844    321.89548    485.09151   -6011.0081 
26088000    109.33245   -6727.7542   -6446.5031   -6727.7542            0    1645.6494    23.331466    21.287066    21.772376    10813.435    1142.1694    2904.0257    890.75316    68.998255    389.49895    36.968971   -6186.9795 
26089000    106.53671    -6742.897   -6468.8378    -6742.897            0    1904.0544    23.352836    21.371058    21.585701     10772.88    1246.2297    1394.3376    3071.5958   -145.65947   -726.89059    272.41539   -6169.6891 
26090000    112.02476   -6745.9268   -6457.7499   -6745.9268            0    1179.7094    23.188009    21.459369    21.739945    10817.797    1999.3924    1129.6647    410.07106   -789.60178    348.71838   -909.54152   -6271.6313 
26091000    109.77524   -6746.3195   -6463.9293   -6746.3195            0    2607.5161    23.228582    21.422542    21.597205    10747.099    2672.7604    2327.8629    2821.9249   -339.19354    443.13648   -244.55948   -6055.2392 
26092000    110.46751   -6731.8957   -6447.7248   -6731.8957            0    799.99607    23.232757    21.440581    21.784731    10851.493    1192.0524     578.1899    629.74591   -572.44864  -0.95004736    101.54354   -6321.1191 
26093000    107.57074   -6725.5001   -6448.7809   -6725.5001            0     1961.344    23.285681      21.3632    21.659669    10774.746    1894.4489    1765.6336    2223.9496   -981.86709    208.39161     388.0448    -6140.578 
26094000    109.01369   -6723.2416   -6442.8105   -6723.2416            0    2629.1078    23.295364     21.25781     21.71719    10754.535    2425.0268    2961.9801    2500.3165    248.26642   -731.70702    215.54568   -6030.4511 
26095000    107.24686   -6740.6988   -6464.8128   -6740.6988            0    2137.8969    23.212991    21.414881    21.672418    10773.433    1852.4189     1845.854    2715.4179    622.62225     115.0945     258.7414   -6128.9076 
26096000    107.64852   -6712.8515   -6435.9323   -6712.8515            0    2512.8963    23.152146    21.512736     21.66446    10790.331    3584.2966    1141.3907    2813.0018   -371.68449   -914.01079   -133.89618   -6040.4881 
26097000    105.58728   -6723.3549    -6451.738   -6723.3549            0    2470.0945    23.224992     21.41045    21.678077    10779.587    3080.7966    2157.9411    2171.5459   -236.02053    861.51553   -1055.8788   -6063.4164 
26098000    106.37548   -6742.7113   -6469.0668   -6742.7113            0    1947.2239    23.263505    21.368287    21.677964    10776.143    1869.1798    2268.6379    1703.8539    257.54163    443.28831    268.08181   -6163.0431 
26099000    109.07248   -6727.7153    -6447.133   -6727.7153            0    2624.6892    23.300899    21.342064    21.627391     10755.07    1262.6188    3280.4415    3331.0074   -172.77108     83.51054    100.54466   -6035.4462 
26100000    109.70387   -6741.9303   -6459.7238   -6741.9303            0     2126.915      23.1911    21.322872    21.800904    10780.566    1808.0187    3378.1529    1194.5733    250.42962    733.01886   -1050.7392   -6125.3228 
26101000    106.22984   -6734.5869   -6461.3171   -6734.5869            0    3272.7536    23.280476    21.350273    21.570791    10721.644    3059.3964    3157.9909    3600.8733   -436.37082    368.34885   -95.468049   -5949.5757 
26102000     107.5891   -6729.2182   -6452.4519   -6729.2182            0    2017.3109    23.230121    21.409918    21.742649    10813.814    1522.6824    2018.2524    2510.9981    17.021981    92.526925    306.36031    -6134.305 
26103000     115.1851   -6733.3834   -6437.0767   -6733.3834            0     1796.995    23.250884    21.437669    21.643349    10788.013    1182.4414     2152.389    2056.1548   -783.87046    128.62977    583.30414   -6154.3517 
26104000    109.02386   -6728.5467   -6448.0895   -6728.5467            0     2305.707    23.231771    21.394948    21.699934     10785.79     2358.224     2583.749    1975.1481    192.92044    430.65328   -322.90449   -6085.4025 
26105000    109.81859   -6721.2763   -6438.7746   -6721.2763            0     2775.671    23.263243    21.362001    21.649646    10758.779    3264.9117     2491.636    2570.4654   -459.66011   -757.22339    247.25645   -6003.2559 
26106000    108.70791   -6737.1242   -6457.4797   -6737.1242            0    2375.1229    23.312543     21.35646    21.652746    10780.326     2504.004    2805.1435    1816.2213    317.65414   -1258.6817   -414.12752   -6084.0629 
26107000    108.25676     -6733.61   -6455.1261     -6733.61            0    2160.5338    23.235156    21.356611    21.726402    10781.166     2763.408    1788.5248    1929.6686    -313.2842   -343.13154    235.55005   -6115.4205 
26108000    111.83576   -6742.8304   -6455.1397   -6742.8304            0    1154.7017    23.270053     21.41638     21.69142    10810.142    1432.2532    641.16404    1390.6879    254.77804    782.17666    335.09289   -6273.0954 
26109000    111.18758   -6746.8091   -6460.7858   -6746.8091            0    2097.3825    23.223391    21.376795    21.703813    10774.677    1828.8402     2683.049    1780.2582    355.73164   -563.95866   -132.51206   -6131.2082 
26110000    106.21773   -6727.7158   -6454.4772   -6727.7158            0     2013.721    23.303002    21.337131    21.691056     10785.21    2159.8028    2463.1274    1418.2328   -685.37956    487.97342   -143.95533   -6137.7366 
26111000    109.84581   -6731.3078   -6448.7361   -6731.3078            0    2399.9616    23.308902    21.285853    21.723376     10778.05    2251.2437    2256.6378    2692.0032   -181.21387   -496.75695    99.151272   -6071.4938 
26112000    109.63182   -6731.0829   -6449.0617   -6731.0829            0    1532.5759    23.311928    21.411481    21.637303    10800.106    1077.6332    1615.6634    1904.4311    159.92474    15.203516    85.810775    -6207.668 
26113000     114.8623   -6740.9002   -6445.4239   -6740.9002            0    2350.6634    23.175445    21.424195    21.672524    10760.739    2887.5612    1894.6247    2269.8043    321.36813   -647.49002   -372.65735   -6076.5241 
26114000    109.02396   -6723.9167   -6443.4592   -6723.9167            0    2473.6763    23.229748     21.44694    21.639707    10781.054    2760.8938     1941.015      2719.12     270.0009   -670.28615     516.2073   -6054.5216 
26115000    114.00687   -6732.1175   -6438.8417   -6732.1175            0    3985.9267    23.132639    21.348693    21.658321    10695.996    5049.6299    3570.0226    3338.1277   -700.06917    1458.4262   -528.43286   -5817.0765 
26116000     107.3131   -6744.0602   -6468.0038   -6744.0602            0    1196.2528    23.353203    21.354728     21.66455    10804.139    1592.0057    1122.2787     874.4741    431.16598   -1217.3943    506.78427   -6279.5135 
26117000    103.55784   -6744.5802    -6478.184   -6744.5802            0    1866.6259    23.261443    21.300411    21.747264    10775.297    1955.8822    1935.2038    1708.7916    -68.03473    168.99845    262.39491   -6184.8499 
26118000    106.59673   -6735.8819   -6461.6683   -6735.8819            0    2267.4451    23.316206    21.342439    21.619736    10758.514    1392.0687    2303.3213    3106.9454    61.353359    841.52413    157.73632   -6105.9019 
26119000    113.26012    -6744.645   -6453.2902    -6744.645            0    2373.2455    23.135119    21.401883    21.754366    10771.351    3032.5926    1833.7624    2253.3815   -820.88959   -296.94331    247.61465   -6080.4792 
26120000    106.33786   -6727.1898   -6453.6421   -6727.1898            0    2385.7568    23.229521    21.472828    21.593878    10771.102    2531.7099    1827.6243    2797.9363   -291.68958     57.67253   -594.75856   -6078.8744 
26121000    111.43743   -6741.2716   -6454.6056   -6741.2716            0     1315.319    23.229847    21.434409    21.710317    10809.958     1420.174     965.2384    1560.5447    237.15457    271.30363    406.26258   -6247.2427 
26122000    110.56725   -6718.3673   -6433.9398   -6718.3673            0    2022.6884    23.240005    21.353634    21.710389    10773.966    1311.8548    2360.5633    2395.6472   -669.39168    821.04269    491.76737   -6116.1203 
26123000     109.0152   -6733.4209   -6452.9859   -6733.4209            0     2578.691    23.308446    21.306936    21.680024    10766.984    2706.9861    2784.7136    2244.3732   -50.698414    139.54623   -98.151823   -6048.0659 
26124000    107.60867   -6723.5034   -6446.6866   -6723.5034            0    2011.1405    23.281546    21.346735    21.730899     10799.93    2025.4052    2332.9357    1675.0807   -63.785637   -630.61579   -544.50833   -6129.9201 
26125000    114.25789   -6734.2406   -6440.3191   -6734.2406            0    1296.9575    23.263333     21.49057    21.670419    10833.959    568.01785    1094.3617     2228.493     903.2667    621.10589    186.29224    -6235.397 
26126000    109.62102   -6736.5203   -6454.5269   -6736.5203            0     2404.048     23.13341    21.462652    21.707249    10777.743    3291.6366    1731.3019    2189.2054   -874.92911   -583.41594   -342.74904    -6076.653 
26127000     112.3586   -6740.8844   -6451.8487   -6740.8844            0     2202.398    23.248447    21.407161    21.659478    10779.559    2903.3128    1450.8133     2253.068   -186.62423     226.8403    329.60634   -6105.6123 
26128000    112.32963   -6738.0877   -6449.1266   -6738.0877            0    3033.8415    23.294917    21.272052    21.671772    10739.028    3059.3868    2704.1726    3337.9653    387.76387   -456.67005   -444.18216   -5973.9733 
26129000    119.31289   -6743.0758   -6436.1506   -6743.0758            0    1397.1487    23.391897    21.341841    21.653262    10809.875    577.21625    1594.8017    2019.4281   -225.63588   -187.57324    364.89671   -6215.8888 
26130000    106.48231   -6746.7418   -6472.8225   -6746.7418            0    1907.9002    23.252852     21.37007    21.670148    10768.223    1225.8592     3055.641    1442.2006    265.50977    626.81211   -1081.3816   -6173.1992 
26131000    104.20964   -6736.6779    -6468.605   -6736.6779            0    2271.0834    23.124686    21.500357    21.694234    10786.134    2297.7254    1629.5531    2885.9718    660.16517    541.73604   -295.45012   -6111.3529 
26132000    111.08103   -6716.3231   -6430.5739   -6716.3231            0    2989.9895    23.192221    21.447064    21.614779      10751.3    3299.2355    2248.1755    3422.5576    727.80393   -184.49749    557.84651   -5961.7535 
26133000    108.76698   -6724.2675   -6444.4711   -6724.2675            0    1644.4725    23.295462     21.36859    21.705797    10804.954    1564.3018    2057.1419    1311.9739   -293.51361   -686.84571    309.69528   -6185.3364 
26134000    105.89696   -6738.2677   -6465.8542   -6738.2677            0    2520.1617    23.357177    21.187075    21.718908    10748.042    1622.9397    3681.1042    2256.4414   -696.34788    1096.8678    47.079633   -6070.8209 
26135000    107.51909   -6741.6421   -6465.0558   -6741.6421            0    2241.3203    23.232647    21.387864    21.673303    10769.393    2862.0906    2021.2899    1840.5803   -629.62729    71.533284    464.09701   -6113.0329 
26136000    116.83034   -6738.7403   -6438.2014   -6738.7403            0    2229.5939    23.185007    21.432594    21.692928    10779.538    2293.6833    2661.3276    1733.7709   -205.47455    52.148921    522.81889   -6087.6903 
26137000    111.67338   -6743.1559    -6455.883   -6743.1559            0    2183.8861    23.201233    21.594154    21.498059    10770.764    2071.0934    1693.6475    2786.9173   -320.55776    245.46848   -317.26338    -6112.837 
26138000    107.60083   -6741.0935   -6464.2969   -6741.0935            0    2203.7583    23.194441    21.394908    21.711296    10774.077    2966.4494    2507.0765    1137.7492    295.36236   -987.87181   -733.26285   -6118.0229 
26139000    111.76596   -6744.7941   -6457.2829   -6744.7941            0    2506.2896    23.325347    21.288502     21.64104    10746.112    1884.3584    2406.1679    3228.3424   -480.87834    171.62559     36.80161   -6064.4947 
26140000    109.15309    -6730.997   -6450.2074    -6730.997            0    1512.8619    23.301204    21.248223     21.81446    10800.539    1192.7066    2300.0926    1045.7863    42.398286   -52.586166    865.11135   -6211.9093 
26141000     107.8386   -6738.1267   -6460.7185   -6738.1267            0      1453.08    23.181487    21.432061    21.729477    10795.792    1854.9641    896.61643    1607.6595    874.61435    214.34981    549.16747   -6231.9375 
26142000     113.6122   -6744.2885   -6452.0281   -6744.2885            0    2097.1935    23.183672    21.464892    21.659472    10778.511     2285.397     1422.748    2583.4354    155.13217    397.99542    327.83447   -6122.3628 
26143000    109.89195   -6731.5204     -6448.83   -6731.5204            0    1707.9668    23.279155    21.409767    21.686654    10808.656    1364.5879    1962.2412    1797.0712    682.76917   -462.02388   -90.520558   -6179.5978 
26144000    109.19975   -6736.1262   -6455.2165   -6736.1262            0    1657.6689    23.374006    21.301684    21.705989    10807.536    1730.2928    1772.0194    1470.6944    -465.2205   -455.29823   -68.978855     -6193.94 
26145000    113.06101   -6726.1269   -6435.2844   -6726.1269            0    2565.2483    23.313424    21.278073    21.708602    10768.872     1357.924    3977.3912    2360.4296    632.89564    206.33861   -4.6045409   -6032.4045 
26146000    109.46116   -6737.2681   -6455.6859   -6737.2681            0     1537.276    23.189914    21.531725    21.624726    10797.633    2129.8013    182.67028    2299.3566    113.33387   -80.868193    274.25868   -6213.6074 
26147000    107.07272   -6738.7315   -6463.2935   -6738.7315            0    2169.5923    23.094363    21.497175    21.692808    10769.689    3039.9083    2351.9464    1116.9223   -584.41288   -15.380995   -364.21926   -6122.5267 
26148000    108.53486   -6741.9036   -6462.7043   -6741.9036            0    1728.1113     23.35558    21.404206    21.541095    10768.558    1181.7972    1331.0767    2671.4599    126.37445    273.14088     139.2441   -6191.3072 
26149000    113.40359   -6730.7064   -6438.9825   -6730.7064            0    1005.8634    23.382116    21.236581    21.830158      10839.9    392.10272    2150.9023    474.58519   -265.80642    -325.7444   -679.11078   -6279.9668 
26150000    110.11737   -6742.1546   -6458.8844   -6742.1546            0    1859.3412    23.354094    21.321516     21.64559    10778.307    1591.2713    1769.7433     2217.009    264.37762   -246.30231    -10.43742   -6166.6135 
26151000    109.91386   -6721.9573   -6439.2106   -6721.9573            0    1990.5797     23.19307    21.386242    21.733358     10780.02    2323.1284    2356.8011    1291.8094    118.26757   -149.40596   -42.630063   -6126.2606 
26152000    109.48661   -6742.8482   -6461.2006   -6742.8482            0    2554.9512    23.054224    21.472588    21.718429    10751.358    3620.2773    2700.1024    1344.4738    92.003557   -138.97433     267.3798   -6060.5906 
26153000    112.20611   -6725.3942   -6436.7508   -6725.3942            0    1235.2052    23.302591    21.487594     21.59238    10811.663    516.87701    1118.9727    2069.7659    336.80706    579.90977    417.92096   -6241.9873 
26154000    111.12545   -6733.0403   -6447.1768   -6733.0403            0    2692.4835    23.258245    21.221251    21.824105    10771.703    2527.7057    2765.1843    2784.5605   -413.05809   -1186.6036    616.66666   -6024.2032 
26155000    107.36407   -6735.8223   -6459.6347   -6735.8223            0    2107.8674    23.390874    21.340231    21.551115    10757.598    1363.9375    2521.6919    2437.9729   -24.610477   -118.87192   -262.57514   -6128.9345 
26156000    105.01171   -6744.1198   -6473.9836   -6744.1198            0    2056.5876    23.233776    21.340726    21.745174    10781.815    2355.0302     2525.181    1289.5516    127.21811   -803.52361   -1002.9574   -6150.6022 
26157000    105.64259   -6731.8512    -6460.092   -6731.8512            0    1389.2019    23.207482    21.500754    21.662732    10809.234    1201.4101    948.98739    2017.2083   -757.40363    1090.8285   -216.44959    -6241.096 
26158000    104.96623   -6730.6317   -6460.6125   -6730.6317            0    2539.5515    23.187244    21.512486     21.56346    10756.183    2554.8144     2186.522     2877.318   -276.05145   -135.77256    182.80145   -6062.2384 
26159000    111.94137   -6739.5206   -6451.5582   -6739.5206            0    1875.9735    23.137329    21.402616    21.801561    10796.119    2463.2486    1987.2771    1177.3948    130.97486   -108.35947   -311.41558   -6156.1856 
26160000    107.91704    -6731.768    -6454.158    -6731.768            0    2315.3138    23.302714    21.270683    21.689285    10750.612    2104.4551    2116.1297    2725.3566    153.63957    249.12707    1108.2037   -6091.1477 
26161000    109.12542   -6744.2319   -6463.5134   -6744.2319            0    2088.0182    23.380596    21.187172    21.777417    10787.851    2036.9154    2643.3708    1583.7685    21.486653   -427.72226     404.7639   -6135.0061 
26162000    106.21331   -6723.8351   -6450.6079   -6723.8351            0     2445.777    23.302764    21.321266    21.677618    10770.404    1493.3765      3341.58    2502.3745    463.36729    67.528209   -114.38606   -6066.4367 
26163000    110.06684   -6736.0309   -6452.8906   -6736.0309            0     1633.349    23.196601    21.549284    21.656274    10825.325    1856.1942    567.47297    2476.3797   -100.26274    20.979452    599.89288   -6195.0236 
26164000    107.55356   -6734.0509   -6457.3759   -6734.0509            0    3628.4649    23.076531    21.499279      21.5897    10711.271    4425.3212    3141.8624    3318.2111    89.745048   -64.431924   -150.66722   -5890.5629 
26165000    111.84404   -6740.1905   -6452.4785   -6740.1905            0    849.68001     23.29285    21.432348    21.705963    10836.061      751.666    801.06948    996.30456    677.34241   -539.50147    135.15979   -6318.2012 
26166000     113.6419   -6729.1889    -6436.852   -6729.1889            0     2621.936    23.338135     21.16585    21.812027    10774.519    1836.1871    3647.5848    2382.0362   -294.57806    -166.6413   -200.26918   -6024.8533 
26167000    111.21149   -6742.0515   -6455.9667   -6742.0515            0    1254.6483    23.446937     21.33196    21.591077     10799.19    300.23736    1591.6679    1872.0397   -436.96597    822.86291    313.94412   -6258.3658 
26168000    116.12581   -6735.0185   -6436.2919   -6735.0185            0    1879.7781    23.183254    21.364757    21.759944      10777.8    1189.4329    2527.0547    1922.8467    265.81676    195.55775   -70.721936   -6140.8225 
26169000     117.9913   -6729.9422   -6426.4167   -6729.9422            0    2514.2794    23.108145    21.563862    21.579958    10753.311    3356.6279    1126.0585    3060.1518    121.67881    325.98328    729.25684   -6032.1123 
26170000    108.26402   -6731.3112   -6452.8086   -6731.3112            0    1793.2753     23.22657    21.442508    21.667482    10791.184    2307.5598    1462.3301    1609.9361   -165.99266   -1040.9705   -485.31242   -6170.5859 
26171000     102.9997    -6718.651   -6453.6905    -6718.651            0    1395.6942    23.366853     21.34108    21.700012    10821.229    404.54273    1580.1809    2202.3591   -551.59919   -607.36906   -181.62979   -6233.4269 
26172000    111.10605   -6733.2472   -6447.4337   -6733.2472            0     2225.036    23.414029    21.222183    21.657137    10761.362    1712.8043    2437.7928    2524.5108    94.285757   -641.51894    542.82833   -6098.2289 
26173000    104.70512   -6726.4205   -6457.0729   -6726.4205            0    2227.4117    23.222408    21.375967    21.704678    10774.234    2746.0809    1921.1449    2015.0094   -70.530494   -68.444596   -11.671327   -6107.0772 
26174000    106.73029    -6735.206   -6460.6488    -6735.206            0    2166.7981    23.166792     21.42817    21.678183    10761.526    1911.3765    2093.9368    2495.0812     484.9432    415.28603    1171.5858   -6120.5789 
26175000    110.50233   -6733.7966   -6449.5361   -6733.7966            0    1566.4668    23.206078    21.451242    21.706206    10805.332    2403.6288     878.7098    1417.0618   -787.99311   -889.49675   -209.17171   -6202.6849 
26176000    107.13501   -6737.0603    -6461.462   -6737.0603            0    1865.2626    23.311358    21.374072    21.649892    10787.246    790.39308    1971.9839    2833.4107   -474.59768    565.02186   -372.91006   -6168.0172 
26177000    113.90275   -6722.8065   -6429.7986   -6722.8065            0    1656.8355    23.405979    21.204557     21.75988     10799.72    442.54058    3362.5289    1165.4369    547.42969    52.242169   -449.21021   -6168.8423 
26178000     109.0802   -6727.7259   -6447.1237   -6727.7259            0    1843.0258     23.31461    21.351015     21.66493    10784.598    1338.8796    2176.3302    2013.8677    426.93478    1179.2914    1442.9653   -6157.2483 
26179000    111.66695   -6737.5521   -6450.2956   -6737.5521            0    2770.2027    23.164619    21.434807    21.658504    10754.078    3845.7952    1625.5339     2839.279   -539.79967   -5.9925968    681.63269   -6015.8248 
26180000    115.23996   -6742.7796   -6446.3318   -6742.7796            0    2082.5303    23.173781    21.528652    21.611952    10782.209    1802.7766    1843.3776    2601.4367   -319.25678    252.82435   -43.499792   -6118.8592 
26181000    106.53554   -6730.2502    -6456.194   -6730.2502            0    2141.4135    23.253882    21.399159    21.672288    10784.424    2111.7271    2609.4332    1703.0803   -826.52606    411.07504   -527.10761    -6119.393 
26182000    113.83919    -6735.746   -6442.9016    -6735.746            0    2055.1486    23.421967    21.238549     21.68103    10785.198     2229.695    2339.7215    1596.0294    30.743788   -481.38437   -418.40834   -6119.6451 
26183000     108.9892    -6740.502   -6460.1339    -6740.502            0    1846.5183    23.350712    21.295414       21.681    10781.161    1440.9293    2118.9466    1979.6789    -27.71053    286.96272     135.5529   -6169.8018 
26184000    109.80557   -6741.7356   -6459.2674   -6741.7356            0    2102.7513    23.167384    21.405385    21.751232    10786.583    2316.2992    2276.5667    1715.3881    166.49532    484.43587    331.08381    -6128.481 
26185000    110.57697   -6723.1795    -6438.727   -6723.1795            0    2305.7005     23.13484    21.562403    21.559653    10754.876    2055.9343    1939.5582    2921.6091   -157.66452    187.27825     183.6434   -6077.0805 
26186000     111.8151   -6725.1229   -6437.4854   -6725.1229            0    2919.9409    23.172466    21.391757    21.732212    10772.653    2056.4171    3706.4836    2996.9219     224.9459    542.81865   -16.215307   -5978.7391 
26187000    104.62959   -6738.5257   -6469.3725   -6738.5257            0    1510.4365    23.375647    21.297233    21.698683    10802.399    664.97557    2125.1827    1741.1513     846.5191    478.78517    138.89959   -6231.4154 
26188000    110.00443   -6718.7546   -6435.7749   -6718.7546            0    2171.3512    23.351238    21.196026     21.86335     10821.34    1211.0283    3641.1217    1661.9037    515.51112    -421.5777    9.5708393   -6093.0963 
26189000     106.5024   -6745.2863   -6471.3154   -6745.2863            0    1958.3622    23.310393    21.396976    21.584342    10765.664    1298.2509    1940.3992    2636.4365    132.92883    442.82657    34.087706   -6163.8405 
26190000    111.25364    -6714.754   -6428.5608    -6714.754            0    1774.9924    23.170595    21.518463    21.684911    10812.002    2601.4137    915.47794    1808.0856   -510.49194   -221.05863   -711.23404   -6148.6765 
26191000    114.26387   -6729.6658    -6435.729   -6729.6658            0    1867.0936     23.14047    21.558717    21.618153    10784.839     2597.236    1265.1446    1738.9002    -710.3692   -270.95373   -1398.7083   -6142.0616 
26192000    112.56486   -6736.0534   -6446.4871   -6736.0534            0    1459.8938    23.407264    21.332614    21.662901    10817.112    458.72548    1365.5425    2555.4135   -140.90689     625.3186    578.35529   -6216.1794 
26193000    105.93417   -6727.9319   -6455.4227   -6727.9319            0    1816.3842    23.350437    21.262589    21.766516    10806.873    1754.9207    1719.3743    1974.8578    183.58318   -576.64961   -266.38788   -6169.1476 
26194000    107.56723   -6726.8733   -6450.1632   -6726.8733            0    2294.7289    23.331172    21.279225     21.73386    10790.193    2456.1159    2954.6335    1473.4371    346.75687   -276.48627   -877.46036   -6089.0557 
26195000    108.74654   -6723.6049    -6443.861   -6723.6049            0    2115.2483    23.238477    21.533381    21.587751    10802.575    1772.7397    1956.1348    2616.8702     399.9477   -283.37732   -372.36733   -6110.6154 
26196000    112.38486   -6742.9466   -6453.8434   -6742.9466            0    2739.3328    23.073104    21.503532    21.683308    10758.243     3735.721    1636.7653    2845.5121   -400.61719   -159.66684   -119.47664   -6024.0477 
26197000    112.04111   -6741.2466   -6453.0276   -6741.2466            0    855.54317    23.316604     21.39527    21.720735    10835.715    608.82385    790.89526    1166.9104    357.66319    228.82483    616.94752    -6317.828 
26198000    109.80184   -6722.2274   -6439.7689   -6722.2274            0    2127.1245    23.311164    21.198402    21.834436    10789.692    1938.8599    2701.9901    1740.5236   -257.47857    228.11121    1046.4769   -6105.0518 
26199000    112.46941   -6729.1737    -6439.853   -6729.1737            0    2877.2179    23.283786    21.303184    21.665808    10746.648    3038.0497    3380.3967    2213.2073    220.23678   -472.86953    326.16949     -5988.91 
26200000    110.28946   -6743.4789    -6459.766   -6743.4789            0     1842.791    23.240655     21.41344    21.689867     10794.23    1211.0504    1935.3882    2381.9342     127.1886    888.93893   -160.66448   -6169.6688 
26201000    107.85473   -6723.9767    -6446.527   -6723.9767            0    1670.0782     23.21176    21.563593    21.565585      10794.2    2420.9144    629.35263    1959.9676    439.92747   -114.80058   -445.12209   -6183.6194 
26202000    109.68288   -6736.2482   -6454.0957   -6736.2482            0    2814.9103    23.206661    21.390842    21.666513    10755.474    3012.3635    2813.4566    2618.9107     343.6051   -185.10492    159.26308   -6012.5557 
26203000    103.28915   -6740.4827   -6474.7777   -6740.4827            0    2390.3191      23.2882    21.316875     21.69644    10770.799    2898.9816    2431.6027    1840.3731    157.90756   -407.68894    96.664068   -6099.3038 
26204000     111.6067   -6742.9586   -6455.8571   -6742.9586            0     2629.262    23.312901    21.251379    21.698127    10749.931    1704.3412    3346.2261    2837.2185    462.33566   -19.323897    721.41814     -6043.65 
26205000    109.66542    -6741.451   -6459.3434    -6741.451            0    1163.9775    23.193944    21.426592    21.753815    10810.932    2258.9926    541.95114    690.98884   -301.08174    81.607945    567.93449   -6275.8233 
26206000    107.47325   -6742.3058   -6465.8374   -6742.3058            0    1351.6456    23.236409    21.463812    21.626625    10786.105    1532.1952    1044.2983    1478.4434    397.69532   -189.27767   -28.375775   -6253.2177 
26207000     106.0121   -6735.1079   -6462.3983   -6735.1079            0    2503.7037    23.156956    21.385644    21.738413    10765.436    3006.3066    2474.2331    2030.5715   -345.57592   -322.53537   -986.07901   -6069.3096 
26208000    112.11494   -6738.4764   -6450.0675   -6738.4764            0     1807.611    23.317736    21.371366    21.646613    10787.197    2080.6833    1595.3819    1746.7677    -264.3199   -1350.4669   -295.65227   -6165.6938 
26209000    111.08489    -6729.432   -6443.6728    -6729.432            0    2622.4298    23.336579    21.273901    21.704106    10775.222    2426.4129    3147.7595    2293.1171   -541.00954   -188.47085   -85.872705   -6031.5696 
26210000    106.17915   -6726.8389   -6453.6995   -6726.8389            0    2451.7841    23.282054    21.306079    21.718378    10773.385    2304.3743    2535.0791     2515.899     184.1934    635.54055    504.14042   -6068.4781 
26211000    108.77498   -6724.5683   -6444.7513   -6724.5683            0    1496.6143    23.231383    21.410245    21.734842    10810.684    1222.3001    2143.8043    1123.7385   -750.78912    447.17383    303.94135    -6208.791 
26212000    107.21597   -6733.9111   -6458.1045   -6733.9111            0    2828.7542    23.141804    21.412427    21.688649    10747.207    2916.7638    2661.8417    2907.6571    13.358503    98.723402    512.05513   -6014.7341 
26213000    106.70049   -6731.0338   -6456.5533   -6731.0338            0    1536.7404    23.304138    21.411423    21.653917    10804.758    1548.6879    1513.1622    1548.3711   -353.71078     224.1586   -311.22613   -6214.3994 
26214000    108.54777   -6728.3389   -6449.1064   -6728.3389            0    1956.7404    23.262379    21.329622     21.72843    10781.164    1392.8843    2919.1213    1558.2155    229.94727    240.23009   -305.80499   -6141.4437 
26215000    103.85062   -6735.3393   -6468.1899   -6735.3393            0    2187.0628    23.319753    21.396414     21.59535    10775.197    1272.2439    2435.5411    2853.4035   -805.71751    618.53511    201.66945   -6124.5035 
26216000     110.9793   -6737.4102   -6451.9227   -6737.4102            0    2216.8973    23.190029    21.394696    21.718819    10775.654    2300.0846    2397.5723    1953.0351    1047.8344     169.8792    15.884011   -6103.5331 
26217000    111.49596   -6740.2486   -6453.4321   -6740.2486            0    1789.3136     23.17487    21.395151      21.7848    10801.554     1542.291    1909.4736    1916.1762   -399.01965    1164.5559    662.77653   -6171.5622 
26218000    111.04982   -6726.9668   -6441.2979   -6726.9668            0    2433.8367    23.292745    21.374007    21.621194    10764.312    2057.3516    2763.4831    2480.6754   -725.75494    497.28686   -232.82368   -6059.2185 
26219000    110.63595   -6738.8891   -6454.2848   -6738.8891            0    2146.1843    23.246187    21.382719    21.716375    10794.486    2005.1091    2592.5815    1840.8624   -927.78725   -128.44586    -658.5012   -6116.4185 
26220000    105.22559   -6740.9735   -6470.2871   -6740.9735            0    1873.2434    23.322185    21.400812    21.615308    10788.496    2102.3673    1486.0673    2031.2955    215.59781   -318.25895   -397.58344   -6175.5526 
26221000    109.05665   -6739.1782   -6458.6366   -6739.1782            0    2122.9486    23.159669    21.470855    21.708492    10794.719    2955.5735    1868.4197    1544.8526    809.88145   -831.08124   -877.16924   -6124.4211 
26222000    109.68406    -6743.345   -6461.1895    -6743.345            0    1244.2769    23.256858    21.480874    21.602198    10791.975    1181.6787     911.5839    1639.5681   -258.48097   -433.53549    572.41874   -6265.3529 
26223000    113.05578   -6750.3398   -6459.5107   -6750.3398            0    1900.6668    23.221985    21.336543    21.759016    10781.089    2503.9535     1687.821    1510.2259   -525.27984   -145.80095   -279.12354   -6160.6667 
26224000    109.43508   -6721.7628   -6440.2477   -6721.7628            0     2264.276    23.318283    21.326302    21.648446    10765.616    1930.6327    2555.3584     2306.837     328.0058     184.1006   -337.79431    -6084.744 
26225000    106.99901   -6732.9716   -6457.7232   -6732.9716            0    2817.9176    23.299292    21.369536    21.596526    10752.804     2595.642    2912.1671    2945.9436   -825.60759   -421.37318   -271.57781   -6015.8212 
26226000    107.80567   -6730.3358   -6453.0122   -6730.3358            0    2096.5012    23.217309    21.410419    21.689415    10781.641    1636.0588    2993.1019    1660.3428   -399.28223    170.57091   -1109.1528   -6123.3601 
26227000    116.63059   -6728.7058   -6428.6807   -6728.7058            0    1738.2718    23.215048    21.475295    21.689076    10813.089    2172.1913    929.34744    2113.2767   -110.83441    765.25645   -426.85173   -6154.5591 
26228000    113.44409   -6724.3316   -6432.5036   -6724.3316            0    1367.3108    23.222966    21.448396    21.710941    10814.119    1131.4089    1068.5769    1901.9465   -60.421173   -217.26238    370.66041   -6216.8611 
26229000    109.38005   -6725.7537   -6444.3802   -6725.7537            0    2985.0428    23.297622    21.329065     21.60818    10737.461    2650.6052    2601.5898    3702.9332    594.91717   -397.75473    171.44753   -5976.9379 
26230000    113.79592   -6725.6075   -6432.8745   -6725.6075            0    2473.6099    23.284412     21.26643    21.780293    10785.085    3400.6484    2379.9392     1640.242   -97.001127    -1355.473   -258.87357   -6043.8018 
26231000    113.42485   -6730.1373   -6438.3588   -6730.1373            0    2230.9572    23.395438    21.324671    21.593028    10772.762    1975.1721    2411.8723    2305.8272    350.75029    94.243735    -299.6161   -6087.8538 
26232000    110.90516   -6732.5352   -6447.2384   -6732.5352            0    1327.6116    23.213363    21.388039    21.813887     10830.34    1783.0782    1246.8853    952.87125   -618.87816     489.3059   -12.623711    -6237.543 
26233000    109.77608   -6742.0817   -6459.6894   -6742.0817            0    2521.0412    23.156476    21.448922    21.621996    10739.245    2859.1086    1537.8768    3166.1382    463.87978   -665.46815    291.69802   -6064.8418 
26234000    112.70114   -6740.7771   -6450.8603   -6740.7771            0    1693.7212    23.216952    21.438263    21.685685    10793.641    2131.8579    2051.9596    897.34609   -533.02682    234.17345   -170.41661   -6184.2445 
26235000    109.13844   -6734.1585   -6453.4065   -6734.1585            0    2196.5495     23.16125     21.37881    21.777693    10783.441    1629.3944     3570.071    1390.1832   -708.44705     693.5804   -193.32179   -6107.9652 
26236000    105.65178     -6728.64   -6456.8572     -6728.64            0    2035.5207    23.359053    21.379605    21.626171    10800.268    1193.5646    2316.3778    2596.6196    358.65107   -621.41027     554.9001   -6136.2407 
26237000    106.88978   -6736.7024   -6461.7349   -6736.7024            0    2316.7763    23.232532     21.32807    21.753364    10778.902    1982.2523    2780.9199    2187.1566   -1011.8483    255.51691   -754.42402   -6097.5395 
26238000    109.72017   -6720.3792   -6438.1307   -6720.3792            0    1603.1649    23.275701    21.453281    21.659123     10815.27    1235.2918    1154.7409    2419.4619    99.868228    193.45392   -540.16137   -6185.2641 
26239000    105.23257   -6724.5832   -6453.8788   -6724.5832            0    2681.5985    23.155172    21.429775    21.701366    10768.437     2009.702    2960.4068    3074.6866    417.63906   -318.35043    607.00276   -6032.7428 
26240000    111.89492   -6731.5084   -6443.6655   -6731.5084            0    2369.6435    23.190138    21.397305    21.666967    10751.289    2752.7456    1857.7819    2498.4031    38.015104    174.33293    911.22561   -6072.1136 
26241000    108.54912   -6736.5423   -6457.3063   -6736.5423            0    1959.6088    23.287216    21.360615    21.711208     10799.79    1793.2635    2166.0478    1919.5152    924.87984    117.61176    26.277966   -6148.6604 
26242000    109.75956    -6740.465   -6458.1152    -6740.465            0    2561.7087    23.283236    21.337339    21.677811    10769.587    2623.2957     2864.503    2197.3275   -232.80689   -284.91031   -583.73182   -6055.7646 
26243000    106.55993   -6717.4047   -6443.2858   -6717.4047            0    1574.3034    23.380006    21.360827    21.672839    10823.768     715.5939    2067.3309    1939.9855    304.94761   -1116.0023    487.46163   -6194.7764 
26244000    109.78032   -6734.2392    -6451.836   -6734.2392            0    1766.0654    23.252689    21.347498    21.752389    10797.597    1591.4926    2340.4336    1366.2701    874.57588    825.06368    16.287514   -6173.7304 
26245000    114.19709     -6723.89    -6430.125     -6723.89            0    3209.3854    23.191946     21.48724    21.543171    10735.628    2685.1836    2934.4989    4008.4737     110.3549   -88.316242   -23.814206   -5927.6375 
26246000    107.15723   -6734.3105   -6458.6551   -6734.3105            0    1880.2625    23.163691    21.429197    21.769373    10805.866    1853.0495    2689.6397    1098.0982    13.770204   -511.29119    32.082628   -6162.3398 
26247000    110.40152   -6734.6654   -6450.6643   -6734.6654            0    1014.0646    23.375027    21.384056    21.654349    10823.989    103.55689    1404.8197    1533.8172    -335.3331    833.54503   -350.23958   -6290.5873 
26248000    113.29992   -6738.4197   -6446.9626   -6738.4197            0     2098.963    23.298784     21.31896    21.714909    10785.922    2499.8538    1876.8735    1920.1617   -413.63765   -688.00744   -126.09095   -6116.7923 
26249000    112.95372   -6745.3599   -6454.7934   -6745.3599            0    2980.5511    23.239282    21.321914    21.679531    10742.337    2580.0547    3382.8488    2978.7498   -747.98319    122.44667    149.81898   -5987.8424 
26250000    118.65627   -6729.6373   -6424.4013   -6729.6373            0    2249.7581    23.223011     21.48331    21.598865    10775.828    1839.1112    2805.1622     2105.001    685.35018    277.14421   -285.50137   -6070.8419 
Loop time of 600.114 on 64 procs for 250000 steps with 1296 atoms

Performance: 71.986 ns/day, 0.333 hours/ns, 416.588 timesteps/s
391.6% CPU use with 16 MPI tasks x 4 OpenMP threads

MPI task timing breakdown:
Section |  min time  |  avg time  |  max time  |%varavg| %total
---------------------------------------------------------------
Pair    | 40.548     | 50.12      | 61.859     |  87.7 |  8.35
Bond    | 1.5401     | 1.8408     | 2.8698     |  24.0 |  0.31
Kspace  | 318.31     | 328.65     | 337.88     |  31.8 | 54.76
Neigh   | 1.2852     | 1.3713     | 1.436      |   3.6 |  0.23
Comm    | 60.039     | 67.698     | 73.054     |  40.3 | 11.28
Output  | 0.44745    | 0.44776    | 0.44907    |   0.1 |  0.07
Modify  | 128.05     | 136.17     | 144.67     |  33.4 | 22.69
Other   |            | 13.82      |            |       |  2.30

Nlocal:        81.0000 ave          97 max          65 min
Histogram: 2 1 1 2 2 2 2 2 0 2
Nghost:        3676.06 ave        3714 max        3650 min
Histogram: 3 1 3 1 2 3 0 1 0 2
Neighs:        25917.4 ave       30975 max       20739 min
Histogram: 2 1 1 2 2 2 2 2 0 2

Total # of neighbors = 414678
Ave neighs/atom = 319.96759
Ave special neighs/atom = 2.0000000
Neighbor list builds = 2927
Dangerous builds = 0

unfix		3
unfix		2
unfix		1

write_data	data.final.${pid}
write_data	data.final.0
System init for write_data ...
PPPM initialization ...
  extracting TIP4P info from pair style
  using 12-bit tables for long-range coulomb (../kspace.cpp:340)
  G vector (1/distance) = 0.36702391
  grid = 30 40 32
  stencil order = 5
  estimated absolute RMS force accuracy = 0.0046092025
  estimated relative force accuracy = 1.3880477e-05
  using double precision FFTW3
  3d grid and FFT values/proc = 11832 2400
Last active /omp style is kspace_style pppm/tip4p/omp
WARNING: Not all mixed pair coeffs generated from mixing. Use write_data with 'pair ij' option to store all pair coeffs. (../write_data.cpp:312)

write_restart   restart.lmp.${pid}
write_restart   restart.lmp.0
System init for write_restart ...
PPPM initialization ...
  extracting TIP4P info from pair style
  using 12-bit tables for long-range coulomb (../kspace.cpp:340)
  G vector (1/distance) = 0.36702391
  grid = 30 40 32
  stencil order = 5
  estimated absolute RMS force accuracy = 0.0046092025
  estimated relative force accuracy = 1.3880477e-05
  using double precision FFTW3
  3d grid and FFT values/proc = 11832 2400
Last active /omp style is kspace_style pppm/tip4p/omp
Total wall time: 0:10:00
