LAMMPS (30 Jul 2021)
  using 1 OpenMP thread(s) per MPI task
package omp 0
using multi-threaded neighbor list subroutines
echo both

include		in.partitions
variable        pid world 0
include		in.temp
variable        temperature equal 199.53
variable	tempDamp equal 100.0
include		in.pressure
variable        pressure equal -750.0
variable        pressureDamp equal 1000.0 # This is 1 ps
include		in.seed
variable        seed world 745823

units		real
atom_style	full
read_restart	restart.lmp.${pid}
read_restart	restart.lmp.0
Reading restart file ...
  restart file = 30 Jul 2021, LAMMPS = 30 Jul 2021
  restoring atom style full from restart
  orthogonal box = (-0.23034609 0.82021401 -0.28102169) to (18.437918 22.808964 22.494217)
  4 by 4 by 4 MPI processor grid
  restoring pair style lj/cut/tip4p/long/omp from restart
  restoring bond style harmonic/omp from restart
  restoring angle style harmonic/omp from restart
  864 atoms
  576 bonds
  288 angles
Finding 1-2 1-3 1-4 neighbors ...
  special bond factors lj:    0        0        0       
  special bond factors coul:  0        0        0       
     2 = max # of 1-2 neighbors
     1 = max # of 1-3 neighbors
     1 = max # of 1-4 neighbors
     2 = max # of special neighbors
  special bonds CPU = 1.282 seconds
  read_restart CPU = 1.477 seconds
include 	in.setup
variable	out_freq equal 1000
variable	out_freq2 equal 10000
variable	out_freq3 equal 1000

timestep	2.0

neigh_modify    delay 7 every 1

include		in.tip4p
# This is TIP4P/Ice

# create groups ###
group ox type 2
288 atoms in group ox
group hy type 1
576 atoms in group hy

# set charges - beside manually ###
set group ox charge -1.1794
Setting atom values ...
  288 settings made for charge
set group hy charge 0.5897
Setting atom values ...
  576 settings made for charge

# ### TIP3P Potential Parameters ###
pair_style lj/cut/tip4p/long/omp 2 1 1 1 0.1577 8.5
pair_coeff 1 1*2 0.000 0.000
pair_coeff 2 2 0.21084 3.1668
bond_style  harmonic
bond_coeff  1 450 0.9572
angle_style harmonic
angle_coeff 1 55 104.52
kspace_style pppm/tip4p/omp 1.0e-5
pair_modify tail yes

thermo          ${out_freq}
thermo          1000
thermo_style    custom step temp pe etotal epair emol press lx ly lz vol pxx pyy pzz pxy pxz pyz enthalpy

restart 	${out_freq3} restart.lmp.${pid} restart2.lmp.${pid}
restart 	1000 restart.lmp.${pid} restart2.lmp.${pid}
restart 	1000 restart.lmp.0 restart2.lmp.${pid}
restart 	1000 restart.lmp.0 restart2.lmp.0


include         in.dump
dump            myDump all atom ${out_freq2} dump.water.${pid}
dump            myDump all atom 10000 dump.water.${pid}
dump            myDump all atom 10000 dump.water.0
dump            myDump2 all dcd ${out_freq2} dump.dcd
dump            myDump2 all dcd 10000 dump.dcd
dump_modify     myDump append yes
dump_modify     myDump2 append yes


variable natoms 	equal  "count(all)"                        # NUMBER ATOMS
variable H      	equal  "enthalpy/v_natoms"                 # ENTHALPY-per-atom
variable Vol      	equal  "vol/v_natoms"                 # volume-per-atom
fix AVG all 		ave/time ${out_freq} 1 ${out_freq} v_Vol v_H file vol_enthalpy.dat
fix AVG all 		ave/time 1000 1 ${out_freq} v_Vol v_H file vol_enthalpy.dat
fix AVG all 		ave/time 1000 1 1000 v_Vol v_H file vol_enthalpy.dat


timer           timeout 23:50:00 every 1000
New timer settings: style=normal  mode=nosync  timeout=23:50:00

fix 		1 all shake 1e-6 200 0 b 1 a 1
       0 = # of size 2 clusters
       0 = # of size 3 clusters
       0 = # of size 4 clusters
     288 = # of frozen angles
  find clusters CPU = 0.002 seconds
fix             2 all nph iso ${pressure} ${pressure} ${pressureDamp}
fix             2 all nph iso -750 ${pressure} ${pressureDamp}
fix             2 all nph iso -750 -750 ${pressureDamp}
fix             2 all nph iso -750 -750 1000
fix             3 all temp/csvr ${temperature} ${temperature} ${tempDamp} ${seed}
fix             3 all temp/csvr 199.53 ${temperature} ${tempDamp} ${seed}
fix             3 all temp/csvr 199.53 199.53 ${tempDamp} ${seed}
fix             3 all temp/csvr 199.53 199.53 100 ${seed}
fix             3 all temp/csvr 199.53 199.53 100 745823

run             250000
PPPM initialization ...
  extracting TIP4P info from pair style
  using 12-bit tables for long-range coulomb (../kspace.cpp:340)
  G vector (1/distance) = 0.37184556
  grid = 24 25 27
  stencil order = 5
  estimated absolute RMS force accuracy = 0.0031217938
  estimated relative force accuracy = 9.4011894e-06
  using double precision FFTW3
  3d grid and FFT values/proc = 2730 384
Last active /omp style is kspace_style pppm/tip4p/omp
Neighbor list info ...
  update every 1 steps, delay 7 steps, check yes
  max neighbors/atom: 2000, page size: 100000
  master list distance cutoff = 10.8154
  ghost atom cutoff = 10.8154
  binsize = 5.4077, bins = 4 5 5
  1 neighbor lists, perpetual/occasional/extra = 1 0 0
  (1) pair lj/cut/tip4p/long/omp, perpetual
      attributes: half, newton on, omp
      pair build: half/bin/newton/omp
      stencil: half/bin/3d
      bin: standard
Per MPI rank memory allocation (min/avg/max) = 9.203 | 9.213 | 9.220 Mbytes
Step Temp PotEng TotEng E_pair E_mol Press Lx Ly Lz Volume Pxx Pyy Pzz Pxy Pxz Pyz Enthalpy 
19000000    218.25365   -4149.0266   -3774.9473   -4149.0266            0   -453.26221    18.668265     21.98875    22.775239    9349.0489    -1224.187    169.75312   -305.35274   -526.80798    552.89489   -1254.6338   -3836.7479 
19001000    208.94701   -4178.2901    -3820.162   -4178.2901            0   -1607.6076    18.694024     22.01909    22.806665    9387.8026   -1772.9883   -1554.0173   -1495.8172    858.64247    750.95551    133.02035    -4040.262 
19002000    195.80267   -4161.0068   -3825.4078   -4161.0068            0   -222.85149    18.622428     21.93476    22.719319    9280.3532   -654.00066    1152.8418   -1167.3956    719.92754   -335.77689   -538.13881   -3855.5695 
19003000     198.2522   -4166.4695    -3826.672   -4166.4695            0   -1176.6347     18.69464    22.019816    22.807417    9388.7306   -1218.3346   -2273.6815   -37.887864    1208.4144    -412.8902   -3.0932404   -3987.7827 
19004000    186.46623   -4181.4495   -3861.8528   -4181.4495            0   -1085.4122    18.609849    21.919944    22.703972    9261.5594   -855.18113   -103.01467   -2298.0409    583.21607    1776.6406   -360.27263   -4008.4598 
19005000    201.22649   -4160.4352   -3815.5398   -4160.4352            0   -437.12277    18.640733    21.956321     22.74165    9307.7459   -993.12832    521.74862    -839.9886    1272.5715    327.62276    21.059068   -3874.8766 
19006000    203.66089   -4158.5925   -3809.5247   -4158.5925            0   -1783.9142    18.731293    22.062988    22.852133     9444.062   -1401.1114   -2702.7454   -1247.8859    1107.5816    485.33484   -1284.1999   -4055.2267 
19007000    203.96809   -4171.2375   -3821.6432   -4171.2375            0    118.74103    18.640075    21.955546    22.740848     9306.761    1513.5018   -602.82077   -554.45797    222.73322    336.21281   -457.97466   -3805.5265 
19008000    208.62575   -4169.3694    -3811.792   -4169.3694            0   -1151.2549    18.689076    22.013263     22.80063    9380.3514   -744.20575   -1144.7528   -1564.8063    567.17249    1232.3657   -40.083727   -3969.2869 
19009000    206.23946   -4155.8607   -3802.3733   -4155.8607            0     198.3405    18.633315    21.947584    22.732601     9296.639    675.39621   -1750.2693    1669.8946    687.53218     1562.831   -381.57274   -3775.4819 
19010000    201.45629   -4165.2195   -3819.9303   -4165.2195            0   -1091.8264    18.646882    21.963564    22.749152    9316.9603   -1535.5548     -1410.38   -329.54432    1001.1349    317.26447   -747.69412   -3968.2858 
19011000    198.86491   -4168.1318   -3827.2841   -4168.1318            0   -695.71653    18.647457    21.964241    22.749853    9317.8219   -1851.5823   -870.95692    635.38962    1067.1422    158.79337   -1549.1142   -3921.8256 
19012000    205.46649   -4135.3735   -3783.2109   -4135.3735            0   -2105.4716    18.724253    22.054696    22.843544    9433.4176   -2545.5775   -1301.1681   -2469.6691    631.67679    542.63121    308.88158   -4072.8748 
19013000    214.39304   -4168.6391   -3801.1768   -4168.6391            0   -581.23531    18.658069    21.976741      22.7628    9333.7392    -1578.705    -92.06767   -72.933286    1159.3793    519.19368   -268.48122   -3880.2963 
19014000    196.92508   -4175.2974   -3837.7746   -4175.2974            0   -2037.6168    18.685983    22.009619    22.796855    9375.6938   -2480.1307   -1255.1978   -2377.5221    271.56489    572.32128   -262.03641   -4116.3879 
19015000    197.41596   -4162.2838   -3823.9196   -4162.2838            0   -1987.1495    18.721932    22.051963    22.840713    9429.9108   -1851.3473   -1470.4303   -2639.6708   -185.76466    936.33093    735.03964   -4097.2035 
19016000     193.1544   -4151.8463   -3820.7862   -4151.8463            0   -426.97877    18.684954    22.008408    22.795601    9374.1458    -7.286757   -42.130329   -1231.5192    419.49219   -647.16471   -460.04092   -3879.1595 
19017000    198.80778   -4158.8234   -3818.0737   -4158.8234            0   -1635.3219    18.729511    22.060891     22.84996    9441.3683   -2034.8162   -1422.1342   -1449.0154    688.27208    722.85129   -87.664468   -4043.2455 
19018000    200.28661   -4191.5908   -3848.3064   -4191.5908            0    116.49434    18.630704    21.944508    22.729415    9292.7316    968.01827   -359.52521   -259.01003    448.87434    779.84856    309.58719   -3832.5185 
19019000    202.50338   -4168.8597   -3821.7758   -4168.8597            0   -1543.6016    18.666684    21.986888    22.773311    9346.6743   -1631.9854   -1300.2593   -1698.5602    424.15667    388.13104   -1247.3695   -4032.1867 
19020000    197.52747   -4179.7436   -3841.1883   -4179.7436            0   -85.647475    18.611381    21.921749    22.705842    9263.8481   -53.520566   -160.51675   -42.905109    1558.0956    60.737093    120.75466   -3852.7596 
19021000    196.56744   -4174.4753   -3837.5654   -4174.4753            0   -1205.3987    18.688674     22.01279    22.800139    9379.7461   -682.76004   -596.62158   -2336.8145     744.9767    783.16376    229.93316   -4002.4567 
19022000    211.66463   -4173.2244   -3810.4385   -4173.2244            0   -410.14988    18.664153    21.983907    22.770224    9342.8737   -582.93865    505.69493   -1153.2059    1013.6272   -9.4266023   -41.547857    -3866.324 
19023000    192.07003   -4173.5816   -3844.3802   -4173.5816            0   -1221.9898     18.64158    21.957318    22.742684    9309.0147    -2107.882    32.720592   -1590.8079   -209.90269    951.83301    97.415703   -4010.2805 
19024000    215.10295   -4151.0947   -3782.4156   -4151.0947            0   -81.967533    18.684752    22.008169    22.795353     9373.841   -571.16397    55.772287    269.48908    1033.4539    919.48682    478.88122   -3793.6212 
19025000    206.20325   -4172.3281   -3818.9028   -4172.3281            0   -322.45015    18.704578    22.031522    22.819541    9403.7117   -59.600276   -1364.0748    456.32463     -423.108    714.65379   -960.22634   -3863.1247 
19026000    209.98628   -4161.4659   -3801.5566   -4161.4659            0   -897.89569    18.675606    21.997397    22.784196    9360.0835   -1963.3922    -1455.641    725.34616      938.858    440.26731   -1029.3054   -3924.1258 
19027000    206.55622   -4167.8645   -3813.8342   -4167.8645            0    -926.0596    18.652483    21.970161    22.755986    9325.3591   -503.51734   -2098.2566   -176.40484      231.038    322.77437   -466.04397    -3939.779 
19028000    195.70016   -4173.9709   -3838.5476   -4173.9709            0     -659.606    18.662084     21.98147    22.767699     9339.766    -436.6287   -516.51464   -1025.6746    958.33952    657.22543   -544.79955   -3928.3931 
19029000    186.59475   -4172.6056   -3852.7886   -4172.6056            0   -847.08471    18.639031    21.954317    22.739575    9305.1979   -1700.5623    440.43384   -1281.1257    623.90956     704.2737   -134.14997   -3967.7437 
19030000    208.66748   -4162.4214   -3804.7724   -4162.4214            0   -522.31165    18.660393    21.979478    22.765636    9337.2274   -204.88741   -1606.2038    244.15629    1083.7236    636.11258   -848.52248   -3875.8977 
19031000    204.61988     -4146.85   -3796.1385     -4146.85            0   -51.452267     18.69328    22.018215    22.805758    9386.6827    539.40075    -329.5469   -364.21065    1124.3074    678.68497    494.39042   -3803.1821 
19032000    200.85006   -4159.8938   -3815.6436   -4159.8938            0   -1300.9441    18.648595    21.965581    22.751242    9319.5281   -2153.6996   -896.12465   -853.00815    516.83673    450.19261   -519.68746   -3992.4625 
19033000    203.53054   -4168.7399   -3819.8955   -4168.7399            0   -1329.3672    18.699219     22.02521    22.813004    9395.6319   -1018.6666   -2555.3877   -414.04742    980.97749    1079.3086    676.16754   -4002.0529 
19034000     191.6486   -4171.4353   -3842.9562   -4171.4353            0   -253.31826    18.586319    21.892228    22.675265    9226.4731     0.195347    -624.6898   -135.46033    334.03343   -29.720608   -77.402189   -3877.0423 
19035000    194.88352    -4189.453   -3855.4293    -4189.453            0   -705.48762    18.663356    21.982968    22.769251     9341.676   -959.08391   -816.54912   -340.82982    435.04852   -206.19021   -32.748097   -3951.5441 
19036000    203.26971   -4186.3143    -3837.917   -4186.3143            0   -1503.0243    18.701318    22.027682    22.815564    9398.7961   -1715.8469   -360.10239   -2433.1234    1114.8967    275.70284   -1162.0101   -4043.9392 
19037000    205.30987   -4179.2006   -3827.3065   -4179.2006            0   -1662.5581    18.667077    21.987351    22.773791    9347.2654   -1757.9487   -1841.2942   -1388.4315    1014.5119   -19.024331   -139.20821   -4053.9469 
19038000    204.97344   -4175.6984   -3824.3809   -4175.6984            0   -1271.0736    18.669407    21.990095    22.776633    9350.7654   -496.61432    -1195.201   -2121.4056    846.56607    505.32712   -322.69622   -3997.7189 
19039000    201.81297   -4167.8961   -3821.9956   -4167.8961            0   -820.53275     18.66786    21.988274    22.774746    9348.4416   -1600.7212     381.8315   -1242.7086    1054.4634     133.7058   -955.06353   -3933.8649 
19040000    190.90618    -4153.188   -3825.9813    -4153.188            0   -1548.3931     18.74842    22.083162    22.873028    9469.9917    -1062.395   -1496.1893   -2086.5951    618.98912    647.07113   -539.98831   -4039.8301 
19041000    195.84813   -4161.0143   -3825.3373   -4161.0143            0   -2190.7247    18.691445    22.016053    22.803519    9383.9183   -2264.9771   -2178.5657   -2128.6313   -53.560538    191.97852    141.30052   -4125.1486 
19042000    203.21065   -4176.9977   -3828.7016   -4176.9977            0   -623.17591    18.632125    21.946182    22.731149    9294.8577   -626.53694   -748.59303   -494.39776   -48.601517    1195.0332   -829.45701   -3913.1768 
19043000     203.7125   -4168.1541   -3818.9978   -4168.1541            0    6.1432992    18.605889     21.91528    22.699141     9255.649    240.07787    569.95529   -791.60326     758.8852    1007.8858   -429.41434   -3818.1685 
19044000     191.8257   -4152.9423   -3824.1596   -4152.9423            0   -364.97508    18.661994    21.981363    22.767589    9339.6305   -294.68364   -734.14084   -66.100776    524.34291    1025.3819   -71.674437   -3873.8725 
19045000    189.15442   -4185.0571   -3860.8529   -4185.0571            0   -813.46879    18.628386    21.941778    22.726587     9289.263   -1009.8646    -416.0059   -1014.5359   -6.9542578    131.88467   -450.80056   -3971.0571 
19046000    212.85855   -4176.5576   -3811.7253   -4176.5576            0   -1046.4297    18.660532    21.979641    22.765805    9337.4357   -817.46025   -1700.7643   -621.06462    503.70524     617.5541   -991.03605   -3954.2249 
19047000    199.09043   -4176.0231    -3834.789   -4176.0231            0   -681.85577    18.671029    21.992006    22.778612     9353.203   -894.25656   -467.09562   -684.21512    1011.9353    300.98909   -691.95165   -3927.7988 
19048000    195.62313   -4154.4806   -3819.1892   -4154.4806            0   -1362.4521    18.708543    22.036192    22.824378    9409.6934   -1204.7405   -1386.3443   -1496.2715    886.36678     493.0185     281.1967   -4006.1595 
19049000    203.52797   -4165.9445   -3817.1046   -4165.9445            0   -910.60946    18.682652    22.005697    22.792792    9370.6819   -1363.0392   -825.68746   -543.10175     959.9974   -309.81023   -1590.7834   -3941.5501 
19050000    197.81123   -4171.1779   -3832.1362   -4171.1779            0    61.470269    18.631576    21.945536     22.73048    9294.0367    810.67446   -1134.3711    508.10742    99.482063    675.84126   -750.30677   -3823.8043 
19051000    208.34162   -4162.3562   -3805.2658   -4162.3562            0   -667.22063    18.633232    21.947486      22.7325    9296.5151   -1004.4527   -1974.7944    977.58528   -355.30216   -286.90247   -80.798041   -3895.7276 
19052000    203.29579   -4174.1138   -3825.6717   -4174.1138            0   -1366.0493    18.700666    22.026915    22.814769    9397.8134   -627.98628   -1969.1246   -1501.0371    701.88345    912.82234   -395.65073    -4012.899 
19053000    187.35949    -4163.319   -3842.1913    -4163.319            0   -87.899328    18.644417     21.96066    22.746145     9313.266   -438.15201   -696.41857     870.8726    1696.4729    298.04355   -782.13631   -3854.1302 
19054000    201.07737   -4149.8456   -3805.2059   -4149.8456            0    -2133.716     18.73889    22.071937    22.861402    9455.5576   -2719.6877   -894.82039   -2786.6401   -281.51631    -34.75513    17.211801   -4099.4445 
19055000    196.28536   -4157.9451   -3821.5187   -4157.9451            0   -873.22721    18.686597    22.010343    22.797604    9376.6181   -592.60588   -1191.9487   -835.12704    843.99203    166.63054   -834.46082   -3940.9311 
19056000    202.49567   -4145.8588   -3798.7882   -4145.8588            0   -609.68667     18.64877    21.965788    22.751456    9319.7915    -954.1961    -855.8383   -19.025598    1197.6482   -42.062546   -638.04923   -3881.6565 
19057000    199.55022   -4166.4191   -3824.3968   -4166.4191            0    189.53075    18.640802    21.956402    22.741735    9307.8494    825.61054   -223.26874    -33.74955    870.40986    476.97409   -452.02756   -3798.6689 
19058000    200.84997   -4166.1022   -3821.8522   -4166.1022            0   -1319.2509     18.68324    22.006389    22.793509    9371.5659    -1159.839   -1209.8632   -1588.0505    723.01114    576.01901    284.86572   -4002.1604 
19059000    205.89266   -4172.3863   -3819.4934   -4172.3863            0   -694.14925    18.683745    22.006984    22.794125    9372.3259   -2220.8394   -617.36494     755.7566    912.32496    948.69496   -1246.6126   -3914.3737 
19060000    194.17045    -4187.473   -3854.6715    -4187.473            0   -1655.2946     18.68331    22.006471    22.793594    9371.6706   -2136.7262   -1505.7767   -1323.3809    1104.8426    1349.9935   -672.23117   -4080.9109 
19061000    193.23268   -4155.6844   -3824.4902   -4155.6844            0   -886.23516     18.67604    21.997908    22.784725    9360.7349   -842.84625   -937.81286   -878.04637    191.76932    92.408633   -849.49617   -3945.4761 
19062000    200.38948   -4147.2834   -3803.8227   -4147.2834            0   -939.55984    18.697623     22.02333    22.811056    9393.2263   -835.74557   -918.96285   -1063.9711    456.63421    405.02662   -544.48297   -3932.5335 
19063000    205.12739   -4143.7413     -3792.16   -4143.7413            0   -914.12102    18.671161    21.992162    22.778773    9353.4014    105.85301   -1377.8171    -1470.399    1508.1558    601.30528   -150.63956   -3916.8551 
19064000    200.55535   -4172.0982   -3828.3532   -4172.0982            0    215.40305    18.641562    21.957297    22.742662    9308.9879    380.22059    41.681532    224.30701    864.59324    113.92164    1045.2383   -3799.1096 
19065000    189.39575   -4175.1022   -3850.4844   -4175.1022            0   -786.40971    18.639497    21.954865    22.740143    9305.8951   -895.27507   -1452.1781    -11.77598    482.82088    1137.4058   -598.97425   -3957.2135 
19066000    213.83119   -4170.2932   -3803.7938   -4170.2932            0    238.00762    18.591031    21.897779    22.681014    9233.4926   -36.288271    840.47883   -90.167712    892.15258    461.95168    574.99846   -3771.7435 
19067000    191.15866   -4187.0744    -3859.435   -4187.0744            0   -968.38192    18.676595    21.998562    22.785403    9361.5706    -507.1393   -636.92144    -1761.085   -227.14963   -135.73966    142.49919   -3991.6472 
19068000    201.04259   -4173.5917   -3829.0116   -4173.5917            0   -1229.7801    18.691963    22.016664    22.804152     9384.699   -1646.4207   -1337.3176   -705.60183    1376.3815    342.99515   -706.12157   -3997.3269 
19069000    184.98637   -4176.0285   -3858.9682   -4176.0285            0   -331.03894    18.610194     21.92035    22.704393    9262.0749   -396.52198   -212.34504    -384.2498    310.26011     447.9298    317.59116   -3903.6842 
19070000    200.13077   -4169.3521   -3826.3348   -4169.3521            0   -145.91433    18.666331    21.986473    22.772881    9346.1449   -248.77298    896.30045   -1085.2705    912.09514   -432.51084   -600.22763   -3846.2235 
19071000    205.39858   -4177.7287   -3825.6825   -4177.7287            0   -1199.5754    18.645319    21.961723    22.747246    9314.6183   -1635.1841   -1110.5464   -852.99589    607.70398    658.68473   -1877.3976   -3988.6378 
19072000    221.32008   -4159.8788   -3780.5437   -4159.8788            0   -654.05346    18.666088    21.986186    22.772583    9345.7787   -556.06603   -559.94653   -846.14782    1023.1985    433.18958    392.59963   -3869.6903 
19073000    199.81971   -4199.0609   -3856.5768   -4199.0609            0   -459.26751    18.652102    21.969712     22.75552    9324.7867   -1133.2246   -54.251406   -190.32653    146.13583    740.79465    422.06886   -3919.0337 
19074000    209.67758   -4195.3508   -3835.9706   -4195.3508            0   -743.08671     18.63403    21.948426    22.733473    9297.7088   -944.42332   -803.77436   -481.06246    165.30638    496.76763   -951.34285   -3936.7313 
19075000    197.02075   -4167.4064   -3829.7196   -4167.4064            0   -88.013003    18.618501    21.930135    22.714528    9274.4833   -694.82169    385.00732    45.775361    560.86028    667.12736    -568.4936   -3841.6241 
19076000    192.01324   -4165.0198   -3835.9157   -4165.0198            0   -1094.7488    18.697579    22.023278    22.811002    9393.1593    -1023.198   -1752.0842    -508.9642    98.224203    427.15362    156.86277   -3985.8849 
19077000    196.27689    -4178.897   -3842.4851    -4178.897            0   -1002.0567    18.657644     21.97624    22.762282    9333.1014   -1221.0435   -1134.4125   -650.71399     88.17614     106.5084    -314.2597   -3978.8788 
19078000    210.86555   -4150.9109   -3789.4945   -4150.9109            0    -1375.204    18.725271    22.055896    22.844787    9434.9569   -1909.5664   -629.49845   -1586.5472    462.09345    837.34411   -696.53592   -3978.7215 
19079000    195.09881   -4169.5885   -3835.1958   -4169.5885            0    5.6153972    18.650857    21.968246    22.754002    9322.9204    794.75813    -1255.017    477.10503    1214.2372    217.97781   -480.17112   -3834.4323 
19080000    211.81629   -4147.5787   -3784.5328   -4147.5787            0   -2948.5345    18.771427    22.110261    22.901097    9504.8979   -2954.4506    -2690.327   -3200.8259   -11.014513    884.12711    -456.2449   -4193.2562 
19081000    194.02848   -4156.5773   -3824.0191   -4156.5773            0    424.50813    18.621985    21.934238    22.718778    9279.6903    528.14678   -373.14711    1118.5247    606.30796    359.76146   -1077.6894   -3766.5684 
19082000    193.42807   -4171.2084   -3839.6793   -4171.2084            0   -135.24107    18.630574    21.944355    22.729256    9292.5363    89.361492    151.83011   -646.91482    1569.0105    400.14594   -138.46219   -3858.0074 
19083000    185.28569   -4163.4712   -3845.8979   -4163.4712            0    -1334.703    18.693941    22.018994    22.806565    9387.6788    -947.3608    -2044.746   -1012.0022    1355.2344    859.98024    341.24174   -4028.6316 
19084000    207.86159   -4150.9176     -3794.65   -4150.9176            0   -62.589738    18.704057    22.030909    22.818906    9402.9269    96.310047    1202.8488   -1486.9281    970.64059    824.10934   -403.17216    -3803.233 
19085000    201.65305   -4175.8486   -3830.2222   -4175.8486            0    411.00983    18.614527    21.925454    22.709679    9268.5454    389.74775    590.48464    252.79711    709.82968    -379.0124   -151.07925    -3774.665 
19086000    203.81897   -4181.8609   -3832.5222   -4181.8609            0   -913.91467    18.637338    21.952322    22.737508    9302.6613   -1466.0747   -181.67442   -1093.9949    887.58354     250.8839    -360.3603   -3956.5128 
19087000    198.22781   -4181.2195   -3841.4638   -4181.2195            0   -754.40416    18.644871    21.961196    22.746699     9313.947   -1514.5175   -185.49761   -563.19733    1034.7473    277.75089   -101.23036   -3943.9378 
19088000     208.3916   -4160.8954   -3803.7193   -4160.8954            0    637.77589    18.583712    21.889158    22.672085    9222.5912    704.68734    1161.5195    47.120856    739.87828    1098.0208   -182.87421   -3717.9372 
19089000    186.44347   -4172.5096   -3852.9519   -4172.5096            0   -1357.4151     18.69312    22.018026    22.805563    9386.4412   -1210.6276   -2110.4486   -751.16895    152.27633   -84.576014   -392.63594   -4038.7707 
19090000    194.87877   -4159.6486    -3825.633   -4159.6486            0    215.19649    18.627286    21.940483    22.725246    9287.6184   -116.51651    663.96907    98.136915    983.99494   -372.84093    137.86002   -3796.4846 
19091000    190.37066   -4178.4248    -3852.136   -4178.4248            0   -889.05876    18.657406     21.97596    22.761992    9332.7445   -668.49137   -887.40107   -1111.2838    730.95033    651.86045   -206.87556   -3973.1445 
19092000    208.44943   -4168.5763   -3811.3011   -4168.5763            0   -1254.7966    18.683954     22.00723    22.794381    9372.6411   -1959.3686   -939.06842   -865.95291    517.74975   -91.913974    89.841879   -3982.8197 
19093000    195.50791   -4172.3575   -3837.2637   -4172.3575            0    -47.36265    18.637784    21.952848    22.738053    9303.3298   -740.83303   -174.84361    773.58869    607.12984    389.75033   -1030.8554   -3843.6898 
19094000    194.89456   -4156.7031   -3822.6605   -4156.7031            0   -1231.7417     18.66334    21.982949    22.769231    9341.6523   -1586.2433   -491.49184   -1617.4899   -223.66007    318.77952   -303.86184   -3990.4711 
19095000    201.50115   -4182.3151    -3836.949   -4182.3151            0   -820.59417    18.651392    21.968876    22.754655    9323.7227   -412.28819   -966.92169   -1082.5726   -240.08888    516.12189    225.39185   -3948.5309 
19096000    203.14202   -4159.2889   -3811.1104   -4159.2889            0   -1655.2809    18.701982    22.028464    22.816374    9399.7968    -1061.079   -1993.4705   -1911.2931    1094.2862    330.17518     209.7238   -4038.0269 
19097000    201.86587   -4158.7648   -3812.7736   -4158.7648            0   -803.52551    18.636561    21.951407     22.73656    9301.4977   -1172.5594    73.904528   -1311.9217    298.11329    1309.3352     635.6846   -3921.7741 
19098000     199.3376   -4188.1117   -3846.4539   -4188.1117            0   -2181.3098    18.756997    22.093265    22.883493    9482.9953   -2796.3485   -1416.1072   -2331.4738    486.74978    357.13228   -423.16773   -4148.1285 
19099000    210.49266   -4179.4527   -3818.6754   -4179.4527            0   -311.64814    18.649349     21.96647    22.752162    9320.6587   -232.72105   -726.46194    24.238567    127.28684     227.0381     166.6647   -3861.0385 
19100000    203.40048   -4186.8334   -3838.2119   -4186.8334            0   -3247.1577    18.794995    22.138022    22.929851    9540.7444   -3369.7666   -2978.9544   -3392.7521    494.51951   -542.04642    183.59123   -4290.0279 
19101000    194.86132   -4179.0773   -3845.0917   -4179.0773            0    108.60547    18.654174    21.972153    22.758049    9327.8959   -163.85809   -1604.6775     2094.352    1066.7141    965.20592    591.49484   -3830.3173 
19102000    205.27706   -4156.5815   -3804.7437   -4156.5815            0   -1404.7185    18.717125      22.0463    22.834848    9422.6482   -604.81362   -1150.7158   -2458.6262    -18.82681    222.11508   -301.09294   -3997.7796 
19103000    194.16035   -4142.6839   -3809.8998   -4142.6839            0    78.744391    18.672479    21.993714    22.780381    9355.3828    273.43781    95.395361       -132.6    1589.2986   -1032.4632    13.166112    -3799.156 
19104000    200.70635   -4165.5202   -3821.5164   -4165.5202            0   -589.03446    18.694141    22.019229    22.806808    9387.9796   -193.01868   -725.83373   -848.25096    1068.3845    188.00598   -318.28959   -3902.1635 
19105000    203.40721   -4147.5421   -3798.9091   -4147.5421            0   -2694.1962    18.736941    22.069641    22.859024     9452.608   -2617.7695   -2864.2413   -2600.5778    826.31624   -460.28215    369.23086   -4170.3218 
19106000     189.7795   -4171.3857   -3846.1102   -4171.3857            0    444.95075    18.600041    21.908391    22.692006    9246.9238    719.97328    831.17114   -216.29215    361.21942   -300.60504   -23.825499   -3786.1055 
19107000    190.51547   -4164.4715   -3837.9346   -4164.4715            0   -439.87003    18.640525    21.956076    22.741397    9307.4347   -585.33031   -152.70058   -581.57921    745.57017    750.60898     418.9274   -3897.6422 
19108000     193.0096   -4148.3621   -3817.5502   -4148.3621            0   -1386.8888    18.686262    22.009948    22.797196    9376.1139   -1915.8319   -941.90169   -1302.9327    238.65656   -493.49632   -757.20555   -4007.1948 
19109000    198.82029   -4173.7869   -3833.0157   -4173.7869            0   -575.93121    18.678419     22.00071    22.787628    9364.3131   -1289.2855    472.55836   -911.06654    798.09852    810.72655    72.957779     -3911.67 
19110000     205.1787   -4186.9223    -3835.253   -4186.9223            0   -353.89616    18.662134    21.981529     22.76776    9339.8418   -954.34267    274.01608    -381.3619    997.46956    177.37449    117.19008   -3883.4579 
19111000    202.39914   -4160.5744   -3813.6692   -4160.5744            0   -934.75157    18.695575    22.020918    22.808558    9390.1406   -1601.6623    643.87468   -1846.4671    975.52621    987.58283   -1756.2497   -3941.6793 
19112000    206.89546   -4179.0987    -3824.487   -4179.0987            0    -1290.175    18.700664    22.026912    22.814766    9397.8102   -1120.7125   -883.65908   -1866.1534    305.40816    379.30833    69.165527    -4001.315 
19113000    195.66635   -4167.5951   -3832.2297   -4167.5951            0   -292.53801    18.662145    21.981541    22.767773    9339.8571   -560.09975   -113.22258    -204.2917     1257.005   -86.370801   -596.90588    -3872.077 
19114000    212.13863    -4158.173   -3794.5747    -4158.173            0   -1315.6845    18.696012    22.021433    22.809091    9390.7992   -1054.4851    -899.2553   -1993.3129    396.73123    49.829781   -273.20098   -3974.7645 
19115000    212.47092   -4173.2821   -3809.1143   -4173.2821            0   -605.70155    18.684807    22.008235    22.795421    9373.9246   -1551.3277    211.88831    -477.6653     669.8663    1028.2268     152.3335   -3891.9192 
19116000    187.63191   -4159.5848   -3837.9902   -4159.5848            0     142.7726     18.65336    21.971194    22.757056     9326.674   -34.480816    985.03662   -522.23799    1662.7778    840.35795    49.037112   -3818.5702 
19117000    193.14305   -4186.4506   -3855.4101   -4186.4506            0    -1025.499    18.687861    22.011832    22.799147    9378.5218    -1261.723   -1095.9789   -718.79499    282.25989    56.212703   -147.47046   -3995.6738 
19118000    188.85631   -4164.5963   -3840.9031   -4164.5963            0   -942.79594     18.62975    21.943385    22.728252     9291.304   -1705.9138   -392.82268   -729.65134    556.07396    249.96879    74.551476   -3968.6558 
19119000     211.2994   -4173.3772   -3811.2173   -4173.3772            0   -536.26541    18.645336    21.961743    22.747266    9314.6432   -382.59752   -859.18278   -367.01592    511.17216    717.72951   -119.60718    -3884.066 
19120000     190.8303   -4159.9181   -3832.8415   -4159.9181            0   -975.35338    18.636963    21.951881    22.737051    9302.1004   -117.27401   -477.02964   -2331.7565   -288.65271    886.14812   -165.06527   -3965.1595 
19121000     198.3289   -4174.3842   -3834.4553   -4174.3842            0   -1234.9065    18.712475    22.040824    22.829176    9415.6285      -931.46   -43.001957   -2730.2576    26.920723     361.0298    336.91686   -4004.0293 
19122000    215.17647   -4173.3121    -3804.507   -4173.3121            0   -605.68736    18.693758    22.018777    22.806341     9387.402   -524.42451    479.15824   -1771.7958     1040.871    465.82969   -789.82831    -3887.429 
19123000    190.26434   -4178.7575    -3852.651   -4178.7575            0    595.43267    18.590603    21.897274    22.680492    9232.8545    608.41353    2054.7492   -876.86472    1267.1019    560.85355    95.191358   -3772.4749 
19124000    200.37491   -4152.2987   -3808.8629   -4152.2987            0   -1586.8621    18.735022    22.067382    22.856684    9449.7048   -2666.5919   -370.28971   -1723.7048    886.20641    453.86743    1000.7584   -4027.5552 
19125000    213.63819   -4162.6555    -3796.487   -4162.6555            0   -741.43012    18.699881     22.02599    22.813811      9396.63   -1313.1297   -479.14176   -432.01888    746.68576    601.53307    -232.4129   -3898.0927 
19126000    202.61659   -4173.3978   -3826.1199   -4173.3978            0    129.94854    18.631872    21.945884     22.73084    9294.4795   -127.34407    1015.9287   -498.73905    1048.3429     651.6015    51.785356   -3808.5053 
19127000    206.55692    -4171.282   -3817.2505    -4171.282            0   -227.08959    18.695878    22.021274    22.808927     9390.596   -208.20814     59.77139   -532.83201    921.75466    1081.9414    260.81226   -3848.3509 
19128000    197.81943   -4162.0791   -3823.0234   -4162.0791            0   -699.23466    18.645089    21.961452    22.746965     9314.273   -225.51125   -702.17281   -1170.0199    1586.8471    1414.1656   -397.26793   -3918.0068 
19129000    217.93791   -4173.1895   -3799.6514   -4173.1895            0   -1631.7599    18.728933    22.060209    22.849255    9440.4938   -2010.4682   -1761.1759   -1123.6357    145.00192   -39.591641   -1079.3604    -4024.312 
19130000    197.49395   -4182.2046   -3843.7068   -4182.2046            0   -95.670776    18.665255    21.985205    22.771567    9344.5278   -646.04371     105.6456    253.38578    1336.2699    521.61827    350.56064   -3856.7448 
19131000    204.74318   -4196.8374   -3845.9146   -4196.8374            0   -2279.1922    18.697866    22.023617    22.811353    9393.5928   -2266.4609   -1053.4564   -3517.6593    398.22959    337.42472    409.21752   -4158.1546 
19132000    197.28329   -4143.9515   -3805.8147   -4143.9515            0   -1365.8066    18.708271    22.035872    22.824047    9409.2838   -579.93094   -1057.3213   -2460.1677    374.51275    848.05811   -768.48287   -3993.2372 
19133000     197.6191   -4169.3986   -3830.6862   -4169.3986            0   -18.978439    18.666471    21.986637     22.77305    9346.3538    534.51694    -113.8927   -477.55955    1447.0399    152.35195    53.549079   -3833.2731 
19134000    182.18962   -4165.3664   -3853.0996   -4165.3664            0   -1024.4681    18.673132    21.994483    22.781177    9356.3637   -1522.8449   -1098.9367   -451.62273     332.8208   -109.66565    157.68277   -3992.8913 
19135000    191.65863   -4185.2537   -3856.7573   -4185.2537            0   -792.99617    18.660237    21.979294    22.765446    9336.9936    -1567.614    126.10206   -937.47657   -413.66847   -500.81769    652.57886     -3964.74 
19136000    202.04539   -4167.2379    -3820.939   -4167.2379            0   -620.15429    18.660688    21.979825    22.765995    9337.6701    36.339633   -1264.9304   -631.87206    1112.0693   -29.525697   -267.66608   -3905.3918 
19137000    194.39359   -4167.4524   -3834.2684   -4167.4524            0   -1024.9648    18.676711    21.998698    22.785544    9361.7442   -1044.5675   -874.62018   -1155.7066     660.0236    333.12555    -468.5825   -3974.2083 
19138000    200.33358   -4165.9191   -3822.5542   -4165.9191            0    822.54589    18.611125    21.921447    22.705529    9263.4654    761.45952    752.25792    953.92024    760.81983    974.90582   -8.3037854   -3711.4298 
19139000    193.13946   -4198.4621   -3867.4277   -4198.4621            0   -350.78154    18.642998     21.95899    22.744415    9311.1405    377.40774     1118.906   -2548.6584    361.71553    805.49641   -615.23338   -3915.0615 
19140000    204.63846   -4176.3807   -3825.6374   -4176.3807            0   -247.70985    18.684228    22.007553    22.794715    9373.0531   -147.43051    570.12339   -1165.8224    334.93241    477.18535    132.69202   -3859.4984 
19141000    192.21127   -4172.9435      -3843.5   -4172.9435            0    497.73809    18.642333    21.958206    22.743602    9310.1431    885.05235    261.78979    346.37211    462.08905    874.06029   -474.78647   -3775.9176 
19142000    193.57035   -4168.3294   -3836.5565   -4168.3294            0   -778.69455    18.676027    21.997893     22.78471    9360.7162   -1065.7456   -1074.9672   -195.37092    392.66422    29.418363    -576.7808   -3942.8611 
19143000    188.80194    -4166.133   -3842.5329    -4166.133            0     -1009.75    18.662151    21.981549    22.767781     9339.867   -530.78846   -357.57637   -2140.8851    525.77472   -275.58234    317.69451   -3980.0734 
19144000    194.43736   -4160.6274   -3827.3684   -4160.6274            0    1.3055071    18.643739    21.959862    22.745318    9312.2504   -568.87118    587.94826   -15.160557    658.60222    66.768963   -529.50084   -3827.1911 
19145000    201.74805   -4151.7473   -3805.9581   -4151.7473            0   -265.12292     18.60595    21.915352    22.699216    9255.7401   -800.05999    381.52423   -376.83302   -502.54981    559.74636    72.238012   -3841.7458 
19146000    212.65952   -4203.4701   -3838.9789   -4203.4701            0   -717.00634    18.649695    21.966878    22.752585    9321.1785   -158.71838    353.50471   -2345.8053    385.41061   -448.84741    -867.0085   -3936.4486 
19147000    184.21297   -4160.2403   -3844.5055   -4160.2403            0   -1360.5117    18.713208    22.041687     22.83007    9416.7339   -1359.1031   -1498.3906   -1224.0415     2214.161    811.37384   -1091.3996   -4031.3492 
19148000    192.48552   -4180.0844   -3850.1709   -4180.0844            0    -741.1153    18.646599    21.963231    22.748808    9316.5369   -815.11161    879.18346   -2287.4177    645.69938     99.24541   -66.785147   -3950.8678 
19149000    199.67722   -4140.7034   -3798.4635   -4140.7034            0   -233.43622    18.689016    22.013193    22.800556     9380.261    175.27227   -631.88793     -243.693    493.82708    1004.3686   -1537.9277   -3830.3979 
19150000    199.30929   -4178.7199   -3837.1106   -4178.7199            0   -1090.2342    18.700321    22.026508    22.814348    9397.2936   -81.975138   -2568.5849    -620.1424    726.72554    506.53323   -977.71267   -3986.5271 
19151000    193.20908   -4137.5382   -3806.3844   -4137.5382            0   -527.35199    18.649411    21.966543    22.752238    9320.7523   -791.46868   -63.269647   -727.31763    58.330279    65.543503   -215.67262   -3878.0693 
19152000     186.7702   -4169.9709   -3849.8532   -4169.9709            0   -411.32796     18.63756    21.952584     22.73778    9302.9943    905.95911   -839.48934   -1300.4536    195.53275    1041.5229   -111.73243     -3905.66 
19153000    195.35276   -4150.3032   -3815.4752   -4150.3032            0   -1071.1257    18.679914    22.002471    22.789451    9366.5612   -499.74301   -1035.7141   -1677.9201    139.74824   -1053.1651   -667.58066   -3961.7928 
19154000    189.50299   -4171.6839   -3846.8822   -4171.6839            0   -1536.9062    18.697564     22.02326    22.810984    9393.1371   -1100.0687   -1385.8274   -2124.8226    896.24519    559.04125   -886.63697   -4057.4219 
19155000    201.51515   -4179.6196   -3834.2295   -4179.6196            0   -321.36029    18.586257    21.892156     22.67519    9226.3817    79.345094   -45.539645   -997.88631   -538.82706   -587.21479   -462.64859   -3877.4709 
19156000    189.18441   -4186.6897   -3862.4341   -4186.6897            0   -746.40484    18.656726    21.975159    22.761163    9331.7248    -1022.971   -356.99367   -859.24985    1236.7999     1064.216   -84.065851    -3964.015 
19157000    190.58196   -4163.4942   -3836.8432   -4163.4942            0   -1232.0366    18.666649    21.986847    22.773269    9346.6226    -670.5646   -1517.7936   -1507.7515     418.6019   -157.79409   -1277.5636   -4004.7832 
19158000    189.74791   -4159.3328   -3834.1114   -4159.3328            0    514.56331    18.679064     22.00147    22.788414    9365.2829    777.17696    337.94203    428.57094    1099.6504    -451.7213     13.92335   -3763.8308 
19159000    204.37664    -4181.458   -3831.1635    -4181.458            0   -676.58197    18.656781    21.975224     22.76123    9331.8073   -628.14556   -473.89813   -927.70223    47.957333   -464.61883    234.78595   -3923.2428 
19160000     205.7956   -4160.4796   -3807.7529   -4160.4796            0   -538.91251    18.690194     22.01458    22.801993    9382.0342    339.38264   -473.94996   -1482.1702    494.38221    354.51162    67.680594   -3881.4909 
19161000    186.59946   -4171.8783   -3852.0532   -4171.8783            0    519.72379    18.614747    21.925713    22.709947    9268.8739   -22.637301    938.22179    643.58688    934.06775    1339.5435    -55.03301   -3781.7985 
19162000    195.00627   -4169.2989   -3835.0648   -4169.2989            0   -1294.9901    18.715809    22.044751    22.833244    9420.6623   -1293.1773    -997.6956   -1594.0974   -26.923581    193.79536    -25.33899   -4012.9844 
19163000    195.73315   -4159.9213   -3824.4413   -4159.9213            0   -51.528817    18.654759    21.972842    22.758763    9328.7732    23.724162    200.68319    -378.9938    96.239785    1128.9192    6.2385699   -3831.4519 
19164000    189.69722   -4161.5984   -3836.4639   -4161.5984            0   -574.56932    18.679609    22.002112    22.789079     9366.103   -860.54074   -111.37679   -751.79043    467.60347    468.65785    5.5164015   -3914.9472 
19165000    205.89994   -4184.6322   -3831.7268   -4184.6322            0   -988.23472    18.680441    22.003092    22.790094    9367.3545   -1852.2039     1429.567   -2542.0673     611.4574    -762.2267   -319.38095   -3966.7327 
19166000    194.41885   -4153.2198   -3819.9926   -4153.2198            0    233.20199    18.656063    21.974378    22.760353    9330.7292     848.7198    313.44078   -462.55463    253.45943    161.40909   -141.14391   -3788.2586 
19167000    194.45579   -4182.8773   -3849.5867   -4182.8773            0   -795.33087    18.672641    21.993904    22.780578     9355.625   -336.05366   -1674.7814   -375.15754    1445.7187    577.59556    681.50807   -3958.1034 
19168000    217.58587   -4169.1688    -3796.234   -4169.1688            0   -825.02343    18.648338    21.965279    22.750929    9319.1434    109.64215   -876.59757   -1708.1149    97.823047   -133.14153    339.11794   -3908.3631 
19169000    207.38768   -4158.1466   -3802.6912   -4158.1466            0    -536.4376    18.657464    21.976028    22.762062    9332.8315   -396.41439   -1073.3392   -139.55918   -294.89067     1102.522   -475.47999   -3875.7056 
19170000    200.01597   -4168.6619   -3825.8414   -4168.6619            0   -575.29981    18.672881    21.994187    22.780871    9355.9858   -177.20254    24.674422   -1573.3713     1040.875   -277.13271   -8.5252951   -3904.3396 
19171000    190.46549   -4155.6047   -3829.1534   -4155.6047            0   -97.617476     18.61427    21.925151    22.709365    9268.1613   -1020.9937    1209.5598   -481.41852    331.19506    -264.5342     241.9812    -3842.348 
19172000    194.25672   -4168.6116   -3835.6622   -4168.6116            0   -39.822435    18.682234    22.005204    22.792282    9370.0527    996.49238   -557.87639    -558.0833    1093.4195    564.29729    752.45758    -3841.104 
19173000    195.78816    -4173.522   -3837.9478    -4173.522            0    739.79383    18.664528    21.984349    22.770681    9343.4363    1182.7769    696.00523    340.59939    908.52831   -73.085162   -509.17001   -3737.1402 
19174000    192.99325   -4174.3153   -3843.5315   -4174.3153            0   -401.30084    18.649597    21.966761    22.752464    9321.0301    355.56161   -1000.8457   -558.61839    847.80668    1964.1165    215.41588   -3898.0834 
19175000    203.05583   -4170.4273   -3822.3966   -4170.4273            0   -355.75394    18.645738    21.962216    22.747756    9315.2453   -244.99743    423.44826   -1245.7126   -320.37668    43.498474   -764.02863    -3870.727 
19176000     197.4806   -4172.2422   -3833.7672   -4172.2422            0   -1420.0813    18.723036    22.053263     22.84206    9431.5783   -1994.5972   -1019.2797   -1246.3671      415.808    631.17681   -374.44571   -4029.0992 
19177000    204.80214   -4158.8202   -3807.7964   -4158.8202            0    -979.6542     18.70407    22.030923    22.818921    9402.9455   -1097.6215   -1232.5081   -608.83295    191.29529    682.84546   -387.43777   -3942.1386 
19178000    205.85712   -4169.8846   -3817.0526   -4169.8846            0   -424.39651    18.700564    22.026794    22.814644     9397.659   -783.00884   -382.00123   -108.17946     851.6105   -243.35662   -371.27659   -3875.2183 
19179000    193.04879   -4153.6917   -3822.8127   -4153.6917            0   -1191.7852     18.70327    22.029981    22.817945    9401.7391    -482.8951   -1153.4187   -1939.0417    -483.8367    1191.0926   -654.07372    -3986.224 
19180000    192.78867   -4163.0318   -3832.5987   -4163.0318            0    364.14036    18.632101    21.946154     22.73112    9294.8224    645.02203    1075.8089   -628.40983    440.60227   -45.611928    478.01411   -3783.2375 
19181000    196.08522   -4151.7655   -3815.6822   -4151.7655            0   -748.12118    18.688161    22.012185    22.799512    9378.9726   -215.28667   -369.23067   -1659.8462    418.26762    275.96792    370.00243   -3918.0122 
19182000    207.98765   -4156.1735   -3799.6898   -4156.1735            0   -466.35778    18.662023    21.981398    22.767624    9339.6743   -64.430369   -145.75044   -1188.8925    1963.8459    681.54062   -312.16222   -3863.2122 
19183000    200.03407   -4189.0614   -3846.2099   -4189.0614            0    89.617002    18.658728    21.977516    22.763604    9334.7278    650.27955    87.607355    -469.0359    291.27566    568.33299   -435.77637   -3834.0096 
19184000    193.17497   -4177.7318   -3846.6365   -4177.7318            0   -883.37284    18.730554    22.062119    22.851232    9442.9452   -1201.3062    -175.0567   -1273.7556    920.29545     175.2384    386.09376   -3968.2908 
19185000    192.56122   -4141.6375   -3811.5942   -4141.6375            0    12.912759     18.67165    21.992738     22.77937    9354.1363    1740.3724   -884.21759   -817.41655    464.70609    291.03895     550.6258   -3809.8326 
19186000     199.2289   -4152.9879   -3811.5164   -4152.9879            0   -482.06749     18.67579    21.997614     22.78442      9360.36   -94.163989   -848.72903   -503.30945    20.094962    201.79761    423.26666    -3877.324 
19187000    208.08753   -4193.9797   -3837.3248   -4193.9797            0    224.56397    18.594031    21.901313    22.684675     9237.964    862.54974    655.85349   -844.71131    740.72004    776.42266   -678.02529   -3807.0701 
19188000    198.77664   -4140.5929   -3799.8966   -4140.5929            0   -557.85035    18.690617    22.015078    22.802509     9382.671   -476.28367   -19.035864   -1178.2315    845.56591    827.96081    222.85705   -3876.2309 
19189000    195.46777   -4187.1191    -3852.094   -4187.1191            0   -591.80581    18.689451    22.013705    22.801087     9380.916    749.41305   -513.35786   -2011.4726    669.39636    353.23484   -302.64151   -3933.0596 
19190000    211.58865   -4156.5276   -3793.8719   -4156.5276            0   -733.25563    18.708118    22.035691     22.82386    9409.0519   -659.24626   -159.01606   -1381.5046    715.32789   -117.89546   -411.35611   -3894.4903 
19191000    198.96124    -4164.735   -3823.7223    -4164.735            0   -706.10796    18.682116    22.005065    22.792138    9369.8745   -1982.1591   -329.75373      193.589    745.88937    928.20349   -303.23236   -3920.2119 
19192000     204.1628   -4166.9517   -3817.0237   -4166.9517            0    105.62054    18.655285    21.973461    22.759404    9329.5615    289.22141    1004.7382   -977.09798    1135.6546    489.60251    313.45214   -3802.6527 
19193000    199.53157   -4163.3907   -3821.4004   -4163.3907            0   -613.62086    18.719722     22.04936    22.838017    9426.5715    364.80972   -1569.7067   -635.96558     63.40073    2189.6742   -92.968185   -3905.7591 
19194000    207.21184   -4160.3471   -3805.1931   -4160.3471            0    -590.3189    18.689788    22.014101    22.801497    9381.4225   -1096.3658   -594.20802   -80.382854    175.71172    -367.3341   -1022.4768   -3885.9596 
19195000    197.28837   -4175.7047   -3837.5592   -4175.7047            0   -151.81983     18.66704    21.987308    22.773746    9347.2097   -318.71513   -64.833754   -71.910613    917.26262   -638.58468    210.10541   -3858.2552 
19196000    197.75812   -4163.1157    -3824.165   -4163.1157            0   -1672.0222    18.734232     22.06645    22.855719    9448.5082   -1328.9097   -1241.8138   -2445.3432    296.18814    291.15357   -608.35159   -4054.5644 
19197000    197.37251   -4164.0942   -3825.8044   -4164.0942            0   -629.10373    18.669586    21.990307    22.776852    9351.0351   -1064.0974     32.70774   -855.92153     246.2239    500.68301    196.55146   -3911.5986 
19198000    201.15461   -4165.3813   -3820.6092   -4165.3813            0   -643.51254    18.717336     22.04655    22.835106    9422.9677    -554.1965    288.33323   -1664.6744    534.94804    492.22831    -120.7967   -3909.0434 
19199000    209.51972   -4161.0357    -3801.926   -4161.0357            0   -741.71134    18.679187    22.001615    22.788565    9365.4684   -351.45923   -718.93706   -1154.7377    388.92315    511.60438   -221.53924   -3903.2332 
19200000    201.33527   -4170.2014   -3825.1196   -4170.2014            0   -1245.7847    18.689197    22.013405    22.800776    9380.5325   -571.49744    -290.8507   -2875.0059    1439.2961   -6.1855504    593.02664   -3995.5497 
19201000    206.07208   -4172.0491   -3818.8486   -4172.0491            0   -1112.7363    18.720545    22.050329    22.839021    9427.8144   -2164.0877   -798.21775   -375.90359    784.52433    781.10928    -374.7111   -3971.8442 
19202000     200.5828   -4159.0991    -3815.307   -4159.0991            0   -400.34536    18.669947    21.990731    22.777292    9351.5766   -651.98461    1461.4804   -2010.5319     509.7891    146.73728   -771.65717   -3869.9074 
19203000    196.63484   -4178.6186   -3841.5932   -4178.6186            0    65.946077    18.684833    22.008265    22.795452    9373.9626    988.44217    132.31854   -922.92248     162.3451   -740.35463   -529.02193   -3832.5777 
19204000    195.14925   -4173.9141    -3839.435   -4173.9141            0   -1209.2946    18.724543    22.055038    22.843899    9433.8564    -38.56137    -1211.101   -2378.2214    849.92512    844.70912    -639.8132   -4005.8135 
19205000    193.86839   -4184.2993   -3852.0155   -4184.2993            0    -1549.595    18.714957    22.043747    22.832204    9419.3753   -1266.9669   -938.88228   -2442.9359    796.11731    464.42323   -659.59429   -4064.8863 
19206000    198.66448   -4187.0186   -3846.5145   -4187.0186            0   -1815.6961    18.704196    22.031073    22.819076    9403.1366   -1824.3617   -1664.3426   -1958.3838    121.00441   -54.967366   -327.60782   -4095.5101 
19207000    201.10444   -4176.4748   -3831.7887   -4176.4748            0   -583.24071     18.68083     22.00355    22.790569    9367.9393    181.66732   -375.80245    -1555.587    1152.4311    39.444739   -63.302825   -3911.4721 
19208000    198.38517   -4152.4683    -3812.443   -4152.4683            0    463.64449    18.642716    21.958657     22.74407    9310.7172     914.0574   -40.746157    517.62223    615.21085    511.97024    281.16102   -3749.4859 
19209000    195.24738   -4161.4022   -3826.7548   -4161.4022            0    43.475012    18.692708    22.017541     22.80506    9385.8209    159.62628    6.7066679   -35.907912    8.2066772   -190.41889   -191.86845   -3820.8039 
19210000    206.57931   -4161.5517   -3807.4818   -4161.5517            0   -1278.8833    18.702086    22.028587    22.816501    9399.9541   -1180.1372    -1498.316   -1158.1967    749.20037   -21.250079   -228.67698   -3982.8022 
19211000    202.26208   -4184.6888   -3838.0185   -4184.6888            0   -493.53266    18.643272    21.959312    22.744748    9311.5506    310.66361   -526.79153     -1264.47    165.20638     110.9419   -531.11733   -3905.0399 
19212000    196.56412    -4160.138   -3823.2338    -4160.138            0   -928.10113    18.685716    22.009305     22.79653    9375.2925   -1059.2189   -1004.1022   -720.98236    1361.0673   -166.15314    427.10781   -3950.1322 
19213000    207.91122    -4169.174   -3812.8213    -4169.174            0   -1306.2939    18.667914    21.988337    22.774812    9348.5229   -1135.6342   -1236.4528   -1546.7946   -365.74415   -319.20333   -277.51154   -3990.9196 
19214000     190.2376   -4164.8615   -3838.8007   -4164.8615            0    167.78342    18.604073    21.913141    22.696926    9252.9388     642.3351    210.60748   -349.59231    1006.6632    332.27476   -424.95791   -3816.1593 
19215000    182.60679   -4182.5145   -3869.5327   -4182.5145            0    214.17746    18.632911    21.947108    22.732108    9296.0346    469.54994    931.13247   -758.15003    1603.2353    152.52013   -611.44518    -3840.496 
19216000    200.26407   -4180.2995   -3837.0538   -4180.2995            0    -1177.808    18.723392    22.053683    22.842495    9432.1176   -431.39188   -820.12279   -2281.9093    748.10966     926.2623   -1283.8423   -3999.0704 
19217000    194.32551   -4185.2745   -3852.2072   -4185.2745            0   -646.23787      18.6806    22.003279    22.790288    9367.5933   -358.95486   -1497.8467   -81.911989    1076.8795    575.56675    321.33226   -3940.4941 
19218000    203.30614   -4171.9641   -3823.5044   -4171.9641            0   -971.40925    18.668717    21.989282    22.775791     9349.728    -1813.086    -114.5502   -986.59157    296.86457    184.04856   -83.695669    -3955.962 
19219000    203.30489   -4162.3467   -3813.8891   -4162.3467            0      -215.94    18.663796    21.983486    22.769787    9342.3362    314.90797   -791.38896   -171.33901    663.42658   -444.44081   -223.43471   -3843.3106 
19220000    194.13096   -4180.7319    -3847.998   -4180.7319            0   -1492.3926    18.724575    22.055076    22.843938    9433.9048    -2337.776   -146.28682   -1993.1151    135.89934    66.894439    281.28545   -4053.3271 
19221000    194.18708     -4163.19     -3830.36     -4163.19            0   -861.76429    18.688975    22.013144    22.800506    9380.1988   -2056.7058    701.60599   -1230.1931     404.8111    230.43007   -1063.0347   -3948.2499 
19222000    187.32588   -4163.4888   -3842.4187   -4163.4888            0   -1384.9884    18.690857    22.015361    22.802802    9383.0326   -1514.0948     -1283.27   -1357.6004    1077.1288   -121.49265   -855.08918   -4031.9431 
19223000    195.00926   -4171.1425   -3836.9033   -4171.1425            0   -356.69263    18.673342     21.99473    22.781434    9356.6794   -88.924088   -458.31426   -522.83954    337.86387    617.12486    168.49288   -3885.5767 
19224000    195.91779   -4158.8233   -3823.0269   -4158.8233            0   -272.42842    18.693031    22.017922    22.805455    9386.3078   -655.90233    410.48499   -571.86794    1236.2558    365.80139   -1077.4217   -3860.3195 
19225000    194.81131   -4180.1414   -3846.2415   -4180.1414            0   -750.23682    18.714532    22.043246    22.831685     9418.733   -672.96206   -191.40305   -1386.3453    690.19243    510.94835   -609.00387   -3949.2959 
19226000    196.13397   -4157.1988   -3821.0319   -4157.1988            0   -1284.7437    18.733611    22.065719    22.854962    9447.5695   -993.01703    -582.1011    -2279.113    1054.6463   -563.55864    8.2836692   -3998.0479 
19227000    212.76454   -4141.9188   -3777.2477   -4141.9188            0   -728.54949    18.675489    21.997259    22.784053     9359.907   -2061.5706    723.49959   -847.57747    760.92589    20.564186   -1117.8285   -3876.6981 
19228000    198.24852   -4142.8088   -3803.0177   -4142.8088            0    164.89103    18.647925    21.964793    22.750426    9318.5248    830.56334    73.855433   -409.74568    1564.3388    168.85896    202.21386   -3780.6088 
19229000    200.58527   -4166.1747   -3822.3784   -4166.1747            0   -298.63995    18.676055    21.997926    22.784743    9360.7581    90.873143    2.2851826   -989.07817    750.84252    456.07231   -160.76719   -3863.1479 
19230000    215.29883   -4166.8908   -3797.8759   -4166.8908            0   -1235.1422    18.738057    22.070956    22.860386    9454.2976   -523.71265   -1250.5015   -1931.2125    757.68198     184.3812    -887.3075   -3968.1789 
19231000    201.48536   -4152.5481   -3807.2091   -4152.5481            0    251.43768      18.6748    21.996448    22.783213    9358.8713    90.365726    1028.8846   -364.93727    669.56936    774.54001   -1386.1089   -3772.8904 
19232000    202.88369   -4172.0128   -3824.2771   -4172.0128            0   -1157.7143    18.727717    22.058777    22.847771    9438.6548   -359.43437   -1188.2595    -1925.449    591.18157    47.940632    797.36464   -3983.6401 
19233000    195.15756   -4175.1296   -3840.6362   -4175.1296            0   -1634.1936    18.668296    21.988786    22.775277    9349.0956   -869.37737   -1878.8143   -2154.3891     839.5124    221.66088    -742.3767   -4063.4536 
19234000    212.81014   -4174.2234   -3809.4742   -4174.2234            0    -1607.956    18.757739    22.094139    22.884398    9484.1206   -1002.6781   -1447.4382   -2373.7516   -152.60218    280.02983     209.5486   -4031.8805 
19235000    194.49543   -4175.7703   -3842.4118   -4175.7703            0   -243.33814     18.65415    21.972125     22.75802    9327.8597    303.52245    5.7028264   -1039.2397    595.49141    572.01228   -574.80561   -3875.5149 
19236000     197.2971   -4169.0289   -3830.8684   -4169.0289            0    827.66645      18.5834    21.888791    22.671705     9222.128    2323.0044   -374.78539    534.78035    829.29379    148.72223    136.76204   -3719.5512 
19237000    197.76547   -4167.8407   -3828.8775   -4167.8407            0   -1656.9648    18.730809    22.062419    22.851544     9443.331   -1516.0608   -1482.6501   -1972.1834    1611.2952   -37.037518   -489.07204   -4057.0768 
19238000    203.54878   -4163.8476   -3814.9719   -4163.8476            0    315.86506    18.641158    21.956821    22.742169    9308.3827    1067.4399    -33.59673   -86.247989    185.25286    425.69976    -105.1204   -3772.0922 
19239000    207.87752   -4181.6076   -3825.3126   -4181.6076            0   -596.80068    18.654966    21.973086    22.759015    9329.0832   -703.13722    13.119074   -1100.3839   -74.170682    81.548477    548.56578   -3906.5104 
19240000    206.45466   -4177.4596   -3823.6034   -4177.4596            0   -1161.3891    18.693491    22.018464    22.806016    9387.0008   -658.26508   -273.08367   -2552.8185    1103.7516    248.47706   -583.82046   -3982.5973 
19241000    191.01791   -4175.0468   -3847.6486   -4175.0468            0   -699.16528    18.663168    21.982746    22.769021    9341.3933   -666.15185   -307.78636   -1123.5576   -347.72745    295.99201    1163.5705   -3942.8992 
19242000    196.65497   -4165.1998   -3828.1399   -4165.1998            0     -991.535    18.707971    22.035519    22.823681    9408.8309   -240.62746   -1895.7096   -838.26793    1342.1744    667.01362   -143.11287   -3964.1965 
19243000    206.03901   -4153.8759   -3800.7321   -4153.8759            0    -1330.725    18.733711    22.065837    22.855084    9447.7208   -1383.9664    -1486.291   -1121.9175    873.73638    585.71842    44.468493   -3984.0864 
19244000    204.66107   -4163.9502   -3813.1681   -4163.9502            0   -577.34547    18.728278    22.059437    22.848455    9439.5027   -288.38116   -919.74978   -523.90548    1434.8259   -166.66088   -1306.4944   -3892.6486 
19245000    203.79385   -4155.1107    -3805.815   -4155.1107            0    1024.5731    18.610449     21.92065    22.704704    9262.4554    1513.7666    835.74379    724.20905    427.56807    577.21333    427.52553   -3667.4122 
19246000    202.80066   -4185.7817   -3838.1883   -4185.7817            0   -905.93362    18.650898    21.968295    22.754052    9322.9822   -1524.4134   -229.29342   -964.09405    159.08106    144.33084   -231.77174   -3961.3646 
19247000    190.17821   -4155.0114   -3829.0524   -4155.0114            0   -1809.3882    18.723068    22.053301    22.842099    9431.6269   -1583.4224   -1205.9985   -2638.7437    1119.4492    1427.1006   -728.11012   -4077.9349 
19248000     215.5462   -4171.2008    -3801.762   -4171.2008            0   -910.85699    18.624159    21.936799     22.72143     9282.941   -930.75753   -1097.7812   -704.03225    592.35774    969.70445   -26.181335   -3925.0758 
19249000    197.22245    -4182.634   -3844.6015    -4182.634            0   -755.90622    18.715687    22.044607    22.833095    9420.4775   -1499.5999    797.16146   -1565.2802    28.662501    109.74789   -1105.2831   -3948.4539 
19250000    214.43939   -4162.5548    -3795.013   -4162.5548            0   -744.90954    18.690572    22.015025    22.802454    9382.6035    -230.9808   -912.90235   -1090.8455    511.91171    717.59021   -733.71436   -3896.9432 
Loop time of 417.933 on 64 procs for 250000 steps with 864 atoms

Performance: 103.366 ns/day, 0.232 hours/ns, 598.182 timesteps/s
99.0% CPU use with 64 MPI tasks x 1 OpenMP threads

MPI task timing breakdown:
Section |  min time  |  avg time  |  max time  |%varavg| %total
---------------------------------------------------------------
Pair    | 11.99      | 19.483     | 28.633     |  70.9 |  4.66
Bond    | 0.26967    | 0.2777     | 0.28636    |   0.7 |  0.07
Kspace  | 195.14     | 207.76     | 220        |  35.0 | 49.71
Neigh   | 1.634      | 1.8939     | 2.4186     |  14.2 |  0.45
Comm    | 72.274     | 84.238     | 90.547     |  47.5 | 20.16
Output  | 1.4568     | 1.4761     | 1.4893     |   0.6 |  0.35
Modify  | 88.629     | 91.914     | 98.575     |  21.1 | 21.99
Other   |            | 10.89      |            |       |  2.61

Nlocal:        13.5000 ave          22 max           8 min
Histogram: 5 4 15 7 12 12 4 4 0 1
Nghost:        1783.78 ave        1822 max        1749 min
Histogram: 2 4 9 15 7 4 8 9 2 4
Neighs:        3282.95 ave        5100 max        1960 min
Histogram: 5 4 8 13 12 7 8 6 0 1

Total # of neighbors = 210109
Ave neighs/atom = 243.18171
Ave special neighs/atom = 2.0000000
Neighbor list builds = 5090
Dangerous builds = 0

unfix		3
unfix		2
unfix		1

write_data	data.final.${pid}
write_data	data.final.0
System init for write_data ...
PPPM initialization ...
  extracting TIP4P info from pair style
  using 12-bit tables for long-range coulomb (../kspace.cpp:340)
  G vector (1/distance) = 0.37174661
  grid = 24 25 27
  stencil order = 5
  estimated absolute RMS force accuracy = 0.0031328837
  estimated relative force accuracy = 9.4345863e-06
  using double precision FFTW3
  3d grid and FFT values/proc = 2730 384
Last active /omp style is kspace_style pppm/tip4p/omp
WARNING: Not all mixed pair coeffs generated from mixing. Use write_data with 'pair ij' option to store all pair coeffs. (../write_data.cpp:312)

write_restart   restart.lmp.${pid}
write_restart   restart.lmp.0
System init for write_restart ...
PPPM initialization ...
  extracting TIP4P info from pair style
  using 12-bit tables for long-range coulomb (../kspace.cpp:340)
  G vector (1/distance) = 0.37174661
  grid = 24 25 27
  stencil order = 5
  estimated absolute RMS force accuracy = 0.0031328837
  estimated relative force accuracy = 9.4345863e-06
  using double precision FFTW3
  3d grid and FFT values/proc = 2730 384
Last active /omp style is kspace_style pppm/tip4p/omp
Total wall time: 0:07:00
