#include		in.partitions
include		in.temp
variable        temperature equal 173.97
variable	tempDamp equal 100.0
include		in.pressure
variable        pressure equal 7369.9
variable        pressureDamp equal 1000.0 # This is 1 ps
include		in.seed
variable        seed equal 745823

units		real
atom_style	full
read_restart    restart.lmp.${pid}
read_restart    restart.lmp.0
Reading restart file ...
  restart file = 30 Jul 2021, LAMMPS = 30 Jul 2021
  restoring atom style full from restart
  triclinic box = (-3.1755339 0.041741838 -0.059630997) to (14.785533 22.538257 19.289629) with tilt (-0.14771321 -6.8060359 0.24333436)
  2 by 4 by 4 MPI processor grid
  restoring pair style lj/cut/tip4p/long/omp from restart
  restoring bond style harmonic/omp from restart
  restoring angle style harmonic/omp from restart
  1008 atoms
  672 bonds
  336 angles
Finding 1-2 1-3 1-4 neighbors ...
  special bond factors lj:    0        0        0       
  special bond factors coul:  0        0        0       
     2 = max # of 1-2 neighbors
     1 = max # of 1-3 neighbors
     1 = max # of 1-4 neighbors
     2 = max # of special neighbors
  special bonds CPU = 0.002 seconds
  read_restart CPU = 0.008 seconds

include 	in.setup
variable	out_freq equal 1000
variable	out_freq2 equal 10000
variable	out_freq3 equal 1000

timestep	2.0

neigh_modify    delay 7 every 1

include		in.tip4p
# This is TIP4P/Ice

# create groups ###
group ox type 2
336 atoms in group ox
group hy type 1
672 atoms in group hy

# set charges - beside manually ###
set group ox charge -1.1794
Setting atom values ...
  336 settings made for charge
set group hy charge 0.5897
Setting atom values ...
  672 settings made for charge

# ### TIP3P Potential Parameters ###
pair_style lj/cut/tip4p/long/omp 2 1 1 1 0.1577 8.5
pair_coeff 1 1*2 0.000 0.000
pair_coeff 2 2 0.21084 3.1668
bond_style  harmonic
bond_coeff  1 450 0.9572
angle_style harmonic
angle_coeff 1 55 104.52
kspace_style pppm/tip4p/omp 1.0e-5
pair_modify tail yes

thermo          ${out_freq}
thermo          1000
thermo_style    custom step temp pe etotal epair emol press lx ly lz vol pxx pyy pzz pxy pxz pyz enthalpy

restart 	${out_freq3} restart.lmp.${pid} restart2.lmp.${pid}
restart 	1000 restart.lmp.${pid} restart2.lmp.${pid}
restart 	1000 restart.lmp.0 restart2.lmp.${pid}
restart 	1000 restart.lmp.0 restart2.lmp.0


include         in.dump
dump            myDump all atom ${out_freq2} dump.water.${pid}
dump            myDump all atom 10000 dump.water.${pid}
dump            myDump all atom 10000 dump.water.0
dump            myDump2 all dcd ${out_freq2} dump.dcd
dump            myDump2 all dcd 10000 dump.dcd
dump_modify     myDump append yes
dump_modify     myDump2 append yes


variable natoms 	equal  "count(all)"                        # NUMBER ATOMS
variable H      	equal  "enthalpy/v_natoms"                 # ENTHALPY-per-atom
variable Vol      	equal  "vol/v_natoms"                 # volume-per-atom
fix AVG all 		ave/time ${out_freq} 1 ${out_freq} v_Vol v_H file vol_enthalpy.dat
fix AVG all 		ave/time 1000 1 ${out_freq} v_Vol v_H file vol_enthalpy.dat
fix AVG all 		ave/time 1000 1 1000 v_Vol v_H file vol_enthalpy.dat



fix 		1 all shake 1e-6 200 0 b 1 a 1
       0 = # of size 2 clusters
       0 = # of size 3 clusters
       0 = # of size 4 clusters
     336 = # of frozen angles
  find clusters CPU = 0.000 seconds
fix             2 all nph tri ${pressure} ${pressure} ${pressureDamp}
fix             2 all nph tri 7369.9 ${pressure} ${pressureDamp}
fix             2 all nph tri 7369.9 7369.9 ${pressureDamp}
fix             2 all nph tri 7369.9 7369.9 1000
fix             3 all temp/csvr ${temperature} ${temperature} ${tempDamp} ${seed}
fix             3 all temp/csvr 173.97 ${temperature} ${tempDamp} ${seed}
fix             3 all temp/csvr 173.97 173.97 ${tempDamp} ${seed}
fix             3 all temp/csvr 173.97 173.97 100 ${seed}
fix             3 all temp/csvr 173.97 173.97 100 745823


run             250000
PPPM initialization ...
  extracting TIP4P info from pair style
  using 12-bit tables for long-range coulomb (../kspace.cpp:340)
  G vector (1/distance) = 0.37997287
  grid = 24 27 36
  stencil order = 5
  estimated absolute RMS force accuracy = 0.0023730703
  estimated relative force accuracy = 7.1464307e-06
  using double precision FFTW3
  3d grid and FFT values/proc = 5670 1296
Last active /omp style is kspace_style pppm/tip4p/omp
Neighbor list info ...
  update every 1 steps, delay 7 steps, check yes
  max neighbors/atom: 2000, page size: 100000
  master list distance cutoff = 10.8154
  ghost atom cutoff = 10.8154
  binsize = 5.4077, bins = 5 5 4
  1 neighbor lists, perpetual/occasional/extra = 1 0 0
  (1) pair lj/cut/tip4p/long/omp, perpetual
      attributes: half, newton on, omp
      pair build: half/bin/newton/tri/omp
      stencil: half/bin/3d/tri
      bin: standard
Per MPI rank memory allocation (min/avg/max) = 10.32 | 10.35 | 10.41 Mbytes
Step Temp PotEng TotEng E_pair E_mol Press Lx Ly Lz Volume Pxx Pyy Pzz Pxy Pxz Pyz Enthalpy 
17500000    174.51661   -4987.4458    -4638.391   -4987.4458            0    9038.9546    17.961067    22.496515     19.34926    7818.2894    9587.0405    10615.171    6914.6523   -598.78914    1239.6444    107.49703   -3607.7538 
17501000    170.76147   -5027.5493   -4686.0052   -5027.5493            0    5650.3633     17.93441    22.827251    19.312051    7906.2239    7087.5339     5270.024    4593.5318    1280.8894    739.49106    168.96539   -4034.4948 
17502000    176.94467   -5028.0361   -4674.1249   -5028.0361            0    7504.5175    17.717148    22.919651    19.312349    7842.1821    9272.9157    8029.5083    5211.1286    940.41974    965.83296   -87.607098   -3815.8319 
17503000    172.84816   -5027.6913   -4681.9737   -5027.6913            0    7003.0577    17.930918    22.682363    19.306733    7852.3494    6559.0067    7243.3894     7206.777     1377.892    322.32449    1070.1988   -3879.9943 
17504000     166.5766   -5031.9817   -4698.8079   -5031.9817            0    8096.4431     18.01293    22.634783    19.171494     7816.578    7758.5713    8390.2377    8140.5205   -308.99629    514.29056    771.17262   -3775.8395 
17505000    173.37266   -5026.2833   -4679.5166   -5026.2833            0    6583.8472    18.027904    22.851279    19.102739    7869.5768    5332.7624     6660.414    7758.3651    266.66363    315.84475    629.28313   -3923.8904 
17506000    187.46758   -5038.7442   -4663.7859   -5038.7442            0    8206.5013    17.963701    22.798004    19.102088    7823.0028    5905.9593    8779.1152    9934.4295   -9.9345497   -528.44814   -594.12512   -3727.5022 
17507000    171.86672   -5023.9353   -4680.1806   -5023.9353            0    7001.9622    17.979664    22.699093    19.258672    7859.8888    7609.9694    6741.4575    6654.4596   -723.17428   -638.34381   -315.19004   -3877.5568 
17508000    174.35413   -5024.3392   -4675.6094   -5024.3392            0    6623.4415    17.959076    22.555044    19.450464    7878.7558    8201.1811    6626.9446    5042.1988   -583.21189    315.23633    483.46613   -3914.5523 
17509000    182.25653   -5013.5938   -4649.0583   -5013.5938            0    8766.9221    17.772504    23.005288    19.103453    7810.6681    10906.744     7714.907    7679.1157   -1013.0519     1238.234   -748.46356   -3650.4131 
17510000    178.40013   -5022.1334   -4665.3111   -5022.1334            0    6784.3904    17.821981    22.865398    19.284785    7858.6788    7371.3358    7229.1426    5752.6928   -1095.4302    670.63965   -838.43403   -3887.7469 
17511000    171.59235   -5027.5185   -4684.3126   -5027.5185            0    6376.0741    18.022514    22.525353    19.400042    7875.7086    5892.3888    6878.3745    6357.4591   -370.93737     151.2706    126.10327   -3951.9622 
17512000    183.98212   -5019.9701   -4651.9832   -5019.9701            0    5951.6578    18.002368    22.797873    19.311592    7925.7801    6116.8335    6579.4879    5158.6519   -374.35094    335.20494   -327.42949   -3964.0348 
17513000    183.03321   -5016.0719   -4649.9829   -5016.0719            0    7003.7183    17.774607    23.215063    19.059155    7864.5433    6420.4148    6495.0672    8095.6729   -916.10038    878.84668   -356.96235   -3846.6823 
17514000    173.50508    -5025.534   -4678.5024    -5025.534            0    8028.8714    17.942015    22.557282    19.446916    7870.6158    6826.6275    9180.8227    8079.1639   -665.79393    1522.7916   -510.69405   -3756.9095 
17515000    175.87803   -5027.0125   -4675.2347   -5027.0125            0    7793.2504    17.866135    22.666677    19.361742    7840.8455    7562.5006    8606.1915    7211.0591    874.04308    684.00268   -273.52971   -3784.0712 
17516000    179.64596   -5027.8398   -4668.5257   -5027.8398            0    7230.5434    17.782016    22.932471    19.244422    7847.5975    6669.8986    6935.3882    8086.3432    -282.7535   -60.752605   -639.02066    -3840.996 
17517000    178.11496   -5028.4572   -4672.2053   -5028.4572            0    7188.8396     17.91291    22.750713    19.282971    7858.4177    7041.8702    7582.7645     6941.884   -307.70548   -604.57503   -1017.8825   -3848.3143 
17518000    166.40054   -5022.0643   -4689.2427   -5022.0643            0     7893.289    17.958783    22.578344    19.316307    7832.3677    6054.6921    9061.1794    8563.9955    655.49954    211.56401    -791.3192   -3787.6156 
17519000    172.33933   -5016.2985   -4671.5985   -5016.2985            0    8201.8897    17.836133    22.885043    19.142115    7813.4412    6811.1476    8199.6749    9594.8467    43.814748   -635.93764   -21.818685   -3736.9848 
17520000    170.67089   -5020.9201   -4679.5573   -5020.9201            0    6943.0415    17.746475    22.913774    19.263939    7833.4637    7624.9347    7375.6408    5828.5491   -507.19461    208.29076   -1353.8994   -3886.3631 
17521000    172.87044   -5040.4438   -4694.6816   -5040.4438            0    7725.5775    18.004035      22.5392    19.307793    7835.0355    7112.0983    7843.1783    8221.4559    781.06453    33.273197   -339.34829    -3811.911 
17522000    172.86906   -5022.6147   -4676.8552   -5022.6147            0    7242.9918     17.90386    22.829861    19.268579    7875.8896    7078.2178    6788.4705    7862.2871   -1461.9066   -10.722207    472.14718   -3844.9123 
17523000    176.02989   -5043.9112   -4691.8297   -5043.9112            0    8589.3989    17.859247    22.853725    19.164297    7821.9135    8906.2847     7984.075    8877.8371   -609.28548    180.96243     403.6561   -3711.9976 
17524000    183.59108   -5013.0825   -4645.8776   -5013.0825            0    7238.6274     17.99351    22.819308    19.181623    7875.9634    6954.9782    7665.1911    7095.7129    442.96493    1372.9763   -31.007708   -3814.4283 
17525000    178.75103   -5011.0758   -4653.5517   -5011.0758            0    8029.3806    17.976056    22.797895    19.126771    7838.4612    8080.8007    8585.4912    7421.8498    882.59522    796.51489   -755.68291   -3735.6657 
17526000    180.60222   -5026.7976   -4665.5709   -5026.7976            0    6518.6451    17.992304    22.756864     19.25467    7883.7942    6338.6503    7389.4892    5827.7959   -415.62665    1145.4472   -515.75218   -3916.0763 
17527000    182.77162   -5016.9494   -4651.3836   -5016.9494            0    8338.7803    17.929849    22.780308    19.155499    7824.0152    7680.8519    7453.4138    9882.0753   -322.80539    255.25435   -486.00462   -3699.8851 
17528000    174.27606    -5032.476   -4683.9024    -5032.476            0    6867.1906    17.943716    22.844741    19.212317    7875.5045    6107.6431    6722.7324    7771.1962    1282.9781    1005.6515   -231.03531   -3895.1633 
17529000    172.86277   -5022.5236   -4676.7767   -5022.5236            0    7333.1596    17.931954    22.606764    19.382358     7857.287    7194.2291     8080.169    6725.0807   -1820.5504     635.8266    -425.5884   -3836.4664 
17530000    175.22187   -5006.1554     -4655.69   -5006.1554            0    7267.3579    17.861009    22.843882    19.223152    7843.3303    7573.4474    7312.7945    6915.8318    22.776123    720.73881    1290.4792   -3824.3992 
17531000    177.93579   -5012.9584   -4657.0649   -5012.9584            0    6692.4846     17.85002    22.959272    19.242879    7886.1837    7252.0947    6812.9376    6012.4215    564.17484    257.26973    2171.3225   -3887.3495 
17532000    175.66376   -5012.4757   -4661.1265   -5012.4757            0    9231.9778    17.888921    22.665211    19.256246    7807.5636    10238.992    9112.8722    8344.0696   -1367.5049   -394.08027   -548.95723   -3609.9245 
17533000    169.88012    -5011.343   -4671.5618    -5011.343            0    7088.8547    17.980525    22.728325     19.27552    7877.2731    6594.7092    6590.0189    8081.8361    436.57225   -160.23314   -2220.7504   -3857.1804 
17534000    169.20963   -5034.8281   -4696.3879   -5034.8281            0    5858.4991    18.048373    22.751646    19.186704    7878.6398    4746.2108     6793.394    6035.8926   -83.724741    169.25684   -811.62134   -4023.2353 
17535000    172.15207   -5043.3911   -4699.0657   -5043.3911            0    6888.3192    17.988161    22.811938    19.118813    7845.3055    5851.4378    7401.3524    7412.1673   -64.603788    12.369977   -1073.8193   -3910.9336 
17536000    170.13784   -5036.4951   -4696.1984   -5036.4951            0    6919.5956    17.773368    23.082243    19.116395    7842.4858    6810.5022    6098.5261    7849.7584    622.85408     345.0079    331.31826   -3904.7724 
17537000    177.36625   -5026.9241   -4672.1697   -5026.9241            0    7660.7343    18.008605     22.66717    19.199586      7837.35    7578.0659    8250.1326    7154.0043    870.26082    226.87701   -568.14904     -3796.55 
17538000    168.99352   -5014.2154   -4676.2075   -5014.2154            0    6974.7711    18.046168    22.544992    19.271313    7840.5476    4444.5551    8916.2511     7563.507    53.723912   -289.27313   -460.87177   -3878.6679 
17539000    175.90623    -5025.484   -4673.6499    -5025.484            0    6983.3034    17.782225    22.957808    19.212973    7843.5216    8203.5123    5991.2319    6755.1659   -239.83822   -793.50955    338.01167   -3874.8318 
17540000      174.027   -5016.4698   -4668.3943   -5016.4698            0    7785.7679    17.990931    22.639941    19.218202    7827.8354    5519.6149    8836.3079    9001.3808   -472.48391    -424.1096   -1453.0869   -3779.5637 
17541000    182.22001    -5039.134   -4674.6715    -5039.134            0    5831.8139    17.999605    22.677607    19.323796    7887.7409    5937.5364    6082.9928    5474.9124   -652.20757    -258.7422   -364.43563    -4003.811 
17542000    171.81199   -5016.9835   -4673.3383   -5016.9835            0    7689.6727    17.913628    22.811676    19.186908    7840.5357    6960.4096    6891.6973    9216.9111    366.42331   -283.84369   -2369.5832   -3794.0537 
17543000    170.44859   -5002.6496   -4661.7314   -5002.6496            0    7218.3448    17.895644    23.003449    19.062468    7847.2847    7535.0235     6394.907    7725.1038    1016.8562    131.55631   -436.38083   -3835.6308 
17544000    164.23956   -5022.0721   -4693.5727   -5022.0721            0     7981.288    18.007054    22.549487    19.304933    7838.7648     7710.085     9378.073     6855.706   -165.35906    78.866728    470.82083   -3781.1491 
17545000    168.30212   -5029.4873   -4692.8623   -5029.4873            0    8457.7907    17.942714    22.525097    19.326845     7811.164     6877.538    8788.1552    9707.6788   -686.13643    220.26864   -1456.0055   -3729.3693 
17546000    166.18707   -5025.6886   -4693.2939   -5025.6886            0    5737.4794    17.938323    22.864185    19.287094    7910.5077    5734.9211    5917.2406    5560.2765    537.85033   -247.34198    1023.6862   -4031.3802 
17547000    180.23664   -5034.6092   -4674.1137   -5034.6092            0     7329.603    17.917043    22.823691    19.145713    7829.3146    6479.8869    7053.8157    8455.1065    -509.9929    668.05075    229.41153   -3837.2011 
17548000    172.10585   -5030.5958   -4686.3628   -5030.5958            0    7621.2226    17.922301     22.78145    19.223949    7849.0612    7736.7503    7478.3045    7648.6129   -606.20252   -116.86705    1478.1291   -3813.9576 
17549000    175.70818   -5020.1409   -4668.7028   -5020.1409            0    6681.4445    17.893792    22.798591    19.343894    7891.4043     6734.202    6431.7633    6878.3682    180.19513    855.47314   -477.82393   -3899.7485 
17550000    174.04475   -5045.8835   -4697.7725   -5045.8835            0    7393.8932    17.955928    22.777922    19.230831    7865.3857    6524.0546    7973.0195    7684.6053    1418.7651    576.29686    876.54834   -3849.6295 
17551000    179.47661   -4993.5884    -4634.613   -4993.5884            0     5915.492    17.946175    23.021833    19.117251    7898.3659    5419.3987    4878.1548    7448.9226    1505.5043    455.56155    905.96639     -3953.21 
17552000    171.71044   -5037.9646   -4694.5225   -5037.9646            0    6459.1482    18.108111    22.594418    19.293641    7893.8434    6620.2131    5895.8178    6861.4137   -566.53974     44.75253   -502.19308    -3950.922 
17553000     163.8951   -5028.5831   -4700.7727   -5028.5831            0    8097.3384    18.017194    22.684682    19.175414    7837.2662    5995.6709    8877.2474    9419.0968    421.43504    1168.5751   -1112.2103   -3775.2591 
17554000    179.18945   -5015.7193   -4657.3183   -5015.7193            0    7426.6019    17.972604    22.932994    19.089358     7867.977    7209.5925    7132.9866    7937.2266   -455.68922   -48.870283     420.6179   -3805.1427 
17555000    179.73097   -5023.1402    -4663.656   -5023.1402            0    8030.4528    17.951785    22.823553    19.093914    7823.2255    7998.4402    7961.6021    8131.3161    -227.1784   -51.309934   -77.719874   -3747.4318 
17556000    194.07817   -5035.6133    -4647.433   -5035.6133            0    7318.8115    18.056349    22.597325    19.284434     7868.535    7129.3616    8145.1614    6681.9116    279.18805  -0.34728815    472.19558   -3807.5663 
17557000    168.81681   -5038.0821   -4700.4277   -5038.0821            0    6276.7782    17.943097    22.908232    19.173844     7881.306    5398.6375    6015.8125    7415.8847   -492.23195    142.02514   -1172.8291     -3978.97 
17558000     170.3135   -5014.1913   -4673.5433   -5014.1913            0    7442.5899    17.832365    22.926436    19.135538    7823.2311     7815.715    6675.2942    7836.7605      227.491   -31.161228    378.80145   -3824.3899 
17559000    164.91185   -5009.9094   -4680.0654   -5009.9094            0    6219.8414    17.940019     22.67174    19.407252    7893.5398    6816.8265    6217.6537     5625.044   -873.96313   -363.22051     401.8046   -3964.0423 
17560000    177.60669   -5032.7916   -4677.5563   -5032.7916            0    8918.0247    17.812881    22.649932     19.36215    7811.8637    7723.4119    10793.471    8237.1917    1165.2097    926.46522    760.89064   -3661.5434 
17561000    182.00247   -5026.0086   -4661.9812   -5026.0086            0    7387.1416    17.762668    22.874935    19.315009     7848.072    6339.4371     7463.658    8358.3296     402.8582     225.8482    -842.0143   -3816.4779 
17562000    181.53159   -5005.5057   -4642.4201   -5005.5057            0    7823.9897    17.928552    22.774244    19.221175     7848.183    6816.1983    7226.2477    9429.5229   -251.60726   -337.97926   -1302.8656   -3746.9043 
17563000     181.6214   -5014.8045   -4651.5393   -5014.8045            0    7869.0683    18.118086    22.447066    19.243984    7826.4869    8458.3783    7502.6199    7646.2068   -1612.0494   -1055.9187    283.90291   -3753.3537 
17564000    170.43885   -5019.6117    -4678.713   -5019.6117            0    6854.3244    17.992091    22.791759    19.125234    7842.7117    7209.3626    6829.1139    6524.4967   -494.45841   -859.23257   -944.46532   -3894.7297 
17565000    169.33705   -5030.3897   -4691.6946   -5030.3897            0     6656.032    17.930235    22.892494    19.147907    7859.5991    5581.1047    6374.9992    8011.9922    1281.7474    227.51514   -7.0566958   -3928.7524 
17566000    179.39927   -5011.0788   -4652.2581   -5011.0788            0    7220.6033     17.99241    22.872155    19.068258    7847.0683      6198.18    6906.6804    8556.9496    1447.4364   -450.98738     763.2899   -3825.9218 
17567000    173.08375   -5025.5946   -4679.4057   -5025.5946            0    7344.2407    18.049623    22.590768    19.210593    7833.2122    6331.9692    8272.6004    7428.1524   -368.32503   -510.64082    234.60982   -3840.4043 
17568000    174.76275   -5029.3743   -4679.8272   -5029.3743            0    5690.2149    17.932426    22.828448    19.258228    7883.7301    6056.2618    5207.2734    5807.1096   -1613.6893   -405.73062    -2182.007   -4025.5884 
17569000    165.78129   -5034.6387   -4703.0556   -5034.6387            0    7278.0211    17.800526     22.87922    19.293804    7857.6359    7526.2942    7123.7063    7184.0627   -140.09354    18.699347   -167.46189   -3869.0268 
17570000    176.52472   -5019.4936   -4666.4223   -5019.4936            0    8348.8987    17.915206    22.770797    19.202574     7833.566    9093.8857    7867.2258    8085.5844   -841.72991    18.775354   -694.50571   -3712.6064 
17571000    175.08919   -5018.6945   -4668.4945   -5018.6945            0    7879.2725    17.987901     22.66764    19.224103    7838.4984    7816.7122    7793.4148    8027.6905   -229.08316   -616.05799   -1698.6484    -3767.764 
17572000     187.3093    -5019.222   -4644.5803    -5019.222            0    5813.6048    17.951594    22.859344      19.2824    7912.7579    6939.8563    4397.7409    6103.2171    1183.3839   -616.69847   -104.41765   -3973.6934 
17573000    169.43091   -5034.4759   -4695.5931   -5034.4759            0    7195.3117    17.680738    23.028419    19.189332    7813.1177    8470.3872      6648.06    6467.4879   -933.03124   -1154.2823    657.16097   -3875.7139 
17574000    165.86074   -5032.3709   -4700.6289   -5032.3709            0    7894.3505    17.847897     22.72097    19.322715    7835.7771    7351.1013    8565.2721     7766.678   -430.99479   -313.99649    809.61037   -3798.4881 
17575000    170.91298   -5019.8779   -4678.0308   -5019.8779            0    8398.7877    17.850023    22.521882    19.420683    7807.4275    10346.898    7922.7807    6926.6842   -360.16357   -1196.9748    557.78541   -3721.7169 
17576000    173.56886      -5018.2   -4671.0409      -5018.2            0    7117.1037    17.654612    23.227086    19.139387    7848.3964    8504.9276    5881.2505    6965.1329   -726.52712    407.88888    634.56594   -3856.4114 
17577000    169.61625   -5047.5497   -4708.2962   -5047.5497            0    9176.5079    17.820444    22.768833    19.230156    7802.6498    9912.8222    9783.7309    7832.9705   -418.95983    -175.6943   -828.86177    -3664.068 
17578000    186.48205   -5011.7975   -4638.8103   -5011.7975            0    9044.7258    17.837791    22.613255    19.367604    7812.3208     8284.911    9078.2238    9771.0427    1976.1634    -413.5831   -204.84836   -3608.3023 
17579000    174.37053   -5037.1635   -4688.4009   -5037.1635            0    8413.4263    17.960792    22.655427    19.267851    7840.2699    7360.9668    8723.7528    9155.5594    188.99462    -466.7577    -1765.938   -3726.3904 
17580000     177.7156   -5010.5055   -4655.0523   -5010.5055            0    7014.3109    17.951497    22.977171    19.024551    7847.1445    5812.7681    7326.9967    7903.1678   -639.02743   -1246.4134    436.49631   -3852.3166 
17581000    171.66058     -5016.74   -4673.3976     -5016.74            0    6639.0201    18.088012    22.734883    19.157219     7878.001    6338.9231    5866.8038    7711.3335    -166.6847   -202.05336   -518.61643   -3910.6236 
17582000     174.8089   -5043.7619   -4694.1225   -5043.7619            0    7616.6399    18.016245     22.80147    19.081391    7838.5756    7163.9659    6693.2209     8992.733    980.17183   -342.03769    757.20441   -3823.4066 
17583000    170.88909    -5006.277   -4664.4777    -5006.277            0    8357.9655    17.819309    22.945489    19.152638    7830.9918     8500.613    8652.2429    7921.0405   -1056.1624   -59.401197    378.72148   -3709.9396 
17584000    182.60245   -5017.1802   -4651.9528   -5017.1802            0    6589.3803    17.814316    22.845558    19.353134    7876.2997    7084.4417    6380.9644    6302.7348   -1240.9559    114.15548   -29.568557   -3895.0455 
17585000    167.43989   -5026.1916   -4691.2911   -5026.1916            0    6615.9737    17.812242    22.860819    19.368255    7886.8007    8305.8642    5204.2245    6337.8325    88.048475   -239.84142   -1800.7312   -3930.3159 
17586000    168.50932   -5028.9951   -4691.9557   -5028.9951            0    6780.5935     18.01377    22.684812    19.228341    7857.4496    6139.3951    7091.4821    7110.9032   -821.73865   -458.50895   -894.73908   -3914.9482 
17587000    166.96217   -5017.3461   -4683.4011   -5017.3461            0    6661.5738    17.971811    22.794043    19.179162    7856.7482     6517.587    6749.5455    6717.5889   -500.13269   -265.53141   -290.03439   -3920.1006 
17588000    176.58306    -5029.905    -4676.717    -5029.905            0    7343.2459     17.97631    22.787674    19.184805     7858.831    6652.9244    6773.6904     8603.123    350.19376   -35.578875    780.28884   -3835.0857 
17589000    167.83446   -5038.2197     -4702.53   -5038.2197            0    9291.0757    17.854909    22.941288    19.004223    7784.4074    10589.455    7146.8542    10136.917    1498.4501   -676.96839   -860.49401   -3647.7366 
17590000    170.28051    -5023.607    -4683.025    -5023.607            0    7155.9054    17.979913     22.88216    19.115101    7864.3201    6512.9805    7043.5812    7911.1545    13.169219   -41.266404   -828.63345   -3862.2924 
17591000    173.68368   -5035.1544   -4687.7656   -5035.1544            0    7358.7954    18.040142     22.65517     19.22471    7857.1868    7424.2241    6685.2387    7966.9235   -1596.9914   -929.91084      -1101.6   -3844.5285 
17592000     172.0617   -5023.1673   -4679.0226   -5023.1673            0    8393.5315    17.991054     22.58918    19.270221    7831.4783    8536.1113    7801.9242    8842.5591   -1317.9167    313.00151   -344.25251   -3720.3631 
17593000    177.29546   -5013.2244   -4658.6116   -5013.2244            0    8610.6051    17.797276    23.071616    19.005778    7803.9992    8583.2709    8376.8901    8871.6543   -609.07156   -88.482551   -1511.4687     -3678.61 
17594000    177.44019   -5031.7883    -4676.886   -5031.7883            0    6662.1704    17.892644    22.728113    19.294628    7846.4698    6832.6733     6825.979     6327.859    1042.6201   -144.99312    1038.5068   -3914.5157 
17595000    167.85485   -5039.9827   -4704.2522   -5039.9827            0    7778.7461    17.845957    22.649941    19.374135    7831.2167    7593.3313    8266.8962    7476.0109    1179.9782    98.197832    1447.9452   -3815.8396 
17596000    175.96047   -5017.0254   -4665.0828   -5017.0254            0    7463.1652    17.799441    22.837953    19.308441    7848.9355    10197.053    6517.5329    5674.9092    628.19292   -576.99572   -164.13734   -3810.7841 
17597000    169.73947   -5017.5274   -4678.0275   -5017.5274            0    8080.3767    17.773695    22.974985    19.175582     7830.356    9695.7733    5686.9806    8858.3761     989.6927   -893.50265    931.81181    -3755.267 
17598000    175.85499   -5029.6948   -4677.9631   -5029.6948            0    7603.3607    18.011455    22.680694    19.254124    7865.5465    7177.6935       6656.7    8975.6885   -422.05967   -331.85249    -1308.155   -3805.7745 
17599000    169.00562   -5019.4408   -4681.4087   -5019.4408            0    7699.3251    18.080591    22.493154    19.261412    7833.4144    7059.8117    8355.8109    7682.3527    404.36467    303.77438   -634.87717   -3801.8199 
17600000    172.19153   -5029.6361   -4685.2318   -5029.6361            0    6092.3914    17.925221    22.894265     19.21652    7886.1671    6204.2808     5646.492    6426.4016   -311.86354    -89.35434   -1167.1814   -3984.5357 
17601000    163.96874   -5041.9282   -4713.9704   -5041.9282            0      5487.15    17.856186    22.913798    19.261403    7880.8614    6429.9313     5728.901    4302.6176    346.97573    523.19817    203.01648   -4083.3088 
17602000    165.74994   -5008.2861   -4676.7658   -5008.2861            0    7087.8442    17.899926    22.760077    19.350701     7883.547    8190.6424    7110.8496    5962.0405    1513.3075   -158.58837    2020.2305   -3861.8519 
17603000    178.39958   -5019.4476   -4662.6264   -5019.4476            0    8578.4039    17.764715    22.849172    19.279224    7825.6113    10149.312    8077.7099    7508.1901    317.62847    177.57541    428.86526    -3683.586 
17604000      182.013   -5031.2618   -4667.2133   -5031.2618            0    8069.1237    17.856223    22.872145    19.195068    7839.4603    9102.4511    7235.7997    7869.1203   -751.81068    466.75777    541.01614   -3744.6665 
17605000    175.49277   -4994.1745   -4643.1673   -4994.1745            0    8375.8602    17.895751    22.760994    19.262304    7846.0195    8679.8212    8476.9804    7970.7789   -238.53083    1117.9525    -2040.177   -3684.7499 
17606000    161.34652   -5018.8644   -4696.1514   -5018.8644            0    8261.2499    18.033411    22.653439    19.177321    7834.2959    5912.4789    8917.1334    9954.1374   -779.99826   -79.285601   -1176.1196   -3752.2609 
17607000    179.84816   -5029.5493   -4669.8307   -5029.5493            0    6100.7916    17.998741    22.812426    19.135967    7857.1314    4472.1926     5752.015     8078.167    252.71327   -468.75406    424.89335    -3970.752 
17608000    172.29253   -5008.6184    -4664.012   -5008.6184            0    7102.8789    17.925282    22.836365    19.180903    7851.6695    6946.6631    7311.5161    7050.4574    528.34783   -109.52688    1358.7504   -3850.6717 
17609000    164.06601   -5017.8836   -4689.7313   -5017.8836            0    6174.7749    17.894221    22.899342    19.245672    7886.2199     8468.531    4856.8328    5198.9609    1135.5043    -1680.123    233.70212   -3979.5555 
17610000    172.96727   -5005.2509    -4659.295   -5005.2509            0    7002.2392    18.084271    22.660279    19.234531    7882.2074    4218.9959    8639.8914    8147.8303    204.44805   -451.34666   -2157.9175   -3854.3602 
17611000    182.23274   -5004.2767   -4639.7887   -5004.2767            0    10358.273    17.849355    22.739929    19.169582    7780.8006    10461.474    10750.975    9862.3678    872.01967   -8.9348083   -533.74929   -3464.3838 
17612000    172.32116   -5014.6773   -4670.0137   -5014.6773            0    5694.2029    17.793938     22.91892    19.277301    7861.6275    5072.5994    6327.1896    5682.8195    871.28994    2.9190287   -265.46644   -4017.1519 
17613000    170.30476   -5027.3612   -4686.7307   -5027.3612            0    7893.3024    17.747592    22.883369    19.261358    7822.5132    9720.3055    7247.8309    6711.7708    1292.8098   -471.36832    156.50233   -3786.2365 
17614000     184.2179   -5031.0686   -4662.6101   -5031.0686            0    8494.0246    17.855539    22.620254     19.36797     7822.662    9404.3197    9138.4074    6939.3466    978.87041    528.33749    984.78713    -3693.565 
17615000    168.88791   -5013.0194   -4675.2227   -5013.0194            0    8643.6006    17.921369    22.618265    19.318583    7830.7933    9610.1384    8743.0951    7577.5682    503.04582   -112.02046   -552.38893   -3688.0882 
17616000     165.1964    -5028.054   -4697.6408    -5028.054            0    7625.4903    17.893388    22.865338    19.197899    7854.5969    7334.0426    7667.5965    7874.8317   -1014.5694     15.85587   -496.40971   -3824.1314 
17617000    171.79438   -5045.3713   -4701.7613   -5045.3713            0    5669.8511    17.859736     23.01882     19.13028    7864.6503    5617.1472    5658.3747    5734.0313   -1015.3315    367.02413   -540.56931   -4051.4416 
17618000    168.58667   -5034.2664   -4697.0722   -5034.2664            0     6821.691    18.045738    22.648848    19.260446    7872.0366     5124.601     7866.376    7474.0959    1096.3243    962.27572    1271.2011   -3913.9041 
17619000    174.33804   -5040.2736    -4691.576   -5040.2736            0     7790.354    18.001529    22.625886    19.219822    7828.2438    8061.6682    7738.8639    7570.5299    273.04879   -423.43704    739.21264   -3802.1754 
17620000    167.55065   -5011.1562   -4676.0342   -5011.1562            0    8550.9877     17.88929    22.834476    19.113902    7807.8869    8996.4319    8935.4261    7721.1051    877.43545    215.83998   -719.62687    -3702.333 
17621000    168.71505   -5029.8513   -4692.4004   -5029.8513            0    7150.7147     18.00008    22.657806    19.316511    7878.0906    7329.5518     6347.204    7775.3882    646.11801   -167.91735   -617.52253   -3870.8271 
17622000    174.68362    -5007.606   -4658.2172    -5007.606            0    6843.6525    18.033197    22.521414    19.347514    7857.6659    7484.0472     8083.942    4962.9682   -945.41296    1221.1424    113.43187    -3873.962 
17623000    169.02877   -5016.2063   -4678.1279   -5016.2063            0    6924.9684    17.905494    22.880794    19.200583    7866.3239    6280.4369     6995.509    7498.9593    1324.4099    362.99014   -1987.5272   -3883.6798 
17624000     169.8768   -5012.3634   -4672.5888   -5012.3634            0    6027.2336    17.889875    22.865873    19.272751    7883.8582    7088.9814    4980.0182    6012.7011    722.04397   -852.22772    133.42566   -3979.5896 
17625000    177.43823   -5011.4995   -4656.6011   -5011.4995            0    8177.0572    17.946187    22.752963    19.175916    7830.0814    7793.4576    8540.0772    8197.6367   -1153.3943    1307.7901    1197.9734   -3722.8326 
17626000    170.00738   -5030.8759   -4690.8401   -5030.8759            0    6190.5146    17.975081    22.707698    19.319581    7885.7257    6651.5311    6993.5702    4926.4424    117.88499    332.46077    1255.0148   -3978.8986 
17627000    171.77357   -5033.1473   -4689.5789   -5033.1473            0    7357.6577    18.044255    22.618069    19.214682    7842.0153    7255.7389    7849.6357    6967.5984    1937.2711    623.08411    544.83672   -3848.1002 
17628000    164.46059   -5020.6149   -4691.6734   -5020.6149            0     7128.698    17.797395    22.945123    19.245841    7859.2978    7409.8339    7593.8221     6382.438    259.53032    616.36411   -1243.9761   -3874.5835 
17629000    179.77792   -5003.7258   -4644.1477   -5003.7258            0    7346.9511    17.875119    22.783224    19.265694    7846.0091    7343.2597    7650.0659    7047.5276   -1166.2967    828.13388    59.281018   -3803.4656 
17630000    161.45714   -5021.9785   -4699.0442   -5021.9785            0     8801.308    17.936226      22.4462    19.424735    7820.4008    8713.8436    10445.785    7244.2951     496.3236    1356.3478    653.81787   -3695.2329 
17631000    171.53159   -5041.1155   -4698.0311   -5041.1155            0    8880.4758    17.835805    22.666022    19.266561    7788.8301    9009.4332     9359.125    8272.8692    1189.3996    38.293791    393.57068   -3689.2792 
17632000    175.55723   -5012.5173   -4661.3812   -5012.5173            0    6830.5309     17.79698    22.963584    19.246371     7865.654    7253.0872    6672.4732    6566.0324   -792.26959    558.70102    409.24073   -3877.8339 
17633000    176.83182   -5014.6059   -4660.9204   -5014.6059            0    7343.5023    17.893855    22.689899    19.346821    7854.9986    7730.8931    7594.6119    6705.0018    644.26462    -92.63977    819.39549   -3819.6701 
17634000    166.46073   -5025.1616   -4692.2196   -5025.1616            0    7662.0154    17.872455    22.599556    19.435479    7850.1753    9731.0143    7913.9902    5341.0417     79.07714   -295.16186    560.50904   -3815.0203 
17635000    171.26687   -5024.9557   -4682.4008   -5024.9557            0    8281.1752    17.897564    22.676687    19.275096    7822.9413    8783.1067    7834.1401    8226.2789    1320.1356    130.49518   -385.47436    -3737.605 
17636000    174.91472   -5014.0353   -4664.1843   -5014.0353            0    7308.8407    18.012322     22.81641    19.127485     7860.947    5124.0433    8308.1779    8494.3009    166.32733   -82.125719   -181.93464   -3826.2707 
17637000    170.70398   -5028.8639   -4687.4348   -5028.8639            0    6772.2255    17.994864    22.748913    19.213101    7865.1446    7956.9842     5907.325    6452.3673    1111.9362   -691.12719    2162.6025   -3910.6262 
17638000    176.15487   -5037.7201   -4685.3886   -5037.7201            0    6291.2262     17.97405    22.669072    19.369049    7892.0163    5800.3378    6106.2456    6967.0952    1400.9021    718.96329    455.98576   -3961.2876 
17639000    169.90463   -5042.7558   -4702.9255   -5042.7558            0    7366.1096    17.804124    22.959073    19.160681    7832.2384    6337.2001    8113.4305    7647.6982   -651.42562    577.99894   -2347.4851   -3861.5305 
17640000    179.09102    -5023.093   -4664.8888    -5023.093            0    8107.9305    17.840382    22.859192    19.181846    7822.6772    7108.7324    9270.9074    7944.1519   -979.07629    585.60725   -92.851787   -3739.8897 
17641000    172.71207   -5034.9541   -4689.5086   -5034.9541            0     5234.465    18.006289    22.613476    19.393802    7896.8608    5525.0157    6454.5839    3723.7953    1154.6535   -279.67991    497.93652   -4086.6677 
17642000    174.79838   -5033.2243   -4683.6059   -5033.2243            0    7528.2365    17.949483    22.733287    19.235247    7848.9569    7257.4435    7402.2832    7924.9829    256.63379    650.25605    438.80485   -3821.8563 
17643000    173.73315   -5030.3754   -4682.8877   -5030.3754            0    7969.4078    17.807969    23.042864    19.096025    7835.9888    8495.2275    6656.3845    8756.6115    35.104917    76.022677   -317.88024   -3772.1449 
17644000    168.41025    -5015.393   -4678.5517    -5015.393            0    6985.2918    17.857976    22.806893    19.352493    7881.9794     8657.377    6095.5281    6202.9704   -238.14217    793.90817    1740.5966   -3875.5884 
17645000    171.63207   -5023.6999   -4680.4146   -5023.6999            0    7951.1939    17.937156    22.517204    19.383314    7828.8162    8298.8498    8012.4048    7542.3271   -876.18677   -261.12115    183.97521    -3772.585 
17646000    179.42779   -5048.9522   -4690.0744   -5048.9522            0    6572.1318    17.901293    22.810906    19.294713    7878.8941    7145.7127    6389.2972    6181.3855    946.32267    436.59589    1204.7417   -3934.8998 
17647000    176.60766     -5054.14   -4700.9029     -5054.14            0    7150.8324     17.74296    22.950783     19.22892     7830.301     7741.774    7219.8933      6490.83    1522.3618    726.63065    648.96859   -3884.2999 
17648000    178.83137   -5034.1612   -4676.4764   -5034.1612            0    9304.8805    17.784341    22.856158    19.114585    7769.7291     10656.94    9693.3961    7564.3051   -527.13389     1090.862    1587.3565   -3622.1075 
17649000    185.70923   -5028.4614     -4657.02   -5028.4614            0    7090.1451    17.903212    22.899414    19.157127    7853.9063    8117.5952    6890.1817    6262.6585    -156.7857    858.00279   -924.49372   -3844.9065 
17650000    172.98035   -5037.0488   -4691.0668   -5037.0488            0    6579.2034    18.005897    22.641987    19.281031    7860.6695     5920.995    7531.9262     6284.689    855.39877   -1144.0897     421.1647   -3936.8282 
17651000    180.99198    -5006.321   -4644.3147    -5006.321            0    7531.3787    17.860708    22.862874    19.238049    7855.8018    8861.9975    7078.9275     6653.211    1240.5655    -1414.418   -421.84842   -3781.4536 
17652000    168.01115   -4999.7998   -4663.7567   -4999.7998            0    9863.9341    17.853828    22.827055    19.126607    7795.0547    8557.5281    10262.588    10771.686     367.5467    620.10578   -488.00514   -3542.3963 
17653000    166.01964   -5006.3844   -4674.3246   -5006.3844            0     5952.873    17.997181     22.88686    19.226676     7919.448    7135.3702    4892.4449     5830.804   -688.22686   -165.48772    176.43548   -3986.7855 
17654000    170.09684   -5020.3552   -4680.1405   -5020.3552            0    7727.9283    17.801983    22.859981    19.254424    7835.6458    9450.2591    6799.7362    6933.7895      472.881   -519.42879    29.460397   -3797.0326 
17655000    170.53232   -5022.2343   -4681.1486   -5022.2343            0    7316.0348     17.91687    22.728644    19.206947    7821.5714    7265.1586    7003.4465    7679.4993    675.79469    -333.5814    791.30946   -3846.6115 
17656000    174.71236   -5048.7321   -4699.2858   -5048.7321            0    6627.9114    18.030109    22.496166     19.35412    7850.1918    6456.2894    6808.9261    6618.5185   -622.00453   -442.74672    2970.0782   -3940.4761 
17657000    175.49875   -5026.3232    -4675.304   -5026.3232            0    10142.688    17.743219    22.898233    19.159247    7784.1792    10023.566    9068.1972    11336.301    1306.3311   -140.40988    3053.0084   -3523.8628 
17658000     167.8763   -5036.7051   -4700.9318   -5036.7051            0    6672.4053    17.732548    22.987355     19.26215    7851.7218    9217.3398    5516.3368    5283.5392     329.4232    194.87781    957.57161   -3936.8793 
17659000    171.97833   -5034.6437   -4690.6658   -5034.6437            0    7816.5215    17.905525    22.662901    19.324571    7841.7401    7637.9794     7735.376    8076.2091   -1680.7215   -44.556971    1182.2438   -3796.7392 
17660000    178.84527     -5022.75   -4665.0374     -5022.75            0    9520.7083    17.758674    22.698682    19.300654    7780.0645    10852.725     9752.196    7957.2039   -206.95806   -505.89782   -830.73197   -3584.7773 
17661000    166.48836   -5027.3622   -4694.3649   -5027.3622            0    8043.5573    17.927883    22.769673    19.174277    7827.1706    7612.6372    8076.0253    8442.0096    811.55814   -603.45987   -534.27659   -3776.1828 
17662000    173.78653   -5026.6117   -4679.0172   -5026.6117            0    6770.9292    17.990252    22.743744    19.203623    7857.4635    6245.0211    8021.8771    6045.8894   -605.64381    583.39781   -1785.0466   -3903.1158 
17663000    175.67691   -5033.6816    -4682.306   -5033.6816            0    7707.0779    17.940335    22.725784    19.190982    7824.3205    6344.7002    7622.9806    9153.5529    80.587286   -17.492014   -448.19022   -3802.8538 
17664000    176.77318   -5044.3487   -4690.7805   -5044.3487            0    6863.8679    17.964494    22.623135    19.305357    7845.9513    8237.1936    5845.1841    6509.2258   -340.27442   -963.27819   -1042.1481   -3905.3813 
17665000    171.48427   -5030.3441   -4687.3544   -5030.3441            0    6613.7595    17.954436    22.855535    19.141228    7854.7608    6320.9056    6071.4348    7448.9381    1348.1738    376.78947   -1157.7832   -3929.7242 
17666000    175.83123   -5000.3277   -4648.6435   -5000.3277            0    8849.4058    17.926146    22.926998     19.05267    7830.5086     8963.484    7573.6939    10011.039   -282.33056    329.84447    344.97501   -3638.0419 
17667000    162.47817   -5013.2103   -4688.2339   -5013.2103            0    5854.3251    18.011523    22.786223    19.189221    7875.5362    5040.4558    5915.5483    6606.9711    22.120238   -236.03602    1798.7413   -4015.8259 
17668000    171.30142   -5011.1379   -4668.5138   -5011.1379            0    6722.9893    17.996306    22.768805    19.222598    7876.5437    5621.1918    7378.5178    7169.2584     1712.045    1355.9088    1507.0707   -3896.2352 
17669000    189.31886   -5031.1666   -4652.5055   -5031.1666            0    6827.2226    17.846315    22.848494    19.311169    7874.3498    7192.3604    6714.0467    6575.2608    350.11814   -154.96685   -1413.2808   -3868.4719 
17670000    175.79746   -5023.0252   -4671.4086   -5023.0252            0    9515.5164    17.687273     22.80248    19.330912    7796.4214    11052.136    8847.0858    8647.3277    -967.6458    597.95805    461.55179   -3589.4677 
17671000    182.08159   -5031.9171   -4667.7314   -5031.9171            0    8405.8758    17.998992    22.506529    19.332671    7831.5649    9140.1414    8048.7735    8028.7126   -1166.3472   -669.25058   -459.81931   -3707.6515 
17672000    171.94608   -5039.6323   -4695.7189   -5039.6323            0    6204.2933    18.065401     22.66997    19.205525    7865.4713    5281.3974    6634.3556    6697.1269   -579.44512    320.05025   -153.50848   -3984.0255 
17673000    171.19581   -5040.0295   -4697.6167   -5040.0295            0    7758.9639    17.907617    22.998848    18.974324    7814.6619    7065.9708    6758.2792    9452.6416   -543.37881   -309.79358   -93.556102   -3813.3367 
17674000    178.04047   -5044.4415   -4688.3386   -5044.4415            0    5968.4371    18.089877    22.566595    19.282547    7871.6548    5847.1615    6530.7915    5527.3584     427.6382   -478.71732     1451.175    -4003.162 
17675000    173.29614   -5035.9417    -4689.328   -5035.9417            0    6892.2427    18.020243    22.625845    19.280714     7861.195    6327.3228    6675.2994    7674.1059    1198.7849   -266.11311   -107.66653   -3899.1499 
17676000    170.88051   -5022.3162   -4680.5341   -5022.3162            0    8442.9514    17.736746    22.977178    19.139688    7800.1959    8902.3243    7844.2201    8582.3098   -1907.5359    336.24011   -1322.6121   -3720.0821 
17677000    179.54872   -5018.9235   -4659.8038   -5018.9235            0    8063.0551    17.839069    22.801171    19.272238     7839.015    6427.1895    8451.4198    9310.5559    15.819715   -244.66922   -1195.5308   -3738.0032 
17678000    176.60239   -5019.7221   -4666.4955   -5019.7221            0    7640.7063    17.923732    22.618999    19.363105    7850.1296    7539.7854    7599.2837    7783.0498    173.51469   -881.43579    -1850.267   -3791.7409 
17679000    177.12132   -5015.1864   -4660.9219   -5015.1864            0    8165.6661    17.756408    22.981417    19.181359    7827.2876    8808.5689    7084.7853     8603.644    938.42789   -421.66487    977.70321   -3728.7869 
17680000     174.8565   -5022.4827   -4672.7481   -5022.4827            0    8098.2378    17.825869    22.915201    19.208171    7846.2185    8953.5916    7910.9432    7430.1785    193.12929   -229.08984    1627.8149   -3746.0745 
17681000    172.59642   -5034.7161   -4689.5019   -5034.7161            0    7311.5068    17.900141     22.63279    19.395801    7857.8232    9989.3582    6529.3923    5415.7699    1276.5258   -482.96885    1623.7551   -3851.6157 
17682000     164.3306   -5001.0607   -4672.3792   -5001.0607            0    7292.8011    17.907716    22.812124     19.24641    7862.4093     5411.173    7883.5091    8583.7213   -1364.7639   -871.89931    75.535177   -3836.1488 
17683000    168.35656   -5032.6703   -4695.9364   -5032.6703            0    6978.9553    17.867777    22.960576    19.154825    7858.3521     7456.505    5704.3001    7776.0609   -497.52638   -1207.2868   -143.54356   -3896.1062 
17684000    172.74321   -5042.3845   -4696.8767   -5042.3845            0    7120.3014    17.947868    22.749027    19.230876    7851.8998    6853.3508    7979.6328    6527.9206    450.83902    4.6705741    241.02522   -3881.5174 
17685000    169.49267   -5006.0186   -4667.0123   -5006.0186            0     5293.329    17.898358    22.773041    19.390639    7903.6253    4269.9007    6814.8232    4795.2632    202.66951    700.58433    -10.43339     -4056.87 
17686000    171.99643   -5016.0386   -4672.0245   -5016.0386            0    6836.2298    17.828753    22.882032    19.320665    7882.0214    7518.3277    7001.4085    5988.9533   -309.68937    146.93051   -1358.3011   -3886.1917 
17687000    168.92522   -5026.1842   -4688.3129   -5026.1842            0    5747.2477    17.928308     22.88513     19.17065    7865.5578    4988.9664    5814.1315    6438.6451    557.80366   -523.29967    150.44698   -4029.0398 
17688000    178.74861   -5021.3123    -4663.793   -5021.3123            0     7956.512    17.969711    22.711266    19.192421    7832.7127    7835.4524    7818.5025    8215.5812    -1248.538    505.83792   -2049.5867   -3754.9041 
17689000    173.15406   -5049.5944   -4703.2649   -5049.5944            0    6987.0341    17.873979    22.874703    19.188864    7845.5966    7181.0382    6436.6354    7343.4287   -115.46169    641.56403    248.63236   -3903.8086 
17690000    177.62397   -5003.4096   -4648.1397   -5003.4096            0    7467.0154    17.782497    22.730368     19.41461    7847.4376    7541.2942    8155.7167    6704.0351    215.36139    37.814256    2082.4804   -3793.5635 
17691000    177.15564   -5025.2756   -4670.9424   -5025.2756            0    7537.9102    17.785186    22.818612    19.365611    7859.2089    9588.7163    6144.8716    6880.1428    1398.8079   -1085.7627    704.63153   -3806.9584 
17692000    180.87972    -5026.863   -4665.0812    -5026.863            0    8231.9716    17.838152    22.624521    19.340737    7805.5276    9568.5676    8251.6699    6875.6773   -167.49373    437.71048   -1053.3102   -3727.9897 
17693000    174.07588   -5031.0904   -4682.9171   -5031.0904            0    7158.3432    17.760337    22.906846    19.309713    7855.8345    7612.3225    7027.9284    6834.7788   -320.57674   -40.990314   -800.24523   -3862.7908 
17694000    170.91457   -5017.8391   -4675.9888   -5017.8391            0    6191.2111    17.893193    22.913159    19.249918     7892.266    6185.0519    6294.5351    6094.0462   -211.18815    371.56711   -392.81068   -3963.3767 
17695000     173.5853   -5019.5616   -4672.3695   -5019.5616            0    10108.466    17.941863    22.696291    19.135955    7792.4241    8752.4744     10633.22    10939.704    738.72086    111.07303    534.61537   -3523.5978 
17696000    171.45329    -5031.386   -4688.4583    -5031.386            0    6510.4242    18.011396      22.6837     19.29882    7884.8245    6664.0338    6107.4222    6759.8165   -415.95276   -184.97121    1509.1977   -3939.8111 
17697000    172.81351   -5024.6159   -4678.9675   -5024.6159            0    7614.3207    17.995362    22.694935    19.227308    7852.5012    7385.8288    7375.8533      8081.28   -196.77264   -490.65498   -1997.1217   -3806.9704 
17698000    172.62636   -5023.8567   -4678.5827   -5023.8567            0    7887.5043    17.808583    22.847172    19.261097    7836.8734    8412.1625    8200.4268    7049.9236     1553.305    511.21977    906.78554    -3777.098 
17699000    175.27761   -5011.4573   -4660.8804   -5011.4573            0    8199.9677    17.907266    22.773519    19.208301    7833.3648    7151.5716     8679.974    8768.3576    621.05713    860.52082    1382.9459   -3724.1031 
17700000    177.33851   -5042.2823   -4687.5834   -5042.2823            0    5936.6771    17.900277    22.875103    19.273472    7891.9218     5152.001    6712.7076    5945.3228    103.75508     26.82243    140.57825    -4004.298 
17701000    179.50319   -5029.6614   -4670.6329   -5029.6614            0     9508.636     17.82589    22.755651    19.192272    7785.1478    10776.332    9736.2392    8013.3364   -199.39188   -2.5282318    788.60558   -3591.0376 
17702000    168.95498    -5019.123   -4681.1922    -5019.123            0    6337.0144    18.024542    22.818359    19.118435    7863.2303    5201.4102    6641.8372    7167.7959    -193.1251   -590.11541   -127.87412   -3954.4814 
17703000    165.12402    -5022.739   -4692.4705    -5022.739            0    7924.4599    17.895039    22.745359    19.187483    7809.8636    7679.1505    8509.9893      7584.24    949.35801   -252.71225   -234.86534   -3789.8837 
17704000     162.3867   -5028.2482   -4703.4548   -5028.2482            0    6372.3321    17.818677    22.790277    19.366331    7864.5233    8299.1972    5625.9571     5191.842    -357.0776   -981.65752     29.03393   -3972.5738 
17705000    174.15762   -5039.0599   -4690.7231   -5039.0599            0    8388.5931    17.765768    22.783682      19.2395    7787.5651     8595.439    8266.9691    8303.3713    633.98528   -892.91911    690.73933        -3738 
17706000    168.11625   -5023.4274   -4687.1741   -5023.4274            0    6764.6733    17.861332    22.805906    19.299901    7861.6962    6523.5007    6368.7374    7401.7818   -869.13369   -1610.1118   -706.67617    -3911.572 
17707000    174.79706   -5026.4913   -4676.8756   -5026.4913            0    7344.6712    17.847599    22.685786    19.336884    7829.2491    6620.0862    7681.1704     7732.757    231.39491    191.10751    1801.2377   -3838.2495 
17708000    174.97331   -5006.6968   -4656.7285   -5006.6968            0    8323.3103    17.840558    22.859586    19.126259    7800.2194    8602.1797    7724.3107    8643.4405     45.63579    111.87473    550.51376   -3709.8838 
17709000    175.48286   -5033.1661   -4682.1787   -5033.1661            0    6134.2387    17.962651    22.964428    19.113725    7884.4499    5901.7035    5780.3019    6720.7107   -865.70246   -382.63214   -1081.8766   -3976.8234 
17710000    181.21423   -5028.4026   -4665.9518   -5028.4026            0    7115.2138    17.895165    22.915714    19.093424    7829.8405    8157.0804    6081.2975    7107.2636   -100.37691   -1006.8124   -1573.9372   -3853.4642 
17711000    174.39759   -5024.6383   -4675.8216   -5024.6383            0    7426.4374    18.015697    22.698792    19.210914    7856.0068    6576.4462    7416.6023    8286.2638   -698.11442   -399.47833   -1490.1185   -3824.9613 
17712000    171.33502    -5015.243   -4672.5518    -5015.243            0    8115.4655    17.840368    22.825028    19.212716    7823.5503    9516.5528    8146.4248    6683.4189    -1189.391   -568.80209   -2194.5704   -3746.5897 
17713000    171.53684   -5026.4655   -4683.3706   -5026.4655            0     6667.859    17.816787    23.083401    19.140115    7871.7942    7263.3561    4944.4851    7795.7357    4.0266429   -1285.2347     532.9354   -3917.8867 
17714000    171.70661    -5023.342   -4679.9076    -5023.342            0     8355.931     17.96031    22.742471    19.186526    7836.9634    9128.3519    7733.8021    8205.6391    68.611417   -309.92775    323.38779   -3724.8742 
17715000    164.81412   -5043.1048   -4713.4562   -5043.1048            0    8043.4044    17.924636     22.71832    19.247159    7837.7822    10000.497    8170.0842    5959.6316   -211.54722    450.85122   -272.47334   -3794.0468 
17716000    175.78542   -5033.5345    -4681.942   -5033.5345            0    7616.6882    17.883652    22.907394    19.139657    7840.9021    6952.3123    7405.4197    8492.3325   -621.94913    28.375739   -1491.9447   -3810.9621 
17717000    169.63509   -5045.8493   -4706.5582   -5045.8493            0    6928.7374    17.928816    22.843526     19.23034    7875.9277    8125.7024    5656.3961    7004.1136   -749.97737   -531.89017    598.00117   -3910.7073 
17718000    179.60604   -5020.7303    -4661.496   -5020.7303            0    8948.0335    17.880349     22.65552    19.292879    7815.3253    9409.1039    8752.4681    8682.5286   -1158.3467   -1062.9947   -1137.8985   -3641.6125 
17719000    167.24303   -5015.6422   -4681.1354   -5015.6422            0    6531.9385    17.914477    22.943922    19.125115     7860.965    6332.1817    5273.8192    7989.8147    493.79256   -750.92843   -981.63278   -3932.2871 
17720000    168.86837   -5034.8109   -4697.0533   -5034.8109            0    7213.1311    17.987438     22.76528    19.133914    7835.1285    6241.6633    7966.0489    7431.6809    -166.8599     679.9151    -801.1805   -3872.8282 
17721000    164.77672   -5014.8742   -4685.3004   -5014.8742            0    7468.9538    18.006974    22.748577    19.177061    7855.5575    7028.7608    6946.4062    8431.6946   -1263.0052    451.54219    37.337218   -3829.6178 
17722000    161.94689   -5024.6977   -4700.7839   -5024.6977            0    7761.2867    17.813134    22.822426    19.262166    7830.8206    10168.006    6227.5706    6888.2837   -672.60759   -90.417758    618.89218   -3814.4102 
17723000    160.48335   -5020.5603   -4699.5738   -5020.5603            0    6295.1079    17.877582    22.864249     19.23818    7863.7502    6705.3117    6444.8392    5735.1727    92.549978   -264.16501   -1139.5397   -3977.6211 
17724000    174.12596   -5023.0212   -4674.7478   -5023.0212            0    8846.5211    17.879484    22.744613    19.170611    7795.9582    8389.8789    9345.6478    8804.0365    239.05311    1129.1428   -487.21939   -3668.9333 
17725000    173.00451    -5042.427   -4696.3966    -5042.427            0    5791.4969    18.028326    22.751738    19.165214    7861.1064    5394.9128    5906.7319    6072.8459    222.99021   -1052.2434   -760.24474   -4032.4236 
17726000    164.69292   -5011.2523   -4681.8462   -5011.2523            0    8406.5135    17.996709    22.667131    19.225749    7842.8325     7757.728    8103.5097     9358.303    281.26332    98.978317    231.78683   -3720.3119 
17727000    179.99175    -5004.224   -4644.2182    -5004.224            0     7493.812    17.916084    22.839895    19.234541    7870.8026    5947.2617    8092.3469    8441.8274    478.14767    768.27428    462.55831   -3784.0217 
17728000    187.77574    -5040.019   -4664.4443    -5040.019            0    7711.2156    17.909258    22.798391    19.296429    7878.7754    8439.0719    7698.5566    6996.0183   -564.71205    183.62434    1913.4093   -3778.3959 
17729000    177.36055   -5023.2061   -4668.4631   -5023.2061            0     7219.825    17.923571    22.755215    19.263253    7856.6086    8328.1168    6906.0316    6425.3265   -554.26114    557.03751   -1566.3293   -3841.2114 
17730000    184.37697    -5021.305   -4652.5283    -5021.305            0    7137.7994     17.91032     22.82572    19.203041    7850.5096    7082.3901    6817.3317    7513.6766    1063.9259   -460.72662   -1556.2983     -3835.31 
17731000    174.42826    -5011.579    -4662.701    -5011.579            0    7945.0908    18.019482    22.765156    19.113158    7840.5296    6247.9256    7117.3298    10470.017   -238.29839   -72.839694    437.34018    -3754.211 
17732000    170.55483   -5016.9418   -4675.8111   -5016.9418            0     6913.983    17.967231    22.878589    19.135837    7866.0706    5709.5495    7690.6879    7341.7117   -455.52066    1371.6534   -96.039799   -3882.6489 
17733000    168.51856     -5029.59   -4692.5321     -5029.59            0    7313.5666    17.812622    22.737345     19.33161    7829.5289    7610.0735    7407.5602     6923.066   -2278.2087    144.86445   -1541.1923   -3857.4278 
17734000    181.14613   -5032.0249   -4669.7103   -5032.0249            0    5935.9376    17.901578    22.884117    19.264208    7891.8105    5003.6026    5021.5113     7782.699    732.48486      354.505    79.267878   -3986.5197 
17735000    165.09717   -5026.2909   -4696.0762   -5026.2909            0    6901.9234    17.954514    22.766392    19.196164    7846.6146    6291.9855    6936.7014    7477.0833   -853.96445   -921.60354    153.89563   -3906.2558 
17736000    175.67205   -5035.4406   -4684.0748   -5035.4406            0    7734.7691    17.875166    22.682008    19.335474    7839.4648    8297.0281    7547.4591    7359.8202    177.20093    117.39119    1108.3941   -3799.7544 
17737000      176.257   -5038.2029   -4685.6672   -5038.2029            0     6943.769     17.82125    22.872006    19.278714    7858.1528    5849.2434    7576.5189    7405.5448   -544.22632    677.12932    1579.1455   -3889.8897 
17738000    175.81012   -5017.6216   -4665.9796   -5017.6216            0    7223.4012    17.784276    22.810389    19.404831    7871.8851    7912.9234    7033.9635    6723.3167   -227.46577     471.4719   -1296.6364   -3836.7088 
17739000    173.11787   -5025.6407   -4679.3836   -5025.6407            0    7199.8184    17.917247    22.694369    19.349793    7868.0249    9064.1196    7033.0774    5502.2582    774.36238    407.42941    1856.0927   -3853.2255 
17740000    177.62385   -5023.5359   -4668.2663   -5023.5359            0    6956.0036    17.898109     22.77304    19.302473     7867.579    7626.4572    6173.4353    7068.1184    180.62536   -89.409058    327.91891   -3870.1304 
17741000     175.8086   -5039.5666   -4687.9277   -5039.5666            0    7894.9531    17.769954    23.113303    19.010724    7808.1289    7551.7509    7484.2579    8648.8506    748.37086     634.7256   -1076.2425   -3788.9014 
17742000    171.80482   -5025.7184   -4682.0876   -5025.7184            0    8225.7776    17.979591    22.639721    19.221203    7824.0466    7514.4588    8496.5156    8666.3583   -259.82995    232.81151   -1460.6527   -3743.4795 
17743000    177.85975   -5015.1744    -4659.433   -5015.1744            0    7137.7847    18.037894    22.562709    19.311496     7859.465    6219.5045    7462.8573    7730.9925   -108.18924   -890.58231   -563.23166   -3841.2841 
17744000    171.18374    -5009.725   -4667.3364    -5009.725            0    7645.8784    17.932999    22.894375    19.160456    7866.6088    7107.9233    7349.2987    8480.4132   -813.66788     699.2675    142.39021   -3790.1521 
17745000    170.88004   -4995.7856   -4654.0044   -4995.7856            0    6465.1161    17.999441    22.815174    19.161236    7868.7603    6805.0545    6287.3755    6302.9182    320.73171   -309.31095   -1917.8608    -3912.082 
17746000    170.57267   -5027.9452   -4686.7787   -5027.9452            0    7135.5818    17.971432    22.818503    19.171766    7861.9805    6467.9568    6905.7797     8033.009   -611.90999   -315.45469     927.0854   -3868.6206 
17747000    176.27869   -5032.4647   -4679.8855   -5032.4647            0    7563.9303    17.835689    22.859624     19.21124    7832.7518    7022.1209    7376.7891     8292.881   -659.95369   -332.19141    1372.5217   -3815.8377 
17748000    174.08428   -5011.4247   -4663.2346   -5011.4247            0    6771.5722    17.772179    22.946591    19.333819    7884.5423    7996.6557    6882.6083    5435.4525    457.28379    1361.4081    94.228032   -3884.5853 
17749000    168.29238   -5029.1254   -4692.5199   -5029.1254            0    6560.7134    17.822715    22.757602    19.418157    7876.0484    6904.0418    6386.2633    6391.8351   -386.58285   -390.09381   -407.02251   -3938.9295 
17750000    172.90511   -5002.5636    -4656.732   -5002.5636            0    6674.3136    17.915273    22.756589    19.333366    7882.0299    7474.6285    6773.6585    5774.6539   -769.85958     666.3898    449.38565   -3889.5109 
Loop time of 432.084 on 64 procs for 250000 steps with 1008 atoms

Performance: 99.981 ns/day, 0.240 hours/ns, 578.591 timesteps/s
196.4% CPU use with 32 MPI tasks x 2 OpenMP threads

MPI task timing breakdown:
Section |  min time  |  avg time  |  max time  |%varavg| %total
---------------------------------------------------------------
Pair    | 36.078     | 40.081     | 43.096     |  23.8 |  9.28
Bond    | 0.96501    | 1.2124     | 1.3906     |   8.8 |  0.28
Kspace  | 207.59     | 211.83     | 215.48     |  15.5 | 49.02
Neigh   | 1.8722     | 1.9767     | 2.0826     |   3.7 |  0.46
Comm    | 64.03      | 68.119     | 71.095     |  22.9 | 15.77
Output  | 0.49329    | 0.49368    | 0.49533    |   0.0 |  0.11
Modify  | 77.568     | 83.02      | 102.87     |  79.8 | 19.21
Other   |            | 25.35      |            |       |  5.87

Nlocal:        31.5000 ave          36 max          25 min
Histogram: 2 0 0 2 6 6 4 6 4 2
Nghost:        2924.91 ave        2938 max        2906 min
Histogram: 1 0 0 3 5 7 5 7 3 1
Neighs:        10601.5 ave       12082 max        8453 min
Histogram: 2 0 0 2 6 6 4 6 4 2

Total # of neighbors = 339247
Ave neighs/atom = 336.55456
Ave special neighs/atom = 2.0000000
Neighbor list builds = 4795
Dangerous builds = 0

unfix		3
unfix		2
unfix		1

write_data	data.final.${pid}
write_data	data.final.0
System init for write_data ...
PPPM initialization ...
  extracting TIP4P info from pair style
  using 12-bit tables for long-range coulomb (../kspace.cpp:340)
  G vector (1/distance) = 0.37877452
  grid = 24 27 32
  stencil order = 5
  estimated absolute RMS force accuracy = 0.0025238792
  estimated relative force accuracy = 7.6005871e-06
  using double precision FFTW3
  3d grid and FFT values/proc = 5355 672
Last active /omp style is kspace_style pppm/tip4p/omp
WARNING: Not all mixed pair coeffs generated from mixing. Use write_data with 'pair ij' option to store all pair coeffs. (../write_data.cpp:312)

write_restart   restart.lmp.${pid}
write_restart   restart.lmp.0
System init for write_restart ...
PPPM initialization ...
  extracting TIP4P info from pair style
  using 12-bit tables for long-range coulomb (../kspace.cpp:340)
  G vector (1/distance) = 0.37877452
  grid = 24 27 32
  stencil order = 5
  estimated absolute RMS force accuracy = 0.0025238792
  estimated relative force accuracy = 7.6005871e-06
  using double precision FFTW3
  3d grid and FFT values/proc = 5355 672
Last active /omp style is kspace_style pppm/tip4p/omp
Total wall time: 0:07:12
