#include		in.partitions
include		in.temp
variable        temperature equal 241.47
variable	tempDamp equal 100.0
include		in.pressure
variable        pressure equal 7686.6
variable        pressureDamp equal 1000.0 # This is 1 ps
include		in.seed
variable        seed equal 745823

units		real
atom_style	full
read_restart    restart.lmp.${pid}
read_restart    restart.lmp.0
Reading restart file ...
  restart file = 30 Jul 2021, LAMMPS = 30 Jul 2021
  restoring atom style full from restart
  triclinic box = (-3.1864729 -0.20816359 0.016232042) to (14.796472 22.788163 19.213766) with tilt (0.026291773 -6.8944589 -0.048628118)
  2 by 4 by 4 MPI processor grid
  restoring pair style lj/cut/tip4p/long/omp from restart
  restoring bond style harmonic/omp from restart
  restoring angle style harmonic/omp from restart
  1008 atoms
  672 bonds
  336 angles
Finding 1-2 1-3 1-4 neighbors ...
  special bond factors lj:    0        0        0       
  special bond factors coul:  0        0        0       
     2 = max # of 1-2 neighbors
     1 = max # of 1-3 neighbors
     1 = max # of 1-4 neighbors
     2 = max # of special neighbors
  special bonds CPU = 0.002 seconds
  read_restart CPU = 0.009 seconds

include 	in.setup
variable	out_freq equal 1000
variable	out_freq2 equal 10000
variable	out_freq3 equal 1000

timestep	2.0

neigh_modify    delay 7 every 1

include		in.tip4p
# This is TIP4P/Ice

# create groups ###
group ox type 2
336 atoms in group ox
group hy type 1
672 atoms in group hy

# set charges - beside manually ###
set group ox charge -1.1794
Setting atom values ...
  336 settings made for charge
set group hy charge 0.5897
Setting atom values ...
  672 settings made for charge

# ### TIP3P Potential Parameters ###
pair_style lj/cut/tip4p/long/omp 2 1 1 1 0.1577 8.5
pair_coeff 1 1*2 0.000 0.000
pair_coeff 2 2 0.21084 3.1668
bond_style  harmonic
bond_coeff  1 450 0.9572
angle_style harmonic
angle_coeff 1 55 104.52
kspace_style pppm/tip4p/omp 1.0e-5
pair_modify tail yes

thermo          ${out_freq}
thermo          1000
thermo_style    custom step temp pe etotal epair emol press lx ly lz vol pxx pyy pzz pxy pxz pyz enthalpy

restart 	${out_freq3} restart.lmp.${pid} restart2.lmp.${pid}
restart 	1000 restart.lmp.${pid} restart2.lmp.${pid}
restart 	1000 restart.lmp.0 restart2.lmp.${pid}
restart 	1000 restart.lmp.0 restart2.lmp.0


include         in.dump
dump            myDump all atom ${out_freq2} dump.water.${pid}
dump            myDump all atom 10000 dump.water.${pid}
dump            myDump all atom 10000 dump.water.0
dump            myDump2 all dcd ${out_freq2} dump.dcd
dump            myDump2 all dcd 10000 dump.dcd
dump_modify     myDump append yes
dump_modify     myDump2 append yes


variable natoms 	equal  "count(all)"                        # NUMBER ATOMS
variable H      	equal  "enthalpy/v_natoms"                 # ENTHALPY-per-atom
variable Vol      	equal  "vol/v_natoms"                 # volume-per-atom
fix AVG all 		ave/time ${out_freq} 1 ${out_freq} v_Vol v_H file vol_enthalpy.dat
fix AVG all 		ave/time 1000 1 ${out_freq} v_Vol v_H file vol_enthalpy.dat
fix AVG all 		ave/time 1000 1 1000 v_Vol v_H file vol_enthalpy.dat



fix 		1 all shake 1e-6 200 0 b 1 a 1
       0 = # of size 2 clusters
       0 = # of size 3 clusters
       0 = # of size 4 clusters
     336 = # of frozen angles
  find clusters CPU = 0.001 seconds
fix             2 all nph tri ${pressure} ${pressure} ${pressureDamp}
fix             2 all nph tri 7686.6 ${pressure} ${pressureDamp}
fix             2 all nph tri 7686.6 7686.6 ${pressureDamp}
fix             2 all nph tri 7686.6 7686.6 1000
fix             3 all temp/csvr ${temperature} ${temperature} ${tempDamp} ${seed}
fix             3 all temp/csvr 241.47 ${temperature} ${tempDamp} ${seed}
fix             3 all temp/csvr 241.47 241.47 ${tempDamp} ${seed}
fix             3 all temp/csvr 241.47 241.47 100 ${seed}
fix             3 all temp/csvr 241.47 241.47 100 745823


run             250000
PPPM initialization ...
  extracting TIP4P info from pair style
  using 12-bit tables for long-range coulomb (../kspace.cpp:340)
  G vector (1/distance) = 0.38313742
  grid = 24 30 32
  stencil order = 5
  estimated absolute RMS force accuracy = 0.0019779676
  estimated relative force accuracy = 5.9565907e-06
  using double precision FFTW3
  3d grid and FFT values/proc = 5712 768
Last active /omp style is kspace_style pppm/tip4p/omp
Neighbor list info ...
  update every 1 steps, delay 7 steps, check yes
  max neighbors/atom: 2000, page size: 100000
  master list distance cutoff = 10.8154
  ghost atom cutoff = 10.8154
  binsize = 5.4077, bins = 5 5 4
  1 neighbor lists, perpetual/occasional/extra = 1 0 0
  (1) pair lj/cut/tip4p/long/omp, perpetual
      attributes: half, newton on, omp
      pair build: half/bin/newton/tri/omp
      stencil: half/bin/3d/tri
      bin: standard
Per MPI rank memory allocation (min/avg/max) = 10.35 | 10.36 | 10.36 Mbytes
Step Temp PotEng TotEng E_pair E_mol Press Lx Ly Lz Volume Pxx Pyy Pzz Pxy Pxz Pyz Enthalpy 
 4000000    247.76618   -4840.4485   -4344.8856   -4840.4485            0    8720.4734    17.982945    22.996326    19.197534    7938.9801    8959.2589    8773.2245    8428.9369    991.84335    625.91376   -146.02776   -3335.2127 
 4001000    233.37118   -4854.1569   -4387.3857   -4854.1569            0    7290.9432    17.894874    23.121361     19.26186    7969.6686    7565.3071    6851.0079    7456.5146    95.101197    1682.9517     459.4763   -3539.9634 
 4002000    244.14512   -4868.5542   -4380.2338   -4868.5542            0    8110.0225    17.791854    23.272441    19.079549    7900.0756    7702.8926    7450.9642    9176.2107   -646.39816    160.97974    952.85802   -3445.8417 
 4003000    240.87523   -4883.7277   -4401.9474   -4883.7277            0    6009.1415    17.967167    23.030144    19.267377    7972.5797    6480.4337    5970.6622    5576.3286   -864.37706     537.3966   -530.35521   -3703.2532 
 4004000    229.26524   -4887.5087   -4428.9499   -4887.5087            0    6145.6127     18.04416    22.696363    19.465289    7971.7526    7376.8343    6335.5131    4724.4909    839.97431   -584.67018   -972.34875    -3714.462 
 4005000    239.57477   -4870.2912    -4391.112   -4870.2912            0    6470.2414    18.169126     22.64121    19.363355    7965.5227    6919.1488    6425.7838    6065.7915    1249.3216   -197.65782    602.88675   -3639.4707 
 4006000     245.6991   -4849.3329   -4357.9044   -4849.3329            0    7772.8798    18.111977    22.590174     19.39534    7935.6559    7958.3734    8154.8188    7205.4473   -1003.0489    1837.8354   -1466.0682   -3458.3225 
 4007000     233.2325   -4848.4069   -4381.9131   -4848.4069            0    9075.1112    17.878262     22.78243    19.391853    7898.5006    7558.7105    9659.8672    10006.756   -338.49732    663.84158    1150.5539   -3336.5371 
 4008000     247.3569    -4875.978   -4381.2336    -4875.978            0    7450.0474    18.105467    22.771976    19.255009    7938.7874    7349.2758    7429.9683    7570.8982    651.33696   -104.23567   -619.77903   -3518.6741 
 4009000    251.90535   -4859.3496   -4355.5078   -4859.3496            0    7526.3416    17.946979    22.749396    19.432024    7933.7634    9258.6269    6402.7547    6917.6431    2169.9439    107.69823    809.15767   -3484.6664 
 4010000    247.87093   -4870.3202   -4374.5477   -4870.3202            0    7187.5623    18.100403    22.788172     19.35177    7982.1232    6770.1293    7099.0095     7693.548    155.43948    512.91975    1141.3778   -3537.8359 
 4011000    246.28387   -4875.1552    -4382.557   -4875.1552            0    8844.6716    18.016337    22.695562    19.318643    7899.2171     7428.878    10637.195    8467.9425    1033.4699    873.39172   -326.00659   -3363.6333 
 4012000    249.66319   -4836.9185   -4337.5612   -4836.9185            0    8432.9417    17.970028    22.960408    19.264988     7948.718    7926.8647    8318.6775    9053.2828   -303.40773   -49.082232   -1690.0993   -3359.9818 
 4013000    262.85486   -4877.7561   -4352.0139   -4877.7561            0    6475.1355    17.912942      23.1433    19.173701    7948.7376    5851.1764    5531.9301    8042.2999    296.15034    443.36843    176.25496   -3601.3891 
 4014000    249.98276   -4883.3322   -4383.3358   -4883.3322            0    6494.4627    17.776348     23.43507    19.110902    7961.4101    6608.1814     5469.563    7405.6436    1131.4926    684.81331      517.401   -3629.2702 
 4015000    237.70434   -4863.3401    -4387.902   -4863.3401            0    6998.4559    17.829121    23.236817    19.227517     7965.807    6854.3273    6466.1329    7674.9074    520.49169   -1139.3585    127.95211   -3574.8695 
 4016000    242.38993   -4858.8078    -4373.998   -4858.8078            0    8177.9495    17.993395    23.018993    19.270751     7981.749     8551.528    7404.2532    8578.0675   -272.68653   -431.34534    597.34851   -3422.0387 
 4017000    238.23508   -4864.5245   -4388.0249   -4864.5245            0    6970.1728    17.863066    23.089784    19.290154    7956.3075    8823.5924    5827.2753    6259.6509    313.84483   -372.67207    -649.7042   -3579.2438 
 4018000    239.30222   -4885.6763   -4407.0423   -4885.6763            0    7985.3809    17.959197    22.886586    19.303532    7934.2282    8705.9331    7590.6155     7659.594    1392.7239    706.59609   -520.17304   -3483.0333 
 4019000    236.04627   -4853.2844   -4381.1627   -4853.2844            0    9270.7745    17.956745    22.775508    19.336377    7908.0749     9988.398    8824.7465    8999.1789     641.9872    272.15373    7.2299765   -3311.9536 
 4020000    243.40983   -4878.9101   -4392.0604   -4878.9101            0    8255.8122    17.988959    22.567604    19.524569    7926.3444    9027.7867    8019.0636    7720.5864    510.13115    224.80075   -593.27032   -3437.7083 
 4021000    238.05117   -4885.0715   -4408.9398   -4885.0715            0    8667.5197    18.120494    22.576049    19.359826     7919.895    7841.2564    9619.3147    8541.9881   -406.67133    313.75471    149.81427   -3407.8105 
 4022000    237.95805   -4858.9311   -4382.9856   -4858.9311            0    7324.7732    18.069624    22.665114      19.4096    7949.2034    7075.3837    7638.7972    7260.1387    434.06949   -776.65067    1647.8936   -3533.8175 
 4023000    236.70062    -4888.678   -4415.2475    -4888.678            0    6809.5039    18.077366    22.678222    19.369099    7940.6047    5757.4921    8005.0504    6665.9692   -790.82865    548.62914   -1595.5118    -3626.669 
 4024000    241.01271   -4821.0212    -4338.966   -4821.0212            0     6661.438    18.128723    22.723253    19.455162    8014.4288     6931.454    7441.8198    5611.0402   -2284.3075    527.88327   -600.28087   -3560.3623 
 4025000    256.38877   -4870.7044   -4357.8952   -4870.7044            0     8025.118    18.088713    22.758155    19.337135     7960.436    5976.9081    8705.0581    9393.3877   -577.52937   -42.415198   -1609.5926   -3426.2208 
 4026000    245.13512   -4858.5662   -4368.2657   -4858.5662            0    6409.5473    17.967922    22.820739    19.497846    7994.9215    7829.4214    6455.8263    4943.3944    89.715328   -332.78768    1119.4327    -3620.927 
 4027000    243.43402   -4840.7613   -4353.8631   -4840.7613            0      6040.44     18.07581    22.995791    19.274951    8011.9714    4806.5625    6307.6124    7007.1452   -1981.8049   -559.97587    510.80799   -3648.0595 
 4028000     241.4915   -4884.9896   -4401.9768   -4884.9896            0    5453.7699     17.93952    23.051683      19.3923    8019.4164    4932.7238    5790.4304    5638.1556    212.41157    291.21378   -704.21351   -3764.1313 
 4029000    246.05729   -4881.7721   -4389.6271   -4881.7721            0    6007.9334     18.00715    23.196441     19.12255    7987.5237    6393.7992    4908.9475    6721.0535   -140.69883    243.68973   -725.81756   -3689.7639 
 4030000    241.47969   -4847.2903   -4364.3011   -4847.2903            0    7528.2153    17.922222    22.975269    19.322013    7956.1841    8361.3447     7429.784    6793.5172   -409.92823   -357.01289    134.51265   -3490.7813 
 4031000    241.13395   -4839.6377     -4357.34   -4839.6377            0    8941.2994    18.020513       23.005    19.101102    7918.5892    7960.5353    8539.4963    10323.867   -370.28041    629.39995    1643.7974   -3324.7585 
 4032000     245.3129   -4865.0916   -4374.4354   -4865.0916            0    6295.3842    17.909041    22.901447    19.392886    7953.8554    6835.8052    5611.8373    6438.5102   -620.45181   -1053.1113   -32.080858   -3644.1783 
 4033000    239.75427   -4859.8238   -4380.2857   -4859.8238            0    8228.1802    17.934328    22.826608     19.32546    7911.4545    7285.2077    8765.6158    8633.7172    45.836291    84.626237    1132.5093   -3430.9145 
 4034000    240.38035   -4888.4461   -4407.6557   -4888.4461            0    8080.8029    18.028909     22.72093    19.360498    7930.7101    6267.1831     8852.702    9122.5237    -772.4713   -359.33535   -237.70262   -3473.0198 
 4035000    234.07363   -4884.3954   -4416.2192   -4884.3954            0     7782.016    17.818716    22.873891    19.410688    7911.4735    7012.0367     7899.118    8434.8933    610.18534    343.14557   -402.87813   -3518.3245 
 4036000    237.62672   -4883.2851   -4408.0023   -4883.2851            0    8174.6531    18.097698    22.857737    19.135815    7915.9591    5643.3548     9454.703    9425.9015   -226.10184       648.98    223.67454   -3464.2701 
 4037000    246.68086   -4866.2841   -4372.8919   -4866.2841            0    8846.7825    17.855197    22.661599    19.475835    7880.4545    9347.7086    9183.3934    8009.2455    137.02383   -660.38397    1318.4017   -3356.1458 
 4038000    240.17557   -4870.5067   -4390.1259   -4870.5067            0    8035.1842    18.033624    22.726866    19.355671    7932.8784    8686.1219    7733.5287     7685.902     519.0985   -1119.0261   -57.456331   -3460.5122 
 4039000    227.99682    -4859.153   -4403.1312    -4859.153            0     7368.423    18.106483    22.800572    19.355265     7990.592    7044.2351    8420.4466    6640.5873    773.14743     461.9198   -1038.0077    -3544.455 
 4040000    245.65807   -4872.0102   -4380.6637   -4872.0102            0    8448.3616    17.937239    22.604297    19.553851    7928.2787    6383.4184    10195.123     8766.543   -561.27428     814.8977    1534.9143    -3403.815 
 4041000    240.51485   -4859.8084    -4378.749   -4859.8084            0    8990.3208    18.103099    22.835441    19.173502    7926.1773    8720.2366    8439.4879     9811.238    -827.0744     838.1397   -986.17421   -3339.5113 
 4042000    243.35927   -4861.7566    -4375.008   -4861.7566            0    9126.7044    17.815291    22.773827    19.408234    7874.3543    9089.3834    9440.2873    8850.4424   -482.70915    1293.3084    586.21576   -3326.9029 
 4043000    244.26723   -4849.2105   -4360.6458   -4849.2105            0    9060.5999    18.069887      22.8199    19.179276    7908.6323    8399.9232    9138.2604    9643.6162    650.71331     1041.528   -636.84099   -3315.6027 
 4044000    239.71124   -4893.1798   -4413.7277   -4893.1798            0    6550.8567    18.077741    22.835321    19.212907    7931.2997    5365.4703    7329.8414    6957.2582   -926.31096   -378.67828    284.17706   -3655.9909 
 4045000    231.96484   -4884.9517   -4420.9934   -4884.9517            0    5946.4212    17.879944     22.93605    19.460558    7980.6834    6590.7093    5841.5887    5406.9657    2226.6505    -481.8269    2130.1571   -3728.8889 
 4046000    232.80585   -4869.0656   -4403.4252   -4869.0656            0    6674.5492    17.956903    22.868908    19.354201    7947.8952    7645.2274    6223.9027    6154.5176   -838.32542    -477.4077   -3109.5607   -3629.7655 
 4047000    236.86561   -4858.5184   -4384.7579   -4858.5184            0     8587.718    17.994353    22.880979    19.221716    7914.1271    9649.9724    7303.8509    8809.3307    1159.4774    697.51649    34.124959   -3393.5684 
 4048000    235.94453   -4871.8044   -4399.8862   -4871.8044            0    8089.0816    17.932254    22.949696    19.247531    7921.1243    7623.1881    8055.9463    8588.1105    460.98033    1747.9045    1288.2721   -3465.4235 
 4049000    237.85241   -4828.6053   -4352.8711   -4828.6053            0    10090.889    17.776752    22.710087    19.492519     7869.356    12110.969    9517.6785    8644.0199    510.00673    55.373227    171.18051   -3194.7753 
 4050000    238.58562   -4881.6883   -4404.4876   -4881.6883            0    6737.2697    18.149915    22.874924    19.191275    7967.7937    5700.3194    5252.3741    9259.1155    914.72472    73.588024    477.97241   -3621.6027 
 4051000    253.56927   -4831.9258    -4324.756   -4831.9258            0     8687.202     17.93434    22.893241    19.437582    7980.5885    8340.1086    7876.0825    9845.4148    278.99625   -450.34654   -1123.6844   -3313.6638 
 4052000    241.00246   -4882.4425   -4400.4078   -4882.4425            0    7986.3256    17.942227    22.838552    19.267743    7895.4296    8536.7993    7106.7153    8315.4621    863.35068   -38.559141     1088.942   -3480.8084 
 4053000    232.47054    -4886.471   -4421.5012    -4886.471            0    7752.0519    18.006896    22.966988    19.203157    7941.7374    8358.0086    7675.6125    7222.5345    638.66747    473.13974   -846.26588   -3523.6423 
 4054000    255.20148    -4872.218   -4361.7835    -4872.218            0    6252.2213    17.964008    22.960477    19.324569    7970.6539    5941.5094    5904.0069    6911.1477    335.22921    632.30932    435.39155   -3635.0015 
 4055000    251.34564   -4867.0608   -4364.3385   -4867.0608            0     8625.774    17.889984    23.040247    19.201745    7914.7602    8806.3253    9041.6825    8029.3141   -1205.0822    424.76386    -864.5303    -3368.677 
 4056000    258.96342   -4857.8111   -4339.8523   -4857.8111            0    9277.5179    17.943331    22.937829    19.282127    7936.1583     10079.96    9055.3194     8697.274   -87.882445    -405.0422   -1127.1957   -3266.0656 
 4057000    239.33051   -4895.9905   -4417.2999   -4895.9905            0    7175.3176    17.927932    22.934455     19.29357    7932.8857    5613.4554     7294.159    8618.3385    800.77708   -1511.2576   -568.25718   -3587.1659 
 4058000    246.33831   -4873.4536   -4380.7465   -4873.4536            0    7627.4427    17.967842    22.811123    19.371633    7939.7864    6800.0526    8240.2129    7842.0625    506.12183    117.47441   -694.80722   -3497.5372 
 4059000    243.61346    -4882.622    -4395.365    -4882.622            0    7546.6525    18.203262    22.717682    19.275345    7971.0475    6306.7712    8502.9075    7830.2787    54.574302    649.62289   -158.78408     -3518.07 
 4060000    242.59456   -4873.9852   -4388.7661   -4873.9852            0    7439.2866    17.935067    22.683876    19.509258    7937.0847    8408.1404    6874.9637    7034.7555    -450.3542   -53.732214    153.25018   -3527.6371 
 4061000    245.60074   -4849.1869   -4357.9551   -4849.1869            0     7768.121    18.269409    22.553778    19.313012    7957.8147    8033.1058    8045.3402     7225.917    1114.8914    146.43237    927.50225   -3456.4137 
 4062000      256.125   -4842.2848   -4330.0032   -4842.2848            0    6764.7556    18.009119    22.758283    19.477636    7983.0377    6523.6056    6171.3879    7599.2735   -458.49017   -809.13593   -109.14659   -3542.4204 
 4063000    257.68723   -4864.3426   -4348.9363   -4864.3426            0    6949.5993    17.995802     22.60721    19.555259    7955.7612    6775.0449    7796.8288    6276.9243    1311.8695     -249.876    928.74954   -3542.5978 
 4064000    233.79658   -4863.3697   -4395.7477   -4863.3697            0    6444.9368    18.305754    22.528757    19.380228    7992.5201    5191.6332    6729.0471      7414.13    1179.2717   -428.80901      1734.11   -3644.5084 
 4065000    227.02992   -4865.9656   -4411.8778   -4865.9656            0    7834.2324    18.072102    22.583956    19.476166    7948.9935    5625.6992    9002.7368    8874.2612    1020.3063    1052.4546   -13.439286   -3503.6715 
 4066000    238.70582   -4826.5721    -4349.131   -4826.5721            0    7335.6681    18.117365    22.760189    19.245566    7935.9985    7729.6489    6483.7872    7793.5682   -908.32011   -972.59587    -1244.055   -3500.1125 
 4067000    240.81033   -4882.6458   -4400.9954   -4882.6458            0    6453.2505    17.921576    22.895069    19.413223    7965.5508    6166.9489    6695.7184    6497.0844    74.811013   -586.45474    92.540797   -3651.3253 
 4068000    245.02305   -4863.6418   -4373.5654   -4863.6418            0    7883.5253    17.947425    23.094786    19.161867    7942.4394    9320.4081    6979.9358     7350.232   -1256.2532     6.397994   -332.04493   -3460.3983 
 4069000    236.83889   -4891.9506   -4418.2436   -4891.9506            0    7120.0844     17.72224    23.049713    19.375267    7914.6523      6794.58    7865.7481    6699.9251    337.45924    173.78684    361.56896    -3596.393 
 4070000    254.64349   -4887.6214   -4378.3029   -4887.6214            0    7857.1893    17.940566    22.991032    19.263132    7945.5049    8010.4842    7571.6169    7989.4668     1079.068    1087.2671    418.64429   -3467.8351 
 4071000    243.77457   -4867.3097   -4379.7305   -4867.3097            0    6859.5287    17.928437    22.959369    19.338293    7960.1363    7434.5139    5982.8819    7161.1903   -1391.6958    16.775175   -3619.9436   -3583.4049 
 4072000    245.17667   -4821.5466    -4331.163   -4821.5466            0    7525.0481    18.043136    23.016412    19.204867     7975.556    7988.8463    6990.4203    7595.8778    1314.4429    171.26479    978.49437   -3455.8847 
 4073000    226.63825    -4869.258   -4415.9535    -4869.258            0    6988.5072    17.858184    22.909719    19.386756    7931.6256    8691.6217    5433.9696    6839.9304   -287.11463    -911.1742   -203.08225   -3607.5605 
 4074000    234.91241   -4884.9957   -4415.1419   -4884.9957            0    7640.0152    17.946317    22.863698    19.309715    7923.1464    10406.202    6550.6007     5963.243    565.02735   -377.50598    265.24926   -3532.3307 
 4075000    227.73028   -4848.4907    -4393.002   -4848.4907            0    8573.7187    18.017275    22.789505    19.299835    7924.6046    9285.9267    8178.3359    8256.8934   -707.49115   -770.57196   -172.45521   -3402.1183 
 4076000    240.24168   -4858.9477   -4378.4347   -4858.9477            0    7573.4877    17.985286    22.685857      19.5022    7957.1244    8409.7445    7089.7246    7220.9941    186.82121   -23.985036   -1634.5841    -3499.558 
 4077000     228.1647   -4889.3895   -4433.0319   -4889.3895            0    7552.2736      18.0936    22.690448    19.392026    7961.4328    6877.4128    7156.4932    8622.9146    2374.9634   -544.89973    1149.1858   -3556.1425 
 4078000    258.04947   -4861.3496   -4345.2188   -4861.3496            0    7341.8154    18.011699    22.753796     19.40141    7951.3679    6924.9383    7759.5165    7340.9915   -910.58187   -810.11782   -1446.0188   -3493.8432 
 4079000    239.34436   -4885.4679   -4406.7496   -4885.4679            0     6790.691    17.891072    23.024008    19.323841    7959.9575    7428.3804     6874.513    6069.1796   -487.24758   -418.37028   -547.42723   -3618.4332 
 4080000     242.8195   -4841.4953   -4355.8263   -4841.4953            0    6402.2136    17.896791    23.040993    19.337293    7973.9229     6888.518    6023.0542    6295.0687    208.61973    663.30654   -167.65284   -3611.3034 
 4081000     233.0208   -4840.7872   -4374.7168   -4840.7872            0    6937.3664    17.989863    22.952294    19.335772    7983.9067    6381.5898    5455.6571    8974.8523    21.688801   -926.24037    2093.2903   -3566.9501 
 4082000    235.58273   -4883.6752   -4412.4806   -4883.6752            0    5895.0645    17.945951    23.111928    19.271245    7993.0479     4488.703    6279.0804    6917.4102   -274.88009    377.87062    126.60629   -3725.2906 
 4083000    251.58176   -4874.2053   -4371.0107   -4874.2053            0    7918.5177    17.869355    23.039152    19.264417    7931.0601    7926.8688    7942.3395    7886.3447   -290.83983   -369.75628   -1787.2023   -3455.1045 
 4084000    247.38939   -4841.4825   -4346.6732   -4841.4825            0    7396.6959    18.000273    22.905454    19.217867    7923.6113    4655.8877    8386.0515    9148.1485   -30.628346   -230.12364    1199.0514   -3491.9277 
 4085000    242.22347   -4892.7286   -4408.2517   -4892.7286            0    8182.4991    17.971864    22.930429    19.246904    7931.6983    9454.6966    8407.2065     6685.594   -1316.8802    305.41454    681.69944   -3461.7356 
 4086000    232.64393   -4860.2799   -4394.9633   -4860.2799            0    7777.4749    18.045967    22.703106    19.364529    7933.6378    8062.5325    8242.8857    7027.0066   -504.40756   -391.67293    1278.0698   -3495.0785 
 4087000      230.939   -4853.9535   -4392.0469   -4853.9535            0    7731.9783    17.961602    22.738139    19.455255    7945.7871    8725.8842    7797.7802    6672.2706    -1233.947   -542.21525    681.24727   -3496.0564 
 4088000    238.41644   -4859.0505   -4382.1882   -4859.0505            0    6676.0721    17.953229     22.90471    19.376705    7967.9631    6193.7984     6909.507    6924.9109    1125.6155    577.63757    2851.0038   -3606.3981 
 4089000    234.69529   -4907.0405   -4437.6209   -4907.0405            0    7102.2924      18.0493    22.937311    19.219941     7957.102     7089.649    6556.3587    7660.8695   -377.61918   -971.43445   -1230.8901   -3613.4271 
 4090000    235.84278   -4860.2676   -4388.5529   -4860.2676            0     9217.493    17.778365    22.935017    19.362587    7895.0386    10400.719    8321.9686    8929.7909    12.769437   -1294.8536   -387.23083   -3327.2412 
 4091000    242.57596   -4882.3749    -4397.193   -4882.3749            0    7007.7408    17.802143    23.089877    19.308887    7936.9044    7534.9066    6582.6218    6905.6941    1309.4596    181.43615   -1454.4619   -3586.0358 
 4092000    233.95912   -4859.8511    -4391.904   -4859.8511            0    9856.6757    18.024752    23.036179     19.03617    7904.2254    8505.6665    9598.7083    11465.652    241.51553    802.58039   -1515.3953   -3255.6755 
 4093000    254.10732   -4869.9886   -4361.7426   -4869.9886            0    8429.6542    17.841968    22.973768    19.314756     7917.065    9685.0185    8362.6656    7241.2786    606.73648    1287.1462    49.776771   -3388.4356 
 4094000     242.3778   -4873.0132   -4388.2277   -4873.0132            0    7375.3886    17.898718    23.102653    19.168936    7926.5059    7531.4111    6962.2741    7632.4808    273.03558   -28.787863   -1132.6399    -3535.633 
 4095000    227.33171   -4871.8358   -4417.1443   -4871.8358            0    10693.472    17.840765    23.003947    19.129931    7851.0769    11846.596    8553.1193    11680.702   -243.39047    292.46068   -1610.4204   -3192.7428 
 4096000    240.45446   -4851.9633   -4371.0247   -4851.9633            0    9175.9442    18.038062     22.70347    19.344402     7922.047    9643.1649    8824.4257     9060.242     1577.083    268.88506   -326.77821   -3310.8826 
 4097000    240.98503   -4867.0469    -4385.047   -4867.0469            0    8565.5136    17.961772    22.765249    19.357002    7915.1594    7235.5617     8799.601     9661.378    855.89203    -563.3934    1179.5176   -3396.2914 
 4098000    244.93837   -4876.7716   -4386.8646   -4876.7716            0    8229.3513    17.971333    22.842287    19.359745    7947.2984    7333.2822    7970.1307    9384.6411    771.23356   -99.855659   -845.39738   -3433.0565 
 4099000    243.19041   -4870.2654   -4383.8545   -4870.2654            0    8357.5286    18.001466    22.987686    19.062497    7888.2908    9095.4684    7542.8184    8434.2989   -237.80833   -65.955486    868.49515   -3422.3824 
 4100000    233.64489   -4855.6163   -4388.2977   -4855.6163            0    7982.6143    17.939064    22.926002    19.299923    7937.4987    9367.8007    7518.9936    7061.0485    1171.6193    551.25793    1297.0673    -3464.228 
 4101000    239.03863   -4903.8069   -4425.7001   -4903.8069            0    6769.3663    17.933446    23.113048    19.173034    7947.1575     5803.447    6003.5931    8501.0588    1877.8747   -1075.6224    675.06448   -3641.1228 
 4102000    230.33076   -4844.2767   -4383.5867   -4844.2767            0    6713.4984    17.827346    22.993788    19.418886     7960.155    7559.9608    6842.4379    5738.0964   -2036.7124    320.07905    477.57941   -3604.2121 
 4103000    248.41984   -4869.2193   -4372.3489   -4869.2193            0    6570.6805    18.104076    22.938636    19.217774    7980.8112    7129.5052    7039.2217    5543.3146    -704.7185   -8.6724226    1077.6399   -3607.5746 
 4104000    241.17171   -4857.0568   -4374.6836   -4857.0568            0    6303.8642    17.829599    22.920595    19.481292    7961.3228    7576.7215    5743.7828    5591.0884   -725.43753    17.930137    -723.7655   -3642.7562 
 4105000    244.28041   -4839.5095   -4350.9185   -4839.5095            0    6042.0256    17.983611    22.960828    19.422144    8019.7646    5977.6091    7192.2363    4956.2315    69.595074    967.78937    571.41476   -3644.2429 
 4106000    226.90459   -4883.3809   -4429.5437   -4883.3809            0    5356.5125    17.998935    23.061754    19.285922    8005.3356    6229.4731    4757.9526    5082.1117     132.7338    1134.3043   -206.91752   -3804.1729 
 4107000    249.13979   -4876.2265   -4377.9161   -4876.2265            0    7569.2717    17.817927     23.03132    19.295308    7918.2226    7507.5358    7582.3877    7617.8915   -14.122015     165.6385    1580.2707    -3503.823 
 4108000    248.06393   -4858.1144   -4361.9559   -4858.1144            0    7597.4008    17.824342    23.043529    19.323192    7936.7255    8828.9173    7304.4286    6658.8566   -741.61568   -1489.3814    -1399.051   -3482.5644 
 4109000    233.39943   -4862.5241   -4395.6964   -4862.5241            0    9069.6874      17.9517    22.790353    19.314992    7902.2573    7704.8217    9885.6199    9618.6205   -606.78478    608.84981    1300.6946   -3350.4484 
 4110000     242.6473   -4849.7841   -4364.4595   -4849.7841            0    6867.4491    18.053426    22.749145    19.452998    7989.3465    6017.0875    8739.7754    5845.4844   -1998.7596    7.8075427    -2253.427   -3564.2889 
 4111000    253.36362   -4858.6803   -4351.9218   -4858.6803            0    7030.9863    18.175942    22.392244    19.681688    8010.4496    7416.7573    8270.2801    5405.9216     1085.842    661.93748    461.13624   -3530.5325 
 4112000    239.55229   -4863.6712    -4384.537   -4863.6712            0    7190.8938    18.136385    22.567031    19.422486    7949.3199    6392.7827     7230.089    7949.8096    299.16128   -461.66582   -796.50884   -3550.8775 
 4113000    237.48612   -4866.7035    -4391.702   -4866.7035            0    9231.5395    18.096014     22.53355    19.290667    7866.1058    8682.2608    9342.0974    9670.2603    -227.2082   -598.55108    1472.1029   -3332.6682 
 4114000    234.36797    -4843.633   -4374.8681    -4843.633            0    7280.5379    18.085209    22.740441    19.422792    7987.9269    7574.1225    6912.9247    7354.5665   -492.56864    1.5398855    659.64035   -3526.7166 
 4115000    240.07844   -4864.8516   -4384.6651   -4864.8516            0    8559.8488    17.943584    22.684323    19.467194    7923.8889      6726.94    10040.622    8911.9848    106.89878    950.53217    1883.6805   -3395.4736 
 4116000     230.7011   -4881.5699   -4420.1392   -4881.5699            0    6856.5252    18.077747     22.77818    19.346806    7966.5923    6602.2268     7009.231    6958.1178   -6.8881296   -102.44077    1918.0782   -3623.5167 
 4117000    230.70656    -4880.879   -4419.4374    -4880.879            0    7499.5787    18.101331    22.837624    19.180286    7928.9652    7031.1815    7505.0208    7962.5338   -441.40567    1618.9663    820.37649   -3552.2175 
 4118000    236.55846    -4883.777   -4410.6309    -4883.777            0    7661.8859    17.854273    22.875387    19.440994    7940.1571    10167.173     6674.095    6144.3895    58.769916   -839.14766    428.92951   -3523.3918 
 4119000    230.03368   -4869.7514   -4409.6556   -4869.7514            0    6631.6141    18.059158    22.843647    19.276455    7952.2518    7544.7042    6210.3582    6139.7798    816.28938   -684.78123    1089.8336   -3640.5513 
 4120000    235.82131   -4869.9293   -4398.2575   -4869.9293            0     6852.625    18.060013    22.884248    19.266157    7962.5067    6382.8098    7471.3395    6703.7256   -1197.2679    -1188.824    621.40068   -3602.4965 
 4121000    241.22137    -4889.752   -4407.2795    -4889.752            0    6794.2921    17.960911    22.875766    19.378177    7961.9038     7211.694    6163.1942    7007.9881    759.77288   -521.31462    249.21601   -3618.3521 
 4122000    245.49047   -4859.9238   -4368.9125   -4859.9238            0    7468.3834    18.069072    23.004816    19.219118    7988.9198    6111.6851    7666.4615    8627.0035   -1219.4458   -175.65213     465.1414   -3498.7697 
 4123000    254.15801   -4902.5497   -4394.2023   -4902.5497            0    8899.8803    17.951845    22.705787    19.398341    7906.9728    10001.909    8748.6476     7949.084    436.37957    444.40653     575.5051   -3367.9118 
 4124000    243.71031   -4862.4963   -4375.0456   -4862.4963            0     8128.233    17.950542    22.755653    19.414504     7930.365    9021.3398    8488.3283    6875.0309     809.3033    470.30392    370.59624   -3434.9647 
 4125000    238.94578   -4837.6717   -4359.7506   -4837.6717            0    9146.0217     18.04083    22.670921    19.379747    7926.3597    9225.2861    9167.2367    9045.5424   -473.61855    -441.6124    -694.2411   -3302.4904 
 4126000    250.55951   -4899.7554   -4398.6054   -4899.7554            0    7908.1327    17.948451    22.854785    19.303755    7918.5545    6817.6227    7877.2241    9029.5513    1381.6894    253.57591   -334.25219   -3485.3426 
 4127000     235.1746   -4875.5037   -4405.1255   -4875.5037            0    8105.1145     17.98447    22.823686     19.34174    7939.2407    7660.7109     8171.327    8483.3054    1333.9903   -362.59605   -1162.2947   -3466.6693 
 4128000    236.84209   -4872.7974    -4399.084   -4872.7974            0    8655.2149    18.108949    22.730389    19.278096    7935.3165    8944.0863    7650.0612    9371.4971    1858.1689   -232.71412    3226.8538   -3397.4293 
 4129000    256.50773   -4853.0289   -4339.9817   -4853.0289            0    6350.0655     18.22214    22.702167    19.352222    8005.6672    5038.8894    7687.6148    6323.6922   -578.65562    438.58711    128.45503   -3598.5833 
 4130000    233.81475   -4893.8468   -4426.1884   -4893.8468            0    7214.1793     17.96261    22.685771    19.456694    7928.5184    8190.1643    7344.1424    6108.2311    1361.0271    -748.2382    331.63779   -3592.0179 
 4131000    238.35796   -4902.4044   -4425.6591   -4902.4044            0     7559.611    18.180543    22.593306    19.263947    7912.8315     6234.595    8744.1442    7700.0939     1439.341    632.84935   -1007.9571   -3553.2759 
 4132000    250.89919   -4860.9328   -4359.1034   -4860.9328            0    5783.9922    17.991852    22.768981    19.483163    7981.3975    6322.3635    5248.6668    5780.9464   -672.65208    236.68087    275.82478   -3685.8439 
 4133000    233.31801   -4838.4916   -4371.8268   -4838.4916            0    7173.9078    18.095549    22.859027    19.316176    7990.0711    5612.0623    7159.9317    8749.7293   -1232.8454    133.92048   -685.89606   -3535.8729 
 4134000    231.26283   -4887.2531   -4424.6989   -4887.2531            0    5859.1646    18.010946    22.729033    19.552533    8004.2477    6605.0073    6150.6489    4821.8376    996.97574   -555.47561    1311.0912   -3740.7367 
 4135000    242.67818   -4890.3231   -4404.9368   -4890.3231            0    8333.2405    18.051014    22.751366    19.327825    7937.6519    7107.1863     9671.147    8221.3882    814.85907    -336.6942     1457.073     -3440.26 
 4136000    254.69399   -4872.0623   -4362.6429   -4872.0623            0    9438.7309    18.056389    22.705179    19.241064    7888.3275    10178.629    8821.3533    9316.2104   -28.757527   -354.96547    445.68514   -3276.7814 
 4137000    243.83112   -4885.7886   -4398.0963   -4885.7886            0     7595.989    17.899625    22.662375    19.563952    7936.0781    8957.0296    8630.4397    5200.4977   -1621.1982    841.91215   -150.59204   -3518.9399 
 4138000    251.89611   -4894.1874   -4390.3641   -4894.1874            0    7955.7884    18.080409    22.909385    19.115298    7917.7676    6133.0689    8476.0962    9258.1999    1088.3889    248.12917    372.28663   -3471.6892 
 4139000    247.02445   -4915.0127   -4420.9333   -4915.0127            0    6587.3092    17.859075    22.971319    19.381593    7951.2306    6100.8187    6017.0339    7644.0751   -64.251456   -1380.8674   -2332.4352   -3657.0654 
 4140000    252.48368   -4871.4205    -4366.422   -4871.4205            0    7576.4602    17.872314    23.127189     19.20805     7939.386     8778.896    6796.9772    7153.5075   -337.22292    53.740726   -106.52416   -3489.1603 
 4141000    237.91233   -4870.4538   -4394.5997   -4870.4538            0    7206.0339    17.926434    23.226156    19.076058    7942.5487    7270.7674    7653.7111    6693.6232   -230.86805    250.24261   -2516.2965   -3559.8965 
 4142000    241.25487   -4862.2195     -4379.68   -4862.2195            0    8327.4213    17.779995    23.091133    19.197957    7881.9177    8754.0047    9221.2624    7006.9967    1848.9343    76.449151    1190.4428   -3422.4455 
 4143000    245.14999   -4893.3401   -4403.0099   -4893.3401            0    6922.3263    17.915071    23.036033    19.234629    7937.9804    7008.2879    6965.6402    6793.0508    -541.9894    432.53284   -639.54689   -3601.6308 
 4144000    239.67244   -4860.6035    -4381.229   -4860.6035            0    7961.5924    18.028701    23.056074    19.046575    7917.1102     7221.815    7552.6889    9110.2733    803.17773    153.04907    1072.4592   -3461.9602 
 4145000     246.9005   -4885.7237   -4391.8922   -4885.7237            0    7293.1334    17.760592    23.102231    19.371686    7948.3829    7588.1249    7056.6438    7234.6314     699.5708   -341.64731   -1237.7186   -3546.4794 
 4146000    241.77946   -4878.8365   -4395.2477   -4878.8365            0    8684.6681    17.952698    23.009589    19.121452    7898.7697     8216.907    7502.9913    10334.106    506.34762   -865.53495    205.28416   -3394.8134 
 4147000    237.36996   -4887.5963   -4412.8271   -4887.5963            0    8896.5541    17.915082    22.849341    19.283478    7893.6497    7478.0276    10199.108    9012.5268    811.02077    1302.2181    351.94402   -3388.6488 
 4148000    240.05272   -4873.2971    -4393.162   -4873.2971            0    9913.8709    17.953107    22.788964    19.231857    7868.3816     9559.755    10721.089    9460.7688     362.8882     725.1949    898.38651   -3255.5228 
 4149000    245.24108   -4852.8565   -4362.3441   -4852.8565            0    8527.0251    18.041132    22.850303    19.231594    7928.1349    9391.7931    7749.1469    8440.1351    385.94446   -297.14128   -1149.2335   -3376.4178 
 4150000      239.159   -4877.2139   -4398.8664   -4877.2139            0    7852.3357    17.948291    22.677476    19.508715    7940.4748    8143.1876    7654.7953    7759.0242   -545.45638   -241.32592   -1658.8033    -3489.537 
 4151000    242.71111   -4833.6749   -4348.2227   -4833.6749            0     7223.578     18.02843    22.774143    19.410979    7969.7992    7950.0264    6862.1513    6858.5564    832.44654   -1718.0291   -1029.5367   -3508.6165 
 4152000       252.11   -4879.8285   -4375.5773   -4879.8285            0    9351.7473    18.011674    22.666348    19.267331     7866.059     9863.471    9194.0647    8997.7063   -1374.7446   -120.75996   -1291.9808   -3302.7598 
 4153000    246.83417   -4860.2782   -4366.5794   -4860.2782            0    9302.3567    17.854089    22.671947     19.54216    7910.4117    9560.1204    9313.2841    9033.6656   -79.866132   -193.42733    364.26675   -3293.4108 
 4154000     241.3717   -4868.3043   -4385.5311   -4868.3043            0    7862.5776    18.230076    22.889851    19.021762    7937.4714    8003.1006    7194.3966    8390.2358   -936.80747    221.07654    610.86753   -3475.3601 
 4155000    225.83062   -4854.1191     -4402.43   -4854.1191            0    6554.2132    18.023035    22.847452     19.42303    7998.0235    6154.6684    6247.7027    7260.2684   -1328.3733   -776.43751    497.92235   -3637.9271 
 4156000    241.99158    -4908.834    -4424.821    -4908.834            0    4421.2276    18.022166    23.023771    19.319656     8016.464    3115.1929    4204.6975    5943.7924   -225.89444   -6.2774595    1192.9045   -3907.9268 
 4157000    248.82141   -4898.7271   -4401.0536   -4898.7271            0     6447.558    17.970399    22.922783    19.292526    7947.2007    7002.3282    6704.2792    5636.0666    584.48459     651.8571   -1964.8368   -3653.7702 
 4158000     228.1753   -4876.5372   -4420.1584   -4876.5372            0    8111.2628    17.965804    22.956499    19.209892    7922.7731     9583.181    6450.3406    8300.2666   -1804.2518   -618.90452   -752.44474   -3482.9383 
 4159000    237.10066   -4891.3953   -4417.1647   -4891.3953            0    6690.6764    17.867873    23.181953     19.22702    7964.0661     8493.045    5487.9147    6091.0694    1334.0095   -1197.5853    1316.0563   -3640.0578 
 4160000    239.85603   -4860.3155   -4380.5738   -4860.3155            0    7826.7544    17.787264    23.017766     19.37493    7932.5438    8019.5974    8359.3948     7101.271   -851.78441    974.88623   -1987.5978   -3475.1122 
 4161000    222.83807   -4856.5282   -4410.8246   -4856.5282            0     6965.697     18.07626    23.082851    19.068514    7956.3681    4830.9829    7442.5876    8623.5204    475.97166    -872.9506   -217.70483   -3602.5567 
 4162000    237.77541   -4862.1804   -4386.6002   -4862.1804            0     7825.622    17.682037    23.157074    19.370943    7931.7082    11258.357     5910.084    6308.4251   -398.30376    494.91137    -1688.262   -3481.3648 
 4163000     225.3659   -4843.2802   -4392.5206   -4843.2802            0    10825.665     17.84596    23.111433    19.048562    7856.4972     11245.48    10708.654    10522.859   -150.95839    774.79357    622.35171   -3152.1273 
 4164000    243.86284    -4894.572   -4406.8162    -4894.572            0     7254.678    17.878371     23.03406    19.305383    7950.1781    7378.1827    6731.8341    7654.0172    -285.5858   -639.76575   -302.43794   -3565.6712 
 4165000    233.20781   -4872.7901   -4406.3457   -4872.7901            0    7469.2192    17.945683    23.053928    19.253779    7965.6447    7799.6836    7097.1052    7510.8689    1081.8684    549.75464    -1186.483   -3538.6409 
 4166000    255.34593   -4850.5809   -4339.8575   -4850.5809            0      10930.4    17.903432    22.794558    19.288248    7871.5496    12075.655    10714.982    10000.563   -324.27838   -666.21083   -1744.3178   -3085.0642 
 4167000    238.47024   -4877.2812   -4400.3113   -4877.2812            0    8485.9533    17.973509     22.58966    19.444109    7894.6085    8263.1387    8691.9235    8502.7977   -562.80795    284.22102   -252.33699    -3423.283 
 4168000    245.37817   -4862.1845   -4371.3978   -4862.1845            0    7681.6702     18.10141      22.5382    19.486729    7950.0633    6367.5597    8135.6295    8541.8214    2136.1075    -348.7685    83.015868   -3480.7579 
 4169000    259.36097   -4870.3078   -4351.5539   -4870.3078            0    7307.4518     18.03849    22.751672     19.34112    7937.7083    7699.0949    6525.2107    7698.0498    166.73022   -1464.6221    1379.1235   -3505.6189 
 4170000    249.78768   -4885.4523   -4385.8461   -4885.4523            0    5390.5073    18.011509    22.834697    19.502462     8021.116    6152.4526    5945.5755    4073.4937   -289.49029   -155.43643   -130.20357   -3755.2659 
 4171000    242.30554   -4859.1015   -4374.4605   -4859.1015            0    6876.4025    18.175795    22.824597    19.218873    7973.0496    6182.6365    6758.0607    7688.5103    916.00153    -466.9248    906.04019    -3574.881 
 4172000    237.75043   -4877.1113   -4401.5811   -4877.1113            0      6876.92     17.94746    22.875955    19.323321    7933.4851    8508.2612    7127.0725    4995.4265    1985.4728   -727.83657    360.84283   -3605.9095 
 4173000    234.36514   -4887.3548   -4418.5956   -4887.3548            0      6809.42    18.033888    22.685928    19.444146     7954.901    6733.1755    7952.7951    5742.2895    517.49935   -256.73881    72.950173   -3628.6071 
 4174000    230.90079   -4863.1271    -4401.297   -4863.1271            0    5265.3076     18.11672    22.830172    19.326186    7993.4622    4307.0788    5822.3288    5666.5153    768.57566    60.393299    84.085519   -3787.4861 
 4175000    230.04073   -4858.0407   -4397.9308   -4858.0407            0    8311.7187    17.984038    22.592923     19.50936    7926.8867    8465.5061    8966.8211    7502.8289   -882.64122    1176.0456   -1490.8505   -3437.0503 
 4176000    244.40315   -4883.6282   -4394.7917   -4883.6282            0    8684.5692    18.035291    22.698654    19.286312    7895.3692     8848.943    8283.8774    8920.8872    1468.6653     344.6501    1176.5847   -3394.7995 
 4177000    250.66854   -4872.3564   -4370.9884   -4872.3564            0    7976.2979    17.857815    22.854553    19.391453    7914.2797    6790.0645    8694.3645    8444.4645   -265.32875     1493.606   -673.95225   -3450.3509 
 4178000    250.98469   -4883.7713   -4381.7709   -4883.7713            0    7779.1254     17.88199    22.965681    19.290895    7922.2317     9256.246    6203.2306    7877.8997    168.75898   -303.64377   -250.93014   -3482.9893 
 4179000    245.26458   -4853.1848   -4362.6253   -4853.1848            0    8875.7059    17.966102     22.77696    19.339226    7913.8665    7179.9392     10303.78     9143.399   -490.94678    471.70006    1771.3187   -3338.2301 
 4180000    253.21897   -4885.5875   -4379.1182   -4885.5875            0    8643.0837    18.080956    22.581261    19.399595    7920.6758    8586.2156    8774.2656    8568.7699    70.618821    1977.3029    1123.4317    -3380.713 
 4181000    235.72088   -4869.9601   -4398.4892   -4869.9601            0    7099.7209    18.085478    22.655879    19.385991    7943.2625    6785.5163    7335.0807    7178.5657   -423.53467   -433.36228     320.9838   -3576.0267 
 4182000    250.50339   -4887.2427   -4386.2049   -4887.2427            0    7267.6197    18.114811    22.655792    19.390249    7957.8627    6587.0852    7579.3756    7636.3982    762.31112   -488.08323   -277.66351   -3542.7449 
 4183000    232.80534   -4878.0591   -4412.4197   -4878.0591            0    8095.1544    17.982382    22.867092     19.31604    7942.8482    7555.7404    8647.7234    8081.9995   -27.963986    933.76277    782.43021   -3474.6908 
 4184000    227.48341   -4879.0846   -4424.0897   -4879.0846            0    6476.3963    18.040166    23.009134    19.254137    7992.1726    4968.3488    7217.6434    7243.1967    1226.2316   -231.72633   -1652.1293   -3669.2162 
 4185000     246.4966   -4852.3839   -4359.3602   -4852.3839            0    8377.0532    18.033619    22.896062    19.181316    7919.9434    7022.4377    8405.1484    9703.5735   -117.28625   -386.81788    526.64244    -3391.775 
 4186000    254.98352   -4878.3735    -4368.375   -4878.3735            0    8235.4591    17.806027    22.870488    19.472721    7929.9255    9326.7548    7958.9262    7420.6963   -578.49165   -389.28203    1411.3614   -3415.9456 
 4187000    249.22772   -4899.0002    -4400.514   -4899.0002            0    7450.7807    17.997523    22.794753    19.260892    7901.7636    7476.1377    7639.7955     7236.409   -619.63602     900.7015    -82.05606   -3541.8926 
 4188000    243.13635   -4853.1433   -4366.8406   -4853.1433            0    7982.5367    18.041557    22.816094    19.311902      7949.51    8224.1932    7724.2772    7999.1397    465.84497    121.49311   -32.331704   -3441.3816 
 4189000    226.29372   -4870.6801   -4418.0647   -4870.6801            0    6637.7294    17.947464    22.839544    19.378856    7943.6236    5928.7292    6566.8041    7417.6549   -1299.8599   -81.229702    485.41453   -3649.0864 
 4190000    254.13642   -4848.0614   -4339.7572   -4848.0614            0    7915.6589    18.087577    22.778841    19.257498    7934.3597    7994.0165    7322.2999    8430.6602   -223.21554    -738.2643    436.78428   -3423.8007 
 4191000    244.92124   -4869.0029   -4379.1302   -4869.0029            0    7941.3393    17.954132    22.819247    19.381076     7940.422    9229.4401    7069.7719    7524.8058   -2687.4444     288.1279   -1265.6214      -3459.5 
 4192000     246.7867    -4869.836   -4376.2321    -4869.836            0    8160.8723    17.991799    22.818773    19.281472    7916.0232    7919.2067    9069.7132     7493.697   -463.24892     530.1992   -162.46216   -3434.0833 
 4193000    236.62145    -4859.985   -4386.7129    -4859.985            0    8517.1589    18.018024    22.808632    19.217707    7897.8334    9145.4729    8018.7613    8387.2424   -199.19151   -142.94265    1642.2656   -3405.6912 
 4194000    239.69254   -4859.9847     -4380.57   -4859.9847            0    7355.4359    17.934777    22.821397    19.431517    7953.2554    8898.5778    7200.1938    5967.5362    308.02883   -170.79299   -1883.2212   -3527.4125 
 4195000    244.84571   -4878.4349   -4388.7132   -4878.4349            0    6608.9083    18.142797    22.700682    19.359256    7973.1843    5106.8896    7783.9173    6935.9179   -1743.4492     720.2158    80.480609   -3620.2246 
 4196000    244.32035   -4884.9681   -4396.2972   -4884.9681            0    5603.8823     18.25291    22.560526    19.419454    7996.8387    3806.4844    6950.3184    6054.8441    265.09849   -691.89381    767.00737   -3742.7405 
 4197000    234.77471   -4862.3238   -4392.7454   -4862.3238            0    6474.7426    17.989764    22.806663    19.480284    7992.4974    6674.2162    7384.3102    5365.7013   -313.05231    340.19212    55.606385    -3638.034 
 4198000    240.83331   -4865.1227   -4383.4263   -4865.1227            0    7991.3142    18.223488    22.777785    19.060358    7911.7769    5438.6729    8235.4626    10299.807   -823.70344   -1120.6438    920.87768   -3461.3473 
 4199000    255.72051   -4866.7955   -4355.3229   -4866.7955            0     8393.596    17.799222    22.820227     19.45261    7901.3056    10346.023    8243.3931     6591.372   -802.95783   -934.50797   -1398.6598   -3388.1084 
 4200000    236.07128   -4868.1567    -4395.985   -4868.1567            0     7969.177    18.070192    22.843118    19.215747    7931.8669    5886.7629    8067.3855    9953.3826    214.19108    880.39041   -885.10756   -3474.1254 
 4201000    232.29689   -4847.5619   -4382.9394   -4847.5619            0    9793.3269    17.901866    22.738078     19.38841    7892.1305    9170.1503    10068.416    10141.415    133.98602      1486.83   -520.01488   -3255.7409 
 4202000    239.42786   -4868.8043    -4389.919   -4868.8043            0    8078.5497    18.029574    22.755835    19.280165    7910.2279    8543.8702     8522.695     7169.084   -1337.4729    81.180683    1075.3753   -3457.9568 
 4203000     233.7093   -4873.6186   -4406.1711   -4873.6186            0    10278.987     17.92569    22.676223    19.357266    7868.4757    10513.621    10842.617    9480.7236   -811.35122   -147.59209   -296.31642   -3226.6199 
 4204000    244.65257   -4904.1297   -4414.7944   -4904.1297            0    6867.5998    18.219368    22.269323    19.563349     7937.496    6197.4733    7889.3332     6515.993   -1712.5088   -51.389821   -711.43754   -3619.7994 
 4205000    240.41064   -4894.5946   -4413.7436   -4894.5946            0    7773.0629    18.035789     22.65417    19.327247    7896.8393    7156.7812    7953.9235    8208.4839   -362.17604   -700.61532    -633.8098   -3518.5409 
 4206000    227.30238   -4850.3642   -4395.7313   -4850.3642            0    8873.5642    17.945824    22.669312    19.452007    7913.4554    11278.889    8503.9666    6837.8375    180.66394   -14.690874   -611.88772   -3371.6366 
 4207000    253.95291   -4899.3668   -4391.4296   -4899.3668            0    6141.6615    18.161492    22.588624    19.493942    7997.2559     5690.799    6580.7701    6153.4155   -206.03105   -223.51249   -348.67229   -3675.1167 
 4208000    240.92323    -4853.579   -4371.7028    -4853.579            0     7730.823    17.901999    22.872598    19.437324    7958.9086    6180.0965    8213.6661    8798.7063    2644.1504   -322.56116    -277.7607   -3474.3667 
 4209000    235.53724   -4860.4978   -4389.3942   -4860.4978            0    6948.4923    17.956999    23.011419    19.255516    7956.6876    7321.6509    6299.2431    7224.5828    499.31492    241.37795    198.59563   -3583.0903 
 4210000    236.97097   -4850.5945   -4376.6233   -4850.5945            0    8065.8323     17.99958    23.030439    19.208042    7962.4678    7318.9604    8083.0601    8795.4764     414.7497    292.78375    190.73543   -3439.9831 
 4211000    249.11887    -4876.019   -4377.7505    -4876.019            0    8383.3239    17.819994    23.184553    19.124094    7901.0926    9077.8298    7901.4108    8170.7312    -1806.918    182.18782    230.43245   -3411.7457 
 4212000    237.87101   -4861.9537   -4386.1823   -4861.9537            0    8548.4518     17.79259    23.134448    19.260969    7928.2337    9377.3802     8014.231    8253.7443     1370.482   -244.81756    894.95992   -3397.7663 
 4213000    238.51053    -4864.836   -4387.7854    -4864.836            0    7829.0776    17.847885    22.990387    19.313076    7924.7304     8079.955    7795.1817    7612.0963    -199.1827   -787.91255    510.17265   -3482.9471 
 4214000    239.73963   -4871.6712   -4392.1623   -4871.6712            0    8915.1211    18.046536    22.953439    19.157944    7935.7965    6872.4635    9554.3488    10318.551    1273.9257    424.87579   -1207.4234   -3360.3668 
 4215000     234.6734   -4899.3755   -4429.9997   -4899.3755            0    8684.8088     17.74757    22.977476    19.399372    7910.9545    11448.734    7035.2363    7570.4562    1764.1785    600.63665    597.17577   -3428.0059 
 4216000    242.18899   -4877.0057   -4392.5978   -4877.0057            0    7313.1905    18.001518    22.991443    19.234747     7960.894    9010.8257    6459.4435    6469.3022    1506.1477     515.5468    708.06672   -3543.5256 
 4217000     241.7774   -4906.5298   -4422.9451   -4906.5298            0    6632.0529    17.907775    22.946334    19.325004    7940.9876    7732.0952      5064.82    7099.2435    438.71138   -536.30643   -1308.3935   -3654.8794 
 4218000     255.8166    -4885.726   -4374.0612    -4885.726            0    5749.2929    18.021943    22.831641    19.437439     7997.933    5245.3632    6513.1484    5489.3672    589.43738   -460.90687   -1116.8109   -3703.4542 
 4219000     243.8465   -4891.4635   -4403.7403   -4891.4635            0    5755.2414    18.034616    22.848115    19.367642    7980.5718    4403.9904    5720.6145    7141.1193    325.67189   -173.87005    -405.0125   -3733.8967 
 4220000    225.70719   -4876.1769   -4424.7346   -4876.1769            0    9349.9084    17.932807    22.830721    19.272945    7890.7083    10970.601    7792.7037    9286.4211   -9.4967572   -3.0643255     1318.313   -3348.7669 
 4221000    238.55781   -4873.2961    -4396.151   -4873.2961            0    8780.5642    17.910069    23.019979    19.186802    7910.5153    8541.4908    8849.4045    8950.7974    -524.2814   -404.28807    -1685.217   -3383.1658 
 4222000    242.52592   -4910.0979   -4425.0161   -4910.0979            0    8185.7142    17.863989    22.870421    19.340317    7901.6212    10230.966     7065.202    7260.9743    106.75951   -828.23114    1407.3414   -3481.7186 
 4223000    232.55581   -4879.4434    -4414.303   -4879.4434            0    8451.2332    17.935204    22.895124    19.273662    7914.3188    7767.4876    8999.3475    8586.8646   -847.05939    397.98481    1000.3228   -3438.8429 
 4224000    235.40492   -4851.1195   -4380.2806   -4851.1195            0    8719.7676    17.978853    22.750581    19.295723    7892.5172    10412.333    7476.9116    8270.0577    -863.9751   -783.14271   -637.96957   -3376.5981 
 4225000    234.89081   -4875.8758   -4406.0651   -4875.8758            0    7787.1192    18.050835    22.694521    19.388766    7942.7062    7149.4885    9112.7293    7099.1399   -651.30096    152.85427    550.88943   -3504.0346 
 4226000    247.15343   -4890.6493   -4396.3119   -4890.6493            0    5935.0672    18.051263    22.738526    19.483908    7997.3476    5816.5325    6726.6891      5261.98   -2259.0771   -1006.5545    319.11031   -3704.0866 
 4227000    247.02076   -4816.3663   -4322.2942   -4816.3663            0    10022.824    17.994623    22.797526    19.243716    7894.4048    7092.7627    11217.807    11757.902   -1855.5288   -332.76006    396.53814   -3168.3485 
 4228000     253.0935   -4868.3206   -4362.1023   -4868.3206            0    7291.4863     17.93008    22.848149     19.35797    7930.3631    8536.9382    7196.7009    6140.8197    -381.1986   -1020.4968   -867.30971   -3518.7966 
 4229000    249.55066   -4874.8637   -4375.7316   -4874.8637            0    6381.9198    18.225489     22.71588    19.289968    7986.2012     6571.003    5629.7829    6944.9734    432.95834   -519.16326   -1205.4587   -3632.4259 
 4230000     245.4889   -4846.2306   -4355.2225   -4846.2306            0     6640.364     17.84784    23.033665    19.436783    7990.4842    8872.9505     4880.227    6167.9145   -1064.5061   -1129.2208    1561.3174   -3581.4008 
 4231000    255.98716   -4872.4309    -4360.425   -4872.4309            0    8995.3969    18.018816    22.938894    19.133751     7908.586     7109.643    9159.0857    10717.462    595.88011    827.96416    1161.4787   -3322.9084 
 4232000    238.51393   -4853.2957   -4376.2384   -4853.2957            0     9810.667    17.664993    22.946679    19.408675    7867.3629    10465.898    9231.0488    9735.0543   -2337.2627    287.01477   -335.67949   -3250.5878 
 4233000    237.66235    -4862.714   -4387.3599    -4862.714            0    9788.1199    18.076118    22.750367    19.140123    7871.1517    11611.318    6908.3997    10844.642   -340.01307   -2018.0676   -255.11934   -3263.7555 
 4234000    253.84622     -4872.97   -4365.2462     -4872.97            0    8660.4286    18.019675    22.681384    19.392387    7925.8849    8141.2177     9253.787     8586.281    715.38487    533.34617   -177.64624   -3364.1795 
 4235000    227.98458   -4863.8349   -4407.8376   -4863.8349            0    8404.9505    18.002894     22.70304    19.322586    7897.5353    9576.5869    7834.9965     7803.268   -1795.2408   -955.40428   -1048.3376   -3439.7768 
 4236000    242.57433   -4884.7157   -4399.5371   -4884.7157            0    8571.0103      18.1079    22.662202    19.323576    7929.7169     8985.893    8294.0976    8433.0404    529.12567    195.01961   -296.49639   -3408.3273 
 4237000    241.93791   -4885.8593   -4401.9536   -4885.8593            0    7723.3759    17.963998     22.69535    19.520487    7958.4874    8265.5491    8541.0655    6363.5131   -118.18958    606.17831   -730.52814   -3505.5294 
 4238000    245.17034   -4864.2331   -4373.8621   -4864.2331            0    6809.7409     18.21603    22.833001    19.203039     7987.055    5054.9666    6637.1648    8737.0914   -2041.6032   -1350.8615   -673.00499    -3580.643 
 4239000    231.98609   -4854.9596   -4390.9587   -4854.9596            0    6650.3221    17.977785    22.849563    19.408622    7972.7615    6715.3285    7291.0504    5944.5875    581.44832   -1222.8234    220.83648   -3617.6955 
 4240000    253.93855    -4890.403   -4382.4945    -4890.403            0    6261.1537    18.000218    22.857052    19.406425    7984.4229    5428.5392    7173.9804    6180.9415   -1350.4406    15.278111   -1257.7837   -3653.4169 
 4241000    238.75738   -4885.1301   -4407.5858   -4885.1301            0    8862.0613    18.244487    22.656976    19.162675    7921.1777    7239.2616    9375.0186    9971.9039   -259.99312    1451.0788   -949.61929   -3383.8205 
 4242000    240.99535   -4878.1679   -4396.1474   -4878.1679            0    6635.2797    17.876034     22.89577    19.451386    7961.1717    6555.1614    6745.2262    6605.4516   -824.34211    527.57815   -1757.9503   -3625.7548 
 4243000    252.37295   -4859.4554   -4354.6783   -4859.4554            0    9180.9439    18.007051    22.937539    19.160318    7913.9285    8739.5178    9398.2875    9405.0264    1236.1445    1307.1134   -47.691771   -3295.0457 
 4244000    246.44582   -4856.0946   -4363.1725   -4856.0946            0    7357.9865    17.749851    23.137791    19.381723    7959.9254    8602.3104    6164.7384    7306.9106   -102.04889   -447.96733    194.89961   -3509.0034 
 4245000     251.5152    -4855.699   -4352.6375    -4855.699            0    6201.1067    17.994294    23.334728     19.01733    7985.2241    5912.7583    5475.8272    7214.7345   -1400.1562   -307.55117   -133.58315   -3630.4796 
 4246000     237.2748   -4868.0871   -4393.5082   -4868.0871            0    6700.0274    17.750939    23.090582    19.397683    7950.7129    8429.0856     6385.646    5285.3508    942.73764    432.50027       1450.4     -3616.62 
 4247000    231.99428    -4845.348   -4381.3308    -4845.348            0    8711.9672     17.88822    23.269769    19.022846    7918.3502    8398.9658    7803.4676    9933.4681   -1629.1321    -59.50752    -1265.896    -3375.264 
 4248000    244.31214   -4848.6343   -4359.9798   -4848.6343            0    7856.9022    17.963922    22.949302    19.292239    7953.4081    8203.7789    7471.4747    7895.4531    678.90625   -596.87219   -1533.3173   -3448.6397 
 4249000    243.02741    -4896.762   -4410.6771    -4896.762            0    5788.4526    18.007508    22.887285    19.374442    7985.0397    5717.9639    6425.3339    5222.0601   -299.07191    135.33548   -2489.8331   -3736.5909 
 4250000    244.08195   -4841.7186   -4353.5245   -4841.7186            0    7428.9323    18.055623    22.828411    19.286562    7949.5579    7973.1144    6860.2489    7453.4336   -91.692453   -1612.8668   -666.41841   -3492.2427 
Loop time of 456.59 on 64 procs for 250000 steps with 1008 atoms

Performance: 94.614 ns/day, 0.254 hours/ns, 547.538 timesteps/s
194.8% CPU use with 32 MPI tasks x 2 OpenMP threads

MPI task timing breakdown:
Section |  min time  |  avg time  |  max time  |%varavg| %total
---------------------------------------------------------------
Pair    | 36.421     | 40.037     | 43.517     |  26.3 |  8.77
Bond    | 1.0599     | 1.2275     | 1.4227     |   8.6 |  0.27
Kspace  | 225.59     | 229.87     | 237.52     |  16.0 | 50.34
Neigh   | 3.1204     | 3.274      | 3.58       |   6.9 |  0.72
Comm    | 72.348     | 77.024     | 80.011     |  21.1 | 16.87
Output  | 0.60204    | 0.6055     | 0.60801    |   0.2 |  0.13
Modify  | 88.967     | 91.742     | 93.535     |  10.0 | 20.09
Other   |            | 12.81      |            |       |  2.81

Nlocal:        31.5000 ave          35 max          25 min
Histogram: 1 0 1 4 3 1 5 3 5 9
Nghost:        2889.66 ave        2910 max        2858 min
Histogram: 1 1 2 3 0 7 5 6 6 1
Neighs:        10511.2 ave       11741 max        8398 min
Histogram: 1 0 4 4 1 4 4 5 3 6

Total # of neighbors = 336359
Ave neighs/atom = 333.68948
Ave special neighs/atom = 2.0000000
Neighbor list builds = 8000
Dangerous builds = 0

unfix		3
unfix		2
unfix		1

write_data	data.final.${pid}
write_data	data.final.0
System init for write_data ...
PPPM initialization ...
  extracting TIP4P info from pair style
  using 12-bit tables for long-range coulomb (../kspace.cpp:340)
  G vector (1/distance) = 0.37957834
  grid = 24 27 32
  stencil order = 5
  estimated absolute RMS force accuracy = 0.0024048866
  estimated relative force accuracy = 7.2422447e-06
  using double precision FFTW3
  3d grid and FFT values/proc = 5355 672
Last active /omp style is kspace_style pppm/tip4p/omp
WARNING: Not all mixed pair coeffs generated from mixing. Use write_data with 'pair ij' option to store all pair coeffs. (../write_data.cpp:312)

write_restart   restart.lmp.${pid}
write_restart   restart.lmp.0
System init for write_restart ...
PPPM initialization ...
  extracting TIP4P info from pair style
  using 12-bit tables for long-range coulomb (../kspace.cpp:340)
  G vector (1/distance) = 0.37957834
  grid = 24 27 32
  stencil order = 5
  estimated absolute RMS force accuracy = 0.0024048866
  estimated relative force accuracy = 7.2422447e-06
  using double precision FFTW3
  3d grid and FFT values/proc = 5355 672
Last active /omp style is kspace_style pppm/tip4p/omp
Total wall time: 0:07:36
