LAMMPS (30 Jul 2021)
Processor partition = 0
  using 2 OpenMP thread(s) per MPI task
using multi-threaded neighbor list subroutines
variable        pid world 0 1
variable        phase world IceIh Liquid

shell cd ${phase}
shell cd IceIh
include Restart.lmp
echo both
log log.lammps
#include		in.partitions
include		in.temp
variable        temperature equal 232.00
variable	tempDamp equal 100.0
include		in.pressure
variable        pressure equal 2531.6
variable        pressureDamp equal 1000.0 # This is 1 ps
include		in.seed
variable        seed equal 745823

units		real
atom_style	full
#include		in.box
read_restart	restart.lmp.${pid}
read_restart	restart.lmp.0
Reading restart file ...
  restart file = 30 Jul 2021, LAMMPS = 30 Jul 2021
  restoring atom style full from restart
  orthogonal box = (0.053409898 0.14883717 0.21258866) to (18.154163 23.480341 22.000607)
  2 by 4 by 4 MPI processor grid
  restoring pair style lj/cut/tip4p/long/omp from restart
  restoring bond style harmonic/omp from restart
  restoring angle style harmonic/omp from restart
  864 atoms
  576 bonds
  288 angles
Finding 1-2 1-3 1-4 neighbors ...
  special bond factors lj:    0        0        0       
  special bond factors coul:  0        0        0       
     2 = max # of 1-2 neighbors
     1 = max # of 1-3 neighbors
     1 = max # of 1-4 neighbors
     2 = max # of special neighbors
  special bonds CPU = 0.002 seconds
  read_restart CPU = 0.008 seconds
include 	in.setup
variable	out_freq equal 1000
variable	out_freq2 equal 10000
variable	out_freq3 equal 1000

timestep	2.0

neigh_modify    delay 7 every 1

include		in.tip4p
# This is TIP4P/Ice

# create groups ###
group ox type 2
288 atoms in group ox
group hy type 1
576 atoms in group hy

# set charges - beside manually ###
set group ox charge -1.1794
Setting atom values ...
  288 settings made for charge
set group hy charge 0.5897
Setting atom values ...
  576 settings made for charge

# ### TIP3P Potential Parameters ###
pair_style lj/cut/tip4p/long/omp 2 1 1 1 0.1577 8.5
pair_coeff 1 1*2 0.000 0.000
pair_coeff 2 2 0.21084 3.1668
bond_style  harmonic
bond_coeff  1 450 0.9572
angle_style harmonic
angle_coeff 1 55 104.52
kspace_style pppm/tip4p/omp 1.0e-5
pair_modify tail yes

thermo          ${out_freq}
thermo          1000
thermo_style    custom step temp pe etotal epair emol press lx ly lz vol pxx pyy pzz pxy pxz pyz enthalpy

restart 	${out_freq3} restart.lmp.${pid} restart2.lmp.${pid}
restart 	1000 restart.lmp.${pid} restart2.lmp.${pid}
restart 	1000 restart.lmp.0 restart2.lmp.${pid}
restart 	1000 restart.lmp.0 restart2.lmp.0


include         in.dump
dump            myDump all atom ${out_freq2} dump.water.${pid}
dump            myDump all atom 10000 dump.water.${pid}
dump            myDump all atom 10000 dump.water.0
dump            myDump2 all dcd ${out_freq2} dump.dcd
dump            myDump2 all dcd 10000 dump.dcd
dump_modify     myDump append yes
dump_modify     myDump2 append yes


variable natoms 	equal  "count(all)"                        # NUMBER ATOMS
variable H      	equal  "enthalpy/v_natoms"                 # ENTHALPY-per-atom
variable Vol      	equal  "vol/v_natoms"                 # volume-per-atom
fix AVG all 		ave/time ${out_freq} 1 ${out_freq} v_Vol v_H file vol_enthalpy.dat
fix AVG all 		ave/time 1000 1 ${out_freq} v_Vol v_H file vol_enthalpy.dat
fix AVG all 		ave/time 1000 1 1000 v_Vol v_H file vol_enthalpy.dat


timer           timeout 23:50:00 every 1000
New timer settings: style=normal  mode=nosync  timeout=23:50:00

fix 		1 all shake 1e-6 200 0 b 1 a 1
Finding SHAKE clusters ...
       0 = # of size 2 clusters
       0 = # of size 3 clusters
       0 = # of size 4 clusters
     288 = # of frozen angles
  find clusters CPU = 0.000 seconds
fix             2 all nph aniso ${pressure} ${pressure} ${pressureDamp}
fix             2 all nph aniso 2531.6 ${pressure} ${pressureDamp}
fix             2 all nph aniso 2531.6 2531.6 ${pressureDamp}
fix             2 all nph aniso 2531.6 2531.6 1000
fix             3 all temp/csvr ${temperature} ${temperature} ${tempDamp} ${seed}
fix             3 all temp/csvr 232 ${temperature} ${tempDamp} ${seed}
fix             3 all temp/csvr 232 232 ${tempDamp} ${seed}
fix             3 all temp/csvr 232 232 100 ${seed}
fix             3 all temp/csvr 232 232 100 745823


run             250000
PPPM initialization ...
  extracting TIP4P info from pair style
  using 12-bit tables for long-range coulomb (../kspace.cpp:340)
  G vector (1/distance) = 0.37209486
  grid = 24 27 25
  stencil order = 5
  estimated absolute RMS force accuracy = 0.0031047417
  estimated relative force accuracy = 9.3498374e-06
  using double precision FFTW3
  3d grid and FFT values/proc = 4410 672
Last active /omp style is kspace_style pppm/tip4p/omp
Neighbor list info ...
  update every 1 steps, delay 7 steps, check yes
  max neighbors/atom: 2000, page size: 100000
  master list distance cutoff = 10.8154
  ghost atom cutoff = 10.8154
  binsize = 5.4077, bins = 4 5 5
  1 neighbor lists, perpetual/occasional/extra = 1 0 0
  (1) pair lj/cut/tip4p/long/omp, perpetual
      attributes: half, newton on, omp
      pair build: half/bin/newton/omp
      stencil: half/bin/3d
      bin: standard
Setting up Verlet run ...
  Unit style    : real
  Current step  : 7500000
  Time step     : 2
  Walltime left : 23:49:59.93
Per MPI rank memory allocation (min/avg/max) = 10.19 | 10.21 | 10.22 Mbytes
Step Temp PotEng TotEng E_pair E_mol Press Lx Ly Lz Volume Pxx Pyy Pzz Pxy Pxz Pyz Enthalpy 
 7500000    248.57798   -4283.2679   -3857.2137   -4283.2679            0    3768.9181    18.100753    23.331503    21.788018    9201.4674    3921.6932    4887.0417    2498.0192    -487.6748    193.74855   -174.93006   -3351.4477 
 7501000    243.57744   -4302.0094    -3884.526   -4302.0094            0    3345.5771    17.951182    23.121175    22.165764    9199.9539    2947.0424    4060.5666    3029.1223    202.28389    273.59664    367.81903   -3435.6436 
 7502000    235.74377    -4294.709   -3890.6522    -4294.709            0    3297.9512    18.006369    23.280602    22.038718    9238.6105     3506.206    3039.6478    3347.9997    803.45361   -130.65727     654.8008   -3446.3006 
 7503000    233.26496   -4300.2731    -3900.465   -4300.2731            0    3249.9299    17.922186    23.380724    21.919186    9184.8772    3998.8962    2224.1688    3526.7247    186.26154    21.552922    -241.1127   -3465.1303 
 7504000    217.33376     -4307.67   -3935.1674     -4307.67            0    1883.5616    17.761611    23.420186    22.253146    9256.8685    3618.2726    1594.7637    437.64853    241.89529     527.4616    206.36864   -3680.8829 
 7505000    233.69235   -4283.0507     -3882.51   -4283.0507            0    3020.3155    18.049239    23.367583     21.70768    9155.5849    2182.8086     2229.855    4648.2829   -705.74996   -779.27837   -187.37541   -3479.2229 
 7506000    225.38052    -4267.022   -3880.7275    -4267.022            0    2160.4042    18.079991    23.253799    21.975689    9239.2055    569.05702    3555.5516    2356.6038    1242.3763   -232.19354    839.91489   -3589.6253 
 7507000    234.28132   -4293.9866   -3892.4364   -4293.9866            0    3417.8725    17.948719     23.34474    21.917211    9183.4907    4546.0622    2776.8671    2930.6884   -212.76664    302.34825    763.94815   -3434.6746 
 7508000    243.15659   -4292.9796   -3876.2175   -4292.9796            0    3339.8671    18.007777    23.258917    21.906215    9175.2298    2488.9534    2739.3277    4791.3201    595.72794    642.12401    916.17772   -3429.3055 
 7509000    237.51671   -4281.7154   -3874.6199   -4281.7154            0     2308.081    18.116799    23.097132    22.234355    9303.8791    1831.9779     2679.847    2412.4182    1327.0845   -182.68803   -79.597148   -3561.4421 
 7510000    239.11464   -4304.5186   -3894.6843   -4304.5186            0    1498.4848    18.123339    23.397203    21.915014    9292.7423    469.80226    425.37135    3600.2809    416.55021   -7.7794105    421.11212    -3691.602 
 7511000    235.46922   -4294.8471   -3891.2609   -4294.8471            0    3194.5836    17.900019     23.24503    22.145109    9214.2805     3833.772    2641.8981    3108.0805    377.89779   -394.66605    356.38658   -3461.9701 
 7512000    243.52035    -4274.501   -3857.1155    -4274.501            0    2009.7844    18.144361    23.152387     22.02766    9253.4952     1566.415    1897.3476    2565.5906   -442.97467    320.25851   -67.853671   -3585.8896 
 7513000    242.00051   -4291.5942   -3876.8136   -4291.5942            0     3212.526    18.171397    23.275189    21.770714    9207.7646    4080.5361     1196.159    4360.8828   -897.32901    47.853125    208.53374   -3445.4169 
 7514000    224.90514   -4304.3742   -3918.8945   -4304.3742            0     2598.178    17.945569    23.408745    22.057121    9265.8269     2850.606    3252.8634    1691.0645     1054.976    302.20618    504.17094    -3567.796 
 7515000    233.64001   -4296.3644   -3895.9134   -4296.3644            0    3288.6997    17.900548    23.606915    21.833902    9226.4984    3531.9752    2689.8375    3644.2863   -111.68244    392.45708    503.45236   -3453.3892 
 7516000    237.21521    -4306.614   -3900.0353    -4306.614            0    3022.3779    17.917629    23.585723    21.901694    9255.6608    3004.1167    1438.9538    4624.0633   -712.48781     -570.214    196.02397   -3492.0616 
 7517000    234.99484   -4296.6942   -3893.9211   -4296.6942            0    3060.0061    18.059279    23.529833    21.810037    9267.7787    2754.9845    3161.7561    3263.2777   -162.09334   -943.21607    449.65592   -3480.3275 
 7518000    231.32091   -4320.1011   -3923.6249   -4320.1011            0    2632.4768    18.069808    23.163228    22.074365    9239.3377    2520.4226    2483.2793    2893.7286    302.86327   -81.471559     238.7263   -3568.9085 
 7519000    230.58866   -4289.1273   -3893.9062   -4289.1273            0    3032.9082    18.119696    23.212715     21.89686    9209.9798    3152.5722      2238.81    3707.3423    367.88242    338.87827    527.90978   -3486.5317 
 7520000    223.02498   -4297.2227   -3914.9655   -4297.2227            0    1260.5497    17.979783    23.612833    21.934134    9312.2158    1035.1638     -224.364    2970.8493    59.137309     233.3402    5.2859028   -3743.7714 
 7521000    243.92332   -4331.6372    -3913.561   -4331.6372            0    2213.2664     17.79448    23.633152     22.01474    9258.0714    2823.9601    2097.0402    1718.7991    18.685129   -286.25952    584.60411   -3614.7269 
 7522000    242.40691   -4292.2475   -3876.7704   -4292.2475            0    2799.8816    18.015463    23.369321    21.961901    9246.1608    2883.8853    2504.7083    3011.0512   -905.84461    74.952824   -571.16437   -3499.2182 
 7523000     235.8848   -4329.2659   -3924.9674   -4329.2659            0    2187.8318    18.193153     23.16519    22.007922    9275.1914    1161.7142    2300.6503     3101.131   -419.49751    590.36448    226.65139   -3629.0212 
 7524000    249.30445   -4270.4976   -3843.1983   -4270.4976            0    2723.6999    18.120252    23.178897    22.057161    9264.1722    3049.2371     2802.643    2319.2195    -1519.648   -451.25504     525.6573   -3475.2035 
 7525000    220.42345   -4273.5906   -3895.7924   -4273.5906            0    892.63669    17.985866    23.623649    22.023387    9357.5562    2318.8833    541.35002   -182.32325    14.253235    109.93522    462.66125   -3773.9739 
 7526000    241.84111   -4280.7625   -3866.2551   -4280.7625            0    2424.2642    17.832108    23.623322     22.05099    9289.0598      2647.71     1962.603    2662.4795   -510.06367    155.77128   -260.50531   -3537.8366 
 7527000    238.22824   -4288.3274   -3880.0124   -4288.3274            0    2307.1822    17.996349    23.470649    22.038972    9308.9533    3146.6478    2061.2443    1713.6545   -253.74422   -455.34673    518.95647   -3566.7858 
 7528000    231.58873   -4308.7848   -3911.8496   -4308.7848            0    2267.5025     18.21097    23.090184    21.956342    9232.5243    1665.2523    3776.2702    1360.9851   -95.153564    46.972805    570.13251   -3606.5375 
 7529000    226.60474   -4321.1931   -3932.8003   -4321.1931            0    2860.8237    18.087505    23.148678    22.045696    9230.5735    2603.2706    3659.8849    2319.3158   -913.16475   -641.65855    420.26575   -3547.6807 
 7530000     236.6927   -4278.3722    -3872.689   -4278.3722            0     2292.393    18.051706     23.22083    22.112626     9269.073    2844.6085    1783.6055     2248.965   -12.427277   -277.82273   -250.96386   -3562.8035 
 7531000    253.29607   -4305.2236   -3871.0828   -4305.2236            0    2042.7764    17.905385    23.707857    21.882747    9289.1888    1207.5568    1656.4577    3264.3146     450.3824   -647.49282    19.215133   -3594.3412 
 7532000    235.48654   -4284.6593   -3881.0434   -4284.6593            0    2843.4384     17.95148    23.436054     21.98234    9248.2306    2872.2793    3340.6726    2317.3635   -152.76424   -352.32942   -444.70662   -3497.5319 
 7533000    228.31713   -4280.1734   -3888.8457   -4280.1734            0    1095.3881    17.893537     23.34445    22.388752    9352.1129    2455.7305    2458.8774   -1628.4437   -294.74729    -931.1842   -129.33446   -3739.4446 
 7534000    239.61291   -4330.2356   -3919.5473   -4330.2356            0    3621.4802    18.057088    23.360278    21.727909     9165.236    2982.5444    2255.7842    5626.1122    354.36423    274.63376   -309.36549   -3435.4801 
 7535000    229.57393   -4329.0435   -3935.5616   -4329.0435            0    1622.6497    18.102174    23.342099    22.040573    9313.0838     1568.198    728.25019    2571.5008    608.91195     515.1939    322.71864   -3715.1704 
 7536000    218.39048   -4291.8377   -3917.5239   -4291.8377            0    3403.0669    17.968771    23.044823    22.283447    9227.2887    4453.1528    3582.3687    2173.6792   -533.31416   -189.64581   -843.39225   -3459.5713 
 7537000    233.17355   -4290.0046   -3890.3532   -4290.0046            0    2054.6948     18.05535    23.403541    21.927008    9265.4567    1673.0947    915.52298    3575.4666    514.95582    670.91606   -613.37237    -3612.708 
 7538000    235.44813   -4297.3202   -3893.7702   -4297.3202            0    2803.1221    17.719314    23.866975    21.833398    9233.4845    2560.2518    1724.7232    4124.3914   -560.09695   -140.08076   -1084.8896   -3516.2992 
 7539000    236.66617   -4298.1829   -3892.5451   -4298.1829            0    4543.8741    17.856829    23.406985    22.030673    9208.2602    4259.8115    2655.3757     6716.435   -5.2748774   -484.11945    390.04991   -3282.3345 
 7540000    225.90964   -4301.6395   -3914.4381   -4301.6395            0    2240.7269     18.07388    23.222327    22.011785    9238.7324       1557.5    1141.3711    4023.3096    1585.7883    1306.7474    287.85056   -3612.5283 
 7541000    217.94698   -4274.4991   -3900.9454   -4274.4991            0    2237.9997    18.104947    23.237284    22.044105    9274.1707    2451.7757    3130.0664     1132.157   -525.44966    89.578165    323.11824   -3598.2464 
 7542000    234.34105   -4308.6645    -3907.012   -4308.6645            0    2330.6124    17.942602    23.442887    22.109276    9299.7446     2984.317     2791.721    1215.7993    642.29056   -150.93248    523.43246   -3590.9175 
 7543000    231.03514   -4280.1387   -3884.1524   -4280.1387            0    2647.2286    17.923009    23.621878    21.857494    9253.9193    3715.7756    933.16428    3292.7461    745.17637    165.03957    223.15171   -3526.8853 
 7544000    225.30803   -4278.3175   -3892.1472   -4278.3175            0    2244.3645    17.942451    23.313744    22.157562    9268.6346     2551.894    1861.1378    2320.0616   -211.56953    357.38509    1725.4363   -3588.7686 
 7545000    217.78229   -4317.8609   -3944.5895   -4317.8609            0    1339.9181    18.293752    23.269134    21.936052    9337.7331    1270.6582    1556.2782     1192.818    550.22644    222.05761    261.26826   -3762.1178 
 7546000    221.79945   -4261.2437    -3881.087   -4261.2437            0    2211.5254    18.170833    23.180764     22.01295    9272.1582    2300.2916    2547.2206     1787.064   -897.41475   -99.882566    320.00236   -3582.0337 
 7547000    231.74328   -4306.7519   -3909.5519   -4306.7519            0    2635.4934    18.054517    23.206851    22.094259      9257.24    2364.1363    4119.2723    1423.0716    50.432743    14.083817   -527.22289   -3553.7409 
 7548000    230.69827   -4286.9129    -3891.504   -4286.9129            0    1192.6085    18.060055    23.546328    22.017121    9362.7361    903.53845    2278.0812    396.20577   -169.13764    -871.9719    850.10043   -3728.6582 
 7549000    233.63314    -4281.795   -3881.3558    -4281.795            0    2187.8513    17.964306    23.704509    21.791249    9279.4775    1315.7002    1394.7051    3853.1486   -1457.4852    39.750971    99.349257   -3585.2702 
 7550000    229.86014   -4302.8099   -3908.8375   -4302.8099            0     3697.285    17.830813    23.472994    22.001594    9208.6035    3538.1157    2807.7319    4746.0074   -189.31087    526.31322   -166.66497   -3412.2994 
 7551000    242.63491     -4291.22   -3875.3521     -4291.22            0    1367.6589    18.193368    23.199887    21.967657    9272.1988   -94.692126     3091.993    1105.6757    86.295711    509.88886   -216.74749   -3690.4097 
 7552000    234.61922   -4307.2815   -3905.1522   -4307.2815            0    3006.5175    18.058403    23.048158    22.178649    9231.0403     1716.341    4149.3198    3153.8916   -266.27785    51.056111    1288.3789    -3500.399 
 7553000     225.8015   -4304.7805   -3917.7645   -4304.7805            0    2656.1816    18.117569    23.371791    22.027608    9327.3707    2518.5346    2635.2595    2814.7508   -352.74122   -630.78099   -414.55876   -3556.4438 
 7554000    236.11535   -4290.0835   -3885.3899   -4290.0835            0    2777.3798    18.042702     23.36677     21.94375     9251.478    2407.6834    3364.1445    2560.3116   -1416.8027    -76.92369   -345.05795   -3510.6566 
 7555000    228.64529   -4292.9499   -3901.0596   -4292.9499            0    2648.5189    17.903968    23.526471    22.079007    9300.0572    2788.4633    1055.2851    4101.8082   -632.92895    233.77527   -209.29185   -3541.8363 
 7556000    247.12742   -4289.8658   -3866.2979   -4289.8658            0    3747.2162    17.709122     23.79434    21.841257    9203.4002    4481.6971    2045.2739    4714.6776   -303.22671    521.15892    209.62318   -3363.3385 
 7557000    236.50642   -4304.8749    -3899.511   -4304.8749            0    3135.9806    17.892741    23.553188    21.942813    9247.3838    2539.9897    3273.8262    3594.1259    466.85392    497.18645   -478.40658   -3476.5814 
 7558000    244.21863   -4314.6577   -3896.0753   -4314.6577            0    2259.8029    18.194251    22.971133    22.127444    9248.0005    678.79281    3212.4274    2888.1885   -565.05896   -211.15796    704.58318   -3591.2898 
 7559000    225.53174   -4279.5702   -3893.0165   -4279.5702            0    3426.6335    18.114351    23.225962     21.94323    9232.0264    2525.1265     4287.506    3467.2681   -812.00915     -896.035    148.98782   -3431.6558 
 7560000    225.66129   -4316.0996   -3929.3238   -4316.0996            0    2186.1673    18.115659    23.422169    21.867421    9278.5221   -745.36152    4103.9101    3199.9535    239.05126   -978.90134    698.09348   -3633.4966 
 7561000    219.72462   -4271.0051   -3894.4046   -4271.0051            0    2889.6605    17.711573    23.648235    21.987911    9209.5802    3600.8576     1536.065    3532.0588   -1388.7812     3.731965     649.1465   -3506.2877 
 7562000    237.95754   -4289.4112   -3881.5602   -4289.4112            0    3334.3448    17.839911    23.537735    21.920898    9204.8282    4879.7336    2429.6549     2693.646   -638.84417    14.338385    170.06401   -3433.9478 
 7563000    243.47655   -4280.2653   -3862.9548   -4280.2653            0    3745.4615    17.852593    23.444439    21.966331    9193.8765    3992.3123    4592.4346    2651.6376    200.93935    2.8579815    92.861245   -3360.7511 
 7564000    223.64794   -4276.3898   -3893.0649   -4276.3898            0    4151.8792    18.033155    23.191523    21.917691    9166.3361    4083.4151    3114.8965    5257.3262   -68.868891     148.7574   -772.34225    -3338.035 
 7565000     226.9221   -4314.3286   -3925.3919   -4314.3286            0    477.27842    18.326657    23.164399    22.015147    9346.0019     123.4824    1975.8585   -667.50567    147.35696   -17.565325      365.706    -3860.338 
 7566000    254.44879   -4309.8935    -3873.777   -4309.8935            0    1981.0055    17.962495    23.296828    22.163876    9274.8986    2896.0667    1359.0667    1687.8833    734.34089   -673.48792    -773.7518   -3605.8165 
 7567000    224.13258   -4316.9008   -3932.7452   -4316.9008            0    2586.7619    17.920566      23.5901    21.839758    9232.7126    2371.5276    2260.4561    3128.3022   -415.26989    1115.8245   -118.94003   -3584.4386 
 7568000    229.99254   -4307.2504    -3913.051   -4307.2504            0    2972.8271    17.850188    23.416121    22.058778    9220.1757    3741.8073    3018.6356    2158.0384    577.33862   -115.43877    990.42681   -3513.3045 
 7569000    219.20893   -4309.7774   -3934.0608   -4309.7774            0    3737.9765     17.90192    23.338396    21.903494    9151.3259    3501.1744    3627.7994    4084.9556   -657.40841   -520.46265   -232.85972   -3435.1804 
 7570000    231.94959   -4296.2987   -3898.7451   -4296.2987            0    1492.0081    18.235285    23.429488    21.913859    9362.5514    2345.7465    1770.7458    359.53189   -707.50691    282.83824   -242.45295   -3695.0215 
 7571000    235.76763   -4308.9864   -3904.8887   -4308.9864            0    2332.4216     18.11264     22.99659    22.180025    9238.6226    2126.5965    3257.2991    1613.3691    1242.1012   -758.80721   -571.27186   -3590.6279 
 7572000    251.72547    -4276.703   -3845.2541    -4276.703            0    2295.1969    18.003332    23.310499    22.043606    9250.9663    2585.3588    3043.1284    1257.1034   -774.04717        289.7   -98.707712   -3535.5957 
 7573000    220.72251    -4309.094   -3930.7831    -4309.094            0    1564.9796    17.708043    23.569141    22.194619    9263.2206    3097.6664     2540.565   -943.29261   -71.396325    365.18759   -111.77015   -3719.3629 
 7574000    237.75643   -4319.0756   -3911.5692   -4319.0756            0     1260.528    17.966041    23.559467    21.990961     9308.122    1755.3591    764.28619    1261.9387   -983.83062   -629.33752   -784.90855   -3740.4532 
 7575000    232.69451   -4304.1062   -3905.2758   -4304.1062            0    951.34343    18.133323    23.466689    21.896794    9317.7222   -574.47568    684.33237    2744.1736    269.85261    253.89777    1158.6035   -3775.9982 
 7576000    224.78348   -4298.5034   -3913.2322   -4298.5034            0    1890.7882    18.090972    23.133763    22.232946    9304.7604    1690.2499    2573.4895    1408.6254    -588.4743   -1085.6568    629.74084   -3656.6515 
 7577000    221.05937   -4301.9104   -3923.0222   -4301.9104            0    2563.3695     18.14405    23.256094    21.923529    9250.8465    1374.2487     4015.879    2299.9808    589.88849   -244.15657    10.296425   -3577.1875 
 7578000    238.04241   -4267.2909   -3859.2943   -4267.2909            0    2130.4338    17.920424    23.391915    22.121845    9273.3232    1960.3525    2910.8149     1520.134   -258.69531   -150.75383    530.50651   -3571.1704 
 7579000    230.42836   -4302.8988   -3907.9525   -4302.8988            0    2952.5487    17.736021    23.595403    22.074434    9237.8981    4096.4591    2265.6469    2495.5402   -756.38684    394.96266    -255.1718   -3510.1695 
 7580000    240.36256   -4273.5971   -3861.6239   -4273.5971            0    3063.7372       17.917    23.603391    21.845405    9238.4649    3663.5795    2824.8792     2702.753   -244.78057   -284.11031    383.22921   -3448.8358 
 7581000    224.01614    -4286.452    -3902.496    -4286.452            0    1773.0156    18.028572    23.400728    22.013717    9287.1845    1971.6289    2706.3997    641.01832   -50.136089    748.31089    300.76204   -3662.3515 
 7582000    237.02076   -4322.6109   -3916.3654   -4322.6109            0    3110.7763    18.183688    23.131668    21.935902    9226.6577    3932.6075    2049.1026    3350.6187   -661.28402    167.21355    -90.68807   -3497.7752 
 7583000    225.36822   -4305.1384    -3918.865   -4305.1384            0    2902.3147    17.957763    23.271914    22.060099    9219.1695    3807.5425    3357.4132    1541.9882   -94.728964    666.23032   -236.45526   -3528.6426 
 7584000    248.87632   -4292.9651   -3866.3996   -4292.9651            0    1896.6517    17.885447     23.59122    22.014337    9288.7186    621.44913    2783.5636    2284.9423    827.70722    269.20537   -293.47521   -3609.4669 
 7585000    222.68817   -4275.4626   -3893.7827   -4275.4626            0    2862.9807    17.757053    23.602282    21.935053    9193.1341    4077.6993    2606.5521    1904.6907    185.26483   -124.00383    213.27344   -3509.9359 
 7586000    226.42602   -4286.8145   -3898.7281   -4286.8145            0    2194.0452    17.996445    23.349829    22.126249     9297.758    1607.4148    2720.8053    2253.9154   -1352.8646    321.54726   -111.16748   -3601.2193 
 7587000    224.66708   -4295.1512   -3910.0795   -4295.1512            0    3433.3293    18.132454    23.166816    21.883037    9192.4343    2886.0637     4145.681    3268.2433    191.39221    540.96727    603.20026   -3449.7997 
 7588000    231.16658    -4266.117   -3869.9054    -4266.117            0    2800.8519    18.057871    23.466821    21.910659    9284.8788    3072.1698    2886.0123    2444.3737    223.76755   -339.66893   -983.80275   -3490.6408 
 7589000    221.79651   -4306.9561   -3926.8045   -4306.9561            0    3049.3319    17.706134    23.423185    22.109297    9169.4782    4472.9321    2622.5464     2052.517    88.267502   -161.83458    771.15518   -3519.0252 
 7590000    223.21395   -4280.7143   -3898.1332   -4280.7143            0    2496.8344      18.0187    23.408613    21.916427    9244.1909     2552.457    3270.0154    1668.0308    570.00112   -629.27908    857.50454   -3561.5174 
 7591000    227.87746   -4315.8209   -3925.2468   -4315.8209            0    3515.4918    18.044269    23.141028    21.994221    9183.9715    3210.1138    3330.9235    4005.4381    926.04841    757.89995    610.84859    -3454.386 
 7592000    237.23936   -4284.5454   -3877.9252   -4284.5454            0    2235.8729    17.958984    23.170015    22.256326    9261.0785    2865.2875    3812.2431     30.08812    92.092348   -54.006878    31.030555   -3575.9408 
 7593000    234.36013   -4323.7089   -3922.0237   -4323.7089            0    2092.3904    18.063215    23.422176    21.844293    9241.8789    1531.8898    1812.7581    2932.5232   -204.60809    -155.1704    90.480673   -3640.0044 
 7594000    227.48647   -4298.4492   -3908.5452   -4298.4492            0    2394.5199    17.965406    23.480834    21.896704    9236.9649    3157.6016    1747.4753    2278.4827    1217.0669   -335.51556    309.85799   -3585.9755 
 7595000    226.14333   -4304.7892   -3917.1872   -4304.7892            0    3643.1657    17.744748    23.448525    22.119714    9203.7513    4098.9012    2927.6544    3902.9416   -1028.7521    921.10379     1195.998    -3428.175 
 7596000    236.18197   -4292.1686   -3887.3608   -4292.1686            0    1590.3952    18.215587     23.39878    21.897477    9333.1978     1280.979    1501.6425     1988.564    519.16974   -78.879902   -553.39735   -3670.8839 
 7597000     236.7194   -4298.2461   -3892.5172   -4298.2461            0    2640.9212    18.108081    23.142628    22.062456    9245.6821    2801.2911    1996.7575    3124.7148    332.26593    675.71925   -47.246214   -3536.4185 
 7598000    223.68503   -4305.0885   -3921.7001   -4305.0885            0    3811.9314    18.009749    23.332205    21.929565    9214.9604    3021.4002    5143.5091    3270.8851   -864.30896    334.05419     1010.404   -3409.4117 
 7599000    236.00001   -4293.6611   -3889.1652   -4293.6611            0    3134.2475    17.876112    23.670707     21.72835    9194.1388    3394.7671    2657.8468    3350.1286   -91.267644    177.99586    197.63371    -3468.903 
 7600000    234.62092   -4321.1733   -3919.0411   -4321.1733            0    3153.8337    17.850546    23.435088    22.046192     9222.564    4329.2867    2724.9116    2407.3029   -582.91462    683.22544    479.56575   -3494.8453 
 7601000    227.50426   -4330.2359   -3940.3014   -4330.2359            0    1901.5046    18.013939    23.401385    21.999747    9274.0183    1846.8062    2129.8499    1727.8578   -910.41038    647.39541     515.5755    -3683.119 
 7602000    243.14021   -4296.9308   -3880.1968   -4296.9308            0    2780.9205    18.060073    23.331546    21.967882    9256.5935    3010.2261    3768.8668    1563.6688   -119.87194    139.19054    659.00123   -3504.7783 
 7603000    237.01432   -4296.8359   -3890.6015   -4296.8359            0    1966.6401    17.851316    23.501589     22.11013    9275.9578    2254.0483    1681.6286    1964.2434    193.95746    454.49335    665.06739   -3624.5537 
 7604000    236.79793   -4307.1001   -3901.2366   -4307.1001            0    3382.7765    18.162983    23.398304     21.73014      9234.94    2704.2286    2680.4368    4763.6641    313.57113   -1.8279701   -664.27173   -3445.6371 
 7605000    239.53088    -4293.506   -3882.9582    -4293.506            0    1302.6442    18.089477    23.275074    22.102195    9305.7737    1144.4146    790.82708    1972.6907   -969.42098    763.47871    444.75261   -3706.1697 
 7606000    226.65456   -4316.6099   -3928.1317   -4316.6099            0    3242.1168    17.909303    23.297317     22.01935    9187.3252    4500.2003    2665.7211    2560.4291   -139.50907   -473.77802   -170.88352   -3493.7279 
 7607000    239.70965   -4326.9523   -3916.0981   -4326.9523            0    2790.0926    17.976409    23.456631    21.789761    9188.0013    3078.5542    2221.9395    3069.7843    539.93223   -65.670085   -383.07565   -3542.2325 
 7608000    227.23162   -4292.5368   -3903.0696   -4292.5368            0    1245.9067    17.960822     23.39938    22.261915    9356.0617    2257.5018    1274.1061     206.1121   -40.316689   -961.14503    84.628018   -3733.0674 
 7609000    227.14279   -4304.0737   -3914.7588   -4304.0737            0    2424.8835    18.051427    23.263612    22.041346    9256.0731    2147.5548    3233.8351    1893.2607   -685.88876   -651.63647   -429.63795   -3587.4229 
 7610000    224.20651   -4288.2856   -3904.0033   -4288.2856            0    1661.6507    18.209333    23.316184     21.88593    9292.1567    1567.2201    2883.1291      534.603   -940.08097   -152.82335    557.91415   -3678.8221 
 7611000    235.73488   -4298.6244   -3894.5829   -4298.6244            0    2160.1488    17.938547    23.287996    22.151246    9253.7454    2034.2973    2404.6375    2041.5114   -487.01792   -541.72988    474.75184    -3603.057 
 7612000    235.80415   -4306.3513    -3902.191   -4306.3513            0    2086.7938    17.912331    23.677941    21.885662     9282.303    2453.7769    2224.8219    1581.7826   -598.20946    15.740909   -376.09596   -3619.6958 
 7613000    224.20127   -4296.6555   -3912.3822   -4296.6555            0    1346.0764    17.979468    23.467259    22.036664    9297.9036    786.06128    2310.0275     942.1403    191.41609    649.59075    544.26295   -3729.8537 
 7614000    237.24765   -4270.6472   -3864.0128   -4270.6472            0    3441.0182    17.961342    23.279787    22.059534      9223.89    3763.9242    4184.6559    2374.4744    154.84587    372.66079   -308.86609   -3401.1237 
 7615000    238.32323   -4285.1134   -3876.6356   -4285.1134            0    3263.9384    18.248748     23.19228    21.710978    9188.7391    3280.2977    2098.0988    4413.4188   -332.81784   -808.64507   -39.318575   -3439.2406 
 7616000    229.73922   -4307.8412   -3914.0761   -4307.8412            0    3585.8843    17.907125     23.27628    22.109983    9215.6902    4946.0805    3133.7865     2677.786   -577.44235   -488.58927   -158.23326   -3432.1282 
 7617000    221.63883   -4307.7705   -3927.8892   -4307.7705            0    3925.6242    17.882244    23.351775    21.979046    9178.0573    3283.1675    2974.5129    5519.1922   -953.71388    -700.0459    452.75831   -3402.4344 
 7618000    232.17568   -4317.8946   -3919.9535   -4317.8946            0    2013.5379    18.122879    23.269714     21.84489    9212.3007    2240.9203    2339.0681    1460.6254   -302.30799    62.526919    469.59362   -3649.4307 
 7619000    232.56623   -4291.3724   -3892.7618   -4291.3724            0    2684.4412    18.110496    23.340729    21.859695    9240.3593    2732.8021    3571.4241    1749.0974   -332.88608   -389.13131   -781.74125   -3531.0034 
 7620000    225.77517   -4298.2214   -3911.2505   -4298.2214            0    2531.0841     17.95319    23.501129    22.019388    9290.4251    2148.0987    2114.4031    3330.7506    490.47548   -65.079003    423.58718   -3568.3105 
 7621000    237.10498   -4323.7351   -3917.3453   -4323.7351            0    3027.4669    17.766836    23.592249    22.024734    9231.8791    2756.1085    2080.9675    4245.3247    846.75365     783.0408   -405.46357   -3509.7348 
 7622000    231.36457   -4268.3006   -3871.7497   -4268.3006            0    3754.1479    18.173456    23.210827    21.838546    9211.9562    1493.5193    4855.9307    4912.9938   -805.03539   -513.02342   -386.75286   -3367.3914 
 7623000    225.62719   -4315.0405   -3928.3232   -4315.0405            0    2733.8132    18.075689    23.014625    22.198094    9234.5227    2422.3593      4704.04    1075.0404   -1151.0006   -159.33162   -704.46461    -3560.144 
 7624000    236.21684    -4291.811   -3886.9434    -4291.811            0    2215.8582    18.044482    23.521263    22.024648    9347.8993    1611.2945    2525.7298    2510.5503    365.88287   -124.03407    -147.6548   -3584.8565 
 7625000    238.65122   -4271.8596   -3862.8196   -4271.8596            0     2206.208     17.77977    23.597932    22.174234    9303.5502    2024.9231    2644.7588    1948.9419    617.84556    761.56274   -220.55073   -3563.4753 
 7626000     232.0452   -4291.7832   -3894.0657   -4291.7832            0    3765.9971     17.93807    23.424267    21.855842    9183.5217    2876.9691    3894.4181    4526.6041    1059.0089   -288.64535    703.34828   -3389.6772 
 7627000    238.98547   -4305.5101   -3895.8972   -4305.5101            0    3273.1592    18.091934    23.438624    21.850764    9265.8174    2985.3299    4002.0892    2832.0585   -42.652422   -15.145852    -159.5637   -3453.5872 
 7628000    240.26296   -4304.6436   -3892.8411   -4304.6436            0    4164.0698    17.830854    23.195137    22.131383    9153.2984    4771.9933    4073.1667    3647.0494    -1082.362   -1496.7371   -807.69469   -3336.9733 
 7629000    235.31068    -4273.197   -3869.8825    -4273.197            0    3246.9335    18.000268    23.358317    21.904825    9210.0145    2905.8213    4190.6172    2644.3619   -533.55819    -50.51495   -3.6186452   -3433.7589 
 7630000    224.06477   -4313.9703    -3929.931   -4313.9703            0    2643.2545     17.97623    23.308551    22.056411    9241.6333    2103.2157    2887.0663    2939.4815   -358.43548    397.64877   -829.72855   -3573.6738 
 7631000    231.16345   -4323.5483   -3927.3421   -4323.5483            0    2017.4092    18.136193    23.220057    21.827676    9192.1462    1717.4397    2290.6666    2044.1213    363.31734    98.665838    494.63996   -3656.8922 
 7632000    236.32645    -4275.873   -3870.8176    -4275.873            0    1627.8595     17.84952    23.332189    22.295159    9285.2288     1662.748    3296.7831   -75.952759    111.74521   -746.15865    212.64679   -3650.3801 
 7633000    227.55869   -4308.3586   -3918.3308   -4308.3586            0    2391.9624    18.054575    23.500876    21.830767    9262.7582    2359.5069    2017.5837    2798.7967    1263.4316    187.80355    419.12113   -3595.2058 
 7634000    232.40492   -4325.2212   -3926.8871   -4325.2212            0    3181.0252    17.967222    23.360848    21.926829    9203.3377    2964.8473    3445.0992     3133.129    -248.5474   -149.25062    98.142104    -3499.926 
 7635000    226.64087   -4324.1965   -3935.7418   -4324.1965            0    1219.1339    17.902741    23.337419    22.198429    9274.5873     622.6618    1347.3685    1687.3712    265.02165    244.65654   -122.14316   -3770.8413 
 7636000    228.87659   -4287.5909   -3895.3042   -4287.5909            0    3102.0232    17.989654    23.557211    21.689624    9191.7606    1611.8639    3195.0828    4499.1229    1174.2845    -389.4783     212.2321   -3479.4706 
 7637000    221.97821   -4301.9731     -3921.51   -4301.9731            0    1124.6308    17.938649     23.40108    22.135477    9292.1136    803.94623    1736.0456    833.90049   -47.875715   -83.846142    228.23066   -3769.1046 
 7638000    234.07529    -4301.928    -3900.731    -4301.928            0    2405.4602    18.055497    23.274048    22.017016    9252.0895    3875.1978    2059.9768    1281.2059   -684.27306    237.95198   -705.92473   -3576.1569 
 7639000    226.61569   -4336.1147   -3947.7031   -4336.1147            0    963.12108    18.094757     23.33406    21.947773    9266.8795    966.71048    1197.0723    725.58046    2.8285312    53.482453    209.22533   -3817.5393 
 7640000    244.17252   -4325.3611   -3906.8577   -4325.3611            0    1993.6404    17.862537     23.49806    22.052471    9256.1936     2213.247     781.2926    2986.3815   -92.537693    293.33149   -237.67775    -3637.732 
 7641000    226.57524   -4323.0906   -3934.7484   -4323.0906            0    1493.6565     17.92467    23.553467    22.069142    9317.3299    1115.7188    1796.6426    1568.6081     -439.729   -396.35277    636.49789   -3731.7848 
 7642000    228.60418   -4311.0901   -3919.2704   -4311.0901            0    413.01787    18.287801    23.402737     21.84379    9348.8055    286.01334    18.652378    934.38789   -467.56236    354.11576   -210.49786   -3862.9584 
 7643000    224.47037   -4301.4037   -3916.6692   -4301.4037            0    3442.9086    17.928816    23.230642    22.179555    9237.7386    4000.2783    3947.3996    2381.0481   -365.60567    289.78363    960.04618   -3452.8304 
 7644000     224.0125   -4287.0388   -3903.0891   -4287.0388            0    3059.8044    18.062358    23.331405    21.882588    9221.7641    2564.8163    2809.4855    3805.1115   -238.66239    275.17189    399.08633   -3491.5761 
 7645000    235.13605   -4281.6229   -3878.6077   -4281.6229            0    2581.1683    18.331371    23.203023     21.82864    9284.6637    2125.4198     2675.251    2942.8339     1736.903    292.29025    388.95362   -3529.0987 
 7646000    223.53795   -4304.0799   -3920.9435   -4304.0799            0    3508.8663     17.95202    23.376854    22.090415    9270.5022    4030.6957    4382.8381    2113.0651    -454.5656    821.79285      508.353   -3446.5421 
 7647000    231.74404   -4328.9864   -3931.7851   -4328.9864            0    3030.3452    17.743996    23.831709    21.873826    9249.7789    4282.6601    1165.3732    3643.0021   -607.02507   -844.14711    1019.3414   -3522.9959 
 7648000    225.76675   -4326.4017   -3939.4452   -4326.4017            0    2546.3171     17.95092    23.389458    22.094143    9276.4973    3159.8845    2657.5781    1821.4885    518.39743    174.31888   -326.71678   -3594.9585 
 7649000    241.45781   -4280.5243   -3866.6739   -4280.5243            0    1907.1153    18.129234    23.109298    22.222311     9310.123    2644.8638    1737.7488    1338.7333   -850.67027     781.6499    551.39574   -3607.7284 
 7650000    219.80794   -4286.2628   -3909.5195   -4286.2628            0    2162.6415    18.256687    23.182529    21.927092    9280.3385    1286.2555    3163.3915    2038.2775    216.92341    114.50385    419.68832   -3616.8185 
 7651000    230.83205   -4272.4302    -3876.792   -4272.4302            0    1624.9218    18.005564    23.363143    22.116212    9303.5509    2040.5678    2168.8518    665.34578   -500.09547    204.20086   -260.20737   -3656.3181 
 7652000    223.14949   -4314.2501   -3931.7796   -4314.2501            0    3016.7378    17.937869    23.475654    21.842616    9197.9956    3308.0103    3675.1261    2067.0768    318.04226   -679.48055   -372.71677   -3527.1043 
 7653000    228.36631   -4285.8275   -3894.4155   -4285.8275            0    1955.2422     17.91104    23.557384    21.960585    9265.9885    2147.5985    2115.9786    1602.1494    118.33925   -269.52371   -395.17019    -3630.194 
 7654000      224.454   -4310.5582   -3925.8517   -4310.5582            0    753.04438    18.023343    23.435386    22.103626    9336.2179    1314.8037   -293.08407    1237.4135    587.07922   -687.97802   -166.99493   -3823.3178 
 7655000    230.74943    -4303.358   -3907.8614    -4303.358            0     2182.864    17.979653    23.424931    21.953745    9246.3057    3271.9872    580.16588    2696.4389    537.46955     426.4463    147.05494   -3613.5068 
 7656000     221.4928   -4330.1403   -3950.5092   -4330.1403            0    2825.5085    17.961838    23.228712    22.182857    9255.3617    3010.1778    1578.9724    3887.3752    273.44242    6.1149967    227.75223   -3569.1222 
 7657000    237.34642   -4324.2506   -3917.4469   -4324.2506            0    2507.1284    18.013746    23.335857    21.919217    9214.0984    1498.4467     2893.595    3129.3436     319.5077   -46.734628    1339.7423   -3580.5436 
 7658000    234.24444   -4318.0777   -3916.5907   -4318.0777            0    2536.2986    18.024027    23.566922    21.839133    9276.6269    2774.7769    2022.7195    2811.3994   -464.64184   -13.549256    372.94426   -3573.4547 
 7659000    237.27871   -4308.5777   -3901.8901   -4308.5777            0    3153.9646    17.848274    23.347102    22.146741    9228.6681    2282.3246     2508.895    4670.6741   -244.19021   -504.92652    589.70831   -3477.3959 
 7660000    235.78988    -4282.534   -3878.3982    -4282.534            0    3275.9362    18.107156    23.370631    21.776844    9215.4306    2839.1908     1760.541    5228.0767   -1246.3626   -23.523634     502.6619   -3438.1202 
 7661000    218.70398   -4313.8689   -3939.0178   -4313.8689            0    2525.3253      18.0922    23.254506     22.00254    9257.0223     1252.833     2096.649    4226.4938   -473.45234    360.98187   -249.46049   -3598.0884 
 7662000    227.55595   -4303.5312   -3913.5081   -4303.5312            0    2309.5185    18.065722    23.225389    22.182173     9307.272    1975.7949    2376.3974    2576.3633   -562.65408   -9.8280643    119.86609    -3600.021 
 7663000    226.85969   -4282.3945   -3893.5647   -4282.3945            0    4481.4006    18.043355    23.296174    21.720789     9130.141    4736.0169    4190.3376    4517.8473   -159.95443   -496.56694    22.847589   -3296.8495 
 7664000    233.89632   -4318.3006   -3917.4103   -4318.3006            0    2130.0521    17.913706    23.443784    22.053573    9261.7301    3949.5116    2001.1903    439.45426    276.98338   -611.19673    510.65358   -3629.6981 
 7665000    222.97364   -4287.2149   -3905.0457   -4287.2149            0    2692.3159    17.971109    23.299819    21.998666    9211.3605    3258.5771     3589.175    1229.1956   -111.89324   -533.13642   -342.49657   -3543.3647 
 7666000    234.09025    -4293.376   -3892.1533    -4293.376            0    1334.0464     18.06978    23.442237    21.945927    9296.2083    267.06924    1129.3513    2605.7186    603.18277     155.0149    290.04537    -3711.289 
 7667000    222.17361   -4308.4106   -3927.6127   -4308.4106            0    2665.5095    17.774494    23.291205    22.259714    9215.2852    4267.1938     1541.219    2188.1158   -150.43083    155.87534    1063.9958   -3569.3802 
 7668000    246.28239   -4286.9253   -3864.8057   -4286.9253            0    2313.2787    18.045033     23.44176    21.783587    9214.6172    1622.8278    3085.6394     2231.369   -668.86643   -356.36442    688.98968    -3553.934 
 7669000    236.81577   -4284.9824   -3879.0882   -4284.9824            0     3472.355    17.986566    23.060249    22.231907    9221.2325    2575.7246    5579.3895     2261.951   -26.348546   -590.99879   -1270.7277   -3412.1182 
 7670000    230.47143   -4293.5106   -3898.4904   -4293.5106            0    1985.8447    18.066843     23.35821    21.954601    9265.0413    1780.4649    1677.8762    2499.1932   -393.65137    281.72041    433.62358   -3630.1608 
 7671000    234.31225   -4312.8296   -3911.2264   -4312.8296            0    2387.7026    18.088026    23.633335     21.65046    9255.1465     2895.371    996.48858     3271.248   -694.15717   -687.19046   -673.38107   -3588.9419 
 7672000     222.7426   -4299.4241   -3917.6509   -4299.4241            0    1570.4819    18.029144    23.341321    22.208085    9345.6959    2067.9753    1952.2054    691.26493   -358.13019    775.27675   -141.48144   -3703.5983 
 7673000     228.4732   -4305.3769   -3913.7817   -4305.3769            0    2175.8819    18.060658    23.220868    22.069753    9255.7046    1668.4368    4469.3426    389.86612    297.74823    353.33634    1108.9018   -3620.0703 
 7674000    223.78376   -4301.9047    -3918.347   -4301.9047            0    3788.5871    18.037991    23.372611    21.789625    9186.3958    4024.2307    3634.6864    3706.8443   -597.84322   -1255.9659    708.28304   -3410.7742 
 7675000    240.85588   -4305.1571   -3892.3384   -4305.1571            0    2459.9586    17.911956    23.194076    22.258433    9247.2942    2667.2929    3107.7886    1604.7945   -686.30514   -209.70939    147.93892   -3560.5827 
 7676000    225.22568   -4301.8771    -3915.848   -4301.8771            0    2794.4525    18.128634    23.341057    21.729919    9194.8301    1530.6819    2903.5765    3949.0992     79.35061   -303.29494    236.31744   -3541.1198 
 7677000    232.52464   -4279.0272    -3880.488   -4279.0272            0    1676.8104    18.065088    23.346452    22.089925    9316.5517    946.79638    615.91878     3467.716   -557.11641   -149.46034    287.18123   -3652.6558 
 7678000    236.80739   -4289.3678    -3883.488   -4289.3678            0     2849.165    17.819973    23.516802    22.036829    9234.9471    4960.5099    2697.4637    889.52133    709.58371   -211.25019     483.0297   -3499.7561 
 7679000    227.90888     -4287.88   -3897.2519     -4287.88            0    2462.2923    17.773425    23.652627     21.99282    9245.5215    3272.7697    2477.8371    1636.2699   -676.63938    295.78473   -247.35449   -3565.2452 
 7680000    234.78062    -4304.412   -3902.0061    -4304.412            0    3780.5747    17.845371    23.268258    22.167565    9204.6539    5777.3793    3306.2006    2258.1442   -973.19779   -175.75258    669.18084   -3394.5001 
 7681000    244.75008   -4316.1494   -3896.6562   -4316.1494            0    3155.7236    18.076183    23.255234    22.020203    9256.5422    2462.7784    3567.3047    3437.0877    63.561972   -276.92068   -157.08686   -3470.6424 
 7682000    246.57722   -4293.4333   -3870.8084   -4293.4333            0    2555.0802    18.028059    23.565418    21.848926    9282.2701    2130.4685    2330.3964    3204.3756    419.97433   -1067.6379    163.95263   -3524.9211 
 7683000    224.80999   -4302.0977   -3916.7811   -4302.0977            0    3084.5296    17.770428    23.557565      22.1324    9265.2429    3697.7707    2716.0562    2839.7618   -955.57151   -678.65069    279.96059   -3499.9869 
 7684000    234.84586   -4325.4404   -3922.9226   -4325.4404            0    3267.9581    18.041378    23.487647     21.73798    9211.4587    3499.4399     2280.914    4023.5205    205.26049   -285.85178   -63.291937   -3483.9062 
 7685000    237.44137   -4294.1911   -3887.2248   -4294.1911            0    3018.4369    18.022573    23.233937    22.096457     9252.567     3882.852    2197.0333    2975.4253   -33.052077     132.8259    518.52781   -3479.9193 
 7686000    244.44967   -4299.9923   -3881.0139   -4299.9923            0    2850.3341    17.985052    23.137169    22.160913    9221.6698    2925.6915    4188.3039    1437.0069    506.35044   -638.22058    301.32411   -3497.6765 
 7687000    223.86126   -4295.1646    -3911.474   -4295.1646            0    3963.0546    18.021358     23.38833    21.825718    9199.3105    4468.9472     3412.209    4008.0077   -449.20488    156.62572    751.18098   -3379.7807 
 7688000    233.66575   -4271.7611    -3871.266   -4271.7611            0    3088.0545    18.033927    23.344047    22.139752    9320.4999    3529.2706    3507.1145    2227.7784    87.307844    365.95129    1180.9591    -3451.507 
 7689000    211.39933   -4293.2374   -3930.9062   -4293.2374            0     1844.676    18.115956    23.622913    21.725216    9297.3421    2197.7504    445.95224    2890.3252    492.56657   -282.26296    160.61566   -3680.7825 
 7690000    235.65408   -4264.8651   -3860.9621   -4264.8651            0    2712.4294    17.870826    23.482816    21.971659     9220.568    1671.3049    3708.7737    2757.2097    700.63947   -783.93146   -272.27763   -3496.2149 
 7691000    228.97689   -4291.6957   -3899.2371   -4291.6957            0    643.35983    17.953715    23.511341    22.129936    9341.3982    1819.5219    100.28173    10.275838   -536.93404    281.34127   -54.611224   -3811.5892 
 7692000    228.52302   -4278.7308   -3887.0501   -4278.7308            0    2642.5254    18.061645    23.224813    21.916673    9193.5699    1894.1219    3485.5296    2547.9247   -548.26731    -417.2845   -193.87708   -3532.7435 
 7693000    228.29809   -4284.5353   -3893.2402   -4284.5353            0    1909.6147    18.096997    22.917527    22.412556    9295.3482    3083.1145    2640.3288    5.4007692    51.760059    720.29079   -332.05823   -3634.3669 
 7694000    240.60145   -4292.2994   -3879.9168   -4292.2994            0    1766.4995    18.020736    23.550767    21.911914    9299.4634     2091.006    1311.5631    1896.9294   -779.49038   -491.04101    1049.4626   -3640.3386 
 7695000    237.05021   -4309.1215   -3902.8255   -4309.1215            0    2093.2296     17.80768    23.742445    21.881347    9251.3872    2432.8271    1224.7997     2622.062   -840.46596   -254.05395    253.28252   -3620.4028 
 7696000     235.2277   -4305.7841   -3902.6119   -4305.7841            0    1282.8991    17.946542    23.409829     22.12476    9295.1753    1691.3945    2809.9218   -652.61896    500.11971    305.25369    178.21797   -3728.7014 
 7697000    230.73979   -4298.6426   -3903.1625   -4298.6426            0    427.32813     18.20911    23.347749     22.00893    9356.9147   -11.947913    1224.1101    69.822159    645.87173   -209.10652    558.63349   -3844.8488 
 7698000    227.41198   -4279.9097   -3890.1333   -4279.9097            0    1887.7409    18.161723    22.838391    22.267258    9236.1144    1066.0298    3049.6495    1547.5433    53.929689    1008.7917    16.767787    -3635.856 
 7699000     228.8827   -4273.3409   -3881.0438   -4273.3409            0    1676.8793    18.060077    23.426392    21.895716    9263.6933     1166.573    2358.0788    1505.9861     279.4563    346.21279    431.54855   -3654.4949 
 7700000    227.40384   -4294.8304    -3905.068   -4294.8304            0    2107.2984    17.929898    23.439871    22.001438    9246.6433    1763.9349    1267.8221    3290.1382   -106.22988   -41.938178    237.46065   -3620.8929 
 7701000    225.04042   -4283.1228   -3897.4113   -4283.1228            0    2693.1546    17.924824    23.334494    22.094532    9241.4069    3504.5541    2809.3084    1765.6012   -63.623829    472.76855   -263.51802   -3534.4375 
 7702000    232.54024   -4292.4932   -3893.9272   -4292.4932            0    3389.8459    17.911081    23.399456    21.983227    9213.3801    3462.9439    2775.6418    3930.9519   -162.59892   -139.15567   -470.25475   -3438.4414 
 7703000    233.26301    -4325.415   -3925.6102    -4325.415            0    1637.9437    18.060387     23.67189    21.726726    9288.6858    3262.6845    327.03768    1324.1089    281.60021   -58.639835    307.06196   -3703.7246 
 7704000    226.98009   -4306.5566   -3917.5205   -4306.5566            0    3268.1922    17.904362    23.236755     22.13024    9207.0492    3913.3155    3759.1631     2132.098   -148.75857   -144.50481    95.729423   -3478.6828 
 7705000    233.01997   -4330.0942    -3930.706   -4330.0942            0    3034.1769    18.013283    23.368447    21.880052    9210.2423    3153.9958    3300.3704    2648.1645    -1051.319    23.814844   -643.95143   -3523.1494 
 7706000    229.00982   -4305.9659   -3913.4509   -4305.9659            0     2537.241      18.1409     23.42123    21.650689    9198.9918    1751.2413    2632.2749    3228.2069   -1159.3333    75.189053   -667.58715   -3573.0601 
 7707000    225.55062    -4287.868   -3901.2819    -4287.868            0    3551.2449    17.843995    23.241653    22.159787    9190.1939    2424.9582    5178.7323    3050.0442   -1451.4783    131.20443    377.62082   -3425.3102 
 7708000    229.70098   -4279.2155   -3885.5159   -4279.2155            0    2274.8876    18.140802    23.420838    21.862545    9288.8005     2931.232    1146.5086    2746.9221    157.80064   -288.35515    -194.8773   -3577.3423 
 7709000     232.2313   -4309.3819   -3911.3454   -4309.3819            0    2794.6996    18.026551    23.454936    21.956167    9283.3224    2612.6967    2266.2851    3505.1172    105.18341     512.9402   -168.10316   -3532.9774 
 7710000    245.01268   -4295.9934     -3876.05   -4295.9934            0    2964.3856    17.732248    23.454721     22.20736    9236.1505    3490.4725    3163.7809    2238.9034   -734.31798   -558.88699   -135.75373   -3476.7479 
 7711000    229.55887   -4304.5419   -3911.0859   -4304.5419            0    2346.9809    18.046571     23.48301    21.883264    9273.8605    2919.4537    1723.3646    2398.1243    563.14536   -1457.0286   -413.77164   -3593.6573 
 7712000     228.4958   -4295.1398   -3903.5059   -4295.1398            0    2857.2595    18.028142    23.374576    21.954541    9251.6478    2804.6534    3850.6737    1916.4512    94.069407    382.55262   -459.33888   -3517.9879 
 7713000    245.35318   -4306.7497   -3886.2227   -4306.7497            0    1888.2463    17.904721    23.335333    22.203868    9277.0566    2045.2601     1880.304    1739.1748    137.93287   -785.37197   -533.64231   -3630.7499 
 7714000     229.9033    -4294.405   -3900.3586    -4294.405            0    3769.5809    17.820212     23.69066    21.728589    9173.2143    3808.9836    4577.5143    2922.2448     1609.249   -166.93992    1267.1171   -3396.0568 
 7715000    216.28785   -4321.8499     -3951.14   -4321.8499            0    2146.5379    18.053136    23.310313    22.067124    9286.3813     1028.446    3291.4839    2119.6837   -568.34963    23.165768    27.340054   -3660.4293 
 7716000     221.4617   -4291.9005   -3912.3228   -4291.9005            0    2299.1656    18.195263     23.05676    22.062133    9255.5903    2489.0931    1746.4737      2661.93    1027.3811    89.238317    911.49081   -3601.9738 
 7717000    226.03318   -4317.3533   -3929.9402   -4317.3533            0    2958.3533    18.094207    23.305568    21.937039    9250.7566    4093.5943    2087.0717    2694.3939    650.77801    58.496099    -245.3355   -3530.8205 
 7718000    226.93628   -4280.8878   -3891.9268   -4280.8878            0    2479.3886    17.901311    23.639826    21.931311    9280.9775    2956.6411    2931.4544    1550.0704   -407.79849    156.22983    673.00328   -3556.3328 
 7719000    229.14818   -4286.0546   -3893.3024   -4286.0546            0    2198.9628     17.89672    23.542202    22.129839    9323.9257    1814.0793    2703.1921    2079.6171   -1816.8428   -191.11589    228.87417   -3594.2877 
 7720000    226.73969   -4317.5738   -3928.9497   -4317.5738            0    1864.2619    18.258905    23.547146    21.642046    9304.8913    2145.9236    1087.1185    2359.7435    740.15506    146.85345     911.2341   -3675.9651 
 7721000    231.73349   -4305.2413   -3908.0581   -4305.2413            0    2362.3082    17.996036    23.292095     22.13507    9278.2553    2228.0002    2305.2304    2553.6939     605.7311   -9.4786455    434.22602   -3588.4051 
 7722000    228.62953    -4307.767   -3915.9038    -4307.767            0    4664.2217    17.948149    23.193197    21.920953    9125.1436    4754.4736    3201.7254    6036.4661     114.4988    131.93695    99.497545   -3295.1852 
 7723000    214.73293    -4284.305   -3916.2601    -4284.305            0     1804.765    18.179968      23.3193    21.974192    9315.8296    248.22563    2668.2623     2497.807     271.4552    52.102517   -517.25762   -3671.0615 
 7724000    234.90541    -4301.239   -3898.6192    -4301.239            0    2854.1937    17.982939    23.203077    22.073437    9210.3512    2642.1566    3231.4674    2688.9572      172.474    -340.0621    140.36661   -3515.2338 
 7725000    231.25065   -4323.3318   -3926.9761   -4323.3318            0    1624.2382    17.874173    23.709817     21.94035    9298.1749    1613.7643    630.35356    2628.5968    -807.4413   -235.11573    511.55865   -3706.7223 
 7726000    223.67674   -4284.4114   -3901.0371   -4284.4114            0    1976.4725    17.866821    23.596277    22.044001    9293.5405    1167.2699    2465.3012    2296.8465    858.76677   -959.85648   -160.05414   -3633.1524 
 7727000    252.69627   -4277.4524   -3844.3397   -4277.4524            0    2547.4996    18.097204    23.255252    22.014753      9265.02    2626.2082    2059.2691    2957.0216    185.29679   -73.173549   -946.13391   -3500.1194 
 7728000    239.81536   -4293.2407   -3882.2054   -4293.2407            0    1780.1872     18.19047      23.1775    22.087389    9312.2554    1137.0398     2043.225    2160.2966   -764.43098   -848.26205    591.59985   -3640.4387 
 7729000    240.84844   -4306.4015   -3893.5955   -4306.4015            0    2764.1322    17.991668     23.47189    21.977977    9281.2659    2202.7977    3400.1347    2689.4643   -96.719466   -264.63013    443.44047   -3519.4488 
 7730000    226.79908   -4244.9211   -3856.1952   -4244.9211            0    2685.3396    17.708503    23.823595    21.842272    9214.8221    4414.8037     1507.083     2134.132   -309.16892    -52.88433   -310.08046   -3495.3158 
 7731000    235.61542   -4291.2159   -3887.3792   -4291.2159            0    2730.0165    17.984506    23.355802    22.043481    9259.2004    2880.8321    3412.9656     1896.252    167.11123    502.89938   -145.99233   -3518.7288 
 7732000    245.50456   -4321.2882   -3900.5018   -4321.2882            0    2393.8573     18.25153    23.104979    22.030668    9290.3601    1369.0969    2930.9618    2881.5131   -477.63073   -8.3192748   -247.06686   -3576.1572 
 7733000    225.60241   -4299.2499   -3912.5751   -4299.2499            0     3609.435    18.044501    23.278257    21.939903    9215.7363    3655.7224    2988.0927      4184.49    1363.8408    281.04486   -1032.7639   -3427.4596 
 7734000    223.90078   -4270.7603   -3887.0021   -4270.7603            0    1480.9082    18.020245    23.425899    22.131163    9342.4592    450.27794    2637.0201    1355.4265   -666.56047   -336.53658    93.980232   -3685.2281 
 7735000    223.33502   -4307.4671   -3924.6785   -4307.4671            0    2395.8596    17.939845    23.649722    21.910318    9295.9421    2660.8376     3378.899     1147.842     -652.605   -98.232073    619.67742   -3599.8676 
 7736000    225.98286    -4292.378   -3905.0511    -4292.378            0    2392.7566    18.005439    23.335845    21.975873    9233.6493    3095.4704    1495.2432     2587.556   -161.10015     252.8683   -646.06839   -3582.8346 
 7737000    232.36848   -4302.6904   -3904.4188   -4302.6904            0    2407.2737    18.131742    23.119757    22.057127    9246.3799     1892.702    2844.3002    2484.8189    -425.2635   -197.70887   -81.262227   -3579.8004 
 7738000    221.15552   -4262.8579   -3883.8049   -4262.8579            0    3023.6329    18.112085    23.327797    21.889928    9248.8237    3463.2354     2802.385    2805.2782   -529.47419   -351.68116    288.08202   -3475.9633 
 7739000     232.9066   -4297.9334   -3898.7394   -4297.9334            0    1896.9313    17.842938    23.538447    22.088057    9276.8747    2552.3015    1120.6996    2017.7927     1006.241   -793.18518    379.63269   -3642.0965 
 7740000    236.10029   -4303.5145   -3898.8467   -4303.5145            0    3870.9299    17.723027     23.51096    22.048411    9187.2504    4991.1699    3767.7659    2853.8539   -676.57062    231.91216    235.87882   -3380.1939 
 7741000     220.7413   -4306.3716   -3928.0285   -4306.3716            0    1790.9949    18.057417    23.398967     21.94057     9270.437    1066.3832    1302.6064    3003.9953   -51.584564   -460.45407   -463.70745   -3685.8863 
 7742000    231.68665   -4292.6017   -3895.4987   -4292.6017            0     2458.534    18.082453    23.354531    21.916577    9255.5285     2776.951    2808.3535    1790.2974    801.04196   -782.63329   -429.58413   -3563.6399 
 7743000    237.04136    -4279.719   -3873.4382    -4279.719            0    2528.0658    18.176653    23.170677    22.068042    9294.2946    3115.6864    2678.8527    1789.6582   -508.38671    144.17116   -185.78109   -3530.7646 
 7744000    233.69239   -4292.4219   -3891.8812   -4292.4219            0     2728.776    18.002987    23.376196    21.839421    9190.9315    892.99706     2708.942    4584.3889    767.23803   -481.35755   -469.15228   -3526.1152 
 7745000    243.91849   -4290.1638   -3872.0959   -4290.1638            0    3178.4442    17.796433    23.440153    22.029122    9189.4726    3059.7677    3357.9964    3117.5685   -820.80651   -216.59055   -103.89479   -3446.1238 
 7746000    235.48504   -4305.2069   -3901.5936   -4305.2069            0    4392.2162    17.801153    23.335832    22.075339    9170.1999    4515.4814    4212.9814     4448.186    448.84027    613.50218    158.87499   -3314.1876 
 7747000    227.79548   -4295.5274   -3905.0938   -4295.5274            0    2497.1585    18.371937    23.270793    21.514181    9197.9483    1073.1222    3543.2212    2875.1321    111.14348     631.0857   -273.26973   -3570.1183 
 7748000    249.08925   -4302.5805     -3875.65   -4302.5805            0    873.10416    18.045402    23.270111    22.213107    9327.6949    2533.2656    1014.8362   -928.78937   -78.484975    -29.92855    371.19306   -3756.8774 
 7749000    237.65311   -4326.1896   -3918.8603   -4326.1896            0    2928.3175    17.955348    23.351524    22.091196    9262.5015    2479.0309    3111.5044    3194.4173   -1146.6913    -143.8268    575.76993   -3523.2912 
 7750000    237.23658   -4274.8104    -3868.195   -4274.8104            0    2166.0376    18.085622    23.537418     21.81385    9285.9126    419.27942    2325.6416    3753.1918    188.63597    391.07483    49.825003   -3574.8583 
Loop time of 432.391 on 64 procs for 250000 steps with 864 atoms

Performance: 99.909 ns/day, 0.240 hours/ns, 578.180 timesteps/s
190.7% CPU use with 32 MPI tasks x 2 OpenMP threads

MPI task timing breakdown:
Section |  min time  |  avg time  |  max time  |%varavg| %total
---------------------------------------------------------------
Pair    | 16.525     | 25.065     | 33.424     | 102.9 |  5.80
Bond    | 0.8185     | 1.0405     | 1.2652     |  11.0 |  0.24
Kspace  | 210.87     | 221.16     | 230.24     |  36.7 | 51.15
Neigh   | 1.5494     | 1.6292     | 1.7189     |   3.1 |  0.38
Comm    | 70.898     | 74.628     | 77.954     |  24.7 | 17.26
Output  | 0.58697    | 0.58729    | 0.58909    |   0.0 |  0.14
Modify  | 77.202     | 80.557     | 84.944     |  23.8 | 18.63
Other   |            | 27.72      |            |       |  6.41

Nlocal:        27.0000 ave          39 max          18 min
Histogram: 7 4 4 2 2 2 3 2 3 3
Nghost:        2118.75 ave        2222 max        2016 min
Histogram: 11 5 0 0 0 0 0 0 4 12
Neighs:        6558.69 ave        9241 max        4119 min
Histogram: 4 2 5 5 2 2 2 3 4 3

Total # of neighbors = 209878
Ave neighs/atom = 242.91435
Ave special neighs/atom = 2.0000000
Neighbor list builds = 5187
Dangerous builds = 0

unfix		3
unfix		2
unfix		1

write_data	data.final.${pid} nocoeff
write_data	data.final.0 nocoeff
System init for write_data ...
PPPM initialization ...
  extracting TIP4P info from pair style
  using 12-bit tables for long-range coulomb (../kspace.cpp:340)
  G vector (1/distance) = 0.37180285
  grid = 24 27 25
  stencil order = 5
  estimated absolute RMS force accuracy = 0.0031396974
  estimated relative force accuracy = 9.4551056e-06
  using double precision FFTW3
  3d grid and FFT values/proc = 4410 672
Last active /omp style is kspace_style pppm/tip4p/omp

write_restart   restart.lmp.${pid}
write_restart   restart.lmp.0
System init for write_restart ...
PPPM initialization ...
  extracting TIP4P info from pair style
  using 12-bit tables for long-range coulomb (../kspace.cpp:340)
  G vector (1/distance) = 0.37180285
  grid = 24 27 25
  stencil order = 5
  estimated absolute RMS force accuracy = 0.0031396974
  estimated relative force accuracy = 9.4551056e-06
  using double precision FFTW3
  3d grid and FFT values/proc = 4410 672
Last active /omp style is kspace_style pppm/tip4p/omp
Total wall time: 0:07:12
