LAMMPS (30 Jul 2021)
Processor partition = 0
  using 2 OpenMP thread(s) per MPI task
using multi-threaded neighbor list subroutines
variable        pid world 0 1
variable        phase world IceV IceIII

shell cd ${phase}
shell cd IceV
include Restart.lmp
echo both
log log.lammps
#include		in.partitions
include		in.temp
variable        temperature equal 156.47
variable	tempDamp equal 100.0
include		in.pressure
variable        pressure equal 7268.2
variable        pressureDamp equal 1000.0 # This is 1 ps
include		in.seed
variable        seed equal 745823

units		real
atom_style	full
read_restart    restart.lmp.${pid}
read_restart    restart.lmp.0
Reading restart file ...
  restart file = 30 Jul 2021, LAMMPS = 30 Jul 2021
  restoring atom style full from restart
  triclinic box = (-3.1420199 -0.16728174 0.035394655) to (14.752019 22.747281 19.194603) with tilt (-0.34332128 -6.6967476 0.042843518)
  2 by 4 by 4 MPI processor grid
  restoring pair style lj/cut/tip4p/long/omp from restart
  restoring bond style harmonic/omp from restart
  restoring angle style harmonic/omp from restart
  1008 atoms
  672 bonds
  336 angles
Finding 1-2 1-3 1-4 neighbors ...
  special bond factors lj:    0        0        0       
  special bond factors coul:  0        0        0       
     2 = max # of 1-2 neighbors
     1 = max # of 1-3 neighbors
     1 = max # of 1-4 neighbors
     2 = max # of special neighbors
  special bonds CPU = 0.002 seconds
  read_restart CPU = 0.009 seconds

include 	in.setup
variable	out_freq equal 1000
variable	out_freq2 equal 10000
variable	out_freq3 equal 1000

timestep	2.0

neigh_modify    delay 7 every 1

include		in.tip4p
# This is TIP4P/Ice

# create groups ###
group ox type 2
336 atoms in group ox
group hy type 1
672 atoms in group hy

# set charges - beside manually ###
set group ox charge -1.1794
Setting atom values ...
  336 settings made for charge
set group hy charge 0.5897
Setting atom values ...
  672 settings made for charge

# ### TIP3P Potential Parameters ###
pair_style lj/cut/tip4p/long/omp 2 1 1 1 0.1577 8.5
pair_coeff 1 1*2 0.000 0.000
pair_coeff 2 2 0.21084 3.1668
bond_style  harmonic
bond_coeff  1 450 0.9572
angle_style harmonic
angle_coeff 1 55 104.52
kspace_style pppm/tip4p/omp 1.0e-5
pair_modify tail yes

thermo          ${out_freq}
thermo          1000
thermo_style    custom step temp pe etotal epair emol press lx ly lz vol pxx pyy pzz pxy pxz pyz enthalpy

restart 	${out_freq3} restart.lmp.${pid} restart2.lmp.${pid}
restart 	1000 restart.lmp.${pid} restart2.lmp.${pid}
restart 	1000 restart.lmp.0 restart2.lmp.${pid}
restart 	1000 restart.lmp.0 restart2.lmp.0


include         in.dump
dump            myDump all atom ${out_freq2} dump.water.${pid}
dump            myDump all atom 10000 dump.water.${pid}
dump            myDump all atom 10000 dump.water.0
dump            myDump2 all dcd ${out_freq2} dump.dcd
dump            myDump2 all dcd 10000 dump.dcd
dump_modify     myDump append yes
dump_modify     myDump2 append yes


variable natoms 	equal  "count(all)"                        # NUMBER ATOMS
variable H      	equal  "enthalpy/v_natoms"                 # ENTHALPY-per-atom
variable Vol      	equal  "vol/v_natoms"                 # volume-per-atom
fix AVG all 		ave/time ${out_freq} 1 ${out_freq} v_Vol v_H file vol_enthalpy.dat
fix AVG all 		ave/time 1000 1 ${out_freq} v_Vol v_H file vol_enthalpy.dat
fix AVG all 		ave/time 1000 1 1000 v_Vol v_H file vol_enthalpy.dat



fix 		1 all shake 1e-6 200 0 b 1 a 1
Finding SHAKE clusters ...
       0 = # of size 2 clusters
       0 = # of size 3 clusters
       0 = # of size 4 clusters
     336 = # of frozen angles
  find clusters CPU = 0.001 seconds
fix             2 all nph tri ${pressure} ${pressure} ${pressureDamp}
fix             2 all nph tri 7268.2 ${pressure} ${pressureDamp}
fix             2 all nph tri 7268.2 7268.2 ${pressureDamp}
fix             2 all nph tri 7268.2 7268.2 1000
fix             3 all temp/csvr ${temperature} ${temperature} ${tempDamp} ${seed}
fix             3 all temp/csvr 156.47 ${temperature} ${tempDamp} ${seed}
fix             3 all temp/csvr 156.47 156.47 ${tempDamp} ${seed}
fix             3 all temp/csvr 156.47 156.47 100 ${seed}
fix             3 all temp/csvr 156.47 156.47 100 745823


run             250000
PPPM initialization ...
  extracting TIP4P info from pair style
  using 12-bit tables for long-range coulomb (../kspace.cpp:340)
  G vector (1/distance) = 0.3798005
  grid = 24 27 32
  stencil order = 5
  estimated absolute RMS force accuracy = 0.0023898774
  estimated relative force accuracy = 7.1970448e-06
  using double precision FFTW3
  3d grid and FFT values/proc = 5355 672
Last active /omp style is kspace_style pppm/tip4p/omp
Neighbor list info ...
  update every 1 steps, delay 7 steps, check yes
  max neighbors/atom: 2000, page size: 100000
  master list distance cutoff = 10.8154
  ghost atom cutoff = 10.8154
  binsize = 5.4077, bins = 5 5 4
  1 neighbor lists, perpetual/occasional/extra = 1 0 0
  (1) pair lj/cut/tip4p/long/omp, perpetual
      attributes: half, newton on, omp
      pair build: half/bin/newton/tri/omp
      stencil: half/bin/3d/tri
      bin: standard
Setting up Verlet run ...
  Unit style    : real
  Current step  : 21000000
  Time step     : 2
Per MPI rank memory allocation (min/avg/max) = 10.31 | 10.32 | 10.33 Mbytes
Step Temp PotEng TotEng E_pair E_mol Press Lx Ly Lz Volume Pxx Pyy Pzz Pxy Pxz Pyz Enthalpy 
21000000    165.26098   -5050.2346   -4719.6922   -5050.2346            0    6873.9614    17.894039    22.914562    19.159209    7855.9283    6757.5144    7005.9354    6858.4343    1367.8024    75.080696    1272.6918    -3932.138 
21001000    155.97478   -5066.4656   -4754.4968   -5066.4656            0    7403.0287    17.890647    22.697854    19.281001    7829.6154    8544.9052    6858.2401    6805.9407    1844.4743   -224.76308    1357.6459   -3909.1678 
21002000    153.80419   -5057.8594   -4750.2321   -5057.8594            0     7578.855     18.05947    22.666501    19.160582    7843.2886    6973.3501    7221.5814    8541.6334   -113.56071   -218.94865    243.83795   -3883.3147 
21003000    152.30883   -5062.3544   -4757.7179   -5062.3544            0    6422.2713    17.914725     22.85094    19.150052     7839.424    6645.2094    6263.8648    6357.7397    287.86711   -23.954052   -171.13308   -4023.4599 
21004000    150.82421    -5081.309   -4779.6419    -5081.309            0    5365.2736    17.960271    22.638267    19.371509    7876.2507    5619.5995    5699.7847    4776.4367    623.58106   -370.32255    1400.9865   -4163.3488 
21005000    151.52839   -5053.7948   -4750.7193   -5053.7948            0    7449.4309    17.819536    22.681866    19.352805    7822.0228      8390.86    7591.6628    6365.7701   -183.62964   -247.39338    525.15157   -3900.9167 
21006000    162.00407   -5062.3562    -4738.328   -5062.3562            0    8206.4133     17.70788    22.887737    19.226543    7792.3888    8727.5827    8475.5861    7416.0712    1290.0799    217.67894   -535.13552   -3805.7184 
21007000    154.48362   -5071.8715   -4762.8852   -5071.8715            0    6066.5761    17.938625    22.787365    19.271691    7877.7662    6650.5772    7070.3105    4478.8405    406.01642    232.56965   -562.95344   -4065.9014 
21008000    163.12579   -5069.1548   -4742.8831   -5069.1548            0    7637.1676    17.954211    22.564551    19.268538    7806.2382    6015.1557    9133.1307    7763.2165   -669.00517    29.319647    -1560.918   -3873.4223 
21009000    161.09758   -5055.9998   -4733.7847   -5055.9998            0    5281.9146    17.945361    22.942799    19.136819      7878.95    5311.2581    4377.1587     6157.327   -1335.2124   -852.41489   -667.52364   -4126.8589 
21010000    161.32858   -5061.8328   -4739.1557   -5061.8328            0    7783.3427    17.865106    22.895799    19.073858    7801.8926    6371.0018    7898.5271    9080.4991   -1270.1179    40.683718    414.30311   -3853.5467 
21011000     156.3967   -5066.3223   -4753.5096   -5066.3223            0    7506.5737    18.027781    22.709855    19.114038     7825.446    6883.1028    7259.0601    8377.5581    439.77727   -177.23888    381.28633   -3896.8136 
21012000      165.277    -5054.814   -4724.2395    -5054.814            0    6848.5491    17.995102     22.85771    19.086217     7850.673    5450.8674    7437.8615    7656.9183   -1314.3676    382.14561   -697.63535   -3940.1217 
21013000    164.77054   -5056.1171   -4726.5557   -5056.1171            0     6817.602    17.989332    22.836374    19.116174    7853.1365    6116.6481    6224.5226    8111.6354   -97.274343   -113.49212   -318.60967   -3945.7362 
21014000    157.63834   -5068.0735   -4752.7774   -5068.0735            0    7071.8875    17.891568    22.743555    19.215263    7819.0336    7112.8239    7057.7254    7045.1133    245.71172   -1018.0236   -458.02914   -3946.3518 
21015000    159.68328   -5073.8012   -4754.4149   -5073.8012            0    5134.5743    17.901796    22.795496    19.308127    7879.2664    4092.2703    5619.2396    5692.2131     1086.142   -80.412251    585.78362   -4164.3957 
21016000    155.41527   -5052.2656   -4741.4159   -5052.2656            0    7381.2514    17.818529    22.842995    19.225944    7825.5086    7785.2365    7121.3336    7237.1841    1612.4201    267.61428    1748.0899   -3899.0157 
21017000    158.59688   -5064.7519   -4747.5386   -5064.7519            0    7276.4482    17.915373    22.516605    19.401405    7826.3983     7115.774    8317.7167     6395.854    1080.7512   -74.997453    1572.3137   -3917.0048 
21018000    152.55375   -5063.8044   -4758.6781   -5063.8044            0    8591.6211    17.821976    22.875729    19.089698    7782.6924    9562.0027    7376.3137    8836.5469   -983.80386   -460.99103   -232.91302   -3783.5068 
21019000    155.13582   -5062.5566   -4752.2658   -5062.5566            0    6929.9075    17.880276    22.734286     19.28294    7838.4248    6497.6536    6585.0232    7707.0457    74.702986   -37.899266   -936.24298   -3960.0707 
21020000    162.03387   -5079.1679   -4755.0802   -5079.1679            0    6848.6551    17.991275    22.782076    19.143978    7846.7068    5743.8232    6589.7142    8212.4279    996.22863    101.65843   -1668.5313   -3971.3463 
21021000     158.8202   -5083.0379   -4765.3779   -5083.0379            0    6565.5949    18.006784    22.846099    19.111804    7862.3047    5714.9743    7052.5687    6929.2417   -997.06372     357.9457   -812.93285   -4012.5428 
21022000    151.08507   -5050.9941   -4748.8053   -5050.9941            0    6697.6293    18.079406    22.719603    19.112716    7850.6805    5812.3757    6739.0506    7541.4617   -156.89623    298.52976    279.67183   -3981.9661 
21023000    157.97407   -5078.6497    -4762.682   -5078.6497            0    8903.3659    17.988374    22.610599     19.14859    7788.2662    7479.2137    10335.092    8895.7921   -1046.3736    1060.8243    1068.7165   -3751.4032 
21024000    162.08298   -5046.5102   -4722.3242   -5046.5102            0    7171.4843    17.841786     22.93749    19.178393    7848.6767    6751.5535    6469.2792    8293.6202    -250.6165    446.29405    601.07112    -3901.441 
21025000    155.84743   -5045.7824   -4734.0683   -5045.7824            0    6680.3915    17.826371    22.809218    19.319506    7855.4188    8528.0215    5996.8701    5516.2829   -165.07027    275.69989    504.03565   -3968.7411 
21026000    158.73598   -5052.2226    -4734.731   -5052.2226            0    7974.8882    17.913515    22.705632    19.213462    7814.8394    8536.4141    7848.3515     7539.899   -96.037079    1013.7918     1347.689   -3825.8217 
21027000    164.69022   -5059.9387    -4730.538   -5059.9387            0     7896.102     17.84582    22.740177    19.263842    7817.5967    6762.1866    8152.0066    8774.1128    1329.5476   -121.98843    1184.8062   -3830.2905 
21028000    158.49455   -5069.2967    -4752.288   -5069.2967            0    9112.6859    17.721215    22.677509    19.323816    7765.7204    8847.7462    9057.8316      9432.48    207.12074   -244.97431   -439.29889   -3720.2301 
21029000    154.26167    -5054.161   -4745.6186    -5054.161            0     6898.196    17.821092    22.751256    19.293332    7822.5245    6799.0893    7746.8018    6148.6969    73.112784   -382.69158    619.74399   -3958.6483 
21030000     154.5867   -5048.1341   -4738.9416   -5048.1341            0    6053.0978    17.893207    22.821963    19.283814    7874.7019     6564.094    6772.5956    4822.6036   -108.14483    294.89336    233.69599    -4043.777 
21031000    160.50753    -5048.639   -4727.6041    -5048.639            0    7588.3262    17.781005    22.917663    19.153237    7804.9263    7072.0817    7469.9451    8222.9517   -522.04653   -278.99266   -352.15103   -3863.8489 
21032000    165.13472   -5075.4523   -4745.1624   -5075.4523            0    6176.5913    17.870335    22.827285    19.272363    7861.7987    5963.1374    5968.6792    6597.9575   -666.21488   -464.15703    214.40161   -4036.9775 
21033000    154.34737   -5059.8679    -4751.154   -5059.8679            0    6603.3889      17.9763    22.648067    19.312008    7862.4675    6911.1977    6577.9589      6321.01   -743.00914    -568.5424   -68.112532   -3993.9697 
21034000    156.68012   -5071.6805   -4758.3009   -5071.6805            0     7066.475    17.755994     22.79043    19.226994    7780.5253    7594.2451    6833.5117    6771.6683    1295.8043   -1326.9048   -246.39485    -3956.461 
21035000     155.4626   -5076.8677   -4765.9233   -5076.8677            0    8456.4922    17.828212    22.714173    19.212195    7780.0375    8759.8577    7719.5978    8890.0211    543.88597    296.80774    123.35057    -3806.417 
21036000    152.67641   -5067.6821   -4762.3104   -5067.6821            0    8231.4028    17.869935    22.577548    19.294517    7784.5525    8663.3623    8631.1141    7399.7321   -1249.9819        606.3    -1361.623   -3827.8016 
21037000    160.67397   -5070.4737   -4749.1059   -5070.4737            0    7630.1954    17.864725    22.845832    19.139585    7811.5249    8987.6499    6742.6655    7160.2707   -493.99296   -860.65528   -251.47569   -3879.8506 
21038000    155.52433   -5054.8514   -4743.7835   -5054.8514            0    8715.9391    17.854277     22.85419    19.083501    7786.9281    8105.5828    8323.6781    9718.5563   -1365.8382   -90.375824   -295.14705   -3753.9635 
21039000     156.5834     -5068.71   -4755.5238     -5068.71            0     7042.242    17.916909    22.766492    19.202931    7832.9747    6597.2325    6882.5066    7646.9868    633.34025   -419.98366    1430.1261    -3951.047 
21040000     158.0265   -5059.0749   -4743.0024   -5059.0749            0    6343.5412    17.916595    22.784274    19.219593    7845.7572     7369.682    5730.2701    5930.6715    2015.1193    -52.85031     1201.445   -4017.1597 
21041000    152.65961   -5053.2061   -4747.8681   -5053.2061            0    6329.5404    17.820915    22.925352    19.253612    7866.0775     6692.477    5802.0343    6494.1099    92.953982   -50.141894    1387.5739   -4021.7516 
21042000    159.26621    -5066.044   -4747.4919    -5066.044            0    8064.7008    17.861345    22.616395    19.347673    7815.6713    8984.8664    8986.5069    6222.7292    425.90658     956.7759    537.10529   -3828.2486 
21043000    164.66712   -5069.8753   -4740.5208   -5069.8753            0    6211.6399    17.981957    22.755333    19.208067    7859.6608    5630.4114    6810.9387    6193.5697    108.08038   -197.56512   -273.95925    -4028.511 
21044000    151.32726   -5069.4012    -4766.728   -5069.4012            0    6908.8293    17.783856     22.95121     19.14278    7813.3364    8116.3397    6375.9778    6234.1704    379.69363   -143.03039    79.090952   -3979.4704 
21045000    151.98592   -5073.6202   -4769.6296   -5073.6202            0     6859.864      17.9504    22.622845     19.30863    7841.0246    5834.7754    8053.0661    6691.7506    -88.20809    148.05897    134.67327   -3985.1815 
21046000     157.1161   -5077.8828   -4763.6312   -5077.8828            0    6768.6375    17.918245    22.675881    19.306111    7844.3042    6473.6641    6727.8605    7104.3879     334.2872    495.19383   -354.89728   -3989.2914 
21047000    162.50565   -5075.0197   -4749.9884   -5075.0197            0    7560.9179    17.808127    22.887389    19.135721    7799.3668    8755.5829    7002.8118    6924.3591    81.942362    95.820429    1226.5413    -3889.966 
21048000    152.57313   -5068.5911    -4763.426   -5068.5911            0    7291.9748    17.864542    22.674672    19.292694    7814.9421    8184.9697    7386.3412    6304.6134   -464.83178   -588.03643    155.04379   -3932.3384 
21049000     157.2647   -5053.5255   -4738.9767   -5053.5255            0    6999.9991    17.798486    22.914158    19.173358    7819.6108      7554.02    5767.9363    7678.0411   -891.05319   -643.81904    -67.56446   -3940.6897 
21050000     154.0314   -5073.0365   -4764.9546   -5073.0365            0    7090.8459    17.831733    22.844022    19.207979    7824.3417    7519.8553    6261.0806    7491.6018    104.11216   -391.46865   -1262.8745   -3955.8182 
21051000    167.19752    -5049.525   -4715.1093    -5049.525            0    7081.2635    18.009909    22.659146    19.256489    7858.3643    6854.3571     7193.003    7196.4303    249.64477   -662.19892    1152.1893   -3903.5527 
21052000    160.59162   -5083.1919   -4761.9888   -5083.1919            0    7260.7119    17.916258     22.91213    19.040393    7816.0741    6130.1779    7070.5486    8581.4093    1094.2903    434.29741    80.205088   -3934.3444 
21053000    151.61744   -5073.4181   -4770.1645   -5073.4181            0    8094.7618    17.895423    22.769999    19.107217    7785.7852    7874.0909    7577.5543    8832.6404    20.253971   -933.69277   -1190.8055    -3851.023 
21054000    158.26715   -5053.5591   -4737.0052   -5053.5591            0    6380.9521     17.95723    22.616827    19.383952    7872.5125    7228.5859    6789.6057    5124.6647     275.7497   -200.43021   -48.475717    -4004.392 
21055000    160.34089   -5059.8477   -4739.1461   -5059.8477            0    7549.4944    17.993564    22.649214    19.174029    7814.1851    7584.5761    7550.3768    7513.5304    10.713992   -571.37243   -1179.7204   -3878.7916 
21056000    163.02299   -5048.0349   -4721.9688   -5048.0349            0    7618.6383    17.904127    22.783883    19.185382    7826.2073    7862.8796    7706.3094     7286.726    99.025727    641.38898    150.83465   -3852.3987 
21057000    152.65331   -5079.8404   -4774.5149   -5079.8404            0    5285.4671    18.077437    22.785306    19.157196    7890.8477    4894.8173     4722.118     6239.466    979.62813   -315.83562   -468.70811   -4166.2638 
21058000     158.0938   -5068.8303   -4752.6231   -5068.8303            0    6741.7666    18.032093    22.593315    19.227888    7833.5328    6257.0083    7638.3794    6329.9123   -8.3104655      222.255   -658.24038   -3982.4165 
21059000    156.85296   -5066.6891   -4752.9638   -5066.6891            0     7112.743    17.915029    22.808372     19.14239    7821.8229    7465.1986    7250.0724    6622.9582   -111.70135    834.25618   -723.88856     -3941.59 
21060000    156.51228   -5064.1459    -4751.102   -5064.1459            0    6895.7557     17.88054    23.010437    19.000237     7817.439    5471.4447    7056.2875     8159.535    155.41892    473.44792     904.0816   -3964.9215 
21061000    153.74509   -5046.0278   -4738.5187   -5046.0278            0    7200.2828    17.988799    22.541847    19.362782    7851.6229    6463.7313    7744.8185    7392.2985    442.67146    183.85667   -337.81139   -3914.0296 
21062000    164.73249   -5048.3615   -4718.8761   -5048.3615            0    7736.6977     17.85887    22.683781    19.331415    7831.2855    6693.2058    8739.7702    7777.1172   -1079.0041    541.97263    121.39952   -3835.2581 
21063000    159.31405   -5047.3055   -4728.6578   -5047.3055            0     6956.855    17.742007     23.07123    19.131324    7831.0232    7804.2975    6511.9267    6554.3408     139.5801    1211.9024    1128.1263   -3934.1332 
21064000     155.7425   -5067.6492    -4756.145   -5067.6492            0    6089.8006    17.936692    22.864899    19.196351    7872.8203     5749.454    6073.0323    6446.9156   -833.33149    808.31209    -89.02747   -4056.9323 
21065000    156.82556   -5078.3597   -4764.6892   -5078.3597            0    6633.4974     18.01453    22.502569    19.316496    7830.3899    6139.3868    7814.0318    5947.0737    302.34846    26.110997   -810.54313   -4007.1557 
21066000     158.6938   -5044.8682    -4727.461   -5044.8682            0    6062.5925     17.90501    22.719182    19.334332    7864.9585    6542.6729    6075.9336     5569.171     165.2481   -779.71265    547.09845   -4032.0673 
21067000    151.85456   -5060.1184   -4756.3905   -5060.1184            0    7159.4176    17.806162    22.841029    19.244062    7826.7726    7171.0489    7868.4972    6438.7066   -1076.7997    299.28695   -2112.1002   -3939.1755 
21068000    158.15944   -5063.1284     -4746.79   -5063.1284            0    7203.1832    17.851715    22.734543    19.283335    7826.1527      7662.35    6816.5162    7130.6833   -268.37008    -870.4939    1030.9036   -3924.6445 
21069000    151.85332   -5077.2706   -4773.5452   -5077.2706            0    8479.1394    17.847629    22.784746    19.198065    7806.9644    7845.8533     9077.093     8514.472    396.33718   -312.37284    782.92388   -3808.1395 
21070000    157.23777    -5053.171    -4738.676    -5053.171            0    7847.4934    17.817887    22.860663    19.148908    7799.8999    7955.3796     7382.267    8204.8336    661.36701   -351.07275   -585.58867   -3845.9959 
21071000     158.5083   -5058.5735   -4741.5374   -5058.5735            0    7871.9492    17.892119    22.632901    19.286821    7810.2088    7383.4687    8941.9123    7290.4668   -1602.1121    650.28217   -388.61809   -3844.8918 
21072000    167.46862   -5050.3135   -4715.3556   -5050.3135            0    6253.5636    17.815094    22.932161    19.236647    7858.9131    6003.9378    7025.6331    5731.1199   -636.69011    371.92998   -138.70039   -3998.6085 
21073000     148.8077   -5065.8234   -4768.1896   -5065.8234            0    7817.7025    17.645586    22.814037    19.371517    7798.3341    10316.081    7323.2662    5813.7605   -1323.0256    62.855074    361.42142   -3879.0768 
21074000     149.4227   -5075.0212   -4776.1573   -5075.0212            0    6123.5088    17.817796    22.790144    19.353886     7859.035    4919.2271     6966.978    6484.3214    1166.4152     186.5229    -334.5487   -4074.3054 
21075000    155.67204    -5070.134   -4758.7707    -5070.134            0    6929.0358    18.048711    22.583135    19.283396     7859.844    4608.3858    8429.4762    7749.2453   -1880.1696    734.24404    874.16133   -3964.5108 
21076000    159.74898     -5057.14   -4737.6223     -5057.14            0    9195.5492    17.955035    22.550822    19.235625      7788.52    9013.7438    9736.4228    8836.4809   -755.22293    458.46851    119.96708   -3693.1222 
21077000    148.23721   -5075.3932   -4778.9004   -5075.3932            0     6450.875    17.913702    22.900491    19.112955    7840.7568    7234.7693    5435.9735    6681.8823   -512.60557   -501.60001   -1407.9561   -4041.2468 
21078000    161.59353   -5044.2307   -4721.0237   -5044.2307            0    7981.6851    17.941529    22.818586    19.107929    7822.7926    8214.8156    7345.7085    8384.5312    713.32985    841.09738    1373.6396   -3810.4139 
21079000     154.0817     -5066.63   -4758.4475     -5066.63            0    7624.9036    17.997995    22.713189    19.129931    7820.1602    7164.6558    7951.8653    7758.1896   -76.271445    1100.0718   -443.29287   -3888.8348 
21080000     161.1932   -5057.1311   -4734.7248   -5057.1311            0    5989.7798    17.973631    22.818442    19.155486    7856.2442    5734.9737    5554.5043    6679.8614    686.70185   -96.308188   -587.07467   -4048.4442 
21081000    157.86723    -5063.087    -4747.333    -5063.087            0    6807.0009    17.926412    22.785485    19.190393    7838.5464    6324.6326    6228.8221    7867.5479   -715.83642   -121.55314    855.78791    -3969.176 
21082000    153.54741   -5072.1938     -4765.08   -5072.1938            0    8637.9905      17.9302    22.710878    19.127235    7788.8126    8876.4503    8289.6098    8747.9112    434.79251   -398.52852    1171.4729   -3783.8747 
21083000    156.95134   -5060.7997   -4746.8776   -5060.7997            0    5106.3894    18.057791    22.843884     19.13813    7894.6716    4211.8425    5312.1065    5795.2193    811.74024    784.46836    633.20538     -4158.95 
21084000    167.55902   -5057.7721   -4722.6334   -5057.7721            0    7936.8906     17.99958    22.589792    19.191237    7803.2867    7851.9862    8145.2758    7813.4098   -239.86174   -876.43074    -2494.056    -3819.392 
21085000    150.76562   -5070.0781   -4768.5282   -5070.0781            0     5320.118    17.931604    22.835635    19.282541    7895.8065    4653.0294    5943.6018    5363.7228    469.32206   -291.31852   -221.50142   -4155.9047 
21086000    157.92816   -5073.1854   -4757.3095   -5073.1854            0    7037.2996    17.798415      22.8489    19.241939    7825.2002    8057.7678    7214.9713    5839.1598   -43.364304   -272.68441    209.24351   -3954.1952 
21087000    154.05477   -5063.3048   -4755.1762   -5063.3048            0    7442.2423    17.929071    22.606624    19.302739    7823.7042     7735.578    7090.4274    7500.7216    731.94462   -388.45847   -358.94675   -3906.0111 
21088000    161.21287    -5073.899   -4751.4534    -5073.899            0    6695.7564    17.909317    22.672512    19.300673    7837.0228    6562.4712    7545.4555    5979.3424   -1349.4581    97.293097    -466.0594   -3986.1623 
21089000    151.31484   -5077.5989   -4774.9505   -5077.5989            0    7597.8051    17.679362    22.921556    19.211655    7785.3016    8385.9584    7295.3118    7112.1451   -750.25138   -1053.5613     1283.583   -3912.2909 
21090000     153.1886   -5059.2146   -4752.8184   -5059.2146            0    8350.0998    17.815263    22.745672    19.186434    7774.7289    8465.9556    8880.5212    7703.8226   -1566.3011   -73.469961   -484.81858   -3806.0303 
21091000    152.81758   -5063.8119   -4758.1579   -5063.8119            0     7697.696    17.910714    22.596605    19.303297    7812.4563    8401.0324     7267.688    7424.3678    681.14379   -250.82535   -802.40165   -3881.1081 
21092000      153.484   -5063.0889    -4756.102   -5063.0889            0    5774.3309    17.824182    22.919413     19.22083    7852.0897    5933.6984      5337.49    6051.8043   -1810.9457   -386.31514    70.877319   -4094.8564 
21093000    158.87826   -5055.7173   -4737.9412   -5055.7173            0    7836.4043    17.879952    22.850739    19.153682    7825.6223    7640.7071    7377.7709    8490.7349   -929.75582    105.96079    39.387009   -3843.5827 
21094000    152.93667   -5052.0419   -4746.1497   -5052.0419            0    8714.1032    17.914017    22.440819    19.423031    7808.1602    7276.3709    10120.785     8745.154    224.45654    62.465222   -1124.8597   -3753.8399 
21095000    149.25685   -5075.5073   -4776.9752   -5075.5073            0    6485.3172    17.973045    22.778404    19.135246    7833.9173    5334.9877    6826.9536    7294.0103    848.38061   -594.56072   -79.525073     -4036.03 
21096000    154.74896   -5054.4125   -4744.8955   -5054.4125            0    6698.2691    17.861428    22.816235    19.276344     7855.699    7186.2636    7076.3329    5832.2108    -1330.752    166.38309   -137.04363   -3977.4928 
21097000    154.43695   -5058.5377   -4749.6447   -5058.5377            0    7363.3955    17.860557    22.643765    19.322781    7814.7173    7215.8977    8407.0264    6467.2625   -53.589249    354.33544    -1543.548   -3910.4412 
21098000    154.16658   -5063.0474   -4754.6952   -5063.0474            0    5950.8371    17.842273    22.772517    19.393958    7880.0263    6903.6019    5387.5624    5561.3471    -516.3684   -1352.3158    1285.3734   -4070.8125 
21099000    148.93017   -5055.8494   -4757.9706   -5055.8494            0    6970.2987    17.789473    22.879579     19.23188    7827.6757    8702.4393    5891.4536    6317.0033    678.57512   -222.81792   -1062.8785   -3962.2509 
21100000    151.25536   -5054.1854    -4751.656   -5054.1854            0     7835.199    17.822271    22.609382    19.382921    7810.3582    8642.1315    7563.0318    7300.4336    1128.8357   -1030.9785    1709.5272   -3859.1793 
21101000    143.14753   -5056.8073   -4770.4945   -5056.8073            0    8417.5418    17.724531    22.822334    19.283466    7800.4543    10596.888    7719.7051    6936.0322    -577.8665    370.37048    1617.2774   -3812.9013 
21102000    157.95821   -5068.9925   -4753.0566   -5068.9925            0    5502.9877    17.875075    22.893635    19.212522    7862.2527    6412.6868    5026.6274     5069.649    -36.32156    688.07116    118.17355   -4122.0681 
21103000    163.08712   -5065.5214    -4739.327   -5065.5214            0    6886.3505     18.06234    22.530497    19.269867    7841.9396    4481.6666    8621.3431    7556.0417     353.6228    466.52082    1322.1156   -3951.7582 
21104000    157.60534      -5055.2   -4739.9698      -5055.2            0    7649.8717    17.898425    22.943629    19.003101    7803.7151    6135.0231    7766.3081     9048.284   -213.06616   -138.33013    888.98003   -3869.3442 
21105000    161.61455   -5046.4042   -4723.1551   -5046.4042            0    6920.5153    17.940793    22.889506    19.089155    7839.0738    6185.3449    6198.7432    8377.4579    1214.3728    199.55752    895.73016   -3931.9682 
21106000    156.04921   -5083.3851   -4771.2674   -5083.3851            0    7257.9073    17.956712    22.652197    19.241978    7826.8469    7187.9782    7191.3399    7394.4038    929.26589   -11.667746    929.60642   -3942.8024 
21107000    156.92431   -5063.4534   -4749.5853   -5063.4534            0    6529.2753    17.824703    22.892351    19.257983    7858.2079    6629.9927    6963.8822    5993.9511    161.74856    729.23663   -672.36826   -4001.3049 
21108000    158.58163   -5058.0973   -4740.9144   -5058.0973            0    6886.7676    17.818899    22.739999    19.345778    7838.9434    6031.0628     6532.858    8096.3822   -860.65778   -461.64739    67.708103   -3953.5988 
21109000    153.66199   -5062.0471   -4754.7041   -5062.0471            0    7046.9155    17.817776    22.715857    19.342487    7828.7954    5975.0521    8078.2974    7087.3968   -193.92609    780.72819   -564.83607   -3950.1229 
21110000    159.72987   -5053.8383   -4734.3588   -5053.8383            0    8573.7954    17.809044    22.794742    19.211264    7798.8617    8761.0568    8716.3225    8244.0069   -53.680078    428.42621    951.58431   -3759.1891 
21111000    160.78369   -5041.6159   -4720.0287   -5041.6159            0    8428.2315    17.845167    22.564499     19.40615     7814.221    8096.8659    8871.1156    8316.7128    64.763386   -274.58816    1616.2247   -3759.5272 
21112000     150.8225   -5046.7678   -4745.1042   -5046.7678            0     6500.473    17.836248    22.940183    19.238284    7871.6671    6621.6492    5875.9716    7003.7983   -702.92964   -1094.2752   -1072.7451   -3998.8486 
21113000    155.75792   -5071.8692   -4760.3341   -5071.8692            0    8312.5264    17.879359    22.784634    19.160717    7805.5905     8730.073    8919.9249    7287.5812   -1230.6546     718.2146   -560.89302    -3814.065 
21114000    156.93795   -5047.5179   -4733.6226   -5047.5179            0    8440.8846    17.973584     22.49217    19.303779    7803.8404    8306.4045    8823.8591    8192.3902    -1511.384     55.08084   -1389.8052   -3772.9571 
21115000      149.143   -5048.9782   -4750.6738   -5048.9782            0    7667.1311    17.824993    22.902897    19.180234    7830.2152     8362.402    7117.2133    7521.7781   -615.02927   -369.58112   -574.51233   -3875.1207 
21116000    153.80538   -5071.8646   -4764.2348   -5071.8646            0     7504.777    17.722324    22.858227    19.289211    7814.0769    8178.9247    8127.0649    6208.3414     998.5998   -630.36606    185.03331   -3908.9882 
21117000    158.23349   -5086.4579   -4769.9713   -5086.4579            0    6379.7359    17.889797    22.570595    19.397804    7832.5105    7011.2653    6597.7427    5530.1996    2.8620699   -524.04491    443.29007   -4041.2196 
21118000    157.27959   -5076.7001   -4762.1214   -5076.7001            0    8468.0421    17.820836    22.870225    19.139938    7800.7979    8004.5357    8504.8762    8894.7145   -19.047372    911.79295     598.3965   -3798.7408 
21119000    154.60813   -5079.1842   -4769.9488   -5079.1842            0    6888.3466    17.999982     22.65351    19.233073    7842.5312    5806.2324    7168.0041    7690.8035    919.85863    604.15158    1230.6033   -3982.0923 
21120000    157.90654   -5068.3747   -4752.5421   -5068.3747            0    7308.2743    17.967712    22.630999     19.20103    7807.6623    7024.1218    8096.7367    6803.9643    1164.0934   -155.40809    814.45375   -3920.3727 
21121000    156.13838   -5081.4502   -4769.1541   -5081.4502            0    5653.6777    17.901786     22.98529    19.129054    7871.1796      5886.77    5280.4623    5793.8009    956.20216   -419.79549    1732.2076    -4120.151 
21122000    159.15602   -5054.9147    -4736.583   -5054.9147            0    7213.8047    17.870244    22.948197    19.123139    7842.2058    7736.2275    6601.6724    7303.5142   -375.33371   -628.77935   -34.580781   -3911.5363 
21123000    155.90561   -5059.9043   -4748.0738   -5059.9043            0     9030.389    17.881733    22.505385    19.333864    7780.6292    8338.8366    9646.0429    9106.2876    215.46887   -366.52052    791.44589    -3723.373 
21124000    162.38543   -5061.7699    -4736.979   -5061.7699            0    7804.7756    17.784426    22.806299    19.234644    7801.5128    8654.1219    7017.6226    7742.5822    781.37013    689.76843    201.94702   -3848.9745 
21125000    168.44472   -5069.4334   -4732.5231   -5069.4334            0    7753.0721    17.812879    22.839141    19.176259    7801.4935    8852.1064    7113.2524    7293.8575   -966.89861   -119.62364   -551.14296   -3850.4035 
21126000    158.34091   -5073.9943   -4757.2929   -5073.9943            0    7845.0361    17.909979    22.546366    19.330801    7805.8729    7279.6108    9032.3564     7223.141   -516.61838    346.78237     959.9626   -3864.2089 
21127000    154.27953   -5064.4712    -4755.893   -5064.4712            0    9168.4084    17.835915    22.769132    19.134971    7770.8702    8791.9713    8968.5785    9744.6753   -526.43552   -1245.1895    1138.8093   -3716.8358 
21128000    154.97408   -5070.1946   -4760.2273   -5070.1946            0    6984.1491    17.799508    22.877882    19.225013    7828.7148    7510.8919    6947.3711    6494.1842    99.249718   -367.70604   -135.16693   -3962.8206 
21129000    161.75075    -5045.107   -4721.5855    -5045.107            0     7731.863    17.920894    22.512844    19.387914    7822.0596    8231.5272    9009.5437    5954.5182   -275.66813    602.83494    1279.3732   -3839.5599 
21130000    150.52826   -5074.5993   -4773.5242   -5074.5993            0    7809.7718    17.842894    22.785238     19.18876    7801.2782    8059.0652    8134.1046    7236.1455    833.08575    360.32398    679.95321    -3884.978 
21131000    147.64199   -5066.8458   -4771.5436   -5066.8458            0    7281.4219      17.7734    22.845703    19.201802    7796.8117    7715.5978    7190.6668    6938.0011    156.89521   -959.72739   -771.32592    -3943.584 
21132000    165.71915   -5064.4314   -4732.9726   -5064.4314            0    6111.9611    17.951133     22.72757    19.260614    7858.0534    6686.2042    5936.9001    5712.7788    -1221.582    -446.7131   -1261.2132   -4032.5318 
21133000    160.18019   -5052.1844   -4731.8042   -5052.1844            0    7849.9586    17.934994    22.879406    19.073476    7826.6486    6483.2316    7388.3063    9678.3378   -1221.0078    50.173803   -669.69576   -3835.7814 
21134000    153.19947   -5074.1755   -4767.7576   -5074.1755            0    7393.6388    17.924303    22.809493    19.169253    7837.2393    6819.0867    6568.7813    8793.0483   -2.6346221    56.263034   -392.97784   -3922.6788 
21135000    151.49186    -5061.315   -4758.3126    -5061.315            0    8403.8568    17.963166    22.691957    19.164341     7811.757    7828.7515    7793.0086    9589.8104    199.20297   -910.24197   -527.81105   -3800.8909 
21136000    163.36222   -5063.2075   -4736.4628   -5063.2075            0    7889.3042    17.906496    22.793656    19.134003    7809.6297    7320.1153    7286.1006    9061.6968   -1002.8431   -268.16992    1698.3118   -3837.9071 
21137000    152.10189   -5061.2709   -4757.0483   -5061.2709            0    7600.5678    17.892585    22.852423    19.113034    7815.1076    7119.5517    7143.0564    8539.0955   -762.32218   -126.30971    340.14287   -3890.7711 
21138000    154.99497   -5063.2381    -4753.229   -5063.2381            0    7823.2093    17.956112    22.678408    19.216965    7825.4562    7699.7051     7117.236    8652.6868    796.33291   -1518.4303   -694.31681   -3860.3954 
21139000    149.85194   -5068.9426   -4769.2202   -5068.9426            0    6847.5007    18.034206    22.543774    19.226687    7816.7836    5197.8017    7778.3395    7566.3609   -1149.2834   -173.37054   -490.14646   -3988.6067 
21140000    157.51209   -5055.1341   -4740.0904   -5055.1341            0    7119.9417    17.886043    22.992971    19.020386     7822.196    6958.1866     6628.677    7772.9616   -1113.3145    57.342731    391.47831   -3927.8567 
21141000    147.84445   -5059.7081    -4764.001   -5059.7081            0    6892.7862    17.925037    22.842067    19.165182    7847.0858    7497.1658    6666.5169     6514.676   -273.22822    401.24544   -864.46931   -3975.1788 
21142000    161.48589   -5072.1418     -4749.15   -5072.1418            0    6701.4685    18.027197    22.487528    19.334623    7838.0068    6790.2705    7646.1099    5668.0252    -554.9394   -198.78003    105.10446   -3983.1099 
21143000    152.99542   -5065.2999   -4759.2902   -5065.2999            0    7917.6377     17.75247    22.982541    19.146511    7811.7167    8495.9795    6950.4108    8306.5229   -628.76916   -89.955146   -379.29327   -3857.2664 
21144000    157.62677   -5056.2415   -4740.9685   -5056.2415            0    7797.0399    17.898089    22.700758    19.193648    7798.3825    7836.6543    7901.3282    7653.1372   -220.57246   -283.83385    1349.7228   -3854.2001 
21145000    158.72384   -5068.2634   -4750.7962   -5068.2634            0    7621.9019    17.997473    22.699683    19.130168    7815.3801     7353.634    7080.9435    8431.1282    475.60287   -394.56604   -1531.5218   -3882.0571 
21146000    155.47335   -5073.0884   -4762.1224   -5073.0884            0    6625.6664    17.891515    22.909364    19.159127    7853.0051    6653.7128    6578.3957    6644.8908     151.8352    1097.8743    383.76743    -4003.298 
21147000    150.08265     -5076.46   -4776.2761     -5076.46            0    6241.3105    17.931644    22.757721     19.26518    7861.7994    6158.6469    7370.7583    5194.5263   -28.145938    485.09816    1466.3754   -4060.6707 
21148000    158.26255   -5071.4945   -4754.9498   -5071.4945            0    6932.4136    17.892179    22.691816    19.250469    7815.8066         5405    7974.9461    7417.2946   -764.25785   -808.15007    1848.7168    -3964.755 
21149000    162.10552   -5056.2446   -4732.0135   -5056.2446            0     7222.054    17.719276    22.979233    19.226735    7828.6528    8719.0982    6829.1386     6117.925    114.21035    622.93166    146.29818   -3907.4509 
21150000    155.20768   -5075.8889   -4765.4544   -5075.8889            0    6872.9204    17.965979    22.615826    19.321092    7850.4578    6596.8947    7185.0136    6836.8529   -300.12799   -97.184278    -958.4151   -3978.5677 
21151000    163.60793   -5054.7253   -4727.4892   -5054.7253            0    6040.5971    17.947286    22.816989    19.201678    7863.1452    5780.8184    6200.4272    6140.5455   -609.88823    347.98333   -695.02674   -4034.7783 
21152000    158.70238   -5063.1276   -4745.7032   -5063.1276            0    7445.2276    17.850113    22.817816    19.160971    7804.2748    7876.6382    7240.5759    7218.4687   -485.56344    443.36573    113.45937   -3898.3072 
21153000    157.93149   -5054.4269   -4738.5444   -5054.4269            0    7701.0919    17.917956    22.648534    19.245286    7810.0341    6049.1136    8620.1603    8434.0017   -289.38375    895.81697   -161.11151   -3861.3798 
21154000    161.55778   -5083.4501   -4760.3145   -5083.4501            0    6600.3515    17.898002    22.783145    19.209222    7832.9976    7084.0811    7281.2198    5435.7537    185.02897    772.52998   -482.08715   -4006.3152 
21155000    154.12098   -5067.2476   -4758.9866   -5067.2476            0    7415.4736    17.926323    22.691193    19.235235      7824.31    7654.5928    7280.7532    7311.0748   -431.74099     382.6484    -1286.056   -3912.8103 
21156000    152.60918   -5080.3167   -4775.0794   -5080.3167            0    7007.2811    17.994852    22.663858    19.239419    7846.4654    6702.4002    7255.8587    7063.5844   -485.17823    734.83252   -649.65915   -3973.2177 
21157000    152.62655   -5062.7936   -4757.5217   -5062.7936            0    7069.6372    18.021368    22.776184    19.089791    7835.5573    6418.8226    6785.5539     8004.535   -351.11187    770.16504    1728.2426    -3949.649 
21158000    151.50111    -5073.741   -4770.7201    -5073.741            0    8716.4617    17.976174    22.740141    19.062968    7792.5738    10122.455     7927.714    8099.2158   -233.19824   -126.10565   -1001.0187    -3780.123 
21159000    152.82351   -5070.3957   -4764.7298   -5070.3957            0    7000.3949    17.943201    22.736327    19.149398     7812.236    7550.9455    6064.9641     7385.275    185.84398   -773.20251    851.60758   -3967.1507 
21160000    156.86049   -5056.6931   -4742.9527   -5056.6931            0    7886.7867    17.827173    22.880452    19.138636    7806.5304    7871.9161    8297.8093    7490.6347   -268.65506    145.17445    974.17887   -3845.0402 
21161000    149.85481    -5061.085   -4761.3569    -5061.085            0     8056.594    17.882386    22.850252     19.04083    7780.4074    9087.5577    7324.9986    7757.2256    388.33683   -817.73567   -394.04669   -3847.1811 
21162000    158.10763   -5063.1227   -4746.8879   -5063.1227            0    6954.6936    17.951706    22.686232    19.191719    7815.9537    5816.8609    6402.5995    8644.6203    131.27734   -1096.7865   -741.74514   -3954.1386 
21163000    153.32716   -5062.7661   -4756.0928   -5062.7661            0    9478.6635    17.870198    22.709784    19.168766    7779.2286    8493.8405    9720.9959    10221.154    -241.6474    -372.7043   -596.44278   -3680.7188 
21164000    153.62082   -5067.5369   -4760.2763   -5067.5369            0    6452.8168    17.919558    22.832794    19.161259    7839.8979    6693.7155    6075.5901    6589.1449    150.18555    -397.0477     108.9259   -4022.4814 
21165000    156.52432   -5069.5069   -4756.4389   -5069.5069            0    7524.3998    17.902335     22.85419    19.094595    7812.4268    6713.2602     7544.366    8315.5733   -289.78731   -504.12937   -229.89533   -3899.1372 
21166000    166.30173   -5059.7495   -4727.1255   -5059.7495            0    6464.8285    18.027756    22.702927    19.170624    7846.2076    6992.6224    6210.1959    6191.6672    771.19226   -282.20932   -2730.3878   -3987.3624 
21167000    147.87849   -5056.4733    -4760.698   -5056.4733            0    7355.5907    17.963069    22.747575    19.152492    7826.0195     7086.409    7308.6008    7671.7623    -496.9928   -84.808317   -144.15679   -3921.1716 
21168000     149.5988   -5033.2839   -4734.0678   -5033.2839            0    8725.7204    17.930608    22.736761     19.12943    7798.7614    7584.9024     8782.024    9810.2349   -810.70382    741.00855   -1185.3516   -3741.6311 
21169000    164.38612   -5057.4109   -4728.6184   -5057.4109            0    7590.6979    18.063498    22.711783    19.101511    7836.4757    6129.8743    7085.5428    9556.6767   -685.62867   -742.98893    1014.4273   -3861.1006 
21170000    152.42484   -5053.8405    -4748.972   -5053.8405            0    8268.2538    17.870362    22.796736    19.112035    7785.9737    7814.5556    8984.3475    8005.8585   -321.94315    2199.1567    1286.9935   -3810.1082 
21171000    155.93814   -5057.3023   -4745.4068   -5057.3023            0    6573.0088    17.985036    22.583254    19.335947    7853.5006    5995.7851    6716.2341    7007.0072    506.97034   -494.96095   -848.40551   -3992.5656 
21172000    156.06196   -5076.2188   -4764.0756   -5076.2188            0    7817.7448     17.87237     22.72772     19.23269    7812.2846    8047.9046    7333.3706     8071.959    928.92175   -248.43366    938.03352   -3873.3674 
21173000    151.80613   -5068.7693   -4765.1383   -5068.7693            0    7454.9542    17.762051    22.970705    19.133272    7806.5056    7695.2163    6406.1846    8263.4617    289.29473   -910.57903   -424.40711   -3916.3926 
21174000    150.84718   -5059.0793   -4757.3663   -5059.0793            0    7151.1056    17.996531    22.579962    19.257985    7825.6938    6242.2536    7187.5036    8023.5595   -420.40765   -222.09887   -1104.0099   -3941.2127 
21175000     154.9415    -5067.722   -4757.8199    -5067.722            0    7764.4984    17.906543     22.75461    19.146053    7801.1819    7924.4721    7685.2632      7683.76    1083.1727   -56.073147    1920.5207   -3874.4355 
21176000    156.64866   -5067.2523   -4753.9356   -5067.2523            0    7472.3774    17.771374    22.948476    19.145571    7808.0606    7439.1797    7479.8809    7498.0716     221.9104   -950.40512    87.539248   -3903.0369 
21177000    160.34827   -5054.9715   -4734.2552   -5054.9715            0    8558.3542    17.891977     22.67425    19.216491    7795.8836    8410.7125     8874.097    8390.2529    247.33865   -123.60459    355.08608   -3761.2134 
21178000    157.17101   -5052.6233   -4738.2619   -5052.6233            0     7737.963    17.946592    22.566832    19.316988    7823.3361    8892.1971    8619.8194    5701.8727   -668.30638   -1010.4337   -401.89901   -3855.3964 
21179000    154.90506   -5051.7157   -4741.8864   -5051.7157            0    6244.5986    17.782742    23.005122    19.242497    7871.9926    8035.6837    5343.7288    5354.3834    1583.9244   -890.84723    512.61908   -4024.9757 
21180000    160.55012   -5070.6215   -4749.5014   -5070.6215            0    5728.2159    17.875371    22.983483    19.168598     7875.194    6419.0687    5053.9928    5711.5862    360.41229    8.9340166    30.908553   -4091.6065 
21181000    150.69989   -5063.8718   -4762.4534   -5063.8718            0    6397.6314    18.020171    22.620034    19.215733     7832.657    7020.2582    6739.7935    5432.8427    418.99838   -668.99722    546.37202   -4031.6439 
21182000     162.3413   -5072.1615   -4747.4588   -5072.1615            0    8034.9963    17.953246    22.681256    19.171116    7806.5204    7539.6084    8332.9488    8232.4317    962.39767    268.84689    249.91626   -3832.6738 
21183000     156.9213   -5076.4074   -4762.5454   -5076.4074            0    7360.0818    17.852426    22.871199    19.144841    7816.9607    7285.7581    7448.7389    7345.7483    12.082983    1319.7377    278.26344   -3923.4787 
21184000    149.64314   -5068.8236   -4769.5188   -5068.8236            0    7041.1484    17.868517    22.718182    19.261833    7819.1524    7581.1012      6997.89    6544.4539    362.08454    446.12887    1134.5964   -3966.5863 
21185000    165.02406   -5061.4777   -4731.4092   -5061.4777            0    8006.3585    17.845672    22.836678    19.116836    7790.7964    7143.9371    7966.6655    8908.4729    664.36251   -258.92634    1326.5488   -3821.7205 
21186000    159.04842   -5067.0244   -4748.9079   -5067.0244            0    5028.6686    17.900909     22.89134    19.257841    7891.3972    4564.4576    5552.1769    4969.3714     226.6809    519.90944    443.01321   -4170.1688 
21187000    154.31226   -5070.4255   -4761.7819   -5070.4255            0    8219.7427    17.959252    22.781278    19.083923    7807.8956    7979.7984    8455.0783    8224.3513    374.89266   -5.1400645    552.59272   -3825.7986 
21188000    158.50363   -5054.6382   -4737.6114   -5054.6382            0    8342.9268    18.006049    22.550915    19.237649    7811.5027    9423.9987    9133.9492    6470.8324    1511.6427    -41.98668    461.27034   -3787.1622 
21189000    147.20966   -5067.5599   -4773.1224   -5067.5599            0    7339.1486    17.889312    22.828255     19.18392     7834.363    8402.6276    6930.7119    6684.1064    377.80114    1244.9773   -225.34302   -3934.5795 
21190000    167.30456   -5058.0669   -4723.4371   -5058.0669            0    8506.6177    17.851082    22.882143     19.11812    7809.1976    8460.9008    7613.3329    9445.6194   -661.00249    787.35275    630.95773   -3754.6258 
21191000    164.24938   -5074.1596   -4745.6405   -5074.1596            0    8319.3543    18.033102    22.572019     19.19064    7811.4257    6845.1567    9519.8906    8593.0156   -635.17535    275.82943   -667.34185   -3797.8861 
21192000    156.26754   -5057.4949   -4744.9405   -5057.4949            0    6770.2894    18.026363    22.783565    19.078607    7835.6759    4521.2372    6679.6815    9109.9495    13.961043   -246.60352   -2039.5245   -3971.2637 
21193000    156.84196   -5064.3983   -4750.6949   -5064.3983            0    7731.4213    17.758239    23.051557    19.048187    7797.4719    7592.2854    7886.0837    7715.8947   -44.109343    1058.4158   -204.47734   -3871.4922 
21194000     161.6383   -5071.9261   -4748.6295   -5071.9261            0    6482.7397    17.927785    22.632988    19.328697    7842.7992    6087.4719     7171.198    6189.5491   -85.713268     237.2032    296.36925    -4007.139 
21195000    150.32074   -5046.7999   -4746.1399   -5046.7999            0    7307.8705    17.808813    22.707725    19.337309    7819.9618    8705.5723    7063.9177    6154.1216     732.4802   -120.66954    1022.9072   -3912.7056 
21196000    156.62037    -5072.694   -4759.4339    -5072.694            0    7108.0049    17.738567    22.839908     19.31076    7823.7012    8015.9657    6971.4142    6336.6349    898.62332    677.92665    2117.2932   -3948.4059 
21197000    151.30357   -5055.9262   -4753.3004   -5055.9262            0    5903.9378    17.940016    22.605635    19.403038    7868.8138    5689.8237     7874.703    4147.2868    1548.6947    161.63371    107.42334   -4075.7729 
21198000    152.61935   -5050.4197   -4745.1621   -5050.4197            0    8689.1958    17.850061    22.769303    19.153347    7784.5609    9645.1252    7729.8794    8692.5827    1025.4389    299.87521     1801.324   -3758.6791 
21199000    160.08391   -5062.0441   -4741.8565   -5062.0441            0     6339.667    17.986503    23.006888    19.004891    7864.4796    4591.9989    6089.6568    8337.3454   -766.10788   -577.56278   -581.52231   -4014.7261 
21200000    152.29923   -5060.4388   -4755.8215   -5060.4388            0    7773.0598    17.954293    22.636733     19.23842    7819.0042    8746.9246    8096.4678    6475.7871    751.60624   -671.00818   -1438.8004   -3869.4427 
21201000    160.53165   -5068.9011   -4747.8179   -5068.9011            0    8684.1388    17.872444    22.683745    19.155381    7765.8587    5663.5541    10041.333    10347.529    -1076.422    59.668096   -1410.9125   -3764.2777 
21202000    156.47327   -5061.9204   -4748.9545   -5061.9204            0     8597.244    17.796436    23.008531    19.017694    7787.1722    7826.6965     7685.996    10279.039    56.350081   -819.93181   -373.72537   -3772.5834 
21203000    152.65878   -5073.7867   -4768.4503   -5073.7867            0    8060.1001    17.862187    22.683351    19.220131    7787.5023    7133.7939    8492.4787    8554.0279    -149.9364   -462.85834    -238.7724   -3853.0427 
21204000     150.4614   -5079.5264    -4778.585   -5079.5264            0    6786.5266    17.926532    22.694371    19.317011    7858.7661    7247.7668    7158.7624    5953.0506   -456.95358    236.07511   -1314.6548   -4000.7674 
21205000    150.00048   -5069.5356   -4769.5161   -5069.5356            0    7635.6179    17.796745     23.01781    19.054881    7805.6811    7630.4735    6285.4051    8990.9752   -25.943125   -502.02561   -177.94868   -3900.2938 
21206000    154.93205   -5066.3562    -4756.473   -5066.3562            0     7150.675    17.887115    22.858019    19.134252    7823.3071    6963.4743    6847.4088    7641.1418    828.82621   -306.33913   -60.516052   -3940.6174 
21207000    158.99838   -5070.2386   -4752.2222   -5070.2386            0    6849.7199    17.972662    22.632216    19.294771    7848.3634    6915.6809    6852.3547    6781.1242    473.79198   -487.99638    -1629.744    -3968.201 
21208000    167.67811   -5071.7722   -4736.3953   -5071.7722            0    7513.5895    17.772325    22.953865    19.162155    7817.0775    6653.9379     7878.375    8008.4555   -1837.2347    -788.6613   -517.11278   -3879.8156 
21209000     161.0048   -5075.9852   -4753.9557   -5075.9852            0    6265.1651    17.902939    22.828076    19.220162    7855.0812    6182.0767    6366.9941    6246.4244   -774.92024    220.04635   -872.46186   -4036.2291 
21210000    158.81525   -5060.2782   -4742.6281   -5060.2782            0    6514.8038    17.907185    22.759158    19.282818    7858.7597    7625.1597    6696.9146    5222.3371    688.62723    574.20066   -421.42383   -3995.9537 
21211000    160.31979   -5070.6121   -4749.9527   -5070.6121            0    6571.6828    17.920189    22.801875    19.170765    7833.4413     6735.887    6922.6616    6056.4999   -89.170452   -21.585362    976.03202   -3999.1859 
21212000    153.54308   -5056.4924   -4749.3873   -5056.4924            0    7114.3139    17.853696    22.803504    19.191542    7813.3917     6272.516    7371.4856    7698.9402    1170.1365   -338.21565    187.27953    -3938.709 
21213000    157.72286    -5066.416   -4750.9507    -5066.416            0    7140.8985    17.922166    22.623207    19.303684    7826.8114    8787.8883    6470.5908    6164.2164    23.200585   -1108.8736   -625.65449   -3935.8456 
21214000    160.48349   -5079.9106   -4758.9238   -5079.9106            0    6605.9041    17.916748    22.708865    19.327051    7863.5784    5653.0879    6986.3146    7178.3097   -626.80154    360.20217    1015.2503    -4001.344 
21215000    150.90028   -5079.0984   -4777.2792   -5079.0984            0    7280.4993    17.668547     22.92599    19.234603    7791.3399    8776.7818    7073.9009    5990.8152   -464.68026   -184.35673    1220.5226   -3950.0056 
21216000    152.81091   -5058.9181   -4753.2774   -5058.9181            0    7511.1932     17.86142    22.755506    19.272752    7833.3261     7964.339    6463.6391    8105.6014   -674.11242   -478.96692   -906.96564    -3895.191 
21217000    148.10962   -5072.7927   -4776.5551   -5072.7927            0    6839.9436    17.936557    22.602894    19.306268    7827.1106    6325.7861    7207.7947    6986.2499   -528.57551    -1205.732    29.971888    -3995.773 
21218000    154.39857   -5049.3394   -4740.5231   -5049.3394            0    6967.2881    17.914515     22.90421    19.117111    7844.0911    7575.2393    6479.3349      6847.29   -1377.3034    676.08435   -283.75998   -3943.4792 
21219000    156.46185   -5071.6285   -4758.6854   -5071.6285            0    6986.0228    17.854321    22.867913    19.196982    7837.9563     6857.712    7215.6003    6884.7561    -552.5908    469.59378   -1272.1667   -3960.1233 
21220000    156.53646   -5079.3532   -4766.2609   -5079.3532            0    8022.2686    17.771317    22.699326    19.300117    7785.6076    7567.8349    8646.6978    7852.2731    531.38028   -59.380382    277.00368   -3855.3716 
21221000    152.47963   -5060.2485   -4755.2704   -5060.2485            0    8444.8991    17.807241    22.751766    19.230177    7791.0325    8638.8215    7847.5527    8848.3231    338.79656   -652.84498   -1090.6451   -3795.7253 
21222000    147.50542   -5073.8208   -4778.7918   -5073.8208            0    6281.2841    18.058664    22.473336    19.361516     7857.647    5385.3722    8065.1118    5393.3682   -1774.5493    663.09223   -925.74686   -4058.9835 
21223000    154.69414   -5077.0089   -4767.6015   -5077.0089            0    7624.0253    17.832954    23.023089    19.030594    7813.3852    8097.0353    6810.7319    7964.3087   -231.48993   -745.87353    -926.1747   -3898.8422 
21224000    149.11914   -5050.7608   -4752.5041   -5050.7608            0    8437.1032    17.855209    22.872607    19.121181    7808.9978    6576.3715    9520.2636    9214.6745    309.58791    407.49705    704.92229   -3791.6343 
21225000    156.13558   -5070.5729   -4758.2825   -5070.5729            0    8004.0106    17.916839    22.623823    19.225499    7793.0063    7509.7278    9209.5893    7292.7148   -1465.9528    102.36922   -505.38815   -3848.6027 
21226000    149.17626   -5055.5066   -4757.1357   -5055.5066            0    6559.4906    17.922404     22.91565    19.138714    7860.3371    7125.8208    5592.2632    6960.3879    766.01046   -972.37929   -577.49901   -4005.1887 
21227000    165.28703   -5041.4861   -4710.8916   -5041.4861            0    7438.8283    17.848158    22.997753    19.058144    7822.7496    7459.5811    6173.1271    8683.7768    138.58785    460.61498    554.79173   -3862.2196 
21228000    160.79213   -5062.1291    -4740.525   -5062.1291            0    7141.0128    18.030755    22.595439    19.236833    7837.3326    5723.3039    8256.2523    7443.4822   -32.535342    586.80561   -2010.8693   -3924.3111 
21229000    153.64072   -5048.1027   -4740.8022   -5048.1027            0     8098.707    17.938638    22.753163    19.157459    7819.3227    9228.6942      7339.78    7727.6468   -171.35421      514.207     1612.224   -3817.2516 
21230000     171.4347    -5069.801   -4726.9104    -5069.801            0    7253.7436    17.828851    22.790843    19.232777    7814.9417      7157.71    7849.3023    6754.2183    1256.5018    902.00807   -512.04749   -3900.1802 
21231000    157.00107   -5052.1743   -4738.1528   -5052.1743            0    7357.5482    17.909606    22.526421    19.430805    7839.1506     8069.712    7759.0015    6243.9311   -1011.4119   -176.59665    1242.7971    -3896.994 
21232000    157.57518   -5062.1672   -4746.9974   -5062.1672            0    7002.2553    17.839076     22.95886    19.107912    7825.9291    7905.2259    5882.6006    7218.9396    651.98944    -12.31786   -425.50158   -3947.8079 
21233000    149.19058    -5058.372   -4759.9724    -5058.372            0     7574.653     17.97136    22.762133     19.08051     7805.197    6809.0417    7548.6246    8366.2926    1755.0399     452.0803    699.54781   -3897.7437 
21234000    158.70643   -5056.8931   -4739.4607   -5056.8931            0     6105.293    18.071369    22.645121     19.24427    7875.3008    5159.3161    6480.8476    6675.7153    670.69898    -960.8149    612.16593   -4038.2483 
21235000    152.55489   -5073.9751   -4768.8465   -5073.9751            0     7379.062    17.904013     22.82925     19.11226    7811.8536     6591.653    7003.4487    8542.0843   -783.20616   -309.42171   -784.71555   -3928.1657 
21236000    158.33686   -5078.9978   -4762.3045   -5078.9978            0    6507.2973    17.933033    22.700791    19.226558    7827.0171    7807.5089    6656.0459    5058.3371   -27.174106   -1115.8319   -534.32629    -4019.503 
21237000    154.47427   -5071.2909   -4762.3233   -5071.2909            0    6515.1854    17.904842    22.683222    19.312206    7843.4498    6407.0308    7150.4674    5988.0579   -161.81878     330.3589    26.683271   -4017.0599 
21238000    149.13605   -5040.0812   -4741.7907   -5040.0812            0     7539.718    17.767058    22.828861     19.31901    7835.8236    9483.9097     7238.348    5896.8963     974.5219    411.23685    880.68534    -3880.171 
21239000    152.26884   -5048.6984   -4744.1419   -5048.6984            0    7572.1944     17.84429    22.695136    19.243251    7793.1046     6888.152    8527.2313       7301.2    1701.0895    224.12874    1527.4873   -3883.5284 
21240000    157.49552   -5054.8636   -4739.8531   -5054.8636            0     7539.719    17.928126    22.530227    19.386778    7830.7994    6583.2751    8161.0057    7874.8763    1030.0126    189.61977    129.80677   -3878.7857 
21241000    147.35023     -5059.05   -4764.3313     -5059.05            0    7562.3973    17.891877    22.894177    19.087869    7818.7693    7696.5834    7322.9491    7667.6596    372.56809   -336.45667    621.71603   -3902.0008 
21242000    153.59247   -5065.8613   -4758.6574   -5065.8613            0    6768.9622    17.966053    22.758188    19.178079    7841.4332    8158.2686    5791.1422    6357.4757   -1147.7328   -848.95556    337.75513   -3984.5639 
21243000     167.0797   -5066.3929   -4732.2129   -5066.3929            0    7721.5899    17.976105    22.597338    19.258659    7823.1009    9174.9114    7287.6626    6702.1957    45.885333   -553.09739   -1412.9659    -3851.242 
21244000    160.63962   -5057.1342   -4735.8351   -5057.1342            0    9266.3502    17.798276    22.855501    19.172879    7799.3068    9223.9621    9228.6878    9346.4006   -181.77979    456.41332   -417.48956   -3681.8351 
21245000    155.27136   -5046.2851   -4735.7232   -5046.2851            0    6519.2935    17.855043    22.882348    19.252867    7866.0538    6267.9645    6431.6302    6858.2858    255.24393     902.6979   -1278.6908   -3987.8407 
21246000    152.29319    -5061.852   -4757.2468    -5061.852            0    6895.5729    17.981846    22.444003    19.434027    7843.2741    5157.2075    8481.6029    7047.9082    453.53585    759.98457   -323.25651    -3968.489 
21247000    151.22874   -5060.7705   -4758.2944   -5060.7705            0    6844.0516    17.867801     22.89696    19.172737     7843.918    7280.4689    6852.1556    6399.5303   -810.76506   -7.9029165    325.60517   -3975.3657 
21248000    161.58275    -5063.509   -4740.3235    -5063.509            0    7285.1224    17.765933    23.031111    19.130412    7827.5748    8247.9089    6632.5464     6974.912    635.29454    353.07178   -310.16923   -3908.6747 
21249000    153.66385   -5072.3542   -4765.0075   -5072.3542            0    6580.9097    18.129781    22.347469     19.36917    7847.5109    5989.1636    6726.7658    7026.7996    536.48437    309.66488   -74.824797   -4011.8362 
21250000    161.87899   -5061.9922   -4738.2142   -5061.9922            0    4903.6226    18.006185    22.788063    19.275282    7909.1505    4649.5318     4866.209    5195.1271    1122.1488    108.99312    1257.8672   -4172.5968 
Loop time of 528.034 on 64 procs for 250000 steps with 1008 atoms

Performance: 81.813 ns/day, 0.293 hours/ns, 473.454 timesteps/s
195.5% CPU use with 32 MPI tasks x 2 OpenMP threads

MPI task timing breakdown:
Section |  min time  |  avg time  |  max time  |%varavg| %total
---------------------------------------------------------------
Pair    | 37.452     | 41.185     | 45.441     |  24.2 |  7.80
Bond    | 0.96118    | 1.2727     | 1.5334     |  11.1 |  0.24
Kspace  | 255.34     | 266.18     | 275.34     |  26.0 | 50.41
Neigh   | 1.6357     | 1.9284     | 2.1732     |  11.9 |  0.37
Comm    | 91.301     | 98.514     | 108.38     |  46.1 | 18.66
Output  | 0.47693    | 0.47748    | 0.4792     |   0.1 |  0.09
Modify  | 100.57     | 104.38     | 108.54     |  23.6 | 19.77
Other   |            | 14.09      |            |       |  2.67

Nlocal:        31.5000 ave          35 max          27 min
Histogram: 1 0 5 5 0 4 6 5 5 1
Nghost:        2912.84 ave        2928 max        2897 min
Histogram: 2 1 4 5 5 4 4 2 1 4
Neighs:        10574.8 ave       11769 max        9052 min
Histogram: 1 0 5 5 0 8 2 5 5 1

Total # of neighbors = 338395
Ave neighs/atom = 335.70933
Ave special neighs/atom = 2.0000000
Neighbor list builds = 4253
Dangerous builds = 0

unfix		3
unfix		2
unfix		1

write_data	data.final.${pid}
write_data	data.final.0
System init for write_data ...
PPPM initialization ...
  extracting TIP4P info from pair style
  using 12-bit tables for long-range coulomb (../kspace.cpp:340)
  G vector (1/distance) = 0.37976925
  grid = 24 27 32
  stencil order = 5
  estimated absolute RMS force accuracy = 0.0023859088
  estimated relative force accuracy = 7.1850934e-06
  using double precision FFTW3
  3d grid and FFT values/proc = 5355 672
Last active /omp style is kspace_style pppm/tip4p/omp
WARNING: Not all mixed pair coeffs generated from mixing. Use write_data with 'pair ij' option to store all pair coeffs. (../write_data.cpp:312)

write_restart   restart.lmp.${pid}
write_restart   restart.lmp.0
System init for write_restart ...
PPPM initialization ...
  extracting TIP4P info from pair style
  using 12-bit tables for long-range coulomb (../kspace.cpp:340)
  G vector (1/distance) = 0.37976925
  grid = 24 27 32
  stencil order = 5
  estimated absolute RMS force accuracy = 0.0023859088
  estimated relative force accuracy = 7.1850934e-06
  using double precision FFTW3
  3d grid and FFT values/proc = 5355 672
Last active /omp style is kspace_style pppm/tip4p/omp
Total wall time: 0:08:48
