LAMMPS (30 Jul 2021)
  using 1 OpenMP thread(s) per MPI task
package omp 0
using multi-threaded neighbor list subroutines
echo both

include		in.partitions
variable        pid world 0
include		in.temp
variable        temperature equal 270.65
variable	tempDamp equal 100.0
include		in.pressure
variable        pressure equal 9375.0
variable        pressureDamp equal 1000.0 # This is 1 ps
include		in.seed
variable        seed world 745823

units		real
atom_style	full
read_restart	restart.lmp.${pid}
read_restart	restart.lmp.0
Reading restart file ...
  restart file = 30 Jul 2021, LAMMPS = 30 Jul 2021
  restoring atom style full from restart
  orthogonal box = (0.63196148 1.8358984 0.77099153) to (17.575611 21.793279 21.442204)
  4 by 4 by 4 MPI processor grid
  restoring pair style lj/cut/tip4p/long/omp from restart
  restoring bond style harmonic/omp from restart
  restoring angle style harmonic/omp from restart
  864 atoms
  576 bonds
  288 angles
Finding 1-2 1-3 1-4 neighbors ...
  special bond factors lj:    0        0        0       
  special bond factors coul:  0        0        0       
     2 = max # of 1-2 neighbors
     1 = max # of 1-3 neighbors
     1 = max # of 1-4 neighbors
     2 = max # of special neighbors
  special bonds CPU = 1.108 seconds
  read_restart CPU = 1.426 seconds
include 	in.setup
variable	out_freq equal 1000
variable	out_freq2 equal 10000
variable	out_freq3 equal 1000

timestep	2.0

neigh_modify    delay 7 every 1

include		in.tip4p
# This is TIP4P/Ice

# create groups ###
group ox type 2
288 atoms in group ox
group hy type 1
576 atoms in group hy

# set charges - beside manually ###
set group ox charge -1.1794
Setting atom values ...
  288 settings made for charge
set group hy charge 0.5897
Setting atom values ...
  576 settings made for charge

# ### TIP3P Potential Parameters ###
pair_style lj/cut/tip4p/long/omp 2 1 1 1 0.1577 8.5
pair_coeff 1 1*2 0.000 0.000
pair_coeff 2 2 0.21084 3.1668
bond_style  harmonic
bond_coeff  1 450 0.9572
angle_style harmonic
angle_coeff 1 55 104.52
kspace_style pppm/tip4p/omp 1.0e-5
pair_modify tail yes

thermo          ${out_freq}
thermo          1000
thermo_style    custom step temp pe etotal epair emol press lx ly lz vol pxx pyy pzz pxy pxz pyz enthalpy

restart 	${out_freq3} restart.lmp.${pid} restart2.lmp.${pid}
restart 	1000 restart.lmp.${pid} restart2.lmp.${pid}
restart 	1000 restart.lmp.0 restart2.lmp.${pid}
restart 	1000 restart.lmp.0 restart2.lmp.0


include         in.dump
dump            myDump all atom ${out_freq2} dump.water.${pid}
dump            myDump all atom 10000 dump.water.${pid}
dump            myDump all atom 10000 dump.water.0
dump            myDump2 all dcd ${out_freq2} dump.dcd
dump            myDump2 all dcd 10000 dump.dcd
dump_modify     myDump append yes
dump_modify     myDump2 append yes


variable natoms 	equal  "count(all)"                        # NUMBER ATOMS
variable H      	equal  "enthalpy/v_natoms"                 # ENTHALPY-per-atom
variable Vol      	equal  "vol/v_natoms"                 # volume-per-atom
fix AVG all 		ave/time ${out_freq} 1 ${out_freq} v_Vol v_H file vol_enthalpy.dat
fix AVG all 		ave/time 1000 1 ${out_freq} v_Vol v_H file vol_enthalpy.dat
fix AVG all 		ave/time 1000 1 1000 v_Vol v_H file vol_enthalpy.dat


timer           timeout 23:50:00 every 1000
New timer settings: style=normal  mode=nosync  timeout=23:50:00

fix 		1 all shake 1e-6 200 0 b 1 a 1
       0 = # of size 2 clusters
       0 = # of size 3 clusters
       0 = # of size 4 clusters
     288 = # of frozen angles
  find clusters CPU = 0.123 seconds
fix             2 all nph iso ${pressure} ${pressure} ${pressureDamp}
fix             2 all nph iso 9375 ${pressure} ${pressureDamp}
fix             2 all nph iso 9375 9375 ${pressureDamp}
fix             2 all nph iso 9375 9375 1000
fix             3 all temp/csvr ${temperature} ${temperature} ${tempDamp} ${seed}
fix             3 all temp/csvr 270.65 ${temperature} ${tempDamp} ${seed}
fix             3 all temp/csvr 270.65 270.65 ${tempDamp} ${seed}
fix             3 all temp/csvr 270.65 270.65 100 ${seed}
fix             3 all temp/csvr 270.65 270.65 100 745823

run             250000
PPPM initialization ...
  extracting TIP4P info from pair style
  using 12-bit tables for long-range coulomb (../kspace.cpp:340)
  G vector (1/distance) = 0.37441393
  grid = 24 24 24
  stencil order = 5
  estimated absolute RMS force accuracy = 0.0031436665
  estimated relative force accuracy = 9.4670582e-06
  using double precision FFTW3
  3d grid and FFT values/proc = 2535 216
Last active /omp style is kspace_style pppm/tip4p/omp
Neighbor list info ...
  update every 1 steps, delay 7 steps, check yes
  max neighbors/atom: 2000, page size: 100000
  master list distance cutoff = 10.8154
  ghost atom cutoff = 10.8154
  binsize = 5.4077, bins = 4 4 4
  1 neighbor lists, perpetual/occasional/extra = 1 0 0
  (1) pair lj/cut/tip4p/long/omp, perpetual
      attributes: half, newton on, omp
      pair build: half/bin/newton/omp
      stencil: half/bin/3d
      bin: standard
Per MPI rank memory allocation (min/avg/max) = 9.237 | 9.240 | 9.242 Mbytes
Step Temp PotEng TotEng E_pair E_mol Press Lx Ly Lz Volume Pxx Pyy Pzz Pxy Pxz Pyz Enthalpy 
 2500000    284.12429   -3837.3569   -3350.3776   -3837.3569            0    7747.1475    16.943649    19.957381    20.671213    6989.9885    9900.6363    6751.1141    6589.6919   -476.52039   -467.75579   -259.47803   -2560.6193 
 2501000    276.51761   -3868.2015   -3394.2598   -3868.2015            0    8663.2474     16.91783    19.926969    20.639713    6958.0824    10397.611    6079.8922    9512.2387   -828.19107   -1362.5682    409.31873   -2515.1438 
 2502000    271.78584    -3863.709   -3397.8774    -3863.709            0    8568.7957     16.93394    19.945945    20.659368     6977.979    9635.5317    8382.4902    7688.3652   -407.22926    1241.1923   -1140.1743   -2525.8596 
 2503000    282.85937   -3900.6064   -3415.7951   -3900.6064            0    10383.327    16.927225    19.938035    20.651175    6969.6805    10791.422    10539.536    9819.0243   -620.17803    180.59925   -243.35594   -2360.3751 
 2504000    250.96079   -3857.8308   -3427.6926   -3857.8308            0    8952.1834    16.895726    19.900933    20.612746    6930.8443    8802.4374    10610.653    7443.4596    1428.3488   -139.42046   -750.45379   -2522.8126 
 2505000    278.39094   -3843.6707   -3366.5182   -3843.6707            0     11286.71    16.900935    19.907069    20.619101    6937.2571    12207.767    11446.039    10206.326   -1174.3813    503.24103    1242.8357   -2224.6103 
 2506000    281.18154   -3840.6169   -3358.6814   -3840.6169            0    9804.9114    16.921363    19.931131    20.644024    6962.4428    10210.571    10556.842    8647.3217    675.22553    2150.2015   -621.87796   -2363.0898 
 2507000    274.49938   -3834.9524   -3364.4699   -3834.9524            0    10000.984    16.917288    19.926331    20.639052    6957.4141    11835.414    9558.6272    8608.9103    1232.5589    169.93316   -157.37049   -2349.7026 
 2508000    280.25685   -3842.0172   -3361.6665   -3842.0172            0    8232.2645    17.039971    20.070834    20.788724    7109.8773    6251.2975    9592.0564    8853.4395    -441.4566   -868.67189   -219.05721   -2508.0608 
 2509000    280.11413   -3809.4744   -3329.3684   -3809.4744            0    8550.4852    16.981358    20.001796    20.717217    7036.7615    10118.148    7152.6644    8380.6436   -1255.5384    1750.6616    1042.1846   -2451.8838 
 2510000    271.25731    -3829.092   -3364.1662    -3829.092            0    9123.0178    16.962896    19.980051    20.694694    7013.8358    9126.2416    9009.0473    9233.7644    2076.9844   -574.46689   -503.78213   -2430.9764 
 2511000    274.25486   -3823.8808   -3353.8173   -3823.8808            0    10430.118    16.927838    19.938758    20.651923    6970.4387    10172.128     10627.14    10491.088    443.46682    848.63212    -728.0099   -2293.5259 
 2512000    284.13097   -3819.4831   -3332.4923   -3819.4831            0    11170.643    16.930275    19.941627    20.654896    6973.4488    9303.9493    11699.042    12508.938   -734.40983     157.5375   -21.512234   -2196.4313 
 2513000    285.20063   -3854.9668   -3366.1426   -3854.9668            0    6721.1532    17.048419    20.080786    20.799031    7120.4577    5723.1657    6401.7824    8038.5115    1146.2277    1986.9044    970.70425   -2668.1874 
 2514000    269.49839    -3821.736    -3359.825    -3821.736            0    10082.064    16.841093    19.836583    20.546094    6863.8278    9751.4902    11752.245    8742.4566   -280.25302   -704.96631    -379.9753   -2350.5913 
 2515000    279.21745   -3842.0463   -3363.4772   -3842.0463            0    9222.9238     16.85629    19.854484    20.564635    6882.4269    10349.046    8302.7813    9016.9437    1076.2477   -11.837282     672.1372   -2437.7434 
 2516000    276.19311   -3845.3098   -3371.9243   -3845.3098            0    8346.7354    16.918621    19.927901    20.640678    6959.0584    7897.7044    7733.3059    9409.1958   -715.24775     487.3798   -546.62355    -2524.808 
 2517000    280.49363   -3832.9552   -3352.1988   -3832.9552            0     10243.53    16.892149     19.89672    20.608382    6926.4431    8996.1591     10341.34     11393.09   -888.22545    748.70759   -1310.7538   -2317.4479 
 2518000    271.67551   -3862.0007   -3396.3581   -3862.0007            0    7840.1142    16.995222    20.018127    20.734132    7054.0111    8147.7002    6269.8427    9102.7997    350.22081   -66.001366   -1386.6764   -2589.8023 
 2519000    276.60393   -3835.3531   -3361.2634   -3835.3531            0    8314.7813     16.93575    19.948077    20.661576    6980.2171    8704.0963     7387.798    8852.4495   -324.14294   -1211.3791    987.20686   -2514.8245 
 2520000     264.7255   -3845.9431   -3392.2127   -3845.9431            0    8581.8586    16.981128    20.001525    20.716936    7036.4753    9255.1828    8637.1149    7853.2782   -901.43847   -767.89982   -257.81524   -2511.5443 
 2521000    256.53412   -3813.3141   -3373.6234   -3813.3141            0     10211.98    16.933634    19.945584    20.658994    6977.6005    9757.1107    12805.077    8073.7507   -318.71477   -255.99658    608.38891   -2334.4407 
 2522000    280.00154   -3823.8609   -3343.9479   -3823.8609            0    8512.5975    16.924155    19.934419     20.64743    6965.8894    7843.3227    8412.4678    9282.0021   -381.46576   -600.99889    -2446.504   -2479.1501 
 2523000    257.32578   -3839.8524   -3398.8048   -3839.8524            0    8669.7385    16.975611    19.995027    20.710206    7029.6197    9566.0676    9687.2817    6755.8661   -938.38996   -1097.0208   0.15897587    -2509.985 
 2524000    282.94837    -3788.702   -3303.7382    -3788.702            0    7558.2937    17.005664    20.030426     20.74687    7067.0205    6873.9764    8163.4096    7637.4952    29.888282   -335.11294   -755.44858   -2524.7408 
 2525000    281.11113   -3839.5691   -3357.7543   -3839.5691            0    10131.023    16.922314    19.932251    20.645184    6963.6166    9142.2395    10629.442    10621.387    1179.1685   -250.13077    86.042918   -2328.8759 
 2526000    291.33998   -3851.3805   -3352.0337   -3851.3805            0    7408.6925    17.022996    20.050841    20.768016    7088.6514    8136.6148    7715.3249    6374.1378   -342.40957   -959.41411    -697.2137   -2586.1178 
 2527000    265.16815   -3818.6961   -3364.2069   -3818.6961            0      10433.5    16.872431    19.873496    20.584327     6902.217     10146.05    11677.847    9476.6037   -649.68007    2567.5734   -313.03557   -2313.9525 
 2528000    282.74669   -3874.6944   -3390.0762   -3874.6944            0    12343.238    16.814581    19.805355    20.513749    6831.4632    12635.517    10331.621    14062.578      2220.95    60.192121   -104.77911   -2160.3208 
 2529000    255.85647   -3848.1239   -3409.5947   -3848.1239            0    8731.2411    16.953801    19.969338    20.683597    7002.5595    7409.1366    9705.0006    9079.5861   -2297.7164    982.36871   -179.45623   -2517.9154 
 2530000    273.19598   -3797.5791   -3329.3305   -3797.5791            0    9010.5751    16.906413    19.913521    20.625784    6944.0049    8806.9599    10307.106    7917.6595    27.932341    -382.1427   -1173.4679   -2416.8189 
 2531000    272.65019   -3786.8901    -3319.577   -3786.8901            0     7461.651    17.022011    20.049681    20.766814    7087.4204    7010.3954     6433.027    8941.5304    576.95293    -1179.904   -760.18279   -2548.3202 
 2532000    276.62853   -3811.2695   -3337.1377   -3811.2695            0    8291.7449    16.988393    20.010083      20.7258    7045.5106     7728.512    8227.9683    8918.7546    931.76792    216.86216   -1083.0168   -2485.1481 
 2533000    276.72175   -3831.7812   -3357.4896   -3831.7812            0    10676.289    16.896517    19.901865    20.613711     6931.818    12300.504    11058.767    8669.5967    1104.9543   -2511.5615   -1061.0578   -2278.1866 
 2534000     273.7073   -3878.1367   -3409.0118   -3878.1367            0    8792.5369    16.907016    19.914232     20.62652    6944.7478    8644.1035    7748.0777    9985.4296    1167.3787    1125.0203    853.34784   -2518.4858 
 2535000    252.61849   -3865.6086   -3432.6292   -3865.6086            0    9460.6863    16.960059     19.97671    20.691233    7010.3175    8801.2178    10362.789    9218.0519    1220.7157    954.28469    662.52025   -2465.3848 
 2536000      259.059   -3837.2759   -3393.2577   -3837.2759            0    11428.278    16.948436    19.963019    20.677052    6995.9138    9334.3994    13595.496    11354.939     2812.893   -1651.8379    2600.0049   -2227.2507 
 2537000    263.66413   -3829.7568   -3377.8455   -3829.7568            0    10132.063    16.980203    20.000436    20.715808    7035.3262    10879.736    8223.8261    11292.626    324.59271    1304.1882   -1795.9631   -2338.2653 
 2538000    273.02247   -3834.3334   -3366.3822   -3834.3334            0    10424.207    16.951308    19.966402    20.680556     6999.471    10644.019    11121.485     9507.118   -1741.4178    1930.1438   -1632.9984   -2302.2781 
 2539000    277.47008   -3858.1521   -3382.5778   -3858.1521            0    7958.4549    17.013438    20.039582    20.756354    7076.7166    8218.9027    8759.9274    6896.5348    64.903558    1771.0046   -61.086496   -2561.2123 
 2540000    268.20469   -3825.5618   -3365.8682   -3825.5618            0    10451.664    16.916506    19.925409    20.638098    6956.4486    9647.3343    10759.799    10947.857    481.18987   -231.71024    1757.1084    -2305.519 
 2541000       257.03     -3805.75   -3365.2094     -3805.75            0    6954.1846    16.996118    20.019183    20.735225     7055.127    7844.5896    6246.2337    6771.7304    548.14265    169.74177    -392.4631   -2649.6809 
 2542000    273.17918   -3862.8152   -3394.5954   -3862.8152            0    8880.6384    17.001049    20.024991    20.741241    7061.2695    10229.308    8379.0479    8033.5593   -716.21679    1675.8742    837.13957   -2480.0551 
 2543000    293.02038   -3864.7438   -3362.5169   -3864.7438            0    10092.722    16.935128    19.947344    20.660817    6979.4479    11518.499    8691.0734    10068.594   -273.58828   -803.20172    730.03782    -2335.198 
 2544000    281.08047   -3838.8763    -3357.114   -3838.8763            0    9977.1263    16.948154    19.962687    20.676708    6995.5649    9489.0919    10835.694    9606.5933    1164.7497     198.0806   -1721.3948   -2339.2162 
 2545000    250.04753   -3854.6473   -3426.0744   -3854.6473            0    8665.4756    16.919038    19.928392    20.641187    6959.5729    9752.5794    9650.4868    6593.3606    900.23449    1879.0307    1384.4285   -2546.5439 
 2546000    276.87862   -3840.3785    -3365.818   -3840.3785            0    10658.733    16.948502    19.963097    20.677133    6995.9959    11281.711    9525.8236    11168.664   -2134.2706   -275.75504   -8.4905237   -2278.3136 
 2547000    264.95721   -3822.4838   -3368.3562   -3822.4838            0    9244.2009    16.948981    19.963661    20.677717    6996.5888    8172.1934    8885.7143    10674.695   -125.37565    1306.8544    272.83772   -2425.0958 
 2548000    276.11799   -3816.4256   -3343.1688   -3816.4256            0    11924.862     16.95133    19.966427    20.680583    6999.4983    12824.472     12477.76    10472.355   -794.22054    669.66215   -808.97398   -2125.8729 
 2549000    279.46072   -3817.8483   -3338.8622   -3817.8483            0    9829.9012    16.910536    19.918377    20.630814    6949.0858    9205.8965    11369.065    8914.7427    498.17929    -382.4288    827.63369    -2342.648 
 2550000    267.56631   -3828.1073   -3369.5078   -3828.1073            0    8938.2649    16.954395    19.970037    20.684322    7003.2955    7562.9773     10423.16    8828.6578   -1290.3797     149.4495     286.4549   -2456.5902 
 2551000    273.22038   -3803.6383   -3335.3479   -3803.6383            0    8298.6103    17.061234     20.09588    20.814665    7136.5264    9758.1703    7551.2215    7586.4389   -487.31823    2160.6388    639.27924   -2471.6375 
 2552000    266.32512   -3805.7789   -3349.3067   -3805.7789            0    10390.855    16.949477    19.964245    20.678322    6997.2034    10017.167    10695.341    10460.057   -150.14337    202.06911    1434.3509   -2288.9508 
 2553000    258.70835   -3800.2893   -3356.8721   -3800.2893            0    9822.7453    16.896665     19.90204    20.613892    6932.0007    10980.508    8686.3313    9801.3966    185.31077      132.683    147.46079   -2363.8306 
 2554000    271.30546   -3801.7007   -3336.6924   -3801.7007            0    9531.1028    16.912608    19.920819    20.633343    6951.6414    10808.745    9956.2248    7828.3384    1371.5567   -415.11409   -1781.5399   -2370.4048 
 2555000    284.38354   -3851.7164   -3364.2927   -3851.7164            0    10137.545    16.899136     19.90495    20.616907    6935.0423    11469.709    8730.8698    10212.056    720.55471     43.40441   -687.89951   -2338.9766 
 2556000    288.00165   -3786.8495   -3293.2245   -3786.8495            0    10359.821    16.884956    19.888248    20.599607    6917.5996    11328.974    8846.2651    10904.225   -302.63569   -400.45463   -644.33289   -2248.0626 
 2557000    275.25326   -3833.2446   -3361.4699   -3833.2446            0    10294.584    16.887756    19.891546    20.603023    6921.0414    11880.544    12049.881    6953.3258    1663.4413   -2382.8193    971.30952   -2322.3728 
 2558000    270.95669   -3828.0385    -3363.628   -3828.0385            0    8170.8369    17.006631    20.031564     20.74805    7068.2259    7369.1772    7944.4626    9198.8709    47.423594    2263.5585   -581.70465    -2521.355 
 2559000    281.05634   -3837.2404   -3355.5195   -3837.2404            0    6293.3004    16.983528    20.004352    20.719864    7039.4593     5795.806    7545.1783    5538.9168    1109.7271    871.46134    72.786932   -2709.4285 
 2560000    272.91098   -3857.1736   -3389.4135   -3857.1736            0    9352.4454    16.921682    19.931507    20.644413    6962.8367    7646.4186    8671.2947    11739.623   -1010.2097   -2228.3639    1431.8288   -2439.7116 
 2561000    274.38352   -3830.8603   -3360.5763   -3830.8603            0    9522.3023    16.904868    19.911702      20.6239    6942.1018    11086.889    8439.0805    9040.9371   -1959.6729   -182.29646    53.438369   -2396.5057 
 2562000    276.83282   -3833.6432   -3359.1612   -3833.6432            0    7872.0049    16.947188    19.961548    20.675529    6994.3682    7614.4194    8148.5794    7853.0159    254.68758    1731.6183     527.8826    -2556.172 
 2563000     289.7783   -3841.6417   -3344.9716   -3841.6417            0    9444.6965    16.943577    19.957295    20.671124    6989.8985    10572.096    9078.7343    8683.2595    409.54145    536.14518    1632.2663   -2382.1745 
 2564000    285.22329   -3863.2941   -3374.4312   -3863.2941            0    9690.8199    16.889255    19.893312    20.604852    6922.8844    10127.364    9522.3816    9422.7139   -160.15315    78.406192    1015.8965   -2396.0153 
 2565000     253.4386   -3820.0661    -3385.681   -3820.0661            0    10243.562     16.96609    19.983813    20.698591    7017.7988    11384.276    9649.1171    9697.2932   -792.55359   -435.06615    2586.1121   -2337.2791 
 2566000    271.62318    -3790.718   -3325.1651    -3790.718            0    9590.6318    16.938358    19.951148    20.664757    6983.4412    9302.7728    9780.1051    9689.0176    145.37156    915.16674   -1247.3903   -2348.3945 
 2567000    262.10503   -3844.2865   -3395.0474   -3844.2865            0    7891.5208    16.920144    19.929695    20.642536    6960.9381    7845.3447    9567.9163    6261.3012    916.84235   -174.29049   -543.43111   -2593.9149 
 2568000    271.65089   -3821.6944    -3356.094   -3821.6944            0    11531.264    16.875166    19.876716    20.587663    6905.5733    11105.015    10495.886    12992.891   -2325.1004    296.59339    1329.6278   -2194.7724 
 2569000    257.34504   -3842.1825   -3401.1019   -3842.1825            0    8962.5661    16.914603    19.923168    20.635776    6954.1011    7861.5761    9140.0526    9886.0695   -1204.1083    313.40885   -402.08117   -2492.1325 
 2570000    268.10618   -3820.2713   -3360.7465   -3820.2713            0    7210.4577    17.006831      20.0318    20.748294    7068.4756     5927.323    6139.6317    9564.4184    -1468.987    532.21954    -546.1743   -2617.4459 
 2571000    256.67383   -3781.3833   -3341.4532   -3781.3833            0    8328.2343    16.984974    20.006056    20.721628    7041.2577     8650.102    8131.7245    8202.8765   -243.58297   -858.37333   -1180.2144   -2486.2308 
 2572000    282.63076   -3793.5596   -3309.1401   -3793.5596            0    10909.776    16.954117     19.96971    20.683983    7002.9509    12527.476    9840.8125    10361.039   -466.19604   -649.32291   -650.93197   -2194.9154 
 2573000    252.53071   -3840.5413   -3407.7123   -3840.5413            0    11088.149    16.871323     19.87219    20.582975    6900.8568    12355.713    10174.199    10734.534    641.77325   -1459.3359    298.24794   -2291.7797 
 2574000     281.2242   -3862.0242   -3380.0155   -3862.0242            0    10603.674    16.861774    19.860942    20.571325    6889.1456    9441.9533     11027.77    11341.298     1004.103   -1429.5384   -639.52803   -2314.6525 
 2575000    278.27318   -3860.7435   -3383.7928   -3860.7435            0    8426.1827    16.966036    19.983749    20.698524    7017.7315    5939.9733    9608.3979    9730.1769    829.61697   -354.91512    709.08312   -2521.4032 
 2576000       267.33   -3861.0217   -3402.8272   -3861.0217            0    9592.1536    16.896407    19.901736    20.613578    6931.6832    10954.666    7422.2389    10399.555   -236.18739    1267.7372   -460.94227   -2433.1421 
 2577000    272.11472   -3867.2009   -3400.8056   -3867.2009            0    8445.6649    16.939115    19.952041    20.665681    6984.3786    10105.926    6442.9129    8788.1557    760.70113     616.6055    527.82576   -2540.5302 
 2578000    284.19791   -3816.0897   -3328.9842   -3816.0897            0     8810.532    16.943435    19.957128    20.670951    6989.7231    8537.9526    8173.6867    9719.9568      -42.579    281.35582   -385.49971   -2430.8567 
 2579000    270.65452    -3851.199   -3387.3064    -3851.199            0    11461.869    16.871292    19.872154    20.582937    6900.8188    12276.661    12140.029    9968.9155    25.410013   -1067.5307   -36.570328   -2233.7683 
 2580000    282.35538   -3821.8305    -3337.883   -3821.8305            0    9768.9943    16.938991    19.951894    20.665529    6984.2245    10433.909    10442.192    8430.8815   -533.80058   -206.51687     1262.171   -2342.8352 
 2581000    263.40881   -3820.7074   -3369.2337   -3820.7074            0    9643.1872    16.901671    19.907936    20.619999    6938.1633    8927.3281    10691.558    9310.6753   -199.86804   -1237.8715    376.84649   -2393.4782 
 2582000    262.95289   -3844.2105   -3393.5182   -3844.2105            0    10438.423    16.874326    19.875728    20.586639    6904.5429    11039.494    10079.687    10196.089   -514.51705   -1303.6039    902.26999   -2342.4141 
 2583000    261.86467   -3843.6318   -3394.8047   -3843.6318            0    8168.3595    16.886395    19.889943    20.601362    6919.3677    9236.4158    5859.9708    9408.6921   -767.79804   -788.30455   -301.59424   -2570.5202 
 2584000    282.48099   -3810.2172   -3326.0544   -3810.2172            0    10425.397    16.916595    19.925514    20.638206    6956.5585    9102.3685    11548.547    10625.275   -8.9454897   -1826.9391   -853.29076   -2268.3534 
 2585000    272.18361   -3849.7444   -3383.2311   -3849.7444            0    10787.837    16.966216    19.983962    20.698744    7017.9551    10976.993    10193.317    11193.202   -1781.0324    -337.9682    1686.3083   -2279.0994 
 2586000    283.64175   -3852.0792   -3365.9269   -3852.0792            0    10513.339    16.932851    19.944662    20.658039    6976.6325    11625.416    9850.6635    10063.938   -517.54107    -1134.471   -710.79848   -2296.2259 
 2587000    261.84207   -3820.2199   -3371.4316   -3820.2199            0    11944.817    16.877075    19.878965    20.589992    6907.9173    12308.178    13007.676    10518.599    119.39427     2026.375   -914.30395   -2168.0523 
 2588000    272.32856   -3829.8766   -3363.1147   -3829.8766            0    9712.8094    16.985561    20.006747    20.722345     7041.988    10011.016    8384.4257    10742.987   -763.89786    1208.4412    424.78925   -2365.6075 
 2589000    256.22615   -3888.2517   -3449.0889   -3888.2517            0    7744.5254    17.000257    20.024057    20.740273    7060.2817    7106.0215     7854.523    8273.0317    784.19294    950.89548    513.96045   -2651.6586 
 2590000    266.85022   -3860.5466   -3403.1744   -3860.5466            0    9154.9394     16.96736    19.985308    20.700139     7019.374    9884.1436     8738.826    8841.8487    750.44055    382.50942   -1119.7023   -2465.9799 
 2591000    270.46359   -3883.4201   -3419.8547   -3883.4201            0    9129.5173    16.935033    19.947232    20.660701    6979.3305     10279.19    8869.8039    8239.5583   -1336.9042   -241.99755   -408.52314   -2490.5942 
 2592000    268.91176   -3810.5514   -3349.6458   -3810.5514            0    11222.635    16.890514    19.894794    20.606387     6924.432     10204.65    11479.556    11983.697   -1232.0751   -958.67512    558.02274   -2216.3198 
 2593000    262.00686   -3832.9862   -3383.9154   -3832.9862            0    12355.418    16.835024    19.829435     20.53869    6856.4109    11806.157    12545.917    12714.179   -1128.3145    -163.0019    47.627052   -2148.4512 
 2594000    263.95658   -3843.5049   -3391.0923   -3843.5049            0    9149.3163    16.910584    19.918434    20.630873    6949.1453    9920.5575    9308.7619    8218.6296   -1855.7675   -385.40629   -406.90477   -2463.8443 
 2595000     269.8099   -3887.6872   -3425.2422   -3887.6872            0    8730.2612    16.941755     19.95515    20.668902    6987.6444    9278.3029    7962.2825    8950.1981   -631.88834    -138.5208    58.291243    -2535.562 
 2596000    278.99761   -3842.0424     -3363.85   -3842.0424            0    9639.8355    16.977997    19.997838    20.713116    7032.5841    10675.645    8933.0937     9310.768    1410.2221   -1593.1555    935.86823   -2375.1593 
 2597000    263.49585   -3825.7333   -3374.1104   -3825.7333            0    10564.363    16.889239    19.893293    20.604833    6922.8651    11179.883    11517.036    8996.1707     101.4501    1134.1998   -669.71421   -2307.5018 
 2598000    258.51364   -3884.8126   -3441.7291   -3884.8126            0    6280.7329    16.990185    20.012194    20.727986    7047.7407    5048.9785    9099.4171    4693.8033    1226.5875     1848.784    48.106847   -2796.1698 
 2599000    258.94247   -3819.6932   -3375.8747   -3819.6932            0    10378.929    16.904593    19.911378    20.623564    6941.7623    10625.336    9313.6309     11197.82   -243.20864    1530.1217    -944.1522   -2325.1277 
 2600000    272.37376   -3857.5956   -3390.7563   -3857.5956            0    8264.4125    16.916778     19.92573     20.63843    6956.7843    10464.512    7191.2067    7137.5194   -89.953824    469.24573   -1002.6227   -2552.2691 
 2601000    252.57171   -3847.0282   -3414.1289   -3847.0282            0    9426.3851    16.979443    19.999541    20.714881    7034.3811    8583.0524    9601.5372    10094.566    722.63598    2963.6272    148.09205   -2447.0833 
 2602000    265.92247   -3850.9657   -3395.1837   -3850.9657            0    8460.7137    16.975939    19.995414    20.710606    7030.0276     8730.108    8529.8024    8122.2308      1297.26   -939.56181     658.6295   -2527.7427 
 2603000    273.24532   -3844.8097   -3376.4766   -3844.8097            0    6213.4701    17.033168    20.062822    20.780426    7101.3661    6324.6508    7047.6027    5268.1567    608.39057   -689.49254    107.45888   -2732.9715 
 2604000    277.30277   -3856.6344   -3381.3469   -3856.6344            0    8157.9031    17.005961    20.030775    20.747232    7067.3905     7618.416    7971.7828    8883.5104    1008.6788    230.45458   -1528.3046   -2540.5066 
 2605000    283.72275   -3829.0702   -3342.7791   -3829.0702            0    11548.691    16.859201    19.857912    20.568186    6885.9928     12048.44    11244.754    11352.879    73.049596   -128.94949      221.393   -2183.0002 
 2606000    254.54089   -3854.7881   -3418.5137   -3854.7881            0    8584.4229    16.919828    19.929322     20.64215    6960.5476    10115.443    8604.6995    7033.1258    918.95602    595.99974    898.48974    -2547.088 
 2607000    259.49281   -3844.6548    -3399.893   -3844.6548            0    7539.4154    16.883342    19.886346    20.597637    6915.6151    6837.5741    10309.214    5471.4578    953.71729   -1510.0046   -616.21089    -2639.489 
 2608000    263.29366   -3822.2077   -3370.9314   -3822.2077            0    8506.2213    16.908675    19.916186    20.628544    6946.7927    10239.646    8017.0845    7261.9333    1156.7409    422.66689     508.4988   -2509.1504 
 2609000    272.21327   -3842.5414   -3375.9772   -3842.5414            0    9941.0047    16.838738    19.833809    20.543221     6860.949    8532.9663    10105.175    11184.872    986.00596   -362.67498    720.30441   -2381.2813 
 2610000    270.01095   -3845.5314   -3382.7418   -3845.5314            0    9084.0685    16.863869     19.86341    20.573881    6891.7138    9641.2087    10132.781    7478.2157    1563.1399     338.4155    619.51996    -2469.715 
 2611000    270.55145   -3827.4602   -3363.7443   -3827.4602            0     8431.526    16.888776    19.892748    20.604268    6922.2955    6709.6062    11176.264    7408.7076    1570.6185    352.10535   -454.52796   -2512.5431 
 2612000     258.2313    -3781.788   -3339.1884    -3781.788            0    12060.155    16.820643    19.812495    20.521145     6838.854    11644.192    12815.035    11721.239    -1522.415    614.37401    -1366.712   -2136.3366 
 2613000    261.47712   -3813.8241   -3365.6613   -3813.8241            0     10366.95    16.874147    19.875516     20.58642    6904.3227    8373.4194    12864.904    9862.5259    331.33736   -776.36844    359.89799   -2321.7876 
 2614000    267.60256   -3778.1345   -3319.4728   -3778.1345            0    9966.6547    16.937603     19.95026    20.663837    6982.5084    8822.0436    8825.5208      12252.4    400.00186   -564.37134    682.37656   -2304.5413 
 2615000    277.36811   -3801.7081   -3326.3086   -3801.7081            0    9338.4131    16.911721    19.919774    20.632261    6950.5479     9942.714    9738.8561    8333.6694    1934.0315    1235.1737    578.17948   -2379.7053 
 2616000    272.71571   -3855.2753   -3387.8499   -3855.2753            0    9481.0401    16.911169    19.919123    20.631587    6949.8669    9823.5139    9706.9138    8912.6926   -620.04542    761.49753    166.80849   -2426.8832 
 2617000    252.13271   -3864.2613   -3432.1144   -3864.2613            0    7055.6244    16.938317      19.9511    20.664707    6983.3905    6992.4396    6373.3699    7801.0636   -1317.2509   -568.54527    154.08076   -2713.5302 
 2618000      263.817   -3840.0287   -3387.8554   -3840.0287            0    10277.675     16.84799    19.844707    20.554508    6872.2646    9556.2065    10354.332    10922.485    948.05089   -1354.1471   -765.05182   -2357.7761 
 2619000    269.79582   -3835.4399   -3373.0191   -3835.4399            0    8830.4197    16.941115    19.954395     20.66812    6986.8518    9355.6904    7291.0601    9844.5087    66.979362   -222.94462   -110.26753   -2473.2341 
 2620000    256.54026   -3813.0467   -3373.3455   -3813.0467            0    10150.262    16.853032    19.850645    20.560659    6878.4359    9967.6066    9065.1858    11417.994   -1240.8147    503.93054    156.17332   -2355.1226 
 2621000    275.35093    -3852.074    -3380.132    -3852.074            0    7377.6413    16.972042    19.990823    20.705851    7025.1867    9066.7803    7107.1398    5959.0037   -485.87344   -214.07279    705.40459   -2624.2547 
 2622000    290.43859   -3826.6037   -3328.8019   -3826.6037            0    8464.2456    17.014134    20.040403    20.757204     7077.586    6708.9537    10514.514    8169.2689    1722.4718    1401.2882    822.30989   -2455.1281 
 2623000    263.92042   -3840.4162   -3388.0656   -3840.4162            0    9569.9384    16.898515    19.904219    20.616149    6934.2778    9323.7368    9462.8769    9923.2013    1144.2703    1345.7127   -2804.4521   -2420.2642 
 2624000    273.76215   -3790.2856   -3321.0666   -3790.2856            0    9652.7377    16.937068    19.949629    20.663184    6981.8464    12294.232    8344.5133    8319.4673    1064.7564   -2176.2289    511.13416   -2338.1953 
 2625000    285.84309   -3802.1524   -3312.2271   -3802.1524            0    9704.0405    16.973661    19.992731    20.707827     7027.198    9577.5293    8652.9146    10881.678   -936.35664    1505.9796    491.42888   -2317.7136 
 2626000    287.21891   -3861.1386   -3368.8552   -3861.1386            0    9640.6416    16.910862    19.918762    20.631213    6949.4888    7431.5513    11600.735    9889.6384   -1238.7497    807.30684    2159.3493   -2391.7649 
 2627000    281.00414   -3832.9194   -3351.2879   -3832.9194            0    9082.7561    16.910953    19.918869    20.631324     6949.601    8760.8229      9740.32    8747.1253   -144.37688   -1309.6225    997.82334   -2430.7252 
 2628000    270.35742   -3826.2887   -3362.9053   -3826.2887            0    10862.273    16.965956    19.983656    20.698427    7017.6327    9372.4905      12138.2    11076.127   -817.68471   -117.59479    862.94741   -2251.2063 
 2629000    287.32308   -3839.0457   -3346.5838   -3839.0457            0    7601.4205    17.019662    20.046914    20.763948    7084.4869    6358.8783    9093.4853    7351.8978    1505.8776   -2117.2111    450.62906   -2561.2052 
 2630000    253.93565   -3822.4352   -3387.1982   -3822.4352            0    9295.2463     16.96058    19.977323    20.691869    7010.9638    8259.7004    10785.587    8840.4519    -42.87987    934.61748   -1320.1931   -2436.7805 
 2631000    259.17878   -3837.3842   -3393.1606   -3837.3842            0    12296.734    16.820296    19.812087    20.520722    6838.4315    13844.199    11214.783    11831.219    1812.1574   -278.13306   -503.33301   -2166.7888 
 2632000    271.48984   -3817.6506   -3352.3262   -3817.6506            0    8718.9362    16.977008    19.996674    20.711911     7031.356    7976.3634    8533.8872    9646.5578    1196.5116    1017.6626    1993.5518   -2458.2419 
 2633000    277.19507   -3869.6144   -3394.5116   -3869.6144            0    8456.0943    16.963078    19.980266    20.694916     7014.062    9186.7942    6823.7082    9357.7806    2017.1507   -1122.3762    735.80339   -2529.5132 
 2634000    255.24216   -3867.3956   -3429.9193   -3867.3956            0     8055.209     17.01532      20.0418    20.758651    7079.0664     5301.465    9260.9783    9603.1837    842.80319    717.47056   -1184.1881   -2598.2921 
 2635000    258.65045   -3879.5413   -3436.2232   -3879.5413            0    9193.7016    16.977388    19.997121    20.712374    7031.8278     9950.255    8421.4833    9209.3665    247.39687    -800.9266   -634.65498   -2493.3908 
 2636000     263.4332   -3814.4651   -3362.9497   -3814.4651            0    9668.6641    16.927554    19.938423    20.651577    6970.0878    10043.306    9220.8183    9741.8677   -21.904782    45.472425   -605.74209   -2380.1147 
 2637000    265.91017   -3860.4921   -3404.7312   -3860.4921            0    7730.8695    17.016664    20.043383     20.76029    7080.7435    7996.5513    9136.2025    6059.8546   -1298.0266   -123.95386   -228.56381      -2606.4 
 2638000      264.878   -3833.1485   -3379.1566   -3833.1485            0    10079.332     16.96665    19.984473    20.699274    7018.4939    10967.189    9009.4595    10261.347   -695.47665   -684.28423    324.68443   -2347.4611 
 2639000    247.57893   -3838.0861   -3413.7442   -3838.0861            0    8277.1847    16.942606    19.956152    20.669939    6988.6969    9169.6079    7955.7744    7706.1719   -964.27201   -46.538687   -3145.8574   -2570.1089 
 2640000    278.13082   -3875.1733   -3398.4665   -3875.1733            0     9154.134    16.952038    19.967261    20.681447    7000.3753    9348.9137    7794.3328    10319.156    156.38251    -1453.544     -690.428   -2463.8909 
 2641000    265.36838   -3862.8992   -3408.0669   -3862.8992            0    7117.9909     16.99161    20.013872    20.729724    7049.5138    6800.3197    7623.3386    6930.3143   -852.76834   -819.31493   -433.26557   -2676.2668 
 2642000    259.41062   -3856.0702   -3411.4492   -3856.0702            0    10777.331    16.943474    19.957174    20.670998     6989.771    12605.807     9901.539    9824.6462   -180.44232    -196.1962   -776.86445   -2312.8228 
 2643000    257.04431   -3847.1022   -3406.5371   -3847.1022            0    9698.5482     16.99111    20.013283    20.729115     7048.892    9468.3426     9712.022      9915.28    327.09751   -539.76577    673.58367    -2409.518 
 2644000    262.67333    -3878.388   -3428.1749    -3878.388            0    9417.4783    16.950448    19.965389    20.679507    6998.4058    9001.6238    11224.698    8026.1134    913.66625   -406.59814    589.03592    -2466.984 
 2645000     274.4558   -3862.6999    -3392.292   -3862.6999            0    8092.2771     16.99824    20.021681    20.737813    7057.7692    6235.5486    9682.2624    8359.0203    211.38448    501.10553   -1788.1634   -2559.3513 
 2646000    267.75568   -3892.2459   -3433.3218   -3892.2459            0    9369.0646    16.949135    19.963842    20.677905    6996.7792    9547.7411    9588.2356    8971.2172    625.85322    -1546.988   -990.54699   -2477.2945 
 2647000    249.53312    -3879.483   -3451.7917    -3879.483            0    8670.1041    16.966672    19.984499    20.699301    7018.5211    9284.9905    8053.7573    8671.5645   -142.40703    298.18221    1401.7453   -2564.3378 
 2648000    247.61342    -3864.727   -3440.3261    -3864.727            0    9753.2054    16.906918    19.914116      20.6264    6944.6265    9856.8669    10473.424     8929.325    394.99574    1778.1495     686.2093    -2452.519 
 2649000    290.30558   -3855.8456   -3358.2718   -3855.8456            0    8363.8314    16.970077    19.988509    20.703455    7022.7474     6935.862     9974.037     8181.595   -880.13355    966.20236    1960.8554   -2501.6518 
 2650000    256.74851   -3848.9222    -3408.864   -3848.9222            0    8468.1218    16.990042    20.012025    20.727812    7047.5627    9173.8703    8411.7479    7818.7472    1268.1832    1455.7621    -377.5747    -2538.498 
 2651000    280.31147   -3837.6821   -3357.2378   -3837.6821            0    9578.6452     16.93533    19.947582    20.661063    6979.6974    10617.858    9594.3817    8523.6959   -198.91017    184.00144   -1403.7738    -2382.211 
 2652000    258.10506   -3850.2363    -3407.853   -3850.2363            0    8139.9011     16.94627    19.960467     20.67441     6993.232    8654.9588    6976.6597    8788.0849   -10.034742    181.48267   -995.38528   -2577.6717 
 2653000    255.26061   -3796.4721   -3358.9641   -3796.4721            0    9327.6295    16.918253    19.927468     20.64023    6958.6047    7647.0977    9855.3625    10480.428   -1145.8486   -1557.1639     645.9299    -2412.358 
 2654000    266.60498   -3856.0584   -3399.1066   -3856.0584            0    9650.1852      16.9306     19.94201    20.655292      6973.85    6724.7283    11462.744    10763.083   -12.631985   -507.94131   -389.14647   -2417.6205 
 2655000    271.12572   -3864.4711   -3399.7709   -3864.4711            0    8111.2411    16.980146    20.000369    20.715738     7035.255    7248.3899    9207.0414    7878.2919   -2309.9742    -1352.796    102.80068   -2567.5415 
 2656000    266.66895   -3905.4861   -3448.4247   -3905.4861            0    9163.4258    16.910679    19.918546    20.630989    6949.2625    7287.0537    9950.8629    10252.361     731.7005   -17.723722   -889.07247    -2519.731 
 2657000    271.85991   -3880.3594   -3414.4009   -3880.3594            0     9432.011    16.927145    19.937941    20.651078    6969.5823    9517.1941     7767.688    11011.151   -595.86951   -1095.0386   -1038.8363   -2455.6915 
 2658000    276.13541   -3867.4755   -3394.1889   -3867.4755            0    10344.025    16.905582    19.912543    20.624771    6942.9813    10657.762    10565.257    9809.0553    1043.4408    2145.1225   -1384.1939   -2346.7916 
 2659000    264.64263   -3841.8982   -3388.3098   -3841.8982            0    9182.0241    16.890725    19.895043    20.606645    6924.6923     7426.111      11107.3    9012.6619    436.87594   -776.99436   -1497.7547   -2461.0215 
 2660000    273.96324   -3800.4334   -3330.8698   -3800.4334            0    8703.9581     16.94405    19.957853    20.671702    6990.4849    9548.5865    7083.0227     9480.265    816.60274    1234.2457    773.27998   -2443.5095 
 2661000    251.36918   -3827.8185   -3396.9804   -3827.8185            0    11740.091    16.852365     19.84986    20.559846    6877.6203    11169.856    12423.423    11626.994   -1690.3275   -1046.2243   -531.90752   -2219.4136 
 2662000    256.21094   -3809.9257   -3370.7889   -3809.9257            0    9840.9178    16.943152    19.956795    20.670606    6989.3727    8246.7434    11552.252    9723.7579   -496.91737    1124.2982     1552.385   -2367.6763 
 2663000    262.16755   -3796.3913   -3347.0451   -3796.3913            0    9970.3949    16.881702    19.884415    20.595637       6913.6    10136.836    8785.3521    10988.996   -893.69407    197.80814    944.64774   -2341.7524 
 2664000    259.64554   -3819.1865    -3374.163   -3819.1865            0    11735.755    16.864847    19.864562    20.575073    6892.9125    10871.754    12053.324    12282.188    771.84406    486.79291    1017.4376   -2194.4137 
 2665000      263.008   -3816.8646   -3366.0779   -3816.8646            0    10012.021    16.930913    19.942379    20.655674    6974.2367    11842.246    8856.4987    9337.3174   -532.49159    1729.8039    830.72159   -2347.7343 
 2666000    268.61578   -3802.7868   -3342.3885   -3802.7868            0    10036.901    16.968442    19.986583    20.701459    7020.7171     10481.72    8446.2185    11182.764   -872.24484    617.45678    1593.3743   -2314.7107 
 2667000    261.21792    -3848.812   -3401.0934    -3848.812            0      10046.1    16.844877     19.84104    20.550711    6868.4563    8525.6147    10660.967    10951.718    11.357221   -262.38899   -1329.8672   -2394.7817 
 2668000    280.56894    -3803.055   -3322.1694    -3803.055            0    9327.1772    16.889687     19.89382    20.605378     6923.415    9174.9677     9183.812    9622.7518   -662.78809   -807.82112    1054.8626   -2380.3959 
 2669000     273.9504   -3776.9113   -3307.3696   -3776.9113            0    10716.257     16.86268     19.86201    20.572431    6890.2569     11322.44    12001.301    8825.0287   -772.58281    2068.9178   0.55715751   -2230.5216 
 2670000    265.96122   -3814.2817   -3358.4333   -3814.2817            0    9342.3102    17.009123      20.0345    20.751091    7071.3343    8527.6785    10899.512    8599.7406   -547.64581    1368.0766    747.80028    -2394.978 
 2671000    271.28654   -3820.8922   -3355.9163   -3820.8922            0     9369.135    16.968833    19.987044    20.701937    7021.2027    8495.7389    11638.969    7972.6967    52.354126    1237.8321    431.36543   -2396.5446 
 2672000    278.09664   -3850.8589   -3374.2108   -3850.8589            0    7891.9288    16.961566    19.978485    20.693071    7012.1865    7963.5814    7882.5186    7829.6865   -654.21201   -413.99926   -1004.7489   -2567.1384 
 2673000    260.30608   -3840.6899   -3394.5342   -3840.6899            0    11739.836    16.934678    19.946813    20.660267    6978.8907    10502.169    12142.767    12574.571    998.85188   -378.59858    793.00207   -2199.6541 
 2674000    265.08629   -3843.3657   -3389.0169   -3843.3657            0    7519.1503    16.971852      19.9906    20.705619    7024.9506    8027.3725     6307.511    8222.5674   -240.85448   -752.38257   -433.06458   -2618.6672 
 2675000    289.31278    -3849.111   -3353.2388    -3849.111            0    7590.9558    16.969557    19.987897     20.70282    7022.1016    8647.8004    7601.1989    6523.8683    155.05716   -351.40312   -1824.1714   -2575.8479 
 2676000    274.78953   -3840.3588   -3369.3789   -3840.3588            0    11038.371    16.868599    19.868981    20.579651    6897.5141    9042.8441    12197.733    11874.537   -98.122207    864.51942   -1131.9123   -2258.9942 
 2677000    281.76657   -3808.2747   -3325.3364   -3808.2747            0    10548.393    16.885629     19.88904    20.600427    6918.4258    9970.6919    10710.025    10964.462   -1060.3028    80.532837    1661.2398   -2261.0232 
 2678000    281.89361   -3848.4738   -3365.3178   -3848.4738            0    7725.1735    16.951443    19.966561    20.680721     6999.639    6529.8881    7989.4979    8656.1347    376.96202   -806.63561    196.82271   -2576.7124 
 2679000    274.50198   -3853.8949   -3383.4079   -3853.8949            0    6388.1461    16.968384    19.986515    20.701388    7020.6451    6161.3536    5733.7601    7269.3246    -527.8276    1939.6578     260.6532   -2729.3326 
 2680000    268.94577   -3837.4469    -3376.483   -3837.4469            0    10673.933    16.926648    19.937356    20.650471    6968.9683    9758.0406    9801.9904    12461.769    950.42719   -1169.0917    1023.4221   -2291.6351 
 2681000    271.49553   -3833.4242   -3368.0901   -3833.4242            0    7801.5957     16.99994    20.023683    20.739887    7059.8866    8611.5763     6009.384    8783.8269   -305.09131    584.78983    2036.8894   -2564.8284 
 2682000    269.22044   -3794.1872   -3332.7525   -3794.1872            0    9110.8468     16.92703    19.937805    20.650937    6969.4399     7300.633    9161.0648    10870.843    -196.8384   -741.26855    54.287047   -2406.7067 
 2683000    263.92179   -3848.3616   -3396.0087   -3848.3616            0     11245.95    16.890489    19.894765    20.606357    6924.4017    11188.451    12290.383    10259.017   -190.89312    938.20005    -1200.834    -2260.333 
 2684000    256.12246   -3826.8377   -3387.8526   -3826.8377            0    8654.1051    16.930509    19.941904    20.655182    6973.7384    9262.6398    7168.6112    9531.0643   -1084.2682    231.82962   -122.54188   -2507.6884 
 2685000    278.93349   -3829.0351   -3350.9526   -3829.0351            0    10585.835    16.877374    19.879317    20.590356     6908.284    9894.3316     11499.38    10363.792   -591.67926    1775.1411     907.5336   -2284.4273 
 2686000    263.92501    -3789.082   -3336.7236    -3789.082            0     9129.686    16.853767    19.851511    20.561556    6879.3364    9144.3093    9409.1042    8835.6444   -1316.8435   -49.737558   -284.72117   -2420.7598 
 2687000    267.65855   -3844.5943   -3385.8367   -3844.5943            0    8415.2933    16.949472    19.964239    20.678316    6997.1969      8554.52    8882.2975    7809.0623   -3.8427111    944.43203   -392.56576   -2527.0817 
 2688000    297.94615   -3837.2502   -3326.5807   -3837.2502            0    9373.5941    16.937564    19.950213    20.663788    6982.4595    9181.8447    10194.854    8744.0841      620.433   -1363.1611    54.980226   -2372.0487 
 2689000    265.33429   -3860.1434   -3405.3695   -3860.1434            0    9016.4842    16.919934    19.929448    20.642281    6960.6792    9633.0251    8016.2089    9400.2185    544.65794   -1459.3974    756.11771   -2490.0668 
 2690000    288.78994   -3816.5249   -3321.5488   -3816.5249            0    9623.1208    16.917671    19.926782    20.639519    6957.8859    9387.0491    8030.2624    11452.051     812.2642    -706.6989    886.04753   -2345.0558 
 2691000    276.77129    -3814.557   -3340.1805    -3814.557            0    10001.963    16.905779    19.912774    20.625011    6943.2233    10518.294    9641.4125    9846.1824    -920.6573    1149.2348    1653.2303   -2327.3838 
 2692000    276.78756   -3825.3567   -3350.9523   -3825.3567            0     8329.179    16.944087    19.957896    20.671746    6990.5297    7742.5089    9664.1493    7580.8789    1436.0383    1016.6307    64.514708   -2501.7949 
 2693000    269.80914   -3812.8656    -3350.422   -3812.8656            0    11583.097     16.81957    19.811232    20.519836    6837.5463     11824.29    11105.708    11819.293   -1924.0543    62.528202    2549.4899   -2195.3717 
 2694000     274.6011   -3802.8446   -3332.1877   -3802.8446            0    9966.6049    16.906454     19.91357    20.625835    6944.0559    10969.429    8336.4851    10593.901   -404.27915    333.73917    2000.9695   -2322.8504 
 2695000    269.71232   -3797.9146   -3335.6369   -3797.9146            0    7989.3899    16.955394    19.971214    20.685541    7004.5337    10883.974     6406.642    6677.5535    483.60731    736.16415    1725.7844   -2519.4893 
 2696000    271.15631   -3825.8773   -3361.1247   -3825.8773            0    8216.4392    16.934112    19.946148    20.659578    6978.1919    7756.6819    10319.358    6573.2773   -1128.7358   -259.48428   -307.17142   -2524.9396 
 2697000    264.68483   -3810.6842   -3357.0234   -3810.6842            0    10034.296    16.962235    19.979273    20.693888    7013.0162    11704.478    8387.5193    10010.889    1478.0644    206.04495    2568.2005   -2330.7393 
 2698000     280.9226   -3827.9707   -3346.4789   -3827.9707            0    11327.218     16.88354    19.886579    20.597879    6915.8583    10382.045    9624.8606    13974.749   -605.01042    492.21267   -271.68665   -2204.0078 
 2699000    278.79683    -3819.645   -3341.7968    -3819.645            0    8288.4016    16.985352    20.006501     20.72209    7041.7284    7482.7375    9798.5579    7583.9093    356.71424   -850.89678   -1360.3534   -2490.6079 
 2700000    268.74404   -3821.7147   -3361.0966   -3821.7147            0    8567.5604    16.949741    19.964556    20.678645    6997.5306    5919.3548    10377.076    9406.2504    1156.7528   -550.77626   -144.13503   -2486.7616 
 2701000    260.39038   -3811.0953   -3364.7951   -3811.0953            0    11051.006    16.884987    19.888284    20.599645    6917.6373    10747.823    11357.855     11047.34    976.97617    1342.7029    -344.8329   -2249.8962 
 2702000    276.47717   -3844.2415   -3370.3691   -3844.2415            0    9656.6352    16.945641    19.959726    20.673642    6992.4531     8273.759    9891.8406    10804.306    454.04717    721.27319    299.95853   -2385.6071 
 2703000     273.7802   -3859.2367   -3389.9868   -3859.2367            0     11391.88    16.856669     19.85493    20.565097    6882.8907    10450.997    12074.932    11649.712   -278.88855    1714.8617     1750.339    -2246.471 
 2704000    261.92645   -3845.9327   -3396.9997   -3845.9327            0    8013.4823    16.994327    20.017073     20.73304    7052.8968    7297.5236    9183.4372    7559.4861    -1299.558    830.47434    410.59407   -2572.7388 
 2705000     266.3459   -3862.1028   -3405.5951   -3862.1028            0    10321.346    16.894981    19.900056    20.611837    6929.9276     10744.99     10818.96     9400.089    240.08565    1198.0584    763.17644    -2362.459 
 2706000    255.28938   -3834.8454   -3397.2881   -3834.8454            0     9654.491     16.94128     19.95459    20.668322    6987.0562    9902.0895    9281.7198    9779.6637   -1311.3018   -1410.8116   -1233.8618   -2413.5047 
 2707000    272.67014   -3852.8814   -3385.5342   -3852.8814            0    8426.8916    16.947085    19.961428    20.675404    6994.2415     9037.917    8924.1549     7318.603    1740.7619   -591.57542    197.79992   -2525.9589 
 2708000    268.38476    -3827.554   -3367.5517    -3827.554            0     8849.196    16.920369    19.929959     20.64281     6961.215     11118.38    7190.5279    8238.6798   -1030.2461   -644.21356    299.83848    -2469.162 
 2709000    267.91796     -3833.35   -3374.1478     -3833.35            0    8733.3887    16.959296     19.97581    20.690301    7009.3707    9007.0771    8260.7403    8932.3486   -1283.5273    -1336.508   -30.138979   -2481.3816 
 2710000    267.95119   -3797.7257   -3338.4665   -3797.7257            0    11750.245    16.887882    19.891694    20.603176    6921.1956    10249.941    14007.696    10993.097   -853.79086   -54.688755   -952.86414    -2152.414 
 2711000     267.5824   -3834.6197   -3375.9927   -3834.6197            0    9209.0697    16.947992    19.962496    20.676511    6995.3645    10009.394    7354.6821    10263.132   -139.18797    2143.9655   -16.174091   -2436.4814 
 2712000    287.20928   -3860.8941   -3368.6272   -3860.8941            0    8150.9008    16.932326    19.944044    20.657399    6975.9841    7206.8793    10007.773    7238.0498    368.31852   -1287.1803   -594.12153   -2539.3743 
 2713000     298.0899    -3852.782   -3341.8661    -3852.782            0    9310.6031     16.87913    19.881385    20.592499    6910.4406    8565.9642     10590.49    8775.3556     378.6991   -1464.4258   -1079.7989   -2403.5278 
 2714000    271.12114   -3874.1994    -3409.507   -3874.1994            0    8192.0116    16.976976    19.996635    20.711871    7031.3158    7915.5643    9103.2611    7557.2092   -431.27387   -2136.2716    3565.4013   -2569.4611 
 2715000    263.15194   -3916.8327   -3465.7993   -3916.8327            0    8565.7141    16.926614    19.937315    20.650429    6968.9261    10276.526    6954.1105    8466.5062    1544.5147    566.77613   -762.01002    -2595.226 
 2716000    275.54317   -3875.8697   -3403.5981   -3875.8697            0    8794.6841    16.956082    19.972025    20.686381     7005.387    6653.0777    11555.016    8175.9587   -82.264992    89.858181   -172.95585   -2505.0771 
 2717000    266.56334   -3847.4436   -3390.5631   -3847.4436            0    11748.934    16.895055    19.900143    20.611928    6930.0191    11406.334    11290.628     12549.84      257.678     932.0443   -810.28646    -2203.131 
 2718000    292.28556   -3885.6889   -3384.7214   -3885.6889            0    12191.792    16.924582    19.934922     20.64795    6966.4162    12708.042    12592.965    11274.369    1128.6022   -652.16365    14.397562   -2146.0593 
 2719000    269.50742   -3816.8483   -3354.9218   -3816.8483            0    9222.4863    16.943564     19.95728    20.671108    6989.8827    8762.6266    11488.238    7416.5944   -1073.6608   -1312.4833    891.79675   -2414.7791 
 2720000    260.21714   -3842.3332   -3396.3299   -3842.3332            0    9781.1814    16.896719    19.902103    20.613958    6932.0666    10654.793    10006.633    8682.1179   -625.43508   -447.27018    1383.5054    -2407.481 
 2721000    279.44741   -3871.7668   -3392.8035   -3871.7668            0     9033.571    16.960181    19.976853    20.691381    7010.4686    9103.7481    8634.9573    9362.0075     -1217.17    707.73548    919.72656   -2469.2067 
 2722000    259.32096   -3847.3142   -3402.8469   -3847.3142            0    8681.7703    16.893838     19.89871    20.610443     6928.522    8187.5352    9442.0229    8415.7528   -786.86212   -408.25802    1499.6037   -2525.5941 
 2723000    266.16412   -3832.5874   -3376.3912   -3832.5874            0    9358.0557    16.884702    19.887949    20.599297    6917.2868    10485.673    8159.4649    9429.0291   -693.52691   -889.01914    366.85367   -2432.3362 
 2724000    277.69525   -3834.0127   -3358.0526   -3834.0127            0    9274.9083    16.904212    19.910929    20.623099    6941.2928    9998.8729    8875.3752    8950.4768   -162.70911   -9.1133247    1801.0927   -2419.1384 
 2725000    273.83852   -3870.2627   -3400.9128   -3870.2627            0    8989.5326    16.940896    19.954138    20.667854    6986.5818    7280.4699    8930.2834    10757.844    427.37631    1707.7994   -400.44622   -2484.9502 
 2726000    269.33054   -3829.8075   -3368.1842   -3829.8075            0    7544.8807    17.032967    20.062586     20.78018    7101.1148    8310.5743    7129.8651    7194.2027   -440.40522   -13.516769    582.78711   -2586.8176 
 2727000    281.81374   -3800.3668   -3317.3477   -3800.3668            0    8890.0118    17.033418    20.063116     20.78073    7101.6783    8052.0921    9420.3489    9197.5944   -1007.3167   -781.00279    1260.4846    -2396.603 
 2728000     269.3067   -3809.1397   -3347.5573   -3809.1397            0    8590.3354    16.960411    19.977124    20.691662     7010.754    9656.0238    8027.7753    8087.2073    644.79086   -1170.9385    1327.6464   -2469.2414 
 2729000    275.94085   -3824.1463   -3351.1931   -3824.1463            0    7675.0153    17.005508    20.030242     20.74668    7066.8263    6995.8221    7356.3729    8672.8509   -178.07637    1037.4692   -1913.8879   -2560.1875 
 2730000    279.87356   -3816.5086   -3336.8149   -3816.5086            0     8742.905    16.962676    19.979792    20.694426    7013.5632    9619.4706    8087.5799    8521.6645   -819.92926    1757.8377    935.35164   -2442.5414 
 2731000    274.74242   -3804.1568   -3333.2577   -3804.1568            0    10245.693    16.955846    19.971747    20.686093    7005.0943     11153.44    9844.3407       9739.3   -165.26169    205.30269   -515.94652    -2286.536 
 2732000    268.48073   -3808.5991   -3348.4324   -3808.5991            0    11235.543    16.873014    19.874182    20.585038    6902.9325    10135.273    11338.509    12232.847    1483.3648    767.41766    187.64222   -2217.3257 
 2733000     251.8779   -3817.2339   -3385.5238   -3817.2339            0    8796.9735    16.894268    19.899217    20.610968    6929.0509    8157.0134    10278.923    7954.9838    349.59719     1286.787   -1233.7126   -2496.5624 
 2734000    279.72299   -3812.6944   -3333.2588   -3812.6944            0    11409.422    16.863789    19.863316    20.573783    6891.6156    13387.794    9655.1789    11185.293   -2110.9518    -379.8159   -1164.0854   -2186.5304 
 2735000    253.59826   -3817.2899   -3382.6311   -3817.2899            0    9536.9236    16.909106    19.916694     20.62907    6947.3239    9773.8415    10532.084    8304.8456    482.44883    3056.7628   -1812.5469   -2416.3539 
 2736000     270.7725   -3844.3037   -3380.2089   -3844.3037            0    8942.5701    16.940094    19.953194    20.666876    6985.5896    9429.3222    8743.4597    8654.9284    953.30738    1671.4691   -1037.4449   -2469.1608 
 2737000    266.44781   -3802.0437   -3345.3613   -3802.0437            0    9230.8261    16.907498    19.914799    20.627108    6945.3419     7518.549    11496.645    8677.2839   -526.57828   -1128.4748   -1551.5381   -2410.3645 
 2738000    267.95942   -3788.7262   -3329.4529   -3788.7262            0    9407.7364    16.927638    19.938522    20.651679    6970.1911    10690.331    8207.8772    9325.0007   -532.39425    527.07439   -862.08692   -2373.1275 
 2739000    267.39768   -3812.6941   -3354.3836   -3812.6941            0    7545.4944    16.922219    19.932139    20.645068    6963.4995    8335.5194    5366.9257    8934.0381    531.36306   -821.98888    1266.8651   -2588.0972 
 2740000    264.70526   -3802.1576   -3348.4618   -3802.1576            0    7367.3046    17.002427    20.026613    20.742921    7062.9857    10933.795    6341.9253    4826.1938    2520.2884   -916.29104   -171.71011   -2589.5823 
 2741000    263.17284   -3832.3232   -3381.2539   -3832.3232            0    8884.4083    16.878176    19.880262    20.591335    6909.2694    10719.628    8252.5257    7681.0716   -999.24604     1254.347   -1171.9265     -2486.02 
 2742000    275.56106   -3824.3301   -3352.0279   -3824.3301            0    9036.0509    16.956575    19.972605    20.686982    7005.9977    9766.0922    9001.0821    8340.9783   -229.18227     1730.832    1611.7971   -2428.7668 
 2743000    273.66444    -3815.004   -3345.9525    -3815.004            0    10088.279    16.965034     19.98257    20.697302    7016.4887    10473.825    10108.024    9682.9866    1405.1126    1164.9864   -944.78958   -2313.6362 
 2744000    272.37183   -3809.3436   -3342.5076   -3809.3436            0    10675.194    16.983556    20.004386    20.719899    7039.4943    12291.353     9114.206    10620.023    1060.8838    403.45835   -29.066959   -2246.5516 
 2745000    285.12846   -3813.5183   -3324.8179   -3813.5183            0     8544.504    16.948781    19.963426    20.677474     6996.342    9013.7165    7323.6937    9296.1017    448.75348   -1054.6625    460.99896    -2452.984 
 2746000    277.79326   -3836.2567   -3360.1285   -3836.2567            0    8593.0262    17.001548    20.025578    20.741849    7061.8903    7213.5635    9855.0548    8710.4604    197.78271   -1604.0066   -342.96495   -2475.1291 
 2747000    267.01514    -3836.575   -3378.9202    -3836.575            0    8686.6932     16.96208     19.97909    20.693698    7012.8236    10623.304    8700.9928    6735.7822    377.24831   -370.38085    1164.8467     -2490.49 
 2748000    282.74382   -3824.4811   -3339.8679   -3824.4811            0    7709.3449    16.980234    20.000472    20.715845    7035.3641    8743.9027    8288.2131     6095.919     -575.913    534.61263    989.92782   -2548.8616 
 2749000    263.51856   -3824.1232   -3372.4614   -3824.1232            0    8662.6376     16.94217    19.955638    20.669408    6988.1577    9752.8486    7648.2618    8586.8025     -1990.51    65.557076    242.25985   -2489.6078 
 2750000    272.94072   -3802.1174   -3334.3063   -3802.1174            0    7735.6272    17.036457    20.066696    20.784438    7105.4801    8183.8618    10077.776    4945.2441   -83.518375   -1109.7886   -137.98515   -2532.6931 
Loop time of 448.419 on 64 procs for 250000 steps with 864 atoms

Performance: 96.338 ns/day, 0.249 hours/ns, 557.514 timesteps/s
99.1% CPU use with 64 MPI tasks x 1 OpenMP threads

MPI task timing breakdown:
Section |  min time  |  avg time  |  max time  |%varavg| %total
---------------------------------------------------------------
Pair    | 22.248     | 26.981     | 32.355     |  47.2 |  6.02
Bond    | 0.27515    | 0.28545    | 0.36737    |   2.2 |  0.06
Kspace  | 192.15     | 200.74     | 214        |  31.8 | 44.77
Neigh   | 5.5949     | 6.2399     | 7.9277     |  21.5 |  1.39
Comm    | 89.455     | 103.15     | 109.85     |  42.5 | 23.00
Output  | 1.1873     | 1.1882     | 1.1892     |   0.0 |  0.26
Modify  | 103.84     | 105.31     | 107.04     |   8.4 | 23.48
Other   |            | 4.518      |            |       |  1.01

Nlocal:        13.5000 ave          18 max           9 min
Histogram: 2 3 6 11 11 10 9 6 4 2
Nghost:        2237.83 ave        2276 max        2180 min
Histogram: 1 1 2 6 13 6 13 10 7 5
Neighs:        4339.53 ave        6519 max        2831 min
Histogram: 4 6 8 14 12 9 6 2 2 1

Total # of neighbors = 277730
Ave neighs/atom = 321.44676
Ave special neighs/atom = 2.0000000
Neighbor list builds = 14941
Dangerous builds = 2

unfix		3
unfix		2
unfix		1

write_data	data.final.${pid}
write_data	data.final.0
System init for write_data ...
PPPM initialization ...
  extracting TIP4P info from pair style
  using 12-bit tables for long-range coulomb (../kspace.cpp:340)
  G vector (1/distance) = 0.37396325
  grid = 24 24 24
  stencil order = 5
  estimated absolute RMS force accuracy = 0.0031952112
  estimated relative force accuracy = 9.6222837e-06
  using double precision FFTW3
  3d grid and FFT values/proc = 2535 216
Last active /omp style is kspace_style pppm/tip4p/omp
WARNING: Not all mixed pair coeffs generated from mixing. Use write_data with 'pair ij' option to store all pair coeffs. (../write_data.cpp:312)

write_restart   restart.lmp.${pid}
write_restart   restart.lmp.0
System init for write_restart ...
PPPM initialization ...
  extracting TIP4P info from pair style
  using 12-bit tables for long-range coulomb (../kspace.cpp:340)
  G vector (1/distance) = 0.37396325
  grid = 24 24 24
  stencil order = 5
  estimated absolute RMS force accuracy = 0.0031952112
  estimated relative force accuracy = 9.6222837e-06
  using double precision FFTW3
  3d grid and FFT values/proc = 2535 216
Last active /omp style is kspace_style pppm/tip4p/omp
Total wall time: 0:07:30
