#include		in.partitions
include		in.temp
variable        temperature equal 80.49
variable	tempDamp equal 100.0
include		in.pressure
variable        pressure equal 8241.2
variable        pressureDamp equal 1000.0 # This is 1 ps
include		in.seed
variable        seed equal 745823

units		real
atom_style	full
box tilt large
read_restart	restart.lmp.${pid}
read_restart	restart.lmp.0
Reading restart file ...
  restart file = 30 Jul 2021, LAMMPS = 30 Jul 2021
  restoring atom style full from restart
  triclinic box = (-10.538847 -9.1060678 0.23200083) to (12.518847 12.096066 21.627998) with tilt (-8.9782613 1.7746915 2.9744687)
  4 by 2 by 4 MPI processor grid
  restoring pair style lj/cut/tip4p/long/omp from restart
  restoring bond style harmonic/omp from restart
  restoring angle style harmonic/omp from restart
  1296 atoms
  864 bonds
  432 angles
Finding 1-2 1-3 1-4 neighbors ...
  special bond factors lj:    0        0        0       
  special bond factors coul:  0        0        0       
     2 = max # of 1-2 neighbors
     1 = max # of 1-3 neighbors
     1 = max # of 1-4 neighbors
     2 = max # of special neighbors
  special bonds CPU = 0.003 seconds
  read_restart CPU = 0.009 seconds
include 	in.setup
variable	out_freq equal 1000
variable	out_freq2 equal 10000
variable	out_freq3 equal 1000

timestep	2.0

neigh_modify    delay 7 every 1

include		in.tip4p
# This is TIP4P/Ice

# create groups ###
group ox type 2
432 atoms in group ox
group hy type 1
864 atoms in group hy

# set charges - beside manually ###
set group ox charge -1.1794
Setting atom values ...
  432 settings made for charge
set group hy charge 0.5897
Setting atom values ...
  864 settings made for charge

# ### TIP3P Potential Parameters ###
pair_style lj/cut/tip4p/long/omp 2 1 1 1 0.1577 8.5
pair_coeff 1 1*2 0.000 0.000
pair_coeff 2 2 0.21084 3.1668
bond_style  harmonic
bond_coeff  1 450 0.9572
angle_style harmonic
angle_coeff 1 55 104.52
kspace_style pppm/tip4p/omp 1.0e-5
pair_modify tail yes

thermo          ${out_freq}
thermo          1000
thermo_style    custom step temp pe etotal epair emol press lx ly lz vol pxx pyy pzz pxy pxz pyz enthalpy

restart 	${out_freq3} restart.lmp.${pid} restart2.lmp.${pid}
restart 	1000 restart.lmp.${pid} restart2.lmp.${pid}
restart 	1000 restart.lmp.0 restart2.lmp.${pid}
restart 	1000 restart.lmp.0 restart2.lmp.0


include         in.dump
dump            myDump all atom ${out_freq2} dump.water.${pid}
dump            myDump all atom 10000 dump.water.${pid}
dump            myDump all atom 10000 dump.water.0
dump            myDump2 all dcd ${out_freq2} dump.dcd
dump            myDump2 all dcd 10000 dump.dcd
dump_modify     myDump append yes
dump_modify     myDump2 append yes


variable natoms 	equal  "count(all)"                        # NUMBER ATOMS
variable H      	equal  "enthalpy/v_natoms"                 # ENTHALPY-per-atom
variable Vol      	equal  "vol/v_natoms"                 # volume-per-atom
fix AVG all 		ave/time ${out_freq} 1 ${out_freq} v_Vol v_H file vol_enthalpy.dat
fix AVG all 		ave/time 1000 1 ${out_freq} v_Vol v_H file vol_enthalpy.dat
fix AVG all 		ave/time 1000 1 1000 v_Vol v_H file vol_enthalpy.dat


timer           timeout 10:00:00 every 1000
New timer settings: style=normal  mode=nosync  timeout=10:00:00

fix 		1 all shake 1e-6 200 0 b 1 a 1
       0 = # of size 2 clusters
       0 = # of size 3 clusters
       0 = # of size 4 clusters
     432 = # of frozen angles
  find clusters CPU = 0.003 seconds
fix             2 all nph tri ${pressure} ${pressure} ${pressureDamp}
fix             2 all nph tri 8241.2 ${pressure} ${pressureDamp}
fix             2 all nph tri 8241.2 8241.2 ${pressureDamp}
fix             2 all nph tri 8241.2 8241.2 1000
fix             3 all temp/csvr ${temperature} ${temperature} ${tempDamp} ${seed}
fix             3 all temp/csvr 80.49 ${temperature} ${tempDamp} ${seed}
fix             3 all temp/csvr 80.49 80.49 ${tempDamp} ${seed}
fix             3 all temp/csvr 80.49 80.49 100 ${seed}
fix             3 all temp/csvr 80.49 80.49 100 745823


run             250000
PPPM initialization ...
  extracting TIP4P info from pair style
  using 12-bit tables for long-range coulomb (../kspace.cpp:340)
  G vector (1/distance) = 0.3678533
  grid = 30 40 32
  stencil order = 5
  estimated absolute RMS force accuracy = 0.0044748552
  estimated relative force accuracy = 1.3475894e-05
  using double precision FFTW3
  3d grid and FFT values/proc = 7888 1280
Last active /omp style is kspace_style pppm/tip4p/omp
Neighbor list info ...
  update every 1 steps, delay 7 steps, check yes
  max neighbors/atom: 2000, page size: 100000
  master list distance cutoff = 10.8154
  ghost atom cutoff = 10.8154
  binsize = 5.4077, bins = 7 5 4
  1 neighbor lists, perpetual/occasional/extra = 1 0 0
  (1) pair lj/cut/tip4p/long/omp, perpetual
      attributes: half, newton on, omp
      pair build: half/bin/newton/tri/omp
      stencil: half/bin/3d/tri
      bin: standard
Per MPI rank memory allocation (min/avg/max) = 10.66 | 10.67 | 10.68 Mbytes
Step Temp PotEng TotEng E_pair E_mol Press Lx Ly Lz Volume Pxx Pyy Pzz Pxy Pxz Pyz Enthalpy 
  250000    83.675151   -6800.3257   -6585.0764   -6800.3257            0     8439.151    23.057694    21.202134    21.395997    10459.911    8693.3768    7841.9092     8782.167   -228.84681    259.46537   -485.67125   -5297.7087 
  251000    78.673901   -6799.9242   -6597.5404   -6799.9242            0    8381.0352    23.057043    21.173989    21.389708     10442.66    9254.1964    8510.3838    7378.5253   -618.69739   -789.56029   -415.14405   -5321.1466 
  252000    78.382702    -6797.452   -6595.8173    -6797.452            0    8796.4573    22.989369    21.218977    21.394042    10436.247    8999.3796    8885.9422    8504.0501   -575.57306   -534.62597   -852.66538   -5256.9793 
  253000    80.496694   -6809.6653   -6602.5925   -6809.6653            0    7446.1732    23.070861    21.148374    21.473299    10477.063    7708.1429    7314.1559    7316.2209   -525.63073    568.38527    646.12405   -5464.8379 
  254000    78.636378   -6814.8557   -6612.5684   -6814.8557            0     7218.576    23.059954    21.126013    21.502299    10475.165    7808.6058    7705.3578    6141.7646    1222.9499    9.7733229    245.09855   -5509.7898 
  255000     78.64592   -6805.4363   -6603.1244   -6805.4363            0    7463.6293    22.986418    21.227742    21.455628    10469.268    8400.0904    7043.6319    6947.1656   -808.28923    299.68912   -211.52849   -5463.5511 
  256000    83.676372   -6801.8395   -6586.5872   -6801.8395            0    8627.8366    23.066109    21.111684     21.40251     10422.26    8618.8847    8686.2333    8578.3918   -656.44624    111.82838    187.20259   -5275.1735 
  257000    76.695541   -6798.5566    -6601.262   -6798.5566            0    8715.9082    23.029551    21.192353    21.374367    10431.767    8573.9564    9211.6985    8362.0696    122.15906    50.914615   -406.97071   -5275.2532 
  258000    82.796091   -6806.1241   -6593.1362   -6806.1241            0    8626.8391    23.101017     21.11252    21.390771    10432.722    8601.7525    8607.7959     8670.969   -125.88839    -303.9649   -290.85745   -5280.5579 
  259000    83.672957   -6797.7914   -6582.5479   -6797.7914            0    8806.3901    23.041846    21.166381    21.367565    10421.229    9381.4642    8694.9973    8342.7089    205.43409    259.24403   -285.03262   -5244.1269 
  260000    81.822624   -6805.8276   -6595.3439   -6805.8276            0    8025.9762    23.048975    21.221472    21.358955    10447.374    7939.8014    8037.0373    8101.0897     399.9637    -114.4806     385.8866   -5372.4722 
  261000    79.642611   -6808.0738    -6603.198   -6808.0738            0    6603.7307    23.126715    21.201938    21.403399    10494.754    6650.3143    6667.2333    6493.6444   -411.61649    290.70506    453.88566   -5592.4626 
  262000    82.424681   -6799.9245    -6587.892   -6799.9245            0    7073.4146    23.017891    21.250742    21.454168    10494.247    7244.3861    6718.5667     7257.291   -1.3551489    597.44272    21.535629   -5505.3212 
  263000    81.730649   -6802.1414   -6591.8943   -6802.1414            0      7500.32    23.077217    21.136165    21.473386    10473.942    7635.6902    8053.2908     6811.979   -224.66616    218.90483    364.30212   -5446.2077 
  264000    79.216458   -6813.4433   -6609.6638   -6813.4433            0     7809.348    23.061129    21.173083    21.409397    10453.678    8516.8644    7949.0027    6962.1769    675.02395   -710.60194   -503.61908   -5419.0806 
  265000    83.347173   -6812.2196   -6597.8141   -6812.2196            0    8044.4594    23.029823    21.162036    21.445043    10451.412    8604.9927    8886.4755    6641.9101   -137.54077     -424.588   -1273.9988   -5371.6525 
  266000    82.326315   -6806.8023   -6595.0229   -6806.8023            0    8947.0511    22.994103    21.203413    21.370081    10419.057    9438.5964    9137.7896    8264.7673     45.10821   -874.50359   -1167.5877   -5235.5072 
  267000    82.869354   -6809.4398   -6596.2634   -6809.4398            0    8976.6205     23.02333    21.210154    21.349215    10425.427    8816.6493    8968.4144    9144.7977    292.84173    165.28436   -824.56566   -5231.4206 
  268000    78.289439   -6814.7119   -6613.3171   -6814.7119            0    7449.1579    23.102756    21.183746    21.416216    10481.158    7655.0175    7229.1446    7463.3117    100.50585    61.256136    218.80362   -5474.6615 
  269000     78.56736   -6806.0793   -6603.9695   -6806.0793            0    7545.6509    23.034544    21.236069    21.417374     10476.59    7628.0804    6965.2495    8043.6227    123.61195    619.60689   -197.68192   -5451.0671 
  270000     77.69446   -6801.2827   -6601.4184   -6801.2827            0    8092.6218    23.090226    21.066874    21.468342    10443.037    8057.6862    8705.8501    7514.3293    453.35736   -5.6962319   -76.876194   -5368.9042 
  271000    78.756209   -6810.9563   -6608.3607   -6810.9563            0    8284.9667    22.988113    21.198006     21.43576    10445.692    8793.0766    8258.9465    7802.8769   -41.328371    159.93681    49.647392   -5346.2314 
  272000    80.510914   -6804.2451   -6597.1356   -6804.2451            0    8233.5246    23.007793    21.202571    21.424188    10451.241    7543.0793    9352.5665     7804.928    1224.6976   -313.05028    277.22356   -5342.1767 
  273000    82.177993    -6814.553   -6603.1552    -6814.553            0    8815.9845    23.080276     21.11062     21.38648    10420.326    9235.6137    8458.2612    8754.0786   -475.43518     -320.624   -41.862178   -5263.3921 
  274000    84.635315   -6794.7846   -6577.0654   -6794.7846            0    8190.2578    23.026201     21.23354    21.399535    10462.826    8713.5219    8165.5215    7691.7302   -591.66356    1308.5876   -501.35647   -5327.3173 
  275000    85.668163   -6806.3659   -6585.9898   -6806.3659            0    8406.9279    23.157787    21.115523    21.366948    10448.198    7785.0651    8714.5936    8721.1249    500.46069   -376.49836   -143.85367   -5304.9737 
  276000    83.207967   -6798.1198   -6584.0723   -6798.1198            0    9145.3188    23.012072    21.219858    21.326806    10414.154    9361.6476    8729.8658    9344.4429    273.85289   -139.86226    287.33942   -5195.0835 
  277000    82.182889   -6799.2599   -6587.8495   -6799.2599            0    8830.7847    23.031603    21.142635    21.382544    10412.204    8988.1622    8732.8854    8771.3066   -629.69713   -71.886983    586.10537   -5246.8832 
  278000     79.67984   -6814.9241   -6609.9526   -6814.9241            0    8050.3888    23.063068    21.201586    21.383012    10455.729    7816.7225    8196.4341    8138.0098    946.62959   -325.03613    413.49936   -5382.3803 
  279000    79.942138   -6814.1032   -6608.4569   -6814.1032            0    7789.9277    23.039404    21.274227    21.356874    10467.976    7865.0876    7614.0296     7890.666    233.76671   -657.33904    379.51772     -5419.21 
  280000    83.107711   -6804.3976   -6590.6081   -6804.3976            0    7430.4768    23.119643    21.161181    21.404176    10471.756    6970.0178    7858.9022    7462.5103   -619.92288    578.43043   -474.87003    -5455.827 
  281000    82.845038   -6796.4965   -6583.3827   -6796.4965            0    8923.5763     23.00942    21.201184     21.34351    10411.939    9768.7809    8376.8323    8625.1159   -59.440473   -198.68888    97.973072   -5228.3603 
  282000    84.546843    -6804.442   -6586.9504    -6804.442            0    8972.6712    23.178477    21.094523    21.314653    10421.563    8199.6045    9231.4291    9486.9799   -396.27918    984.32365   -340.03737   -5223.2138 
  283000    81.728013   -6809.8662   -6599.6259   -6809.8662            0    8381.4329       23.031     21.23694    21.352358    10443.609    8599.7958    7900.9538     8643.549     257.0101    748.59192    305.82757   -5323.0555 
  284000    79.242607   -6807.8035   -6603.9567   -6807.8035            0    8227.2748    23.025176    21.232915    21.371911    10448.548    8071.2921    8589.8123    8020.7201   -287.19378   -220.01943    53.944977   -5350.2734 
  285000    79.052926   -6807.1979    -6603.839   -6807.1979            0    8601.9014    23.060171     21.12114    21.394568    10420.376    8708.9324    8798.3237     8298.448    85.463724   -528.88315    73.989063   -5296.6037 
  286000    78.871283   -6807.6972   -6604.8056   -6807.6972            0    7794.9367    23.026788    21.214604    21.392917     10450.53    8471.3244     7333.099    7580.3865   -157.45452    397.97821   -588.85428   -5416.7773 
  287000    82.617294   -6807.8541   -6595.3262   -6807.8541            0    7625.2104    23.192499    20.962204    21.511009    10457.919     7337.032    9063.0086    6475.5905    512.04765   -214.75484   -399.92962   -5432.3442 
  288000    80.436869   -6804.4438   -6597.5249   -6804.4438            0    8043.0162    23.015935    21.221792     21.38524    10445.394    8743.5381    7551.2582    7834.2522   -853.97894   -377.88972   -196.23256   -5372.2891 
  289000    80.754505   -6802.8683   -6595.1322   -6802.8683            0    8749.8095    23.110408     21.13867    21.348298    10429.141    8575.7475    9050.9446    8622.7363   -226.19011   -599.86521   -323.24333   -5264.3009 
  290000    78.970764   -6805.4011   -6602.2536   -6805.4011            0    8656.5933    23.014194    21.258838    21.311931    10426.969    8875.0599    8230.6602    8864.0598    -650.1794   -213.45806   -19.093384   -5285.8745 
  291000    80.897941   -6812.3566   -6604.2516   -6812.3566            0    8477.8473     23.02098    21.236166    21.331429    10428.453    8402.3178    7465.0784    9566.1459   -580.97311    317.70084    716.33311   -5314.8703 
  292000    78.809924   -6800.4264   -6597.6927   -6800.4264            0    8778.7749    23.115404    21.028465    21.431098    10417.259    8432.3436    9502.2088    8401.7721    41.302739   -696.36094    218.81095   -5263.9769 
  293000    81.111178   -6804.8748   -6596.2212   -6804.8748            0    7705.8442    23.000407    21.261814    21.406583    10468.469    8448.6598    7290.7649    7378.1079    393.09754    153.18879   -87.448093   -5419.7554 
  294000    81.440324    -6807.011   -6597.5107    -6807.011            0    7691.3928     23.16271    21.105965    21.417548    10470.426    7580.0303    8149.3932     7344.755    220.42066    80.301091   -167.89545   -5423.0318 
  295000     77.43005   -6818.0212   -6618.8371   -6818.0212            0    7763.2606    22.972991    21.278023    21.348402    10435.522    8395.1295    6798.7891    8095.8632   -501.56371   -346.05733   -616.03578   -5437.3357 
  296000    81.619526   -6805.4957   -6595.5345   -6805.4957            0    8378.2131    23.063774    21.180185      21.3923    10450.032    8408.7768    8510.7701    8215.0925   -261.36354    127.43888   -72.673688   -5318.6697 
  297000    78.185668   -6809.6109    -6608.483   -6809.6109            0    8040.7495    23.093288    21.067628    21.513391    10466.712    8123.6266    9227.3515    6771.2705    550.26081   -388.15712   -48.733415   -5381.0926 
  298000    82.816715   -6806.4753   -6593.4344   -6806.4753            0    7856.6212    22.941318    21.245487    21.479149    10468.926    8640.3949    7922.7683    7006.7005    306.30449    225.98346   -74.182091   -5393.8969 
  299000    81.323047   -6804.0615   -6594.8629   -6804.0615            0    8055.2212    23.124185    21.074549    21.488727    10472.139    7890.6151    8894.9424    7380.1063    -126.0217   -477.48796    153.12007    -5364.626 
  300000     80.84719   -6806.1764   -6598.2019   -6806.1764            0    7950.3298    22.927619     21.27899    21.432007    10456.174    8080.3752    7471.3129    8299.3014    1100.0205    173.32998    130.81151   -5385.8357 
  301000    79.839808   -6797.5129   -6592.1298   -6797.5129            0    8018.8545    23.081043    21.116431    21.471903    10465.175    7909.6377    8200.3646    7946.5613   -27.687217   -278.96245    396.56665   -5368.2614 
  302000    78.613363   -6807.8795   -6605.6514   -6807.8795            0    8828.5328    22.998254    21.195697    21.390742    10427.217    10220.501    8406.9152    7858.1823   -714.48313    -754.1258   -351.06457   -5263.0941 
  303000    79.645004   -6810.4253   -6605.5434   -6810.4253            0    8083.1301    23.071752     21.19706    21.359774    10446.068    8024.3679    8653.1038    7571.9187    153.40961    499.24701   -649.47764   -5374.1174 
  304000    84.404999   -6811.8698   -6594.7431   -6811.8698            0    7430.4648    23.171723    21.123531    21.395729    10472.538    7354.7316    8287.4534    6649.2094   -890.87086    118.44319   -316.57597   -5459.8791 
  305000    81.460034   -6804.7813   -6595.2303   -6804.7813            0    7570.0011    23.015027    21.325359    21.322856    10465.337    8117.9193    6991.6732     7600.411    648.91043   -449.49431    -789.2376   -5439.8497 
  306000    84.828425   -6805.4516   -6587.2356   -6805.4516            0    7807.3155    23.201971    21.091056    21.363939     10454.53    7009.2532    8014.3399    8398.3534    723.25385   -627.21519    619.56542   -5396.8651 
  307000    80.417342   -6803.3426   -6596.4739   -6803.3426            0     8462.959    22.949396    21.259285    21.362098    10422.306    8417.5082    8710.2383    8261.1305   -119.35553    695.62992    442.50371   -5310.1156 
  308000    78.309625   -6799.0778   -6597.6311   -6799.0778            0    8417.9208    23.148827    21.105123    21.362083    10436.635    8007.3132    8171.7016    9074.7475    204.75708    -410.8768    137.53771   -5316.3595 
  309000    80.596947   -6801.4372   -6594.1065   -6801.4372            0    9020.5418    23.005675    21.220959    21.370651    10433.205     10112.58    7606.4642    9342.5816   -146.23638   -339.29697    788.24047   -5221.5626 
  310000    80.403178   -6814.7519   -6607.9196   -6814.7519            0    9427.3575     23.08439    21.144522     21.32152    10407.213    8749.3211    9961.2557    9571.4959   -503.70232    54.943785   -109.34726   -5177.0492 
  311000    83.329186   -6814.6907   -6600.3314   -6814.6907            0    8331.0337    23.078501    21.186125    21.345862    10436.931    8435.6563    8129.6092    8427.8358    181.52066    -284.0833     520.0946   -5332.2487 
  312000    79.878535   -6802.4775   -6596.9948   -6802.4775            0    7547.9257    23.017267    21.314955    21.364126    10481.497    8062.2231    6930.9357    7650.6183   -39.753652    372.01842    131.33058   -5443.2047 
  313000    83.165634   -6802.3012   -6588.3627   -6802.3012            0    7656.5326    23.205091    21.094638    21.407907    10479.235    7609.3058      8293.64    7066.6519    902.64716   -810.03789    35.007887   -5418.2233 
  314000    82.247374   -6812.7311   -6601.1548   -6812.7311            0    8303.1232    22.979072    21.280577    21.338692     10434.79    8546.3287    7694.3793    8668.6615   -451.97593    915.92505   -55.385391   -5337.5797 
  315000    76.667021   -6811.0571   -6613.8359   -6811.0571            0    8020.9206    23.242109    21.006354    21.382324    10439.534    6957.0483     8701.012    8404.7017    113.56499   -711.28085    361.80504   -5392.6516 
  316000     83.09229   -6801.8163   -6588.0664   -6801.8163            0    8347.2997    22.921141    21.364146     21.32418     10442.25    9154.6735    7805.6013    8081.6241    949.98091   -267.48067   -42.479758   -5316.8602 
  317000    77.195127   -6810.7537    -6612.174   -6810.7537            0    8299.3105    23.168468    21.074987    21.382378    10440.484     7242.317    9292.0352    8363.5793   -471.93788    186.47367    302.76946   -5348.4899 
  318000    78.368917   -6808.9737   -6607.3744   -6808.9737            0    8149.5423    23.002251    21.236681    21.375251    10441.628    8797.0917    7133.6304    8517.9048   -89.811281   -575.26727    259.09637   -5366.3586 
  319000    79.178093   -6819.1655   -6615.4847   -6819.1655            0     8019.721    23.120612    21.135517    21.365617    10440.652    7904.8545    8475.9318    7678.3768   -123.78579    636.06632   -127.55961   -5394.3522 
  320000     81.22475   -6808.0868   -6599.1411   -6808.0868            0    8240.6389    23.056683    21.193303    21.356861    10435.972    8398.9779    7505.9461    8816.9928   -204.21423   -97.638021   -166.22797   -5344.9328 
  321000    82.966704   -6814.1882   -6600.7614   -6814.1882            0    7314.9382    23.072772    21.275316    21.338284    10474.548    6802.5697    7178.0725    7964.1725    637.80101    540.72205    543.65114   -5483.3276 
  322000    82.033634   -6789.7833   -6578.7568   -6789.7833            0    8748.4339    23.149087    21.104268     21.37936     10444.77    8861.4933    8764.1622    8619.6461   -295.43071    173.04133    516.79027   -5246.1407 
  323000     80.11762   -6808.0578   -6601.9602   -6808.0578            0    8982.9377    22.967329    21.257815    21.304197    10401.459    9271.0728    8471.4375    9206.3027    207.72031   -206.42567   -106.10391   -5239.2969 
  324000    82.954086   -6810.1548   -6596.7605   -6810.1548            0    8577.0381    23.174168    21.059905    21.370621    10429.842    7760.0981    9427.0387    8543.9774   -680.43238    1087.1247   -425.17383   -5292.1197 
  325000    83.601887    -6814.441   -6599.3802    -6814.441            0    8024.6545    23.079355    21.221433    21.335278    10449.528    8347.4881    7801.3422    7925.1333    288.24106    118.76206    62.128907   -5376.4578 
  326000    79.430945   -6804.6843   -6600.3531   -6804.6843            0    8531.8686     23.08404    21.142427    21.392931    10440.876    8713.8526    8131.2794    8750.4738    658.89769   -744.70653   -5.7211628   -5301.2099 
  327000    80.908937   -6814.0147   -6605.8814   -6814.0147            0    8172.7118    23.049114    21.210964    21.341973    10433.961    7630.9343    8799.0543    8088.1466   -521.75658     683.1598   -236.04478   -5362.2511 
  328000    78.656989   -6793.9605   -6591.6202   -6793.9605            0    7218.6574    23.088821    21.217621    21.395036    10481.211    7362.6221    6951.6574    7341.6926    257.85553   -480.46837    409.13856   -5488.1927 
  329000    80.020473   -6812.5563   -6606.7085   -6812.5563            0     8206.524    23.130581    21.160411    21.361803     10455.59    7677.0266    8995.3339    7947.2114    290.57654   -277.65095   -549.80512   -5355.3445 
  330000    83.808544   -6804.0644    -6588.472   -6804.0644            0    8456.7227    23.002763    21.191654    21.426427    10444.668    9038.5377    8361.8138    7969.8165    190.33157   -97.294477   -223.08506   -5300.3038 
  331000    80.304546   -6811.4176    -6604.839   -6811.4176            0    7935.3788    23.125233    21.078336    21.439771    10450.633    7546.2768    8654.7969    7605.0627   -929.56518    800.76153   -376.52175    -5395.394 
  332000    80.229194   -6809.6355   -6603.2508   -6809.6355            0    8179.7725      22.9798    21.172771    21.468343    10445.337     7989.178    8932.9892    7617.1504    617.00917    524.45995   -189.66136    -5357.189 
  333000    77.557651   -6803.9263   -6604.4139   -6803.9263            0    7847.1508    23.082517    21.173404    21.424593    10470.958    8711.3038    7384.1392    7446.0093    -235.3948   -201.10438   -541.34251   -5406.0898 
  334000    83.335166   -6793.2635   -6578.8889   -6793.2635            0    8977.5486    23.003138    21.216771     21.35667    10423.172    9465.2863    8970.3862    8496.9733   -314.62802   -611.24559    -762.7659   -5214.2003 
  335000    80.603621   -6810.1405   -6602.7926   -6810.1405            0    8634.5684    23.037122    21.270567    21.296818     10435.71    9102.9176    8365.2523    8435.5355   -1114.5934   -378.17665     -561.159    -5288.662 
  336000    79.695065    -6810.606   -6605.5953    -6810.606            0    8022.3937    23.185051    21.108767    21.372844    10460.038    7365.9645    9174.8132    7526.4033    -60.80441    429.80545   -737.03916   -5381.7878 
  337000    78.867086   -6812.0791   -6609.1984   -6812.0791            0    8299.1382     23.03069    21.227394    21.358895    10441.969    8003.5696    8440.5093    8453.3356    340.39238     632.8591   -552.36044   -5345.3607 
  338000    82.119181   -6805.2021   -6593.9555   -6805.2021            0    8815.2786     23.15008     21.01047    21.429745    10423.301    8953.2042    8575.1417    8917.4898   -1340.2365    459.93971    351.57977   -5253.9172 
  339000    77.691404   -6809.7566   -6609.9002   -6809.7566            0    9002.3343     22.93696    21.209218    21.403461    10412.248    8907.1343    9339.0111    8760.8576    306.27142    293.84154    474.08203   -5242.8781 
  340000    82.803057   -6820.4365   -6607.4307   -6820.4365            0    7993.9207     23.02632    21.244702    21.382433    10460.015    8963.1033    6950.0258    8068.6329     43.67658   -848.65383    571.34839   -5387.9693 
  341000    75.902333     -6805.11   -6609.8559     -6805.11            0    8555.7805    23.120266    21.098695    21.415651    10446.714    8003.1855    9228.9988    8435.1571    992.92594   -790.68161    87.425566   -5306.3433 
  342000    80.265404   -6803.8233   -6597.3454   -6803.8233            0    8459.6366    22.999377    21.255932    21.354575    10439.679    8763.9798    8322.1774    8292.7528   -365.72759    375.87681   -187.91228   -5309.3487 
  343000    78.485988   -6800.9512   -6599.0508   -6800.9512            0     8830.117     23.15628    21.085402    21.356336    10427.433    8059.5374    9813.6109    8617.2027    771.24712    -392.2554   -388.55076   -5256.2247 
  344000    80.759447   -6802.6259   -6594.8772   -6802.6259            0    8603.8617    22.918342    21.308843    21.366087    10434.414    9344.0896    8906.9858    7560.5096   -793.85192   -69.332051   -995.61604   -5285.5826 
  345000    76.361139   -6805.1194    -6608.685   -6805.1194            0    8943.3108    23.069571    21.168615    21.329442    10416.252    9009.1948    9488.1809    8332.5566    325.57998    172.60086   -363.50719   -5250.1036 
  346000     80.49145    -6800.922   -6593.8627    -6800.922            0    7545.7016    23.091347    21.202422    21.395178    10474.918    7710.0823    6929.7282    7997.2943     142.8671   -148.90066    443.68968   -5441.1365 
  347000    80.130932   -6806.8224   -6600.6905   -6806.8224            0    7954.5629    23.064271     21.17025    21.368512     10433.74    7680.3225    8699.8755    7483.4906    384.98327    861.65511    217.45522   -5390.2813 
  348000     75.61604   -6807.9245   -6613.4069   -6807.9245            0    7607.6647    23.082042    21.155988    21.401694    10450.948    7664.8743    7267.2213    7890.8987   -148.76757   -354.13083    621.46368   -5453.8743 
  349000    78.816535   -6801.1015   -6598.3508   -6801.1015            0    7638.4884    23.059626    21.248472     21.33761    10455.041     7299.476    6946.9921    8668.9969    357.61235   -532.08062    458.32189   -5433.6642 
  350000    79.637222   -6810.2466   -6605.3847   -6810.2466            0     8981.872    23.132887    21.108442    21.353793     10427.04    8332.1334    9663.3572    8950.1256   -511.44654     489.0534   -358.60964   -5239.5322 
  351000    80.620535   -6819.5765   -6612.1851   -6819.5765            0    8110.8993    23.059961    21.256046    21.324322    10452.406    8291.5969    7442.6857    8598.4152    1323.1642   -835.00785    175.18497   -5375.7789 
  352000    80.845704    -6809.232   -6601.2613    -6809.232            0    8154.9591    23.071163    21.129855    21.410245    10437.288    7248.3615    9594.3294    7622.1864    470.72369   -152.11114   -212.01864   -5359.9368 
  353000    83.416915   -6804.5238   -6589.9389   -6804.5238            0    7965.0409    23.102219     21.09518    21.445544    10451.389    8368.6744    7369.0962     8157.352    469.07862    427.80144    610.41639   -5375.8852 
  354000    82.997357   -6810.2258   -6596.7202   -6810.2258            0    8448.6132    22.962758    21.234787    21.431334    10450.118     8567.055    8841.8259    7936.9586    318.03008    557.90328    285.11434   -5309.1156 
  355000    83.604827   -6810.5502   -6595.4819   -6810.5502            0    8551.8212     23.06896    21.118784    21.423033    10437.053    8799.4673    8795.1322     8060.864   -337.82977   -121.68251   -385.75522   -5293.7775 
  356000    80.532855    -6811.241   -6604.0751    -6811.241            0    8213.8063    22.833293    21.275869    21.493949    10441.721    10255.828    6706.6524    7678.9384   -916.23737    29.614462    437.15931    -5353.262 
  357000    79.637252   -6807.8555   -6602.9935   -6807.8555            0    7854.7301    23.058963    21.090632    21.498696     10455.42    8137.3564    8291.3741    7135.4599   -330.23093   -617.84673   -243.22096   -5405.2919 
  358000    79.948315   -6808.0398   -6602.3776   -6808.0398            0     8255.716    23.019051    21.146089    21.470128    10450.862    8399.4362     8652.711    7715.0007    226.15896   -212.88112    23.778538   -5344.0818 
  359000    81.964614   -6818.9648   -6608.1158   -6818.9648            0    8154.8818    22.963081    21.170246    21.512753    10458.083    9093.3754    7736.0816    7635.1882    224.20411    693.05132   -190.70583   -5364.3299 
  360000    78.088687   -6803.2692   -6602.3908   -6803.2692            0     8747.262    23.073471    21.087538    21.433683     10428.83    8761.3557    9634.4418    7845.9884    97.538461   -243.45653   -392.32275   -5271.9866 
  361000    82.317644   -6811.0742   -6599.3171   -6811.0742            0    8144.4109    22.956119    21.254647    21.427438    10454.966    8205.4138     7770.793    8457.0258   -154.76773   -227.47515   -128.74562   -5357.4985 
  362000    80.378331   -6803.3401   -6596.5718   -6803.3401            0    8883.6555    23.063217    21.136305     21.42325    10443.217    9051.8605    8989.2446    8609.8614   -607.13699   -13.865681   -524.43195    -5243.559 
  363000    82.119276   -6808.0509   -6596.8041   -6808.0509            0    8013.1505    22.992262    21.237285    21.421064     10459.76    8507.6149    7914.9167    7616.9199    372.80919   -254.87241   -806.64864    -5374.439 
  364000     80.66794   -6802.4451   -6594.9317   -6802.4451            0    8281.6707    23.091127     21.06573    21.489459    10453.149    8188.1888    8653.1828    8003.6404   -206.08795    710.80629   -482.29073   -5332.4038 
  365000     81.08557   -6807.7858   -6599.1981   -6807.7858            0     7815.073    23.016286    21.199857    21.470801    10476.505    7601.0922    8046.9526    7797.1743   -170.91919    475.42252    109.87188   -5405.1403 
  366000     76.64796   -6809.7689   -6612.5967   -6809.7689            0    8708.6448    22.958806    21.212464    21.426933    10435.192     9367.965     7624.019    9133.9505   -110.54698   -633.91571    840.51219   -5287.2579 
  367000    78.687125   -6820.3002   -6617.8824   -6820.3002            0    8643.1976    23.078959    21.115292    21.375726    10416.797    8692.6723    8671.1715     8565.749   -393.70188    178.64216    463.85164   -5304.8226 
  368000    79.705432   -6812.6012   -6607.5639   -6812.6012            0    8252.5828    22.987029    21.242134    21.369922    10434.795    7829.7263    8645.1579    8282.8643    352.35155     322.1819   -327.78572   -5351.6794 
  369000    77.847497   -6799.2977   -6599.0397   -6799.2977            0    8554.8335    23.149603    21.088597    21.375683    10435.451    8628.5123    9014.3668    8021.6215    41.110921   -142.80138    64.967141   -5297.0766 
  370000    79.826396   -6806.3755    -6601.027   -6806.3755            0    8808.6653    23.011068    21.251595    21.313812    10422.921    9734.2206    8302.3593     8389.416    46.842178    262.70435    -243.9178   -5262.0429 
  371000    80.227211   -6807.2593   -6600.8797   -6807.2593            0    8794.6359    23.087143    21.171742     21.32019    10421.203    8278.0353    8947.7011    9158.1714   -208.35582    227.95071   -328.95739   -5264.2485 
  372000    82.310043   -6802.3963   -6590.6587   -6802.3963            0    7166.1226    23.147907    21.220975     21.32937    10477.438    6393.5913    6996.3328    8108.4438   -217.77545    215.64142  -0.36123648    -5495.656 
  373000    76.154933   -6798.3119   -6602.4079   -6798.3119            0    7970.4387    23.070553    21.266684    21.309983    10455.406    8272.0648    7362.0291    8277.2222   -661.59554    123.58218     381.0225   -5387.0646 
  374000    79.903822   -6800.3776   -6594.8299   -6800.3776            0    8605.4341    23.165607    21.083776    21.366549    10435.817    8566.2337    8755.7435    8494.3251    610.79285   -848.48164   -227.90005   -5285.1199 
  375000    79.847579   -6795.4504   -6590.0474   -6795.4504            0    8493.1741     22.97144    21.284265    21.339323     10433.44    8633.7396    8886.9803    7958.8022    642.21395    790.96597   -169.53887   -5297.7173 
  376000    80.438896   -6810.9307   -6604.0065   -6810.9307            0     7743.943    23.245807       21.075    21.360677     10464.71    7427.7312    8665.5873    7138.5106   -446.31643    394.89689   -749.82367   -5422.1486 
  377000    81.464016   -6815.7229   -6606.1617   -6815.7229            0    7433.0706    23.032826    21.261745    21.401862    10480.879    7690.2908    7053.1534    7555.7676   -130.19352    107.51447   -224.90649   -5469.9955 
  378000    82.345083   -6812.6054   -6600.7777   -6812.6054            0    7901.2012     23.04569    21.190588    21.398034    10449.767    7291.1986    8139.3914    8273.0137    705.40136     515.8828    428.72065   -5396.6415 
  379000    85.374567    -6802.718   -6583.0972    -6802.718            0    9028.9267    23.108773    21.090035    21.390901    10425.173    9005.5748    9383.4312     8697.774    185.57675    -21.74013    184.42459   -5210.3351 
  380000    77.826142   -6815.0475   -6614.8445   -6815.0475            0    8798.0202    22.931555    21.265684    21.369753    10421.071    9213.2343    7559.2008    9621.6253    162.17093    391.84311    907.16756   -5277.7158 
  381000    76.717697    -6804.619   -6607.2674    -6804.619            0    8700.3177     23.18858    21.012064    21.382396    10418.357    7865.2876    9363.3611    8872.3044   -444.08392    53.959524   -295.56189    -5285.332 
  382000    83.161398   -6798.9027    -6584.975   -6798.9027            0    8968.9663    22.912948    21.262549    21.389042    10420.478     9921.722     9191.855    7793.3218    359.23222   -935.68366   -980.46516   -5221.9435 
  383000    83.244226   -6814.2289   -6600.0882   -6814.2289            0    7724.6622    23.110008    21.150811    21.414449    10467.284    8413.3648    8120.7779    6639.8439   -1293.3416   -274.30377   -883.19108    -5420.883 
  384000    75.523874   -6809.3416    -6615.061   -6809.3416            0    7814.1722    23.021516    21.225419    21.433936    10473.507    8155.8182    7152.6669    8134.0314    -281.5727    433.64947     525.3935   -5421.4825 
  385000    76.701741   -6806.8421   -6609.5315   -6806.8421            0    8393.0546    22.901561    21.238786    21.459512    10437.936    9028.6581    8215.0533    7935.4523    64.352473   -65.078572    331.29288   -5331.8855 
  386000    84.566307   -6808.1861   -6590.6444   -6808.1861            0    8686.8029    23.078626    21.092848    21.443955    10438.788    8236.9896    9574.0898    8249.3293    14.963167    275.22717    273.92852   -5268.1741 
  387000    78.429429   -6805.0389    -6603.284   -6805.0389            0    8611.1589    22.959019    21.260655    21.394174    10443.005    9128.1248    8281.2079    8424.1441    419.41509     17.31985    28.070826      -5291.8 
  388000    75.567421   -6805.9648   -6611.5723   -6805.9648            0     7973.395    23.193424    21.082916    21.397347    10462.982    7514.3605    8699.6867    7706.1378    170.88404   -544.95928    5.9471615   -5394.8971 
  389000    80.099367   -6811.9206   -6605.8698   -6811.9206            0    8142.2192    22.961534    21.315859    21.346945    10448.152    8079.1118    8071.3444    8276.2012    471.11332    213.77518   -196.21591   -5365.1945 
  390000     83.00028   -6812.4751    -6598.962   -6812.4751            0      8499.75    23.115899     21.14243    21.337795    10428.342    7995.1718    8751.3925    8752.6857   -172.79403    234.97927   -230.70784   -5306.2633 
  391000    81.114534   -6814.9666   -6606.3044   -6814.9666            0    7843.3342    23.079793    21.195561    21.363791    10450.935    7493.8027    7631.1695    8405.0303    607.94729   -624.39243    22.087853   -5410.8535 
  392000    78.336341   -6805.6602   -6604.1448   -6805.6602            0    7478.6605    23.043343     21.27156    21.382197    10480.866     7376.128    7772.2702    7287.5832    582.69718   -395.94067    205.60747   -5461.0115 
  393000     77.72957     -6800.79   -6600.8354     -6800.79            0     7927.213    23.224454    21.043577    21.412251    10464.715    7983.5203    7837.2789    7960.8397   -139.25565    -418.1861    37.955059   -5391.0069 
  394000      78.9735   -6800.5028   -6597.3482   -6800.5028            0    8562.2326    22.932388    21.299635    21.322409    10414.963     9520.742    7754.7003    8411.2556   -283.85722    17.904122     166.4803   -5296.8175 
  395000    81.808763   -6795.1723   -6584.7242   -6795.1723            0    8762.6102    23.180587    21.079476    21.339718    10427.325    7461.4797    9154.2062    9672.1447    -31.97704     161.9998   -274.01028   -5252.1779 
  396000    77.005582   -6800.5066   -6602.4144   -6800.5066            0    9037.8454    22.998125    21.202748    21.382697    10426.704    9519.0636    8751.5292    8842.9435   -89.526028     382.2686   -315.99162   -5228.0944 
  397000    80.590952   -6815.2695   -6607.9542   -6815.2695            0     8758.821    23.049956    21.140102     21.38517    10420.531    8479.3877    9230.3158    8566.7596     146.7009   -392.78115   -353.53559    -5276.852 
  398000    77.930416   -6810.1219   -6609.6506   -6810.1219            0    7593.7935    23.155921    21.104345    21.402563     10459.23    7052.7888    7939.2119    7789.3798    134.01121    3.1924454    293.92124   -5451.3151 
  399000    83.213886   -6804.8725   -6590.8099   -6804.8725            0    8548.4616    22.962652    21.289912    21.387287    10455.664    8036.6812    8175.5038    9433.1998    609.11583    708.89847     1001.787   -5287.2966 
  400000    79.576555   -6814.8175   -6610.1117   -6814.8175            0    7253.0934    23.181497    21.143597     21.40586    10491.874    7075.6352    6844.4189    7839.2261   -370.93085   -610.83267     389.5681   -5500.2925 
  401000    81.256422   -6795.8698   -6586.8426   -6795.8698            0     9314.388    22.914194    21.236322    21.400887    10413.955    9815.0328    8939.0633     9189.068    174.98617    30.825535    235.27188   -5172.2027 
  402000    78.122538    -6806.113   -6605.1475    -6806.113            0    8951.3645     23.00402    21.112871    21.428014    10407.178     8730.668    9269.4422    8853.9835   -641.34308    47.383881    109.32861   -5246.5272 
  403000    79.992898   -6794.3714   -6588.5945   -6794.3714            0    8463.7069    23.049417    21.168051    21.420078    10451.097    8462.9864    8832.9119    8095.2225     273.4852    164.58259   -281.19095   -5298.5688 
  404000    79.199499   -6808.5094   -6604.7735   -6808.5094            0    7823.0985    23.068002    21.177481    21.443215    10475.486    8271.4038    8330.2546    6867.6371    375.30569    335.75713   -455.72676   -5409.6057 
  405000    76.467938   -6810.0239   -6613.3148   -6810.0239            0    7380.7511    23.118781    21.134063    21.444619    10477.708    7224.8259    7966.4649    6950.9625   -18.016442    70.855163    -233.9691   -5485.4871 
  406000    76.353847   -6811.1024   -6614.6868   -6811.1024            0    8416.6321    22.990367    21.226067    21.362774    10424.929    8487.6509    8606.3481    8155.8972   -216.94525     128.1025   -529.17132   -5335.0482 
  407000    77.390584   -6801.2957   -6602.2131   -6801.2957            0    8891.1934    23.060069     21.14813    21.384737    10428.852    9154.0056    8769.1497    8750.4248    579.33633   -703.29801    9.8837186   -5249.9149 
  408000    80.674009   -6814.3311   -6606.8022   -6814.3311            0    8860.9252     22.95875    21.275689    21.356568    10431.898    9382.7768    9129.8844    8070.1142    61.611909     398.9697   -980.56876    -5258.714 
  409000    82.082901    -6811.357   -6600.2037    -6811.357            0    7945.4261    23.170228    21.062402    21.410239    10448.639    8004.6446    8135.0025    7696.6313    672.27966    52.355834   -104.59357   -5389.4583 
  410000    79.910613   -6810.3357   -6604.7705   -6810.3357            0    7731.3121    23.050438    21.191829    21.407725    10457.266    8186.2588    7794.9068    7212.7707   -155.76264    61.306852   -224.75093   -5425.6797 
  411000    77.921463   -6811.2615   -6610.8133   -6811.2615            0    8222.2903    23.029433     21.20049    21.368615    10432.912    8969.8776    7808.8581    7888.1351    -318.2458   -414.29784    586.13538   -5359.7646 
  412000    81.881054     -6810.45    -6599.816     -6810.45            0    8586.8014    23.058775    21.192185    21.338224    10427.261    7663.1359    9655.0146    8442.2538   -187.12077    486.42696    161.96092   -5294.0133 
  413000     79.47655   -6805.2212   -6600.7726   -6805.2212            0    8305.6348    23.009677    21.303306    21.291026    10436.482    9299.9652    6909.3092      8707.63    361.09174   -615.21885    408.96983   -5336.6103 
  414000    79.651584   -6813.0627   -6608.1639   -6813.0627            0    8248.3009    23.134685    21.121189    21.370645    10442.382    7751.9186    8480.3776    8512.6065   -102.52457    96.904817    16.877191   -5352.0183 
  415000    78.967076   -6804.3196   -6601.1816   -6804.3196            0     7881.312    23.067635    21.260467    21.334044    10462.827    8130.0895    7498.6417    8015.2048   -611.14461    659.26359   -19.333277   -5398.5753 
  416000    81.288468   -6799.9247   -6590.8151   -6799.9247            0    8517.4769    23.154001    21.173706    21.308441    10446.591    7924.8088    9028.5471     8599.075   -554.11832   -856.52227   -1188.3684   -5293.1535 
  417000    78.813596   -6805.5804   -6602.8372   -6805.5804            0    8187.5674    23.098641    21.184885    21.340996    10443.047    7489.2381    8124.1437    8949.3203   -457.95276    756.44094    208.91281   -5355.8615 
  418000    83.959223   -6806.7926   -6590.8126   -6806.7926            0    7945.3226     22.92174    21.337702    21.362677    10448.426    8237.5105     7565.953    8032.5042    66.018296    43.557458   -124.47957   -5380.1076 
  419000    82.566454   -6795.6982    -6583.301   -6795.6982            0    8165.1607    23.123423    21.104219    21.413484    10449.818     7879.018     7506.184      9110.28   -407.95274   -186.77033    852.11451   -5338.9315 
  420000    80.062409   -6810.2821   -6604.3265   -6810.2821            0    7729.9588    22.964338    21.273532    21.409919    10459.443    8562.2278    7634.0259    6993.6226    437.72069    570.98734     86.75648   -5425.1966 
  421000    79.143362   -6804.8413   -6601.2498   -6804.8413            0    8147.0058    23.135731    21.052285    21.447383    10446.162    7423.2128    8791.9219    8225.8826    196.53254    343.55325   -58.964748   -5360.0815 
  422000    81.545732   -6808.9165   -6599.1451   -6808.9165            0    8739.7437    23.036517    21.164754    21.415319    10441.301    8869.7656    8784.3981    8565.0675    551.51452    301.53482   -100.22605   -5268.2948 
  423000    79.225006   -6810.9669   -6607.1654   -6810.9669            0    8270.9212    23.000049    21.238654    21.390644    10449.117    9034.4126     7775.357    8002.9941   -594.77342   -411.00146    55.346336   -5346.7626 
  424000    81.742297   -6818.8491    -6608.572   -6818.8491            0    8304.5994    23.001425      21.1815    21.426073    10438.883    8796.5546    8629.8518    7487.3917   -238.78889   -701.11355   -234.20037   -5344.2765 
  425000    81.129807   -6807.5421   -6598.8406   -6807.5421            0    8266.1364     22.92793    21.208638    21.491397    10450.625    8726.8516    8733.5994    7337.9582    506.72954   -139.10107   -441.41933   -5338.9851 
  426000     76.74252   -6807.2642   -6609.8488   -6807.2642            0    7886.7945    23.105543    21.112868    21.457266    10467.375    7877.3187     8123.423    7659.6419    459.11754    713.75825   -334.05957   -5405.8828 
  427000     81.47163   -6796.0691   -6586.4883   -6796.0691            0    8290.4521    23.033748    21.163439    21.418995    10441.189    7434.5332    8908.3642    8528.4589    496.54067    358.28314    168.10484   -5324.0677 
  428000    83.328685   -6806.6658   -6592.3079   -6806.6658            0    8572.4763    23.105533    21.097105    21.381336    10422.543    8541.0901     8493.804    8682.5349   -551.87435   -94.959184    514.07395   -5289.2735 
  429000    80.252284   -6806.9105   -6600.4664   -6806.9105            0    7918.7042    22.996939    21.302741    21.350463    10459.546     7794.526    7670.9743    8290.6124   -323.02053    318.53175    846.17238   -5392.5334 
  430000    78.756781   -6802.1013   -6599.5042   -6802.1013            0    8362.8373    23.068514    21.215562    21.362004     10454.81    8080.8923    8411.5756     8596.044   -262.75898   -377.89961    462.25335      -5324.4 
  431000    77.625852   -6797.5973   -6597.9095   -6797.5973            0     8982.939    23.095553    21.219525    21.256769    10417.447    8230.1812    9394.8121    9323.8238    194.89269   -435.27902   -701.63823   -5233.1516 
  432000    81.300596   -6797.4118   -6588.2709   -6797.4118            0    9271.8627    23.009428    21.226846    21.284696     10395.82    10124.439    8108.0763    9583.0733   -370.24436    113.11584   -1.7550772   -5182.5419 
  433000    79.025971   -6807.5542   -6604.2647   -6807.5542            0    8342.5254    23.200368    21.072232    21.338612    10432.096    8083.3718    8946.2884     7997.916   -127.65155     112.9447    689.19598    -5335.021 
  434000    78.070088   -6810.2547   -6609.4242   -6810.2547            0    7820.6745    22.996061    21.248552    21.410193    10461.727    8052.9415    7987.2125    7421.8695    238.25028    606.45612   -299.12047   -5416.1961 
  435000     84.75156    -6814.412   -6596.3938    -6814.412            0    7663.8618    23.169154    21.089399    21.405387    10459.176    7445.1049    7637.3903    7909.0901     821.8988   -737.09156    304.66819   -5427.3763 
  436000    79.936314   -6795.4905   -6589.8592   -6795.4905            0    8545.2781    23.021565    21.257497    21.323706    10435.414    8384.3713    8347.8362    8903.6269    -102.3098    746.18129    474.43627    -5289.355 
  437000    79.253927   -6812.2595   -6608.3836   -6812.2595            0    9025.4071    23.073242    21.187081    21.318838    10421.813    8366.7186     8505.375    10204.128    230.95407    217.82521    832.23108   -5236.5989 
  438000    81.444992   -6798.6428   -6589.1305   -6798.6428            0    9000.0899    23.098184    21.193067    21.309675    10431.541    8790.5633    8349.4517    9860.2548    386.95925   -462.85497   -98.126672   -5219.9169 
  439000    77.102564   -6810.7745   -6612.4329   -6810.7745            0    8690.3031    23.089107    21.199338    21.277229    10414.646    7477.6897    9015.8604    9577.3593    361.28019    1442.2219   -48.720278   -5292.4895 
  440000    82.954819   -6791.7671   -6578.3709   -6791.7671            0    8809.5261    23.124998    21.104298    21.353832    10421.457    7942.4109    9430.3384     9055.829    192.49587   -147.07888    305.91546   -5239.4439 
  441000    83.471886   -6805.3923   -6590.6659   -6805.3923            0    8067.8059    23.039085    21.244888    21.348671     10449.38    7359.4846     7593.798     9250.135   -76.115454    184.66648    348.82492   -5361.1848 
  442000     80.49777   -6807.4951   -6600.4195   -6807.4951            0    7864.8196    23.096791    21.211224    21.366097     10467.49    7819.8646    7652.1797    8122.4144   -95.206138    218.95324    737.90861    -5399.795 
  443000    78.720221   -6803.4342   -6600.9313   -6803.4342            0    8720.0935    23.005026    21.245836    21.339811    10430.067     8875.184    7358.7367    9926.3597    130.15487    -503.5951    669.09632   -5274.5019 
  444000    82.324592   -6808.4168   -6596.6418   -6808.4168            0    8937.0425    23.082427    21.179917    21.309938    10418.085    8449.8923    9412.3045    8948.9306    452.32998   -431.25838   -379.07074   -5238.7735 
  445000    80.645368   -6800.1118   -6592.6565   -6800.1118            0    8410.0629    23.103951    21.168992    21.340757    10437.494    8436.0135    8375.4911    8418.6842   -292.46243    785.40421    -645.4368   -5312.4754 
  446000    82.511221    -6818.113   -6605.8579    -6818.113            0    7591.9753    23.121122    21.225863    21.322949    10464.574    7198.3925    7062.1906    8515.3428   -14.865353    192.49434   -425.61705   -5447.2081 
  447000    78.721348   -6802.7738   -6600.2679   -6802.7738            0    8111.8581    23.071278    21.231135    21.338009    10451.984    8077.6819    8485.1562    7772.7362   -268.44057   -63.036791   -242.65486   -5363.7655 
  448000     83.09824   -6806.9725   -6593.2073   -6806.9725            0    8297.6404    23.009285    21.263901    21.337451    10439.714    9148.3662    7281.4377    8463.1174   -608.30535   -719.25623    220.86771   -5329.8707 
  449000    82.950822   -6805.6753   -6592.2894   -6805.6753            0    8513.6907    23.169365    21.061601    21.369329    10427.889    7415.5349    9644.8801     8480.657    245.49363    -232.1936    620.52479   -5297.5268 
  450000    82.903496   -6817.3226   -6604.0584   -6817.3226            0      8763.41     23.05384    21.168189    21.369977    10428.721    7884.2309    9267.8378    9138.1612    793.52224    639.32837    836.93952   -5271.2122 
  451000    81.036127   -6806.8204   -6598.3599   -6806.8204            0    8264.7385    23.129511    21.118759    21.381467    10444.132    8516.9567    8496.1172    7781.1416    206.62086    422.04266   -335.26159   -5339.5001 
  452000     81.29932   -6812.5323   -6603.3947   -6812.5323            0    7846.5843     23.13782    21.218681    21.310439    10462.446    7007.2092     8399.793    8132.7506   -677.19715     245.4321   -704.06646   -5406.1312 
  453000    77.349741   -6814.4079   -6615.4305   -6814.4079            0     8486.016    23.045576    21.328786      21.2227    10431.682    8499.4507    7464.6461    9493.9513   -552.65936   -734.25916   -224.40367   -5324.4072 
  454000    76.759834   -6801.5224   -6604.0624   -6801.5224            0    7922.3414    23.135791    21.234453    21.263149    10446.072    7332.5268    8122.7635    8311.7341    71.295844    96.338673    47.568973   -5397.1313 
  455000    80.421734   -6815.1302   -6608.2502   -6815.1302            0    7638.3157    23.091874    21.230616    21.333852    10459.022    7471.8708    8348.8134    7094.2629   -31.950162    214.93938   -401.84163   -5443.1466 
  456000    80.177087   -6820.9887    -6614.738   -6820.9887            0    7227.5463    23.170416    21.170048    21.342127    10468.715    6787.1923    6615.2015    8280.2452    688.59555   -208.77841     353.5274    -5511.269 
  457000    78.473446   -6812.5053   -6610.6371   -6812.5053            0    8219.1166    23.119845    21.125344    21.361258    10433.152    8035.1615    8322.3285    8299.8597   -103.68829    554.03759    436.57423   -5360.0425 
  458000    82.746371   -6811.4191   -6598.5591   -6811.4191            0    8069.1372     23.08615    21.156504    21.373761     10439.42    7348.4798    8514.7135    8344.2183    380.29836    504.39692    278.61803   -5370.0472 
  459000    77.236128   -6788.4444   -6589.7592   -6788.4444            0    8902.8151    23.053999    21.209756    21.303275    10416.655    9702.2951    7987.4434    9018.7069     -377.328    1.2627793    538.96944   -5237.2771 
  460000    81.463401   -6812.0583   -6602.4987   -6812.0583            0    8250.8548    23.128505    21.216037    21.279333    10441.667    7481.0325    8187.7938     9083.738   -604.16614    250.67954    331.92142   -5346.0502 
  461000    82.559622   -6808.8755   -6596.4959   -6808.8755            0    8208.6545    23.112727    21.199048    21.329941    10450.984    8291.6831    7678.5462    8655.7342    1094.5571    119.02998    323.00574   -5345.3584 
  462000    78.351751   -6807.9963   -6606.4412   -6807.9963            0    8123.0037    23.166288    21.162625    21.329113    10456.799    7765.9948    8011.9596    8591.0566    99.774244    81.388353   -469.82123   -5367.6694 
  463000    81.893013   -6816.1371   -6605.4723   -6816.1371            0    7795.4384    23.080045    21.199491    21.376266     10459.09     7712.697    8452.3154    7221.3028    61.194219    418.82705    -653.7306   -5416.3943 
  464000    80.974826   -6803.5759    -6595.273   -6803.5759            0    9337.9977    23.040975    21.133365    21.367032     10404.32     9231.532     9393.684    9388.7771    110.64273   -93.046388   -114.88401   -5178.3594 
  465000    77.477834   -6810.8868   -6611.5798   -6810.8868            0    8872.9722    23.025744    21.160658    21.390461    10422.286    9089.9823    8633.5742      8895.36   -885.68369    646.88323   -148.63353   -5262.9028 
  466000    75.783212   -6797.9168   -6602.9691   -6797.9168            0     8085.861    22.957442    21.194735    21.472352    10447.951    8781.6305    7911.0485     7564.904     290.7846    446.91298    240.64621   -5370.9051 
  467000    79.230434   -6804.7783   -6600.9628   -6804.7783            0    8690.7842    23.115883    21.042771     21.42865    10423.372    8173.3469    9566.2538    8332.7519     402.8411    320.32451    519.17678   -5279.8403 
  468000     83.74847   -6808.2433   -6592.8055   -6808.2433            0     8209.871    23.005719    21.209149    21.401394    10442.419     8664.013    8581.4858    7384.1143    416.00874   -852.65688   -278.46641    -5342.508 
  469000    77.592348   -6804.1306    -6604.529   -6804.1306            0    8374.9856    23.103511    21.118668    21.407095    10444.851    8438.7443    9315.9357    7370.2769   -951.35265   -490.58887   -281.72999   -5328.7889 
  470000    78.280405   -6818.5395   -6617.1679   -6818.5395            0    7563.9531    23.042588    21.257244    21.342598    10454.073    8079.2596    7500.7334    7111.8663    3.3116873    122.87198   -778.47126   -5463.9531 
  471000    77.533146   -6805.6026   -6606.1533   -6805.6026            0    8090.7069    23.095729    21.211173    21.331882    10450.223    8296.2032     7196.819    8779.0984   -434.17032    250.04721    539.54608   -5373.0829 
  472000    79.644703   -6816.3711     -6611.49   -6816.3711            0    7877.0293    23.138044    21.156953    21.368636    10460.599    6716.0911     8997.494    7917.5026    396.33983    320.45179   -3.5301948   -5409.7931 
  473000    79.804695   -6813.4572   -6608.1645   -6813.4572            0    8035.6574     22.96748    21.252678    21.412837    10452.044    8662.0527    6694.2801    8750.6394    246.40228     834.1391    880.79157   -5383.2704 
  474000    81.255561   -6796.6629   -6587.6379   -6796.6629            0    9224.0953     23.09428    21.069073    21.410267    10417.702    8961.8255    9810.8278    8899.6326     361.9054   -249.31701    1101.3487   -5186.2073 
  475000    79.486423   -6809.2269   -6604.7529   -6809.2269            0    8228.4602    22.956984    21.262237    21.391131    10441.371    8831.6344    8035.6499    7818.0961    285.10204    229.07018     44.04177   -5351.7503 
  476000    81.621133   -6811.0577   -6601.0923   -6811.0577            0    7965.8573    23.263641    21.010081    21.381569     10450.69    6688.4611    9236.4456    7972.6652    40.019168   -116.71768    -338.1797   -5386.9953 
  477000    86.456015   -6804.8501   -6582.4473   -6804.8501            0    8502.5065     23.00965    21.252632    21.347016    10439.024    9284.7097    7723.3614    8499.4484    382.90823   -907.84378    211.70703   -5288.0048 
  478000    81.469813   -6795.4881    -6585.912   -6795.4881            0     8701.008    23.075474    21.163944    21.378922    10440.782    8686.8982    9272.0591    8144.0668   -1022.5864    115.26386   -181.22659    -5261.026 
  479000    80.279588   -6799.6422   -6593.1279   -6799.6422            0    9115.4509    22.962773    21.225258    21.391536    10426.037    8861.3985    9478.8825    9006.0718    865.28255   -630.42795   -401.64858   -5207.0957 
  480000    82.672147   -6803.4405   -6590.7715   -6803.4405            0    8107.9882     23.00483    21.176265    21.465991    10457.294    8339.5794    8151.4439    7832.9415   -252.11441    738.32497    149.16162    -5354.231 
  481000    84.951865    -6810.204   -6591.6705    -6810.204            0    8099.5742    23.085159     21.09632    21.476125    10459.129    8487.5328    9061.8164    6749.3733   -128.26721    -711.9962   -924.73226   -5356.1966 
  482000    78.572089   -6802.4382   -6600.3162   -6802.4382            0    7627.5618    22.916057    21.338849    21.426353    10477.535    8993.2515    7711.2719    6178.1621    150.39115   -427.43846   -658.12536   -5434.7935 
  483000    79.093507   -6811.7696   -6608.3064   -6811.7696            0    7860.3625     23.09975    21.137605    21.418193    10457.934    7649.8321    7916.6698    8014.5856    27.183224    226.22768    100.78785   -5409.4577 
  484000    78.409715   -6799.3949   -6597.6907   -6799.3949            0    8678.2231    22.950787    21.251622    21.395023    10435.239    9216.7464     9037.011    7780.9119   -430.84314    64.832264   -383.89511   -5276.9757 
  485000    79.559597   -6805.3644   -6600.7022   -6805.3644            0    8727.8055    23.119937    21.100029    21.381472    10430.552    9272.9924    8189.8201    8720.6038   -263.50806   -39.790614    707.18069    -5273.038 
  486000    78.871534   -6807.7892    -6604.897   -6807.7892            0    8017.6483    23.051545    21.197759    21.377308    10445.831    7892.8675    8075.1574    8084.9201    159.75898    561.04774    358.35856   -5383.4746 
  487000    79.880447   -6816.5302   -6611.0426   -6816.5302            0    7882.2101    23.095842    21.211369    21.322713    10445.878    7355.5253    7966.0606    8325.0446    686.83355    332.64423     284.2078   -5410.2476 
  488000    80.537494   -6802.1085   -6594.9307   -6802.1085            0     7574.824    23.169089    21.185168    21.347302    10478.132    8207.8819    7527.2781     6989.312   -555.16149   -665.56776   -256.51717   -5437.4006 
  489000    80.129066   -6811.1569   -6605.0298   -6811.1569            0    7727.8941     23.03503    21.245835    21.380643    10463.654    7516.4773         8121    7546.2051    1139.2856    99.021749    30.503904   -5425.7404 
  490000    79.966851   -6801.9331   -6596.2233   -6801.9331            0    7863.7544    23.224541    21.117306    21.317406    10454.903    7685.2442     7976.461    7929.5581    521.10396   -291.23915    102.08144   -5397.2049 
  491000    78.575818   -6803.0773   -6600.9458   -6803.0773            0    8802.3858    23.104643    21.166894    21.316038    10424.684    8897.1508    8895.5611    8614.4457    138.35427   -414.16048   -375.95398   -5262.6899 
  492000    76.598071   -6798.0441   -6601.0002   -6798.0441            0    9000.2828    23.040278    21.213557    21.287844     10404.78    8667.0756    8305.3794    10028.393    -31.94023    76.469302    590.50334     -5235.27 
  493000    77.138234   -6792.6303   -6594.1969   -6792.6303            0    8310.8527    23.203838    21.080221    21.322941    10429.947    6661.8498    9471.6918    8799.0165    444.66536    665.14391     533.4472   -5330.0325 
  494000    77.722205   -6801.2444   -6601.3088   -6801.2444            0    8017.6625    23.038398    21.248041    21.341102    10446.914    8453.8173    7504.8461    8094.3241    213.34134    437.93965    53.198171   -5379.7576 
  495000    82.525578   -6794.6415   -6582.3495   -6794.6415            0    8872.6272    23.159163    21.122107    21.305331    10421.936    7897.1434    9342.2393    9378.4989   -168.63587    163.47822   -250.54338   -5233.7701 
  496000     80.84087   -6808.7288   -6600.7706   -6808.7288            0    9277.9984    23.091485    21.190561    21.266976    10406.389    8483.8167    9856.3761    9493.8025    621.88447    325.72489   -703.49289   -5192.6811 
  497000    81.362822   -6807.6599    -6598.359   -6807.6599            0    8634.0176    23.063667     21.26658    21.263939     10429.65    8983.1617    8126.9309    8791.9601   -215.97252    301.80047   -59.517969   -5285.0753 
  498000     78.22177   -6797.9483   -6596.7276   -6797.9483            0    8261.1053    23.187334    21.123552    21.338267    10451.459    8182.5043    7630.9767    8969.8349    310.80014   -950.16389   -209.52168   -5337.5385 
  499000    77.567747   -6800.8783     -6601.34   -6800.8783            0    8926.4698    22.928716    21.331094    21.295404    10415.467    9628.1596    8152.9419    8998.3079   -780.27665    496.00464   -326.17261    -5245.419 
  500000    86.258707   -6804.5419   -6582.6467   -6804.5419            0    8309.7207    23.209562    21.061975    21.362503     10442.83    7373.0111    8382.9385    9173.2125   -680.84337    721.02848     689.2048   -5317.0931 
Loop time of 593.682 on 64 procs for 250000 steps with 1296 atoms

Performance: 72.766 ns/day, 0.330 hours/ns, 421.101 timesteps/s
194.9% CPU use with 32 MPI tasks x 2 OpenMP threads

MPI task timing breakdown:
Section |  min time  |  avg time  |  max time  |%varavg| %total
---------------------------------------------------------------
Pair    | 39.319     | 49.993     | 59.146     |  98.8 |  8.42
Bond    | 0.9237     | 1.1153     | 1.7688     |  16.1 |  0.19
Kspace  | 305.89     | 319.39     | 332.21     |  41.4 | 53.80
Neigh   | 0.74811    | 0.82102    | 0.85103    |   2.9 |  0.14
Comm    | 80.23      | 84.588     | 89.464     |  26.3 | 14.25
Output  | 0.74369    | 0.74407    | 0.74574    |   0.0 |  0.13
Modify  | 111.61     | 116.23     | 120        |  13.3 | 19.58
Other   |            | 20.81      |            |       |  3.50

Nlocal:        40.5000 ave          52 max          29 min
Histogram: 5 3 2 4 2 0 6 3 6 1
Nghost:        3183.72 ave        3209 max        3163 min
Histogram: 4 3 4 4 2 4 4 4 2 1
Neighs:        13383.4 ave       17156 max        9472 min
Histogram: 3 5 2 4 2 0 3 5 7 1

Total # of neighbors = 428269
Ave neighs/atom = 330.45448
Ave special neighs/atom = 2.0000000
Neighbor list builds = 1552
Dangerous builds = 0

unfix		3
unfix		2
unfix		1

write_data	data.final.${pid}
write_data	data.final.0
System init for write_data ...
PPPM initialization ...
  extracting TIP4P info from pair style
  using 12-bit tables for long-range coulomb (../kspace.cpp:340)
  G vector (1/distance) = 0.37236626
  grid = 30 36 32
  stencil order = 5
  estimated absolute RMS force accuracy = 0.003519481
  estimated relative force accuracy = 1.0598813e-05
  using double precision FFTW3
  3d grid and FFT values/proc = 7344 1152
Last active /omp style is kspace_style pppm/tip4p/omp
WARNING: Not all mixed pair coeffs generated from mixing. Use write_data with 'pair ij' option to store all pair coeffs. (../write_data.cpp:312)

write_restart   restart.lmp.${pid}
write_restart   restart.lmp.0
System init for write_restart ...
PPPM initialization ...
  extracting TIP4P info from pair style
  using 12-bit tables for long-range coulomb (../kspace.cpp:340)
  G vector (1/distance) = 0.37236626
  grid = 30 36 32
  stencil order = 5
  estimated absolute RMS force accuracy = 0.003519481
  estimated relative force accuracy = 1.0598813e-05
  using double precision FFTW3
  3d grid and FFT values/proc = 7344 1152
Last active /omp style is kspace_style pppm/tip4p/omp
Total wall time: 0:09:53
