LAMMPS (30 Jul 2021)
  using 1 OpenMP thread(s) per MPI task
package omp 0
using multi-threaded neighbor list subroutines
echo both

include		in.partitions
variable        pid world 0
include		in.temp
variable        temperature equal 218.92
variable	tempDamp equal 100.0
include		in.pressure
variable        pressure equal -375.0
variable        pressureDamp equal 1000.0 # This is 1 ps
include		in.seed
variable        seed world 745823

units		real
atom_style	full

read_restart	restart.lmp.${pid}
read_restart	restart.lmp.0
Reading restart file ...
  restart file = 30 Jul 2021, LAMMPS = 30 Jul 2021
  restoring atom style full from restart
  orthogonal box = (-0.18263410 -0.022375855 -0.19424775) to (20.182635 20.022377 20.894246)
  4 by 4 by 4 MPI processor grid
  restoring pair style lj/cut/tip4p/long/omp from restart
  restoring bond style harmonic/omp from restart
  restoring angle style harmonic/omp from restart
  972 atoms
  648 bonds
  324 angles
Finding 1-2 1-3 1-4 neighbors ...
  special bond factors lj:    0        0        0       
  special bond factors coul:  0        0        0       
     2 = max # of 1-2 neighbors
     1 = max # of 1-3 neighbors
     1 = max # of 1-4 neighbors
     2 = max # of special neighbors
  special bonds CPU = 1.607 seconds
  read_restart CPU = 1.907 seconds
include 	in.setup
variable	out_freq equal 1000
variable	out_freq2 equal 10000
variable	out_freq3 equal 1000

timestep	2.0

neigh_modify    delay 7 every 1

include		in.tip4p
# This is TIP4P/Ice

# create groups ###
group ox type 2
324 atoms in group ox
group hy type 1
648 atoms in group hy

# set charges - beside manually ###
set group ox charge -1.1794
Setting atom values ...
  324 settings made for charge
set group hy charge 0.5897
Setting atom values ...
  648 settings made for charge

# ### TIP3P Potential Parameters ###
pair_style lj/cut/tip4p/long/omp 2 1 1 1 0.1577 8.5
pair_coeff 1 1*2 0.000 0.000
pair_coeff 2 2 0.21084 3.1668
bond_style  harmonic
bond_coeff  1 450 0.9572
angle_style harmonic
angle_coeff 1 55 104.52
kspace_style pppm/tip4p/omp 1.0e-5
pair_modify tail yes

thermo          ${out_freq}
thermo          1000
thermo_style    custom step temp pe etotal epair emol press lx ly lz vol pxx pyy pzz pxy pxz pyz enthalpy

restart 	${out_freq3} restart.lmp.${pid} restart2.lmp.${pid}
restart 	1000 restart.lmp.${pid} restart2.lmp.${pid}
restart 	1000 restart.lmp.0 restart2.lmp.${pid}
restart 	1000 restart.lmp.0 restart2.lmp.0


include         in.dump
dump            myDump all atom ${out_freq2} dump.water.${pid}
dump            myDump all atom 10000 dump.water.${pid}
dump            myDump all atom 10000 dump.water.0
dump            myDump2 all dcd ${out_freq2} dump.dcd
dump            myDump2 all dcd 10000 dump.dcd
dump_modify     myDump append yes
dump_modify     myDump2 append yes


variable natoms 	equal  "count(all)"                        # NUMBER ATOMS
variable H      	equal  "enthalpy/v_natoms"                 # ENTHALPY-per-atom
variable Vol      	equal  "vol/v_natoms"                 # volume-per-atom
fix AVG all 		ave/time ${out_freq} 1 ${out_freq} v_Vol v_H file vol_enthalpy.dat
fix AVG all 		ave/time 1000 1 ${out_freq} v_Vol v_H file vol_enthalpy.dat
fix AVG all 		ave/time 1000 1 1000 v_Vol v_H file vol_enthalpy.dat


timer           timeout 02:55:00 every 1000
New timer settings: style=normal  mode=nosync  timeout=02:55:00

fix 		1 all shake 1e-6 200 0 b 1 a 1
       0 = # of size 2 clusters
       0 = # of size 3 clusters
       0 = # of size 4 clusters
     324 = # of frozen angles
  find clusters CPU = 0.102 seconds
fix             2 all nph aniso ${pressure} ${pressure} ${pressureDamp}
fix             2 all nph aniso -375 ${pressure} ${pressureDamp}
fix             2 all nph aniso -375 -375 ${pressureDamp}
fix             2 all nph aniso -375 -375 1000
fix             3 all temp/csvr ${temperature} ${temperature} ${tempDamp} ${seed}
fix             3 all temp/csvr 218.92 ${temperature} ${tempDamp} ${seed}
fix             3 all temp/csvr 218.92 218.92 ${tempDamp} ${seed}
fix             3 all temp/csvr 218.92 218.92 100 ${seed}
fix             3 all temp/csvr 218.92 218.92 100 745823


run             250000
PPPM initialization ...
  extracting TIP4P info from pair style
  using 12-bit tables for long-range coulomb (../kspace.cpp:340)
  G vector (1/distance) = 0.37144435
  grid = 24 24 25
  stencil order = 5
  estimated absolute RMS force accuracy = 0.0035274795
  estimated relative force accuracy = 1.06229e-05
  using double precision FFTW3
  3d grid and FFT values/proc = 2366 288
Last active /omp style is kspace_style pppm/tip4p/omp
Neighbor list info ...
  update every 1 steps, delay 7 steps, check yes
  max neighbors/atom: 2000, page size: 100000
  master list distance cutoff = 10.8154
  ghost atom cutoff = 10.8154
  binsize = 5.4077, bins = 4 4 4
  1 neighbor lists, perpetual/occasional/extra = 1 0 0
  (1) pair lj/cut/tip4p/long/omp, perpetual
      attributes: half, newton on, omp
      pair build: half/bin/newton/omp
      stencil: half/bin/3d
      bin: standard
Per MPI rank memory allocation (min/avg/max) = 9.224 | 9.228 | 9.234 Mbytes
Step Temp PotEng TotEng E_pair E_mol Press Lx Ly Lz Volume Pxx Pyy Pzz Pxy Pxz Pyz Enthalpy 
17500000     235.2082   -4757.0322   -4303.4134   -4757.0322            0    153.88381    20.365269    20.044753    21.088494     8608.677   -908.03319    1538.1212   -168.43658   -234.53385   -1046.6405    461.47522   -4284.0935 
17501000    213.60969   -4782.0271   -4370.0628   -4782.0271            0   -769.99625    20.410239     20.17878    21.064635    8675.5485   -947.31984   -1162.2377   -200.43125    150.97332   -282.35569   -434.18827   -4467.4858 
17502000    226.37995   -4791.9131   -4355.3203   -4791.9131            0   -972.28171    20.131447    20.230003    21.283733    8667.9964   -885.02677   -1274.8954   -756.92296   -562.95161    737.18506   -102.95958   -4478.2302 
17503000    222.56631   -4790.5409    -4361.303   -4790.5409            0   -1651.0117    20.356219    20.160326    21.361452    8766.4839   -1891.0646   -1898.7835   -1163.1869    660.99373   -121.85606    251.16381   -4572.3851 
17504000    216.33275   -4821.0223   -4403.8064   -4821.0223            0    1176.2666    20.217395    19.985519    20.918937     8452.404    1503.9765    1287.8003    737.02305    319.26298    45.708852    1062.1284   -4258.8084 
17505000    207.64801   -4757.5798   -4357.1131   -4757.5798            0   -327.02241    20.108395     20.34621    21.230794    8686.1469    380.92052   -1405.2111    43.223384     118.4015   -482.84614    70.394554   -4398.5398 
17506000    223.29121   -4771.7129    -4341.077   -4771.7129            0   -513.88991    20.267751    19.982773    21.307055    8629.4822    1297.8978   -1223.5574   -1616.0101   -325.39032   -1631.6978    -377.8423   -4405.7512 
17507000    227.34909    -4803.665   -4365.2031    -4803.665            0   -589.43286     20.02635    20.388114    21.256328    8678.9482   -575.88872    236.46776   -1428.8776   -28.894405   -971.67666   -806.44959   -4439.8097 
17508000    223.98629   -4792.0581   -4360.0817   -4792.0581            0   -869.53201    20.279754     20.16117    21.148604    8646.8939   -1365.0202   -1308.2797    64.703813    -451.9005    1231.4956   -1181.5826    -4469.735 
17509000    221.80891    -4767.687   -4339.9099    -4767.687            0   -1151.1867    20.475915    20.158813    21.037908    8683.8204   -3057.9458    870.80562   -1266.4198   -106.71281    928.24986    106.88711   -4485.7015 
17510000    223.86283    -4779.809   -4348.0707    -4779.809            0    833.61196    20.120903    20.170461    21.311486    8649.2218   -936.92444     2712.468    725.29236   -31.496679   -603.31666    478.34925   -4242.9188 
17511000    212.72175   -4774.8762   -4364.6244   -4774.8762            0   -1531.1401    20.204425    20.297044    21.204458    8695.7388   -2184.3722   -1416.7145   -992.33372   -772.07885   -276.94184    828.01027   -4558.8012 
17512000    223.41625   -4751.6213   -4320.7443   -4751.6213            0   -1432.5797    20.295935    20.228923    21.051715    8643.0955   -2298.7236   -830.45306   -1168.5624   -21.916223    409.41027   -79.831346   -4501.3219 
17513000    214.23027   -4745.6971    -4332.536   -4745.6971            0   -1132.3698      20.3112    20.165727    21.291828     8720.922   -3042.6466     604.8987   -959.36165    138.30993    559.16668   -148.72657   -4476.5573 
17514000    218.76624   -4791.6888   -4369.7797   -4791.6888            0   -1442.5596    20.094091    20.313068    21.260419    8677.9215   -1912.7769   -1592.3319    -822.5701   -281.06538   -85.112717    112.95994    -4552.348 
17515000    213.79359   -4787.8585   -4375.5396   -4787.8585            0    109.13196    20.112353    20.260403    21.116885    8604.8009   -844.42141    911.11846    260.69882    207.51072   -231.03921   -1182.0203   -4361.8444 
17516000    220.92251   -4791.3471   -4365.2794   -4791.3471            0   -17.489835    20.332358    20.163221    21.182144    8683.9555   -1360.5023    1774.1382   -466.10546   -539.56299    218.06681    628.23302   -4367.4945 
17517000    221.26904   -4791.8522   -4365.1162   -4791.8522            0    785.50257    20.499007     19.92561    21.038433    8593.2579   -85.190314    2313.3946     128.3034   -32.657476   -152.20248    661.55091    -4266.674 
17518000    207.03634   -4784.7408   -4385.4538   -4784.7408            0    448.93046     20.08622     20.25024    21.237259    8638.2713   -6.3376741    903.97261    449.15644   -380.27533   -157.30291    558.26254   -4328.8974 
17519000    207.87862   -4763.0637   -4362.1523   -4763.0637            0   -1115.4366    20.343864    20.036419    21.407452    8726.0669   -2038.2927    56.598831   -1364.6158   -143.54009   -990.23815    -445.8081   -4504.1036 
17520000    222.66545   -4802.5394   -4373.1104   -4802.5394            0   -764.15377    20.229098    20.167782    21.111874    8613.1389   -507.72791   -1067.0312    -717.7022   -61.500861    -52.92611    1510.7548   -4469.0986 
17521000    215.15329   -4798.2739   -4383.3327   -4798.2739            0   -1061.0391    20.312534    20.503055    20.814238    8668.4848    331.88771   -3443.5599   -71.445232    -11.71935   -516.94055    377.14326   -4517.4703 
17522000    223.18458   -4792.0677   -4361.6375   -4792.0677            0    1440.7653    20.045494    20.233665    21.061282    8542.3255    2108.3457    1414.0232    799.92707   -387.71925    620.93973   -265.33924   -4182.1454 
17523000     209.8793   -4784.2251   -4379.4552   -4784.2251            0   -961.37519    20.321277    19.935122     21.50018    8709.8765   -370.26451   -1475.8422   -1038.0189   -306.45401   -47.555442    830.61699   -4501.5735 
17524000    224.04111   -4752.5502   -4320.4681   -4752.5502            0   -756.51923    20.237618    20.171376    21.363211    8720.9029   -770.18654   -315.30615    -1184.065   -258.99722   -671.61021   -1790.8321   -4416.6863 
17525000    231.39348   -4780.2275   -4333.9657   -4780.2275            0   -17.213929    20.318753     20.18743    21.060915    8638.8377   -156.30344   -396.02869    500.69035   -20.950786    854.25421   -42.760738   -4336.1344 
17526000     233.7132   -4780.7351   -4329.9995   -4780.7351            0   -1070.1346    20.476926    20.167815    21.023632    8682.2313   -2838.3128    105.98745   -478.07854    138.55956    342.61679   -507.52144   -4465.5015 
17527000    230.18508   -4776.3773    -4332.446   -4776.3773            0   -664.88734    20.214219    20.030894    21.460858    8689.6922   -1429.8284     539.0358   -1103.8694    396.12356    308.15264   -804.72608   -4416.7073 
17528000    217.86367   -4797.4828   -4377.3144   -4797.4828            0   -587.23832    20.260885    20.102653    21.328644    8687.1041   -1568.0267    660.49271   -854.18091   -276.12582   -1470.3426    327.83208   -4451.7131 
17529000    223.57966   -4781.3423   -4350.1501   -4781.3423            0    933.03864     20.04553    20.419997    21.101006    8637.2675     642.8537    690.86353    1465.3987    357.68805   -1284.0266    492.85238   -4232.6192 
17530000    234.15319   -4795.4172   -4343.8331   -4795.4172            0    75.553293    20.358917    20.220395    20.998158    8644.2137     -607.002   -351.67958    1185.3415    -17.47588   -556.13066    944.95745   -4334.3083 
17531000    220.55916   -4764.4235   -4339.0566   -4764.4235            0    18.091601    20.117527    20.204963    21.244815    8635.4623    292.36537    194.36257   -432.45313   -270.09041    310.99398   -941.38347   -4336.7782 
17532000    211.97206   -4755.4012   -4346.5953   -4755.4012            0    116.57287    20.384489    20.025133     21.22292    8663.2407   -1206.2247    1623.0744   -67.131149   -97.255658    983.94923   -248.37509   -4331.8669 
17533000    222.43764   -4786.9421   -4357.9524   -4786.9421            0   -298.87523    20.163007    20.235543    21.091243    8605.4257   -489.65995   -139.40046   -267.56528   -387.99473     984.0799    475.40683   -4395.4616 
17534000    219.19532   -4803.3851   -4380.6485   -4803.3851            0   -1152.9126    20.343326    20.116743    21.295607    8715.0452   -2143.7342   -1079.3045     -235.699   -276.38054    920.20494    93.871543   -4527.1837 
17535000    209.53564    -4803.243   -4399.1359    -4803.243            0   -1341.4323    20.194286    20.076717    21.401727    8677.0084   -1003.2359   -1077.2985   -1943.7624   -228.18375   -169.09263   -1256.5063   -4568.8878 
17536000    219.56567   -4805.2849   -4381.8341   -4805.2849            0    849.33899    20.243458    20.186296    21.045461    8600.0262    876.75195    146.85943    1524.4056   -274.06618    454.28075    837.74902   -4275.3078 
17537000    211.98763    -4778.153   -4369.3171    -4778.153            0   -695.58924    20.319681    20.334645     20.91586    8642.2974    379.54153   -2473.7556    7.4463145    24.330933    -105.5793    -650.5062   -4456.9885 
17538000    219.68996   -4765.9971   -4342.3065   -4765.9971            0    409.27866    20.167264    20.107589    21.414713    8683.9888    1194.6322    721.81439   -688.61057    63.794874    108.01636    -455.7405   -4290.4726 
17539000    208.73405   -4784.1257   -4381.5645   -4784.1257            0   -754.15091    20.083563    20.227367    21.375644    8683.5902    1410.7257   -2289.8111   -1383.3673   -311.74978    384.71453    307.54008   -4477.0711 
17540000    214.69793   -4784.4923   -4370.4292   -4784.4923            0   -1303.3011    20.294339    20.252929    20.977391    8622.1233   -1026.0105   -1660.7892   -1223.1036   -452.52476   -751.45826    -960.1611   -4534.3126 
17541000    223.85696   -4793.6898   -4361.9628   -4793.6898            0    305.83789    20.300304    20.213292    20.924717    8586.1638   -110.73637    215.35301    812.89704    67.709043     65.85417   -101.08234   -4323.6657 
17542000    215.29477    -4786.963   -4371.7489    -4786.963            0    525.34481    20.154125    20.194879    21.398225    8709.2942    1387.8951    355.88875   -167.74945   -108.02665    415.58593    1119.4547   -4305.0217 
17543000    217.55768   -4763.0338   -4343.4555   -4763.0338            0   -2044.8942    20.225524    20.223205    21.357302    8735.6683   -2182.6437   -2087.8549   -1864.1839   -1026.9857   -319.31415   -194.94939   -4603.9766 
17544000    213.11877   -4799.9419   -4388.9244   -4799.9419            0   -910.08906    20.381004    20.178102    21.030424    8648.7612   -1536.0433   -897.55648   -296.66742   -306.08495   -634.27075     603.9544    -4503.717 
17545000    209.07788   -4801.4883    -4398.264   -4801.4883            0    1620.3958     20.09479    20.187334     21.24912    8619.9228    3072.0347    1285.8586     503.2943    229.79769   -774.72296    672.63366   -4194.5596 
17546000    220.62884   -4795.4794   -4369.9781   -4795.4794            0    172.88117    20.324234    20.061163    21.146726    8622.1071   -1398.8604    933.62739    983.87651    264.34589    641.02317    257.65719   -4348.2392 
17547000    220.07893   -4792.3842   -4367.9435   -4792.3842            0    23.208031    20.337827     20.05172    21.020549    8572.3566   -820.03127    547.94435    341.71102    -47.48958   -1676.9812    945.80412    -4365.042 
17548000    218.09223   -4810.5355   -4389.9263   -4810.5355            0     564.0556    20.059201    20.178228    21.157742    8563.7894    723.61444    209.38259    759.16978   -265.93086   -1594.1088   -110.25053   -4319.4791 
17549000    224.57135   -4788.2798   -4355.1751   -4788.2798            0   -45.441619     20.07919    20.213993    21.510368    8730.6411    1313.9142   -903.85424   -546.38483    439.05345    49.783781   -86.457663    -4360.961 
17550000    202.70298   -4778.7876   -4387.8578   -4778.7876            0   -1587.7533    20.343668    20.014181    21.317829    8679.8069    -2526.465   -1035.6609    -1201.134   -9.7850693    -214.2815    100.49326   -4588.8453 
17551000    226.44391   -4737.6105   -4300.8944   -4737.6105            0    745.88809    20.081536    20.345899    21.069171    8608.3766    307.19343    1111.2808    819.19003    146.93513    161.21409    749.66503   -4207.2524 
17552000    210.99624   -4791.8097   -4384.8857   -4791.8097            0    1200.0639    20.190707    20.190602    21.130141    8613.9665    2849.9448    508.70806    241.53871    3.6454617   -1534.2439    966.31086   -4234.1267 
17553000    209.43809   -4797.6883   -4393.7693   -4797.6883            0    1282.8703    20.386579    19.862356    21.289777    8620.7733    865.28587    1779.1002    1204.2247   -52.206265    1406.3985   -658.78578   -4232.4803 
17554000    220.43355   -4764.4206    -4339.296   -4764.4206            0   -1777.5562    20.368236    20.056302    21.356539    8724.3915   -1903.4997   -1861.7727   -1567.3963    -108.9048   -599.06831   -127.99442   -4565.4657 
17555000     224.9072   -4794.5837   -4360.8312   -4794.5837            0   -204.69978    20.155093    20.308128    21.040877    8612.2882   -165.43775   -420.06583   -28.595775   -314.31659   -1175.5562   -781.90101   -4386.5418 
17556000    228.06131   -4758.9192   -4319.0838   -4758.9192            0   -720.18411    20.115831    20.215104    21.197871    8619.9791   -357.06659   -679.10235   -1124.3834    249.56914   -384.03062   -938.89588   -4409.6207 
17557000    212.80704   -4800.1688   -4389.7525   -4800.1688            0    -531.4716    20.385145    20.099357      21.2862    8721.5586   -426.23936   -145.87312   -1022.3023    165.78894   -16.953438   -720.88988    -4457.353 
17558000    223.66842   -4792.2691   -4360.9057   -4792.2691            0    542.30172    20.317662    20.101186    21.032126    8589.7116   -1232.6332    2080.4571     779.0812    177.83549    627.18208    1169.0634   -4292.9704 
17559000    222.49843   -4799.5903   -4370.4834   -4799.5903            0   -1544.1268    20.127244    20.497834    21.227025    8757.5255   -423.56875   -3931.8666   -276.94504   -229.37908   -462.72065    352.22743   -4567.6985 
17560000      218.226   -4788.6663   -4367.7991   -4788.6663            0   -251.39882    20.110963    20.110419    21.297363    8613.5031    836.78227   -631.31854   -959.66019    688.80029   -1318.4047    311.28316   -4399.3796 
17561000    214.94727   -4768.1282   -4353.5843   -4768.1282            0   -2672.1919    20.260553     20.22454    21.441303    8785.7959   -3377.4605   -1594.8801    -3044.235   -280.35071    87.743373    353.36799   -4695.9772 
17562000    221.20726    -4751.505   -4324.8882    -4751.505            0   -1598.2918    20.243321    20.266216    21.218501    8705.0074   -3334.8257   -968.05213   -491.99754   -290.01226    145.79437    -613.5675   -4527.7971 
17563000    228.29829   -4780.3842   -4340.0918   -4780.3842            0    409.17553    20.175644    19.975233    21.545781    8683.2339    236.19788    2332.1007   -1340.7719    115.08616    240.18485    254.76899   -4288.2754 
17564000    219.40282   -4776.7763   -4353.6395   -4776.7763            0   -2769.2633     20.33198    20.192016    21.237392    8718.8772   -3612.7689   -1474.4144   -3220.6067    4.7179479    1483.7692   -420.76546   -4705.7677 
17565000    220.12931   -4801.3815   -4376.8436   -4801.3815            0    201.44878    20.186892    20.285846    20.988208    8594.8431   -769.73978    895.81318    478.27294   -41.564515    844.51322   -1189.9664   -4351.5926 
17566000    229.76324   -4767.5889   -4324.4711   -4767.5889            0   -883.84788    20.264439    20.324537    21.178922    8722.8638    -383.6683   -2095.0046   -172.87072   -492.49995    833.64741   -92.441345    -4436.909 
17567000    211.61558    -4781.654   -4373.5355    -4781.654            0   -345.99044    20.144836    20.030028    21.351222    8615.2529    770.10573   -452.02219   -1356.0549    305.64168    1818.3077    288.06177   -4417.0074 
17568000    217.89937   -4781.5244   -4361.2871   -4781.5244            0   -832.05504     20.02046    20.329103    21.295233    8667.1175    246.02716   -1078.6598   -1663.5325     614.3899   -146.72808   -151.50465   -4466.4597 
17569000    206.31602    -4786.245   -4388.3472    -4786.245            0   -1443.0318    20.364148     20.01799    21.513635    8770.0184   -1329.6633   -81.044686   -2918.3874    7.8563467      961.252   -561.91613   -4572.9135 
17570000    223.73459   -4785.0473   -4353.5563   -4785.0473            0   -1661.1086    20.238532    20.266102    21.252795    8716.9649    -1274.397    -1522.381   -2186.5478    722.19992   -992.74132   -62.323322   -4564.7297 
17571000     222.3452   -4783.8458   -4355.0344   -4783.8458            0    184.76337    20.303684    20.146163    20.936226     8563.782   -2.9619021    -165.1686     722.4206   -208.73264   -1026.7703    214.80869   -4331.9586 
17572000    240.01931   -4774.4804    -4311.583   -4774.4804            0    1419.8408    20.322267    20.204331    21.040984    8639.3819    2353.2116    661.07634    1245.2345   -876.21176    210.51044   -941.86617   -4132.6879 
17573000    211.78109    -4801.969   -4393.5313    -4801.969            0     296.9524    20.121226    20.098764     21.35212    8635.0488   -929.08459    2955.0862   -1135.1444   -933.73544    36.247943   -124.38993   -4356.1351 
17574000    212.64125   -4790.7253   -4380.6288   -4790.7253            0   -715.08605    20.283916    20.259542    21.358702    8777.2057    23.304194   -792.23586   -1376.3265   -137.39543     -433.676   -329.87897   -4472.1645 
17575000    210.64234   -4779.2876   -4373.0461   -4779.2876            0    876.33462    20.202365    20.185069    21.010173    8567.6568    1095.1749    -212.5018    1746.3307   -376.50426   -368.33933   -812.87654   -4263.5477 
17576000     228.3039   -4803.4823    -4363.179   -4803.4823            0   -423.26888    20.225756    20.430497    21.098722    8718.4617    946.55573   -2872.5338    656.17141     134.1012    245.81917    675.22642   -4416.9975 
17577000    208.35779   -4804.7863   -4402.9508   -4804.7863            0   -51.002934    20.129405     20.06829    21.241858    8580.9193    353.51499    737.64718    -1244.171    214.06286    314.41181   -449.60598   -4409.3335 
17578000    228.17462    -4773.534     -4333.48    -4773.534            0   -536.50795    20.325574    20.315111    21.034498    8685.4868   -1367.9276   -163.00112   -78.595095    256.29881    131.67393    147.79935   -4401.4389 
17579000    209.67301   -4785.4084   -4381.0364   -4785.4084            0  0.065541864    20.202187    20.270602    21.008125    8603.0474     -23.2625    -793.1975    816.65663    -227.8536    828.12641   -1108.7181   -4381.0282 
17580000    224.94799   -4775.2005   -4341.3694   -4775.2005            0   -544.47404    20.227076    20.152312    21.411705    8727.8894   -29.415743   -521.25042    -1082.756    87.981472   -570.84164   -584.96844    -4410.674 
17581000    215.62751   -4765.6632   -4349.8075   -4765.6632            0     362.1398    20.282824    20.111133    21.205831    8650.0827    827.27628    184.77483      74.3683    -393.5467   -33.957036    1624.9649   -4304.1226 
17582000     211.0418   -4791.8576   -4384.8458   -4791.8576            0   -1056.8668    20.207718    20.229815    21.147587    8645.0995   -1789.7744    -950.9979   -429.82801   -122.05534   -122.51234    277.97999   -4518.0955 
17583000    225.55968   -4782.9088    -4347.898   -4782.9088            0    68.927492    20.007774    20.351802    21.370755    8702.0484    1584.3391   -1827.5312    449.97459   -333.81932      623.407    1291.1631   -4339.1503 
17584000    231.06065   -4771.8525   -4326.2326   -4771.8525            0   -649.16334    20.246063     20.20158    21.168288     8657.882     354.2611   -2005.5082   -296.24287    560.80805   -459.31579   -208.95782   -4408.2001 
17585000    216.69798   -4802.0076   -4384.0873   -4802.0076            0   -278.82617    20.324847    20.394387     20.86629    8649.3446   -361.98668   -966.55628    492.06444   -366.37196    447.96817    108.58676   -4419.2589 
17586000     221.3017   -4806.8293   -4380.0303   -4806.8293            0    399.12603    20.194446    20.205062    21.056377     8591.634    1091.1058   -1091.7363    1198.0087   -743.44425    93.170573    848.50107   -4330.0198 
17587000     206.2488   -4775.7899   -4378.0218   -4775.7899            0   -384.73828    20.221414    20.161854    21.276135    8674.3057   -35.405051   -607.12483   -511.68495   -621.14658   -721.73557   -109.29747   -4426.6934 
17588000    228.59677   -4801.0164   -4360.1483   -4801.0164            0   -228.71223    20.307619    20.177562    21.036022    8619.6834   -654.52618   -335.36505    303.75452    463.39704    767.69073    211.25413   -4388.8995 
17589000     209.3517   -4810.1943   -4406.4419   -4810.1943            0    171.20098    20.192273    20.393253    20.984758    8641.2329   -901.11362   -132.57111    1547.2877   -717.09202    362.22662    1537.6185   -4384.8666 
17590000    215.31449   -4785.6828   -4370.4307   -4785.6828            0   -594.77719    20.387049    20.099567    21.200279    8687.2566   -669.94701   -783.35866    -331.0259    262.63181    117.66459   -372.79082   -4445.7858 
17591000     212.0563    -4788.413   -4379.4446    -4788.413            0   -535.51227    20.247242    19.984306    21.500475    8699.6742    767.44274   -788.16686   -1585.8127   -163.30239    679.71885   -1723.8984   -4447.3882 
17592000    207.35276   -4765.2608   -4365.3636   -4765.2608            0   -1691.2465    20.220403    20.260171    21.251606    8706.1203   -1658.0643   -943.97801   -2471.6972   -231.53051    918.36986    190.46044   -4580.1009 
17593000    228.88467   -4789.1047   -4347.6814   -4789.1047            0   -997.22186    20.144448    20.440961    20.927329    8617.2856   -1349.3001   -1633.7064   -8.6590045   -360.03551   -1324.3575   -1473.2776   -4473.0065 
17594000    216.78407   -4781.9757   -4363.8894   -4781.9757            0    780.51839    20.065591    20.153513    21.206125    8575.5903    2401.0107    618.93741   -678.39292   -142.67633    32.155631     452.2697   -4266.2729 
17595000    210.85273   -4805.5647   -4398.9174   -4805.5647            0   -2005.8789    20.373279    20.181699    21.356642    8781.1545   -2758.7464   -1438.6442   -1820.2462   -548.22899    1087.6048    62.415482   -4655.7986 
17596000    222.89258    -4781.507   -4351.6399    -4781.507            0   -42.106807    20.296058    20.020155    21.375732    8685.6059   -938.68916     885.5067   -73.137956   -658.91632    2047.1337   -464.75722   -4356.9736 
17597000    221.44112   -4792.4034   -4365.3356   -4792.4034            0   -1569.7789    20.224877      20.3707    21.086943    8687.7131   -1253.6019   -1774.6668    -1681.068    167.61362    1811.8977   -302.71751   -4564.2288 
17598000    220.02394   -4794.0394   -4369.7047   -4794.0394            0   -700.06257    20.185962    20.354354    21.035639    8642.9596   -1013.4477   -1172.7141    85.974015     106.2847    -831.9108    687.96219   -4457.9467 
17599000     216.8736   -4790.5994   -4372.3405   -4790.5994            0   -2179.0518     20.22323    20.023489    21.462394    8690.9737   -1302.3916   -2735.7263   -2499.0376    185.29829     873.6309    679.35784    -4648.533 
17600000     220.1085   -4787.3513   -4362.8535   -4787.3513            0    834.80037    20.209222    20.135595    21.350281    8687.9569    216.44357      1602.33     685.6275   -263.11663   -1395.8555    104.03045   -4257.0802 
17601000      202.725   -4790.5804   -4399.6082   -4790.5804            0    785.80162    20.083056    20.211865    21.021302    8532.8832    1363.5097     624.6371    369.25807    103.58814    138.08693    -592.3658   -4301.8204 
17602000    217.46295   -4777.0128   -4357.6173   -4777.0128            0   -1550.4932    20.433302    20.345785     20.81481    8653.3735   -3487.7539   -1166.0177     2.292038   -90.811501    49.462999    43.059322   -4553.2904 
17603000    226.22505   -4789.7828   -4353.4888   -4789.7828            0    160.76618    20.098476    20.233135    21.165696      8607.14   -146.96217    421.19358    208.06713   -652.39847    134.36059    945.12144   -4333.3084 
17604000    226.16369   -4781.0256   -4344.8499   -4781.0256            0   -818.35451    20.240279    20.056257    21.522159    8736.7968   -212.64943   -823.56058   -1418.8535   -311.59153   -557.58729   -1290.9081   -4449.1224 
17605000    227.15303    -4762.016   -4323.9322    -4762.016            0    -300.6484    20.152734    20.192407    21.242659     8644.322     160.7371   -305.39771   -757.28459   -229.92171    243.16986    108.92391   -4361.8346 
17606000    210.20261    -4794.602   -4389.2086    -4794.602            0   -143.78549    20.359173    20.136153     21.11646    8656.8068   -1098.2106    1143.6323   -476.77818   -142.04864    524.03885    1333.8651   -4407.3616 
17607000    223.38069   -4796.0339   -4365.2254   -4796.0339            0    -1436.609     20.35497    20.272483    20.940094    8640.8417   -1518.0174   -2292.6366   -499.17315    -555.2865   -13.691469   -339.65494   -4546.2637 
17608000    219.41092   -4765.8435   -4342.6911   -4765.8435            0   -1927.0203    20.009591    20.542524    21.165105    8699.8636   -554.82524   -3175.1991   -2051.0366   -291.39451    -41.20903    396.87478   -4587.1887 
17609000    222.27096   -4796.0567   -4367.3884   -4796.0567            0   -881.85944    20.312942    20.054286    21.227308    8647.1891   -1941.7645   -27.126204   -676.68767   -727.81963    781.72062    -283.5858   -4478.6001 
17610000    216.29072   -4754.0562   -4336.9213   -4754.0562            0   -144.94404    20.337152    20.332289    20.972049    8671.9598    141.99998   -403.64652   -173.18558    676.77888   -575.73587   -753.40366   -4355.2526 
17611000    232.36331   -4786.4191   -4338.2869   -4786.4191            0   -355.76003    20.225121    20.252931    21.174701    8673.5381    440.21028   -1546.8686    39.378229   -523.53269    1035.0154    -322.8216   -4383.2886 
17612000    222.61849   -4776.7584   -4347.4199   -4776.7584            0   -901.30922    20.208651     20.23582    21.438602    8767.0721   -851.55553   -553.28431   -1299.0878    14.850234    196.31466    1107.0428   -4462.6602 
17613000    206.06674     -4780.99    -4383.573     -4780.99            0   -1928.1245    20.148172    20.338964    21.301062    8729.0245   -1601.5433    -2598.195   -1584.6351   -688.40948   -1311.4575   -477.30488   -4629.0307 
17614000    221.38643   -4784.9243    -4357.962   -4784.9243            0    -12.30998    20.232748    20.290265    21.088559    8657.4403      642.898    -840.9541    161.12616   -352.78921    301.97281    28.193695   -4359.5162 
17615000    215.36417    -4778.533   -4363.1851    -4778.533            0   -10.277452    20.224583    20.286014    21.052807    8637.4653    39.017825   -755.08772    685.23754   -368.63683   -16.209338    720.75285   -4364.4797 
17616000    203.31762   -4784.2988   -4392.1836   -4784.2988            0    232.27287    20.254431    19.971647     21.51259     8702.151      821.823     883.0505   -1008.0549   -132.32614    -840.6178    1009.9877   -4362.7054 
17617000    210.26786   -4796.0937   -4390.5744   -4796.0937            0   -1188.6786    20.120143     20.32321    21.277787    8700.6127    -1263.923   -2384.2316    82.118878   -119.60148    524.49963    86.835248   -4541.4053 
17618000    217.72719   -4804.2924   -4384.3872   -4804.2924            0    593.42075    20.178424    20.168785    21.029014    8558.2683    1510.3854   -700.54552    970.42239   -533.86122   -92.773375   -386.78167   -4310.3202 
17619000    218.26193   -4809.1082   -4388.1717   -4809.1082            0   -447.53526    20.374833     20.15714    20.987313    8619.4551   -399.61461   -604.21249   -338.77868   -1158.3055   -158.38062     1170.081   -4444.4296 
17620000     216.8398   -4775.7419   -4357.5482   -4775.7419            0   -31.525702    20.050536     20.30125    21.261703     8654.596     738.6602   -897.95601    64.718703    482.59494    924.50576   -118.59591   -4361.5273 
17621000     201.5436   -4780.2206   -4391.5268   -4780.2206            0   -319.58605    20.131761     20.15766    21.620292    8773.7134   -124.31881    248.79555   -1083.2349    542.18665    51.948667    245.09694   -4432.4197 
17622000    222.35754   -4776.5718   -4347.7365   -4776.5718            0   -332.66001    20.266856    20.171183    21.110924    8630.2819    427.39678   -32.887744   -1392.4891   -115.13188    1579.6825    1055.6413   -4389.6064 
17623000    216.08888   -4781.8357   -4365.0901   -4781.8357            0    180.64543    20.120862     20.29974    21.139859    8634.5389      1967.04    -1482.549    57.445333   -182.96438    585.03377    1013.2052   -4342.3422 
17624000    213.94719   -4776.0919   -4363.4768   -4776.0919            0      132.167    20.253928    20.119813    21.107267    8601.3221    838.54779   -94.949351   -347.09744   -388.96766    58.192477   -728.80006   -4346.8976 
17625000    229.32336   -4777.9915   -4335.7221   -4777.9915            0   -195.59644    20.219891    20.176942    21.410482    8734.9534   -1133.3646    1907.6854   -1361.1101   -485.90564   -514.41012   -521.11023   -4360.6392 
17626000     209.3626   -4800.7744    -4397.001   -4800.7744            0   -1058.5175    20.023097    20.168009    21.469777    8670.0542    244.75765   -2101.5171    -1318.793    -786.5974    405.67677   -1520.7222   -4530.8441 
17627000    217.01176   -4794.2416   -4375.7161   -4794.2416            0   -366.77766     20.22097    20.171428    21.083655    8599.7241   -1447.0605    817.11152   -470.38402   -248.61746   -598.32064   -437.80748   -4421.7167 
17628000    216.69709   -4795.6997   -4377.7811   -4795.6997            0   -771.78698    20.319371    20.369206    20.982285    8684.3465   -562.67069   -1376.5174   -376.17282   -276.68901   -802.08288    217.89995   -4475.5297 
17629000    223.60248   -4751.0105   -4319.7743   -4751.0105            0   -427.49944    20.181006    20.216864    21.285167     8684.277    67.486369   -1950.1814    600.19676     265.6051    652.72309    1173.6834   -4373.9176 
17630000    209.12955   -4797.6104   -4394.2865   -4797.6104            0   -512.22856    20.431395    19.958597    21.195368    8643.0893   -2221.4358    620.30206    64.448011    349.18717    1366.9307    -1396.754   -4458.8532 
17631000    207.63873   -4801.0701   -4400.6213   -4801.0701            0   -535.84499    20.200915    20.246199    21.112208     8634.719    1113.5009   -2433.7426   -287.29327    161.14554    680.59623    -333.2834   -4468.0995 
17632000    222.65221   -4768.9518   -4339.5483   -4768.9518            0    32.099705     20.20496    20.121238    21.277181     8650.213    217.55783   -209.12155    87.862836     166.0076    635.00906    -672.2865   -4335.4988 
17633000    222.66745   -4757.3864   -4327.9535   -4757.3864            0    421.17055    20.185923    19.993437    21.437017    8651.6792    124.83701    1933.3689   -794.69426   -568.31514   -147.64562    414.26667   -4274.8119 
17634000    210.10624    -4786.431   -4381.2234    -4786.431            0     401.1178    20.138899    20.261423    21.077793    8600.6405    107.74285    -11.26228    1106.8728    135.18392   -678.88294    104.74771   -4330.9106 
17635000    217.33486   -4788.1596    -4369.011   -4788.1596            0    421.07224    20.308041    20.083235    21.009229    8568.6381    331.13424    1259.9481   -327.86561    193.09401   -31.242769   -962.35988   -4316.3918 
17636000    235.81923   -4813.0675   -4358.2703   -4813.0675            0   -183.28165    20.284901    20.302212    21.084915    8683.3659    559.37517   -668.91008   -440.31005    282.31927    321.68431    387.87879   -4381.4807 
17637000    215.51692   -4788.9765    -4373.334   -4788.9765            0   -982.03342    20.097527    20.197597    21.343835     8663.927   -348.96745    -2177.645   -419.48783    165.61627    385.45551   -351.36843   -4497.4183 
17638000    211.44979   -4781.2121   -4373.4134   -4781.2121            0   -1066.0343    20.420799    20.020072    21.174535    8656.6974   -2426.3378    708.61898   -1480.3841   -332.44684    1492.0801     502.9621   -4507.9992 
17639000    202.38155   -4795.2828    -4404.973   -4795.2828            0   -334.11762     20.45656    20.218885    20.880196    8636.2331   -557.69522   -302.18477   -142.47288    554.30026   -235.82069    -578.2621   -4447.0553 
17640000     223.3518   -4783.0508   -4352.2981   -4783.0508            0   -676.14484    20.151278    20.243772    21.230098     8660.561   -2266.0201    1593.5414   -1355.9558    267.31251   -202.69478   -244.78534   -4437.6989 
17641000    216.04592   -4786.4888   -4369.8261   -4786.4888            0    207.53474     19.95267     20.24751    21.563468    8711.4658    1557.8888   -29.080627     -906.204   -654.98594   -640.50089     136.6324   -4343.4593 
17642000     216.8392   -4783.6639   -4365.4713   -4783.6639            0    939.15027    20.242221    20.124917    21.208557     8639.794    1146.2287     970.2517    700.97044   -243.04992    1026.2526    136.62651    -4247.136 
17643000    222.70809   -4801.1846   -4371.6733   -4801.1846            0   -949.92791     20.18426    20.236876    21.151916    8639.8464   -1657.9587   -483.68348   -708.14153   -381.45323   -1428.0434    405.71488   -4491.3674 
17644000    231.52753   -4807.6053    -4361.085   -4807.6053            0    364.10594    20.138468    20.220057    20.895163    8508.5305   -1.0170217    1069.6122    23.722615   -335.91106   -1047.0708   -596.91586   -4315.9037 
17645000    211.13108   -4768.7909   -4361.6069   -4768.7909            0   -1139.5951    20.285822    20.238726    21.193524    8701.1961   -2006.7919   -100.81612   -1311.1773   -80.418565   -847.91981   -459.53343   -4506.2193 
17646000    212.13035   -4793.8621   -4384.7509   -4793.8621            0   -144.38774     19.97027     20.08032     21.41476    8587.5201     542.7025   -136.56637   -839.29934   -571.67719   -15.827257    907.40173    -4402.834 
17647000    208.15241    -4794.452   -4393.0126    -4794.452            0   -1995.0588    20.194157    20.321958    21.295126    8739.1961   -1177.0708   -2904.4586   -1903.6471    459.22837    77.289476    -266.5139   -4647.2873 
17648000    217.15585   -4803.4772   -4384.6738   -4803.4772            0    106.25945     20.40693    20.112951    20.959827    8602.8266   -478.26911   -666.77325    1463.8207   -208.72604    381.69645   -775.02742   -4371.3422 
17649000    220.79362   -4772.4228   -4346.6037   -4772.4228            0   -709.37325    20.215947    20.242886    21.338165    8732.1983    1050.9868   -1782.3868   -1396.7198   -116.77805   -169.57793   -1331.2035   -4436.9425 
17650000    217.74706   -4787.2676   -4367.3241   -4787.2676            0    -663.7452    20.248998    20.049243    21.478377    8719.7291   -253.99568   -658.57633   -1078.6636   -569.35833    407.54167    831.03991   -4451.7314 
17651000    231.89939    -4777.507   -4330.2695    -4777.507            0    520.09078    20.301168    20.144475    21.155562    8651.7019   -227.36115     850.0886    937.54488   -279.19304    18.357957    807.54297   -4264.6465 
17652000    229.30717   -4789.3389   -4347.1007   -4789.3389            0    880.41034    20.063104    20.496137    20.848271    8573.1452      928.063    304.87151    1408.2965    109.49536   -838.24917   -228.54568   -4237.0225 
17653000    214.07642   -4778.7622   -4365.8978   -4778.7622            0   -999.54802    20.183001    20.336224    21.097272    8659.2914   -923.65775   -1211.7714   -863.21492   -517.90135    323.30661   -635.67511   -4492.1276 
17654000      208.486   -4773.3178    -4371.235   -4773.3178            0    514.35691    20.173999    20.191889    21.213104     8641.182   -971.47812     2360.398    154.15085    109.02114   -63.516089   -1366.2407   -4306.4143 
17655000    205.24706   -4771.2325   -4375.3963   -4771.2325            0   -1031.0868    20.228535    20.238652    21.203612    8680.7223   -1860.5254    -715.0968   -517.63814   -333.11297    105.58908   -750.66253   -4505.9313 
17656000    214.98621   -4794.5391   -4379.9201   -4794.5391            0   -1444.1936    20.282284    20.480342    20.857812    8664.0868   -1810.1283   -1400.8074   -1121.6451    -562.4543    788.00247   -588.72318   -4562.4038 
17657000      231.264   -4801.7597   -4355.7476   -4801.7597            0   -709.31216    20.091809    20.230978    21.237917    8632.7236     1031.316   -2365.5602   -793.69226   -178.17791   -655.02878    200.06965   -4445.0496 
17658000    206.20618   -4782.0709   -4384.3849   -4782.0709            0   -844.28685    20.270781    20.198242    21.419585    8769.9094   -2355.3642    1170.4536   -1347.9499   -231.04484   -514.14611   -207.90746   -4492.3693 
17659000    212.35522   -4796.5272   -4386.9823   -4796.5272            0   -491.15961    20.178825      20.0588    21.224942    8591.0714   -1161.7285    1182.5987    -1494.349   -399.39977    121.58106   -1108.4796   -4448.5207 
17660000    214.53228   -4772.6856   -4358.9421   -4772.6856            0   -2237.2911     20.43403    20.214232    20.979773    8665.8677   -2384.5151   -1536.6157   -2790.7426   -750.18947    234.62054   -947.72513   -4641.6972 
17661000    222.20791   -4811.0063   -4382.4596   -4811.0063            0    1515.7364    20.175603    20.154827    21.012436    8544.4083    25.572204    2146.1137    2375.5232   -80.152317    929.56369   -342.34998   -4193.5816 
17662000    211.58962   -4762.6164    -4354.548   -4762.6164            0   -1831.9628    20.271639    20.349568    21.149626    8724.6245    -1949.116   -1825.4814   -1721.2912   -46.856666    72.204945   -29.257875   -4587.6464 
17663000    218.79331   -4784.2424   -4362.2811   -4784.2424            0     -1137.63    20.237439    20.109278    21.414722    8714.9414   -1729.3198    661.22549   -2344.7959    857.94933   -305.64584    850.70622   -4506.8722 
17664000    220.51161   -4801.7722    -4376.497   -4801.7722            0   -759.94543     20.08476    20.211496    21.290002    8642.5283    94.748032   -1873.5179   -501.06646    79.292846   -1140.5434    477.17685   -4472.2824 
17665000    206.33431    -4764.504    -4366.571    -4764.504            0   -842.62416    20.021437    20.363061    21.140561    8618.9588    386.71353   -1737.4055   -1177.1805   -266.03917   -928.73122    635.35351   -4472.4877 
17666000    225.25133   -4783.4327   -4349.0166   -4783.4327            0   -1765.1933    20.347216    20.292726    21.137088    8727.5141   -2319.4308   -1541.0725   -1435.0764   -428.31669    1058.9509    1778.3861   -4573.6936 
17667000     225.3991   -4794.9049   -4360.2038   -4794.9049            0    1500.2959    20.162237    20.087288    21.045947    8523.7068    848.35357    2638.4132    1014.1209   -476.23589   -359.89954    723.89137   -4173.7027 
17668000    221.84028   -4762.7627   -4334.9251   -4762.7627            0   -159.11002    20.273859    20.173582    21.209487    8674.6031    866.47126   -647.72423   -696.07709    568.00704    666.52961   -301.39807   -4355.0541 
17669000    235.68094   -4789.1469   -4334.6163   -4789.1469            0   -317.37768     20.38222     20.18227     21.02758     8649.894    -991.6147   -444.82805    484.30972    13.710411    420.54061    161.51899   -4374.6535 
17670000    211.74958   -4770.1562   -4361.7793   -4770.1562            0   -999.99248     20.17371    20.286313    21.269007    8704.3453   -333.49601   -986.20135   -1680.2801   -105.27266   -624.41988   -1222.4836   -4488.7223 
17671000    227.00795   -4785.4745   -4347.6705   -4785.4745            0   -940.25479    20.034561    20.375901     21.14673    8632.5655   -593.95787   -1437.6113   -789.19526   -111.67853   -581.54745   -481.52475   -4466.0459 
17672000    218.54508   -4805.0897   -4383.6071   -4805.0897            0    361.75901    20.459929    20.097294    21.026189     8645.742   -753.98027    720.30115    1118.9562    65.655296   -776.02152   -519.63586   -4337.9932 
17673000    214.43039   -4807.0139   -4393.4668   -4807.0139            0   -72.561476    20.272376    20.163778    21.079032    8616.4273   -34.645955   -443.65106    260.61258   -29.402659   -816.22224     444.0976    -4402.585 
17674000    219.33096   -4782.9838   -4359.9856   -4782.9838            0   -905.49231    20.105619    20.346927     21.33572    8728.1775     -291.567   -721.17617   -1703.7338   -14.279874   -947.57882   -417.91577   -4475.2471 
17675000    215.11985   -4794.2117   -4379.3349   -4794.2117            0   -258.57549    20.036922    20.281295    21.288745    8651.2075    958.30681   -1262.8999   -471.13337    307.58577    1235.5231    558.06344   -4411.9591 
17676000    214.89911   -4804.2077   -4389.7567   -4804.2077            0    1407.5984    20.237859    20.193206    21.059092    8606.1615    3271.2497    -347.9634    1299.5089   -74.678225   -326.42321   -1492.6255   -4213.0861 
17677000    219.02589   -4786.1407   -4363.7309   -4786.1407            0   -141.33532     20.10591    20.488948    20.958323    8633.7592   -138.10321   -1150.4405    864.53774    174.14746    619.28303    1660.8677    -4381.527 
17678000    210.49613   -4763.4158   -4357.4563   -4763.4158            0   -818.84692    20.270267    20.219307      21.3075    8732.8949    -416.2441   -1017.7322   -1022.5644    -74.15719   -282.34077    1274.2835   -4461.7449 
17679000    226.27087   -4776.9321   -4340.5497   -4776.9321            0    440.67377    20.279122    19.952622    21.277453    8609.3182    776.62802   -237.20377    782.59706   -259.60905   -102.22421    786.55712   -4285.2196 
17680000    225.08415   -4781.2358   -4347.1421   -4781.2358            0   -502.58644    20.317149    20.094335    21.213481    8660.6077   -103.33976   -1274.6369   -129.78268   -323.89125   -141.31131    347.93041   -4410.6218 
17681000    211.85895   -4786.7562   -4378.1684   -4786.7562            0   -697.51484      20.1689    20.232696    21.196891    8649.8412   -1367.3985    52.088347   -777.23434   -284.82388    -529.2827   -704.49224   -4466.1593 
17682000    222.74002    -4791.208   -4361.6351    -4791.208            0     -1330.17    20.262653    20.279335    21.394491    8791.2768   -2157.3075   -1145.1289   -688.07371   -43.989656    1018.3128    744.54757   -4532.1786 
17683000    217.84049    -4810.375   -4390.2513    -4810.375            0     609.4726    20.230752    20.086206    21.059978    8557.9129   -383.18007     1871.837    339.76089   -186.48651    1.3505711    316.81149    -4314.184 
17684000    210.12657   -4791.4746   -4386.2279   -4791.4746            0   -906.02605    20.259096    20.220801    21.462923    8792.3969   -1067.5534    -301.6805   -1348.8443    192.93473   -732.60101    319.91209   -4502.4059 
17685000    234.23841   -4796.7885     -4345.04   -4796.7885            0   -910.18175    20.145626    20.302697    21.156315    8653.1554    24.276471   -2031.9011   -722.92066   -313.27249    5.5655318    1107.2459   -4459.9026 
17686000     221.5442   -4769.8124   -4342.5458   -4769.8124            0    -747.8793    20.315464    20.174137    21.231396    8701.6231   -974.09512   -694.49421   -575.04856   -213.30745    79.824496   -153.43401   -4437.4548 
17687000    213.72042   -4784.4308    -4372.253   -4784.4308            0    318.58508    20.329898    20.065223    21.120722    8615.6482   -103.48603    367.60171    691.63955   -98.106312   -290.22825    63.835811   -4332.2226 
17688000     223.3819   -4790.6751   -4359.8643   -4790.6751            0   -1416.4027    20.223481    20.269276    21.137234    8664.4758   -1242.0406   -1992.9771   -1014.1906    712.37275   -112.54232   -445.08731   -4538.8445 
17689000     215.1271   -4809.2912   -4394.4005   -4809.2912            0   -645.56244    20.052794    20.325875    21.370904    8710.5793   -1136.7486    611.62699   -1411.5657   -38.074751    677.59205   -1569.5502   -4476.4094 
17690000     222.4946   -4764.3158   -4335.2162   -4764.3158            0    -1087.388    20.236002     20.25851     21.18405    8684.4278   -1606.8376   -1563.2102   -92.116187    626.71265    174.47359    369.05738   -4472.9377 
17691000    223.26842   -4792.2252   -4361.6333   -4792.2252            0   -131.36669    20.181396    20.024676    21.534969    8702.8389   -532.98234    1050.4002   -911.51795   -153.39711    384.35456    666.27127   -4378.3066 
17692000    221.08725   -4774.5294   -4348.1441   -4774.5294            0   -1198.6643    20.260224    20.254775    21.305503    8743.0597   -2480.5474   -307.10957   -808.33605     459.4851     1.111438   -1021.3264    -4500.984 
17693000    231.56234   -4811.0525   -4364.4651   -4811.0525            0   -483.75579    20.361388    20.309431    20.787005    8596.0125   -541.90787   -1457.5495    548.18999    75.504375    873.30299    717.44014   -4425.1107 
17694000    221.90958   -4767.3234   -4339.3521   -4767.3234            0    227.18864    20.216928    20.288551    21.024072    8623.4895   -661.06945    474.89008    867.74529   -295.77829    129.98013   -1445.8989   -4310.7798 
17695000    216.91085   -4782.5839   -4364.2531   -4782.5839            0    330.97616    20.255839    20.068702    21.287972    8653.7392   -398.41572    1524.1661   -132.82193    335.96127    427.62162   -709.17001   -4322.4819 
17696000    222.44206   -4789.6522    -4360.654   -4789.6522            0   -1360.0117    20.282183    20.307834    21.268832    8760.3601   -1164.8207   -2253.4419   -661.77247    87.504505    315.73968    -674.5882   -4534.4103 
17697000    209.84254   -4768.3204   -4363.6214   -4768.3204            0    243.45867    20.200112    20.200052    21.061457    8593.9868    524.45255   -590.67415     796.5976   -157.32411    852.75595   -1769.4289   -4333.1077 
17698000     220.8193   -4780.0036   -4354.1351   -4780.0036            0   -946.16179     20.27703    20.243816    21.294737    8741.1588   -560.09453   -1435.5267   -842.86416   -714.51732   -579.00836    1303.8575   -4474.7525 
17699000    218.52911   -4760.6095   -4339.1577   -4760.6095            0     1712.163    19.933602    20.221493    21.273593    8575.1129    3473.9194    740.45036    922.11925   -45.081187    852.50749    -927.0366   -4125.0359 
17700000    212.17338   -4784.6995   -4375.5053   -4784.6995            0    -932.4924    20.319172    20.250953    21.081278    8674.5788   -393.25414    -1807.231   -596.99206   -557.04333   -396.31868   -687.06755   -4493.4748 
17701000    208.03702   -4765.9508   -4364.7339   -4765.9508            0   -861.56848    20.369277    20.270287    20.923452    8639.1068   -189.18915   -1539.2355   -856.28077   -288.55326   -215.50948    422.07869   -4473.2851 
17702000    221.07904   -4787.7016    -4361.332   -4787.7016            0    -1106.187    20.193959    20.215753    21.224638    8664.6629   -1089.7544   -1528.8538   -699.95287    53.279504   -368.51394   -129.89355   -4501.1156 
17703000    216.18293   -4796.5319   -4379.6049   -4796.5319            0   -9.5995147    20.219713    20.089163    21.342811    8669.3884   -1615.2014    1625.0543     -38.6514   -259.35935   -502.91219   -806.79417   -4380.8186 
17704000    216.54579   -4802.0359   -4384.4092   -4802.0359            0    47.157785    20.277072    19.940439    21.369926    8640.5814   -349.19461    1017.5763   -526.90833    80.111628    30.612832   -785.84679   -4378.4666 
17705000     211.2311   -4803.9711   -4396.5941   -4803.9711            0    -1592.127    20.225213    20.293987    21.145096    8679.0087   -1406.0262   -1399.1883   -1971.1666   -145.54138   -535.00565    429.63429   -4598.1167 
17706000     220.6523   -4816.4898   -4390.9432   -4816.4898            0   -597.08352     20.21911     20.30502    21.028198    8633.1144   -1472.7651   -523.21865     204.7332    267.51918    574.03544   -565.46906   -4466.1191 
17707000    223.52252   -4794.8424   -4363.7604   -4794.8424            0   -1850.9007     20.60335    20.149391    21.070576    8747.3436   -3423.5979   -1025.8656   -1103.2387    469.18329    627.11891    342.87461   -4599.8817 
17708000    225.21192   -4787.6172   -4353.2771   -4787.6172            0    -1800.822    20.216939    20.244681    21.086391    8630.3536   -2882.6597   -2095.7517   -424.05468    286.38025   -170.83888    223.56506   -4579.9373 
17709000    214.90479   -4787.2078   -4372.7458   -4787.2078            0    -359.8278    20.178465    20.274157    21.195064    8670.9294    263.84527   -702.21502   -641.11366    624.94216    689.12413    847.99943   -4418.2484 
17710000    214.25671   -4751.3717   -4338.1596   -4751.3717            0   -398.40205    20.206427    20.160439    21.345066     8695.349   -678.91407   -467.42997    -48.86212    56.536654    -785.3019    386.02925    -4388.682 
17711000    217.36058   -4783.3033   -4364.1051   -4783.3033            0   -868.92645    20.366953    20.088493    21.179007    8665.2085    104.07792   -1986.3726   -724.48464    487.06405    767.59632    1596.4512   -4473.9141 
17712000    218.08432    -4783.792   -4363.1981    -4783.792            0     -778.124    20.282477     20.36344    20.901363     8632.702   -100.18775   -1548.7747   -685.40955    65.025585    549.59038    602.93319   -4461.1632 
17713000    235.29327   -4796.5677   -4342.7848   -4796.5677            0    530.33202    20.291375    20.198736    21.087495    8642.9233    1706.7037   -271.58341    155.87572     -282.166    1038.5813    -446.9901   -4275.9374 
17714000    218.86952   -4778.0997   -4355.9914   -4778.0997            0    -1055.243    20.046979    20.339604    21.305154    8687.1255    26.970715    -2479.807   -712.89266   -867.74794   -941.08453   -517.44477   -4489.6831 
17715000     213.6738   -4821.0168   -4408.9289   -4821.0168            0    799.14222    20.213071    20.091303    21.195142    8607.4945    1413.0139   -817.23321    1801.6459    83.314941    748.63859   -162.34656   -4308.6114 
17716000    214.82666   -4790.5621   -4376.2509   -4790.5621            0    -1899.987    20.451657    20.122301    21.225355    8734.9639   -2052.6908   -2269.3393    -1377.931   -154.18169   -1380.0412   -191.50001   -4618.2911 
17717000    208.84401   -4802.1197   -4399.3465   -4802.1197            0   -1060.1519    20.203647    20.168413    21.276772    8669.7633   -927.74942   -1774.6042   -478.10221      273.782    -1045.244    410.89442   -4533.3917 
17718000    224.95495   -4778.6393   -4344.7948   -4778.6393            0    988.72204    20.037525    20.379448    21.099314    8615.9831    1950.4211    346.97402    668.77098    576.32754   -207.82184   -280.20653   -4220.5566 
17719000    208.17006   -4756.4401   -4354.9667   -4756.4401            0   -836.45991    20.217838    20.389162    21.157045    8721.4582   -293.82861   -1523.7158   -691.83527    239.03741    1096.8877   -226.48443    -4461.359 
17720000    217.84348   -4810.2291   -4390.0996   -4810.2291            0    1224.0824    20.225799    20.014253    21.108574    8544.8404   -728.90578    2400.6569    2000.4961    287.29962    336.16389   -1221.8534   -4237.5573 
17721000    207.16849   -4771.5999    -4372.058   -4771.5999            0   -804.90222    20.184253    20.151196    21.434622    8718.2505   -1156.9285   -764.98875   -492.78939   -30.237568    494.57934   -263.17463   -4474.3987 
17722000    215.01132   -4799.5024    -4384.835   -4799.5024            0     -1185.28    20.106888    20.174665    21.647087     8781.135   -1207.0657   -411.15149   -1937.6228    -492.6604    1302.8992    633.89284   -4536.6265 
17723000    213.28251   -4788.4859   -4377.1526   -4788.4859            0   -1341.3992    20.212951    20.184756    21.096824    8607.3664   -29.656037   -2188.2765   -1806.2652   -9.0508766   -1449.3011    877.46485    -4545.538 
17724000     224.0774   -4797.2983   -4365.1462   -4797.2983            0   -88.018749    20.213028    20.242156    20.970439    8580.1658   -142.93815   -641.02402    519.90593    223.87372    249.96956   -251.82106   -4376.1602 
17725000    213.37045   -4794.9524   -4383.4495   -4794.9524            0    187.55791    20.128606    20.160904    21.214359    8609.0178    1206.2774     -653.523    9.9193111   -98.615109    357.00677    345.52573    -4359.901 
17726000    214.40785   -4782.3204   -4368.8168   -4782.3204            0    101.05525    20.304498    20.067441    21.264329    8664.3487   -2036.1926     1376.887    962.47135   -477.26009   -230.17069    289.23044   -4356.0474 
17727000    226.84495   -4744.1369   -4306.6473   -4744.1369            0   -261.97895    20.313004    20.298442    21.001972    8659.5822   -77.481361   -918.08326    209.62776   -251.92717   -2444.6533    840.40538   -4339.7329 
17728000    228.15565   -4777.9265   -4337.9092   -4777.9265            0    1834.5032    20.122121    20.144487    21.194448    8591.1655    1172.2522    2961.8454     1369.412   -418.29164   -1128.8389   -956.00206   -4108.0581 
17729000    224.38279   -4788.2669   -4355.5258   -4788.2669            0    976.95127    20.244357    20.180561    21.251154    8681.9992     448.6449    1922.3085    559.90037    34.459846    -822.7148   -91.550618   -4231.8262 
17730000    229.69961   -4779.7863   -4336.7913   -4779.7863            0   -735.60768    20.291622     20.12272    21.311783    8702.0831   -1329.3195    352.37439   -1229.8779   -68.901646    1507.2878    1243.3887   -4430.1479 
17731000     219.3935   -4764.4478    -4341.329   -4764.4478            0   -54.406098    20.103263    20.049278    21.610115    8710.0844     353.4576    409.04509   -925.72099    612.63918   -305.49417   -435.81718   -4348.2401 
17732000    214.07013   -4779.3469   -4366.4947   -4779.3469            0   -1262.1254    20.317924    20.191056    21.091657    8652.6483   -1695.7621   -1771.0845   -319.52981    8.6150828    103.56214    295.97045   -4525.7623 
17733000    222.68767   -4805.2961   -4375.8242   -4805.2961            0   -1067.4339    20.292257    20.333558    20.944551    8642.0103    -709.3158   -2999.1062    506.12046    223.12872   -837.79576   -548.37393   -4510.3581 
17734000    227.30401   -4794.0453   -4355.6704   -4794.0453            0    149.77449    20.231093    20.128503    21.279279    8665.3829    79.017665    1694.3077   -1324.0019   -323.39455    382.57104    525.49838   -4336.7425 
17735000      215.231   -4809.0202   -4393.9291   -4809.0202            0    132.57698    20.152136    19.952588    21.458563    8628.2148   -382.48432    1789.6193   -1009.4041   -212.73996    470.49783   -351.37381   -4377.2465 
17736000    213.93337   -4794.1698   -4381.5813   -4794.1698            0   -962.95472    20.269652    20.192379    21.363414    8743.8851   -1198.9143    335.98212   -2025.9319    156.59813    567.93373    22.369728   -4504.3779 
17737000    209.54061   -4771.8716   -4367.7549   -4771.8716            0    962.75599    20.187691    20.151018    20.966715    8529.3127    2632.2705   -688.06375    944.06123   -655.14547    498.44605    346.92357   -4247.9965 
17738000    218.48474   -4766.4335   -4345.0673   -4766.4335            0   -1282.0776    20.359348    20.312104    21.125765    8736.3742   -1271.5789   -1291.2409    -1283.413   -422.19302    837.31853   -71.104995   -4508.4181 
17739000    202.03079   -4760.5925   -4370.9592   -4760.5925            0    950.97271    20.108044    20.165761     21.27536    8627.0315    1527.7288    1821.9953    -496.8059   -155.81781    510.33794    -86.85449   -4251.3112 
17740000     212.3524   -4756.3684   -4346.8289   -4756.3684            0   -1897.9708    20.302228    20.280777     21.27287    8758.9974   -2550.7751    -1608.034   -1535.1032   -688.26409   -211.59898    102.37034   -4589.2776 
17741000    215.67098   -4803.4437   -4387.5041   -4803.4437            0    653.99737    20.307289    20.188081     20.76842    8514.3294   -2119.8758    3059.9847    1021.8832   -240.03348   -126.54702    496.26491   -4306.2954 
17742000    220.76934   -4794.0816   -4368.3094   -4794.0816            0    99.247161    20.288391     20.16506    21.154967    8654.8485    1182.3204   -863.44813   -21.130782    762.04159    505.51453     339.6066   -4355.7822 
17743000     218.4188   -4769.2719   -4348.0328   -4769.2719            0   -506.49518    20.125949    20.178202    21.381958      8683.33    85.674327   -1824.1509      218.991   -641.09659    79.326373   -19.149582   -4412.1741 
17744000    219.73858   -4777.3639   -4353.5795   -4777.3639            0   -973.42963    20.228816    20.170071    21.306873    8693.5591   -1307.0203   -115.71644   -1497.5522    74.376417   0.91040015    860.20231   -4476.9974 
17745000     221.9928   -4756.3301   -4328.1983   -4756.3301            0      -158.09    20.428823    20.062052    21.056127    8629.7297   -64.956314   -580.77504    171.46135      668.003   -271.59696   -424.28968   -4348.0948 
17746000    227.64228   -4788.3573     -4349.33   -4788.3573            0   -227.10028    20.167972    20.153697    21.184475    8610.6246    388.39581   -187.28769   -882.40895   -557.84917     -439.522   -556.20694   -4377.8486 
17747000    215.60829    -4787.978   -4372.1593    -4787.978            0   -274.15953    20.235911    20.244426    21.180196    8676.7724   -1152.9623    795.28613   -464.80245    242.16911    859.99269   -505.98189   -4406.8519 
17748000    232.85968   -4788.1176   -4339.0281   -4788.1176            0   -1530.3114    20.367033    20.202129    21.067346    8668.3157   -3328.2832   -183.89555   -1078.7554   -128.29106    -1318.843    200.33071   -4532.4878 
17749000    216.34137   -4804.5695    -4387.337   -4804.5695            0    256.91238    20.307458    20.149009    21.162701     8659.251      264.297   -493.42705    999.86718   -638.50042   -509.00124    -63.85907   -4354.8925 
17750000    218.09099   -4742.9593   -4322.3525   -4742.9593            0    57.727585    20.154524    20.183085     21.24099    8640.4197   -1464.6577    843.23116    794.60929   -622.52728    188.32097   -2093.0534   -4315.0782 
Loop time of 419.14 on 64 procs for 250000 steps with 972 atoms

Performance: 103.068 ns/day, 0.233 hours/ns, 596.459 timesteps/s
99.1% CPU use with 64 MPI tasks x 1 OpenMP threads

MPI task timing breakdown:
Section |  min time  |  avg time  |  max time  |%varavg| %total
---------------------------------------------------------------
Pair    | 18.551     | 26.947     | 34.562     |  77.4 |  6.43
Bond    | 0.27172    | 0.27976    | 0.30544    |   1.1 |  0.07
Kspace  | 173.79     | 188.37     | 202.53     |  43.2 | 44.94
Neigh   | 1.9917     | 2.406      | 2.929      |  15.9 |  0.57
Comm    | 80.467     | 90.561     | 102.71     |  51.0 | 21.61
Output  | 1.3718     | 1.3733     | 1.3857     |   0.2 |  0.33
Modify  | 97.988     | 101.25     | 105.49     |  14.4 | 24.16
Other   |            | 7.953      |            |       |  1.90

Nlocal:        15.1875 ave          19 max          10 min
Histogram: 1 2 8 7 5 12 7 9 9 4
Nghost:        2139.58 ave        2180 max        2098 min
Histogram: 2 4 6 6 9 14 11 6 4 2
Neighs:        4566.55 ave        5879 max        2614 min
Histogram: 2 2 2 8 9 9 10 9 4 9

Total # of neighbors = 292259
Ave neighs/atom = 300.67798
Ave special neighs/atom = 2.0000000
Neighbor list builds = 5946
Dangerous builds = 0

unfix		3
unfix		2
unfix		1

write_data	data.final.${pid}
write_data	data.final.0
System init for write_data ...
PPPM initialization ...
  extracting TIP4P info from pair style
  using 12-bit tables for long-range coulomb (../kspace.cpp:340)
  G vector (1/distance) = 0.37136226
  grid = 24 24 25
  stencil order = 5
  estimated absolute RMS force accuracy = 0.003536558
  estimated relative force accuracy = 1.0650239e-05
  using double precision FFTW3
  3d grid and FFT values/proc = 2366 288
Last active /omp style is kspace_style pppm/tip4p/omp
WARNING: Not all mixed pair coeffs generated from mixing. Use write_data with 'pair ij' option to store all pair coeffs. (../write_data.cpp:312)

write_restart   restart.lmp.${pid}
write_restart   restart.lmp.0
System init for write_restart ...
PPPM initialization ...
  extracting TIP4P info from pair style
  using 12-bit tables for long-range coulomb (../kspace.cpp:340)
  G vector (1/distance) = 0.37136226
  grid = 24 24 25
  stencil order = 5
  estimated absolute RMS force accuracy = 0.003536558
  estimated relative force accuracy = 1.0650239e-05
  using double precision FFTW3
  3d grid and FFT values/proc = 2366 288
Last active /omp style is kspace_style pppm/tip4p/omp
Total wall time: 0:07:02
