LAMMPS (30 Jul 2021)
  using 1 OpenMP thread(s) per MPI task
package omp 0
using multi-threaded neighbor list subroutines
echo both

include		in.partitions
variable        pid world 0
include		in.temp
variable        temperature equal 245.00
variable	tempDamp equal 100.0
include		in.pressure
variable        pressure equal 4500.0
variable        pressureDamp equal 1000.0 # This is 1 ps
include		in.seed
variable        seed world 745823

units		real
atom_style	full
read_restart	restart.lmp.${pid}
read_restart	restart.lmp.0
Reading restart file ...
  restart file = 30 Jul 2021, LAMMPS = 30 Jul 2021
  restoring atom style full from restart
  orthogonal box = (0.45160838 1.6234663 0.55096117) to (17.755964 22.005712 21.662235)
  4 by 4 by 4 MPI processor grid
  restoring pair style lj/cut/tip4p/long/omp from restart
  restoring bond style harmonic/omp from restart
  restoring angle style harmonic/omp from restart
  864 atoms
  576 bonds
  288 angles
Finding 1-2 1-3 1-4 neighbors ...
  special bond factors lj:    0        0        0       
  special bond factors coul:  0        0        0       
     2 = max # of 1-2 neighbors
     1 = max # of 1-3 neighbors
     1 = max # of 1-4 neighbors
     2 = max # of special neighbors
  special bonds CPU = 1.199 seconds
  read_restart CPU = 1.516 seconds
include 	in.setup
variable	out_freq equal 1000
variable	out_freq2 equal 10000
variable	out_freq3 equal 1000

timestep	2.0

neigh_modify    delay 7 every 1

include		in.tip4p
# This is TIP4P/Ice

# create groups ###
group ox type 2
288 atoms in group ox
group hy type 1
576 atoms in group hy

# set charges - beside manually ###
set group ox charge -1.1794
Setting atom values ...
  288 settings made for charge
set group hy charge 0.5897
Setting atom values ...
  576 settings made for charge

# ### TIP3P Potential Parameters ###
pair_style lj/cut/tip4p/long/omp 2 1 1 1 0.1577 8.5
pair_coeff 1 1*2 0.000 0.000
pair_coeff 2 2 0.21084 3.1668
bond_style  harmonic
bond_coeff  1 450 0.9572
angle_style harmonic
angle_coeff 1 55 104.52
kspace_style pppm/tip4p/omp 1.0e-5
pair_modify tail yes

thermo          ${out_freq}
thermo          1000
thermo_style    custom step temp pe etotal epair emol press lx ly lz vol pxx pyy pzz pxy pxz pyz enthalpy

restart 	${out_freq3} restart.lmp.${pid} restart2.lmp.${pid}
restart 	1000 restart.lmp.${pid} restart2.lmp.${pid}
restart 	1000 restart.lmp.0 restart2.lmp.${pid}
restart 	1000 restart.lmp.0 restart2.lmp.0


include         in.dump
dump            myDump all atom ${out_freq2} dump.water.${pid}
dump            myDump all atom 10000 dump.water.${pid}
dump            myDump all atom 10000 dump.water.0
dump            myDump2 all dcd ${out_freq2} dump.dcd
dump            myDump2 all dcd 10000 dump.dcd
dump_modify     myDump append yes
dump_modify     myDump2 append yes


variable natoms 	equal  "count(all)"                        # NUMBER ATOMS
variable H      	equal  "enthalpy/v_natoms"                 # ENTHALPY-per-atom
variable Vol      	equal  "vol/v_natoms"                 # volume-per-atom
fix AVG all 		ave/time ${out_freq} 1 ${out_freq} v_Vol v_H file vol_enthalpy.dat
fix AVG all 		ave/time 1000 1 ${out_freq} v_Vol v_H file vol_enthalpy.dat
fix AVG all 		ave/time 1000 1 1000 v_Vol v_H file vol_enthalpy.dat


timer           timeout 23:50:00 every 1000
New timer settings: style=normal  mode=nosync  timeout=23:50:00

fix 		1 all shake 1e-6 200 0 b 1 a 1
       0 = # of size 2 clusters
       0 = # of size 3 clusters
       0 = # of size 4 clusters
     288 = # of frozen angles
  find clusters CPU = 0.108 seconds
fix             2 all nph iso ${pressure} ${pressure} ${pressureDamp}
fix             2 all nph iso 4500 ${pressure} ${pressureDamp}
fix             2 all nph iso 4500 4500 ${pressureDamp}
fix             2 all nph iso 4500 4500 1000
fix             3 all temp/csvr ${temperature} ${temperature} ${tempDamp} ${seed}
fix             3 all temp/csvr 245 ${temperature} ${tempDamp} ${seed}
fix             3 all temp/csvr 245 245 ${tempDamp} ${seed}
fix             3 all temp/csvr 245 245 100 ${seed}
fix             3 all temp/csvr 245 245 100 745823

run             250000
PPPM initialization ...
  extracting TIP4P info from pair style
  using 12-bit tables for long-range coulomb (../kspace.cpp:340)
  G vector (1/distance) = 0.37423888
  grid = 24 24 25
  stencil order = 5
  estimated absolute RMS force accuracy = 0.0030744043
  estimated relative force accuracy = 9.2584772e-06
  using double precision FFTW3
  3d grid and FFT values/proc = 2730 288
Last active /omp style is kspace_style pppm/tip4p/omp
Neighbor list info ...
  update every 1 steps, delay 7 steps, check yes
  max neighbors/atom: 2000, page size: 100000
  master list distance cutoff = 10.8154
  ghost atom cutoff = 10.8154
  binsize = 5.4077, bins = 4 4 4
  1 neighbor lists, perpetual/occasional/extra = 1 0 0
  (1) pair lj/cut/tip4p/long/omp, perpetual
      attributes: half, newton on, omp
      pair build: half/bin/newton/omp
      stencil: half/bin/3d
      bin: standard
Per MPI rank memory allocation (min/avg/max) = 9.238 | 9.243 | 9.251 Mbytes
Step Temp PotEng TotEng E_pair E_mol Press Lx Ly Lz Volume Pxx Pyy Pzz Pxy Pxz Pyz Enthalpy 
 2250000    252.14831   -3915.5542   -3483.3806   -3915.5542            0     3743.153    17.304356    20.382245    21.111273    7445.9803    4636.6432    3169.3766    3423.4391   -64.598643   -1488.2927    -858.1488   -3076.9042 
 2251000    253.90752   -3958.7542   -3523.5654   -3958.7542            0    4490.1287     17.29597    20.372368    21.101043    7435.1604    4851.1754     3730.245    4888.9655   -332.23072   -877.96698    577.99765    -3036.682 
 2252000    261.36938   -3963.6085   -3515.6304   -3963.6085            0     3498.908     17.40173    20.496939     21.23007    7572.3883    4050.4899    3657.2719    2788.9621   -767.63795     1329.807   -642.35856   -3129.2266 
 2253000    237.21024   -3938.2895   -3531.7193   -3938.2895            0    4505.4514    17.273797    20.346251    21.073992    7406.6024    3531.3098    3503.4262    6481.6182    726.96246    539.28753    745.87022   -3045.0508 
 2254000      232.196   -3951.1115   -3553.1355   -3951.1115            0    4505.2317     17.26994    20.341708    21.069286    7401.6418    4084.4419    4278.5178    5152.7353     160.6526    365.02532     -183.302   -3066.8167 
 2255000    245.79603   -3926.7969    -3505.511   -3926.7969            0    5519.2841    17.211457    20.272823    20.997938    7326.7019    6010.9632    5296.3682    5250.5209    134.32539   -175.94195   -491.16326    -2915.762 
 2256000    261.17758    -3950.201   -3502.5515    -3950.201            0    3594.7383    17.267935    20.339346     21.06684    7399.0637    5440.0795    3486.4358    1857.6996    38.927842    -389.8785   -769.68451   -3114.6514 
 2257000    253.68364    -3944.911   -3510.1059    -3944.911            0     3400.884    17.325167    20.406759    21.136664    7472.8781    4033.4076    4347.7569    1821.4877   -1389.7914   -158.91797    1445.9756   -3139.4631 
 2258000    254.04257   -3926.4937   -3491.0735   -3926.4937            0    4485.7306     17.30648    20.384748    21.113866    7448.7236    3997.8343    6064.1401    3395.2175   -872.85607    816.41872    1078.0613   -3003.7796 
 2259000    248.34666    -3918.601   -3492.9433    -3918.601            0    2630.0199    17.346045     20.43135    21.162135    7499.9265    3552.8979    2245.4777    2091.6842   -682.89225     1001.132   -298.86486   -3205.2751 
 2260000    252.33094   -3931.6613   -3499.1747   -3931.6613            0     4845.558    17.331632    20.414374    21.144551     7481.247    4597.3326    4420.3925    5518.9488   -1026.7084    830.73757   -241.20445   -2970.4938 
 2261000    243.80044   -3935.0991   -3517.2335   -3935.0991            0      2874.75    17.426293    20.525872    21.260037    7604.4998    1931.1261    2399.2357    4293.8881   -311.54942   -641.75514   -168.87042   -3198.4127 
 2262000     243.8775   -3888.0973   -3470.0996   -3888.0973            0    4272.8459    17.343934    20.428863    21.159559    7497.1885     3861.638    2383.9496      6572.95     659.7099   -277.65465   -355.14434   -3002.9118 
 2263000    254.43992   -3911.3065   -3475.2052   -3911.3065            0    4467.7805    17.333212    20.416234    21.146478    7483.2926    3770.5942     3547.183    6085.5642      900.872    755.90029    563.58576   -2987.6088 
 2264000    240.97164   -3933.4618   -3520.4447   -3933.4618            0    4813.6188    17.261836    20.332163      21.0594    7391.2273    4140.9419    4489.6092    5810.3052    813.62481    201.41117   -496.64175    -3001.568 
 2265000    239.16539   -3895.5178   -3485.5965   -3895.5178            0    5088.5198     17.29945    20.376467    21.105288    7439.6493    4197.9832    5800.4705    5267.1057    1080.3368    762.28346     67.47027   -2933.4939 
 2266000    247.77632   -3906.0942   -3481.4141   -3906.0942            0    4617.8156    17.321733    20.402714    21.132474    7468.4355    5784.9172    3119.9914    4948.5383    1239.7223    418.39435     1047.633   -2978.4441 
 2267000    245.66069   -3938.2516   -3517.1976   -3938.2516            0    4166.2023     17.25361    20.322474    21.049364    7380.6655    5008.2589    3029.3093    4461.0389    1251.2322    666.42559    552.57258   -3068.7499 
 2268000       242.05   -3966.8202   -3551.9548   -3966.8202            0     4637.354    17.237618    20.303637    21.029854    7360.1614    5480.3851    3925.1445    4506.5325    1794.1335    -881.7281    506.17461   -3054.1794 
 2269000    249.60878   -3932.3145   -3504.4936   -3932.3145            0    3443.7542    17.198533    20.257601    20.982171    7310.2096    3767.9377    3478.0844    3085.2406    1393.0013    -1469.518    714.18639   -3137.3484 
 2270000    244.34674   -3938.6232   -3519.8212   -3938.6232            0    2900.4061    17.231714    20.296683    21.022651    7352.6019    2450.9021    3057.3576    3192.9585    305.58519   -811.56685   -27.760635   -3208.8102 
 2271000    234.54377   -3931.4534   -3529.4534   -3931.4534            0    5331.2259    17.200801    20.260271    20.984937    7313.1013    7332.6649     3947.675    4713.3378    1110.9337   -141.63082    1050.3059   -2960.8564 
 2272000    250.96139   -3926.5865   -3496.4473   -3926.5865            0     4360.858    17.311115    20.390207     21.11952    7454.7095    3122.7705    4309.1228    5650.6806   -680.91427     1009.347   -501.68554   -3022.3379 
 2273000    232.93422    -3919.186   -3519.9447    -3919.186            0    4870.0546     17.31916    20.399683    21.129335    7465.1075    3542.0674    3836.6327    7231.4637   -512.85556   -766.04396   -403.44026   -2989.7373 
 2274000    256.70122   -3897.0884   -3457.1113   -3897.0884            0    5220.2411    17.316531    20.396586    21.126128    7461.7087    6543.2943    5070.3704    4047.0587     524.1682    302.16271   -838.02397   -2889.0375 
 2275000     247.0741   -3914.3047   -3490.8281   -3914.3047            0    3928.8418    17.383045    20.474931    21.207275    7548.0223    4828.1501    2282.5229    4675.8525   -836.65951   -241.25862    515.46019   -3058.3406 
 2276000    266.43705   -3904.1795   -3447.5155   -3904.1795            0    6251.9309    17.285577    20.360127    21.088364    7421.7658    5461.4651    7308.1536    5986.1741    1063.9386   -1781.7666   -531.37091   -2770.8138 
 2277000    254.99452   -3919.9269    -3482.875   -3919.9269            0    3202.4056    17.410274    20.507003    21.240494    7583.5479    4991.4614    1537.4106    3078.3448    103.89646   -742.83909   -506.80619   -3128.6945 
 2278000    231.54509   -3904.8554    -3507.995   -3904.8554            0    5284.9984    17.275207    20.347912    21.075712    7408.4158    4364.4065    5953.7886    5536.8001   -1133.8666   -816.34972   -649.39367   -2936.9819 
 2279000    230.80461   -3903.4511   -3507.8599   -3903.4511            0    5528.7702    17.246677    20.314307    21.040906    7371.7717    6829.2858    4322.0022    5435.0225    189.22082    1224.1337   -348.01296   -2913.4633 
 2280000    258.07183   -3890.8929   -3448.5667   -3890.8929            0    4090.3491    17.341086    20.425509    21.156085    7493.4963    3522.2672    4367.0478    4381.7322   -994.94252   -507.89042   -1904.6067    -3001.553 
 2281000    252.65591   -3872.6191   -3439.5755   -3872.6191            0     4255.322    17.322803    20.403974     21.13378    7469.8196    4383.1199    4386.1445    3996.7017     801.2523   -1027.8522   -1430.1223   -2976.0022 
 2282000    249.37288   -3899.4294   -3472.0128   -3899.4294            0    3950.6004     17.34869    20.434465    21.165361    7503.3572    5280.1163    4135.5881    2436.0967    504.25086   -1107.2225    170.01303   -3039.7035 
 2283000    249.32545   -3896.8016   -3469.4663   -3896.8016            0    3715.9206    17.323134    20.404363    21.134182    7470.2468    3486.9484     4729.963    2930.8503   -11.169916   -281.16199   -571.94229   -3064.6321 
 2284000    236.25166   -3920.6591   -3515.7318   -3920.6591            0    4122.8039    17.329785    20.412198    21.142298    7478.8553    3660.0159    4619.8566    4088.5392   -381.14415    2259.0951    429.98862   -3066.0517 
 2285000    237.00044   -3942.9925   -3536.7819   -3942.9925            0    5328.7882    17.334428    20.417666    21.147961    7484.8675    5283.4915    4221.8832      6480.99     845.8988   -337.51824    1451.2321   -2955.0961 
 2286000    241.79207   -3944.9935   -3530.5702   -3944.9935            0    3770.3814    17.400639    20.495655    21.228739    7570.9643    4495.8978    4079.4592    2735.7871   -86.687398    383.60141   -22.594609   -3114.2645 
 2287000    262.05634   -3937.6959   -3488.5404   -3937.6959            0     5239.927    17.335025     20.41837     21.14869    7485.6412    5301.2179    5178.6838    5239.8792   -1604.3584    1119.2059    1357.5368   -2916.4954 
 2288000    245.63606   -3923.8734   -3502.8616   -3923.8734            0    5149.8033    17.348966     20.43479    21.165698    7503.7159    5372.5555    5217.4362    4859.4184   -735.51306   -324.55765    666.20039   -2939.2981 
 2289000    246.03789   -3937.9981   -3516.2976   -3937.9981            0    3565.8757    17.332921    20.415892    21.146124    7482.9164    2439.7311    4367.4586    3890.4374   -437.62157   -360.77301     266.2732   -3127.1512 
 2290000    239.07461    -3918.543   -3508.7773    -3918.543            0    3969.3503    17.323445     20.40473    21.134563    7470.6503    2912.5982    3280.2429    5715.2096   -727.61617    76.771508   -1981.5968   -3076.3095 
 2291000    232.06829   -3911.8919   -3514.1348   -3911.8919            0    6036.4437    17.306496    20.384767    21.113885    7448.7443    4575.5072    5746.3851    7787.4388   -1014.4479   -1048.1882    105.86841   -2858.3821 
 2292000    247.59707   -3925.1062   -3500.7333   -3925.1062            0    3834.5989    17.302007    20.379479    21.108409    7442.9496    4331.7011     4461.515    2710.5805   -1044.9548    1437.2493    -194.6582   -3084.4961 
 2293000    247.71366   -3906.3269   -3481.7542   -3906.3269            0    3601.4183    17.338199    20.422108    21.152562    7489.7536    2799.2726     3151.335    4853.6473   -71.284091   -295.12177    312.86998   -3088.3699 
 2294000     246.9452   -3906.6244   -3483.3688   -3906.6244            0    7112.1579    17.263365    20.333963    21.061265    7393.1909    6542.5959    6745.4265    8048.4512   -2255.1732    -1595.329    226.47342    -2716.521 
 2295000    238.78143    -3953.866   -3544.6028    -3953.866            0    4900.6523    17.242103    20.308919    21.035325    7365.9075    5719.9557     2814.297    6167.7042   -880.91419    443.20704    334.50953   -3018.1541 
 2296000    250.28448   -3910.8524   -3481.8734   -3910.8524            0    5020.4643     17.25751    20.327067    21.054122    7385.6713    5668.6045     3203.142    6189.6465    854.74205   -507.57701    202.71577   -2941.1069 
 2297000     235.9138   -3930.8989   -3526.5507   -3930.8989            0    2463.9761    17.380272    20.471665    21.203892    7544.4107    2185.6889    4285.4363    920.80326     664.1073   -1804.3683   -846.08231   -3255.4456 
 2298000    235.61072   -3905.0108   -3501.1821   -3905.0108            0    3716.5642    17.310834    20.389876    21.119177    7454.3465    4508.8722    1809.4089    4831.4115    741.65856    292.63458   -155.91756   -3097.1395 
 2299000    247.15166   -3919.0636   -3495.4541   -3919.0636            0    4178.3607    17.338726    20.422729    21.153206    7490.4372    3420.2119    3690.4659    5424.4042   -176.56038    674.20792   -237.94392   -3039.0086 
 2300000     243.9447   -3947.1985   -3529.0856   -3947.1985            0     6019.437    17.257815    20.327427    21.054494    7386.0636    5246.9372    6840.6596    5970.7141    1697.7477   -813.31719    1.6098835   -2880.6829 
 2301000    244.65877   -3905.5934   -3486.2567   -3905.5934            0    4596.4928    17.347254    20.432774    21.163609    7501.4945     5819.914    4068.5995    3900.9648    1488.4567    227.21463   -775.17781    -2983.393 
 2302000    245.24131   -3927.4323    -3507.097   -3927.4323            0    3209.3763    17.339327    20.423437    21.153939    7491.2162    3062.5627    2639.9889    3925.5772   -105.34012    551.84611    5.0433221   -3156.4672 
 2303000    239.05493   -3935.7177   -3525.9858   -3935.7177            0    2254.2006    17.310391    20.389354    21.118636    7453.7738    1546.7528    2650.4859    2565.3632    137.28176   -328.62938   -640.72344   -3280.9414 
 2304000    248.97941   -3916.9844   -3490.2422   -3916.9844            0    5674.6103    17.232672    20.297811     21.02382    7353.8279    5783.7186    5582.3082    5657.8039   -455.37569    314.57826    1532.8768   -2881.6514 
 2305000    245.71387   -3907.7529   -3486.6078   -3907.7529            0    4287.4711    17.267936    20.339347    21.066841    7399.0653    4386.1353    4171.4634    4304.8146    934.89069   -247.63553   -477.24796   -3023.9563 
 2306000    252.48863   -3883.5596   -3450.8027   -3883.5596            0     4096.544     17.35791    20.445325     21.17661    7515.3271     3846.476    4521.1643    3921.9916   -615.47901     1138.692   -13.404341   -3001.8079 
 2307000    252.25193   -3935.5641   -3503.2129   -3935.5641            0    3849.5484    17.347005    20.432481    21.163306    7501.1721    2673.3476     3224.116    5651.1816    1394.6941   -1900.6832    -9.762826   -3082.0842 
 2308000    245.84503   -3929.8639    -3508.494   -3929.8639            0    5133.7952    17.274695    20.347309    21.075088    7407.7577    5902.3465    3222.6173    6276.4219     1013.949    616.06505    1006.5316   -2953.8667 
 2309000    239.37913   -3909.1589   -3498.8712   -3909.1589            0    4579.8501    17.371205    20.460985     21.19283     7532.609    3937.0796    5235.5649    4566.9058    118.81606    632.77647    4.9445251   -2995.7501 
 2310000    229.33182    -3928.655   -3535.5881    -3928.655            0     3894.394    17.302186     20.37969    21.108627    7443.1804    4506.5735    2025.8546    5150.7538   -776.51631    1205.2448    1.3447057   -3112.8471 
 2311000    241.59464   -3919.9662   -3505.8813   -3919.9662            0    3900.0534    17.279883     20.35342    21.081417    7414.4341    2115.3933    4561.4313    5023.3357   -344.60373    1263.1377     137.4842    -3084.161 
 2312000    237.78147   -3898.9886   -3491.4393   -3898.9886            0    2010.0412    17.364725    20.453352    21.184924    7524.1825    1711.8922    2632.5198    1685.7115    675.82751    717.83673     221.2941   -3270.8725 
 2313000    257.76705   -3923.2373   -3481.4334   -3923.2373            0    3517.4831    17.263027    20.333566    21.060853    7392.7573    2432.1822    5376.5073    2743.7597    12.573006    -54.05431    586.36896   -3102.1932 
 2314000    242.19276   -3927.7278   -3512.6177   -3927.7278            0    4352.9775     17.27976    20.353275    21.081267    7414.2751    3456.9906    4373.5768     5228.365   -587.00379    625.14448    95.420776    -3041.932 
 2315000    231.36966   -3924.4746   -3527.9149   -3924.4746            0    5750.9904    17.197268     20.25611    20.980627    7308.5961    5218.2228    5755.4526    6279.2959   -481.15983    178.08279    850.10427   -2914.9262 
 2316000     258.7509   -3917.1801   -3473.6899   -3917.1801            0    4937.0285    17.184643     20.24124    20.965224    7292.5117    5799.1685    4635.1386    4376.7783   -1986.4877   -439.50086     -138.714   -2948.6181 
 2317000    244.34572   -3940.9982    -3522.198   -3940.9982            0    5487.4192    17.176714      20.2319    20.955551     7282.422    5893.7576     4440.499     6128.001   -426.58458   -440.48812   -952.51533   -2939.3975 
 2318000     246.7097   -3918.9621   -3496.1101   -3918.9621            0    3300.7227    17.331968    20.414768     21.14496     7481.681    4064.5747    1612.7698    4224.8235    866.60444   -299.44155    1349.9524   -3135.9596 
 2319000    230.07683   -3943.1973   -3548.8535   -3943.1973            0    3671.4389    17.320686     20.40148    21.131196    7467.0808    2707.7223    3114.4285    5192.1659    373.46531   -395.39212    -294.0279   -3149.0349 
 2320000    252.52356   -3940.2693   -3507.4526   -3940.2693            0    3455.1313    17.333538    20.416619    21.146876    7483.7156    3140.6434    4022.4847     3202.266    764.35173    171.11295    167.87568   -3130.3516 
 2321000     243.7418   -3932.9915   -3515.2264   -3932.9915            0    4167.4035    17.320881     20.40171    21.131435    7467.3334    3186.4191    5490.5443    3825.2469   -483.29546    513.88673   -1071.2068    -3061.382 
 2322000    266.73089   -3892.2001   -3435.0324   -3892.2001            0    5966.1175    17.274013    20.346506    21.074256    7406.8805    5617.1721    6021.0902    6260.0901   -1196.0145   -1146.4041   -90.014317    -2790.562 
 2323000    232.60138   -3950.3078    -3551.637   -3950.3078            0    5137.1546    17.286317    20.360998    21.089266    7422.7183    4090.3731    5316.6242    6004.4666    -1082.304   -1003.1392    623.56478    -2995.526 
 2324000    253.42956    -3935.669   -3501.2994    -3935.669            0    5547.9849    17.251673    20.320192    21.047001    7378.1797    3833.6031    6808.1074    6002.2442     1369.976   -362.95786     162.2404   -2904.3186 
 2325000    253.46496    -3957.349   -3522.9188    -3957.349            0    3628.9257     17.39701     20.49138    21.224312    7566.2285    2737.1819     3017.855    5131.7402    527.63571    -956.0798    366.99108   -3122.4825 
 2326000    236.99188   -3935.6497   -3529.4537   -3935.6497            0    4434.5912    17.296405    20.372881    21.101574    7435.7221    4607.0256    4787.7262    3909.0219   -213.83059    343.70984    497.41158   -3048.5561 
 2327000    237.31941   -3955.7579   -3549.0006   -3955.7579            0    4186.4793    17.319652    20.400262    21.129935    7465.7435    4098.4129    2750.7403    5710.2846   -10.753874   -1275.7581   -706.43809   -3093.1758 
 2328000    262.92284   -3910.1091   -3459.4684   -3910.1091            0    4292.0589    17.306109     20.38431    21.113412    7448.2438    4012.7578    3600.1601    5263.2588   -224.66251    133.39189   -219.49401   -2993.2435 
 2329000    252.48287   -3945.6382   -3512.8912   -3945.6382            0    3956.8508    17.274819    20.347455    21.075239    7407.9173    3988.1472    4115.1288    3767.2764    716.32113    424.22854    95.073707   -3085.4054 
 2330000    252.85295   -3911.6365   -3478.2552   -3911.6365            0    3319.1763    17.350937    20.437112    21.168102    7506.2731    3675.3041    1292.5367    4989.6882   -1047.0768    375.22975   -1399.5768   -3114.9007 
 2331000    241.28301   -3914.6009   -3501.0501   -3914.6009            0    3513.5398    17.370948    20.460683    21.192517    7532.2753    3674.1403    2552.9388    4313.5402    1221.4767    1087.2374    453.44479    -3115.086 
 2332000    247.66035   -3973.9373   -3549.4559   -3973.9373            0    3108.2998    17.402472    20.497813    21.230975    7573.3567    3179.5924    3020.7361    3124.5709   -91.536303    37.183348    620.81311   -3206.1453 
 2333000     246.4559   -3964.9809   -3542.5639   -3964.9809            0    3461.6895    17.299169    20.376136    21.104946     7439.287      4475.18    4170.4151    1739.4735   -1049.0367   -134.00008   -888.32732   -3166.9901 
 2334000    255.81305   -3927.4633   -3489.0085   -3927.4633            0    5202.5272      17.3361    20.419636    21.150002    7487.0339    2700.5302    5161.2537    7745.7977   -272.13637    719.30344   -456.37104   -2920.9408 
 2335000    242.45513   -3929.0561   -3513.4963   -3929.0561            0    5027.5625    17.178981     20.23457    20.958316    7285.3056    3795.1012    6583.8379    4703.7484   -113.00345      -673.59    423.62845   -2979.3243 
 2336000     248.8861    -3956.901   -3530.3187    -3956.901            0    3758.6753    17.327502    20.409509    21.139512    7475.9001    3143.7298     3509.027    4623.2691   -1706.3265   -998.79777    75.366491   -3120.5166 
 2337000    243.06889   -3949.7533   -3533.1415   -3949.7533            0    3735.9397    17.221933    20.285162    21.010718    7340.0877    3306.8102    4072.1346    3828.8742   -1476.7468   -281.03652   -70.491772    -3133.218 
 2338000    259.75158   -3934.2244   -3489.0191   -3934.2244            0    4430.2681     17.24283    20.309776    21.036212      7366.84    3444.3692    5762.2594    4084.1758   -514.25472   -1642.6184   -424.34163   -3013.0408 
 2339000    232.16388   -3947.8898   -3549.9689   -3947.8898            0    5731.3001    17.163609    20.216464    20.939563    7265.7662     5397.748    6619.2736    5176.8789   -659.85118    370.92825   -131.75297   -2942.6588 
 2340000    247.69874   -3948.2132   -3523.6661   -3948.2132            0    3875.8393    17.300555    20.377769    21.106637    7441.0757    2803.1211    2592.5705    6231.8263   -139.03022    195.07096    -549.3002   -3103.0582 
 2341000    233.05764   -3939.2253   -3539.7725   -3939.2253            0    3572.7587    17.296775    20.373316    21.102025    7436.1984    5075.3533    2073.6431    3569.2796    961.08756    59.464249    14.723292   -3152.3092 
 2342000    255.39116   -3921.8719   -3484.1402   -3921.8719            0    3806.8892    17.332793    20.415741    21.145967    7482.7505    1966.5252     5897.544    3556.5984   -895.04682    8.0434851    295.93772   -3068.7011 
 2343000    247.13291   -3957.7037   -3534.1264   -3957.7037            0    3076.3928    17.320775    20.401585    21.131305    7467.1962    2633.7325    3871.9399    2723.5059   -532.78864   -693.54881   -1385.3901   -3199.1029 
 2344000    241.12284     -3932.65   -3519.3737     -3932.65            0    5742.7351    17.278696    20.352021    21.079968    7412.9053    5483.7697     7151.351    4593.0844   -1373.2974   -1543.5215     949.3085   -2898.5288 
 2345000    234.00301   -3938.9837   -3537.9105   -3938.9837            0    5016.8031    17.290623     20.36607     21.09452     7428.267    5161.1943    5364.7689    4524.4462    460.94595   -5.5301477    742.02357   -2994.4219 
 2346000    256.20855   -3931.1017    -3491.969   -3931.1017            0    6427.2821    17.259296    20.329171    21.056301    7387.9653    5388.9668    6777.4475     7115.432   -671.71348    629.08486    403.84832   -2799.4558 
 2347000     249.0336   -3941.5332   -3514.6981   -3941.5332            0    4353.5638    17.333829    20.416961    21.147231    7484.0916    2753.6435    4729.8717    5577.1762    1495.6976    375.57643   -1778.2573   -3039.5162 
 2348000    238.93014   -3956.8489   -3547.3308   -3956.8489            0    5524.5335    17.296189    20.372626     21.10131    7435.4433    7080.6209    5627.5989    3865.3806   -1294.4157      86.5555    281.92898   -2948.2597 
 2349000    240.76433   -3923.0422   -3510.3804   -3923.0422            0    5773.8673    17.228811    20.293264     21.01911    7348.8864    5938.4919    6049.1487    5333.9612    28.590926    179.32652    -213.5029   -2891.5605 
 2350000    250.93592   -3960.9667   -3530.8711   -3960.9667            0    3284.2623    17.334087    20.417265    21.147545    7484.4259    5115.4316    2067.2883    2670.0669    131.94478    917.53106   -290.98156   -3172.3851 
 2351000    235.56855   -3936.6127   -3532.8563   -3936.6127            0    5318.5201    17.264662    20.335491    21.062847    7394.8575    4776.8457    4239.2661    6939.4487    1258.0248   -1505.3897     -1832.61    -2959.273 
 2352000    249.19822   -3937.6602    -3510.543   -3937.6602            0    3134.0743    17.362941    20.451251    21.182748    7521.8639    3583.5045    2903.3003     2915.418    162.89252    140.90765   -571.63409   -3166.7392 
 2353000     253.7858   -3938.1774   -3503.1972   -3938.1774            0    3842.5424    17.279994    20.353551    21.081553    7414.5768    4768.2119    4222.4746    2536.9406    1256.9637    852.24361   -551.44899   -3087.6877 
 2354000    248.65782   -3931.5584   -3505.3674   -3931.5584            0    3784.2074    17.242283    20.309132    21.035545    7366.1389    3156.4348    3758.6973    4437.4901    664.69651   -800.69017    409.72454   -3098.8391 
 2355000    250.04574   -3908.5783   -3480.0084   -3908.5783            0    5234.1573    17.266807    20.338018    21.065464    7397.6143    3714.6785    5927.5013     6060.292    1806.4128   -623.25826    1065.3792   -2915.3129 
 2356000    232.78922   -3919.1591   -3520.1664   -3919.1591            0    3957.5723    17.289639     20.36491    21.093319    7426.9984    4503.0207    4638.9361    2730.7601    41.235027   -1214.2413    266.66757   -3091.5013 
 2357000    249.34527   -3943.2705   -3515.9013   -3943.2705            0    4342.9717    17.282836    20.356898    21.085019    7418.2352    3862.2736    5126.7124    4039.9292    8.5793498   -338.99263     670.5045   -3046.0467 
 2358000    245.49849   -3924.8873   -3504.1113   -3924.8873            0    4206.3836    17.315668    20.395569    21.125074    7460.5924    4868.9073    5758.5873    1991.6562    -1229.211    594.38393    551.98944   -3046.4354 
 2359000    242.43168    -3910.233   -3494.7134    -3910.233            0    5809.8861    17.276356    20.349265    21.077114    7409.8946     5039.543    6802.8473     5587.268    483.65345    243.42931   -150.15261   -2866.8639 
 2360000    242.46973   -3921.3804   -3505.7956   -3921.3804            0    5314.9175    17.257226    20.326733    21.053776    7385.3073    4075.4223    6143.5799    5725.7504    188.77471    1598.1065      548.485   -2933.3411 
 2361000    256.26578    -3939.771   -3500.5403    -3939.771            0    4110.3815    17.383048    20.474934    21.207278    7548.0256    3637.1573    5446.6792     3247.308    816.81609    431.26381    925.50109   -3048.0686 
 2362000    239.90885   -3912.5679   -3501.3723   -3912.5679            0    2611.3288    17.351348    20.437596    21.168604    7506.8071    4520.9047    3349.7056   -36.624012    90.490007     67.36616   -303.47853   -3215.4865 
 2363000    244.43183   -3925.0449   -3506.0971   -3925.0449            0    3705.3367    17.344058    20.429009     21.15971    7497.3491    3899.8316    4197.6165    3018.5621   -583.40597    1000.9201    574.87308   -3100.9514 
 2364000    248.62931   -3883.7885   -3457.6464   -3883.7885            0    4017.5159    17.336411    20.420002    21.150381    7487.4366    4010.1004    2663.6561    5378.7913   -751.98002    185.14466    263.84238   -3018.9474 
 2365000    243.89012   -3889.0058   -3470.9865   -3889.0058            0    4111.1475    17.366717    20.455699    21.187354    7526.7723    5546.3692    4428.6645    2358.4087   -70.506096    862.96582   -1324.7467   -3019.7048 
 2366000    235.75342   -3928.0052   -3523.9319   -3928.0052            0    5581.7014    17.335386    20.418795    21.149131    7486.1095    8698.9844    3224.9907     4821.129   -186.51736    322.58785    1044.8461   -2914.5372 
 2367000    235.39563   -3938.2212   -3534.7611   -3938.2212            0    4094.6932    17.380591     20.47204     21.20428    7544.8251    3133.5764    2918.2948    6232.2083     650.6826   -90.305301   -290.79068   -3084.2076 
 2368000    237.90979   -3961.0523   -3553.2831   -3961.0523            0    3818.4612    17.343583     20.42845    21.159131    7496.7339    4918.1751    2695.1823    3842.0263   -317.54516    552.66942    316.18858   -3135.8024 
 2369000     249.6515   -3953.2103   -3525.3162   -3953.2103            0    5237.0272    17.363849     20.45232    21.183855    7523.0432    6564.1104    2854.2555    6292.7156   -306.22023    713.73375   -533.41694   -2950.7312 
 2370000    243.04004   -3955.5152   -3538.9529   -3955.5152            0    3987.1021    17.382798     20.47464    21.206973    7547.7006    2913.4756    4859.8814    4187.9493   -866.05043    666.25055    12.454233   -3100.0707 
 2371000    235.75581   -3949.4017   -3545.3243   -3949.4017            0    4159.2576     17.37225    20.462215    21.194104    7533.9681    5399.5672    2334.6421    4743.5635     -860.446    101.65422     -5.46818    -3088.325 
 2372000    248.48165   -3916.6328   -3490.7437   -3916.6328            0     4490.534    17.305649    20.383769    21.112851      7447.65    5409.5571    3783.0297    4279.0151    641.78587   -1827.7507    -138.2182   -3002.9984 
 2373000    235.29182   -3970.2224   -3566.9403   -3970.2224            0    2295.5818     17.38168    20.473323    21.205609    7546.2441    888.18633    2638.9804    3359.5785    239.29996    919.85423    376.37912   -3314.3018 
 2374000    247.13114   -3918.4704   -3494.8961   -3918.4704            0    6319.2984     17.26012    20.330141    21.057306    7389.0226    7486.7462     5389.181    6081.9679    582.55053   -20.736027   -1325.5777   -2813.9202 
 2375000    257.69697   -3911.8776   -3470.1938   -3911.8776            0     6165.029    17.317297    20.397488    21.127061    7462.6981    6811.1425    4935.4174    6748.5272    169.58619     164.4711   -1037.7884   -2799.2179 
 2376000    229.41687   -3877.1484   -3483.9357   -3877.1484            0    4450.8408    17.242391    20.309259    21.035677    7366.2776    3981.2369    5217.3798    4153.9057    122.62253     253.5543   -496.84693   -3005.7837 
 2377000    253.92548   -3940.4575   -3505.2379   -3940.4575            0    5092.1511    17.267527    20.338866    21.066343      7398.54    4855.2838    5640.8107    4780.3587   -1077.9362   -1726.9042   -402.90647   -2955.7942 
 2378000    247.66407   -3935.6468    -3511.159   -3935.6468            0    5587.7104    17.299373    20.376376    21.105195    7439.5503     5165.642    5622.2072    5975.2822    1736.0512   -2450.0527   -63.814466   -2904.9024 
 2379000    250.34813   -3916.3543   -3487.2662   -3916.3543            0    2475.5818     17.45664    20.561616     21.29706    7644.2969    1340.1604    4622.4175    1464.1676   -848.59824   -311.45007   -1082.6523   -3211.2779 
 2380000    230.60661   -3928.6832   -3533.4313   -3928.6832            0    5893.3447    17.308281    20.386869    21.116063    7451.0491    5251.2085    6611.3551    5817.4706   -430.49397    -1043.241    528.57444   -2893.0257 
 2381000    241.69121    -3951.414   -3537.1635    -3951.414            0    5263.9003     17.26733    20.338634    21.066103    7398.2872    4088.5222    5352.0274    6351.1512   -163.60811    -306.6679    265.88189   -2969.2075 
 2382000    235.92785   -3884.3207   -3479.9485   -3884.3207            0    5202.4897    17.375701     20.46628    21.198314    7538.4589    7382.2885    4431.6083    3793.5722   -27.898972    682.00412   -1894.0022   -2907.9832 
 2383000    245.99894   -3948.4934   -3526.8597   -3948.4934            0    4857.4554    17.331477    20.414191    21.144362    7481.0461    5824.9866    4479.7354    4267.6441   -647.51424    272.12477    192.55844   -2996.8949 
 2384000    236.50387   -3951.8647   -3546.5051   -3951.8647            0    4941.2162     17.25133    20.319788    21.046582    7377.7398    3157.8563    7154.7277    4511.0646   -1821.1575    1705.8499    333.61146   -3014.8463 
 2385000    229.94607   -3947.9046   -3553.7849   -3947.9046            0    5668.3747    17.235731    20.301415    21.027552    7357.7452    5319.2441    6505.6711    5180.2089    359.23292    864.05592    131.63536    -2945.539 
 2386000    229.72654   -3916.2556   -3522.5122   -3916.2556            0    4200.3382    17.266872    20.338094    21.065543    7397.6978    5460.2353     3574.261    3566.5185    464.21851   -415.76086   -1220.3541   -3069.3468 
 2387000    234.01412   -3927.1274   -3526.0352   -3927.1274            0    5174.7343    17.152593    20.203489    20.926124    7251.7859    5165.3785    5566.6612    4792.1633   -496.71851    202.98433   -1553.9135   -2978.7561 
 2388000    248.25802   -3934.5074   -3509.0016   -3934.5074            0    3814.4116    17.277487    20.350598    21.078494    7411.3504    3576.0153    4179.8574    3687.3621   -1088.1608   -1192.3447    268.70601   -3096.7135 
 2389000    229.06979   -3955.8121   -3563.1944   -3955.8121            0    2026.1293    17.288922    20.364066    21.092444    7426.0748     2093.592    2329.1433    1655.6526   -923.80941    351.10103    534.74549   -3343.7611 
 2390000    248.84798   -3971.9939    -3545.477   -3971.9939            0    4446.1281    17.297067    20.373661    21.102382    7436.5759    4138.3384    4973.5542    4226.4918    129.34343    291.73545    213.91239   -3063.2729 
 2391000    241.26129   -3944.0033   -3530.4898   -3944.0033            0    3699.2737    17.271512     20.34356    21.071205    7403.6639    3192.0027    3802.8652    4102.9532    656.42464   -68.854839    168.28905   -3131.0613 
 2392000    239.59349   -3961.2886   -3550.6335   -3961.2886            0    3758.2987    17.322054    20.403092    21.132866    7468.8505    3342.9224    3081.6551    4850.3187    333.95903    -916.0032    1578.4301   -3141.2589 
 2393000    235.12848   -3950.7931   -3547.7909   -3950.7931            0    4902.8552    17.289651    20.364925    21.093334    7427.0143    6106.6504    4258.5468    4343.3685   -125.32102   -1784.5037   -15.283281   -3016.7362 
 2394000    239.16217   -3953.4119   -3543.4961   -3953.4119            0    4357.3526    17.309134    20.387873    21.117103    7452.1503    3999.5422    4340.8022    4731.7133    1061.3064   -1031.4651    983.86406   -3069.9305 
 2395000    265.26732   -3966.9307   -3512.2716   -3966.9307            0    6822.2245    17.330191    20.412675    21.142792    7479.3802    6609.8489    6825.7587    7031.0659    1412.6742   -148.43288    630.98062   -2768.1095 
 2396000    229.17469   -3945.4101   -3552.6125   -3945.4101            0    4975.6042      17.3078    20.386302    21.115475     7450.427    6356.9957    3299.0172    5270.7997   -788.26347    1130.0959    1059.6072   -3011.9791 
 2397000    227.44529    -3931.276   -3541.4425    -3931.276            0    6209.6236     17.27839    20.351661    21.079596    7412.5123    4526.3276    7373.2187    6729.3244    128.87313    1323.4502    865.22539   -2870.1581 
 2398000    232.28215   -3945.2109   -3547.0872   -3945.2109            0      4450.61    17.404077    20.499704    21.232933    7575.4523    3738.6444    6671.4682    2941.7173   -86.493426    1980.6133    520.85364   -3055.3829 
 2399000    253.70665   -3930.0641   -3495.2196   -3930.0641            0    5268.4377    17.307965    20.386496    21.115677    7450.6404    4157.3679    5431.9066    6216.0387   -1541.7311     905.1111    361.56072   -2922.7514 
 2400000    236.59528   -3957.2001   -3551.6839   -3957.2001            0    4073.7814    17.361264    20.449276    21.180701    7519.6843    3367.7026    3840.1809    5013.4605   -1239.5334    391.77562    -1657.786    -3104.925 
 2401000    246.73414   -3934.1514   -3511.2575   -3934.1514            0    5643.0812    17.323496     20.40479    21.134625    7470.7157    5712.5023    5356.5279    5860.2133    -2125.743    238.89658    575.80816   -2896.4284 
 2402000    225.76468   -3947.5234   -3560.5704   -3947.5234            0    4142.4488    17.318749    20.399199    21.128833    7464.5759    4367.4717    3218.2153    4841.6594   -753.86271    207.83128   -207.26437   -3109.6103 
 2403000    243.27706   -3952.5579   -3535.5893   -3952.5579            0    4297.3844    17.329838     20.41226    21.142362    7478.9236    4778.9423    3703.5534    4409.6575   -234.62728    1377.7002   -62.570956   -3066.8632 
 2404000    235.96013   -3978.0855    -3573.658   -3978.0855            0    5093.1074    17.325514    20.407167    21.137086    7473.3264     5652.832    4003.1175    5623.3726   -595.72711   -2008.4411   -1191.8441   -3018.5561 
 2405000    240.59725    -3959.209   -3546.8336    -3959.209            0      5559.64    17.317245    20.397428    21.126999    7462.6319    4464.1219    5731.2712    6483.5269    517.37919     33.19708   -533.53821   -2941.7511 
 2406000    232.03819    -3976.624   -3578.9185    -3976.624            0    5268.7212    17.299213    20.376188    21.104999    7439.3436    3946.6288    5529.8829    6329.6518    417.85789   -1475.8806    279.78598   -3007.2875 
 2407000    238.02791   -3960.2329   -3552.2612   -3960.2329            0    3787.9629    17.347232    20.432748    21.163582    7501.4659     4468.744    3613.9977    3281.1471   -10.094454   -374.15349   -839.33985   -3137.8535 
 2408000    236.89359   -3934.3299   -3528.3024   -3934.3299            0    4773.1256    17.325879    20.407597    21.137532    7473.7991    4491.1877     3836.108    5992.0811   -1039.8043    366.94694   -192.30366   -3008.0428 
 2409000     240.8667   -3944.5205   -3531.6832   -3944.5205            0    5693.6288    17.286699    20.361448    21.089733     7423.211    4749.7295    6425.8846    5905.2723   -428.90761    5.3459144    102.39465   -2915.2914 
 2410000    250.31012   -3924.8477   -3495.8247   -3924.8477            0    4663.8433    17.368237    20.457488    21.189208     7528.748    5645.3677    2921.7315    5424.4306   -404.14323    291.58546   -299.84439    -2983.739 
 2411000    239.06481   -3945.1716   -3535.4227   -3945.1716            0    4280.8134    17.328122    20.410239    21.140268    7476.7022    4704.4649    3908.9566    4229.0187    227.72491    79.222559    734.38506   -3068.6427 
 2412000     238.0828   -3930.1823   -3522.1166   -3930.1823            0    3614.9829    17.371943    20.461854     21.19373    7533.5691    3965.5011    3090.3757    3789.0719    358.59609   -574.79864   -178.87438   -3124.9406 
 2413000    243.50398   -3935.9902   -3518.6328   -3935.9902            0    4938.7476      17.3299    20.412333    21.142437    7479.0033    4474.8486    4589.2451    5752.1492   -743.37528   -207.07058   -284.81202   -2979.9458 
 2414000    248.21193   -3954.4776   -3529.0509   -3954.4776            0    5391.9892    17.299038    20.375982    21.104786    7439.1182    5641.4573    6058.3474     4476.163    1942.5983   -601.91158    408.93339   -2944.0637 
 2415000    243.33925   -3947.3023   -3530.2271   -3947.3023            0    3593.9118      17.3009    20.378174    21.107057    7441.5199    4481.8702    3260.9428    3038.9224    221.06989   -982.59623     281.9547   -3140.1909 
 2416000    240.32211   -3910.6617   -3498.7579   -3910.6617            0    3946.0555    17.273233    20.345587    21.073304    7405.8766    3936.5202    3057.0939    4844.5525   -625.37856    34.431944    132.23859   -3072.5558 
 2417000    224.64966   -3927.0822   -3542.0404   -3927.0822            0    5022.2411    17.220384    20.283338    21.008829     7338.108    6590.0875    2975.7831    5500.8527   -776.80554   -692.59008     192.8329   -3004.5663 
 2418000    255.28427   -3926.4321   -3488.8837   -3926.4321            0    5417.4234    17.275103     20.34779    21.075586    7408.2827     4703.513    7986.5431     3562.214   -132.65525    19.069303     -570.789   -2903.5733 
 2419000    239.13154   -3909.1481   -3499.2848   -3909.1481            0    4443.8453    17.338711    20.422711    21.153187    7490.4172     2403.682    6016.3176    4911.5363    450.37416    592.18843   -388.90222   -3013.8389 
 2420000    255.14765   -3954.3825   -3517.0682   -3954.3825            0    2145.5277    17.384405    20.476533    21.208934    7549.7941    2800.6921    1176.3291    2459.5618   -791.59012   -668.65642   -918.53712   -3280.8327 
 2421000    243.26389    -3957.272    -3540.326    -3957.272            0    4402.1053     17.29206    20.367763    21.096273    7430.1197    2758.1485    6672.8821    3775.2855    1556.9718    1313.5412     506.7498   -3063.3109 
 2422000    236.13226    -3948.634   -3543.9113    -3948.634            0    4487.3381    17.305227    20.383271    21.112336    7447.1049    5130.5393    4451.5507    3879.9244    415.95865   -1066.9611   -880.25292   -3056.5488 
 2423000    236.11273   -3940.6617   -3535.9725   -3940.6617            0    6896.0136    17.214129     20.27597    21.001197    7330.1144     6386.098    7272.9488     7028.994     2171.926    617.95713    475.97816   -2798.7735 
 2424000    240.77294   -3953.4957   -3540.8191   -3953.4957            0    4414.3007    17.246052    20.313571    21.040143    7370.9701    4977.5349    3608.0035    4657.3637    1508.1369    1302.8912   -379.62261   -3066.2904 
 2425000    247.12518   -3933.8406   -3510.2765   -3933.8406            0    5470.1114     17.20701    20.267585    20.992512    7321.0236    5380.9443    4886.9481    6142.4417   -182.26406    248.73335    1062.2331   -2926.2348 
 2426000    250.25168   -3953.5648    -3524.642   -3953.5648            0    7765.6919    17.086427    20.125554    20.845401    7168.1874    7682.4892    7254.3934    8360.1931   -471.33329   -122.99847   -1339.8114   -2712.8114 
 2427000    249.61779   -3917.4431   -3489.6067   -3917.4431            0    5525.7317    17.158512    20.210461    20.933345    7259.2953    2974.5638    5312.7659    8289.8653    393.41674    862.83645    565.49934   -2904.6009 
 2428000    258.56232   -3940.6565   -3497.4895   -3940.6565            0    3391.5801    17.183577    20.239984    20.963924    7291.1549    3752.9088    2362.8096     4059.022    1836.3231    309.82269    822.25127   -3136.8492 
 2429000    236.13731   -3943.6327   -3538.9015   -3943.6327            0    4083.7343    17.265897    20.336946    21.064354    7396.4449    3319.5309    4685.2356    4246.4364   -589.21496     373.6705   -524.70933   -3098.3908 
 2430000    228.75762   -3911.2421   -3519.1594   -3911.2421            0    4496.9775    17.317672     20.39793    21.127519    7463.1829    5215.4333    4512.2453     3763.254   -1374.9221    748.75567    417.50314   -3029.6954 
 2431000    252.07362   -3938.4254   -3506.3799   -3938.4254            0    3625.8395    17.248718    20.316711    21.043395    7374.3886    2096.2616    5181.3073    3599.9495     390.6478   -673.48319   -1387.8859   -3116.4285 
 2432000    261.39351   -3917.6243   -3469.6048   -3917.6243            0    4428.5299    17.221146    20.284236    21.009758    7339.0824    3356.1154    4229.0728    5700.4015   -315.77272    838.39724     629.2762    -2995.606 
 2433000    237.41472   -3949.7945   -3542.8738   -3949.7945            0     4416.233    17.180427    20.236274    20.960081    7287.1458    5317.2009    4644.5645    3286.9335   -796.23298     2524.478   -165.01622   -3073.5362 
 2434000    248.99982   -3962.1505   -3535.3733   -3962.1505            0    5162.8706    17.149981    20.200412    20.922936    7248.4725    4709.0442    4955.1285    5824.4391    208.83249   -416.84409    549.03112   -2989.5983 
 2435000    249.05837   -3925.0014   -3498.1238   -3925.0014            0    5880.2857    17.269806     20.34155    21.069123    7401.4699    5900.0961    5744.5213    5996.2398    982.32111    941.95021   -382.50572   -2863.3891 
 2436000    247.70924   -3924.9478   -3500.3826   -3924.9478            0    2815.4606    17.257822    20.327435    21.054503    7386.0723    2649.3405    3354.9353     2442.106   -482.26846    85.099168   -272.31351    -3197.106 
 2437000    241.69122   -3939.8354   -3525.5849   -3939.8354            0    2627.3234    17.321567    20.402518    21.132272     7468.221    1186.1227    3812.8078    2883.0398    976.50888   -295.16888   -1171.1823   -3239.4264 
 2438000    254.23742   -3893.6647   -3457.9104   -3893.6647            0    6419.3324    17.293803    20.369816      21.0984    7432.3667    7492.9295    6564.9371    5200.1305    -1209.885    857.89605   -1041.9871   -2762.0969 
 2439000    242.90508   -3936.6515   -3520.3205   -3936.6515            0    6052.0613     17.26167    20.331968    21.059198    7391.0145     5699.817    7061.3964    5394.9704    357.60218     1650.758   -1304.3297   -2867.9666 
 2440000    247.26877   -3897.4898   -3473.6796   -3897.4898            0    4593.5826    17.339322    20.423431    21.153933    7491.2096    2700.2255    5909.8375    5170.6847    -539.9231   -791.66735   -378.87406   -2971.8233 
 2441000    245.32855    -3913.507   -3493.0223    -3913.507            0    4819.2168    17.328918    20.411177     21.14124    7477.7331    4722.3881    5550.0634     4185.199   -362.18902    843.09114    1337.0865   -2967.4623 
 2442000    245.84177   -3911.0819   -3489.7175   -3911.0819            0     6689.114    17.245207    20.312576    21.039112    7369.8867    7112.6113     5904.069    7050.6618    -501.8972    263.41771   -1465.1123   -2770.7565 
 2443000    248.16586   -3907.2638    -3481.916   -3907.2638            0    4160.5938    17.310122    20.389038    21.118309     7453.427    2482.6419    4475.8944    5523.2451    1463.6604    -63.67759    179.11211    -3029.657 
 2444000     248.4077   -3902.7753    -3477.013   -3902.7753            0    4790.7146    17.279731    20.353241    21.081231    7414.2379    5436.5698     4029.534    4906.0401   -879.28897     557.8742    989.72115   -2958.9976 
 2445000    241.03322   -3923.6333   -3510.5106   -3923.6333            0     5181.898    17.219075    20.281796    21.007231    7336.4342    4979.8664    5305.8202    5260.0075    247.94372    857.95605    38.687272   -2956.0767 
 2446000    247.91116   -3934.4288   -3509.5175   -3934.4288            0    5748.8924    17.262013    20.332371    21.059616    7391.4547    5756.8866    4576.7051    6913.0854    597.11893   -594.87154   -28.486269   -2889.8054 
 2447000    240.10232   -3920.1012   -3508.5741   -3920.1012            0    4104.5975    17.259391    20.329282    21.056416    7388.0863    3561.2207    4824.0204    3928.5515    815.88201    1457.5082    1605.8026   -3066.3133 
 2448000    240.82215   -3917.0692   -3504.3083   -3917.0692            0    4888.5383    17.296132    20.372559     21.10124    7435.3693    3886.3493    3713.9028    7065.3628   -1647.1348    277.61222    1554.0732   -2974.2087 
 2449000    251.91044   -3918.6445   -3486.8786   -3918.6445            0    3448.2143    17.329166    20.411469    21.141542    7478.0536    3843.1498    2255.5956    4245.8973   -325.67312    150.52543    141.39607   -3110.8172 
 2450000    241.08854   -3917.8397   -3504.6222   -3917.8397            0     4611.783    17.280619    20.354287    21.082315    7415.3817    3970.6769    5459.8524    4404.8199   -192.22174    736.58512    1099.2098   -3005.8775 
 2451000    240.81112    -3915.219    -3502.477    -3915.219            0    5077.3749    17.346223    20.431559    21.162351    7500.1568    5624.7461    7209.3385    2398.0401   -809.23679   -1265.6251    505.31594   -2947.1031 
 2452000    249.09914   -3920.5696   -3493.6222   -3920.5696            0    3045.8684    17.390778    20.484039    21.216708    7558.0996    3523.7025    2816.2157    2797.6868   -1599.1476    603.27001   -533.00485   -3157.8849 
 2453000    232.51338   -3932.7521   -3534.2321   -3932.7521            0    4383.4635    17.330896    20.413506    21.143653    7480.2937    5727.0159    4702.9461    2720.4285   -695.25656    -855.3094    386.35497   -3056.0295 
 2454000    235.10348   -3938.5156   -3535.5562   -3938.5156            0    3898.5126    17.402017    20.497278    21.230421    7572.7634    5283.5756    2365.4484    4046.5137   -151.50524    2050.8978    1633.2783   -3105.0007 
 2455000      244.937   -3956.6313   -3536.8176   -3956.6313            0    4261.5909    17.393543    20.487297    21.220082    7561.7059    5005.4443    3699.6038    4079.7247   -471.83275    82.223545    630.98422   -3066.8506 
 2456000    236.66499   -3936.1647    -3530.529   -3936.1647            0     3897.117    17.284242    20.358554    21.086735    7420.0461    4535.0447    3943.3528    3212.9535    -1299.016   -898.13543    1350.7792   -3108.8073 
 2457000    238.65569   -3933.8684   -3524.8207   -3933.8684            0    5058.6123    17.316204    20.396201    21.125728    7461.2855    3647.7835     6808.044    4720.0093   -573.52706   -610.13039     159.6288   -2974.3668 
 2458000    241.66476   -3919.1859   -3504.9808   -3919.1859            0    4601.4044    17.322464    20.403574    21.133365    7469.3805    4501.8761    3070.8003    6231.5367   -760.16631   -784.45393   -6.2572652   -3003.7349 
 2459000    247.15573   -3939.8403   -3516.2238   -3939.8403            0    3578.4182    17.359791    20.447541    21.178905    7517.7706    4498.0866    2696.6372    3540.5309     1096.213    -46.17438    276.32884   -3123.8897 
 2460000    256.59482   -3928.2967    -3488.502   -3928.2967            0    5776.8229    17.229873    20.294514    21.020404    7350.2445    6267.3282    7248.6191    3814.5214   -1372.7744     1355.534   -842.94784    -2869.251 
 2461000    247.27957   -3974.0694   -3550.2407   -3974.0694            0    4986.5629    17.330484    20.413021     21.14315    7479.7602    5406.6515    4041.5311    5511.5062   -1028.6595    2190.6293     1041.489   -3006.2833 
 2462000     249.4645   -3959.2926    -3531.719   -3959.2926            0    2510.4716    17.369744    20.459264    21.191047    7530.7084    4064.7956    1531.8703    1934.7488    338.69283     276.1987   -737.75258   -3255.9998 
 2463000    246.38855   -3913.6043   -3491.3028   -3913.6043            0    3759.0483    17.326342    20.408143    21.138097    7474.3988    4461.4455    3880.7446    2934.9548   -1045.6577    -314.0861   -1640.9306   -3081.5423 
 2464000    241.70966   -3942.2492   -3527.9671   -3942.2492            0    3330.1709    17.323216     20.40446    21.134283    7470.3533    3215.9486    5034.5809    1739.9831   -740.17454    309.92238   -1186.5088   -3165.1535 
 2465000    234.79434    -3989.695   -3587.2656    -3989.695            0     3045.235    17.318877    20.399349    21.128989     7464.741    3141.7621    3206.3296    2787.6132    245.10842    14.176668    206.49871   -3255.7443 
 2466000    243.37243   -3937.4969   -3520.3649   -3937.4969            0    6126.1191    17.184209    20.240729    20.964695    7291.9595    5596.9081    6303.7513    6477.6977    508.60677    1349.5094   -543.10275   -2868.8782 
 2467000    239.88266    -3943.596   -3532.4454    -3943.596            0    4484.7764    17.213789    20.275569    21.000782    7329.6798    4274.4552    4207.8937    4971.9804    -1025.485    209.58109   -516.10776   -3053.0413 
 2468000    255.41089   -3946.3823   -3508.6168   -3946.3823            0    3423.7159    17.262222    20.332618    21.059871    7391.7236    4482.3028    1736.2061    4052.6389   -455.45012   -297.43946   -728.06023   -3139.5378 
 2469000    242.97144   -3900.3762   -3483.9315   -3900.3762            0    5497.6893    17.218651    20.281297    21.006714    7335.8926    5557.3287    5945.7833     4989.956   -327.78842    -1189.512    340.68712   -2895.7531 
 2470000    246.01356   -3946.5684   -3524.9096   -3946.5684            0    4771.4385    17.169024    20.222842    20.946169    7272.6451    4930.0165    4813.1674    4571.1317   -757.60117   -462.21883    817.49763   -3018.8314 
 2471000    254.64398   -3941.7573   -3505.3062   -3941.7573            0    2969.5442    17.284983    20.359427    21.087639    7421.0007    3397.1036    2345.0554    3166.4736   -1048.8592     935.4156   -1690.2574   -3183.9194 
 2472000    239.45257   -3942.9101   -3532.4966   -3942.9101            0    3618.7978     17.30957    20.388387    21.117635    7452.7135    3090.4649    3931.6018    3834.3267    -652.9031    1004.5665    218.55171   -3139.1688 
 2473000    240.74016    -3921.167   -3508.5466    -3921.167            0     4575.538    17.255507    20.324708    21.051678    7383.1003    3713.4503    3791.3638    6221.7998   -1847.0315    645.76331   -1226.6096   -3015.8758 
 2474000    247.39862   -3911.4113   -3487.3786   -3911.4113            0    4065.6709    17.315344    20.395188    21.124679    7460.1743    2815.1618    5425.4692    3956.3818   -226.31825    816.42276   -204.51265   -3045.0377 
 2475000    231.56291   -3895.8537   -3498.9628   -3895.8537            0    4009.0119    17.282725    20.356767    21.084884     7418.092    2770.1176      3456.32    5800.5983   -132.69376   -243.77801    765.04043   -3065.2467 
 2476000    245.18456   -3924.0649   -3503.8269   -3924.0649            0    5758.7799    17.174194    20.228932    20.952476    7279.2168    4958.6547    4878.1536    7439.5315    176.37529    2626.9722     185.0874   -2892.4754 
 2477000    257.40072   -3902.9498   -3461.7738   -3902.9498            0    6366.1447    17.206474    20.266954    20.991858    7320.3401    5722.9698    6442.8063     6932.658    441.18968   -754.35291    109.15876   -2782.1264 
 2478000    240.15084   -3902.2116   -3490.6013   -3902.2116            0    4426.1072    17.254372    20.323371    21.050293    7381.6432    5418.9233    3740.2028    4119.1955    696.25291    392.40149    1169.8842   -3014.1145 
 2479000    247.70991   -3917.7956   -3493.2293   -3917.7956            0    4715.7565     17.28341    20.357574     21.08572    7418.9751     3505.751    6393.9551    4247.5634   -648.33769   -30.786723   -600.86604   -2982.9932 
 2480000    253.34229    -3909.582    -3475.362    -3909.582            0    3534.0548    17.301448     20.37882    21.107726    7442.2272    3126.0082    3146.7946    4329.3615     211.4498    943.01873   -652.12123   -3091.7854 
 2481000    250.32335   -3903.5552   -3474.5096   -3903.5552            0    3289.1819     17.32067    20.401461    21.131176    7467.0597    1287.0246    4353.2992     4227.222   -602.85179    5.1437283   -382.68676   -3116.3196 
 2482000    241.76681   -3901.9575   -3487.5775   -3901.9575            0    3677.2749    17.314065    20.393682    21.123119    7458.5214    4749.5661    3967.0291    2315.2294   -150.52267    128.36575   -284.85529   -3087.5823 
 2483000    236.58809   -3916.8026   -3511.2987   -3916.8026            0    5374.0575    17.176534    20.231689    20.955332    7282.1935    6041.5074    5242.9434    4837.7219    1444.1966   -700.69148   -993.08737    -2940.556 
 2484000    260.20721    -3933.656   -3487.6697    -3933.656            0    4175.7693    17.210603    20.271817    20.996896    7325.6113    3852.0488    3882.1426    4793.1164    1080.4484    1440.4281    566.92567    -3041.545 
 2485000     234.2659   -3934.1117   -3532.5879   -3934.1117            0    5093.7272    17.281849    20.355736    21.083816    7416.9648    6160.5082    4692.7016    4427.9718    1150.0938    313.96108    317.84567   -2981.6055 
 2486000    241.83475   -3918.7497   -3504.2532   -3918.7497            0    6746.8811    17.193166    20.251279    20.975623     7303.368     6198.605    8176.7024    5865.3359   -722.17281    149.49558    37.551375   -2785.6285 
 2487000    249.34559   -3930.7741   -3503.4043   -3930.7741            0    3989.2146    17.241299    20.307973    21.034345    7364.8781       4346.8    4465.8855    3154.9583    1572.2508     2363.553     87.22317   -3074.9259 
 2488000    241.95366   -3918.7543    -3504.054   -3918.7543            0    5016.9193    17.228226    20.292574    21.018395    7348.1373    4044.1702    6132.3655    4874.2223    1141.2705       544.01    332.74406   -2966.4156 
 2489000    238.44361   -3927.8539   -3519.1697   -3927.8539            0    3625.5736    17.254854    20.323939    21.050882    7382.2626    3656.9286    2499.0527    4720.7394    786.75657   -204.83268    909.90006   -3128.8306 
 2490000    239.96338   -3897.2877   -3485.9987   -3897.2877            0    6376.6901    17.266329    20.337455    21.064881    7397.0001    6893.4226    6177.0501    6059.5977    -780.6834    196.59715    520.88994   -2798.0963 
 2491000    248.81046   -3944.0315   -3517.5789   -3944.0315            0     6131.349    17.242103     20.30892    21.035326    7365.9086    8143.3376    5234.8448    5015.8647   -672.95037   -678.49066   -665.47862   -2858.9235 
 2492000    252.92619   -3938.4523   -3504.9454   -3938.4523            0    2609.9711    17.333626    20.416722    21.146983     7483.829    4868.7821    3442.7451   -481.61389   -163.39777    1022.3466    47.937638   -3220.0828 
 2493000    256.08802   -3926.2028   -3487.2767   -3926.2028            0    6102.9512    17.258651    20.328411    21.055514    7387.1366    6027.3496    7328.1526    4953.3515    652.49019    367.84141    28.952351   -2829.7825 
 2494000    261.56531   -3960.7112   -3512.3972   -3960.7112            0    5446.9425    17.262423    20.332854    21.060116    7391.9811    5958.2595    5984.4582    4398.1098   -29.173555   -468.08374   -790.23327   -2925.1925 
 2495000    264.42101   -3929.5477   -3476.3391   -3929.5477            0    4514.7353    17.262506    20.332952    21.060217    7392.0877    3624.6484    5201.4193    4718.1381   -958.82686    659.97823   -2059.9712   -2989.6235 
 2496000      240.822   -3912.7485   -3499.9878   -3912.7485            0    4800.6099    17.236792    20.302664    21.028846    7359.1036    5646.9268    3902.2362    4852.6667   -1087.2078   -52.147077    616.38973   -2984.7625 
 2497000    239.07326   -3910.5245   -3500.7611   -3910.5245            0    4177.1915    17.359508    20.447207    21.178559    7517.4022    4785.0701    3482.2693     4264.235   -53.652162   -82.145128    44.377173   -3042.8006 
 2498000    249.82285   -3901.4985   -3473.3107   -3901.4985            0    3981.2175    17.368729    20.458069    21.189809    7529.3887    3925.4212    4621.8002    3396.4313   -180.33431   -223.55314   -1191.1723   -3036.1396 
 2499000    228.09384   -3926.9336   -3535.9886   -3926.9336            0    3772.3432    17.301622    20.379025    21.107938    7442.4519    5632.5868      3586.03    2098.4128    402.89331   -5.1015787   -24.855212   -3126.5365 
 2500000    248.99768   -3896.8922   -3470.1187   -3896.8922            0    3431.9902    17.303669    20.381436    21.110435    7445.0937    4074.1546    900.38797    5321.4281    -614.5508   -133.91883   -308.99077   -3097.4764 
Loop time of 455.139 on 64 procs for 250000 steps with 864 atoms

Performance: 94.916 ns/day, 0.253 hours/ns, 549.282 timesteps/s
99.1% CPU use with 64 MPI tasks x 1 OpenMP threads

MPI task timing breakdown:
Section |  min time  |  avg time  |  max time  |%varavg| %total
---------------------------------------------------------------
Pair    | 20.624     | 25.574     | 31.593     |  47.4 |  5.62
Bond    | 0.26666    | 0.28375    | 0.29965    |   1.3 |  0.06
Kspace  | 201.45     | 210.2      | 221.72     |  29.6 | 46.18
Neigh   | 4.271      | 5.1713     | 6.1848     |  19.1 |  1.14
Comm    | 92.644     | 103.04     | 113.58     |  42.0 | 22.64
Output  | 1.3164     | 1.3206     | 1.3313     |   0.5 |  0.29
Modify  | 99.171     | 102.74     | 107.51     |  18.5 | 22.57
Other   |            | 6.806      |            |       |  1.50

Nlocal:        13.5000 ave          19 max           8 min
Histogram: 4 4 5 7 9 12 11 7 3 2
Nghost:        2161.97 ave        2197 max        2121 min
Histogram: 3 3 6 7 10 4 14 7 5 5
Neighs:        4150.91 ave        6092 max        2433 min
Histogram: 4 5 9 7 12 7 7 7 5 1

Total # of neighbors = 265658
Ave neighs/atom = 307.47454
Ave special neighs/atom = 2.0000000
Neighbor list builds = 12136
Dangerous builds = 0

unfix		3
unfix		2
unfix		1

write_data	data.final.${pid}
write_data	data.final.0
System init for write_data ...
PPPM initialization ...
  extracting TIP4P info from pair style
  using 12-bit tables for long-range coulomb (../kspace.cpp:340)
  G vector (1/distance) = 0.37424214
  grid = 24 24 25
  stencil order = 5
  estimated absolute RMS force accuracy = 0.0030740418
  estimated relative force accuracy = 9.2573857e-06
  using double precision FFTW3
  3d grid and FFT values/proc = 2730 288
Last active /omp style is kspace_style pppm/tip4p/omp
WARNING: Not all mixed pair coeffs generated from mixing. Use write_data with 'pair ij' option to store all pair coeffs. (../write_data.cpp:312)

write_restart   restart.lmp.${pid}
write_restart   restart.lmp.0
System init for write_restart ...
PPPM initialization ...
  extracting TIP4P info from pair style
  using 12-bit tables for long-range coulomb (../kspace.cpp:340)
  G vector (1/distance) = 0.37424214
  grid = 24 24 25
  stencil order = 5
  estimated absolute RMS force accuracy = 0.0030740418
  estimated relative force accuracy = 9.2573857e-06
  using double precision FFTW3
  3d grid and FFT values/proc = 2730 288
Last active /omp style is kspace_style pppm/tip4p/omp
Total wall time: 0:07:37
