LAMMPS (30 Jul 2021)
  using 1 OpenMP thread(s) per MPI task
package omp 0
using multi-threaded neighbor list subroutines
echo both

include		in.partitions
variable        pid world 0
include		in.temp
variable        temperature equal 249.16
variable	tempDamp equal 100.0
include		in.pressure
variable        pressure equal 4875.0
variable        pressureDamp equal 1000.0 # This is 1 ps
include		in.seed
variable        seed world 745823

units		real
atom_style	full
read_restart	restart.lmp.${pid}
read_restart	restart.lmp.0
Reading restart file ...
  restart file = 30 Jul 2021, LAMMPS = 30 Jul 2021
  restoring atom style full from restart
  orthogonal box = (0.46917147 1.6441533 0.57238810) to (17.738401 21.985025 21.640808)
  4 by 4 by 4 MPI processor grid
  restoring pair style lj/cut/tip4p/long/omp from restart
  restoring bond style harmonic/omp from restart
  restoring angle style harmonic/omp from restart
  864 atoms
  576 bonds
  288 angles
Finding 1-2 1-3 1-4 neighbors ...
  special bond factors lj:    0        0        0       
  special bond factors coul:  0        0        0       
     2 = max # of 1-2 neighbors
     1 = max # of 1-3 neighbors
     1 = max # of 1-4 neighbors
     2 = max # of special neighbors
  special bonds CPU = 0.808 seconds
  read_restart CPU = 1.016 seconds
include 	in.setup
variable	out_freq equal 1000
variable	out_freq2 equal 10000
variable	out_freq3 equal 1000

timestep	2.0

neigh_modify    delay 7 every 1

include		in.tip4p
# This is TIP4P/Ice

# create groups ###
group ox type 2
288 atoms in group ox
group hy type 1
576 atoms in group hy

# set charges - beside manually ###
set group ox charge -1.1794
Setting atom values ...
  288 settings made for charge
set group hy charge 0.5897
Setting atom values ...
  576 settings made for charge

# ### TIP3P Potential Parameters ###
pair_style lj/cut/tip4p/long/omp 2 1 1 1 0.1577 8.5
pair_coeff 1 1*2 0.000 0.000
pair_coeff 2 2 0.21084 3.1668
bond_style  harmonic
bond_coeff  1 450 0.9572
angle_style harmonic
angle_coeff 1 55 104.52
kspace_style pppm/tip4p/omp 1.0e-5
pair_modify tail yes

thermo          ${out_freq}
thermo          1000
thermo_style    custom step temp pe etotal epair emol press lx ly lz vol pxx pyy pzz pxy pxz pyz enthalpy

restart 	${out_freq3} restart.lmp.${pid} restart2.lmp.${pid}
restart 	1000 restart.lmp.${pid} restart2.lmp.${pid}
restart 	1000 restart.lmp.0 restart2.lmp.${pid}
restart 	1000 restart.lmp.0 restart2.lmp.0


include         in.dump
dump            myDump all atom ${out_freq2} dump.water.${pid}
dump            myDump all atom 10000 dump.water.${pid}
dump            myDump all atom 10000 dump.water.0
dump            myDump2 all dcd ${out_freq2} dump.dcd
dump            myDump2 all dcd 10000 dump.dcd
dump_modify     myDump append yes
dump_modify     myDump2 append yes


variable natoms 	equal  "count(all)"                        # NUMBER ATOMS
variable H      	equal  "enthalpy/v_natoms"                 # ENTHALPY-per-atom
variable Vol      	equal  "vol/v_natoms"                 # volume-per-atom
fix AVG all 		ave/time ${out_freq} 1 ${out_freq} v_Vol v_H file vol_enthalpy.dat
fix AVG all 		ave/time 1000 1 ${out_freq} v_Vol v_H file vol_enthalpy.dat
fix AVG all 		ave/time 1000 1 1000 v_Vol v_H file vol_enthalpy.dat


timer           timeout 23:50:00 every 1000
New timer settings: style=normal  mode=nosync  timeout=23:50:00

fix 		1 all shake 1e-6 200 0 b 1 a 1
       0 = # of size 2 clusters
       0 = # of size 3 clusters
       0 = # of size 4 clusters
     288 = # of frozen angles
  find clusters CPU = 0.013 seconds
fix             2 all nph iso ${pressure} ${pressure} ${pressureDamp}
fix             2 all nph iso 4875 ${pressure} ${pressureDamp}
fix             2 all nph iso 4875 4875 ${pressureDamp}
fix             2 all nph iso 4875 4875 1000
fix             3 all temp/csvr ${temperature} ${temperature} ${tempDamp} ${seed}
fix             3 all temp/csvr 249.16 ${temperature} ${tempDamp} ${seed}
fix             3 all temp/csvr 249.16 249.16 ${tempDamp} ${seed}
fix             3 all temp/csvr 249.16 249.16 100 ${seed}
fix             3 all temp/csvr 249.16 249.16 100 745823

run             250000
PPPM initialization ...
  extracting TIP4P info from pair style
  using 12-bit tables for long-range coulomb (../kspace.cpp:340)
  G vector (1/distance) = 0.374406
  grid = 24 24 25
  stencil order = 5
  estimated absolute RMS force accuracy = 0.0030559085
  estimated relative force accuracy = 9.2027777e-06
  using double precision FFTW3
  3d grid and FFT values/proc = 2730 288
Last active /omp style is kspace_style pppm/tip4p/omp
Neighbor list info ...
  update every 1 steps, delay 7 steps, check yes
  max neighbors/atom: 2000, page size: 100000
  master list distance cutoff = 10.8154
  ghost atom cutoff = 10.8154
  binsize = 5.4077, bins = 4 4 4
  1 neighbor lists, perpetual/occasional/extra = 1 0 0
  (1) pair lj/cut/tip4p/long/omp, perpetual
      attributes: half, newton on, omp
      pair build: half/bin/newton/omp
      stencil: half/bin/3d
      bin: standard
Per MPI rank memory allocation (min/avg/max) = 9.239 | 9.244 | 9.249 Mbytes
Step Temp PotEng TotEng E_pair E_mol Press Lx Ly Lz Volume Pxx Pyy Pzz Pxy Pxz Pyz Enthalpy 
15750000    256.88492   -3905.1796   -3464.8877   -3905.1796            0    4216.2368    17.269229    20.340871     21.06842    7400.7285    3643.5869    6639.9543     2365.169    597.09988   -431.27403   -902.55866   -3009.8207 
15751000    246.35439   -3912.3296   -3490.0866   -3912.3296            0    4700.1077    17.272896    20.345189    21.072892    7405.4428    5539.6133    4544.9268     4015.783    112.32364     996.7534    828.39682   -2982.4713 
15752000    260.26129   -3930.8387   -3484.7597   -3930.8387            0     5707.445    17.213224    20.274905    21.000094    7328.9589    4393.5856    4848.0914    7880.6581     403.8212   -593.77019    877.63936   -2874.7175 
15753000    236.29132   -3895.7895   -3490.7942   -3895.7895            0    5846.5721    17.300865    20.378133    21.107015    7441.4748    7233.0983    5115.3666    5191.2515    56.800017   -981.67074   -1946.5906   -2856.2875 
15754000     231.1469    -3922.989   -3526.8111    -3922.989            0    4819.9167    17.272271    20.344454     21.07213    7404.6396    4265.7881    4829.9689    5363.9931    1138.6966    644.89024    849.46663   -3006.3127 
15755000    253.97688   -3910.8023   -3475.4946   -3910.8023            0    4769.9772    17.262637    20.333107    21.060377    7392.2566    4182.1014    5396.8697    4730.9604    1643.6551   -48.568792    948.49072   -2961.2506 
15756000    245.18701   -3898.5996   -3478.3574   -3898.5996            0    4117.2875     17.28695    20.361744    21.090039    7423.5342    3333.7438    5009.1439    4008.9749   -559.89622    310.34037   -1197.9904   -3032.6008 
15757000    247.36746   -3931.2824    -3507.303   -3931.2824            0    5563.9921    17.241096    20.307734    21.034097     7364.618    5164.6051    4910.8682    6616.5031   -589.75843    671.47844   -1185.8004   -2909.7003 
15758000    249.84158   -3917.7221   -3489.5022   -3917.7221            0    4428.7737    17.249975    20.318192     21.04493     7376.002    4292.0168    3521.5303    5472.7741   -1050.2154    410.74116   -1666.7668   -3013.0927 
15759000    276.72908   -3945.7246   -3471.4204   -3945.7246            0    5160.4258    17.240973    20.307589    21.033946    7364.4596    4486.9594    5046.9157    5947.4023    1170.2585    29.461866   -316.82091   -2917.1747 
15760000     250.5095   -3921.3238   -3491.9591   -3921.3238            0    3095.1013    17.333145    20.416156    21.146397    7483.2065    3049.8966    2467.9938    3767.4136   -409.10618   -241.57612    540.27077   -3154.1755 
15761000    254.79297   -3932.5126   -3495.8062   -3932.5126            0    4134.5787    17.269793    20.341535    21.069107    7401.4526    3620.7509    3483.9428    5299.0425    1223.4614   -1025.7903    -937.6273    -3049.509 
15762000    264.16043    -3908.159   -3455.3971    -3908.159            0    3553.3875    17.308273     20.38686    21.116053    7451.0387    4398.8242    2476.6492    3784.6891   -13.176703    780.52689    57.595659   -3069.2655 
15763000    251.79165     -3889.15   -3457.5877     -3889.15            0    5049.5252    17.226833    20.290934    21.016696    7346.3555     5667.472    4873.3268    4607.7769   -417.82543   -1557.5617    628.42816   -2916.5864 
15764000     246.8189   -3918.0627   -3495.0236   -3918.0627            0    5691.8356    17.243261    20.310284    21.036738    7367.3921    5911.8365    5026.0386    6137.6317    -1144.819   -307.39883     749.6149   -2883.4594 
15765000    249.36373   -3899.7612   -3472.3603   -3899.7612            0    5279.3547    17.308125    20.386685    21.115873    7450.8477    4035.5521    5251.2614    6551.2508    582.26291     552.2387    -1285.705   -2898.6899 
15766000    249.79039   -3883.9666   -3455.8344   -3883.9666            0     6335.259     17.30586    20.384018    21.113109    7447.9229    4949.1144    6673.1303    7383.5325    466.08982   -54.488626   -455.66871   -2767.6966 
15767000    244.92588   -3888.2288   -3468.4342   -3888.2288            0     3457.886    17.364732    20.453361    21.184933    7524.1922    1935.8031    3076.3928     5361.462    345.70468    630.21679   -1129.3681   -3088.9913 
15768000    247.29899   -3931.7898   -3507.9278   -3931.7898            0    6182.1177    17.272618    20.344862    21.072553    7405.0856    4836.9313    7962.6196    5746.8023    1824.4374    -574.8583   -457.45608   -2840.2864 
15769000    246.83662   -3883.7362   -3460.6667   -3883.7362            0    4387.1948     17.25336    20.322179    21.049059    7380.3449    3569.6655    3197.9776    6393.9412    661.64926      1978.41    239.01893    -2988.452 
15770000    243.32187   -3919.2097   -3502.1644   -3919.2097            0    4088.1893    17.279578     20.35306    21.081044    7414.0407    4338.8236    2818.4655     5107.279   -739.80573    801.60965   -1449.7506   -3060.1241 
15771000    248.18762   -3931.2843   -3505.8992   -3931.2843            0    4694.3547    17.294349    20.370458    21.099065      7433.07    5696.8071    3595.0301    4791.2268    -1453.752    505.52707   -1231.1318   -2997.0138 
15772000    258.36894   -3921.5644   -3478.7288   -3921.5644            0    5907.6561    17.179362     20.23502    20.958782    7285.7911    2967.8069    7954.5196    6800.6417   -879.06474   -118.00116       1263.7   -2851.0062 
15773000    233.23563   -3929.5364   -3529.7785   -3929.5364            0    5026.8022    17.303428    20.381153    21.110142    7444.7834     6146.826    4181.9558    4751.6248    1241.3075    849.38551    1239.7343   -2983.9958 
15774000     266.5142   -3902.3893   -3445.5931   -3902.3893            0    4518.4578    17.341886    20.426451     21.15706    7494.5328    4578.2344    3695.6767    5281.4622   -652.21995    520.52827    -497.8355   -2951.7253 
15775000    249.17104   -3903.8559   -3476.7853   -3903.8559            0    3949.2971    17.247927    20.315779     21.04243    7373.3744    2921.5428    5294.0483    3632.3001   -688.18942    244.58464   -48.022458   -3052.1051 
15776000     253.1587   -3890.9883    -3457.083   -3890.9883            0    5370.5051    17.282772    20.356822    21.084941    7418.1526    4897.9334    6568.1757    4645.4064   -51.699646    200.15998   -1115.2126   -2876.0687 
15777000    261.55336   -3926.6468   -3478.3533   -3926.6468            0    5341.0662    17.237444    20.303432    21.029641    7359.9381    5999.9409    5064.8037    4958.4538   -1345.1972    219.25345    1077.5284   -2905.0584 
15778000    240.10848   -3915.6359   -3504.0982   -3915.6359            0    6022.8365    17.196528    20.255239    20.979724    7307.6528    6685.3966    6787.3229    4595.7901   -204.03628     878.0706   -299.20715   -2862.2166 
15779000    245.45296   -3951.1487   -3530.4507   -3951.1487            0    4575.7886     17.21142    20.272779    20.997892    7326.6537    5501.0819    3644.6655    4581.6184   -1774.6579    1309.1019    708.60069   -3041.5198 
15780000    252.45867   -3913.3873   -3480.6818   -3913.3873            0    7793.3311    17.178891    20.234464    20.958207    7285.1913    6249.4152    9276.2919    7854.2861     316.0214    290.15853    1104.2764   -2652.6634 
15781000    250.55916   -3888.6527   -3459.2029   -3888.6527            0    3522.9594    17.353788     20.44047    21.171581    7509.9744    2819.4491    4736.8649    3012.5641    -557.2431    209.83988    135.67062   -3073.3498 
15782000    243.01208   -3895.7101   -3479.1957   -3895.7101            0    3527.7965    17.329377    20.411717    21.141799    7478.3267    2905.5038     2550.169    5127.7167     1418.456    1687.6692   -1526.1366    -3094.441 
15783000    243.10649   -3899.8248   -3483.1486   -3899.8248            0    6280.9721    17.231227    20.296109    21.022057    7351.9781    5691.1918    7204.0509    5947.6734    91.757194   -466.39752    199.47033   -2809.6961 
15784000    250.91715   -3947.9488   -3517.8854   -3947.9488            0    5020.0697    17.301187    20.378513    21.107408    7441.8912    5682.5934    3415.4269    5962.1887   -1527.8786    559.11402    -68.84104   -2973.0454 
15785000    240.70237   -3951.3847   -3538.8291   -3951.3847            0    5102.9076    17.263445    20.334058    21.061362     7393.294    6004.5179    5496.8981    3807.3068   -611.62526    250.79091    606.94509   -2988.6152 
15786000    240.78615   -3925.5442    -3512.845   -3925.5442            0    4159.2841    17.297433    20.374091    21.102827    7437.0471     4463.553    3628.3449    4385.9544   -1.1068036     1271.915    -198.9422   -3061.7219 
15787000    245.93851    -3914.226   -3492.6958    -3914.226            0    4448.4016    17.265176    20.336097    21.063474    7395.5185    5031.9962    4593.1766     3720.032   -97.357769   -538.21984   -798.19029   -3012.9088 
15788000    250.50225   -3908.8612   -3479.5089   -3908.8612            0    4521.5114    17.285042    20.359496    21.087711    7421.0765    4222.4538    4683.5092     4658.571    1133.2652    196.03061   -238.66389   -2990.1512 
15789000    251.73101   -3902.9987   -3471.5404   -3902.9987            0    5260.8133    17.266392    20.337529    21.064958    7397.0815    5276.3348    4769.7171     5736.388   -1239.6198    226.56335   -1319.8879   -2904.0099 
15790000    243.29749   -3920.3878   -3503.3843   -3920.3878            0    3814.5561    17.319698    20.400316    21.129991    7465.8027    4452.0442     2829.575    4162.0492     1039.532   -5.3015869   -48.851217   -3088.0513 
15791000    249.76087   -3929.7474   -3501.6659   -3929.7474            0     5027.543    17.309922    20.388802    21.118064    7453.1683    6170.3765     4227.211    4685.0414   -782.89392   -230.23153    431.58458    -2955.188 
15792000     241.5321   -3911.7379   -3497.7601   -3911.7379            0    5302.1658     17.27145    20.343487    21.071129    7403.5841    6787.3825    4128.8178    4990.2971    46.612202   -1147.4424   -14.664123   -2925.2658 
15793000    255.78067   -3912.7309   -3474.3316   -3912.7309            0    4401.5256    17.339402    20.423525     21.15403    7491.3127    3692.9305    5878.3678    3633.2787   -636.96276    351.34543   -146.39168   -2993.4512 
15794000    251.60038   -3899.8755    -3468.641   -3899.8755            0    5180.8552    17.364004    20.452503    21.184044    7523.2451    5380.9175    4173.5353    5988.1128    2099.9421    303.96115    58.195175   -2900.2038 
15795000    242.43456   -3912.1212   -3496.5966   -3912.1212            0    5498.3774    17.295844     20.37222     21.10089    7434.9986    6064.8474    5880.1178    4550.1669     56.12793    382.07025    7.9035209   -2900.3975 
15796000    248.05026   -3886.9434   -3461.7937   -3886.9434            0     5066.292    17.332379    20.415253    21.145462    7482.2137    2039.3319    7149.5267    6010.0175   -1109.3964    -988.4941     1126.267   -2908.9578 
15797000    240.99469   -3882.7897    -3469.733   -3882.7897            0     4534.725    17.316019    20.395984    21.125503     7461.047    4724.7904    5747.6098    3131.7747   -1114.4202   -1008.7629    548.00754   -2976.3018 
15798000    242.82269   -3856.6745   -3440.4847   -3856.6745            0     6438.012    17.153257    20.204271    20.926934     7252.628    7389.6457    7720.6305    4203.7597    -1961.259    414.47113      860.306   -2759.5224 
15799000    250.45768    -3875.551   -3446.2751    -3875.551            0    6293.4417    17.253567    20.322423    21.049312    7380.6106    7739.0036    5226.7312    5914.5902    1076.3773    306.37735   -616.32598   -2768.8576 
15800000     257.3782   -3912.3026   -3471.1651   -3912.3026            0    4679.8466    17.280707     20.35439    21.082422    7415.4939    5789.3594     5239.622    3010.5585   -1011.0978    -694.1656   -435.08741    -2965.052 
15801000    252.86228   -3902.7854   -3469.3881   -3902.7854            0    5573.5357    17.238562    20.304749    21.031006     7361.371     6053.683    6457.7126    4209.2117     943.8205    -1667.074    161.35004   -2871.0242 
15802000    239.14452   -3897.0808   -3487.1953   -3897.0808            0     5046.317     17.16958    20.223497    20.946847    7273.3515    4115.5959     4926.619    6096.7361   -436.74368    344.46185   -1227.1494   -2951.9104 
15803000    240.70147   -3903.8788   -3491.3248   -3903.8788            0    4199.3176    17.279227    20.352647    21.080616     7413.589    5375.8482    2462.9557    4759.1489     371.4344   -114.26043   -8.3471299   -3037.2963 
15804000    256.12492   -3898.9736   -3459.9842   -3898.9736            0    4042.8152    17.299397    20.376405    21.105224    7439.5814    3644.1134      4004.53    4479.8024    1114.6276   -1618.5911    480.47048   -3021.3442 
15805000    247.19335    -3914.642    -3490.961    -3914.642            0    5822.6613    17.265478    20.336453    21.063843    7395.9068    5609.5795    4898.2924     6960.112   -114.04569    -1486.263   -218.25569   -2862.9188 
15806000    268.66377    -3920.881   -3460.4005    -3920.881            0    4136.4409    17.321705    20.402681     21.13244    7468.3992    3912.2993    3367.9577    5129.0656   -572.69041     659.5719    1317.2713   -3009.8638 
15807000    261.18784   -3930.3052   -3482.6382   -3930.3052            0    5825.4529    17.206974    20.267543    20.992469    7320.9785    4990.2571    6733.8869    5752.2146    617.18227   -558.13706    672.03654   -2860.6606 
15808000    253.13658   -3911.0178   -3477.1503   -3911.0178            0    3671.9519    17.346205    20.431538     21.16233     7500.134    4265.1008    2395.5557    4355.1992   -774.86119    696.78408    286.37136   -3075.5058 
15809000    248.22117   -3892.4198   -3466.9772   -3892.4198            0    3986.7027    17.236063    20.301806    21.027957    7358.1704    4410.8872     4618.723     2930.498    6.8582531    667.94401    347.16285   -3039.1587 
15810000    237.94717   -3928.0876   -3520.2543   -3928.0876            0    5613.4143    17.220681    20.283688    21.009191    7338.4877    5577.5926    6127.1798    5135.4706   -1245.8094   -1954.4139   -913.81282   -2919.4825 
15811000    249.41196   -3924.5199   -3497.0364   -3924.5199            0    5771.1036    17.282659     20.35669    21.084804    7418.0081     4144.151     5324.972    7844.1877    979.04902    223.05422    646.60008   -2872.6951 
15812000    252.02601   -3887.6882   -3455.7242   -3887.6882            0    5834.1447    17.189411    20.246856    20.971041    7298.5833    5793.2641    5903.4211    5805.7488    534.14523   -446.26058    1429.1543   -2834.7242 
15813000    262.26177   -3878.6969   -3429.1892   -3878.6969            0    4158.6551    17.222382    20.285691    21.011265    7340.6618    2358.7087    5451.7471    4665.5094    539.73834   -1474.3243   -635.56267   -2983.9802 
15814000    249.16073   -3897.9238   -3470.8709   -3897.9238            0    3523.7865    17.229886    20.294529     21.02042    7350.2611    1603.7957    6045.2241    2922.3396   -1543.0376   -163.59188    328.88302    -3093.135 
15815000     236.7619   -3939.8786   -3534.0768   -3939.8786            0    4981.4637     17.22925    20.293781    21.019645    7349.4479    5005.1511    5780.4329     4158.807     35.80409    1088.3298   -844.36694   -3000.1428 
15816000     256.2664   -3906.0096   -3466.7777   -3906.0096            0    4945.9431    17.282629    20.356654    21.084767    7417.9693    4291.2576    5185.3739    5361.1978    1758.6796     174.2023    150.08314   -2931.7084 
15817000    249.06173   -3946.7717   -3519.8885   -3946.7717            0    4246.2962    17.205538    20.265851    20.990716    7319.1452    4283.5885    4652.4022    3802.8979    1166.6385   -732.43733   -89.597947   -3066.6294 
15818000    252.36238   -3915.2078   -3482.6673   -3915.2078            0    3543.6529    17.288653     20.36375    21.092116    7425.7285    2957.0793    4098.2758    3575.6036    1376.0017   -1945.8822    140.44639   -3098.9017 
15819000    242.02228   -3958.4453   -3543.6274   -3958.4453            0    5311.8447    17.175766    20.230784    20.954395    7281.2169    4577.5063    6757.9827     4600.045    1075.0237   -180.41475   -259.93358   -2979.5675 
15820000    245.59635   -3910.7099   -3489.7661   -3910.7099            0    4944.4157    17.219371    20.282145    21.007592    7336.8129    6019.7245     3893.797    4919.7256    993.14646    943.61984   -1793.1321   -2960.7142 
15821000    242.86166   -3909.5226    -3493.266   -3909.5226            0    5071.9717    17.197165    20.255988    20.980501    7308.4644    4447.6115    5876.6753    4891.6282    1549.2506   -1071.9154      67.5025   -2952.6625 
15822000    266.44234   -3887.5178   -3430.8447   -3887.5178            0    5560.0644    17.258516    20.328252    21.055349    7386.9634    6029.1987    3814.8643    6836.1302   -403.66176    621.05186   -371.85723   -2831.8518 
15823000    241.14939   -3935.4928    -3522.171   -3935.4928            0     2906.115    17.277361    20.350449     21.07834    7411.1876    2801.9986    2741.9678    3174.3787   -1510.3662    208.86495    357.56551   -3208.0649 
15824000    256.18477   -3929.8242   -3490.7322   -3929.8242            0    3752.9842     17.33888     20.42291    21.153393    7490.6364    4090.2426    2564.8007    4603.9093   -1094.5819   -912.29677   -247.99524   -3080.7441 
15825000    246.32173   -3912.5247   -3490.3377   -3912.5247            0    4445.2843    17.288655    20.363752    21.092119    7425.7309    4539.9417    3994.0707    4801.8404    598.91297    622.33995   -1065.8798   -3008.9282 
15826000    248.41964   -3912.7612   -3486.9784   -3912.7612            0     3855.963    17.364874    20.453528    21.185106    7524.3766    5142.2839    2543.4206    3882.1843    271.98758    595.95248   -44.452824   -3063.8431 
15827000    247.27493   -3938.7184   -3514.8977   -3938.7184            0    4313.6957    17.315324    20.395164    21.124655    7460.1479     5444.179    3976.2348    3520.6735   -490.44499   -965.71805   -878.50016   -3045.5736 
15828000    263.53877   -3901.2066   -3449.5102   -3901.2066            0    6337.1944    17.259542    20.329461    21.056601    7388.2814     8262.974    4701.1404    6047.4688    670.53955    602.25801    540.96824   -2766.6743 
15829000    252.17682   -3953.7569   -3521.5345   -3953.7569            0     3987.806    17.286112    20.360756    21.089016    7422.4541    2767.8296    3763.2695    5432.3189     125.5788    113.27415    718.53935    -3089.859 
15830000    261.19294   -3936.0915   -3488.4157   -3936.0915            0    5235.3716    17.357887    20.445298    21.176582    7515.2976    4809.6581    6676.0842    4220.3726    720.88609    2127.1983   -43.870181   -2914.6038 
15831000    251.24423   -3926.2029   -3495.5788   -3926.2029            0    5306.2503    17.297352    20.373996    21.102729    7436.9428    5707.8192    5505.7807    4705.1511    810.09093    91.256508    128.51849    -2920.062 
15832000    248.81383    -3948.608   -3522.1496    -3948.608            0    4406.5049    17.313009    20.392437     21.12183    7457.1561    6290.9064    2747.1187    4181.4896    916.64456   -125.87124    289.92029   -3042.9203 
15833000    242.69512    -3930.069   -3514.0978    -3930.069            0    4671.7567    17.298686    20.375567    21.104357    7438.6642    5741.2064    5623.0735    2650.9902    708.25641    1266.5143    191.53155    -3007.281 
15834000    258.36556   -3886.9621   -3444.1324   -3886.9621            0    4112.7602     17.33916     20.42324    21.153735    7490.9993     5298.422    2225.0433    4814.8152    1532.5317    1698.7282     166.6309   -2994.8193 
15835000     244.1359    -3922.541   -3504.1004    -3922.541            0    5373.6546    17.235432    20.301062    21.027187    7357.3618     4127.676    4347.8604    7645.4274    458.02168    368.55686   -385.05364   -2927.5095 
15836000    250.58212   -3934.3014   -3504.8122   -3934.3014            0    4914.8704    17.277857    20.351033    21.078945    7411.8259    4518.5415    5660.4578    4565.6117    698.29004    542.19545    122.57384   -2973.5449 
15837000    251.37916   -3961.5642   -3530.7089   -3961.5642            0    5577.5097    17.265535    20.336519    21.063912    7395.9794    5723.1556    5478.2555    5531.1181    60.392061    -348.1001    207.10998   -2929.1032 
15838000    261.44069   -3936.5416   -3488.4412   -3936.5416            0    4846.4402    17.286379    20.361071    21.089342    7422.7987    4847.7751    5990.3845    3701.1611    -610.6601   -248.49014    1545.8018   -2963.7952 
15839000    242.37825   -3941.6805   -3526.2524   -3941.6805            0    4786.8223    17.268763    20.340322    21.067851    7400.1292    4025.4097    5220.0641     5114.993    -112.7484    1857.4771    276.87926   -3009.6428 
15840000    253.28658   -3935.6521   -3501.5276   -3935.6521            0    5372.3295    17.264938    20.335816    21.063184     7395.212    7036.2704    4035.5542    5045.1641    -265.0481    383.07922   -249.84974   -2922.1133 
15841000    225.99072   -3908.5147   -3521.1744   -3908.5147            0    5303.3862    17.258094    20.327755    21.054834    7386.4211    4452.3036    4820.1514    6637.7037    144.54786   -1525.6666    1392.9293   -2949.8757 
15842000    259.33246   -3901.3917   -3456.9047   -3901.3917            0    5666.9264    17.192445    20.250429    20.974742    7302.4482     3553.762     6712.661    6734.3562   -691.24342   -654.00909    458.25881   -2853.3843 
15843000    239.22903   -3940.8092   -3530.7788   -3940.8092            0    5070.1678    17.271148    20.343131    21.070761    7403.1958    6266.7259    5633.8449    3309.9325   -239.48116    1545.4115    1568.2904   -2983.3628 
15844000    239.13978   -3926.8119   -3516.9345   -3926.8119            0    4474.2273    17.329854    20.412279    21.142382    7478.9446    6877.0979    3472.4402    3073.1439   -266.57242   -330.45151   -180.64149   -3028.9183 
15845000    252.31122   -3958.0442   -3525.5914   -3958.0442            0    4970.9518    17.254447    20.323459    21.050385    7381.7396    3769.1382    6353.4042     4790.313    1889.1992   -327.22019   -241.17012   -2990.4431 
15846000    256.45515   -3944.2916   -3504.7362   -3944.2916            0    5005.1954    17.338164    20.422067     21.15252    7489.7087    6371.3088    3721.1099    4923.1675    833.68542    220.00827    516.91935   -2958.0201 
15847000    260.36916   -3959.9141   -3513.6503   -3959.9141            0    4536.6189    17.368983    20.458367    21.190118    7529.7183    4803.8892    4281.4337    4524.5337    879.38058   -771.10604   -571.63532   -3015.4696 
15848000    235.47839   -3929.1706   -3525.5687   -3929.1706            0    5390.3611    17.276633    20.349592    21.077452    7410.2513    4291.8885    6985.7265    4893.4683    1224.5602   -1065.1371    811.93848   -2943.0274 
15849000    244.89842   -3922.6521   -3502.9046   -3922.6521            0    5687.5893    17.356272    20.443396    21.174611    7513.1996    5460.1364    5172.8626    6429.7689   -311.78931   -184.58289    1347.7142   -2879.7023 
15850000    242.89249   -3903.0806   -3486.7712   -3903.0806            0    6081.4497    17.194095    20.252372    20.976755    7304.5511    6004.7935    8142.8468     4096.709   -784.00576    2055.9562    689.98512   -2838.9181 
15851000    250.12993   -3965.7024   -3536.9883   -3965.7024            0    4734.9514    17.330438    20.412966    21.143094    7479.7001    4683.4035    3472.9934    6048.4573    95.531522    40.248006   -379.03297    -3020.482 
15852000    266.84352    -3952.276   -3494.9153    -3952.276            0     5481.551     17.27054    20.342415    21.070019    7402.4138    5292.4829    5900.5665    5251.6037   -218.01712   -833.83524   -402.40733   -2903.1457 
15853000    252.55585   -3927.5838   -3494.7117   -3927.5838            0    2779.6194    17.339682    20.423856    21.154372    7491.6763    3172.1971    1646.5207    3520.1404    362.94534   -903.21226    846.30218   -3191.0149 
15854000    248.99584   -3933.8467   -3507.0763   -3933.8467            0    2069.6832    17.438589    20.540354    21.275038    7620.6079    3283.3418      2471.49     454.2178   -177.90484    637.33522   -206.67668   -3277.0543 
15855000    247.05818    -3898.681   -3475.2317    -3898.681            0    3336.2254    17.372832    20.462902    21.194815    7534.7262    2568.5037    4350.5683    3089.6042     647.1538   -566.36658   -105.33889   -3108.6264 
15856000    228.65634   -3928.9041   -3536.9949   -3928.9041            0    3182.2831    17.401124    20.496225     21.22933    7571.5965    2466.5279    2940.7055    4139.6158   -164.62553   -90.655346   -1096.4956   -3185.5946 
15857000    245.14082   -3971.8095   -3551.6466   -3971.8095            0    4759.5401    17.357205    20.444495    21.175749    7514.4113    6025.7344    3166.8388    5086.0472    -1655.676   -481.93078   -90.555224   -3030.0486 
15858000    238.01689     -3919.24   -3511.2872     -3919.24            0    5247.0394    17.318244    20.398604    21.128217    7463.9228    6232.3923    4054.5506    5454.1753    87.510979   -487.19239   -68.334488   -2940.1277 
15859000    254.66662    -3946.927   -3510.4371    -3946.927            0    3140.0459    17.316917    20.397041    21.126599     7462.208    3078.0965    4113.0444    2228.9967    427.20089    488.81275   -898.70637   -3168.7102 
15860000     246.4261   -3929.2375   -3506.8716   -3929.2375            0    3308.8181     17.35762    20.444984    21.176256    7514.9506    3896.1869     3994.592    2035.6754    389.35862   -87.162429    -423.4628   -3144.2322 
15861000    247.09496    -3907.509   -3483.9967    -3907.509            0    4870.4161     17.33429    20.417504    21.147794    7484.6896    5239.8145    4152.0021    5219.4316    76.699563   -194.94387    496.34934    -2952.359 
15862000    257.63501   -3949.7311   -3508.1535   -3949.7311            0    3529.7123     17.29783    20.374558    21.103312     7437.559    4553.9552    3138.6261    2896.5557    1662.4997    972.02611    902.77533   -3125.2885 
15863000    244.56968    -3932.251   -3513.0669    -3932.251            0    5488.3765    17.298769    20.375665    21.104458     7438.771    3669.3325    5153.9041    7641.8928   -563.68064    265.41193   -27.022029   -2917.6502 
15864000    262.26626   -3914.4247   -3464.9093   -3914.4247            0    5632.6674    17.269888    20.341646    21.069222    7401.5746    5203.8661     7308.919    4385.2172   -126.72265    704.56343   -1513.3926   -2856.8945 
15865000     255.1415   -3910.5402   -3473.2364   -3910.5402            0    5469.7178    17.245731    20.313193    21.039751    7370.5586    4134.2531    6215.4607    6059.4397    690.90202    716.00012   -582.55738   -2885.2853 
15866000    234.89749   -3920.3888   -3517.7826   -3920.3888            0    5542.5811    17.212696    20.274282    20.999448    7328.2833    5066.2274    5580.9665    5980.5495    510.10058    177.71156   -665.97021   -2925.4165 
15867000     237.5844   -3960.5406   -3553.3291   -3960.5406            0    4398.6963     17.21864    20.281284    21.006701    7335.8785     3111.319    6141.7389    3943.0309   -885.28879    -780.5991   -2030.9958    -3082.729 
15868000    247.31743     -3964.86   -3540.9664     -3964.86            0     4625.488     17.23047    20.295218    21.021134    7351.0095    4953.1593    3172.7773    5750.5275   -2079.7082    1274.6835   -1355.3828    -3045.082 
15869000    252.25823   -3933.4351   -3501.0731   -3933.4351            0    5938.7845    17.235632    20.301298    21.027431    7357.6178    6072.9114    5824.8884    5918.5536    751.14639   -260.04755   -197.55755   -2863.8219 
15870000    240.87023    -3938.116   -3525.2727    -3938.116            0    6810.8988    17.205235    20.265494    20.990346    7318.7579     8447.161    7117.0159    4868.5196   -161.17399    5.1791606    873.90251   -2798.3007 
15871000    246.68097   -3953.9966   -3531.1939   -3953.9966            0     6096.022    17.243263    20.310286     21.03674    7367.3944    6704.3935    5629.4137    5954.2588   -415.51892    475.53415   -272.24735   -2876.2014 
15872000    255.15423   -3919.8258   -3482.5002   -3919.8258            0    4017.2665    17.266512     20.33767    21.065104    7397.2349    3622.0591    5582.0892    2847.6511    71.722307   -834.26843    195.89831   -3049.1131 
15873000     231.3354   -3924.8285   -3528.3276   -3924.8285            0    1983.5014    17.328643    20.410853    21.140904     7477.377    529.31668    3418.0639    2003.1235    941.59689   -1169.6379    222.65215    -3312.027 
15874000    261.03979   -3925.9616   -3478.5483   -3925.9616            0    3912.4606    17.337058    20.420764     21.15117    7488.2751    4941.6313    3524.6613    3271.0892   -201.81891    2292.6304    1268.1149   -3051.2732 
15875000    252.28433   -3887.5527   -3455.1459   -3887.5527            0    4609.8745    17.303866    20.381669    21.110677    7445.3489    2172.5842    6690.5679    4966.4714    1545.6903    1595.7097    388.97805    -2954.593 
15876000    244.93991   -3930.1094   -3510.2907   -3930.1094            0    4211.0555    17.262678    20.333154    21.060427    7392.3086    4581.4485    3886.7386    4164.9793   -423.45398   -5.3251041   -928.62589   -3056.3001 
15877000    253.92064   -3940.7275   -3505.5162   -3940.7275            0    5488.0189    17.268461    20.339966    21.067482    7399.7403    4070.4033    5319.4266    7074.2269   -1132.3222   -392.92089    49.921831   -2913.2623 
15878000     246.2202   -3943.1263   -3521.1133   -3943.1263            0    5385.0194    17.303428    20.381153    21.110142    7444.7831    5680.5741    5165.9274    5308.5567    -1783.954   -446.24496   -353.38573   -2936.4373 
15879000     269.3284   -3933.7335   -3472.1138   -3933.7335            0    4663.5934    17.313326    20.392811    21.122217     7457.566    4857.5158    4843.4418    4289.8225   -465.55101   -1505.0478    287.53005    -2964.897 
15880000    239.84631   -3932.4926   -3521.4042   -3932.4926            0    5109.9134    17.275692    20.348483    21.076304      7409.04    5098.8179    6361.4783     3869.444   -566.74509    155.46632    -471.3322   -2969.2615 
15881000    254.35341   -3939.6367   -3503.6837   -3939.6367            0    4513.5578    17.234249    20.299669    21.025743    7355.8467     4921.966    5201.5991    3417.1083    1203.8422   -957.64396    337.65646   -3019.4806 
15882000    246.88025   -3891.1537   -3468.0094   -3891.1537            0    5981.4971    17.248008    20.315876     21.04253     7373.479    3652.3363    7574.9649    6717.1899   -1781.4772   -893.32725   -3.7120351   -2824.7913 
15883000    248.39876   -3927.0175   -3501.2706   -3927.0175            0    4356.3869     17.22856    20.292968    21.018803    7348.5646    2635.1785     5439.032    4994.9504   -1300.0325    79.352869    -755.2601    -3034.391 
15884000    247.29382   -3940.5044   -3516.6513   -3940.5044            0    4874.4416    17.208131    20.268906     20.99388    7322.4551    4737.0588    5314.8184    4571.4474   -772.61199   -1465.2316    1747.6525   -2996.1073 
15885000    234.12189   -3918.8824   -3517.6055   -3918.8824            0    5556.4835    17.175511    20.230483    20.954083    7280.8919     5608.424    5184.0781    5876.9483   -339.30409   -1176.4078    -109.5422    -2927.594 
15886000    245.36527   -3914.5417    -3493.994   -3914.5417            0    5169.6325    17.207648    20.268337     20.99329    7321.8384    6096.6128    6981.6661    2430.6185    781.63573    -1129.751    2024.5175   -2941.9729 
15887000    252.78572    -3938.616     -3505.35    -3938.616            0     3856.938    17.252327    20.320962    21.047798    7379.0188    5018.0206    2389.1303    4163.6632   -1161.8488    993.78482   -840.58397    -3090.284 
15888000    254.55994   -3932.4094   -3496.1024   -3932.4094            0     4164.968    17.303482    20.381216    21.110207    7444.8522    5341.3082    3499.6627    3653.9332    869.25772   -1134.4206   -504.38921   -3043.8887 
15889000    237.48726   -3962.7218   -3555.6768   -3962.7218            0    4976.0444    17.205644    20.265976    20.990846    7319.2805    4227.2158    6068.0491    4632.8682    78.107002   -61.435404    924.14018   -3024.5129 
15890000    255.89274   -3928.7449   -3490.1535   -3928.7449            0    4092.0359    17.296531    20.373029    21.101728    7435.8845    4864.0806    4494.2509    2917.7763    334.24859     138.1679   -307.14391   -3046.3937 
15891000    247.58154   -3950.7192   -3526.3729   -3950.7192            0    6051.0474    17.304443    20.382348     21.11138    7446.0927    6251.7788    4716.8971    7184.4662   -751.87139   -49.609088   -843.95593   -2869.2677 
15892000    243.48735   -3923.6361   -3506.3071   -3923.6361            0    4941.8585    17.306876    20.385214    21.114348    7449.2343    5287.3648    4790.4992    4747.7114    2058.0464     951.1648   -226.08709   -2969.4264 
15893000    237.62065    -3905.805   -3498.5313    -3905.805            0    5305.4928    17.297094    20.373692    21.102414    7436.6103    5565.7652    3465.3737    6885.3397    674.93755   -955.91735   -157.80243   -2923.1223 
15894000    254.27605   -3926.4527   -3490.6322   -3926.4527            0    6172.9253    17.274047    20.346545    21.074297    7406.9236    5656.8173    5719.8837    7142.0747    650.97141    2344.6313   -294.47693   -2823.8181 
15895000    253.05045   -3916.7654   -3483.0456   -3916.7654            0    4148.1566    17.344818    20.429905    21.160638    7498.3351    3365.7898    3911.3893    5167.2906     1020.619     909.2087   -2227.3413   -3029.4217 
15896000    251.80013    -3944.417   -3512.8402    -3944.417            0    5072.3105    17.237209    20.303156    21.029355    7359.6382     6000.908    3152.3505    6063.6731   -1116.9245   -1444.7163    91.517443    -2968.415 
15897000    245.98582   -3954.7786   -3533.1673   -3954.7786            0    6184.4792    17.251087    20.319502    21.046286    7377.4287    6885.2431     5824.086    5844.1084   -1599.5513   -591.53361    634.69115   -2867.7654 
15898000    239.52226     -3950.27   -3539.7371     -3950.27            0    3690.5969    17.299993    20.377107    21.105951    7440.3504    3328.8861    4018.2177    3724.6867   -643.66904    842.69882   -531.80549   -3139.2709 
15899000    259.04642   -3919.0651   -3475.0685   -3919.0651            0    4184.8824    17.259171    20.329023    21.056148    7387.8037    3496.0492    4073.3342    4985.2636   -185.43509   -144.61541   -247.42108   -3024.1744 
15900000    248.90515   -3940.9159    -3514.301   -3940.9159            0    3838.5048    17.287071    20.361886    21.090186    7423.6903    5919.5904    2959.9971    2635.9268   -482.77509    868.86566   -1801.7026    -3098.718 
15901000    259.48217    -3896.858   -3452.1145    -3896.858            0    4506.1581    17.283247    20.357382    21.085521    7418.7648    4250.9724    3682.7826    5584.7192   -360.39932   -937.92594    1007.5233   -2964.5704 
15902000    236.70738   -3906.1352   -3500.4269   -3906.1352            0    4527.8103    17.270136    20.341939    21.069525    7401.8936    4107.9528    4602.8273    4872.6507    111.89266    50.495502    -452.1053   -3011.6542 
15903000    254.48985   -3893.1543   -3456.9674   -3893.1543            0    4923.1979    17.269574    20.341277     21.06884    7401.1713    5911.3427    4064.9781     4793.273   -980.19734      1388.88   -203.37338   -2925.5649 
15904000    238.20992   -3912.6126    -3504.329   -3912.6126            0    3407.2348    17.273571    20.345985    21.073717    7406.3121    3053.1373    3463.6007    3704.9664   -702.24743    544.49612    533.45694   -3136.3017 
15905000    246.67469   -3901.4768   -3478.6849   -3901.4768            0    3587.3728    17.322732    20.403891    21.133693    7469.7278    4349.4126    2368.3413    4044.3644     404.5191    552.36566     1560.369   -3087.8825 
15906000    225.53481   -3918.3568   -3531.7979   -3918.3568            0    4525.2076    17.300659    20.377891    21.106764    7441.2094    5427.9248    5025.2306    3122.4674   -904.33464   -72.813177    1452.4267   -3040.7115 
15907000     238.1749    -3918.567   -3510.3434    -3918.567            0    4860.0049     17.26887    20.340448    21.067981     7400.266    6037.8551    4961.0455    3581.1142   -180.33963    134.45446    64.380883   -2985.8259 
15908000    246.08703   -3912.9764   -3491.1917   -3912.9764            0     6908.208    17.210982    20.272263    20.997357    7326.0944    6889.8396    7047.3318    6787.4527    338.40989   -212.85195   -769.91594    -2753.094 
15909000     245.0043   -3900.6038   -3480.6748   -3900.6038            0     5840.153    17.251293    20.319745    21.046538    7377.6929    7141.3751    6353.9707    4025.1134    -15.59941    445.67722     566.6127   -2852.2972 
15910000    253.16557   -3891.2697   -3457.3526   -3891.2697            0    6334.1583    17.133786    20.181336    20.903178    7227.9573    7407.6866    6385.0657    5209.7227    91.276259    1063.1144   -1641.1785   -2789.6542 
15911000    246.11273   -3940.2705   -3518.4417   -3940.2705            0    5211.9035    17.183851    20.240306    20.964257    7291.5028    5168.8983    5771.9232    4694.8889   -1171.8282   -436.99685   -732.57298   -2964.2127 
15912000    222.62416   -3899.5786   -3518.0084   -3899.5786            0    3882.7373    17.242151    20.308977    21.035385    7365.9702    4770.4175    5025.3098    1852.4847   -319.93173   -1095.3378   -47.205312   -3100.9049 
15913000    254.73738   -3939.6528   -3503.0416   -3939.6528            0    4257.2517     17.19587    20.254464    20.978921    7306.8141    3940.2146     3044.764    5786.7765   -1846.7067    335.47786   -247.72523   -3049.3787 
15914000    241.72987   -3934.2166   -3519.8999   -3934.2166            0    5106.0162    17.216699    20.278997    21.004333     7333.398    4293.6153       4083.8    6940.6334    130.11832    272.67589    1414.7845    -2973.811 
15915000    248.66812   -3920.4054   -3494.1968   -3920.4054            0    5749.4153    17.212272    20.273783    20.998931    7327.7422    6060.3184    6841.4323    4346.4952   -166.15796    1272.8786   -476.77055   -2879.7705 
15916000    248.69309   -3907.6526   -3481.4011   -3907.6526            0    3631.0628    17.303206    20.380891    21.109871     7444.496    4140.6025    3870.3854    2882.2005    737.72412    1466.3561    294.35375   -3087.1754 
15917000    239.79394   -3953.7511   -3542.7525   -3953.7511            0    4460.4507    17.234011    20.299388    21.025453    7355.5418    4560.1036    4142.2341    4679.0145    228.49566   -508.81354   -755.88098   -3064.2664 
15918000    254.37487   -3911.3022   -3475.3123   -3911.3022            0    3293.8251    17.258498    20.328231    21.055328    7386.9404    3833.1695    2480.6232    3567.6827   -607.71398   -582.43389    405.99002   -3120.4654 
15919000    263.23174   -3910.5302     -3459.36   -3910.5302            0       6345.6    17.168892    20.222687    20.946008    7272.4773    4814.6751    8382.9274    5839.1976   -768.00407   -323.79207    425.25406   -2786.3353 
15920000    256.47695    -3907.208   -3467.6153    -3907.208            0     4129.843    17.272165    20.344328       21.072    7404.5027    4177.5694    3811.5767     4400.383   -444.66404    -519.5447   -855.06654   -3021.6456 
15921000    252.52665   -3932.2205   -3499.3985   -3932.2205            0    6424.9497    17.188519    20.245805    20.969953    7297.4471    5562.7106    6841.7261    6870.4125    468.48121   -742.64911   -201.34227   -2815.6182 
15922000    254.59251   -3929.9051   -3493.5422   -3929.9051            0    4499.5322    17.235047    20.300609    21.026717    7356.8685     4314.752    5628.1081    3555.7366    581.32325    1186.6492    782.73634   -3010.7767 
15923000    249.57093   -3937.4745   -3509.7185   -3937.4745            0     3839.563    17.339421    20.423547    21.154053    7491.3369    2811.4008    4561.1164    4146.1719    931.64605    16.976392    774.41583   -3090.2329 
15924000    236.88735   -3920.7186   -3514.7018   -3920.7186            0    5152.6534    17.261997    20.332352    21.059596    7391.4337    4950.8205    5071.7722    5435.3674   -814.14349   -99.049308     220.2396   -2959.2639 
15925000    251.24459   -3896.2201   -3465.5955   -3896.2201            0    4795.5704    17.287597    20.362505    21.090828    7424.3674    5126.7385    4314.9368    4945.0359   -367.30474   -32.312127   -1403.7959   -2946.3466 
15926000    250.73991   -3930.2661   -3500.5065   -3930.2661            0    5824.5568     17.23831    20.304452    21.030698    7361.0482    5495.7597    6989.7823    4988.1282   -1011.8327   -97.548746     712.6629   -2875.2209 
15927000    250.31913   -3886.0366   -3456.9982   -3886.0366            0    4830.8966    17.344285    20.429277    21.159987    7497.6439    2541.1233    5714.7864    6236.7802   -204.33637    287.61405   -686.18929   -2928.7617 
15928000    251.63116   -3885.5503   -3454.2631   -3885.5503            0    6345.2426    17.269077    20.340691    21.068233    7400.5321    6780.0442    6316.2405    5939.4432   -320.72652   -271.01516   -300.02578   -2769.4263 
15929000    251.39777    -3919.554   -3488.6668    -3919.554            0    5632.3996    17.294374    20.370488    21.099096    7433.1022    5966.5264    5033.1973    5897.4749    361.99461    164.35373   -1099.9772   -2878.0912 
15930000    242.24894   -3929.2693   -3514.0629   -3929.2693            0    3214.2354    17.397194    20.491597    21.224537    7566.4688    3557.4606    2029.4188     4055.827   -118.49795    162.98914   -683.21542   -3159.3747 
15931000    257.48446    -3938.499   -3497.1795    -3938.499            0    5853.4608     17.28746    20.362344     21.09066    7424.1907    6421.8235    3927.7786    7210.7803    1471.3002    233.54449   -283.98039   -2863.4007 
15932000    259.54539   -3921.4647   -3476.6128   -3921.4647            0    5377.5077    17.321898    20.402908    21.132675    7468.6485    5485.0538    5248.5705    5398.8987    789.39193   -246.55438   -1294.2485   -2890.8808 
15933000    259.22648   -3963.4629   -3519.1576   -3963.4629            0    4094.2655    17.320034    20.400712      21.1304    7466.2371    4026.8091    2770.0618    5485.9255   -897.40467    1790.4117     562.3701   -3073.3436 
15934000    250.00861   -3944.1881   -3515.6819   -3944.1881            0    4400.5642    17.271198     20.34319    21.070821    7403.2594    5451.4239     3360.917    4389.3518   -1231.6264   -473.31147   -181.50477   -3040.5576 
15935000    256.77045   -3909.1839   -3469.0881   -3909.1839            0    6285.2935    17.230798    20.295604    21.021533    7351.4289     6410.461    6415.8148    6029.6047   -1233.3981   -738.64974     681.8525   -2795.2227 
15936000    253.08255   -3886.0749   -3452.3001   -3886.0749            0    4238.6861    17.242501    20.309388     21.03581    7366.4175    2724.2905    5210.8367    4780.9311   -1170.5025   -793.58795    417.34581   -2996.9311 
15937000    249.60533   -3938.0566   -3510.2416   -3938.0566            0    4222.5931    17.215549    20.277643     21.00293    7331.9291    4476.0666    2369.8284    5821.8842    122.64045    70.115354   -1041.6003   -3058.7253 
15938000    275.58749   -3914.8565    -3442.509   -3914.8565            0    6532.6818     17.14285    20.192013    20.914237    7239.4351     7054.757    7176.2709    5367.0176    202.86914    1073.6837    1608.7454   -2752.7902 
15939000    240.13251    -3917.997   -3506.4181    -3917.997            0    4115.8534    17.291663    20.367295    21.095789    7429.6081    3797.6403    4606.8561    3943.0637   -305.93438   -83.350553    2253.7733   -3060.4522 
15940000    260.59928   -3864.3961   -3417.7378   -3864.3961            0    4239.8325    17.181356    20.237368    20.961215    7288.3284    1521.2136    5883.8024    5314.4817    184.37341    28.272473    959.90791   -2967.0742 
15941000    238.21224   -3880.2498   -3471.9622   -3880.2498            0     6320.013    17.226507     20.29055    21.016298    7345.9379    5865.0446    5799.3375    7295.6568    654.88322    1001.4378    337.74314   -2794.8804 
15942000    246.37322   -3880.3633    -3458.088   -3880.3633            0    5929.6723    17.183637    20.240055    20.963997    7291.2314     5869.527    6317.6435    5601.8462   -118.88287    859.15928    214.69283   -2827.5556 
15943000    257.45783   -3922.7307   -3481.4568   -3922.7307            0    4553.6043      17.2331    20.298315    21.024342    7354.3755     4696.195    5693.6868    3270.9311   -1057.4803   -1765.7605   -943.41776   -2993.0553 
15944000    257.23503   -3910.8619   -3469.9699   -3910.8619            0     5898.922    17.225728    20.289633    21.015348    7344.9419    7273.9009    5407.7757    5015.0895     54.16247    390.04952    114.39003   -2838.0866 
15945000    247.43233   -3931.3459   -3507.2554   -3931.3459            0    4810.8524    17.219042    20.281757    21.007191    7336.3924    5644.4341    6546.7197    2241.4033   -1026.8659   -392.03238   -851.67532   -2992.5242 
15946000    253.59278   -3945.6802   -3511.0308   -3945.6802            0    4288.1423    17.209112    20.270061    20.995076    7323.7069    4067.6072    4420.2779    4376.5419   -2166.0485   -696.94057    245.66972   -3053.0197 
15947000      242.451   -3917.5263   -3501.9736   -3917.5263            0    6340.5955    17.145943    20.195656     20.91801    7243.3538    5391.0599    7047.2427    6583.4839   -368.56507    516.35316    518.34926   -2832.1728 
15948000    257.10299    -3949.686   -3509.0203    -3949.686            0    4274.7005    17.259623    20.329556      21.0567    7388.3847    4202.5828    4732.0259    3889.4929   -865.10866   -368.79308    71.596988   -3048.4127 
15949000    258.55063    -3924.914   -3481.7671    -3924.914            0    4291.3634     17.25163    20.320141    21.046948    7378.1246    4117.1262    4720.9212    4036.0429    566.32605   -103.13219    -1740.576   -3020.0062 
15950000     253.6211   -3937.9018   -3503.2039   -3937.9018            0    6489.4069    17.225062    20.288847    21.014535    7344.0891    5301.1878    5961.5053    8205.5276   -1491.8791    1524.1517   -28.747275   -2808.1494 
15951000    251.43935   -3906.7677   -3475.8093   -3906.7677            0    5595.5347     17.20273    20.262543     20.98729    7315.5616    5788.5551    7103.1557    3894.8932    1390.1051   -940.44598    501.19445   -2878.8219 
15952000    250.21436   -3924.5598   -3495.7009   -3924.5598            0    6371.9005    17.239482    20.305833    21.032128    7362.5497     5822.996    7658.4698    5634.2355   -1061.9987   -969.43153    1165.1353   -2811.5166 
15953000    250.79457   -3961.1959   -3531.3426   -3961.1959            0    5187.7214     17.21537    20.277432    21.002712    7331.7002    5668.2309    5059.4844     4835.449   -382.45406   -200.84651   -990.33675   -2976.6438 
15954000    250.70331   -3934.9509    -3505.254   -3934.9509            0    4778.3617    17.231123    20.295986    21.021929    7351.8445    5688.2642     3223.909    5422.9117    277.48591   -40.996944   -1040.2225   -2992.9224 
15955000    236.65973   -3931.8068   -3526.1801   -3931.8068            0    4193.3182    17.244804    20.312102    21.038621    7369.3706    4999.1243    4088.6927    3492.1377    -163.4431   -861.97984    258.12723   -3075.5044 
15956000    247.96005   -3954.8266   -3529.8315   -3954.8266            0     6809.511    17.249345     20.31745    21.044161    7375.1938    7409.6427    7047.2398    5971.6504   -554.58413    149.38285    1353.0755    -2797.403 
15957000    248.30397   -3950.8009   -3525.2164   -3950.8009            0    6175.3674    17.241907    20.308689    21.035086    7365.6566     6166.406    5404.8527    6954.8434    236.19215    1590.1543   -1526.2165    -2861.855 
15958000    259.14442   -3953.9549   -3509.7902   -3953.9549            0    4794.2595    17.312302    20.391605    21.120968    7456.2426    5514.2196    4108.8109     4759.748    25.109963    131.91539    94.839665   -2988.4545 
15959000    255.83931   -3968.3549   -3529.8551   -3968.3549            0     6192.966    17.273652     20.34608    21.073815    7406.4158    5745.4969    7014.2741    5819.1269    1004.3003   -162.19959   -388.75328    -2860.922 
15960000    252.25362   -3928.6011    -3496.247   -3928.6011            0    4283.8216    17.341546    20.426051    21.156646    7494.0924    3303.4383    3516.2451    6031.7816    199.81483    227.22163   -1019.1896   -3028.0525 
15961000    248.63909   -3959.8331   -3533.6742   -3959.8331            0    5437.7081     17.26862    20.340154    21.067676    7399.9454    6414.9162     5588.645    4309.5629   -395.65885    233.58288   -79.711676   -2946.8334 
15962000    254.44695   -3971.0854    -3534.972   -3971.0854            0    5524.9354     17.27619     20.34907    21.076911    7409.6808    4680.5347    4799.0052    7095.2662   -464.70256   -122.25663     164.0058   -2937.9332 
15963000    263.01005   -3958.5088   -3507.7186   -3958.5088            0    4162.3338    17.325697    20.407383     21.13731    7473.5637    6794.5132    2098.6568    3593.8314    902.74304    1090.1968   -391.77273   -3054.0481 
15964000    256.17573   -3959.3133   -3520.2369   -3959.3133            0    6446.5917    17.184161    20.240671    20.964636    7291.8977    5955.5724    5945.4864    7438.7163    989.04671   -466.80792   -1350.3978   -2834.6751 
15965000    238.73386   -3987.1486   -3577.9669   -3987.1486            0     5092.255    17.238117    20.304225    21.030462    7360.8006    6375.6345    3741.1522    5159.9785    722.48551   -64.444317   -246.81523   -3031.3147 
15966000    247.02159   -3946.3503   -3522.9638   -3946.3503            0    4547.9948    17.265659    20.336666    21.064064    7396.1393    5096.4907    5414.8658    3132.6281   -928.20614    272.31388   -470.04248   -3032.3938 
15967000    247.96865   -3963.3686   -3538.3589   -3963.3686            0    5930.3206    17.234141    20.299541    21.025611    7355.7082    7116.4442    5491.3617    5183.1558    453.08664    969.41724    600.98259    -2902.181 
15968000    243.55431   -3921.9533   -3504.5096   -3921.9533            0    4967.7692    17.279309    20.352744    21.080717    7413.6948    3906.4322     6175.518    4821.3574    487.15263    898.24991   -84.602147   -2967.3887 
15969000    233.15447   -3885.9251   -3486.3063   -3885.9251            0    5039.4313    17.283496    20.357675    21.085825    7419.0855    5516.1672    4842.9387    4759.1879    1062.2314   -317.20192    830.64643   -2941.0411 
15970000     239.7964   -3948.8433   -3537.8404   -3948.8433            0    5709.6398    17.278821    20.352169    21.080121    7413.0667    5595.6201    4941.8632    6591.4359   -133.06704   -260.71307   -13.702237     -2920.56 
15971000    256.23225   -3951.1266   -3511.9533   -3951.1266            0    6227.1474    17.238639     20.30484      21.0311    7361.4699    6928.3994    6067.6529    5685.3898    356.83782   -722.87208   -39.067978     -2843.41 
15972000    249.58527   -3951.4326    -3523.652   -3951.4326            0    5165.9139    17.188735    20.246059    20.970216    7297.7222     5514.555    3900.3596    6082.8271    477.29941    -580.3984   -40.667843   -2973.8449 
15973000    234.62118   -3918.8944   -3516.7617   -3918.8944            0     5263.959    17.212422     20.27396    20.999115    7327.9339    4644.0786    5449.8915    5697.9069    386.55475    266.47266   -1564.8802   -2954.2003 
15974000    246.91987   -3930.8557   -3507.6435   -3930.8557            0    4281.7503    17.310779    20.389812     21.11911    7454.2757    2989.6851    3498.9205    6356.6454     777.8236   -64.545014    144.73083   -3042.1617 
15975000    241.46028   -3923.3056    -3509.451   -3923.3056            0    3994.0506     17.19519    20.253662    20.978091     7305.947    3148.8222    4430.5599    4402.7696    9.6333778   -771.63013   -1047.3958   -3083.8859 
15976000     239.8601    -3915.356    -3504.244    -3915.356            0    4741.5803    17.275898    20.348725    21.076555    7409.3046    4471.7718    4114.5363    5638.4328    -120.2628   -254.65785   -1418.4324   -2991.8825 
15977000    257.67204   -3895.9007   -3454.2596   -3895.9007            0    4790.0711    17.298641    20.375514    21.104302     7438.606    4141.2488    4607.5432    5621.4214   -250.49449   -352.03408    226.03379   -2934.6114 
15978000    247.07177   -3910.7878   -3487.3152   -3910.7878            0    4931.4764    17.262748    20.333237    21.060512    7392.3988    5539.6181    6733.1812    2521.6299   -974.18781    1329.4514   -428.19095     -2955.65 
15979000     249.2705   -3930.3312   -3503.0901   -3930.3312            0    3890.1798     17.30986    20.388729    21.117989    7453.0884    4999.7674    4518.3504    2152.4215   -953.92625   -1264.2584    261.25813   -3080.2445 
15980000    249.73599   -3903.2578   -3475.2189   -3903.2578            0    4436.6206    17.309896    20.388771    21.118033    7453.1351     4197.027    4823.2134    4289.6214    196.97316    446.16955    262.24997   -2992.9745 
15981000    255.50659   -3896.2846    -3458.355   -3896.2846            0    4589.4103    17.264007     20.33472    21.062048    7394.0161    3710.0941    4972.7587    5085.3779    404.47462   -92.262482   -1220.7604   -2963.4599 
15982000    256.03416   -3913.1904   -3474.3566   -3913.1904            0    3850.3156     17.24414    20.311319     21.03781    7368.5186    5124.9261    3342.9752    3083.0454   -529.31116    1163.1708   -517.22726   -3060.5929 
15983000    251.00118   -3934.7393   -3504.5319   -3934.7393            0    5826.5425    17.163906    20.216814    20.939925    7266.1434    7166.8227    3974.0468    6338.7581   -361.88121    392.67142   -1990.5452   -2887.0975 
15984000    253.35028   -3905.1329   -3470.8992   -3905.1329            0    6450.1931    17.264975     20.33586    21.063229    7395.2595    7078.0733    3999.8024    8272.7037   -609.69352    1176.7372   -600.71456   -2775.2312 
15985000    247.73904   -3940.4216   -3515.8054   -3940.4216            0    3411.0531    17.293878    20.369903     21.09849    7432.4626    1946.8825     4722.958    3563.3187   -1407.0002    144.40625   -1950.1034   -3146.0648 
15986000    252.13837   -3933.8446   -3501.6881   -3933.8446            0    4455.3999    17.221292    20.284407    21.009936    7339.2689    4666.8216    4134.9801     4564.398   -999.69342   -752.37051   -223.40926   -3024.8012 
15987000     244.8501   -3909.5518   -3489.8871   -3909.5518            0    4741.3236    17.246157    20.313695    21.040271    7371.1047    4090.1377    5249.4989     4884.334    668.63435    391.53353    864.58611   -2980.1948 
15988000    254.48276   -3911.8591   -3475.6843   -3911.8591            0    6783.8037    17.228055    20.292373    21.018187    7347.9188    6462.0919    7010.7769    6878.5423     1084.618     1294.955    867.91922   -2748.7193 
15989000    252.95411    -3911.888   -3478.3333    -3911.888            0     3822.927    17.327056    20.408984    21.138968    7475.3227    4214.2283    2742.0452    4512.5073    1643.0851   -17.693265     -18.7672   -3061.5582 
15990000    241.02245   -3884.0092   -3470.9049   -3884.0092            0     4113.799     17.33884    20.422864    21.153345    7490.5849    4408.4791     4274.382    3658.5359   -695.22466   -1202.2987    379.48074   -3021.5033 
15991000    240.65677   -3925.9584    -3513.481   -3925.9584            0    5921.8343    17.208858    20.269762    20.994767    7323.3835    5369.7387    5870.3553    6525.4089    477.99691    -497.2449    537.82845   -2881.0052 
15992000    253.35904   -3932.9071   -3498.6584   -3932.9071            0    3358.2465    17.326778    20.408655    21.138628    7474.9621    3381.8953    2614.1031     4078.741     1381.233    43.681944   -725.10559   -3132.5603 
15993000    256.23881   -3891.6741   -3452.4895   -3891.6741            0    5039.5466    17.330495    20.413034    21.143164    7479.7744    4340.8711    4498.0454    6279.7234    1408.6319   -224.44097   -819.01244   -2902.7514 
15994000    257.69082   -3890.5379   -3448.8647   -3890.5379            0    6001.1429    17.266186    20.337286    21.064706     7396.816    6461.3143    7262.1437    4279.9706    381.57615     414.4682    292.09261   -2801.4916 
15995000    253.16892   -3880.6368   -3446.7139   -3880.6368            0    5962.0431    17.424899     20.52423    21.258336    7602.6749     5022.557    6044.3132    6819.2593    1104.7916    134.60127   -811.11549   -2785.6592 
15996000    238.14425   -3877.4511     -3469.28   -3877.4511            0    4196.3415    17.331095     20.41374    21.143895    7480.5508    3149.0999     5611.413    3828.5117    13.795688   -45.647851   -188.05522   -3011.4752 
15997000    236.44609   -3884.6212   -3479.3607   -3884.6212            0    3668.7009    17.298137    20.374921    21.103687    7437.9557    2781.2379    3811.9573    4412.9075   -756.87684   -22.183834   -2245.2956   -3081.3985 
15998000    250.95034   -3877.0046   -3446.8843   -3877.0046            0    4364.0538    17.328436    20.410609    21.140651    7477.1086     2555.445    4767.5678    5769.1485    403.15087   -381.13094    969.54794   -2971.0019 
15999000    242.41341   -3922.7814   -3507.2931   -3922.7814            0     5786.486    17.232323      20.2974    21.023394    7353.3808    5288.2766    5308.7735    6762.4079   -413.87928    -359.3039   -1577.8458   -2886.7416 
16000000    241.70291   -3846.7811   -3432.5106   -3846.7811            0     3563.788    17.410815    20.507641    21.241154    7584.2547    4350.0794     3548.219    2793.0656   -799.29965   -104.43827    1134.7165   -3038.3251 
Loop time of 495.371 on 64 procs for 250000 steps with 864 atoms

Performance: 87.207 ns/day, 0.275 hours/ns, 504.672 timesteps/s
98.9% CPU use with 64 MPI tasks x 1 OpenMP threads

MPI task timing breakdown:
Section |  min time  |  avg time  |  max time  |%varavg| %total
---------------------------------------------------------------
Pair    | 20.53      | 25.483     | 32.099     |  48.2 |  5.14
Bond    | 0.2649     | 0.28178    | 0.2905     |   0.9 |  0.06
Kspace  | 221.02     | 230.82     | 242.56     |  28.4 | 46.59
Neigh   | 5.2058     | 5.9205     | 6.9462     |  18.3 |  1.20
Comm    | 99.362     | 109.09     | 116.89     |  39.0 | 22.02
Output  | 1.3826     | 1.385      | 1.3987     |   0.2 |  0.28
Modify  | 112.53     | 114.83     | 119.75     |  15.0 | 23.18
Other   |            | 7.566      |            |       |  1.53

Nlocal:        13.5000 ave          19 max           7 min
Histogram: 1 3 2 10 8 18 5 10 3 4
Nghost:        2113.05 ave        2157 max        2084 min
Histogram: 6 8 9 14 6 10 2 3 4 2
Neighs:        4066.02 ave        5990 max        2018 min
Histogram: 2 3 7 7 11 7 16 4 4 3

Total # of neighbors = 260225
Ave neighs/atom = 301.18634
Ave special neighs/atom = 2.0000000
Neighbor list builds = 12590
Dangerous builds = 1

unfix		3
unfix		2
unfix		1

write_data	data.final.${pid}
write_data	data.final.0
System init for write_data ...
PPPM initialization ...
  extracting TIP4P info from pair style
  using 12-bit tables for long-range coulomb (../kspace.cpp:340)
  G vector (1/distance) = 0.37373358
  grid = 24 24 25
  stencil order = 5
  estimated absolute RMS force accuracy = 0.003130948
  estimated relative force accuracy = 9.4287569e-06
  using double precision FFTW3
  3d grid and FFT values/proc = 2730 288
Last active /omp style is kspace_style pppm/tip4p/omp
WARNING: Not all mixed pair coeffs generated from mixing. Use write_data with 'pair ij' option to store all pair coeffs. (../write_data.cpp:312)

write_restart   restart.lmp.${pid}
write_restart   restart.lmp.0
System init for write_restart ...
PPPM initialization ...
  extracting TIP4P info from pair style
  using 12-bit tables for long-range coulomb (../kspace.cpp:340)
  G vector (1/distance) = 0.37373358
  grid = 24 24 25
  stencil order = 5
  estimated absolute RMS force accuracy = 0.003130948
  estimated relative force accuracy = 9.4287569e-06
  using double precision FFTW3
  3d grid and FFT values/proc = 2730 288
Last active /omp style is kspace_style pppm/tip4p/omp
Total wall time: 0:08:17
