LAMMPS (30 Jul 2021)
  using 1 OpenMP thread(s) per MPI task
package omp 0
using multi-threaded neighbor list subroutines
echo both

include		in.partitions
variable        pid world 0
include		in.temp
variable        temperature equal 238.74
variable	tempDamp equal 100.0
include		in.pressure
variable        pressure equal 3875.0
variable        pressureDamp equal 1000.0 # This is 1 ps
include		in.seed
variable        seed world 745823

units		real
atom_style	full
read_restart	restart.lmp.${pid}
read_restart	restart.lmp.0
Reading restart file ...
  restart file = 30 Jul 2021, LAMMPS = 30 Jul 2021
  restoring atom style full from restart
  orthogonal box = (0.40769352 1.5717404 0.49738514) to (17.799879 22.057437 21.715811)
  4 by 4 by 4 MPI processor grid
  restoring pair style lj/cut/tip4p/long/omp from restart
  restoring bond style harmonic/omp from restart
  restoring angle style harmonic/omp from restart
  864 atoms
  576 bonds
  288 angles
Finding 1-2 1-3 1-4 neighbors ...
  special bond factors lj:    0        0        0       
  special bond factors coul:  0        0        0       
     2 = max # of 1-2 neighbors
     1 = max # of 1-3 neighbors
     1 = max # of 1-4 neighbors
     2 = max # of special neighbors
  special bonds CPU = 1.751 seconds
  read_restart CPU = 2.231 seconds
include 	in.setup
variable	out_freq equal 1000
variable	out_freq2 equal 10000
variable	out_freq3 equal 1000

timestep	2.0

neigh_modify    delay 7 every 1

include		in.tip4p
# This is TIP4P/Ice

# create groups ###
group ox type 2
288 atoms in group ox
group hy type 1
576 atoms in group hy

# set charges - beside manually ###
set group ox charge -1.1794
Setting atom values ...
  288 settings made for charge
set group hy charge 0.5897
Setting atom values ...
  576 settings made for charge

# ### TIP3P Potential Parameters ###
pair_style lj/cut/tip4p/long/omp 2 1 1 1 0.1577 8.5
pair_coeff 1 1*2 0.000 0.000
pair_coeff 2 2 0.21084 3.1668
bond_style  harmonic
bond_coeff  1 450 0.9572
angle_style harmonic
angle_coeff 1 55 104.52
kspace_style pppm/tip4p/omp 1.0e-5
pair_modify tail yes

thermo          ${out_freq}
thermo          1000
thermo_style    custom step temp pe etotal epair emol press lx ly lz vol pxx pyy pzz pxy pxz pyz enthalpy

restart 	${out_freq3} restart.lmp.${pid} restart2.lmp.${pid}
restart 	1000 restart.lmp.${pid} restart2.lmp.${pid}
restart 	1000 restart.lmp.0 restart2.lmp.${pid}
restart 	1000 restart.lmp.0 restart2.lmp.0


include         in.dump
dump            myDump all atom ${out_freq2} dump.water.${pid}
dump            myDump all atom 10000 dump.water.${pid}
dump            myDump all atom 10000 dump.water.0
dump            myDump2 all dcd ${out_freq2} dump.dcd
dump            myDump2 all dcd 10000 dump.dcd
dump_modify     myDump append yes
dump_modify     myDump2 append yes


variable natoms 	equal  "count(all)"                        # NUMBER ATOMS
variable H      	equal  "enthalpy/v_natoms"                 # ENTHALPY-per-atom
variable Vol      	equal  "vol/v_natoms"                 # volume-per-atom
fix AVG all 		ave/time ${out_freq} 1 ${out_freq} v_Vol v_H file vol_enthalpy.dat
fix AVG all 		ave/time 1000 1 ${out_freq} v_Vol v_H file vol_enthalpy.dat
fix AVG all 		ave/time 1000 1 1000 v_Vol v_H file vol_enthalpy.dat


timer           timeout 23:50:00 every 1000
New timer settings: style=normal  mode=nosync  timeout=23:50:00

fix 		1 all shake 1e-6 200 0 b 1 a 1
       0 = # of size 2 clusters
       0 = # of size 3 clusters
       0 = # of size 4 clusters
     288 = # of frozen angles
  find clusters CPU = 0.828 seconds
fix             2 all nph iso ${pressure} ${pressure} ${pressureDamp}
fix             2 all nph iso 3875 ${pressure} ${pressureDamp}
fix             2 all nph iso 3875 3875 ${pressureDamp}
fix             2 all nph iso 3875 3875 1000
fix             3 all temp/csvr ${temperature} ${temperature} ${tempDamp} ${seed}
fix             3 all temp/csvr 238.74 ${temperature} ${tempDamp} ${seed}
fix             3 all temp/csvr 238.74 238.74 ${tempDamp} ${seed}
fix             3 all temp/csvr 238.74 238.74 100 ${seed}
fix             3 all temp/csvr 238.74 238.74 100 745823

run             250000
PPPM initialization ...
  extracting TIP4P info from pair style
  using 12-bit tables for long-range coulomb (../kspace.cpp:340)
  G vector (1/distance) = 0.37382187
  grid = 24 24 25
  stencil order = 5
  estimated absolute RMS force accuracy = 0.0031210002
  estimated relative force accuracy = 9.3987993e-06
  using double precision FFTW3
  3d grid and FFT values/proc = 2730 288
Last active /omp style is kspace_style pppm/tip4p/omp
Neighbor list info ...
  update every 1 steps, delay 7 steps, check yes
  max neighbors/atom: 2000, page size: 100000
  master list distance cutoff = 10.8154
  ghost atom cutoff = 10.8154
  binsize = 5.4077, bins = 4 4 4
  1 neighbor lists, perpetual/occasional/extra = 1 0 0
  (1) pair lj/cut/tip4p/long/omp, perpetual
      attributes: half, newton on, omp
      pair build: half/bin/newton/omp
      stencil: half/bin/3d
      bin: standard
Per MPI rank memory allocation (min/avg/max) = 9.238 | 9.242 | 9.248 Mbytes
Step Temp PotEng TotEng E_pair E_mol Press Lx Ly Lz Volume Pxx Pyy Pzz Pxy Pxz Pyz Enthalpy 
12500000    239.67398   -3891.9368   -3481.1438   -3891.9368            0    3108.1713    17.392185    20.485697    21.218426    7559.9349    4090.9552    3705.3528     1528.206    214.02412   -540.99655   -243.02078   -3138.4558 
12501000    236.97073   -3937.3026   -3531.1428   -3937.3026            0    3392.6315    17.368928    20.458303    21.190052    7529.6477    4470.3442    4404.7959    1302.7545    837.37961   -242.82239   -496.04881   -3158.5905 
12502000    228.18328   -3909.0363    -3517.938   -3909.0363            0    4462.8779    17.220278    20.283213    21.008699    7337.9728    4806.0274    5838.0993    2744.5069    349.28141    208.92955    978.86975   -3040.3351 
12503000    243.62988   -3942.5491   -3524.9758   -3942.5491            0    3745.9823     17.32787    20.409942    21.139961    7476.3761    6026.6351    3097.7621    2113.5496   -606.86439   -478.34975    380.78758   -3116.5316 
12504000    226.12888   -3965.4863   -3577.9091   -3965.4863            0    4026.1446    17.292543    20.368332    21.096862    7430.7423    3688.9847    4250.6295    4138.8195    310.99517   -1404.2055    413.15521   -3141.5968 
12505000    244.61956   -3951.0946    -3531.825   -3951.0946            0    4386.0923     17.29966    20.376715    21.105545    7439.9208    4599.6644    3375.8136     5182.799    1307.7486    716.53282   -1099.6993   -3055.9182 
12506000     242.8466   -3943.4788   -3527.2481   -3943.4788            0    4479.6977    17.346753    20.432184    21.162999    7500.8452    5089.4404    2969.7028      5379.95    732.42453   -495.85564    1173.6843   -3037.2044 
12507000     240.4921   -3945.1865   -3532.9912   -3945.1865            0    4119.6028    17.351215    20.437439    21.168442    7506.6344    3983.8655    6489.7457     1885.197    1485.9262   -473.89332    1054.4899   -3081.9913 
12508000    237.44161    -3939.613   -3532.6462    -3939.613            0    3943.2049    17.408481    20.504892    21.238307    7581.2052    3693.4684     4003.083    4133.0634    893.57619    1089.0414     73.43058   -3096.6693 
12509000    243.65382   -3934.7697   -3517.1554   -3934.7697            0    4671.7049    17.439897    20.541895    21.276634    7622.3229     4482.698     4449.737    5082.6796    678.09783   -243.93459     153.7532   -2997.8311 
12510000    242.83664   -3958.8438   -3542.6301   -3958.8438            0     4602.291    17.412651    20.509803    21.243393    7586.6538    5373.0445    3010.3866     5423.442    711.50732   -136.54286    682.47043   -3033.4162 
12511000    238.75054   -3933.2835   -3524.0733   -3933.2835            0    4734.5296    17.428878    20.528916    21.263191    7607.8843      4357.77    5637.7413    4208.0777   -99.819442   -940.54273   -675.11435   -2998.7621 
12512000    252.20688   -3940.8961   -3508.6221   -3940.8961            0    3634.6435    17.402733     20.49812    21.231293    7573.6971    4643.0986    1642.9564    4617.8756   -442.07267    293.62014    72.105729    -3107.159 
12513000    240.13652   -3917.1619   -3505.5761   -3917.1619            0    2904.6908    17.459162    20.564587    21.300137     7647.611    1775.3002    1808.7802     5129.992    -643.4697    2.8573822    62.764033   -3181.6085 
12514000    235.32673    -3956.345   -3553.0031    -3956.345            0     3217.667    17.428478    20.528445    21.262703    7607.3607    3224.9819    4403.6006    2024.4186    -1268.245   -516.58238   -426.75973   -3196.0172 
12515000    243.70701   -3938.8874   -3521.1819   -3938.8874            0    6603.2003    17.363613    20.452043    21.183568    7522.7373    7530.5504    6106.6854    6172.3652   -1418.1899    785.65023   -948.90125   -2796.7355 
12516000    242.37838   -3950.5242    -3535.096   -3950.5242            0    4181.2916    17.402548    20.497903    21.231068    7573.4565    4473.5421    4217.1494    3853.1832   -588.93581   -1305.2862    453.14282   -3073.2678 
12517000    238.27705   -3940.6816   -3532.2829   -3940.6816            0    3521.5117    17.372121    20.462064    21.193947    7533.8003     3333.794    3011.1488    4219.5925   -310.05401    372.75328   -115.84531   -3145.3647 
12518000    234.23432   -3970.0999   -3568.6303   -3970.0999            0    1434.8306    17.379279    20.470495     21.20268    7543.1169    730.21753    2708.9705    865.30381    463.58154   -623.09539   -285.16391   -3410.7865 
12519000    235.90769   -3949.8931   -3545.5554   -3949.8931            0    3512.6108    17.363404    20.451796    21.183312     7522.465    3678.7962     2569.251    4289.7851   -911.19375   -352.60211   -380.87959   -3160.1959 
12520000    228.97186   -3944.7448   -3552.2949   -3944.7448            0    4852.8736    17.333654    20.416755    21.147017    7483.8652    3558.0443    5151.8881    5848.6884    -705.1537   -709.21819   -1300.9803   -3022.6304 
12521000    223.82555   -3947.9128   -3564.2834   -3947.9128            0    4028.5529    17.329293    20.411618    21.141697    7478.2179     2490.138    4207.5639    5387.9566   -293.33462    313.06265   -347.80999   -3124.9208 
12522000    248.14518   -3948.0257   -3522.7133   -3948.0257            0    5538.0078    17.276287    20.349184     21.07703     7409.806    5791.2873    5529.0363    5293.6997   -294.51259    1104.5028   -392.77422   -2924.2518 
12523000    229.35123   -3965.9522    -3572.852   -3965.9522            0    4667.2831    17.326012    20.407754    21.137694    7473.9712    4001.6802    4730.6654    5269.5037   -507.66815     1439.372    -2156.982   -3064.1172 
12524000    258.66734   -3933.6628   -3490.3158   -3933.6628            0     3206.891     17.36784    20.457022    21.188724    7528.2327    3057.1699     3884.938    2678.5651    715.86366   -265.28081    309.77064   -3138.2263 
12525000    243.55122   -3944.8884   -3527.4499   -3944.8884            0    2227.9016    17.378358    20.469411    21.201557    7541.9184    3412.7345    1068.6814    2202.2888   -535.61545    435.95334    1395.6991   -3282.4005 
12526000    246.50958   -3949.9645   -3527.4555   -3949.9645            0     2511.412    17.471876    20.579563    21.315648    7664.3307    1473.1456    3173.9638    2887.1266   -228.27903   -92.998753   -341.57901   -3246.7389 
12527000    245.52394   -3961.3149   -3540.4953   -3961.3149            0    3210.9706    17.437027    20.538515    21.273132    7618.5602    3097.2194    2786.0761    3749.6164   -956.94975    921.90214   -339.66365   -3183.7279 
12528000    244.10957   -3980.1109   -3561.7154   -3980.1109            0    4395.0696    17.366428    20.455358    21.187002    7526.3966    4853.1578    3437.5097    4894.5411   -151.76602    661.90038    806.45966   -3079.2916 
12529000     233.1983   -3972.4881   -3572.7942   -3972.4881            0    2836.0771    17.394387     20.48829    21.221111     7562.806    2804.9429    2041.5946    3661.6938   -600.28646   -77.834576    441.13424   -3259.9869 
12530000    234.16903   -3905.4118   -3504.0541   -3905.4118            0    3007.4804     17.40392    20.499519    21.232742    7575.2475    2599.1751     2460.574    3962.6922    700.81939   -883.45864     1468.518    -3171.796 
12531000    235.25281   -3910.6342   -3507.4189   -3910.6342            0    2098.2989    17.495818    20.607763    21.344857     7695.881    1740.3745    1049.1618    3505.3604   -1523.6206   -648.72013    -659.1795   -3271.9131 
12532000    250.04987   -3950.9959    -3522.419   -3950.9959            0    3876.6399    17.365523    20.454293    21.185898    7525.2203    4169.7235    3426.5388    4033.6573   -711.36636    -664.9096   -883.66524    -3096.967 
12533000    243.74598   -3982.9551   -3565.1828   -3982.9551            0    4253.0688    17.391395    20.484766    21.217461    7558.9044    5790.8391    3235.2442    3733.1233    700.29976   -931.46924    429.38762   -3096.3293 
12534000     235.0163   -3991.0826   -3588.2727   -3991.0826            0    1955.2624    17.420583    20.519145     21.25307    7597.0259    4022.8706    449.89999    1393.0167   -20.393964   -629.14844    185.50871   -3371.6397 
12535000    227.41866   -3993.5427   -3603.7549   -3993.5427            0     4395.037    17.363739    20.452191    21.183721    7522.9005    2577.7342    4444.4991    6162.8777   -407.09932    455.70234    334.56931   -3121.5588 
12536000    224.61015   -3979.6284   -3594.6543   -3979.6284            0    5778.6324    17.321501     20.40244    21.132191    7468.1348    5201.3788    5784.4526    6350.0657   -1071.6719    360.40097    323.67218   -2965.2741 
12537000    236.20578   -3969.8906    -3565.042   -3969.8906            0    3325.6582    17.456355    20.561281    21.296713    7643.9232    3788.2303    4535.9065    1652.8377    570.72113    3.1188383   -123.90295   -3194.3016 
12538000    240.95531   -3986.4027   -3573.4135   -3986.4027            0    3056.7324    17.440083    20.542114     21.27686    7622.5664    3649.0614      1919.99    3601.1459    110.37375   -60.561579   -38.799907   -3233.6048 
12539000    237.23623   -3961.5323   -3554.9175   -3961.5323            0    3139.7005    17.382186    20.473919    21.206226    7546.9026    4076.6776    2498.5257    2843.8983    256.42358   -46.821998   -436.93779     -3209.35 
12540000    243.35735   -3997.5014   -3580.3952   -3997.5014            0    3456.7946    17.454807    20.559456    21.294823    7641.8887     3044.796    4325.2746    3000.3133    1651.6611   -380.73455    337.82109   -3195.1385 
12541000    224.43045   -3951.1294   -3566.4633   -3951.1294            0    4534.4738    17.344614    20.429664    21.160388    7498.0699    4798.8556    4861.0602    3943.5056    1169.7424    553.40622    133.76728   -3070.6111 
12542000    238.35154   -3982.2913   -3573.7649   -3982.2913            0    3815.6039    17.334389    20.417621    21.147914    7484.8174    4613.0509    4231.5362    2602.2245   -511.95573   -38.311159    734.20572   -3157.2598 
12543000    245.30105   -3976.4695   -3556.0319   -3976.4695            0    4259.5753    17.333483    20.416553    21.146808    7483.6434    5013.0148    4315.0719    3450.6392   -95.595556    943.26842    248.52847   -3091.1365 
12544000    241.55455   -3971.4713   -3557.4551   -3971.4713            0    4462.7439    17.322186    20.403247    21.133026    7469.0206      2891.55    6182.6826    4313.9992   -560.23477     1419.607    440.16041   -3071.3373 
12545000    240.45526   -4025.0655   -3612.9334   -4025.0655            0    1416.1943     17.41007    20.506762    21.240244    7583.2805    1962.2257    1625.2502    661.10713    642.26241   -140.87487    378.12032   -3456.3103 
12546000    236.40529   -3973.5069   -3568.3163   -3973.5069            0    5325.8631    17.338714    20.422715    21.153191    7490.4217    4560.2279    5435.9748    5981.3866   -1335.5746     722.6101   -435.10147   -2986.5184 
12547000    230.83354   -3960.0485   -3564.4077   -3960.0485            0    3785.0182    17.329409    20.411755    21.141838    7478.3682    3604.8352    3306.2694      4443.95   -559.89036   -334.48579    541.88657   -3151.5972 
12548000    240.29187   -3963.2872   -3551.4352   -3963.2872            0    4994.9126    17.390708    20.483957    21.216623    7558.0088    6568.3179    6383.6477    2032.7722    1020.2258   -487.57365    106.24674   -3000.8669 
12549000    247.70923   -3967.5124   -3542.9473   -3967.5124            0    3233.9352    17.470858    20.578364    21.314407    7662.9912    4183.0294    2992.9591    2525.8171   -105.32494   -207.15337    344.79352   -3181.5328 
12550000     230.3343   -3977.4484   -3582.6633   -3977.4484            0    3790.0384    17.434784    20.535873    21.270396    7615.6208    1323.3673    5143.9098    4902.8381     593.8535    1100.6529    768.06115   -3161.7188 
12551000    256.68247   -3988.1875   -3548.2426   -3988.1875            0    2250.7878    17.477448    20.586126    21.322446    7671.6658    3061.2479    1085.3092    2605.8063   -195.52605   -73.038721    488.75913   -3296.4168 
12552000    242.12734   -3983.8441   -3568.8461   -3983.8441            0    4731.5546     17.39635    20.490603    21.223507    7565.3674    5458.8844    3810.7726    4925.0069    371.94727   -514.64599    822.22913   -3046.7989 
12553000     228.0783   -3969.5416   -3578.6232   -3969.5416            0     5452.422    17.364689     20.45331     21.18488    7524.1355    6095.1022    4419.1842    5842.9797     1204.851    166.90213    223.05605   -2980.3192 
12554000    240.09829   -3971.3798   -3559.8596   -3971.3798            0    3566.8111    17.428301    20.528237    21.262487    7607.1285    2809.4943    4229.3111     3661.628     302.7334    724.47624   -326.03296   -3164.1498 
12555000    234.71761   -3951.9146   -3549.6167   -3951.9146            0    4078.8245    17.452659    20.556927    21.292203    7639.0685    4465.8339    4189.6372    3581.0024    307.04116     -1845.56    1350.7383   -3095.2031 
12556000    244.85505    -3951.723   -3532.0498    -3951.723            0    2651.9911    17.441719    20.544042    21.278857    7624.7126    2112.5355     2840.568    3002.8698   -1019.8996    239.64608   -4.3611267    -3237.152 
12557000    245.27592   -3966.5347   -3546.1402   -3966.5347            0    3750.7094    17.359786    20.447535    21.178898    7517.7639    2558.0206     5220.838    3473.2695    1943.7159   -739.78476   -570.89672   -3134.9166 
12558000    238.82971   -3957.3072   -3547.9612   -3957.3072            0     919.2321    17.488776    20.599468    21.336266    7686.5926    670.80339    885.33103    1201.5619   -500.87457   -468.05665    323.36521   -3444.9143 
12559000    243.22555   -3983.3574   -3566.4771   -3983.3574            0    2590.8118    17.484977    20.594994    21.331631    7681.5842     2588.333    2193.7395     2990.363    -194.3647   -667.17018    1824.5748   -3276.2336 
12560000    230.96658    -3989.804   -3593.9352    -3989.804            0     2788.569     17.41122    20.508118    21.241648    7584.7839    3415.0324     1247.574    3703.1006    851.80372   -1331.4919   -1525.7035    -3285.474 
12561000    223.65745   -3928.9754   -3545.6342   -3928.9754            0    2558.7291    17.438131    20.539815    21.274479    7620.0077    3202.9422    1187.4292     3285.816    499.88955    -115.6257    540.84851   -3261.2826 
12562000    233.04582   -3944.3322   -3544.8996   -3944.3322            0    4569.1497    17.387879    20.480625    21.213172    7554.3207    3826.0197    4907.5567    4973.8726    -313.3492    479.65773    1284.9085   -3041.5071 
12563000     254.5844   -3952.4361   -3516.0871   -3952.4361            0    2998.8353    17.405034    20.500831      21.2341    7576.7017    3857.3064    1720.2665    3418.9331   -811.05118   -643.89997    668.08805   -3184.7206 
12564000    242.26126   -3967.4458   -3552.2183   -3967.4458            0    4518.3871    17.418833    20.517085    21.250936    7594.7375    3958.2279    4270.7316    5326.2017    31.030605   -1314.9307    960.80203   -3051.7552 
12565000    232.78913   -3991.7873   -3592.7947   -3991.7873            0    2738.8413    17.357989    20.445419    21.176706    7515.4301    2790.8632    3589.0456    1836.6149   -7.0234531   -678.75832    847.08207   -3292.6044 
12566000    250.54082   -3968.4439   -3539.0255   -3968.4439            0    3552.5376    17.432015    20.532611    21.267018    7611.9929    4265.9449    3795.3104    2596.3573   -1426.8885   -2124.1322    389.07389   -3144.6473 
12567000    221.73234   -3971.7981   -3591.7565   -3971.7981            0    3541.2368    17.387186    20.479808    21.212326    7553.4175    3812.0127    3546.1932    3265.5046    7.0659642    1944.9734     844.8444   -3201.6579 
12568000    229.88881   -3943.5878   -3549.5663   -3943.5878            0    5524.0377    17.345314    20.430488    21.161242    7498.9778    6249.1586    5711.9268    4611.0277   -870.85625    179.77381    1660.5342   -2945.4304 
12569000    227.15304   -3986.6937   -3597.3612   -3986.6937            0     3303.081    17.365053    20.453739    21.185324    7524.6087    4022.7255     3376.411    2510.1064   -818.96388    -39.35818    447.13327   -3234.8854 
12570000    241.21385   -3967.7245   -3554.2923   -3967.7245            0    3305.7053     17.46192    20.567835    21.303501    7651.2353    2829.0093    3516.3052    3571.8015   -733.69715   -503.68287    1757.2475   -3185.4238 
12571000     230.6263   -3945.9385   -3550.6529   -3945.9385            0    4629.0481     17.41272    20.509884    21.243477    7586.7438    3965.4214     4302.934    5618.7889    100.11788    -1580.069   -84.042972   -3038.4724 
12572000    253.26763   -3925.2445   -3491.1525   -3925.2445            0    5167.1696    17.325129    20.406713    21.136617    7472.8283    6601.9642    5321.7903    3577.7542    192.55634   -305.78166    91.537676   -2928.0161 
12573000    230.94347    -3955.524   -3559.6948    -3955.524            0    4542.0745    17.324996    20.406556    21.136454    7472.6561    4387.1896    3339.2974    5899.7366     1201.187   -640.51945   -1298.6347   -3064.6948 
12574000    242.78427   -3983.4576   -3567.3337   -3983.4576            0    4776.4702    17.330058    20.412519    21.142631    7479.2088    4339.4489    4812.4379    5177.5238   -176.91851   -652.02376    432.89365   -3046.3326 
12575000    244.00262   -3972.3515   -3554.1394   -3972.3515            0    3060.4252    17.423361    20.522418    21.256459    7600.6612    5115.5494    1182.3471    2883.3789   -222.36815    679.64063    642.48194   -3214.8979 
12576000    229.15212   -3967.2522   -3574.4933   -3967.2522            0    3036.8051    17.521602    20.638132    21.376313    7729.9555    2462.7061    3428.2373    3219.4719   -1449.1071    334.00752   -1067.8777   -3232.1437 
12577000    232.94569    -3981.116   -3581.8551    -3981.116            0    4417.1913    17.449571    20.553289    21.288436     7635.014    4203.8652    5376.3673    3671.3414   -1000.0752    207.52598     1.634818   -3090.0059 
12578000    258.78876   -3966.7571    -3523.202   -3966.7571            0      3878.87     17.45822    20.563477    21.298988    7646.3732    3863.0269    3917.7231    3855.8601   -785.00557   -735.84928      -259.56   -3090.6517 
12579000    248.96319   -3998.4729   -3571.7585   -3998.4729            0    4315.0864    17.392165    20.485673      21.2184    7559.9081    3805.7064    3397.8599    5741.6928    994.26373   -103.89975    1351.7633   -3096.0051 
12580000    252.76167   -3956.3836   -3523.1588   -3956.3836            0    3232.0833    17.471708    20.579364    21.315443    7664.1087    1616.5076    1782.3574    6297.3847   -521.63931    160.96164   -1684.8445   -3161.8986 
12581000    248.07368   -3984.2129   -3559.0231   -3984.2129            0    3172.9663    17.429107    20.529186     21.26347    7608.1839    3628.2424    3838.4144    2052.2421   -790.87065   -1009.9948    654.59029   -3206.9585 
12582000    228.26872   -3969.1955   -3577.9507   -3969.1955            0    5091.4186    17.363396    20.451787    21.183303    7522.4556    5310.6356    3877.2009    6086.4192   -738.36953    230.82296    -533.3502    -3019.385 
12583000    235.75131   -3965.3775   -3561.3079   -3965.3775            0    2463.3604    17.423401    20.522465    21.256509    7600.7141    2397.8354    2151.5289    2840.7169    1160.8874    361.97502     -198.089   -3288.2478 
12584000    253.47355   -3934.3071   -3499.8621   -3934.3071            0    3944.1015    17.384288    20.476394     21.20879    7549.6407    3446.0324    4346.9594    4039.3127   -1774.6922     216.7686    1491.5868   -3065.6017 
12585000    244.67524   -3954.3982   -3535.0332   -3954.3982            0    4463.5192    17.326489    20.408315    21.138276    7474.5886    2935.4158    3728.6712    6726.4707   -1319.6384   -1772.1294    1526.8461   -3048.4685 
12586000    235.68432   -3949.1662   -3545.2113   -3949.1662            0    4861.1203    17.356146    20.443248    21.174458    7513.0364    3187.5284    6722.3974     4673.435    572.29456    583.32421    1513.1513   -3012.5787 
12587000    248.15466   -3992.3938   -3567.0652   -3992.3938            0    3145.5059    17.388787    20.481695     21.21428    7555.5048     3031.216     4002.101    2403.2005    651.15569     13.98252    685.28336   -3220.4641 
12588000    244.84652   -3949.3956    -3529.737   -3949.3956            0    3649.5959    17.392551    20.486127    21.218871    7560.4112    4684.2425    2826.2143     3438.331   -27.727705    118.82091    1285.6491   -3127.3295 
12589000    233.47181   -3969.6134   -3569.4507   -3969.6134            0    4623.5444    17.400278    20.495229    21.228298    7570.4926    2748.5054    5045.5692    6076.5587   -659.24395   -350.00724    933.80639    -3058.975 
12590000    232.93015   -3933.0745   -3533.8401   -3933.0745            0    3843.3537    17.389398    20.482414    21.215026    7556.3013    3907.6392    2713.6747    4908.7473    584.52387   -1241.6631    253.33458   -3110.2991 
12591000    225.19719   -3968.0226   -3582.0423   -3968.0226            0    3482.7584    17.382197    20.473932     21.20624    7546.9175    3152.4305     4484.071    2811.7737    1401.0744   -58.036728   -765.44665   -3198.7158 
12592000    254.01665   -3965.3226   -3529.9468   -3965.3226            0    6241.8989     17.29472    20.370895    21.099518    7433.5484    4621.0806    7656.6628    6447.9534   -91.216661    613.58027    1102.9783   -2853.2583 
12593000    228.72751   -3960.3222   -3568.2911   -3960.3222            0     4001.786    17.381294    20.472869    21.205139    7545.7418    2861.7568    5239.9989    3903.6024    1212.0513    799.99744    758.94759   -3127.9069 
12594000    239.61204   -3971.6809   -3560.9941   -3971.6809            0      5479.66    17.355624    20.442632     21.17382    7512.3578    6602.6566    4360.2868    5476.0365     336.5002      814.844   -204.91879   -2960.6423 
12595000    235.51874   -3973.6927   -3570.0217   -3973.6927            0    5480.7078    17.318234    20.398592    21.128205    7463.9105    6291.3665     6008.379    4142.3779   -941.19141    1364.5974    -128.4239   -2973.4276 
12596000    236.20929   -3947.7853   -3542.9307   -3947.7853            0    2991.9363    17.408023    20.504352    21.237748    7580.6068    3379.9142    1331.0324    4264.8622   -761.01774   -1448.0461   -814.60603    -3212.156 
12597000     243.7756   -3958.6171   -3540.7941   -3958.6171            0    3261.6862    17.380741    20.472217    21.204463    7545.0208    2721.9951    4756.2221    2306.8413   -1128.4266   -427.12988   -1246.6947   -3181.8899 
12598000    233.51131   -3980.9833   -3580.7529   -3980.9833            0    3558.8942    17.381184    20.472739    21.205004    7545.5982    1824.3764    4727.0678    4125.2384     573.1103    79.266879    1457.9529   -3189.1151 
12599000    243.83644   -3975.6462   -3557.7189   -3975.6462            0    3107.8203    17.417677    20.515722    21.249525    7593.2248    3103.4156    3787.0276    2433.0176    722.75791    534.89828    226.66104   -3213.5608 
12600000    239.24463   -3976.7001    -3566.643   -3976.7001            0    3454.4049    17.382469    20.474253    21.206572     7547.272    3457.4074    3565.3818    3340.4255    757.94662   -655.60636    1232.4521   -3186.4194 
12601000    234.12886    -3979.713   -3578.4242    -3979.713            0    4357.3821    17.364314    20.452868    21.184422     7523.648     5288.369    3762.8059    4020.9713     -304.118   -146.43097    857.07186   -3100.3118 
12602000     252.3052   -3964.0366   -3531.5941   -3964.0366            0    2850.9674    17.456951    20.561982    21.297439    7644.7052    1860.9609    3575.9235    3116.0178     1113.762   -624.47644    1009.7228   -3213.7392 
12603000    227.99115   -3908.8547   -3518.0856   -3908.8547            0    5807.7788    17.265805    20.336837    21.064241    7396.3261    5635.7837    6397.9447    5389.6079    2045.6674    887.98551   -120.86684   -2891.6131 
12604000    237.35625   -3935.0775    -3528.257   -3935.0775            0    4970.3884      17.3686    20.457916    21.189651    7529.2203    4041.5039     7110.753    3758.9084   -592.44777    331.10863   -16.648283   -2982.4787 
12605000     246.1214   -3937.3889   -3515.5453   -3937.3889            0    3324.7399    17.417478    20.515488    21.249282    7592.9647    4048.6144    3188.7922    2736.8129    529.95183    107.18453   -189.72764   -3147.3782 
12606000    223.60661   -3944.6686   -3561.4145   -3944.6686            0     4633.845    17.413244    20.510502    21.244118    7587.4298     6752.734     4265.518    2883.2831   -672.35515    1289.1619    1088.6347   -3048.6569 
12607000    237.06242   -3969.0744   -3562.7576   -3969.0744            0    3319.8463    17.382404    20.474176    21.206492     7547.187    4248.7025    2041.9552    3668.8811    332.86592   -539.21914    791.21858   -3197.3488 
12608000    238.72187   -3940.3279   -3531.1668   -3940.3279            0    6456.8765    17.322159    20.403215    21.132994    7468.9863    6157.5166    6538.9114    6674.2015    196.27505    1157.5289    166.99055   -2827.8353 
12609000    246.29775   -3977.7638   -3555.6179   -3977.7638            0    4016.6281    17.427375    20.527146    21.261357    7605.9165    3818.4341    4129.8936    4101.5564   -156.42011    1671.3659   -415.50042   -3110.0755 
12610000    240.34537   -3971.5352   -3559.5915   -3971.5352            0    3800.2108    17.439659    20.541615    21.276343    7622.0109    5489.6829    2396.1635     3514.786    488.35492    118.86661    16.051832   -3137.1631 
12611000    237.87035    -3944.055   -3536.3533    -3944.055            0    3480.0747    17.444314    20.547098    21.282022    7628.1158    1753.0074    5560.5202    3126.6964    1210.8124   -1467.0632   -1106.5807   -3149.2011 
12612000      243.188   -3961.5127   -3544.6968   -3961.5127            0    3690.5573    17.398063     20.49262    21.225596    7567.6014    3344.3841    3658.5701    4068.7176   -722.86893   -1051.9401   -1004.5894   -3137.3858 
12613000    225.39487   -3953.5268   -3567.2077   -3953.5268            0    4712.1548    17.349819    20.435796    21.166739    7504.8233     4857.024    4430.5926    4848.8478    435.68501    148.71396   -333.31072   -3051.4617 
12614000    253.44003    -3940.422   -3506.0345    -3940.422            0    3724.0527    17.349329    20.435218    21.166141    7504.1871    3159.3951    3221.4866    4791.2763   -236.55541    703.01913     487.7772   -3098.4709 
12615000    258.73229   -3967.3453    -3523.887   -3967.3453            0    4816.5187    17.342212    20.426835    21.157458    7494.9557     5310.175    5097.2705    4042.1105    1182.4532    -143.8165    348.18608   -2997.4115 
12616000    234.24976   -3950.4339   -3548.9378   -3950.4339            0    3608.4074    17.336193    20.419745    21.150114    7487.1538    4793.3097    3649.4632    2382.4493   -584.49128   -746.23362    938.69323   -3154.9269 
12617000    228.82876   -3970.4186   -3578.2139   -3970.4186            0     3423.061    17.401334    20.496473    21.229586    7571.8708    2717.2329    4072.4376    3479.5125    675.04567   -694.98914    1953.0151   -3200.2123 
12618000    238.36854   -3954.0167   -3545.4612   -3954.0167            0    5771.6063    17.288057    20.363047    21.091389    7424.9599    4947.7705    6999.4207    5367.6276    -466.2977   -11.678207    1065.6678   -2920.4804 
12619000    245.51534   -3956.8211   -3536.0162   -3956.8211            0    4020.7685    17.345657    20.430893    21.161661    7499.4233    4047.4813    3417.6532    4597.1711    675.19492   -737.77253    499.53809   -3096.2591 
12620000    240.41868   -3962.9729   -3550.9036   -3962.9729            0      3503.93     17.35666    20.443853    21.175085    7513.7038    2948.1884     3790.262    3773.3394   -7.0917351    459.50414    444.48189   -3166.9441 
12621000    244.08741   -3952.5478   -3534.1904   -3952.5478            0    3341.6288    17.376333    20.467025    21.199085    7539.2814    2423.3661    3745.1101    3856.4102    1014.0618   -1540.4736   -787.61399   -3166.7693 
12622000    250.98181   -3932.6041   -3502.4299   -3932.6041            0    3914.0174     17.37569    20.466268    21.198302    7538.4454    2787.7087    4517.1797    4437.1638    98.920144   -724.59868    280.01945   -3072.1208 
12623000     237.0291   -3964.5558    -3558.296   -3964.5558            0    4027.0163    17.293056    20.368936    21.097489    7431.4039    5342.1912    4322.6751    2416.1828    115.13938   -559.24525   -391.25516   -3121.8504 
12624000    241.76218   -3945.9125   -3531.5404   -3945.9125            0    3801.7892    17.408753    20.505211    21.238637    7581.5595    4681.6882    3253.5874    3470.0921    1919.2977   -273.81684    211.31377   -3111.1793 
12625000    255.10934   -3949.3852   -3512.1366   -3949.3852            0    5097.7432    17.373671     20.46389    21.195838    7535.8175    4992.6022    5322.9807    4977.6467    1224.9389   -1174.8555    305.57381   -2951.8835 
12626000    241.25395   -3956.0269   -3542.5259   -3956.0269            0     6565.149    17.256996    20.326462    21.053495    7385.0121    7574.0836    6018.4802    6102.8831    2165.9857   -1342.7769   -251.03497   -2835.4408 
12627000    246.14923   -3962.9574   -3541.0661   -3962.9574            0    4715.7369    17.321665    20.402633    21.132391    7468.3471    5060.8064    4776.0128    4310.3913    856.95727    113.76059    971.36101   -3027.4366 
12628000    252.78438   -3990.8331   -3557.5693   -3990.8331            0    3180.7671     17.38154    20.473158    21.205438    7546.0618    2945.1357    3289.0732    3308.0924   -649.64576   -138.27036    379.16774   -3207.5209 
12629000    248.96611   -3946.5197   -3519.8003   -3946.5197            0    3727.1443    17.413706    20.511045     21.24468    7588.0326    3869.8051    4290.2711    3021.3566   -718.28113    657.12603   -332.87771   -3107.3409 
12630000    229.01343   -3962.1544   -3569.6332   -3962.1544            0    5104.5698    17.355636    20.442646    21.173835    7512.3735     5232.874    4059.7461    6021.0894    310.51317   -1147.6588    322.38144   -3010.3752 
12631000    242.31548   -3972.3533   -3557.0329   -3972.3533            0     5693.789    17.296076    20.372493    21.101173    7435.2977    7421.7712    4464.3426    5195.2531    366.76954   -675.72638   -1346.3197   -2939.6201 
12632000    247.07851   -3968.4897   -3545.0056   -3968.4897            0    3217.7138    17.375321    20.465834    21.197852    7537.9652    3036.6296    2593.0641    4023.4476    874.52919   -524.65963    346.72981   -3191.2711 
12633000    229.73835   -3970.2197    -3576.456   -3970.2197            0    3196.1112    17.387095    20.479701    21.212215    7553.2987    2603.7303    2878.7699    4105.8334    1128.6718   -652.92052    433.76649   -3224.3816 
12634000     230.8932   -3984.9115   -3589.1684   -3984.9115            0    4600.5712    17.362964    20.451278    21.182776    7521.8937    5037.0804    4343.5452     4421.088     2313.328     60.28565   -820.12491   -3084.4899 
12635000    226.72124   -3980.4775   -3591.8851   -3980.4775            0    4327.2719    17.301723    20.379145    21.108062    7442.5827    3144.7006    5361.7577    4475.3572   -231.78769    1487.7268   -296.93738   -3122.1924 
12636000    243.76524   -3988.8372   -3571.0319   -3988.8372            0    2453.7219    17.408034    20.504365    21.237761    7580.6206     3694.153    2434.9326      1232.08   -371.76789   -211.75551   -1488.6261   -3299.7593 
12637000    224.22669   -3958.0027   -3573.6858   -3958.0027            0    2528.1371    17.361841    20.449955    21.181405    7520.4338    3618.7226    2239.7547    1725.9341   -1492.4036     547.1098   -971.39905   -3296.4053 
12638000    237.93332   -3977.1278   -3569.3183   -3977.1278            0    4005.7398    17.354702    20.441546    21.172696    7511.1607    3433.5075    5637.4191    2946.2928   -374.28288    1162.6509    279.68686   -3130.5192 
12639000    211.89649   -3970.1099   -3606.9265   -3970.1099            0    3722.4922    17.285717    20.360291    21.088534    7421.9455     6867.306    1136.7831    3163.3874   -259.08056    1687.5942   -2174.1756   -3203.9985 
12640000    230.52677   -3962.6625   -3567.5475   -3962.6625            0    3146.1078    17.398746    20.493425     21.22643    7568.4935    3600.3625    4260.2084    1577.7526   -1130.3834   -880.27725   -136.04199   -3220.2841 
12641000    225.32458    -3961.285   -3575.0864    -3961.285            0    3368.0675    17.316377    20.396405    21.125939    7461.5092    1803.6521    5882.0736    2418.4766    -1276.662    1252.0438   -177.78438   -3208.5785 
12642000    233.88698   -3971.9422   -3571.0679   -3971.9422            0    2960.1211    17.346238    20.431578     21.16237    7500.1771    3117.1189    3568.2416    2195.0028    71.353097   -620.83425    316.95479   -3247.2828 
12643000    236.22223   -3968.5211   -3563.6443   -3968.5211            0    6677.8784    17.207653    20.268343    20.993297    7321.8452    7270.0793    8056.6809    4706.8751     -277.267    -1578.608    1461.9978   -2850.5697 
12644000    237.46605   -3962.6878   -3555.6791   -3962.6878            0    4778.0705    17.269646    20.341361    21.068927    7401.2635    4820.1108    5310.9563    4203.1445   -1119.0369   -1095.1342    614.46905    -3039.935 
12645000     244.6764   -3947.4146   -3528.0476   -3947.4146            0    3373.0937     17.33131    20.413994    21.144158    7480.8298    2360.9554    4852.6643    2905.6613   -1853.1378   -389.46967    1421.4982   -3160.0424 
12646000    237.71963   -3976.7473    -3569.304   -3976.7473            0    4418.2739     17.26318    20.333746    21.061039    7392.9536    3659.4425     4350.382    5244.9974    186.07653     387.2914   -314.73303   -3092.9316 
12647000     232.5281    -3980.777   -3582.2318    -3980.777            0    4727.5397    17.206346    20.266802    20.991702     7320.176    4008.3133    3481.8896    6692.4161    7.6504446    1184.1427    425.41673   -3077.5326 
12648000    228.92305   -3970.7316   -3578.3653   -3970.7316            0     4333.338    17.265981    20.337045    21.064457    7396.5532    4296.9906    2769.5577    5933.4657    80.792643    820.31592   -1538.8982   -3110.9232 
12649000    248.60589   -3935.8789   -3509.7769   -3935.8789            0    4414.2844    17.271992    20.344125    21.071789    7404.2801    4500.6291    4562.0254    4180.1986    84.671098    1371.3292    158.57618   -3033.1056 
12650000    236.88668   -3962.2093   -3556.1936   -3962.2093            0    4457.0263    17.283302    20.357447    21.085588    7418.8353    5275.8772    3982.8861    4112.3157    194.99401    1449.7348   -859.79318   -3073.9608 
12651000    237.60301   -3922.6438   -3515.4003   -3922.6438            0    5666.6034    17.376951    20.467753     21.19984    7540.0868    6222.9987    6281.5768    4495.2347    762.29818     726.7114    496.27577   -2892.2755 
12652000    228.58558    -3966.764   -3574.9761    -3966.764            0    3590.2012    17.358513    20.446035    21.177345    7516.1103    4936.4687    1941.2303    3892.9045    965.77441   -1221.6205    992.68331   -3181.4371 
12653000    237.04365   -3956.2284   -3549.9437   -3956.2284            0    3371.8473    17.381227    20.472789    21.205056    7545.6535    3966.6455    1425.9166    4722.9797    860.09922    367.85058    252.12643   -3178.8867 
12654000    238.03427   -3978.9866    -3571.004   -3978.9866            0    4276.8361    17.344987    20.430103    21.160843    7498.5538    4183.6034    4852.6537    3794.2511    14.692244   -1008.9047    119.48288   -3103.2947 
12655000    230.39534   -3955.7142   -3560.8245   -3955.7142            0    4356.3472     17.38213    20.473853    21.206158    7546.8303    4597.7141    5342.0138    3129.3137    -2565.065   -64.526426    384.69374   -3081.3528 
12656000    237.05734   -4002.9742   -3596.6661   -4002.9742            0    2101.3074    17.427861    20.527718    21.261949    7606.5517    2809.4182    2043.0612    1451.4427   -90.837596   -407.18172   -166.52849   -3363.5602 
12657000    228.11935   -3973.7666   -3582.7778   -3973.7666            0    3020.8647    17.449889    20.553665    21.288824     7635.432    3114.3738    3469.3255    2478.8948    551.44974    552.58203   -1288.5478   -3246.3896 
12658000    229.79566   -3972.7519     -3578.89   -3972.7519            0    4280.9164    17.358598    20.446136    21.177449     7516.221    5618.1874    4427.7597     2796.802    148.30885    253.87327   -731.42668   -3109.6315 
12659000    242.69354   -3995.1683   -3579.1999   -3995.1683            0    2845.0398    17.412788    20.509965    21.243561    7586.8335    2474.7892    3239.6811    2820.6492    930.32257   -309.98366   -1151.6588   -3264.4071 
12660000    238.36615   -3953.6149   -3545.0635   -3953.6149            0    6064.1752    17.336096    20.419631    21.149997    7487.0287    6159.5625    4836.8112    7196.1519    446.78672    140.51957     102.7719   -2882.9124 
12661000    227.19422   -3978.9837   -3589.5806   -3978.9837            0    4362.7982    17.365705    20.454507     21.18612    7525.4569    4073.9538     4490.741       4523.7     1011.779    825.28631   -1261.8014   -3110.7588 
12662000    231.87402   -3995.6568   -3598.2327   -3995.6568            0    2198.1132    17.400219     20.49516    21.228227    7570.4159    3199.6131    1780.1001    1614.6263    433.99244   -415.61124    909.46234   -3355.5461 
12663000    256.63867   -4025.2158   -3585.3459   -4025.2158            0    3999.9201    17.359632    20.447353     21.17871    7517.5634    2838.6581     4146.821    5014.2813      959.537    1360.8294    602.31371   -3146.8109 
12664000    239.45923   -3990.8472   -3580.4222   -3990.8472            0    4851.4027    17.287848    20.362801    21.091134    7424.6911    3311.9533     5382.769    5859.4858   -148.64194   -473.21129    1010.7235   -3055.1051 
12665000    240.73599    -3982.556   -3569.9428    -3982.556            0    3410.2244    17.419255    20.517581     21.25145    7595.2887    2949.1701    2129.1925    5152.3108    276.98778   -1470.5526    193.72951    -3192.194 
12666000    230.79304   -3942.2468   -3546.6754   -3942.2468            0    6341.2881    17.338636    20.422623    21.153095    7490.3197    5876.5817    6492.5461    6654.7365    647.98539   -841.59625   -727.72658   -2853.9618 
12667000    230.15727   -3991.6632   -3597.1815   -3991.6632            0    2753.7086    17.364773    20.453409    21.184982    7524.2447    1813.3517    3622.7876    2824.9864    494.43722   -706.14857   -599.85276   -3295.0077 
12668000    239.77097   -3954.9287   -3543.9694   -3954.9287            0    3449.7833    17.377139    20.467974    21.200068    7540.3304    2345.7577    4809.0452    3194.5472   -318.61238   -182.12225    752.33655   -3164.6037 
12669000    242.98297   -3956.6965    -3540.232   -3956.6965            0    3861.5063    17.406709    20.502804    21.236144    7578.8898    2948.4646    4320.0488    4316.0056    156.55286    1254.7683    129.32653   -3113.4185 
12670000    239.76263    -3973.529    -3562.584    -3973.529            0    3448.9596    17.358156    20.445615     21.17691    7515.6469    1959.9733    5853.8199    2533.0856    747.30961   -299.14541   -485.44065   -3184.5505 
12671000    233.74732   -3959.1692   -3558.5343   -3959.1692            0    3402.7012    17.320629    20.401413    21.131127    7467.0068    2731.2287    5333.2348    2143.6402   -603.08343   -905.00308   -1350.6589   -3187.9848 
12672000    237.44518   -3972.9012   -3565.9283   -3972.9012            0    3539.2253    17.324994    20.406554    21.136452    7472.6534    2977.3447    2884.7415    4755.5896   -1322.3656   -579.88345   -902.88575   -3180.2201 
12673000    233.56519   -3979.1185   -3578.7958   -3979.1185            0    2148.9124    17.418277     20.51643    21.250258    7594.0105    2539.1299    2137.0988    1770.5083   -331.36097    389.79876   -912.32159   -3340.8019 
12674000    233.13845   -3965.6908   -3566.0994   -3965.6908            0     4935.167    17.218129    20.280681    21.006077    7335.2248    3530.9584    5518.5959    5755.9466   -1008.6631   -147.61887   -163.26976   -3038.1514 
12675000    237.66159   -3954.9319    -3547.588   -3954.9319            0    4196.3066     17.29652    20.373016    21.101714    7435.8699     1685.975    5782.1051    5120.8396    837.97952   -2025.2847   -239.33618   -3092.5215 
12676000    234.69463   -3977.2844   -3575.0259   -3977.2844            0    3844.1486    17.262278    20.332683    21.059938    7391.7943    3831.7411      2295.17    5405.5347    922.52723   -1070.7743    65.908072     -3160.62 
12677000    247.39295   -3967.1271   -3543.1041   -3967.1271            0    4055.8971    17.287709    20.362638    21.090965    7424.5121    2743.5841     4356.103    5068.0041    1019.8933   -165.11643   -859.56668    -3103.936 
12678000    244.31105   -3964.0411   -3545.3003   -3964.0411            0     6638.411    17.196202    20.254855    20.979327    7307.2374    6662.3465     6340.346    6912.5405   -41.640888   -1976.7967   -145.29746   -2837.8544 
12679000    228.62906   -3943.4342   -3551.5719   -3943.4342            0    5053.5217    17.300856    20.378123    21.107004    7441.4633    5394.4241    5696.4534    4069.6875   -290.87112    6.8025907   -644.14008   -3003.1328 
12680000    232.38748   -3973.6098   -3575.3057   -3973.6098            0    2590.2978    17.388581    20.481452    21.214028    7555.2359    3337.4976    1922.4672    2510.9285   -690.37408   -621.04136   -1093.9311   -3289.8928 
12681000    242.79925   -3958.5563   -3542.4067   -3958.5563            0    5470.7922    17.256644    20.326047    21.053065    7384.5595    3547.1659    7032.5476    5832.6632   -838.93665    839.86475   -713.86886    -2953.223 
12682000    261.26105    -3971.043   -3523.2505    -3971.043            0    3949.0714    17.308063    20.386612    21.115797    7450.7673    6068.2954    3726.1494    2052.7693    108.64557   -775.33768   -1550.0731   -3094.1373 
12683000    236.25414   -3978.2271   -3573.2956   -3978.2271            0    3734.2383     17.29066    20.366114    21.094565    7428.3152    3484.6469    5005.2696    2712.7983    1240.7993    248.81924   -512.14062   -3168.7493 
12684000    233.40855   -3985.3468   -3585.2926   -3985.3468            0    3367.9981    17.279015    20.352397    21.080358    7413.3161     3748.827    3295.5769    3059.5902   -624.62248    1517.0893    722.33307   -3221.1594 
12685000    237.25996   -3955.6831   -3549.0277   -3955.6831            0    4467.3213    17.335484     20.41891    21.149249    7486.2352    3638.0231    4928.9148    4835.0261    1215.0102   -655.37101    322.77099   -3061.2897 
12686000    232.40391   -3940.1495   -3541.8171   -3940.1495            0    4609.7118    17.306059    20.384252    21.113352    7448.1797    3490.1991    5245.2134    5093.7228   -359.89798    63.381258   -882.20508   -3041.0915 
12687000    235.98237   -3990.0323   -3585.5666   -3990.0323            0    5307.4771    17.272128    20.344286    21.071956    7404.4559    5085.3578    6572.5897    4264.4838   -721.18392    342.57354    336.04921   -3012.4313 
12688000    254.71834   -3979.9177   -3543.3391   -3979.9177            0    4874.3693    17.266817     20.33803    21.065476    7397.6272    5846.5273     5065.287    3711.2937   -23.357246   -301.16608   -673.78739    -3017.459 
12689000     242.3427   -3999.0708   -3583.7037   -3999.0708            0    3015.6722    17.303179     20.38086    21.109838    7444.4621    2952.2498    3976.5756    2118.1912    888.75569    890.01539   -420.38375   -3256.2927 
12690000    246.70504   -3944.4903   -3521.6463   -3944.4903            0    4403.4224    17.332931    20.415903    21.146135    7482.9283    4131.2609    5016.7916    4062.2148    343.77272   -342.54106   -732.14346   -3041.0972 
12691000    242.36214   -3965.6297   -3550.2293   -3965.6297            0    4737.0693    17.294966    20.371185    21.099818    7433.8655    5133.6374     5051.757    4025.8137    183.94256   -1904.9696    1515.3345   -3036.6585 
12692000     236.6487   -3961.3181   -3555.7103   -3961.3181            0    3612.8811    17.324582    20.406069     21.13595    7472.1209    4073.8504    4060.9665    2703.8263    377.18394   -1306.9586    388.69318    -3162.003 
12693000    240.81608   -3964.3244   -3551.5739   -3964.3244            0    3602.5975    17.353373    20.439981    21.171075    7509.4358    2721.1576    2970.1567     5116.478    382.03473   -757.29526     1176.327   -3157.0267 
12694000    246.49148   -3957.6186   -3535.1407   -3957.6186            0    5097.2162    17.385482    20.477801    21.210247    7551.1969    4781.7884    5727.5819    4782.2783    1207.2211    282.36037    1050.2252   -2973.8023 
12695000    231.16939   -3943.3998   -3547.1833   -3943.3998            0    4222.0752    17.348997    20.434826    21.165735    7503.7555     4005.431    3909.5731    4751.2215   -1495.2987    673.72347   -950.24807   -3085.1423 
12696000    239.66428   -3956.1135   -3545.3371   -3956.1135            0    3094.0263    17.391658    20.485076    21.217782    7559.2473    3648.0731    2391.2736    3242.7322    301.81801    267.94023   -667.60702   -3204.2397 
12697000    255.56743   -3970.4501   -3532.4163   -3970.4501            0    3173.2022    17.292449    20.368221    21.096747    7430.6208    5105.4359    3552.6409    861.52979   -1450.8098    506.78332   -1214.1564   -3188.5428 
12698000    236.74788   -3914.3194   -3508.5416   -3914.3194            0    3307.7545    17.350353    20.436424     21.16739     7505.516    2742.5404     3235.132    3945.5911    776.69265     229.1904    1354.5664    -3146.474 
12699000    250.44916   -3923.2465   -3493.9852   -3923.2465            0    3327.9522    17.328646    20.410856    21.140907    7477.3802    4393.8104    3023.5221    2566.5241    10.975802   -1335.6758    227.54276   -3131.0723 
12700000     240.0346   -3943.5722   -3532.1612   -3943.5722            0    2762.0624    17.351893    20.438238    21.169269    7507.5142    2943.9535    2129.2153    3213.0185   -180.62282     700.5476   -1388.3474   -3229.7446 
12701000    236.49429   -3956.1863   -3550.8432   -3956.1863            0     1979.385     17.39103    20.484337    21.217017     7558.429    3212.0714    1125.1762    1600.9075    840.71195   -327.41341    509.60884   -3332.6517 
12702000    239.90402   -3947.3419   -3536.1546   -3947.3419            0    3248.7951    17.391398     20.48477    21.217465    7558.9086    2403.2907    1450.8623    5892.2323   -411.93337    289.16786   -259.02462    -3178.011 
12703000      234.787   -3971.4409    -3569.024   -3971.4409            0    4371.9528    17.333827    20.416959    21.147229    7484.0897    5022.0369     3282.888    4810.9334   -999.01735    163.38058   -361.97132   -3091.8351 
12704000    242.58616   -3992.4119   -3576.6275   -3992.4119            0    4493.7677    17.428682    20.528685    21.262951    7607.6272    2931.1976    4961.9091    5588.1964    1424.5228   -164.95414   -393.40977   -3078.0465 
12705000    228.14101   -3979.2292   -3588.2033   -3979.2292            0    5767.9419    17.409747    20.506383    21.239851    7582.8591    3497.3359    7047.8845    6758.6054    2168.6349    113.68517   -747.70213   -2950.3368 
12706000    226.54434   -3977.6324   -3589.3432   -3977.6324            0    3602.4645    17.433353    20.534187     21.26865     7613.746    3816.1377    2972.4173    4018.8385   -614.63938    -965.3254    168.15537   -3189.3303 
12707000    235.81845   -3956.4481   -3552.2633   -3956.4481            0    4232.4545    17.373527     20.46372    21.195663    7535.6304    4397.1066    4022.7799     4277.477   -111.75709     219.9048   -1373.3533    -3087.119 
12708000     236.0856   -3962.9385   -3558.2959   -3962.9385            0    4669.9026    17.360431    20.448295    21.179685    7518.6021    4248.7435    5102.5448    4658.4196   -96.703839    388.55412   -2432.8068   -3046.2359 
12709000    247.32775   -3986.3788   -3562.4675   -3986.3788            0    3760.0516    17.335899    20.419399    21.149756    7486.7731    5323.3052    3450.7568    2506.0928    683.68784    42.730106   -645.60521   -3151.9191 
12710000    234.77817   -3919.8882   -3517.4865   -3919.8882            0    3462.7907    17.366671    20.455645    21.187298    7526.7124    3470.7132    2914.2265    4003.4323    40.027997   -175.42784    541.75786   -3137.3781 
12711000    238.13774   -3966.2633   -3558.1033   -3966.2633            0     4748.784    17.248176    20.316073    21.042735    7373.6945    3584.6253    3791.2144    6870.5125    28.010004    291.17528   -294.55316   -3047.4297 
12712000    231.23047   -3952.6572   -3556.3361   -3952.6572            0     5249.284    17.255309    20.324474    21.051436    7382.8456     4414.327    4658.5498     6674.975   -540.26087     274.0305   -1339.9816   -2991.1392 
12713000    246.35914   -3959.7282   -3537.4771   -3959.7282            0    3732.1067    17.242885     20.30984    21.036279    7366.9099    1768.7885    4757.9451    4669.5865   -31.730047    90.789373   -336.67519   -3136.5039 
12714000    238.01745    -3973.175   -3565.2213    -3973.175            0    4001.0704    17.232531    20.297645    21.023648    7353.6474    3809.2134    3804.3209    4389.6769    798.55288   -1111.1944   -1140.9468   -3136.1249 
12715000    230.39503    -4018.488   -3623.5988    -4018.488            0    4371.3806    17.290388    20.365793    21.094233    7427.9643    4965.7997    2690.2361    5458.1061   -263.54924    995.19592   -2418.1746   -3150.0505 
12716000    231.26356   -3984.0069    -3587.629   -3984.0069            0    3004.2015    17.376008    20.466642    21.198689    7538.8587    1757.2165    3365.9946    3889.3933   -948.52426    280.27051   -639.42989   -3257.3275 
12717000    226.41519   -3977.3191   -3589.2512   -3977.3191            0    5922.0125    17.300361     20.37754      21.1064    7440.8244    5112.4169    5762.7407    6890.8799   -918.87695    74.259214    292.91209   -2946.6134 
12718000    241.11206   -3960.3725   -3547.1147   -3960.3725            0    4017.7748    17.291734    20.367379    21.095875    7429.6993    3687.5787     3810.148    4555.5977    -994.0045   -385.13791    713.76008   -3111.7706 
12719000    237.28902   -3941.6487   -3534.9435   -3941.6487            0    2214.1666     17.40009    20.495008     21.22807    7570.2478    3227.3663    1948.2872    1466.8462   -168.13952   -219.11357     202.7943     -3290.49 
12720000    238.67515   -3977.6252   -3568.5442   -3977.6252            0    4997.2414    17.319533    20.400122     21.12979    7465.5901    5458.4551    5216.5836    4316.6854   -788.42627    -922.5021   -199.61598   -3024.4547 
12721000    244.43248   -3965.8936   -3546.9447   -3965.8936            0     4169.913      17.3117    20.390896    21.120234    7455.4655    3723.6832    3667.9891    5118.0667   -269.92244    137.77197   -68.281134   -3093.5487 
12722000    239.33217   -3976.4712    -3566.264   -3976.4712            0    4455.1554    17.354913    20.441795    21.172953    7511.4349    4008.2152    4904.1706    4453.0804   -375.59586    264.64508    924.69298    -3078.217 
12723000     231.3913   -3949.4842   -3552.8874   -3949.4842            0    5513.7706    17.367639    20.456784    21.188479    7527.9707    3984.0627    6961.8282    5595.4209    -127.6386   -599.65836     1066.267   -2947.5431 
12724000    232.03867   -3931.8369   -3534.1305   -3931.8369            0    3210.4847    17.384495    20.476639    21.209043    7549.9108    4172.9511    1894.3191    3564.1837    653.16322    50.166586    1443.3506   -3180.6315 
12725000    227.92341   -3956.8102   -3566.1573   -3956.8102            0    4902.6511    17.332514    20.415412    21.145627    7482.3887     4691.296    4556.5937    5460.0636   -491.91423    193.65401   -158.64611   -3031.1655 
12726000    248.30934   -3971.3585   -3545.7648   -3971.3585            0    2203.5965     17.34925    20.435124    21.166044    7504.0837    2228.2815    772.69451    3609.8135   -601.19526    129.42456   -870.60661   -3304.6046 
12727000    257.31455   -3929.0221   -3487.9937   -3929.0221            0    4339.3452    17.315091     20.39489    21.124371    7459.8471    5811.6553    5050.7624     2155.618   -1099.6386   -350.67081    2106.6951   -3015.8981 
12728000     244.4857   -3940.0563   -3521.0161   -3940.0563            0    3523.9955    17.347009    20.432486    21.163311    7501.1772    3412.6983    2613.0088    4546.2795    1457.9614    1415.7722     1076.249   -3135.5017 
12729000    243.04616   -3962.3982   -3545.8254   -3962.3982            0    3188.9933    17.333981     20.41714    21.147416    7484.2885    2819.2352    2261.3039    4486.4409    573.55582   -420.77601    1937.8953   -3197.7447 
12730000    235.51397   -3929.6441   -3525.9812   -3929.6441            0    2793.5102    17.396674    20.490985    21.223902    7565.7903    4876.8227    2321.0003    1182.7076    258.37282    64.555909   -212.99264   -3217.7473 
12731000    257.94608   -3977.4936   -3535.3828   -3977.4936            0    4449.5264    17.304396    20.382293    21.111323    7446.0329    4011.7786    4323.3732    5013.4276    1102.0237   -273.10433   -867.75296   -3052.1965 
12732000    242.83444   -3952.8869   -3536.6769   -3952.8869            0    4310.2803    17.335153     20.41852    21.148846    7485.8064    5033.9188    3734.0852    4162.8368    532.56343   -1148.5777    169.27478   -3066.1115 
12733000    235.27205   -3945.4855   -3542.2372   -3945.4855            0    4158.6289    17.293095    20.368981    21.097535    7431.4534    3059.6765    4081.0224    5335.1879   -901.81777    229.32836   -905.01478   -3091.5245 
12734000    235.97122   -3913.2022   -3508.7556   -3913.2022            0    3616.2313    17.419099    20.517398     21.25126    7595.0855    2982.6221    3861.4436    4004.6281   -902.49165    404.57813    856.59543   -3108.1982 
12735000    239.97804   -3960.4527   -3549.1386   -3960.4527            0    2894.8214    17.365414    20.454164    21.185765    7525.0785    3308.6166    2406.8069    2969.0406    19.073903    1249.7092   -120.08056   -3231.4448 
12736000    241.17501   -3965.6704   -3552.3047   -3965.6704            0     2518.499    17.379959    20.471297     21.20351    7544.0032    621.28799    4094.6291      2839.58    337.18964   -787.15562   -789.01218   -3275.2155 
12737000    236.49971   -3957.1764   -3551.8239   -3957.1764            0    3594.6505    17.361468    20.449515     21.18095    7519.9488    3672.1641     3807.564    3304.2236   -423.18512    799.53769   -228.64872    -3157.596 
12738000    240.89257    -3945.947   -3533.0653    -3945.947            0     4138.091    17.343186    20.427982    21.158647    7496.2186    4962.2738    2809.7456    4642.2536   -1514.7852    589.65851   -469.02236   -3080.6699 
12739000    227.58722   -3949.3591   -3559.2824   -3949.3591            0      4194.44    17.403454     20.49897    21.232173    7574.6388    4045.8893    4511.0329    4026.3978    498.80732   -467.42354   -1145.9272   -3095.9296 
12740000    240.22061   -3952.6207   -3540.8908   -3952.6207            0    3918.4315     17.41241    20.509519      21.2431    7586.3393     4850.597     4623.489    2281.2085    1128.8243    1483.3338    313.47194   -3107.3596 
12741000     220.4737   -3944.0729   -3566.1885   -3944.0729            0     5670.076    17.362216    20.450397    21.181863    7520.9211    5578.6114    6039.7236    5391.8931   -915.67069   -51.186758    -784.5256   -2944.2667 
12742000    243.53711   -3953.5032   -3536.0889   -3953.5032            0    4869.9063    17.361928    20.450058    21.181511     7520.547    5277.5384    5759.2454    3572.9353    694.84517   -24.926154   -569.77327   -3001.9602 
12743000    240.44226   -3928.8119   -3516.7021   -3928.8119            0    4546.4012    17.366045    20.454907    21.186534    7525.8982    5726.5947    3769.3916    4143.2172    844.37439   -950.22471   -296.55858   -3017.7004 
12744000    241.58475   -3946.5078   -3532.4398   -3946.5078            0    4930.7198    17.345185    20.430337    21.161085    7498.8107      4446.61    5459.4784    4886.0709   -886.73088    771.97027   -830.43981   -2993.2041 
12745000    241.79088   -3936.5876   -3522.1663   -3936.5876            0    4575.8415     17.40548    20.501356    21.234645    7577.2846    4717.5291    5071.6298    3938.3655   -92.532716   -603.67048      132.037   -3016.5042 
12746000    238.25785    -3954.074   -3545.7082    -3954.074            0    3510.7369    17.368135    20.457368    21.189084    7528.6156    3127.2718     3896.593    3508.3459    1401.7358   -187.15106    1521.2611   -3160.2393 
12747000    238.92086   -3973.2193   -3563.7172   -3973.2193            0    3878.0708    17.326945    20.408853    21.138833    7475.1792     4608.418    2575.1844    4450.6099     790.0315   -93.442614      924.699   -3140.9383 
12748000    245.54141   -3949.1636   -3528.3141   -3949.1636            0    3298.0408     17.37417    20.464478    21.196447    7536.4673    1751.6775    3012.0465    5130.3984    563.59501   -1527.2618   -1908.9624    -3165.821 
12749000    229.45407   -3972.9927   -3579.7162   -3972.9927            0    3765.5961      17.4112    20.508094    21.241623    7584.7577    1325.2443    5793.2044    4178.3395   -378.45161    1366.9402    1381.9436   -3163.1814 
12750000    249.34151   -3950.5559   -3523.1931   -3950.5559            0    3184.3959     17.41251    20.509636    21.243221    7586.4693    2674.8927    4988.5333    1889.7616   -714.17256   -95.958093    -299.3323   -3170.8687 
Loop time of 515.176 on 64 procs for 250000 steps with 864 atoms

Performance: 83.855 ns/day, 0.286 hours/ns, 485.271 timesteps/s
99.2% CPU use with 64 MPI tasks x 1 OpenMP threads

MPI task timing breakdown:
Section |  min time  |  avg time  |  max time  |%varavg| %total
---------------------------------------------------------------
Pair    | 19.493     | 24.901     | 29.524     |  51.0 |  4.83
Bond    | 0.28388    | 0.29436    | 0.3076     |   1.2 |  0.06
Kspace  | 227.62     | 237.48     | 247.09     |  28.9 | 46.10
Neigh   | 4.0223     | 4.4315     | 5.203      |  16.2 |  0.86
Comm    | 116.82     | 125.02     | 131.91     |  32.5 | 24.27
Output  | 1.2809     | 1.2843     | 1.2958     |   0.4 |  0.25
Modify  | 112.93     | 115.11     | 118.33     |  11.1 | 22.34
Other   |            | 6.65       |            |       |  1.29

Nlocal:        13.5000 ave          17 max           9 min
Histogram: 1 6 3 11 0 12 10 8 7 6
Nghost:        2109.98 ave        2140 max        2061 min
Histogram: 3 0 4 4 8 8 10 11 8 8
Neighs:        4072.61 ave        5601 max        2548 min
Histogram: 3 2 9 8 16 5 8 4 3 6

Total # of neighbors = 260647
Ave neighs/atom = 301.67477
Ave special neighs/atom = 2.0000000
Neighbor list builds = 11267
Dangerous builds = 1

unfix		3
unfix		2
unfix		1

write_data	data.final.${pid}
write_data	data.final.0
System init for write_data ...
PPPM initialization ...
  extracting TIP4P info from pair style
  using 12-bit tables for long-range coulomb (../kspace.cpp:340)
  G vector (1/distance) = 0.37372555
  grid = 24 24 25
  stencil order = 5
  estimated absolute RMS force accuracy = 0.0031318539
  estimated relative force accuracy = 9.4314851e-06
  using double precision FFTW3
  3d grid and FFT values/proc = 2730 288
Last active /omp style is kspace_style pppm/tip4p/omp
WARNING: Not all mixed pair coeffs generated from mixing. Use write_data with 'pair ij' option to store all pair coeffs. (../write_data.cpp:312)

write_restart   restart.lmp.${pid}
write_restart   restart.lmp.0
System init for write_restart ...
PPPM initialization ...
  extracting TIP4P info from pair style
  using 12-bit tables for long-range coulomb (../kspace.cpp:340)
  G vector (1/distance) = 0.37372555
  grid = 24 24 25
  stencil order = 5
  estimated absolute RMS force accuracy = 0.0031318539
  estimated relative force accuracy = 9.4314851e-06
  using double precision FFTW3
  3d grid and FFT values/proc = 2730 288
Last active /omp style is kspace_style pppm/tip4p/omp
Total wall time: 0:08:39
