LAMMPS (30 Jul 2021)
  using 1 OpenMP thread(s) per MPI task
package omp 0
using multi-threaded neighbor list subroutines
echo both

include		in.partitions
variable        pid world 0
include		in.temp
variable        temperature equal 260.72
variable	tempDamp equal 100.0
include		in.pressure
variable        pressure equal 3000.0
variable        pressureDamp equal 1000.0 # This is 1 ps
include		in.seed
variable        seed world 745823

units		real
atom_style	full
read_restart	restart.lmp.${pid}
read_restart	restart.lmp.0
Reading restart file ...
  restart file = 30 Jul 2021, LAMMPS = 30 Jul 2021
  restoring atom style full from restart
  orthogonal box = (0.35935613 1.5148053 0.43841364) to (17.848216 22.114372 21.774782)
  4 by 4 by 4 MPI processor grid
  restoring pair style lj/cut/tip4p/long/omp from restart
  restoring bond style harmonic/omp from restart
  restoring angle style harmonic/omp from restart
  864 atoms
  576 bonds
  288 angles
Finding 1-2 1-3 1-4 neighbors ...
  special bond factors lj:    0        0        0       
  special bond factors coul:  0        0        0       
     2 = max # of 1-2 neighbors
     1 = max # of 1-3 neighbors
     1 = max # of 1-4 neighbors
     2 = max # of special neighbors
  special bonds CPU = 1.625 seconds
  read_restart CPU = 1.885 seconds
include 	in.setup
variable	out_freq equal 1000
variable	out_freq2 equal 10000
variable	out_freq3 equal 1000

timestep	2.0

neigh_modify    delay 7 every 1

include		in.tip4p
# This is TIP4P/Ice

# create groups ###
group ox type 2
288 atoms in group ox
group hy type 1
576 atoms in group hy

# set charges - beside manually ###
set group ox charge -1.1794
Setting atom values ...
  288 settings made for charge
set group hy charge 0.5897
Setting atom values ...
  576 settings made for charge

# ### TIP3P Potential Parameters ###
pair_style lj/cut/tip4p/long/omp 2 1 1 1 0.1577 8.5
pair_coeff 1 1*2 0.000 0.000
pair_coeff 2 2 0.21084 3.1668
bond_style  harmonic
bond_coeff  1 450 0.9572
angle_style harmonic
angle_coeff 1 55 104.52
kspace_style pppm/tip4p/omp 1.0e-5
pair_modify tail yes

thermo          ${out_freq}
thermo          1000
thermo_style    custom step temp pe etotal epair emol press lx ly lz vol pxx pyy pzz pxy pxz pyz enthalpy

restart 	${out_freq3} restart.lmp.${pid} restart2.lmp.${pid}
restart 	1000 restart.lmp.${pid} restart2.lmp.${pid}
restart 	1000 restart.lmp.0 restart2.lmp.${pid}
restart 	1000 restart.lmp.0 restart2.lmp.0


include         in.dump
dump            myDump all atom ${out_freq2} dump.water.${pid}
dump            myDump all atom 10000 dump.water.${pid}
dump            myDump all atom 10000 dump.water.0
dump            myDump2 all dcd ${out_freq2} dump.dcd
dump            myDump2 all dcd 10000 dump.dcd
dump_modify     myDump append yes
dump_modify     myDump2 append yes


variable natoms 	equal  "count(all)"                        # NUMBER ATOMS
variable H      	equal  "enthalpy/v_natoms"                 # ENTHALPY-per-atom
variable Vol      	equal  "vol/v_natoms"                 # volume-per-atom
fix AVG all 		ave/time ${out_freq} 1 ${out_freq} v_Vol v_H file vol_enthalpy.dat
fix AVG all 		ave/time 1000 1 ${out_freq} v_Vol v_H file vol_enthalpy.dat
fix AVG all 		ave/time 1000 1 1000 v_Vol v_H file vol_enthalpy.dat


timer           timeout 23:50:00 every 1000
New timer settings: style=normal  mode=nosync  timeout=23:50:00

fix 		1 all shake 1e-6 200 0 b 1 a 1
       0 = # of size 2 clusters
       0 = # of size 3 clusters
       0 = # of size 4 clusters
     288 = # of frozen angles
  find clusters CPU = 0.082 seconds
fix             2 all nph iso ${pressure} ${pressure} ${pressureDamp}
fix             2 all nph iso 3000 ${pressure} ${pressureDamp}
fix             2 all nph iso 3000 3000 ${pressureDamp}
fix             2 all nph iso 3000 3000 1000
fix             3 all temp/csvr ${temperature} ${temperature} ${tempDamp} ${seed}
fix             3 all temp/csvr 260.72 ${temperature} ${tempDamp} ${seed}
fix             3 all temp/csvr 260.72 260.72 ${tempDamp} ${seed}
fix             3 all temp/csvr 260.72 260.72 100 ${seed}
fix             3 all temp/csvr 260.72 260.72 100 745823

run             250000
PPPM initialization ...
  extracting TIP4P info from pair style
  using 12-bit tables for long-range coulomb (../kspace.cpp:340)
  G vector (1/distance) = 0.37336431
  grid = 24 24 25
  stencil order = 5
  estimated absolute RMS force accuracy = 0.0031728667
  estimated relative force accuracy = 9.5549939e-06
  using double precision FFTW3
  3d grid and FFT values/proc = 2730 288
Last active /omp style is kspace_style pppm/tip4p/omp
Neighbor list info ...
  update every 1 steps, delay 7 steps, check yes
  max neighbors/atom: 2000, page size: 100000
  master list distance cutoff = 10.8154
  ghost atom cutoff = 10.8154
  binsize = 5.4077, bins = 4 4 4
  1 neighbor lists, perpetual/occasional/extra = 1 0 0
  (1) pair lj/cut/tip4p/long/omp, perpetual
      attributes: half, newton on, omp
      pair build: half/bin/newton/omp
      stencil: half/bin/3d
      bin: standard
Per MPI rank memory allocation (min/avg/max) = 9.237 | 9.241 | 9.247 Mbytes
Step Temp PotEng TotEng E_pair E_mol Press Lx Ly Lz Volume Pxx Pyy Pzz Pxy Pxz Pyz Enthalpy 
 4000000    279.68019    -3876.458   -3397.0957    -3876.458            0     2991.869     17.48886    20.599567    21.336369     7686.703    2421.0833     3206.775    3347.7486    369.86127    1747.7251   -107.68788   -3061.6992 
 4001000    270.68189   -3895.6221   -3431.6826   -3895.6221            0   -379.64656    17.627326    20.762661    21.505296    7870.7274   -866.42064   -1543.2136    1270.6945   -724.49971    1411.6672     97.88624   -3475.2609 
 4002000    260.26351   -3858.5801   -3412.4973   -3858.5801            0    5775.1853    17.431335    20.531811    21.266189    7611.1025     7110.984    4853.4351    5361.1368    424.33963    178.60128   -1347.7304    -2771.451 
 4003000    260.00442   -3884.7243   -3439.0856   -3884.7243            0    3767.7874    17.568195    20.693013    21.433156    7791.7854    4577.1755    5331.2186    1394.9681   -1259.8834    213.72442    1016.9155   -3010.9323 
 4004000     256.4861   -3907.0152   -3467.4068   -3907.0152            0    2989.1781    17.507207    20.621178    21.358752    7710.9202     2388.452    4791.8197    1787.2624    1147.4188   -1097.4715    383.38211   -3131.2562 
 4005000    265.46262   -3850.7786   -3395.7848   -3850.7786            0    4066.2757     17.48139    20.590768    21.327255    7676.8569    4322.4396    5661.8132    2214.5745    224.13707    763.28171    435.81267   -2940.5283 
 4006000    266.91623   -3872.2449   -3414.7597   -3872.2449            0    1888.6217    17.494483     20.60619    21.343228    7694.1195    538.61365    3248.5504    1878.7009    834.60113    50.596091   -148.97341   -3202.8358 
 4007000    257.32442    -3842.599   -3401.5537    -3842.599            0    5189.0609    17.392419    20.485973    21.218711    7560.2399    5928.5099    5554.2471    4084.4258   -1726.9641   -405.50963    153.57622   -2829.4164 
 4008000    252.40514   -3841.9209   -3409.3071   -3841.9209            0    2531.9291    17.482076    20.591576    21.328092    7677.7613    2803.4667    2229.5667    2562.7541    30.708565   -530.19476   -1043.7613   -3125.8013 
 4009000    264.75476    -3864.397   -3410.6164    -3864.397            0      3153.71    17.504896    20.618456    21.355933    7707.8671    3985.9355    2563.8703    2911.3243   -653.43749   -477.60507    29.110584   -3056.1037 
 4010000    264.29606   -3866.5346   -3413.5402   -3866.5346            0    2422.0768    17.546811    20.667826    21.407069    7763.3687    2212.4309    2638.4008    2415.3986   -55.548024   -82.839145     -137.234   -3139.3108 
 4011000    272.87569   -3879.3129   -3411.6133   -3879.3129            0    4665.4877    17.385699    20.478057    21.210512    7551.4794    5793.9418     4844.464    3358.0573    784.32669   -1192.1986    818.40927   -2897.8004 
 4012000    278.41213   -3882.3725   -3405.1836   -3882.3725            0    2282.9821    17.480899     20.59019    21.326656    7676.2107    1982.2143    2893.3462    1973.3857   -1263.1951    206.13817   -608.46743   -3149.6046 
 4013000     273.3314   -3877.9624   -3409.4817   -3877.9624            0    2332.7718    17.519556    20.635723    21.373818     7727.249    1887.1898    2391.4943    2719.6315   -1459.6408   -639.41961   -548.93571   -3146.5923 
 4014000    245.77252   -3882.1452   -3460.8995   -3882.1452            0    1810.4835    17.618731    20.752538    21.494811    7859.2209    1972.9778    1480.6843    1977.7884   -33.270227    86.083443    584.65202   -3253.3843 
 4015000    251.75771   -3860.1099   -3428.6058   -3860.1099            0    2753.7598    17.539105    20.658749    21.397667    7753.1445    2348.5012    2874.4306    3038.3475     443.0384    497.40444    124.47494   -3117.2336 
 4016000    273.64159   -3907.7941   -3438.7818   -3907.7941            0     3599.938    17.490409    20.601391    21.338258    7688.7455    1032.7149     6903.094    2864.0052    411.30278    997.71129   -1463.7116   -3035.1119 
 4017000    262.73527   -3875.4819   -3425.1626   -3875.4819            0    2691.1981    17.592839     20.72204    21.463222    7824.6221    2621.4408    3843.0674    1609.0861   -169.73731    300.54241   -1656.4032    -3118.059 
 4018000    252.44699   -3870.1979   -3437.5124   -3870.1979            0    2313.5214    17.543089    20.663442    21.402528    7758.4295    3228.9583    3187.0113    524.59472    -1197.928    141.90109   -246.02314   -3175.7404 
 4019000    260.78304   -3857.5842    -3410.611   -3857.5842            0    4733.4654     17.42768    20.527505    21.261729    7606.3149    5109.3958    4518.2375    4572.7628    155.66499   -1636.3258     731.1129   -2885.5262 
 4020000    248.53462   -3879.4358    -3453.456   -3879.4358            0    3236.6837    17.469002    20.576177    21.312142    7660.5489    3730.0341     3861.809     2118.208    2039.3509    538.81365    943.51554   -3091.8496 
 4021000    255.57473   -3868.1043    -3430.058   -3868.1043            0    2127.8904    17.493237    20.604722    21.341708     7692.475    2934.6635    1821.4215     1627.586    640.11853   -142.94104   -653.69712   -3191.3366 
 4022000    265.46049   -3861.6782    -3406.688   -3861.6782            0    4979.3711    17.422944    20.521926    21.255951    7600.1154    3281.2187    6365.5844    5291.3103    776.88371   -570.66978   -1557.2061    -2854.775 
 4023000    249.44056   -3870.9697   -3443.4371   -3870.9697            0    2651.7044    17.476809    20.585372    21.321666    7670.8233     1915.219    3624.0716    2415.8227    125.25582   -900.28184    378.84981   -3146.7881 
 4024000    263.57898   -3833.0355   -3381.2702   -3833.0355            0    3005.7686    17.619322    20.753234    21.495532    7860.0118     2758.194    2895.4753    3363.6365    -33.40007   -745.80959    544.49579   -3036.7183 
 4025000    257.25893   -3861.2463   -3420.3133   -3861.2463            0    3108.0502    17.567795    20.692542    21.432669    7791.2541    4029.6475     2905.661     2388.842    1575.7473   -839.12759    1035.4252   -3067.1535 
 4026000    265.78796   -3844.3759   -3388.8244   -3844.3759            0    2860.4596    17.637626    20.774794    21.517863    7884.5334    4387.0822    1464.2289    2730.0677    99.336885   -2191.4191   -8.3461631   -3059.9064 
 4027000    260.69951   -3849.8943   -3403.0642   -3849.8943            0    4549.0048    17.521082     20.63752    21.375679    7729.2676    6353.7672    3755.2121     3538.035    1950.8023    383.05795    354.88415   -2890.2848 
 4028000    256.28788   -3874.2452   -3434.9765   -3874.2452            0     2562.912    17.526169    20.643512    21.381885    7736.0016      3529.77    2043.3402    2115.6256    40.280119   -1173.9081   -372.08718   -3145.8246 
 4029000    250.85486   -3889.3699   -3459.4133   -3889.3699            0    2927.0716    17.586301     20.71434    21.455247    7815.9025    2139.3215    4528.0085    2113.8847    128.43478   -894.20696     1889.708   -3125.7654 
 4030000    273.06674   -3885.8191    -3417.792   -3885.8191            0      3941.32    17.622974    20.757536    21.499987    7864.9002    3656.9312    4348.5944    3818.4343     186.4761   -2016.9563   -32.440203   -2965.7167 
 4031000    267.77834   -3863.4844   -3404.5215   -3863.4844            0     3104.682    17.533969      20.6527    21.391402    7746.3359    3160.3502    2455.1503    3698.5455    1479.8391   -6.7424179     1998.703   -3053.7782 
 4032000    253.17062   -3875.2576   -3441.3318   -3875.2576            0    2926.6657    17.630056    20.765878    21.508628    7874.3859    4485.5344    3421.5054    872.95712    167.04793   -788.26057   -157.74644    -3105.234 
 4033000    259.77827   -3879.3168   -3434.0657   -3879.3168            0    2891.5781    17.599421    20.729793    21.471252     7833.407    2937.4743    2842.3285    2894.9314   -677.82499   -247.14785    782.48319   -3103.7255 
 4034000    251.54675   -3904.1498   -3473.0073   -3904.1498            0    4300.6728    17.618611    20.752397    21.494664    7859.0598    4116.6205    3548.2283    5237.1697   -104.33721   -600.04838   -437.05646     -2980.08 
 4035000    247.19856   -3907.7262   -3484.0364   -3907.7262            0    3670.8119    17.551403    20.673234     21.41267    7769.4646    3681.2698    4120.0759    3211.0899    575.54736    -36.80647    519.40455   -3068.0979 
 4036000    252.28739   -3893.8502   -3461.4382   -3893.8502            0    3341.8446    17.614296    20.747314      21.4894    7853.2873    5364.6425    2366.5753     2294.316 1.7107773e-05    117.02887   -1531.5049   -3078.6896 
 4037000    265.87946   -3890.4025   -3434.6942   -3890.4025            0    3216.7443     17.55432     20.67667    21.416229    7773.3393    1806.8791    3324.8671    4518.4867   -150.26958    1599.3544    167.37434   -3070.0242 
 4038000    260.81675   -3875.2471   -3428.2161   -3875.2471            0    1708.9893    17.598016    20.728138    21.469538    7831.5317   -1052.4265    2408.6983     3770.696    772.84417   -31.591538   -412.55779   -3233.0241 
 4039000    267.11585   -3892.2453   -3434.4179   -3892.2453            0    2800.7361    17.571081    20.696412    21.436677    7795.6261    2467.2414    1950.7174    3984.2495     99.04485    879.47893   -1672.4838   -3115.9988 
 4040000    266.94909   -3889.4288   -3431.8872   -3889.4288            0    2241.4373      17.5979    20.728002    21.469397    7831.3767    2480.2685    1007.4781    3236.5652   -428.52119    48.364284    180.75375   -3175.8868 
 4041000    246.01209   -3856.7352   -3435.0789   -3856.7352            0    1948.9903    17.611973    20.744578    21.486566    7850.1803    3131.3818    1751.9622    963.62706   -772.82565   -343.77557   -580.32448   -3211.9452 
 4042000    267.74759   -3888.0027   -3429.0925   -3888.0027            0    3073.5038    17.493057    20.604511    21.341489    7692.2385    2625.7528    2782.2511    3812.5077   -925.86979   -110.05851   -909.64623   -3084.2963 
 4043000    254.15401   -3831.0129   -3395.4016   -3831.0129            0    3484.0313    17.494956    20.606748    21.343806    7694.7442    3374.7809    3204.0735    3873.2397   -745.09547    650.15036   -4.3992852   -3004.4238 
 4044000    253.92372   -3832.0449   -3396.8283   -3832.0449            0    4873.0672    17.553856    20.676124    21.415663    7772.7228     6520.364    3219.9191    4878.9184   -715.80708    398.15048      858.707   -2844.4311 
 4045000    251.95776   -3907.6443   -3475.7973   -3907.6443            0    3190.8133    17.562076    20.685806    21.425692    7783.6475    3906.5844    2594.2193     3071.636    -350.5183   -582.41592   -395.50799   -3113.5873 
 4046000    263.48322   -3862.5861   -3410.9849   -3862.5861            0    2125.5774    17.503251    20.616517    21.353925    7705.6934    2864.6219    686.09641    2826.0139    687.32547    -164.9855     -254.331   -3172.1133 
 4047000    259.37751    -3894.914   -3450.3498    -3894.914            0    3390.5786    17.454735    20.559372    21.294736    7641.7946    2446.9994    4581.4322    3143.3043     1153.466   -1009.2141   -891.70389   -3072.4775 
 4048000    258.16167   -3832.1762    -3389.696   -3832.1762            0    2526.1193    17.488932    20.599652    21.336456    7686.7981     2998.289     1596.413    2983.6561    471.61205   -75.319683   -855.22861   -3106.5077 
 4049000    276.12545   -3866.9104   -3393.6408   -3866.9104            0    5880.3419    17.418151    20.516281    21.250104    7593.8454    5751.8802    6459.9463    5429.1993   -334.11667    393.85714   -589.39183   -2742.4021 
 4050000    266.37121   -3901.8348   -3445.2837   -3901.8348            0    4176.0972    17.522178    20.638811    21.377016    7730.7185    4939.7643    3529.5374    4058.9899   -159.51247    88.291227    -615.1569   -2974.4513 
 4051000    264.74661   -3870.8987    -3417.132   -3870.8987            0    3636.1841      17.5632     20.68713    21.427063     7785.142    2807.4046    3445.9821    4655.1655    608.69382   -633.83231   -936.78727   -3004.2858 
 4052000    262.13288   -3907.9304   -3458.6436   -3907.9304            0     3199.825    17.582675    20.710069    21.450822    7811.0682    4019.4161    3865.4686    1714.5902    254.22788   -504.16109    278.91428    -3094.131 
 4053000    247.38945   -3846.4767   -3422.4597   -3846.4767            0    3358.7552    17.472359     20.58013    21.316237    7664.9652    3110.8937    3036.7856    3928.5863   -553.22415   -575.08712   -106.87612    -3046.999 
 4054000      273.863    -3869.395   -3400.0031    -3869.395            0    2984.4478    17.492716    20.604109    21.341073    7691.7883    2404.9369    1263.0226     5285.384   -253.31075    1588.8707    1567.7623   -3065.2172 
 4055000    261.91101   -3862.5499   -3413.6434   -3862.5499            0    3195.5812    17.577417    20.703875    21.444407    7804.0622    2351.1444    4894.3288    2341.2705   -194.50009    1149.9371   -457.82568   -3049.9408 
 4056000    264.93172   -3863.0408   -3408.9569   -3863.0408            0    3612.0164    17.626151    20.761278    21.503863    7869.1545    4163.4566    3808.1723    2864.4203   -619.16384    739.67349   -356.34011   -2994.4291 
 4057000    269.73898   -3907.1153   -3444.7919   -3907.1153            0    2559.5434     17.58249     20.70985    21.450596    7810.8213     2718.787    1563.6155    3396.2277    166.77919    -98.80004   -1345.9386   -3153.2271 
 4058000    261.32316   -3865.9106   -3418.0117   -3865.9106            0    2303.0549    17.577571    20.704057    21.444595    7804.2677    2386.8569    2175.1167    2347.1912   -214.38335    76.483311   -1200.3362   -3155.8843 
 4059000    266.75036   -3873.6951   -3416.4941   -3873.6951            0    3919.6182    17.450016    20.553813    21.288978    7635.5978    4545.3928    3946.3078     3267.154   -1999.8257    83.365256     217.3317   -2980.0158 
 4060000    245.35899   -3886.0911   -3465.5542   -3886.0911            0    2545.2719    17.596478    20.726327    21.467662    7829.4785    2346.9239    2969.4531    2319.4388    -235.6834   -133.07232    -550.7042   -3174.9226 
 4061000    261.02863   -3870.5991   -3423.2049   -3870.5991            0    1404.0473    17.532805    20.651328    21.389981    7744.7922    1762.2116    1478.6785    971.25169    1267.3994    728.36262    483.72863    -3264.618 
 4062000    248.04835   -3845.7197   -3420.5733   -3845.7197            0     2012.196     17.60046    20.731017     21.47252    7834.7955    3798.9881     489.3407    1748.2593    39.278602   -286.53408    295.66777   -3190.6549 
 4063000    269.92779   -3850.4633   -3387.8163   -3850.4633            0    5358.1899    17.479677    20.588751    21.325165    7674.6013    4022.4192    5938.2453    6113.9053   -1753.7285    647.10518   -598.08886   -2788.0946 
 4064000    257.91658   -3851.1115   -3409.0513   -3851.1115            0     1429.504    17.584702    20.712456    21.453295    7813.7697    3326.3463   -657.98348    1620.1492    1326.9732   -385.87097   -840.19454    -3246.151 
 4065000    252.45983   -3895.3956   -3462.6881   -3895.3956            0    2481.9231    17.457082    20.562137    21.297599    7644.8775    3351.5438    1201.5416    2892.6838    1651.7505   -569.15166    596.75488   -3185.9718 
 4066000    280.20983   -3864.4359   -3384.1659   -3864.4359            0    2779.5977    17.560157    20.683545     21.42335    7781.0958    2969.4463    3742.9005    1626.4462    1318.3127   -422.68372    839.15304   -3068.7391 
 4067000    248.65216   -3870.3303   -3444.1491   -3870.3303            0    1786.3351    17.612912    20.745684    21.487712    7851.4363    1906.5742    2453.1851    999.24599   -312.34466   -1189.2764   -890.39177   -3239.6045 
 4068000    265.77368   -3873.9708   -3418.4438   -3873.9708            0    2750.0316    17.555085    20.677572    21.417163    7774.3559    2684.2793    3447.4027    2118.4129    519.64974   -667.19926   -567.61455   -3106.6424 
 4069000    244.96771   -3910.8428   -3490.9766   -3910.8428            0    2956.9645    17.580242    20.707203    21.447854    7807.8262    3446.1702    2215.4466    3209.2767    218.48711    215.90738   -1101.0216   -3154.2696 
 4070000      261.042   -3877.5475   -3430.1304   -3877.5475            0     3115.396    17.606273    20.737864    21.479612    7842.5605    3415.6016    2196.5926    3733.9939    382.75491   -798.17074   -424.76475   -3073.8048 
 4071000    259.92506   -3883.5512   -3438.0486   -3883.5512            0    2421.4115    17.604252    20.735483    21.477146      7839.86    3600.3764    2010.3851     1653.473   -325.83221   -706.15286   -712.59785   -3161.1933 
 4072000    279.39039   -3826.6442   -3347.7787   -3826.6442            0    3606.4728    17.562068    20.685797    21.425682     7783.637    3517.1333    2534.0811     4768.204   -1640.3797    -338.5479   -521.22358    -2938.385 
 4073000    241.98399   -3871.3892    -3456.637   -3871.3892            0    3300.3168    17.618806    20.752626    21.494902    7859.3205    3761.2153    3661.2413    2478.4936    -1569.106    1725.8674   -1007.8567   -3078.3542 
 4074000    265.30225   -3895.2147   -3440.4957   -3895.2147            0    2385.4517    17.550643    20.672339    21.411743     7768.455    2454.7911     3853.529    848.03502   -413.33227    53.473391   -52.468722   -3170.2361 
 4075000    258.53445   -3869.9928   -3426.8736   -3869.9928            0    4026.9456    17.490037    20.600953    21.337804    7688.2543    5746.2826    3590.9494     2743.605   -76.846926    1038.9683   -1356.6119   -2975.3511 
 4076000    253.18363   -3844.9986   -3411.0505   -3844.9986            0    1296.9177    17.589195    20.717749    21.458777    7819.7616    1981.9229    1120.9537    787.87642    834.09175   -471.09338   -470.68571   -3263.1459 
 4077000    267.63428   -3918.9839   -3460.2679   -3918.9839            0    1187.9447    17.628757    20.764348    21.507043    7872.6455    3114.0179    570.39434   -120.57809    385.24179    126.83242     665.4226   -3323.8747 
 4078000    265.53102   -3818.3309   -3363.2198   -3818.3309            0    2101.9615    17.552469    20.674489    21.413971      7770.88    2358.6487    1794.9031    2152.3328    9.4849465   -155.38779   -426.46267   -3125.0038 
 4079000    260.45534   -3872.8334   -3426.4218   -3872.8334            0    3050.1818    17.591185    20.720093    21.461205    7822.4157    4612.1422    2881.3851    1657.0182   -1301.9262   -647.25511    277.51005   -3078.4513 
 4080000    267.07815   -3851.9436   -3394.1808   -3851.9436            0    1185.3078    17.698429    20.846412    21.592043    7966.3573    824.10266    2172.0146    559.80616   -1638.0742    41.855171    1100.7959   -3256.4704 
 4081000    257.97041   -3885.7588   -3443.6063   -3885.7588            0    3652.9122    17.577872    20.704411    21.444962    7804.6683    5508.1009    3335.5455    2115.0902    798.50534   -233.57687   -908.72777   -3027.8206 
 4082000    251.40779   -3889.1986   -3458.2943   -3889.1986            0    3322.0858     17.52762    20.645222    21.383656    7737.9242    2720.5261    3641.4112    3604.3201   -540.93914   -242.63246   -1214.2688   -3083.3979 
 4083000    242.58114   -3857.5491   -3441.7733   -3857.5491            0    3276.1299    17.579149    20.705915     21.44652    7806.3695    2871.4669    3789.7735    3167.1493   -970.45201   -728.86569    -405.9594   -3068.7928 
 4084000    267.03216   -3828.4666   -3370.7826   -3828.4666            0    2132.3763    17.601387    20.732109    21.473651    7836.0337    755.53331    3247.7541    2393.8415    588.47709   -1215.5323    489.03837   -3127.0936 
 4085000    266.50886    -3887.165   -3430.3779    -3887.165            0    3564.4626     17.58777     20.71607    21.457039    7817.8609    3640.1671    4214.4683    2838.7524    808.22031   -1200.8081   -507.09436    -3023.974 
 4086000    258.76103   -3862.9604   -3419.4528   -3862.9604            0    3926.1025    17.646439    20.785174    21.528614    7896.3576    4699.0512    3003.6006    4075.6556   -37.427327   -344.45473    -801.4915   -2967.3218 
 4087000    262.52228   -3893.9991   -3444.0448   -3893.9991            0    2787.9088    17.561857    20.685548    21.425425    7783.3563    1955.3682    4828.3529    1580.0055    271.09657    72.694368     306.9541    -3127.583 
 4088000    263.86386     -3829.94   -3377.6864     -3829.94            0    3000.9055     17.67137     20.81454     21.55903    7929.8735    3901.7313    3593.0303    1507.9549    201.30946    1382.6308    1016.0755   -3030.6344 
 4089000    253.45668   -3877.7711   -3443.3551   -3877.7711            0    3069.4546    17.523079    20.639872    21.378115    7731.9107    3266.5034    1814.6188    4127.2415    14.493838    2350.8118   -1471.1449   -3097.2373 
 4090000    259.49674   -3868.6133   -3423.8448   -3868.6133            0    2211.2666    17.570089    20.695244    21.435467    7794.3059    2206.5328    1265.1734    3162.0936   -1009.4052    579.56891    171.94287   -3172.4858 
 4091000     246.1546   -3882.7358   -3460.8353   -3882.7358            0     2748.139    17.460383    20.566025    21.301626    7649.2152    2555.3517    3848.8951    1840.1703    1187.1279   -375.54243    616.84663    -3154.264 
 4092000    265.53425    -3862.351   -3407.2344    -3862.351            0    2263.9179    17.531831    20.650181    21.388792    7743.5015    2058.9794    3259.1105    1473.6637    1016.0005   -19.557427   -1566.0959   -3151.5679 
 4093000    249.83939     -3867.59   -3439.3738     -3867.59            0    2227.4337    17.479538    20.588587    21.324995    7674.4176    1609.5832    2747.7736    2324.9443    26.745302     803.4126    1297.5332   -3190.0716 
 4094000    256.36993   -3878.1201   -3438.7108   -3878.1201            0    1013.1274     17.62118    20.755423    21.497799    7862.4986     -780.093    1679.9651    2139.5101    2443.4461   -127.60684    -883.4358    -3322.539 
 4095000    247.80968   -3888.6788   -3463.9415   -3888.6788            0    2959.2539    17.529809    20.647799    21.386326    7740.8226    3581.4086    2572.7548    2723.5982    333.29791    312.24722    900.08977   -3129.8655 
 4096000    266.30769   -3846.3311   -3389.8889   -3846.3311            0    3219.4221    17.599947    20.730413    21.471895    7834.1106    3182.9262    3478.9793    2996.3609   -303.73297    78.211563    501.36248   -3022.0619 
 4097000    259.22145   -3829.4303   -3385.1336   -3829.4303            0     3437.654    17.634045    20.770576    21.513494    7879.7316    2812.1066    4868.7855    2632.0698   -516.09985   -1160.6625    283.70935    -2990.086 
 4098000    249.98109   -3872.4486   -3443.9896   -3872.4486            0    1846.8584    17.554101    20.676413    21.415962    7773.0486    1069.2453    2001.3222    2470.0077    -494.7479    561.48942   -1081.4511   -3234.6261 
 4099000    260.41224   -3865.4394   -3419.1017   -3865.4394            0    1971.1965    17.567639    20.692358    21.432478    7791.0459    1138.6466    1945.3173    2829.6255   -745.76205   -294.96728    188.07452   -3195.1257 
 4100000    260.47326   -3901.7738   -3455.3315   -3901.7738            0    2646.0116    17.521169    20.637623    21.375785    7729.3829    2503.5696    2492.3189    2942.1463    542.05075   -495.09384    355.18379   -3157.0595 
 4101000    260.85698   -3910.0028   -3462.9029   -3910.0028            0    2659.2895    17.513231    20.628273    21.366101    7718.8827    1685.4968    1689.1772    4603.1944   -1786.5894    638.19033   -205.36908   -3163.5414 
 4102000    273.13024    -3884.682   -3416.5461    -3884.682            0    3563.1548    17.453864    20.558347    21.293674    7640.6515    3736.1127    4794.5194    2158.8322   -1041.0169   -203.08187    886.75869      -3019.5 
 4103000    264.32199   -3874.5784   -3421.5396   -3874.5784            0    2153.0432    17.518219    20.634149    21.372187    7725.4801    1851.4001    1033.7884    3573.9412    608.61035   -194.25614    1428.8751     -3178.96 
 4104000    267.75549   -3901.7963   -3442.8726   -3901.7963            0    2897.5828      17.4941    20.605739    21.342761    7693.6145    3397.1697    2956.5412    2339.0375    1614.5034   -1534.1739    459.96049   -3117.7537 
 4105000    270.02831   -3883.1167   -3420.2975   -3883.1167            0    2572.1966    17.491263    20.602397    21.339299    7689.8712    1163.0457    2181.1253    4372.4189    254.69188    823.87228    582.32727   -3131.8285 
 4106000    246.97883   -3902.8601   -3479.5468   -3902.8601            0     2313.108    17.485635    20.595768    21.332434    7682.4514    1555.0047    2706.3726    2677.9467    264.48226    539.64837     106.0263   -3220.3846 
 4107000    263.85391   -3911.4035   -3459.1669   -3911.4035            0     2902.718    17.533975    20.652706    21.391409    7746.3433    3580.2715    3623.1163    1504.7662   -2089.8178    621.10287    256.17222   -3131.2397 
 4108000    256.75098   -3877.1502   -3437.0879   -3877.1502            0    993.93487    17.548177    20.669435    21.408735    7765.1816    299.16839    2771.5836   -88.947417    958.55451   -1030.5037    237.44788   -3324.5275 
 4109000     252.3539   -3872.6133   -3440.0874   -3872.6133            0    3006.9552    17.469616      20.5769     21.31289    7661.3561    2723.4177    3339.1984    2958.2497    253.76526    115.26724    1228.6965   -3104.1112 
 4110000     266.4434     -3872.76   -3416.0851     -3872.76            0     2607.137    17.462452    20.568461     21.30415    7651.9343    3988.5175    2027.0084    1805.8851    181.80505   -733.74922   -386.17779   -3125.1401 
 4111000     259.7273   -3845.9613   -3400.7976   -3845.9613            0    3279.2474     17.41326     20.51052    21.244137    7587.4503     4827.536    2447.6454    2562.5608   -1753.3024   -36.918906   -441.70281   -3037.9318 
 4112000     260.0027   -3844.6462   -3399.0105   -3844.6462            0    2004.1319    17.498624    20.611068    21.348281    7699.5849      246.885    2400.5294    3364.9814   -922.84744   -186.35454    1035.0036   -3173.9654 
 4113000    263.23542   -3883.6702   -3432.4937   -3883.6702            0    2039.1303    17.585186    20.713026    21.453886    7814.4153    359.74031    2424.5397     3333.111    -195.0549    507.00348    862.76591   -3200.1037 
 4114000    263.95435   -3836.7938   -3384.3851   -3836.7938            0    3982.3228    17.468816    20.575958    21.311914    7660.3036    2779.3355     6173.151     2994.482    686.48375    1152.7849    42.271584   -2939.4892 
 4115000    261.22598   -3849.1818   -3401.4494   -3849.1818            0    4119.8984    17.573638    20.699424    21.439797      7799.03     4595.924    4447.3071     3316.464    -924.6258    1617.5368   -472.86301   -2932.8486 
 4116000    252.25459   -3858.5444   -3426.1887   -3858.5444            0    3329.6323    17.509729    20.624148    21.361829    7714.2528    3261.4822    3420.3552    3307.0595    514.32401   -1009.4954   -670.37882   -3051.5902 
 4117000    253.27943   -3887.0224   -3452.9102   -3887.0224            0    2528.3337    17.547885    20.669091    21.408379    7764.7942    3605.0819    2044.6873    1935.2319   -110.38186   -346.38198    288.35127   -3166.5977 
 4118000     258.6449   -3873.8961   -3430.5876   -3873.8961            0    2918.3682    17.494179    20.605832    21.342857     7693.718     2772.277     3165.268    2817.5596   -433.92093    1130.8092    215.29455   -3103.1322 
 4119000    269.94101   -3871.4923   -3408.8226   -3871.4923            0    3425.3662    17.596759    20.726658    21.468005    7829.8539    3231.7024      3035.87    4008.5262   -501.71223    408.69522    135.60485   -3017.6787 
 4120000    251.65394    -3861.077   -3429.7508    -3861.077            0    2131.8516    17.638693     20.77605    21.519164    7885.9638    3194.3976    1284.2084    1916.9487   -48.020937     231.7482   -159.31102   -3184.5693 
 4121000    263.12108   -3892.8106   -3441.8301   -3892.8106            0    3655.2965    17.610218     20.74251    21.484424    7847.8329    2993.2024    3854.9064    4117.7808   -311.68415   -786.98107    900.31717   -3023.4719 
 4122000    276.63751   -3879.6698   -3405.5225   -3879.6698            0    3178.1394    17.567613    20.692328    21.432447    7791.0117    4288.9581    2905.4474    2340.0126   -728.02746    344.21727   -206.88543   -3044.4099 
 4123000    260.92859   -3907.7205   -3460.4979   -3907.7205            0     3601.347    17.483241    20.592948    21.329513     7679.296    2696.1833    4826.3078      3281.55   -48.601864    209.29135    18.644885   -3057.1662 
 4124000    264.70148   -3856.4966   -3402.8073   -3856.4966            0    3343.9791    17.596797    20.726702    21.468051    7829.9043    2973.0382    3962.3882     3096.511   -1167.8301   -1411.5004   -987.52548   -3020.9546 
 4125000     278.9387   -3878.2684    -3400.177   -3878.2684            0    3947.6154    17.514382    20.629628    21.367505    7720.4038    4012.4684    3295.0807     4535.297   -328.35489    347.64682    840.60457   -2955.6985 
 4126000    261.71883   -3863.8876   -3415.3105   -3863.8876            0     3715.335    17.556295    20.678996    21.418638    7775.9627    4582.7289    3268.3815    3294.8946    988.58339    951.42767   -1543.8478    -2993.975 
 4127000    254.23377   -3848.1971   -3412.4491   -3848.1971            0    3605.2384    17.599292    20.729641    21.471095    7833.2351    2431.6675    3458.5534    4925.4944   -589.25818   -623.21575    1117.8342   -3000.5877 
 4128000    257.67472   -3866.8661   -3425.2204   -3866.8661            0    2611.8743    17.570394    20.695603    21.435839    7794.7119    3928.4549    1127.9943    2779.1735   -317.38189   -463.77581    17.210408   -3128.3081 
 4129000    284.07008   -3899.9372   -3413.0508   -3899.9372            0    981.10002    17.608425    20.740398    21.482237    7845.4364    1416.2447    810.10682    716.94853   -469.84766     165.4272   -751.91216   -3300.7957 
 4130000    251.63109   -3884.0374   -3452.7503   -3884.0374            0    2960.3963    17.507108     20.62106    21.358631    7710.7888    3031.2596    3138.0251    2711.9041    561.06066    323.44769    1219.0942   -3119.8421 
 4131000    253.47007   -3908.9302   -3474.4912   -3908.9302            0    2657.5551    17.525767    20.643039    21.381395    7735.4701     3966.561    1428.2377    2577.8665   -1400.7788    302.01891    657.72949    -3174.682 
 4132000    255.82976   -3842.2489   -3403.7654   -3842.2489            0    2459.9349    17.567932    20.692703    21.432836    7791.4357    1395.1915    4076.7542    1907.8589    1340.5905   -1287.6791     461.3419   -3124.2428 
 4133000    255.13364   -3864.0924   -3426.8021   -3864.0924            0    3569.6305    17.558094    20.681116    21.420834    7778.3544    4859.0954    3622.5723    2227.2237   -731.35384    1449.6177    1268.0114   -3021.8657 
 4134000    250.86323   -3872.0478   -3442.0768   -3872.0478            0    3333.3767    17.529986    20.648008    21.386542    7741.0574    3483.2912    3439.3081    3077.5309     393.8753   -1277.3659     630.5314    -3065.754 
 4135000    246.28273     -3863.79   -3441.6698     -3863.79            0    3082.3844    17.558653    20.681774    21.421516     7779.097    1892.5214    4164.9687    3189.6631    -876.4297     140.1442   -2078.0589   -3091.9728 
 4136000    253.03522   -3831.9441   -3398.2504   -3831.9441            0    3284.5502    17.580017    20.706938     21.44758    7807.5268    2074.2783    3179.9341    4599.4383   -276.83175    63.689925     1245.835   -3024.2558 
 4137000    257.65912   -3886.3446   -3444.7257   -3886.3446            0    1092.3303     17.67132    20.814481    21.558969    7929.8062    69.245844    2439.4274    768.31775    86.453721  -0.81314639     660.9143   -3318.3998 
 4138000    254.35651   -3857.7114    -3421.753   -3857.7114            0    2112.7725    17.626771    20.762008    21.504619    7869.9844   -37.983636    2651.4649    3724.8361    1068.9537     815.5121    588.81286   -3179.2582 
 4139000    241.77548   -3905.5971   -3491.2022   -3905.5971            0     1070.032    17.603561     20.73467    21.476303    7838.9371    324.29058    1119.9714     1765.834    221.27725   -454.51354    402.73801   -3368.8731 
 4140000    262.31147   -3880.6645   -3431.0717   -3880.6645            0    2387.4198    17.574682    20.700654    21.441072    7800.4211    3016.2455     2151.316    1994.6979   -9.4424324    394.15129   -854.26315   -3159.4761 
 4141000    258.51448   -3931.2988   -3488.2138   -3931.2988            0    2934.1676    17.567799    20.692546    21.432673    7791.2588    3077.5926    3192.2231     2532.687    842.54472    -278.8027    821.00984   -3154.8116 
 4142000    253.54359    -3901.843   -3467.2779    -3901.843            0    3484.4042    17.515991    20.631524    21.369468    7722.5323    3294.8037    2400.0551    4758.3539    36.221639   -277.97674    234.94575   -3074.8462 
 4143000    256.81628   -3887.9338   -3447.7595   -3887.9338            0    3411.1856    17.549991    20.671571    21.410948    7767.5899    2482.0363    3614.4063    4137.1141   -631.65464    77.274073    153.62016   -3061.3325 
 4144000    253.43518   -3855.2597   -3420.8805   -3855.2597            0     4525.015    17.522481    20.639168    21.377386    7731.1192    3253.0974    6035.0518    4286.8959   -201.94335    1675.0588   -1261.0407    -2910.683 
 4145000    270.19081   -3863.0377   -3399.9399   -3863.0377            0    1777.2711    17.572771    20.698403    21.438739     7797.876    3546.0926    636.25511    1149.4657    162.22041    1692.2174     678.2323   -3197.8215 
 4146000    260.67616   -3891.4011   -3444.6111   -3891.4011            0    1833.0403    17.657663    20.798395    21.542308     7911.435     3530.629    1832.7495    135.74236    80.667047   -341.34491   -1155.6428   -3233.1146 
 4147000    243.35462   -3860.6842   -3443.5827   -3860.6842            0    2772.6785    17.519954    20.636191    21.374303    7727.7748    1675.8719    1197.7467    5444.4169    454.98571    250.26459      642.224   -3131.0972 
 4148000    262.21938   -3915.1893   -3465.7543   -3915.1893            0    4869.0757    17.459756    20.565286    21.300861    7648.3911     6279.456    4601.2015    3726.5696    1202.9019     1152.792   -1109.8843   -2922.6384 
 4149000    260.38976   -3825.9976   -3379.6985   -3825.9976            0    3170.5351    17.515842    20.631348    21.369286    7722.3353     4206.318    2412.9889    2892.2984   -59.414931    -1234.952    725.86901   -3022.6254 
 4150000    258.53251   -3872.3515   -3429.2357   -3872.3515            0    4705.5599     17.43927    20.541156    21.275868    7621.5002    3820.0052    4760.5467    5536.1278    32.851039   -661.43511   -597.06894   -2906.2044 
 4151000    274.60118   -3850.0555   -3379.3985   -3850.0555            0     2342.551    17.471047    20.578586    21.314637    7663.2397    2477.1178    1932.3714    2618.1637   -879.17289   -513.32334   -282.15264   -3117.5938 
 4152000    250.11429   -3874.5107   -3445.8234   -3874.5107            0    2587.7855    17.556696    20.679469    21.419128    7776.4957    3026.8627    3132.0758     1604.418      484.283    893.76328     22.56459   -3152.3369 
 4153000    253.29033   -3844.2982   -3410.1672   -3844.2982            0    3075.4565    17.529585    20.647536    21.386053     7740.527    2647.6295    3939.5218    2639.2182   -859.95695   -630.41258   -1677.6983   -3062.9862 
 4154000    252.25785   -3874.2725   -3441.9112   -3874.2725            0    2325.7183    17.488506     20.59915    21.335937    7686.2363    2851.4585    1485.4106    2640.2858   -759.87737    907.12727     887.7904   -3181.2078 
 4155000    263.06848   -3876.3818   -3425.4915   -3876.3818            0    3231.2274    17.500266    20.613002    21.350284    7701.7528    1453.5693    4845.1001    3395.0127    602.27785    982.62365    502.74883    -3062.553 
 4156000     244.7872   -3889.2393   -3469.6824   -3889.2393            0    4289.6275    17.530634    20.648771    21.387332     7741.916    3613.0134    3566.6076    5689.2616   -70.992103   -952.08098    509.88393   -2985.3495 
 4157000    251.64827   -3872.5639   -3441.2474   -3872.5639            0    1507.7641    17.611896    20.744487    21.486472    7850.0768    1247.1254    1407.6705    1868.4962    860.01112    277.14634    753.55659   -3268.6306 
 4158000    278.01491   -3911.5381   -3435.0301   -3911.5381            0    1999.2249    17.563408    20.687375    21.427317    7785.4191    3506.2153    1806.7778    684.68145    -1072.502   -814.10902   -97.587841   -3208.0334 
 4159000    259.82112   -3886.7148   -3441.3903   -3886.7148            0    2649.8324    17.558341    20.681407    21.421135    7778.6823    2385.2156    2742.0421    2822.2394   -170.55095   -1077.6874   -221.74303   -3140.7824 
 4160000     268.4085   -3859.9514   -3399.9084   -3859.9514            0    3564.4115    17.684622    20.830149    21.575198    7947.7275    3800.2874    2709.4666    4183.4805   -220.86759   -232.91947     1715.133   -2986.7594 
 4161000    252.43835   -3891.2497    -3458.579   -3891.2497            0    3491.0817    17.568925    20.693873    21.434048    7792.7576    4736.5739    3898.6513    1838.0198    -79.58048   -966.99957     1102.378   -3061.8197 
 4162000    254.60827   -3852.5413   -3416.1514   -3852.5413            0    1788.8913    17.614956    20.748091    21.490205    7854.1693    726.55319    2818.4459    1821.6748    1305.7229   -47.288747   -88.464917   -3211.2429 
 4163000    267.25901   -3862.7585   -3404.6857   -3862.7585            0    2561.0422    17.532592    20.651077    21.389721    7744.5103    2320.1617    4293.0372    1069.9278   -169.58921   -1128.2896    583.45048   -3115.4269 
 4164000     258.0648   -3843.1828   -3400.8685   -3843.1828            0    4068.8377    17.465144    20.571633    21.307435    7655.4748    3096.3045    4531.4562    4578.7525   -155.08534   -463.35239     1066.702    -2946.594 
 4165000    256.35763   -3838.8719   -3399.4837   -3838.8719            0    2199.7943    17.600699    20.731299    21.472812    7835.1144   -737.57606     3922.024    3414.9349    59.603219     353.3539     1198.071   -3148.1196 
 4166000    264.45196   -3858.0809   -3404.8193   -3858.0809            0    3470.7923    17.522413    20.639088    21.377303     7731.029    2604.2629    3121.5585    4686.5555    1080.3069     697.8403    -1486.651   -3013.4905 
 4167000      239.954   -3841.9928   -3430.7199   -3841.9928            0    1450.9904    17.563716    20.687737    21.427692    7785.8276    335.37688    2956.3605    1061.2337   -465.72608   -1505.5063   -140.53036   -3265.9624 
 4168000    273.34062   -3814.1715    -3345.675   -3814.1715            0    3435.9356    17.466451    20.573172    21.309029    7657.1927    1496.6423    4964.5031    3846.6614    218.42531   -228.16748    363.25498   -2961.9762 
 4169000    266.15795   -3831.3433   -3375.1577   -3831.3433            0    3256.5345    17.418019    20.516126    21.249943    7593.6729   -31.565951    4642.3975    5158.7718    1159.0238   -1932.4027   -262.11591   -3014.5098 
 4170000    267.15958   -3875.8762   -3417.9738   -3875.8762            0    872.49384    17.530123    20.648169    21.386709    7741.2386    192.02403    2162.3217    263.13574    497.54184   -566.79713   -736.19842    -3319.471 
 4171000    254.45893   -3857.9111   -3421.7772   -3857.9111            0    2479.1911    17.465539    20.572098    21.307917    7655.9937    2749.7247    1863.3695     2824.479    -122.8145   -283.25443    1317.7357   -3144.9636 
 4172000    268.93285   -3916.9988   -3456.0571   -3916.9988            0    2725.8071    17.497465    20.609702    21.346866    7698.0545    3866.0911    2191.9468    2119.3834    168.72049    1157.0907   -92.957052   -3150.0355 
 4173000    254.16948   -3873.9274   -3438.2896   -3873.9274            0    2098.1079     17.58052    20.707531    21.448194    7808.1968     1279.342    2995.2143    2019.7672    -404.8173   -1450.0375   0.81670992   -3199.3685 
 4174000    252.99545   -3879.2431   -3445.6176   -3879.2431            0    2756.6699    17.534991    20.653903    21.392648    7747.6897    3847.4965    2678.8373    1743.6759    1587.8171   -70.087035    1724.1581   -3134.1356 
 4175000    264.17105   -3872.1938   -3419.4136   -3872.1938            0    5007.3045    17.446999     20.55026    21.285298    7631.6383    4749.0105    5498.5189     4774.384    406.20338   -318.31516    683.07153   -2862.1026 
 4176000    254.67949   -3876.2255   -3439.7136   -3876.2255            0    3479.9669    17.468221    20.575257    21.311189    7659.5215    4080.2537    4834.0321    1525.6148   -486.12012   -826.33794    1186.2056   -3050.9795 
 4177000    256.78961   -3837.4409   -3397.3123   -3837.4409            0    4003.1245    17.432706    20.533425     21.26786    7612.8976    4702.7186    3328.3253    3978.3296    86.197539    158.02615   -425.55256   -2952.8602 
 4178000    273.48175   -3856.4506   -3387.7122   -3856.4506            0    2713.2608    17.442269    20.544689    21.279527    7625.4329     2535.757    3270.5312    2333.4942    -221.5202     1408.395    721.98743   -3085.9729 
 4179000    252.10394   -3871.9091   -3439.8116   -3871.9091            0    1912.9677    17.557433    20.680337    21.420027    7777.4754    1647.7671    1308.8946    2782.2413   -417.82059    294.17501   -198.22916   -3222.8303 
 4180000    261.04048   -3884.3753   -3436.9609   -3884.3753            0    2802.7471    17.481814    20.591267    21.327772    7677.4154    3296.1029    1321.4066    3790.7317   -509.33864    712.88977   -1434.9098   -3123.1451 
 4181000    254.19794   -3860.5194   -3424.8328   -3860.5194            0    4124.3812    17.557959    20.680957    21.420669     7778.175    5898.8733    2522.1318    3952.1384   -696.83749    1365.8803   -621.92318   -2956.9766 
 4182000    263.02848   -3851.2365   -3400.4147   -3851.2365            0    2840.9876    17.589336    20.717914    21.458948    7819.9485    1056.6608    4626.7322    2839.5699    525.03153     429.4306   -176.36887   -3076.4116 
 4183000    272.18741   -3887.8024   -3421.2825   -3887.8024            0    3390.6654    17.545296    20.666041     21.40522    7761.3572    4257.8256    4394.9009    1519.2698    593.67767   -375.04681   -827.11886   -3037.4882 
 4184000    259.44972   -3888.0146   -3443.3267   -3888.0146            0    2661.9842    17.584527     20.71225    21.453082    7813.5372    3328.4163    3440.9787    1216.5575   -93.319184   -256.13254    534.70004   -3139.9871 
 4185000    276.61898   -3871.2583   -3397.1428   -3871.2583            0    4153.0905    17.525473    20.642692    21.381036    7735.0806    3727.0287    3485.2188     5247.024   -945.09575   -370.98682   -1014.2624   -2928.6401 
 4186000    266.64347   -3827.6978     -3370.68   -3827.6978            0    3298.6909     17.59543    20.725093    21.466384      7828.08    2757.5537     3320.138    3818.3809    733.72179    913.93689   -892.93463   -2994.0866 
 4187000    246.32312   -3846.1475   -3423.9581   -3846.1475            0    1669.8817    17.568873    20.693812    21.433984     7792.688     2532.332    178.69683    2298.6163   -540.13375    223.50191    153.98125   -3234.1787 
 4188000     269.1158   -3854.4036   -3393.1483   -3854.4036            0    3272.6159    17.582079    20.709367    21.450095    7810.2741    2824.5636    3350.8482    3642.4357    17.369952   -257.38684    577.41095   -3020.3815 
 4189000    246.53682   -3862.5454   -3439.9897   -3862.5454            0    4064.6416    17.527569    20.645161    21.383594    7737.8564    5243.3716    1063.2351    5887.3182    688.24292    104.05673    -324.6146   -2981.3002 
 4190000     262.7693   -3805.5907   -3355.2131   -3805.5907            0    1404.1937    17.622768    20.757293    21.499736    7864.6239    1295.1046    1471.8489    1445.6275    349.18559    71.742983   -1053.2922   -3194.1557 
 4191000    277.01114   -3864.3304   -3389.5428   -3864.3304            0    4887.0795    17.392294    20.485825    21.218558    7560.0766    5485.5496    5438.2151    3737.4737    15.337623   -943.84259    628.15109   -2850.7132 
 4192000     262.8693   -3862.7025   -3412.1535   -3862.7025            0    2437.8514    17.673282    20.816792    21.561363    7932.4482    1998.7911    3865.1931    1449.5699     1733.814   -25.535618   -971.86339   -3130.1268 
 4193000    261.17848   -3870.4511   -3422.8001   -3870.4511            0     3162.511      17.5591    20.682301    21.422061    7779.6913    3110.9513    2629.8668    3746.7149    709.91838   -400.23119    1679.1773   -3063.9854 
 4194000    265.00345   -3851.5017   -3397.2948   -3851.5017            0    3659.7475    17.558536    20.681636    21.421373     7778.941    4426.8018    4278.3591    2274.0817     1396.188    1353.2234     592.0936   -2982.1042 
 4195000     257.2708   -3858.1208   -3417.1674   -3858.1208            0    2363.7537    17.590521     20.71931    21.460395    7821.5299    1958.3701    1741.9462    3390.9449    84.813656   -527.68426   -1195.0703   -3147.5364 
 4196000    253.53765   -3851.7054   -3417.1505   -3851.7054            0    3601.4941    17.702312    20.850985    21.596779    7971.6006    5701.7712    3833.4411    1269.2701    111.20278   -1222.5765    1227.4741   -2998.4494 
 4197000     265.3142   -3858.8657   -3404.1263   -3858.8657            0    3145.0555    17.627665    20.763061    21.505711    7871.1826    1910.1977    4250.9973    3273.9714    493.08755    520.93732    294.23811   -3043.0955 
 4198000    271.56518   -3875.0832   -3409.6298   -3875.0832            0     3267.365    17.531035    20.649243    21.387821    7742.4467     3848.563    2512.0997    3441.4323    117.75631   -1552.5144    218.81644   -3040.6932 
 4199000    265.86083   -3877.9619   -3422.2855   -3877.9619            0    2186.4122    17.545497    20.666278    21.405465    7761.6242    2289.5576    2645.6625    1624.0163   -1328.5152   -1002.8958   -39.963401   -3174.7939 
 4200000    262.32684   -3893.3487   -3443.7295   -3893.3487            0    4422.1029     17.52773    20.645351     21.38379    7738.0692    4260.3714    4798.0151    4207.9222   -2019.5103    732.90807   -1163.9194   -2944.6872 
 4201000    249.26186   -3850.0867   -3422.8604   -3850.0867            0    2271.4065     17.65431    20.794446    21.538218    7906.9295     3635.472     2513.928    664.81945    358.18507    132.85446   -270.97202   -3160.9344 
 4202000    266.70584   -3846.8467    -3389.722   -3846.8467            0   -452.52753    17.640473    20.778148    21.521336    7888.3522   -420.14693   -158.65014   -778.78551   -98.894185    206.12247   -639.95938   -3441.7824 
 4203000    253.21838   -3859.6767    -3425.669   -3859.6767            0    1245.3886    17.624715    20.759586    21.502111     7867.231    1013.4257    1347.1146    1375.6256   -993.17177    717.73245   -1097.4261   -3282.7788 
 4204000     235.4247   -3817.0034   -3413.4936   -3817.0034            0    4119.7428    17.584178    20.711839    21.452656    7813.0715    5541.0675    4266.6059     2551.555   -1127.4428    -951.2789    679.06948   -2944.0669 
 4205000    259.56659   -3890.5412   -3445.6529   -3890.5412            0    1855.3043     17.62277    20.757295    21.499738    7864.6267    1079.9348    3010.1395    1475.8386    -187.6159    894.00066    431.09524   -3232.8541 
 4206000    253.38811   -3868.3837   -3434.0852   -3868.3837            0    3267.5177    17.570458    20.695678    21.435917    7794.7972    3110.4051    5082.6457    1609.5023    751.88969    774.80889   -147.30247   -3062.6366 
 4207000     251.7868   -3866.1092   -3434.5552   -3866.1092            0    2992.6712    17.592219     20.72131    21.462466    7823.7944    2411.4689    4091.9692    2474.5754    596.30749    49.534909    581.77776   -3093.0854 
 4208000    278.97548   -3870.8956   -3392.7412   -3870.8956            0    4155.1191    17.529099    20.646963     21.38546    7739.8823    4008.2907    3053.4801    5403.5864     1201.339   -271.98289    1235.3752   -2923.7186 
 4209000    256.16444   -3854.9419   -3415.8848   -3854.9419            0    5667.5835    17.434343    20.535353    21.269858    7615.0429    6390.7391    5036.2749    5575.7366    439.45485   -691.45672    1470.4496   -2786.4567 
 4210000    277.50964   -3851.0192   -3375.3772   -3851.0192            0    3483.9669    17.547057    20.668115    21.407368    7763.6947    5326.6396     2338.219    2787.0422   -176.08731    217.71194   -1559.4651   -2980.9032 
 4211000    267.72706   -3870.6944   -3411.8194   -3870.6944            0    4607.1884    17.428319    20.528258    21.262509    7607.1523    5058.3565    4373.0761    4390.1324    608.34288   -263.49614   -159.87044   -2900.6863 
 4212000    262.84656   -3867.2543   -3416.7443   -3867.2543            0     999.0077    17.566602    20.691137    21.431214     7789.667    988.43616    1671.7959    336.79104   -175.26383   -744.28366   -78.122354   -3303.2527 
 4213000    263.73147   -3855.9435   -3403.9168   -3855.9435            0    3169.5466    17.584489    20.712206    21.453036    7813.4866    3020.4726    3242.3779    3245.7893    694.86691   -637.38771    1888.7688   -3042.7416 
 4214000    251.40576   -3880.8071   -3449.9062   -3880.8071            0    3001.6754    17.543783    20.664259    21.403375    7759.3503    2133.3895    3809.0423    3062.5944   -124.19034    216.90468   -1026.5416   -3110.2301 
 4215000     247.9269   -3913.7732    -3488.835   -3913.7732            0    4057.7574    17.444133    20.546885    21.281802    7627.8789    4153.2891    3988.3896    4031.5936   -382.50295    25.423796   -800.06254   -3037.4306 
 4216000    257.18993   -3875.1427    -3434.328   -3875.1427            0     3980.797    17.450048    20.553852    21.289018    7635.6405    3797.5122    5049.1177     3095.761     1562.511   -1818.6146   -570.73577   -2991.0344 
 4217000    246.88932   -3876.3935   -3453.2336   -3876.3935            0    4158.5396    17.518894    20.634943    21.373009    7726.3721    4047.7163    3880.1997    4547.7028   -280.42928    160.88945    283.78865   -2984.6443 
 4218000    266.54614   -3895.1655   -3438.3145   -3895.1655            0    3392.9403    17.560635    20.684109    21.423934    7781.7319    4700.8468    3077.5054    2400.4688   -773.49841   -941.28059   -140.01974   -3053.2545 
 4219000    260.69282   -3875.1284   -3428.3099   -3875.1284            0    2743.1747     17.59224    20.721335    21.462492     7823.823    2708.9853    2136.0644    3384.4745    1187.8894   -1200.8593    656.69174   -3115.3069 
 4220000     261.9328   -3932.7566   -3483.8127   -3932.7566            0    3750.0115     17.52975    20.647729    21.386254    7740.7443    4278.3583    4084.2562    2887.4199   -20.831067   -369.17106    1058.4135   -3060.4709 
 4221000    263.30551   -3881.0917    -3429.795   -3881.0917            0     3481.157    17.502653    20.615813    21.353196    7704.9041    3009.5109    1849.8785    5584.0815   -696.51531    1418.8362   -703.73865    -3038.624 
 4222000    266.40187    -3910.759   -3454.1553    -3910.759            0    2691.1924    17.593954    20.723354    21.464583    7826.1104    2758.5908    3270.4478    2044.5386   -799.07087    34.105504   -846.57921   -3146.9939 
 4223000    255.71568   -3878.4349    -3440.147   -3878.4349            0    2655.6986    17.562146    20.685888    21.425777    7783.7398      3840.88    533.01913    3593.1965   -387.48151   -364.00222    190.33018   -3138.6778 
 4224000    251.16523   -3876.9098   -3446.4211   -3876.9098            0    3724.2301     17.55734    20.680228    21.419914    7777.3521    2049.6965    2977.5269    6145.4669   -1595.9858    365.48808     0.437287   -3024.0014 
 4225000    251.89635   -3878.2287    -3446.487   -3878.2287            0    4611.2215    17.509209    20.623536    21.361195     7713.566    3037.1349    5621.6833    5174.8462   -667.16805    764.70878    740.43446   -2927.7502 
 4226000    260.00978   -3877.8516   -3432.2037   -3877.8516            0    2940.3006    17.585112    20.712939    21.453796    7814.3169    3239.6498    3226.8123    2354.4397   -127.32526   -76.861733   -477.05802   -3097.1159 
 4227000    288.46288   -3868.0658   -3373.6503   -3868.0658            0    3166.3287    17.603798    20.734948    21.476592     7839.253     3352.366    3015.8255    3130.7947    247.89081     168.0917   -569.76543    -3011.652 
 4228000    257.75587     -3859.64   -3417.8552     -3859.64            0    1789.9479     17.67051    20.813527    21.557981    7928.7159    1145.0285    2950.2992    1274.5159    18.810466    1375.4686    1033.6256   -3210.8796 
 4229000    258.22247   -3878.7468   -3436.1623   -3878.7468            0    1727.8239    17.661111    20.802456    21.546514    7916.0707     2715.025    2690.4202   -221.97341   -944.44294   -1023.4996   -1198.2325   -3236.6889 
 4230000    267.96333   -3865.8913   -3406.6114   -3865.8913            0    3302.6375    17.697265     20.84504    21.590621    7964.7844    3260.8916    4022.0576    2624.9634    1052.0676    657.79261    81.450742   -3022.9829 
 4231000     263.2209   -3882.3177   -3431.1661   -3882.3177            0    3937.5346    17.608181    20.740112     21.48194    7845.1109     3952.434     5087.224    2772.9458   -1295.9363    144.85968   -91.500802   -2980.6613 
 4232000     260.0363   -3862.6444   -3416.9511   -3862.6444            0    3131.3663     17.48691    20.597271     21.33399    7684.1324    3877.8874    2277.6375    3238.5739   -579.36405   -338.84559   -149.89962   -3066.0339 
 4233000    257.55792   -3898.5687   -3457.1233   -3898.5687            0    2997.0663    17.638723    20.776086    21.519201     7886.004    2972.1368    2112.9837    3906.0783    1298.5939    989.82112     1145.673   -3112.4328 
 4234000    266.35417   -3864.6874   -3408.1655   -3864.6874            0    1991.1594      17.6292    20.764868    21.507582    7873.2379    1125.5374    1787.7002    3060.2405    1428.9072    294.37939    300.77536   -3179.5344 
 4235000    253.35589   -3884.3983   -3450.1549   -3884.3983            0    3688.1803    17.530601    20.648733    21.387293    7741.8727    3851.4874    2240.3322    4972.7212     1240.827    -104.1684    450.18797   -3033.7326 
 4236000    266.28978   -3894.0328   -3437.6212   -3894.0328            0     2145.701    17.559268    20.682498    21.422266    7779.9142    1177.6242    1678.5082    3580.9705   -901.10851   -539.16875    87.977334   -3194.1655 
 4237000     253.7698   -3858.5853   -3423.6326   -3858.5853            0    929.89849    17.615313    20.748512     21.49064    7854.6468   -597.94766    840.17233    2547.4708   -2246.1261   -438.87653    1238.5377   -3317.1109 
 4238000    262.00553   -3867.7625    -3418.694   -3867.7625            0    3446.6125    17.632945    20.769281    21.512152    7878.2576    3532.4298    4671.2009    2136.2069   -46.212949   -614.71939    267.39473    -3022.691 
 4239000    256.76362   -3871.0405   -3430.9565   -3871.0405            0    3590.5262     17.53444    20.653254    21.391975    7746.9591    2957.6917    5031.3402    2782.5466    535.05985    1055.9217   -280.55882   -3025.2936 
 4240000    266.00171   -3885.5857   -3429.6679   -3885.5857            0    3339.0048     17.58053    20.707542    21.448206    7808.2101    3940.8424    3689.6461    2386.5259   -92.020412   -539.12567    469.82275   -3049.4396 
 4241000    254.69827   -3897.5971    -3461.053   -3897.5971            0    3941.6933     17.49143    20.602594    21.339503    7690.0917    4650.8221     4107.268    3066.9898   -226.36747    257.04479    905.36751   -3018.9838 
 4242000    271.38808   -3910.2511   -3445.1012   -3910.2511            0    3068.6049    17.631506    20.767586    21.510397    7876.3289    2498.9122    3927.7862    2779.1163     86.26077   -328.29337    1267.0927   -3092.6162 
 4243000    268.29168   -3841.8877    -3382.045   -3841.8877            0    1804.9259    17.571753    20.697204    21.437498    7796.5213    1469.4786    2474.5629    1470.7362    97.916275    417.25135    -634.2166   -3176.8172 
 4244000    267.96268   -3855.7765   -3396.4977   -3855.7765            0    3267.9875    17.443305    20.545909    21.280791    7626.7916    3892.9442    2601.2719    3309.7463    520.68576    -152.8626    1291.0047   -3033.0029 
 4245000    283.64976   -3861.7418   -3375.5758   -3861.7418            0    3529.5313    17.517158    20.632898    21.370892    7724.0758     2389.491    3198.5423    5000.5605    629.29722    53.270118   -695.95733   -2977.9822 
 4246000    262.21443   -3879.0381   -3429.6115   -3879.0381            0    2698.0802    17.552949    20.675055    21.414556    7771.5178    1941.4139    3051.8107    3101.0159    -614.1621    976.38929    16.100821   -3123.8122 
 4247000    249.67213   -3846.2718   -3418.3423   -3846.2718            0      2812.17    17.544851    20.665517    21.404677    7760.7669    1244.5171    3982.6466    3209.3463   -1373.3695    343.87508   -554.55591   -3100.0529 
 4248000    279.78968   -3868.9986   -3389.4487   -3868.9986            0    2613.7196    17.464965    20.571422    21.307217    7655.2393    3909.4685    2205.6719    1726.0184    56.517211    316.63793    622.66443    -3097.643 
 4249000    259.13151    -3890.486   -3446.3434    -3890.486            0    1755.5725    17.506301     20.62011    21.357646    7709.7227    2051.6256    2117.5676    1097.5242    836.11017   -326.33241   -1569.3035   -3248.9497 
 4250000    276.44845   -3869.9862    -3396.163   -3869.9862            0    4336.8559    17.495025    20.606828    21.343889    7694.8343    4547.6708    3593.3142    4869.5827   -986.04428   -379.80186   -118.64844   -2909.4756 
Loop time of 488.259 on 64 procs for 250000 steps with 864 atoms

Performance: 88.478 ns/day, 0.271 hours/ns, 512.023 timesteps/s
99.1% CPU use with 64 MPI tasks x 1 OpenMP threads

MPI task timing breakdown:
Section |  min time  |  avg time  |  max time  |%varavg| %total
---------------------------------------------------------------
Pair    | 19.839     | 24.214     | 29.203     |  43.5 |  4.96
Bond    | 0.26914    | 0.27788    | 0.28921    |   0.8 |  0.06
Kspace  | 215.8      | 224.03     | 232.92     |  27.7 | 45.88
Neigh   | 5.4022     | 6.2872     | 6.9942     |  20.3 |  1.29
Comm    | 105.79     | 112.61     | 121.14     |  41.1 | 23.06
Output  | 1.9691     | 1.9701     | 1.9829     |   0.1 |  0.40
Modify  | 110.56     | 112.37     | 117.19     |  12.3 | 23.01
Other   |            | 6.493      |            |       |  1.33

Nlocal:        13.5000 ave          18 max           8 min
Histogram: 1 1 5 5 10 9 11 11 4 7
Nghost:        2107.38 ave        2137 max        2078 min
Histogram: 1 3 8 13 10 9 8 8 1 3
Neighs:        4011.20 ave        6182 max        2220 min
Histogram: 2 5 9 8 17 10 6 3 2 2

Total # of neighbors = 256717
Ave neighs/atom = 297.12616
Ave special neighs/atom = 2.0000000
Neighbor list builds = 13944
Dangerous builds = 0

unfix		3
unfix		2
unfix		1

write_data	data.final.${pid}
write_data	data.final.0
System init for write_data ...
PPPM initialization ...
  extracting TIP4P info from pair style
  using 12-bit tables for long-range coulomb (../kspace.cpp:340)
  G vector (1/distance) = 0.37333518
  grid = 24 24 25
  stencil order = 5
  estimated absolute RMS force accuracy = 0.0031761947
  estimated relative force accuracy = 9.5650159e-06
  using double precision FFTW3
  3d grid and FFT values/proc = 2730 288
Last active /omp style is kspace_style pppm/tip4p/omp
WARNING: Not all mixed pair coeffs generated from mixing. Use write_data with 'pair ij' option to store all pair coeffs. (../write_data.cpp:312)

write_restart   restart.lmp.${pid}
write_restart   restart.lmp.0
System init for write_restart ...
PPPM initialization ...
  extracting TIP4P info from pair style
  using 12-bit tables for long-range coulomb (../kspace.cpp:340)
  G vector (1/distance) = 0.37333518
  grid = 24 24 25
  stencil order = 5
  estimated absolute RMS force accuracy = 0.0031761947
  estimated relative force accuracy = 9.5650159e-06
  using double precision FFTW3
  3d grid and FFT values/proc = 2730 288
Last active /omp style is kspace_style pppm/tip4p/omp
Total wall time: 0:08:11
