LAMMPS (30 Jul 2021)
Processor partition = 1
  using 2 OpenMP thread(s) per MPI task
using multi-threaded neighbor list subroutines
variable        pid world 0 1
variable        phase world IceIh IceIII

shell cd ${phase}
shell cd IceIII
include Restart.lmp
echo both
log log.lammps
#include		in.partitions
include		in.temp
variable        temperature equal 247.72
variable	tempDamp equal 100.0
include		in.pressure
variable        pressure equal 1440.4
variable        pressureDamp equal 1000.0 # This is 1 ps
include		in.seed
variable        seed equal 745823

units		real
atom_style	full

read_restart	restart.lmp.${pid}
read_restart	restart.lmp.1
Reading restart file ...
  restart file = 30 Jul 2021, LAMMPS = 30 Jul 2021
  restoring atom style full from restart
  orthogonal box = (-0.034803237 -0.13552175 -0.17939208) to (20.034804 20.135523 20.879390)
  2 by 4 by 4 MPI processor grid
  restoring pair style lj/cut/tip4p/long/omp from restart
  restoring bond style harmonic/omp from restart
  restoring angle style harmonic/omp from restart
  972 atoms
  648 bonds
  324 angles
Finding 1-2 1-3 1-4 neighbors ...
  special bond factors lj:    0        0        0       
  special bond factors coul:  0        0        0       
     2 = max # of 1-2 neighbors
     1 = max # of 1-3 neighbors
     1 = max # of 1-4 neighbors
     2 = max # of special neighbors
  special bonds CPU = 0.002 seconds
  read_restart CPU = 0.006 seconds
include 	in.setup
variable	out_freq equal 1000
variable	out_freq2 equal 10000
variable	out_freq3 equal 1000

timestep	2.0

neigh_modify    delay 7 every 1

include		in.tip4p
# This is TIP4P/Ice

# create groups ###
group ox type 2
324 atoms in group ox
group hy type 1
648 atoms in group hy

# set charges - beside manually ###
set group ox charge -1.1794
Setting atom values ...
  324 settings made for charge
set group hy charge 0.5897
Setting atom values ...
  648 settings made for charge

# ### TIP3P Potential Parameters ###
pair_style lj/cut/tip4p/long/omp 2 1 1 1 0.1577 8.5
pair_coeff 1 1*2 0.000 0.000
pair_coeff 2 2 0.21084 3.1668
bond_style  harmonic
bond_coeff  1 450 0.9572
angle_style harmonic
angle_coeff 1 55 104.52
kspace_style pppm/tip4p/omp 1.0e-5
pair_modify tail yes

thermo          ${out_freq}
thermo          1000
thermo_style    custom step temp pe etotal epair emol press lx ly lz vol pxx pyy pzz pxy pxz pyz enthalpy

restart 	${out_freq3} restart.lmp.${pid} restart2.lmp.${pid}
restart 	1000 restart.lmp.${pid} restart2.lmp.${pid}
restart 	1000 restart.lmp.1 restart2.lmp.${pid}
restart 	1000 restart.lmp.1 restart2.lmp.1


include         in.dump
dump            myDump all atom ${out_freq2} dump.water.${pid}
dump            myDump all atom 10000 dump.water.${pid}
dump            myDump all atom 10000 dump.water.1
dump            myDump2 all dcd ${out_freq2} dump.dcd
dump            myDump2 all dcd 10000 dump.dcd
dump_modify     myDump append yes
dump_modify     myDump2 append yes


variable natoms 	equal  "count(all)"                        # NUMBER ATOMS
variable H      	equal  "enthalpy/v_natoms"                 # ENTHALPY-per-atom
variable Vol      	equal  "vol/v_natoms"                 # volume-per-atom
fix AVG all 		ave/time ${out_freq} 1 ${out_freq} v_Vol v_H file vol_enthalpy.dat
fix AVG all 		ave/time 1000 1 ${out_freq} v_Vol v_H file vol_enthalpy.dat
fix AVG all 		ave/time 1000 1 1000 v_Vol v_H file vol_enthalpy.dat


timer           timeout 02:55:00 every 1000
New timer settings: style=normal  mode=nosync  timeout=02:55:00

fix 		1 all shake 1e-6 200 0 b 1 a 1
Finding SHAKE clusters ...
       0 = # of size 2 clusters
       0 = # of size 3 clusters
       0 = # of size 4 clusters
     324 = # of frozen angles
  find clusters CPU = 0.001 seconds
fix             2 all nph aniso ${pressure} ${pressure} ${pressureDamp}
fix             2 all nph aniso 1440.4 ${pressure} ${pressureDamp}
fix             2 all nph aniso 1440.4 1440.4 ${pressureDamp}
fix             2 all nph aniso 1440.4 1440.4 1000
fix             3 all temp/csvr ${temperature} ${temperature} ${tempDamp} ${seed}
fix             3 all temp/csvr 247.72 ${temperature} ${tempDamp} ${seed}
fix             3 all temp/csvr 247.72 247.72 ${tempDamp} ${seed}
fix             3 all temp/csvr 247.72 247.72 100 ${seed}
fix             3 all temp/csvr 247.72 247.72 100 745823


run             250000
PPPM initialization ...
  extracting TIP4P info from pair style
  using 12-bit tables for long-range coulomb (../kspace.cpp:340)
  G vector (1/distance) = 0.37158529
  grid = 24 24 25
  stencil order = 5
  estimated absolute RMS force accuracy = 0.0035092812
  estimated relative force accuracy = 1.0568096e-05
  using double precision FFTW3
  3d grid and FFT values/proc = 3458 576
Last active /omp style is kspace_style pppm/tip4p/omp
Neighbor list info ...
  update every 1 steps, delay 7 steps, check yes
  max neighbors/atom: 2000, page size: 100000
  master list distance cutoff = 10.8154
  ghost atom cutoff = 10.8154
  binsize = 5.4077, bins = 4 4 4
  1 neighbor lists, perpetual/occasional/extra = 1 0 0
  (1) pair lj/cut/tip4p/long/omp, perpetual
      attributes: half, newton on, omp
      pair build: half/bin/newton/omp
      stencil: half/bin/3d
      bin: standard
Setting up Verlet run ...
  Unit style    : real
  Current step  : 1250000
  Time step     : 2
  Walltime left : 2:54:59.94
Per MPI rank memory allocation (min/avg/max) = 10.19 | 10.19 | 10.20 Mbytes
Step Temp PotEng TotEng E_pair E_mol Press Lx Ly Lz Volume Pxx Pyy Pzz Pxy Pxz Pyz Enthalpy 
 1250000    263.71897   -4697.4636   -4188.8594   -4697.4636            0    319.89921    20.069607    20.271044    21.058782    8567.3845   -485.24255    736.90159     708.0386   -107.45179    702.15374   -762.56765   -4148.8891 
 1251000    235.81131   -4694.0698   -4239.2879   -4694.0698            0    578.55557     20.25203    20.140962    21.130069    8618.8572   -660.58021    1890.2418    506.00511    698.82414   -956.20984   -430.90138   -4166.5651 
 1252000    249.39445   -4713.3029   -4232.3248   -4713.3029            0     680.7734    20.074272    20.140849    21.293163    8609.0996    713.13144    1110.3252    218.86356     -32.8481    816.37739    150.01379   -4146.8503 
 1253000    240.53802   -4701.0854   -4237.1876   -4701.0854            0    1285.1219    20.277682    20.190123    20.922205    8565.7368   -490.19017    1886.8033    2458.7526   -167.34436    675.61753    1948.5689    -4076.647 
 1254000     249.4546   -4752.3031   -4271.2089   -4752.3031            0    1064.7866     20.26603    20.214501    20.897259    8560.9314   -1739.8621    2757.6488    2176.5731   -112.96126   -1051.9656    132.41953   -4138.2677 
 1255000    239.69706   -4695.4675   -4233.1916   -4695.4675            0    464.10152    20.088929    20.159428    21.185371    8579.6795    584.81657    1024.6622   -217.17421    200.70298    200.20553    1214.5085   -4175.1205 
 1256000    257.27143   -4718.3212   -4222.1516   -4718.3212            0    -297.5165    20.217483    20.011757     21.37178    8646.7521   -800.01717     498.4778   -591.01014    158.40237    888.71254   -1438.0656   -4259.6696 
 1257000    250.18905   -4704.2811   -4221.7705   -4704.2811            0    2674.9796     19.97851    20.098588    21.176079    8503.0396    4426.5053    2011.7742    1586.6591    187.54402   -859.41258   -1651.2451   -3890.0513 
 1258000    251.05058   -4714.2861   -4230.1139   -4714.2861            0    824.00335    20.083834    20.268701    21.301903    8671.4344    2813.8368   -921.03047    579.20375   -198.41114    822.75345    316.36136   -4125.9072 
 1259000    249.10235    -4677.437   -4197.0222    -4677.437            0    2007.9579    20.256428    20.265445    20.889513    8575.2609    1147.1239    2480.8175    2395.9322     -56.9651    138.99267   -868.99409   -3945.9042 
 1260000    256.53033   -4706.6913    -4211.951   -4706.6913            0    1132.7199    20.250767    20.177767    20.848511    8519.0201   -629.15626    2431.0939    1596.2219   -281.11578    262.31348   -598.91277   -4071.2205 
 1261000    247.74264   -4716.5947   -4238.8022   -4716.5947            0    1777.0522    20.134801     20.14399     21.00726    8520.4448    1634.2774    1659.2801    2037.5992    223.12955   -191.61103   -525.64169   -4017.9822 
 1262000    253.68321   -4673.7688   -4184.5194   -4673.7688            0     2370.399    20.016453    20.159426    21.246984    8573.5878    2382.4446    2222.1983    2506.5541    49.631815   -512.20122   -1738.8204   -3888.1319 
 1263000     255.0332   -4681.9149   -4190.0619   -4681.9149            0    2499.8533    20.176859    19.927827    21.359211    8588.1323    2743.4856    2149.9574     2606.117    252.80107    1480.5019   -123.54785   -3876.9575 
 1264000    247.27572   -4716.4747   -4239.5827   -4716.4747            0    2048.0355    20.188665    19.948391    21.138951    8513.3192    2132.6826    2203.8395    1807.5843   -202.08697    927.99253    1379.3094   -3985.3027 
 1265000    250.58662   -4717.5278   -4234.2504   -4717.5278            0    1952.2695    20.253687    20.058058    21.066022    8558.0639    1409.9608    2294.6006     2152.247    222.00199    1002.6677    179.42902   -3990.5865 
 1266000    241.60047   -4700.1238    -4234.177   -4700.1238            0     1553.448    20.417065    20.236689    20.766976    8580.3703    320.36188     512.5106    3827.4715    -272.6607   -641.12818   -1137.4499   -4039.7849 
 1267000    244.89519    -4711.684    -4239.383    -4711.684            0    2429.6095    19.998922    20.270605    21.000821     8513.528    3690.4947    1115.1602    2483.1734    963.77033   -88.628432    474.37362   -3937.7201 
 1268000    243.22539   -4726.2596    -4257.179   -4726.2596            0     3226.529    20.137197    19.809378    21.322611    8505.7035    1691.0553    5240.7589    2747.7726    29.174624    173.57619     32.38246   -3856.9379 
 1269000    238.28226   -4702.9816   -4243.4342   -4702.9816            0    762.95809    20.199447    20.057444    21.346625    8648.5696   -1106.0762    2979.1167    415.83379    -187.1347   -109.13521   -16.819894   -4147.2019 
 1270000    241.32055   -4708.0174   -4242.6104   -4708.0174            0    1844.2876    20.172508    20.214029    21.009068    8566.8185    2014.9635    1817.0735    1700.8259   -809.47485   -1084.4718    413.21029   -4012.1883 
 1271000    243.02288   -4724.9921    -4256.302   -4724.9921            0    2732.3573    20.250025    20.016381    20.926075    8482.0121    3452.3383    3321.3671    1423.3666   -711.99397    92.935615   -451.32618   -3918.3055 
 1272000    243.83101   -4703.1563   -4232.9077   -4703.1563            0    2504.3676    20.068471    20.223981      20.8919    8479.2782    1783.0115    2595.1119    3134.9793    82.133166    524.06174    -120.9923   -3923.2137 
 1273000    244.90228   -4741.5075   -4269.1929   -4741.5075            0    730.52983    20.202042    20.122911     21.03459    8551.0636   -283.71726    1686.2715    789.03524   -218.57455    1371.7654    661.03475   -4178.0896 
 1274000    251.17922   -4671.8987   -4187.4784   -4671.8987            0    1492.7244    20.059229    20.223749    21.365008    8667.2026    2947.7254    1011.6608    518.78701   -290.34367    1230.5854   -771.12827   -3998.7947 
 1275000    255.58519   -4696.9962   -4204.0786   -4696.9962            0    2220.5674    20.119353    20.078623    21.108997    8527.3787    1799.3286    3464.2723    1398.1013   -656.74037   -369.92208    360.98942   -3927.9221 
 1276000    253.28922   -4690.3392   -4201.8496   -4690.3392            0     108.8989    20.277067    20.354863    21.004864    8669.4828    -263.6792   -1144.7687    1735.1446   -267.21341    383.03803   -128.02393   -4188.0809 
 1277000     259.2548   -4698.8684   -4198.8738   -4698.8684            0    2056.0943    20.326269    20.044703    20.940304    8531.7921    1995.9572    1371.3986    2800.9272    364.62169    557.89067   -510.33331   -3943.0392 
 1278000    243.50649   -4719.9833   -4250.3606   -4719.9833            0    1331.3744    20.161303    20.066828    21.109037    8540.1548    1307.8017    2072.3801    613.94148    280.48411   -282.85387   -29.233027   -4084.5387 
 1279000    243.67235   -4695.5898   -4225.6472   -4695.5898            0    531.72349    20.062248    20.302625    21.193375    8632.4067    586.29767    843.29464    165.57814    33.901935   -673.75054    1092.3662   -4158.7059 
 1280000     250.3959   -4695.0086    -4212.099   -4695.0086            0    2220.3471    20.124982    20.154475    20.941446    8494.0276    2409.5962    1966.4891     2284.956   -132.32415    366.17898    1059.6323   -3937.0498 
 1281000    254.15071   -4700.3003   -4210.1493   -4700.3003            0    943.69751     20.30244    20.263315    20.822686    8566.3436    675.41263    508.09621    1647.5837   -366.32511   -517.91443   -207.06512   -4092.2519 
 1282000    246.03163   -4692.3556   -4217.8629   -4692.3556            0    1482.0271    20.119259    20.272037    21.047172     8584.265    493.35351    2718.4727    1234.2551    472.13481   -268.32835    1033.8529    -4032.324 
 1283000    249.11436   -4710.7027   -4230.2647   -4710.7027            0    3635.2613    20.107066    19.959656    21.088517    8463.4571    3774.8168    3761.3506    3369.6164    454.67456   -642.32744   -1.8288659   -3781.5613 
 1284000    244.87284   -4718.1882   -4245.9304   -4718.1882            0    1605.3739    20.394259    19.910289    21.064693    8553.4366    1407.2932    2320.7237    1088.1048   -93.879473    230.69232   -352.75632    -4045.671 
 1285000    223.81309   -4707.8189   -4276.1766   -4707.8189            0    1732.8777    20.198991     19.98737    21.099554    8518.4113    569.61319     2699.783     1929.237   -494.32153   -185.44338    351.57963   -4060.8972 
 1286000    246.96033    -4738.836   -4262.5523    -4738.836            0    1562.6617     20.01457    20.223617     21.08565    8534.7751    3743.9663   -539.75783    1483.7767     445.7507    654.12293    665.34758   -4068.0463 
 1287000    239.17468   -4700.3122   -4239.0437   -4700.3122            0    2008.9111    20.262387    19.968725    21.017625    8504.0263    702.86619    3481.7064    1842.1607   -211.48686       461.81   -847.79139   -3989.8935 
 1288000    259.54415   -4714.7878   -4214.2351   -4714.7878            0    1120.2994    20.178347    20.158079    21.098402    8581.9164    1531.2798    601.85829    1227.7601   -318.99573     228.6182    421.63911   -4074.0201 
 1289000     248.1407   -4727.4112   -4248.8509   -4727.4112            0    719.82084    20.426695    19.928049    21.135747    8603.6058   -659.96013    1954.6938    864.72882   -136.24227    1045.6116    52.700161   -4158.5316 
 1290000    247.71231    -4713.126   -4235.3919    -4713.126            0    3503.1373    20.054216    20.155308    20.915257    8453.9238    3841.5358     2624.723     4043.153    762.51855    165.10892    865.63151   -3803.4838 
 1291000    244.49637    -4701.943   -4230.4112    -4701.943            0     -1091.62    20.183437    20.377941    20.932192    8609.3452    71.148948   -3045.1028   -300.90606    648.18419   -187.76466    1051.1872   -4367.4733 
 1292000    246.05435   -4722.0218   -4247.4853   -4722.0218            0    1957.4507    20.097665    20.201304    21.150935    8587.2594    2076.8423    1834.5849     1960.925   -561.34931   -206.99076   -112.03178   -4002.3413 
 1293000    255.90754   -4710.7713   -4217.2321   -4710.7713            0    177.97039    20.387655     20.04552    21.211777    8668.8537   -43.071158   -442.80573    1019.7881    291.67081     507.7684   -424.07937   -4194.7319 
 1294000    236.22168    -4716.697   -4261.1236    -4716.697            0    2501.9332    20.284086     20.10683    20.867705     8510.866    1502.5442     1882.163    4121.0924    634.75627    29.017889    -813.6644   -3950.5781 
 1295000    247.24555   -4752.9031   -4276.0693   -4752.9031            0    1893.6679    20.117075    20.180843    21.132658    8579.4268    2138.8284    2596.2629    945.91251    200.58024   -32.893115   -207.09361   -4039.1295 
 1296000    241.74188   -4713.7782   -4247.5587   -4713.7782            0    3884.4022    19.997173    20.063286     21.00072    8425.6777    4001.6247    4472.0721    3179.5098   -511.80874   -1814.9492   -532.93827   -3770.2439 
 1297000    253.91998   -4728.0296   -4238.3236   -4728.0296            0    1353.9617    20.287919    19.983406    21.207524    8597.9908     1920.385    1147.9481    993.55195   -830.22962   -416.38191   -348.56222   -4068.5465 
 1298000    251.95505     -4751.67   -4265.7535     -4751.67            0    2216.6666    20.145968    20.008021    21.128146     8516.353    3277.4112    806.47396    2566.1147     -135.261    366.67577    429.23443   -3990.4384 
 1299000    256.51324     -4721.29   -4226.5827     -4721.29            0    936.73557    20.478312    19.805109    21.081446    8550.1119   -769.91263     3155.587    424.53235    -1.789601   -1139.7274    131.46922   -4109.7768 
 1300000     236.9825   -4716.1602   -4259.1195   -4716.1602            0    2258.2199    20.225717    20.025172    21.086136      8540.38    1660.1784    3076.4012    2038.0799    562.51781   -74.119782   -478.05517   -3977.8522 
 1301000    271.40058   -4689.5025   -4166.0837   -4689.5025            0    952.19251    20.050738    20.080628    21.464585    8642.3159     1370.228    1575.8108   -89.461225    -514.8589   -1197.0924    810.66448     -4046.07 
 1302000    251.66706   -4743.7683   -4258.4072   -4743.7683            0    2939.7836    20.096929    20.056381    21.242666    8562.3169    3637.7919     1625.405    3556.1539   -256.50239    -1296.505   -820.92317   -3891.3087 
 1303000    238.92627   -4730.3997   -4269.6103   -4730.3997            0    160.11774    20.254204    20.256342    21.032756    8629.2369   -539.89507   -605.79701    1626.0453   -913.09637    151.49418    3074.7982   -4249.4597 
 1304000    257.34768   -4712.3892   -4216.0725   -4712.3892            0    2787.7523    20.113364    20.188754    20.941053    8503.4027    2969.2926    2032.9558    3361.0083   -522.00988   -634.24094    150.90208   -3870.3539 
 1305000    254.13958   -4716.0697   -4225.9402   -4716.0697            0    1943.4639    20.316738    20.061573    20.904151    8520.2335   -277.99949    2727.8908    3380.5003      11.2965    129.80304   -69.442929   -3984.4475 
 1306000    255.96607   -4680.0419   -4186.3898   -4680.0419            0    1885.9505     20.14518    20.279703    21.046116    8598.1438    2981.3071    74.653546     2601.891    40.737251    797.29214   -126.56295   -3949.9008 
 1307000    235.95776   -4725.9066   -4270.8422   -4725.9066            0    956.31202    20.258711    19.961909    21.131514    8545.6378    1495.4983    121.83441    1251.6033   -594.19428     672.2148   -158.52157   -4151.6577 
 1308000    248.79937     -4710.05   -4230.2195     -4710.05            0    159.18586    20.239715    20.045879    21.467511    8709.8604    1701.6322   -178.95457     -1045.12   -127.68264    616.25571     510.5717    -4209.999 
 1309000    241.46884   -4707.7683   -4242.0754   -4707.7683            0    872.37368    20.165543    20.104329    21.182766    8587.8048    2084.7771   -390.79178    923.13568   -140.36182   -1131.5267    14.153534   -4132.8155 
 1310000     237.5073   -4695.2822   -4237.2295   -4695.2822            0    1384.8401    20.195575    20.203937    21.083986    8602.9017    828.34814    1537.9935    1788.1785    24.133381   -19.506389     273.0547   -4063.4812 
 1311000    240.08309   -4692.1615   -4229.1411   -4692.1615            0    2617.1412    20.205473    20.018925    21.046638    8513.1934    1787.5435    3889.5745    2174.3057   -244.10419   -256.14156   -456.88058   -3904.2068 
 1312000    256.17571   -4690.8579   -4196.8015   -4690.8579            0    1444.5503    20.121836    20.270084    21.185615    8641.0043    979.17856    1878.3977    1476.0747    135.76784    533.73399    361.94011    -4014.759 
 1313000    256.87187   -4702.4748   -4207.0758   -4702.4748            0     2794.854    20.233924    20.058524    21.097319     8562.614    3500.4091    2684.4649     2199.688   -948.05908   -634.81602    31.643233    -3858.063 
 1314000    237.42983   -4692.7714    -4234.868   -4692.7714            0    620.03848    20.151586    20.034038    21.162397    8543.6327   -246.99783    1531.5139    575.59937    450.31736   -619.74547   -925.38567   -4157.6111 
 1315000    244.97402   -4713.0546   -4240.6016   -4713.0546            0    668.56728    20.240621     20.01299    21.331482    8640.8571   -667.13619    2547.9888    124.84928    237.05884   -252.78154    548.16325   -4156.3501 
 1316000    264.79079   -4710.0749   -4199.4036   -4710.0749            0    2474.1485    20.268766    19.979044    20.914554    8469.3605    1549.8457    3128.4599      2744.14    93.111155     -498.452   -1185.4142   -3893.8043 
 1317000    246.39711   -4730.2505    -4255.053   -4730.2505            0    437.82669    20.054304    20.351069    21.043344    8588.3472    2087.0236   -989.54015    215.99666   -272.39884   -966.88418   -663.85897   -4200.2142 
 1318000    250.21285   -4727.1293   -4244.5727   -4727.1293            0    1003.0645    20.260526    20.307535     20.99224    8637.0755    1439.6034   -465.35457    2034.9448   -277.29542   -104.45128    393.25506   -4118.2238 
 1319000    248.52537   -4749.0472   -4269.7452   -4749.0472            0    3515.6271    20.153384    20.069073    20.900667    8453.4784    3897.8928    2555.1247    4093.8639   -593.34687   -256.56025   -287.27611     -3836.32 
 1320000    242.25001   -4696.6611   -4229.4616   -4696.6611            0    1786.9353    20.068821    20.246794     21.14698    8592.6374    3724.0868   -751.74198    2388.4612    269.27723   -297.29984    1055.7806   -4005.5321 
 1321000    249.17084   -4703.8114   -4223.2644   -4703.8114            0    2390.6998    20.119237    20.164503    21.087588    8555.1162    2437.6241    2104.7161    2629.7591   -59.956201    737.43819    268.26366   -3924.9826 
 1322000    265.88564     -4687.38   -4174.5972     -4687.38            0    1833.3264    20.173825    20.073411    21.141202    8561.2875    -322.9563    3658.7269    2164.2087    237.36441   -370.64338    -66.72158   -3945.6924 
 1323000    244.02322   -4737.5494     -4266.93   -4737.5494            0    440.35459    20.189556    20.094631     21.13696       8575.3   -915.92671    1202.4273    1034.5631   -348.36479    1023.6142   -256.23198   -4211.8584 
 1324000    232.43632   -4709.6481   -4261.3751   -4709.6481            0    1328.6955    20.242348    20.146085    21.011904    8568.7395    788.45271    1144.9251    2052.7087    235.67859   -477.45055    400.31884   -4095.3329 
 1325000    240.62237   -4709.9913   -4245.9308   -4709.9913            0    1428.1521    20.119215    20.265266    21.029508    8574.1772     1940.376    1469.0953    874.98499   -54.015668    378.24675   -1885.9342   -4067.3467 
 1326000     247.1019   -4715.0092   -4238.4524   -4715.0092            0    333.12671    20.055397    20.182772     21.25434    8603.1934   -159.60198    566.70685    592.27527     50.19576    423.50886    -213.0253   -4196.6554 
 1327000    242.71545   -4742.7321   -4274.6349   -4742.7321            0    476.50946    20.193439     20.04377    21.076399    8530.7282    1331.3847    238.07992   -139.93628   -70.654614   -340.21625   -9.7097625   -4215.3515 
 1328000    258.37677   -4695.9024   -4197.6011   -4695.9024            0      2674.07    20.025906    20.321673     20.99493     8544.095    2553.0336    2263.5327    3205.6438   -476.17995     295.7462    341.44881   -3864.3936 
 1329000    243.52945   -4726.7622   -4257.0952   -4726.7622            0    2079.4908    20.046274    20.165413    20.900983    8449.0428    2727.1765    2082.6494    1428.6465    1016.0858    378.03537    1141.8739   -4000.8591 
 1330000    252.66226   -4705.0693   -4217.7889   -4705.0693            0    1157.2757     20.12457    20.242392    21.241797    8653.2589     1636.287     916.4623    919.07789   -696.77804   -37.392141    75.522173   -4071.7419 
 1331000    243.58529   -4693.6223   -4223.8476   -4693.6223            0    2063.5814    20.122114    20.042996    21.281582    8583.0207    80.733281    3958.4491    2151.5619    244.04079   -1047.4084    954.67234   -3965.5397 
 1332000    239.47261     -4720.86    -4259.017     -4720.86            0    793.28189     20.08906    20.272689    21.163521    8619.0396    648.76208   -135.16503    1866.2486   -611.75124    364.78683    735.75018   -4159.3015 
 1333000    251.69309   -4704.3273    -4218.916   -4704.3273            0    293.68817    20.360428    20.149134    21.011184    8619.7327    700.83166   -113.69391    293.92676   -284.72069   -419.29842   -747.96587   -4181.9965 
 1334000    261.81551   -4701.7629   -4196.8297   -4701.7629            0     2639.526    20.256476    20.177608    20.803757    8503.0623    2682.1814    1701.3035    3535.0933    238.18477    265.65518    888.00412   -3869.5061 
 1335000    240.64006   -4717.6394   -4253.5447   -4717.6394            0     1541.127      20.0337    20.219712    20.999174    8506.2539    1362.6582    1679.4575    1581.2655   -142.46892    859.49096    -443.3181   -4062.3603 
 1336000     252.2419   -4730.8272   -4244.3575   -4730.8272            0      721.226    20.129258    20.038216    21.443293    8649.2471    1518.9264    2196.4339   -1551.6822     831.4228   -212.81969   -706.64938   -4153.3818 
 1337000    249.35794    -4728.888   -4247.9803    -4728.888            0    2400.7451    20.038501    19.924951    21.201909    8465.2046    1603.1279    3798.3578    1800.7495   -98.176454   -642.92477    1800.1301   -3951.5931 
 1338000    254.31635   -4723.3503   -4232.8798   -4723.3503            0    2902.9724     19.95355    20.345247    21.105146    8567.8431    3825.8218    2767.1318    2115.9636   -290.46215    982.17296    -408.6274   -3870.1441 
 1339000    234.76945   -4737.9446    -4285.172   -4737.9446            0    1796.8428    20.274919    20.216926    20.881161    8559.1156    -259.4545    2151.6298    3498.3531   -917.06933   -80.592645    29.554494   -4060.8794 
 1340000    254.35378   -4735.8937   -4245.3511   -4735.8937            0    3046.3449    20.063166    20.246496     20.86997    8477.5656    3805.2901     2421.449    2912.2956   -553.77112    1715.4213    808.94316   -3868.7113 
 1341000    251.86832     -4726.85   -4241.1008     -4726.85            0    2765.6289    20.160989    20.179948    20.974074    8533.2537    3116.6388    2645.6664    2534.5815    290.53716    261.55687    572.86633   -3896.9217 
 1342000    237.99292   -4706.4469   -4247.4576   -4706.4469            0    1800.5553    20.353762    20.054377    21.062003    8597.1309    755.97424    2142.7862    2502.9054   -456.45912    74.409085   -881.95171   -4021.7033 
 1343000     258.6774   -4715.5271    -4216.646   -4715.5271            0    2013.1326    20.079455    20.109205     21.19305    8557.3695     1714.722    3069.9411    1254.7347    321.71191   -536.66534     741.4082   -3965.4062 
 1344000    242.27756   -4713.1626     -4245.91   -4713.1626            0    732.86066      20.1148    20.043662    21.316749    8594.3644    1828.7589     578.3383   -208.51525    179.63711      504.351    1075.7639   -4154.0532 
 1345000      233.752   -4725.0905   -4274.2801   -4725.0905            0    2295.0231     20.08206    20.164811    20.990448    8500.1018    3253.5855   -670.93922     4302.423    -90.59109    219.08164   -744.95523    -3989.777 
 1346000    253.57132   -4715.8113   -4226.7777   -4715.8113            0    2632.1919    20.215297    20.258644    20.774037    8507.6848    2310.9922    1897.8285     3687.755    -191.8175    319.30946    1460.0697   -3900.1862 
 1347000    248.41701   -4713.6662   -4234.5731   -4713.6662            0    2293.7727    20.270634    20.128134    20.846035    8505.3916    1682.0268    3046.9356    2152.3558   -75.600706   -590.22866   -300.78029    -3950.048 
 1348000    249.66426   -4713.7409   -4232.2423   -4713.7409            0    1887.4443    20.119071    20.026961    21.220214      8550.13    1106.9665    2487.5852    2067.7811    358.43791    195.46402    -735.3253   -3996.8877 
 1349000    240.69117   -4704.8577   -4240.6645   -4704.8577            0    404.84577    20.269026    20.104324     21.20263    8639.9675    1766.7641   -924.51344    372.28663   -153.28043   -466.76413   -670.71286   -4189.6519 
 1350000     247.3225   -4719.8379   -4242.8556   -4719.8379            0    2376.5607    20.383825    20.081675    20.987921    8591.2239    2507.6015    1914.2022    2707.8783     113.8783   -396.59665     669.2853   -3945.0864 
 1351000     244.0822   -4742.5546   -4271.8216   -4742.5546            0    2660.5653    20.168271    20.070346    20.749649    8399.1294    2764.7878    1417.6693    3799.2386  -0.45672403   -587.52818    908.01766   -3945.9218 
 1352000    246.31219   -4707.8854   -4232.8516   -4707.8854            0    1205.1326    20.193469     20.18022    21.079908    8590.2447     215.2723    1926.0584    1474.0671    455.43438    672.48149    863.37488   -4081.8727 
 1353000    256.48455   -4708.9072   -4214.2552   -4708.9072            0    1328.5097    20.245125    20.047559    21.220274    8612.5734    1085.8251    1518.8502    1380.8539   -235.71412    312.33031    501.20266    -4047.387 
 1354000    248.06217   -4703.5561   -4225.1474   -4703.5561            0    2089.9611     19.96944    20.153313    21.208889    8535.5256    3895.2877    766.51234    1608.0834    166.86955   -301.72128    717.34822   -3964.9851 
 1355000    252.16437   -4677.5733   -4191.2531   -4677.5733            0    2029.1067    20.199767    20.368924    20.881858    8591.7886    1836.1378    2305.7328    1945.4493    -868.3859   -338.85948   -789.13397   -3937.0011 
 1356000    241.85097    -4732.223   -4265.7931    -4732.223            0    1698.2023    20.035066    20.117232     21.09875    8503.8529     1923.782    2041.8596    1128.9652   -275.62653   -484.66754   -151.85655   -4055.1821 
 1357000     236.0072   -4688.6568   -4233.4971   -4688.6568            0    2135.0258    19.979133    20.035379    21.317771    8533.2799    1603.2932    2869.0838    1932.7004   -151.14103    219.28929    350.14979    -3967.795 
 1358000    249.87124   -4699.1363   -4217.2386   -4699.1363            0    2095.5335     19.91339    20.212401    21.389075    8609.0477    4639.6407    368.76586     1278.194    -225.4997   -822.55801    347.85199   -3954.1357 
 1359000    244.18652   -4707.5044   -4236.5701   -4707.5044            0    1041.9685    20.190871    20.220819    21.075373     8604.568     1145.472    360.17141    1620.2622    211.89283    1116.1589   -1107.5563   -4105.8147 
 1360000    251.81385   -4691.8099   -4206.1657   -4691.8099            0    1270.1909    20.256812    20.298796    20.839379     8568.921    579.89645      89.1544    3141.5218    267.37035    933.38151    -41.64955   -4047.4313 
 1361000    264.45683   -4716.1624   -4206.1351   -4716.1624            0    2516.6827    20.190176    20.239676    20.854216    8521.9215    2150.9986    2933.3211    2465.7283    3.7735174   -330.47768     1086.758    -3893.353 
 1362000    250.31019   -4702.8136   -4220.0693   -4702.8136            0    594.09811    20.029092    20.382176    21.102848     8614.952   -694.32003    1254.6218    1221.9926   -291.83174   -166.42902    103.30075   -4145.4267 
 1363000    231.00008   -4714.8889   -4269.3858   -4714.8889            0    2328.5568    20.057364    20.063985    21.249065    8551.2751    4023.6386    844.28338    2117.7484    901.29748   -365.44412    190.71849   -3978.9878 
 1364000    256.93883   -4720.5793   -4225.0511   -4720.5793            0     145.8904    20.121148    19.890828    21.507939    8608.0424   -683.90283    1410.7557   -289.18166    205.74823    265.66555   -1821.0432   -4206.7361 
 1365000    233.65992   -4681.7543   -4231.1215   -4681.7543            0    2058.4652     20.35861    20.129805     20.92554    8575.5973    1615.0107    1830.8554    2729.5295    202.78377    104.37669   -959.55198   -3973.6769 
 1366000    238.67924    -4710.392    -4250.079    -4710.392            0    937.50953     20.44267    20.254779    20.724854    8581.3695   -1083.9167    1742.4114    2154.0339     -301.485    782.49616   -832.89656   -4132.7493 
 1367000    239.88215   -4723.5233   -4260.8904   -4723.5233            0       755.88    20.148607     20.07755    21.266388    8602.9914    1160.5197    1105.3472    1.7731692    814.06799   -1733.4444   -1188.8043   -4166.0533 
 1368000    232.16001   -4700.1754   -4252.4353   -4700.1754            0    2571.2519    20.065116    20.078111    21.194001    8538.4195    4850.0069    2242.5625    621.18636    438.93487   -372.10035    18.735722   -3932.2525 
 1369000    244.08371   -4738.1265   -4267.3905   -4738.1265            0     1189.252     20.29117     20.21171    20.834106    8544.4676    1746.3108   -55.793347    1877.2384   -254.69431   -480.64025   -300.90272   -4119.1951 
 1370000    243.33653    -4699.448    -4230.153    -4699.448            0    273.50793    20.324992    20.255462    20.933228    8618.0448    -335.8378    176.21316    980.14843    420.19679    278.96276   -157.53146   -4195.7771 
 1371000    237.45461   -4722.5899   -4264.6387   -4722.5899            0   -1112.5193    20.004692    20.252339    21.347603    8648.8066   -89.551377   -1641.2411   -1606.7653   -558.54244   -547.62275   -305.03263   -4404.9652 
 1372000    247.76559   -4686.1958    -4208.359   -4686.1958            0    96.785839    20.104538    20.240289    21.195353    8624.8484    396.30346   -1001.8489    895.90292    1117.6369   -531.52685   -1364.7581   -4196.1849 
 1373000    247.83247   -4708.8053   -4230.8396   -4708.8053            0    1948.3696    20.118213    20.331575    20.811625    8512.6823    1236.1814    771.67565    3837.2516     270.1052   -343.30975   -502.39057    -3988.952 
 1374000    256.73802   -4724.9427   -4229.8018   -4724.9427            0    1042.8061    20.457487    20.213323    20.749305    8580.1236   -716.90515    1018.0333    2827.2902   -119.76682    812.74038    1137.6502   -4099.3131 
 1375000    240.95859   -4675.9719    -4211.263   -4675.9719            0    423.12847    20.256853    20.118209     21.12997    8611.1309   -48.823353    1242.4506    75.758187    303.97093    714.82824   -228.13758   -4158.1246 
 1376000    234.49845    -4725.745    -4273.495    -4725.745            0    514.78363    20.190924    20.248014    21.123648    8635.8991    1684.2504   -1525.8565    1385.9569   -214.81866     -403.582     1033.305   -4208.6602 
 1377000    251.03942   -4726.7488   -4242.5982   -4726.7488            0    3298.7027    19.958663    20.057815    21.154664     8468.787    3087.8075    4115.4867    2692.8138    191.87289     633.4768   -1379.0198   -3835.1801 
 1378000    241.44471   -4717.9182   -4252.2718   -4717.9182            0    3099.6532    20.098334    20.193023    21.208962    8607.5752    3554.2423    2860.5914    2884.1257   -184.04204   -800.23371    1344.6752   -3863.1641 
 1379000      263.076   -4702.2306   -4194.8664   -4702.2306            0     3651.188    19.976955    19.967619    21.208932    8460.0782    1278.8561    7191.2262    2483.4816    337.96604    748.38055    949.70712   -3744.3771 
 1380000    249.95605   -4758.8882    -4276.827   -4758.8882            0    613.20059    19.910507     20.34059    21.097368    8544.2537    2607.7517    -1674.002    905.85204    41.330962    244.91375    162.19883   -4200.4166 
 1381000    244.87399   -4745.1804   -4272.9203   -4745.1804            0    965.01735    19.965417    20.190799    21.130328    8518.0097    1136.1333    2096.3839   -337.46516   -581.57736    433.61927   -134.34522   -4153.0396 
 1382000    254.08461    -4692.905   -4202.8815    -4692.905            0    1083.1285    20.271678    20.204004    20.832163    8532.2097    1077.7346    759.19124    1412.4598     -85.7519    112.49048   -325.85682    -4068.104 
 1383000    252.47819   -4692.7281   -4205.8026   -4692.7281            0     1266.622    20.272045    20.222088    20.824164    8536.7219     1828.809    175.72412     1795.333   -243.42234   -231.47934    -315.8112    -4048.109 
 1384000    239.55385   -4717.3236   -4255.3239   -4717.3236            0    2538.9263    20.185021    20.023743    21.080372     8520.258    3533.9625    1682.4061    2400.4104    377.82071   -220.10229    1461.2124   -3939.8389 
 1385000    254.49944    -4741.867   -4251.0434    -4741.867            0    1956.1815    19.849541    20.122773    21.261963    8492.6191    2826.1913    2256.3108    786.04234   -206.09615   -442.14774    998.56428   -4008.7584 
 1386000    250.01804   -4708.2539   -4226.0731   -4708.2539            0    1742.8617    20.084528     20.07272    21.151372    8527.1989    1706.9926    2653.1831    868.40945    418.83573   -1166.7331    1270.9952     -4009.33 
 1387000    242.82685   -4726.7512   -4258.4392   -4726.7512            0    1006.3241    20.453674    20.095962      20.7623     8534.058    48.697554    1110.3285    1859.9461   -12.634251   -439.46864   -1098.8676   -4133.1916 
 1388000    253.77527   -4741.2006   -4251.7736   -4741.2006            0    3145.2216    20.038129    20.069072    21.004871    8447.0388    2434.2683    3954.3819    3047.0147   -230.29771    456.21012   -615.23949   -3864.3094 
 1389000    232.62544   -4727.0923   -4278.4545   -4727.0923            0    722.01933      20.2222    20.075553    21.066241    8552.3012    455.69153    117.46894    1592.8975   -582.47413   -307.40382   -2536.9275   -4188.3996 
 1390000    255.04562   -4712.8056   -4220.9287   -4712.8056            0    1234.1267    20.052367    20.086154    21.307304    8582.0481    1697.9984    1476.2529    528.12881   -194.94021    -644.7972    -1459.792   -4066.4649 
 1391000    239.37084   -4702.8169   -4241.1701   -4702.8169            0   -783.03493    20.387529    20.183717    21.003644    8642.9179   -1694.0943   -694.01139    39.000896    -57.73781   -388.74042   -976.22957   -4339.8701 
 1392000     249.4618   -4713.7846   -4232.6766   -4713.7846            0    573.88103    20.181769    20.328609    20.789687    8529.3289   -121.36831   -139.05898    1982.0704   -47.802337     1129.198   -1142.8618   -4161.2907 
 1393000    240.48762   -4707.7759   -4243.9753   -4707.7759            0     322.7705    20.169198    20.123486    21.168668    8591.8238    1370.1316    286.37983   -688.19996    427.23047   -591.31382   -801.77078   -4203.5312 
 1394000    247.02174   -4714.6667   -4238.2645   -4714.6667            0    1905.1001    19.949529    20.126635     21.39089    8588.8037    3800.0763    743.71724    1171.5067   -560.52547    995.24686    1110.2521   -3999.6338 
 1395000    242.88991   -4704.5186    -4236.085   -4704.5186            0    2116.9855    20.090798    20.093949    21.063319    8503.3346    2458.2372    2239.4858    1653.2335   -12.305798   -545.37705    108.09359   -3973.5525 
 1396000    245.77109   -4730.5825   -4256.5923   -4730.5825            0    1048.4748    20.239041    20.060648    21.110512    8571.0426    913.41981     1572.686    659.31859   -117.95915   -673.55329   -296.03087   -4125.5331 
 1397000    240.49807   -4729.9968   -4266.1761   -4729.9968            0    511.52126    20.263263    20.185795    20.817947    8515.1664   -679.46267    796.36318    1417.6632    -346.7107   -518.83749    649.83284   -4202.6528 
 1398000    241.32695   -4712.9408   -4247.5215   -4712.9408            0    1921.9199    20.121721    20.213098    21.165441     8608.457    2999.9381    1748.0031    1017.8186    194.68711   -913.76949   -508.94219    -4006.233 
 1399000    251.00675   -4702.2379   -4218.1502   -4702.2379            0    373.27098    20.325499    19.937125    21.126808    8561.2591    1113.3614     97.76096   -91.309473   -291.57179   -1243.4186      181.272   -4171.5447 
 1400000    241.51076   -4712.3895   -4246.6157   -4712.3895            0    909.23491    20.227307    20.186602    21.224439    8666.3754    222.84144    1738.2585    766.60475    51.576446     943.5431   -1920.0944   -4131.6973 
 1401000    260.40768   -4698.5291    -4196.311   -4698.5291            0    3334.6662    20.078717    19.988405     21.16834     8495.734    2764.4017    4631.2694    2608.3277   -507.49132   -230.22084     913.3855   -3783.1406 
 1402000    262.47428   -4721.0566   -4214.8529   -4721.0566            0    192.66775    20.195108    20.434882    21.013098    8671.7829    513.38766   -1044.1845    1108.8001   -238.07904    280.09616   -130.09476   -4190.4864 
 1403000    243.72765   -4715.7571   -4245.7079   -4715.7571            0    1401.9177    20.184424    19.992547     21.13419    8528.4499    3263.1403    567.91171    374.70115    616.44295    -730.6935   -209.13548   -4071.3392 
 1404000    241.42652   -4703.5454   -4237.9341   -4703.5454            0    690.67838    19.977362    20.058253    21.528725    8626.7962    1482.7455    543.11877    46.170828   -303.52807    285.72179    -54.90981   -4151.0378 
 1405000    239.65595   -4710.2237    -4248.027   -4710.2237            0    3236.0245    20.119976     20.04339    21.044455    8486.6505      2784.09    3872.1585    3051.8249    737.26803   -1423.5719   -2437.1559   -3847.5072 
 1406000    247.14642   -4732.6039   -4255.9613   -4732.6039            0    1710.4777    20.250802    19.993805    21.132804    8556.4734    962.40397    2296.2719    1872.7573    -146.8715    934.59058    1294.1094   -4042.5152 
 1407000    263.15632   -4737.5628   -4230.0438   -4737.5628            0    2353.6207    20.316814    20.022928    20.807815    8464.6627    1278.6544    2770.2984    3011.9092   -539.89912   -94.965399    162.19009    -3939.493 
 1408000    233.26337   -4718.5807   -4268.7127   -4718.5807            0     769.6289    20.054326    20.215638    21.258523    8618.4391    2337.0679    -74.65544    46.474186    297.91114    937.46258    308.65714   -4171.9772 
 1409000     250.0888   -4745.5169   -4263.1996   -4745.5169            0    1128.0352    20.000761    20.131225     21.19514    8534.0075    849.23986    1919.2309      615.635   -79.178553   -1570.8726     432.6503   -4122.8046 
 1410000    247.38792   -4715.5004    -4238.392   -4715.5004            0      1333.75    20.271304    20.194709    20.953268    8577.7038    631.32277    1673.6027    1696.3244   -496.24754    -1006.845    629.06246   -4071.5439 
 1411000    244.40122    -4726.153   -4254.8047    -4726.153            0    2322.8345    20.237059    20.296556    20.621711     8470.215     1743.236    2387.6163    2837.6513   -497.47615   -156.88776    674.87002   -3967.8664 
 1412000    239.32849   -4691.7682   -4230.2031   -4691.7682            0    3223.7009    19.866407    20.283566    20.992794    8459.2894    3287.5912    2690.3771    3693.1343   -1035.2779    66.330702   -278.38402   -3832.4949 
 1413000    253.01826   -4719.0076   -4231.0406   -4719.0076            0     1823.522    20.061701    20.205432    21.093017    8550.1668     1705.202    3152.7152    612.64888   -395.21484    25.736608    10.835977   -4003.6557 
 1414000    250.92913   -4740.8349   -4256.8969   -4740.8349            0    1226.8253    20.015895    20.172655    21.315122     8606.487    214.36546    1521.4444     1944.666   -49.369529   -761.57488     683.1549   -4102.9098 
 1415000    260.44949   -4740.8309   -4238.5322   -4740.8309            0   -143.56945    20.097942    20.089225    21.182068    8552.3041    29.123457   -154.09366   -305.73815    -408.9804   -740.57513    200.28028   -4256.4391 
 1416000    233.13436   -4674.6951   -4225.0759   -4674.6951            0    1671.6421    20.209096    20.278515    20.857605    8547.6647    586.31529    2064.6316    2363.9794    89.429733   -304.67501     1338.249   -4016.6908 
 1417000    242.20246   -4699.0607   -4231.9529   -4699.0607            0    1343.2989    20.010848    20.295288    21.132799    8582.5773     4020.053   -619.65296    629.49649   -214.15356    52.690715    236.59219   -4063.8147 
 1418000    258.18174   -4703.8212    -4205.896   -4703.8212            0    2072.5256    20.200031     20.03772    21.082275    8533.3157    2957.1165    1975.0236    1285.4367      55.1359   -201.78176    508.03578   -3947.9709 
 1419000      261.012   -4710.8104   -4207.4268   -4710.8104            0    871.62477    20.114328    20.221663    21.248945    8642.9056    1867.9934    -325.3459    1072.2268    2.0975063    292.70074   -1649.7856   -4097.5604 
 1420000      255.407   -4716.4781   -4223.9042   -4716.4781            0    360.02595    20.141807    20.104246    21.258201    8608.2079    897.71105     473.3745   -291.00768   -358.69661    671.06449    894.88843   -4178.7058 
 1421000    244.66109   -4691.2894   -4219.4399   -4691.2894            0    298.70245    20.215015    20.126945    21.167189    8612.2199    1537.8551    -134.3092   -507.43859     25.45912    482.18918   -162.14661   -4181.9228 
 1422000    246.30329   -4723.5716    -4248.555   -4723.5716            0    2464.3487    20.085345    20.294244    21.103283    8602.0546    2717.3238    1789.5091     2886.213    250.54941   -121.85249   -1011.9955   -3939.3972 
 1423000     246.4824   -4744.8977   -4269.5357   -4744.8977            0    1798.3587    20.149684    20.016541    21.073266    8499.4166    1629.0626    1877.9249    1888.0885    177.05241   -673.36394   -396.53897   -4046.6197 
 1424000     245.6881   -4708.3141   -4234.4839   -4708.3141            0    2032.6967     20.13501    20.200512    21.240354    8639.2488    1642.2671    2732.6877    1723.1351    379.62606    751.37878   -880.23328   -3978.3752 
 1425000    244.87793   -4718.7238   -4246.4561   -4718.7238            0    3296.2754    20.110829    19.949815    21.088297    8460.7786    3532.8475    3204.8771    3151.1018    111.96407    303.13744   -63.764879   -3839.7228 
 1426000    244.31561   -4734.2179   -4263.0347   -4734.2179            0    2692.4558    19.890325    20.248477    21.167262    8525.0893    2744.9736    2256.1243    3076.2694    177.93752    740.93015    336.78527   -3928.2825 
 1427000    254.88436   -4722.6962   -4231.1303   -4722.6962            0    193.56856    20.302811    20.002675    21.075467     8558.969   -711.35313    1421.3599   -129.30107   -83.516939    702.92015    -317.8581   -4206.9683 
 1428000     243.0218   -4704.2749   -4235.5869   -4704.2749            0    1263.9951    20.430618    20.050713    20.967653    8589.3667   -1857.2942    3503.9731    2145.3065   -54.419744    1392.4891    201.73658   -4077.2499 
 1429000    255.72356   -4702.8112   -4209.6268   -4702.8112            0    1554.1426    20.058569    20.279942    21.128424    8594.7599    2097.3817    793.92641    1771.1197    393.90209   -995.54525    1244.6991   -4014.8216 
 1430000    261.25699   -4727.0141    -4223.158   -4727.0141            0     2036.623    20.153594    20.048372    21.126795    8536.2129    1758.9444    2822.9458    1527.9789   -616.79092   -336.97205    416.36033    -3969.615 
 1431000    249.40388    -4725.685   -4244.6886    -4725.685            0     2971.071    20.023078    20.252997    20.974284    8505.6456    4677.0065    273.19263    3963.0138    137.54197    -163.8019    365.78494   -3876.1388 
 1432000    244.80231   -4706.1558    -4234.034   -4706.1558            0    1407.2841     20.48589    19.921106    21.062203    8595.5184    93.383943    1685.0454     2443.423   -398.29474   -698.75497     49.37233   -4057.6213 
 1433000     236.1055   -4722.1274   -4266.7781   -4722.1274            0    869.07986    20.078051    20.209971    21.079553    8553.5945    1238.6626    2.4835223    1366.0934    349.86489    573.75955   -151.02048   -4158.3644 
 1434000    244.24595   -4735.3026   -4264.2537   -4735.3026            0     754.8004    20.112888     20.11811    21.249498    8598.2543    2228.3002     353.7424   -317.64137   -206.80526    664.37846    503.15822   -4169.6042 
 1435000     252.7365   -4703.2708   -4215.8472   -4703.2708            0    1419.8117    20.273692    19.830174    21.314464    8569.0719    780.87059    2065.4999    1413.0645   -115.10628    562.27497    -66.91934   -4038.4117 
 1436000     242.5662   -4674.5733    -4206.764   -4674.5733            0    1532.4189    20.312446    20.124063    21.006743    8586.9043    2485.6547   -190.26293    2301.8648   -584.40528   -353.65788    -122.4023   -4014.8573 
 1437000    241.36471    -4707.672   -4242.1798    -4707.672            0   -1604.5078    20.235547    20.159151    21.359229    8713.1012   -997.59099   -3198.7593   -617.17307    -201.4161    496.70625    944.25192   -4446.0672 
 1438000     245.3168   -4690.6499   -4217.5358   -4690.6499            0    2808.8137    20.207487    19.961316     20.97764    8461.7094    2834.0741    3875.0965    1717.2706    358.94206   -596.25153    365.82468   -3870.9131 
 1439000    239.35652   -4724.1393   -4262.5201   -4724.1393            0   -576.43398    20.394199    20.441609    20.778136    8662.2018   -1734.4216    -770.7779    775.89754   -70.207571    593.14969   -967.16864   -4335.3406 
 1440000    248.78403    -4675.694   -4195.8931    -4675.694            0   -489.48914    20.264804     20.25283    20.947044    8597.0778   -164.83679    -976.5263   -327.10433   -388.96853   -741.60165    90.956715   -4257.2651 
 1441000    240.74685   -4694.6148   -4230.3142   -4694.6148            0    1448.9077    20.273119    20.123073    20.945065    8544.6959    2642.5615    496.12322    1208.0384   -968.58102     826.9955   -929.72152   -4049.7577 
 1442000    261.73739   -4730.5912   -4225.8086   -4730.5912            0    1707.5772    20.150927     20.01474    21.181926    8543.0006    3048.9426    -662.6362    2736.4251    218.20189   -221.30943     -280.117     -4013.06 
 1443000    255.92012   -4729.5922   -4236.0288   -4729.5922            0    771.49463    20.248021    20.062577    21.307023    8655.4982   -174.14665    2658.4374   -169.80687   -229.69541    294.85448    589.57858   -4138.6418 
 1444000      269.329   -4728.6505   -4209.2269   -4728.6505            0    916.97286    20.020891    20.040928    21.128094    8477.3783    1172.8834    1028.5704    549.46479    189.97402   -775.98151   -51.909903    -4095.858 
 1445000    243.65922   -4704.9421   -4235.0248   -4704.9421            0     1321.086    20.150366    20.166091      21.0196    8541.4008     494.9266    2347.6838    1120.6475   -322.72346   -484.79423   -242.09825   -4070.4603 
 1446000    242.02722   -4711.7019   -4244.9321   -4711.7019            0    2711.0166    20.158285    20.029332    21.138826    8534.9484    4359.2237     1826.937    1946.8893   -1173.3178   -950.69649   -2044.8552   -3907.4824 
 1447000    244.06707   -4706.6591   -4235.9553   -4706.6591            0    908.42999    20.146217    20.132114    20.994413    8515.0387    1530.1689    757.59727    437.52378    228.71301    347.70691    44.851196   -4123.1436 
 1448000    239.79101   -4685.7525   -4223.2954   -4685.7525            0    914.72108    20.423332    20.398385    20.728755    8635.6615    897.68443   -762.28041    2608.7592    215.14487   -461.93569   -343.16154   -4108.0933 
 1449000    249.68341   -4697.2528   -4215.7173   -4697.2528            0    2288.7766    20.146504    20.159302    20.977092    8519.6249    2413.4804    2895.5237    1557.3258   -76.435901    1036.1833   -33.553105   -3931.3368 
 1450000    241.81445   -4712.7904   -4246.4309   -4712.7904            0     2526.022    20.278683    20.059946    21.021198    8551.1981    1991.0158    3425.6905    2161.3597   -304.17754     -239.276    573.77198   -3931.4095 
 1451000    245.45784   -4717.7834   -4244.3974   -4717.7834            0    572.44384    20.084614    20.094383    21.445444    8655.1223      217.168    2122.9454   -622.78191    557.39959    1181.6906    610.45391     -4172.14 
 1452000     251.2342   -4719.9584   -4235.4321   -4719.9584            0    1493.9121    20.278495    19.947598    21.174687    8565.3144   -1455.7844    3938.4428    1999.0779    349.78795   -1099.0481   -459.24987   -4048.8181 
 1453000    242.06352   -4730.0532   -4263.2133   -4730.0532            0    3189.6471    20.179793    20.042753    21.036537    8508.4083    4035.6057    2416.6911    3116.6445    730.33134   -1609.1559   -10.767579   -3867.4214 
 1454000    237.40032   -4719.1628   -4261.3163   -4719.1628            0    65.097145    20.233861    20.065725    21.241742    8624.2977   -931.35902    843.66942    282.98104   -643.16572    90.310805    67.296094   -4253.1286 
 1455000    244.54388   -4744.8499   -4273.2265   -4744.8499            0    602.36478    20.095353    20.120208    21.157495    8554.4549    902.15232    1917.1359   -1012.1939   -515.10219   -1897.8662   -380.32491   -4198.0767 
 1456000    242.56132   -4737.5634   -4269.7635   -4737.5634            0     1907.633    20.230433    20.167441    20.804865    8488.3027    1941.1152    2197.1145    1584.6692    460.07184   -84.064944    483.47108   -4033.6115 
 1457000    251.93391    -4711.454   -4225.5783    -4711.454            0    467.99004    20.342911    20.297405    20.888546    8625.0544    136.55462    3.9975418     1263.418   -792.92066   -189.79577   -146.59965   -4166.7109 
 1458000    250.48964   -4711.9554   -4228.8651   -4711.9554            0    2329.0666    20.244243    20.079275    21.128855    8588.6626    1886.9491    2572.2954    2527.9553    -347.6829   -1121.3288    633.81641   -3937.1336 
 1459000    241.08165   -4711.5609   -4246.6147   -4711.5609            0    3518.7576    20.045045    19.963339    21.257238    8506.4244    5978.8058    2398.9755    2178.4916    223.55666   -213.05547    146.00849   -3810.0865 
 1460000    261.76084   -4712.8541   -4208.0263   -4712.8541            0    1075.0373    20.272553    20.195586    21.036011    8612.4809   -801.33302    2757.9334    1268.5115   -56.431868    417.92556    790.39716   -4072.9971 
 1461000    240.53012   -4692.0375   -4228.1549   -4692.0375            0    1872.1048    20.221609    20.186409    20.827268    8501.7255   -69.909293    2531.5791    3154.6447   -84.568667    1642.0572   -614.92504   -3996.0346 
 1462000    248.72374   -4713.4843   -4233.7997   -4713.4843            0    1545.3261    20.252633    20.091709    21.233445    8640.1011    774.86769    2640.7859    1220.3248   -325.83028     487.5765    359.97318   -4039.0777 
 1463000    249.29871   -4694.3194   -4213.5259   -4694.3194            0    2108.4381     20.06331    20.203558    21.245857    8612.0132    1988.8922    2117.5991    2218.8229   -214.70264    670.93123    986.69092   -3948.7116 
 1464000    254.19032   -4717.4454    -4227.218   -4717.4454            0    2162.0884    20.122203    20.095806    21.016985    8498.6779      2910.21    1801.2931    1774.7621    -101.0579    135.13111   -1087.1969    -3959.239 
 1465000    237.71777   -4747.6381   -4289.1794   -4747.6381            0    2024.5898    20.094165     20.32753    20.865515     8522.827    1519.8166    1749.1862    2804.7667   -182.34177    958.81451   -2.6533542   -4037.5296 
 1466000    244.21594   -4722.0474   -4251.0565   -4722.0474            0    1658.8118    20.103294    20.071156    21.121516    8522.4547    1751.4836    2247.9598    976.99199    244.72246   -247.24847    577.30848   -4044.8807 
 1467000    230.71547   -4720.8667   -4275.9125   -4720.8667            0    2614.6143    20.086008    20.047415    21.235689    8551.0287    3109.9848    2641.3261    2092.5321   -415.09206   -108.97311    222.99699   -3949.8492 
 1468000    245.96976   -4693.3143    -4218.941   -4693.3143            0    1307.3861    20.197141    20.140485    21.314696    8670.3963    2416.6025    788.06222    717.49352   -344.74487    29.753764    573.59711   -4053.6235 
 1469000    265.49511   -4742.0683   -4230.0386   -4742.0683            0    1100.2483    20.196131    20.182403    21.053064    8581.3648   -686.81159    2763.7852    1223.7712      181.165    404.93119   -304.02993   -4092.3421 
 1470000    247.98096   -4743.0192    -4264.767   -4743.0192            0    1410.1077    20.028412    20.090611    21.133598    8503.8014    3343.2826    870.97835    16.062138   -400.39249    241.32964    -1657.375   -4089.8866 
 1471000     251.6973    -4721.432   -4236.0126    -4721.432            0    1805.6387    19.990103    20.304111    20.933619    8496.5639    2368.0942    1581.3622    1467.4597    502.11428    408.88827   -60.398618   -4012.2693 
 1472000    240.86934   -4721.6108    -4257.074   -4721.6108            0    57.000211     20.42839     20.16441    20.987642    8645.3648   -973.15033    950.73645    193.41452   -262.30673    805.65082   -1347.1902   -4249.8872 
 1473000    242.64084   -4726.4005   -4258.4473   -4726.4005            0    1064.3503    20.105138    20.186635    20.952071    8503.5045    1410.4333    698.74231    1083.8754   -220.55489    329.53104   -206.86956    -4126.452 
 1474000    243.11274   -4709.2216   -4240.3583   -4709.2216            0   -761.55027    20.057873    20.337939       21.172    8636.8164    12.194154   -1361.0273   -935.81769    573.16605   -1105.4729    1040.7342   -4336.2825 
 1475000    242.02395   -4720.0238   -4253.2602   -4720.0238            0    1972.7349    20.046382    20.082122    21.129668     8506.253    3469.2785    2182.9226    266.00362   -192.17824   -311.86477    550.52254   -4008.5327 
 1476000    243.66261   -4716.8013   -4246.8774   -4716.8013            0    1252.5958    20.163791    20.021567    21.151725    8539.1774    2377.7089    1981.2791   -601.20054    45.576057   -52.271963   -854.76987   -4090.8852 
 1477000    249.81659   -4657.7544   -4175.9621   -4657.7544            0    968.92802    20.307919    20.200648    20.946356    8592.8891    1000.3787    262.12246    1644.2829    213.17754   -963.25227   -43.180152   -4054.5375 
 1478000    267.60184   -4729.4652   -4213.3725   -4729.4652            0    1623.0141     20.22488    20.200512    20.872675    8527.5924    2172.5983    659.12273    2037.3213    505.13394   -187.31076    431.74985   -4011.5245 
 1479000    250.14667   -4701.3159    -4218.887   -4701.3159            0    801.27648    20.050145    20.079166    21.341628    8591.9299    1217.9108    814.42551    371.49313    924.11958   -408.95637   -990.55525   -4118.4835 
 1480000    254.18674   -4692.0739   -4201.8534   -4692.0739            0     3516.642    20.009126     20.23755    21.139602    8560.1796    4195.1265    2108.0911    4246.7084   -879.41288     544.8165   -492.96749   -3762.8307 
 1481000    251.66137    -4706.329   -4220.9789    -4706.329            0    725.23636    20.374815    19.963584     21.07856    8573.7953   -23.314892    1663.3295    535.69447    191.82825    531.13693    1367.1261   -4130.2953 
 1482000    256.26372   -4727.4143   -4233.1882   -4727.4143            0    2184.7647    20.183051    19.976601    20.896788    8425.3501    2453.5454    2654.3615    1446.3873   -436.41889   -1758.8199   -929.38063    -3964.735 
 1483000    245.01068   -4718.8458   -4246.3221   -4718.8458            0    1456.1632    20.094961    20.133581    21.384404    8651.7776    1124.6211    2269.7652    974.10314   -644.75073   -219.30201   -504.55308   -4062.5874 
 1484000    258.69673   -4716.9842   -4218.0658   -4716.9842            0    2230.0846    20.124953    20.083168    21.125939    8538.5299    1949.7605    1687.5472     3052.946   -108.25632    511.86234   -1114.8945   -3940.3629 
 1485000    235.41859   -4717.1726   -4263.1481   -4717.1726            0     1406.393    20.279509    20.335647    20.814423    8583.8042    2073.8849    28.655498    2116.6387    30.864373    1050.4378   -1113.4374   -4087.0874 
 1486000    233.47303   -4707.0518   -4256.7794   -4707.0518            0     1812.537    20.177765    20.327237    20.939482    8588.5007    2753.8884    613.41331    2070.3091    81.211593    -249.0105   -325.94739   -4029.7511 
 1487000    240.06391   -4689.6827   -4226.6993   -4689.6827            0    2114.5863    20.310753    19.885017    21.058073    8504.9274    812.08325    4160.5728    1371.1029   -432.17882    961.84277   -594.66319   -3964.4152 
 1488000    250.89635   -4707.9264   -4224.0517   -4707.9264            0    2259.6495    20.255804    20.010375    21.156925    8575.4563    2124.5547    2604.3025    2050.0911   -380.70162   -903.83121   -1018.9872   -3941.4504 
 1489000     242.3422   -4705.0101   -4237.6327   -4705.0101            0    1813.0291    20.283665    20.356795    20.739737    8563.6532    2304.7027    152.24535    2982.1392   -469.80354    1388.0502   -1868.3135   -4011.1997 
 1490000    241.36675   -4689.1407   -4223.6446   -4689.1407            0    1551.5044    20.177602    20.151783    20.943783    8516.0489    665.62591    2053.8612     1935.026   -305.10588   -518.66624    226.56151   -4030.9511 
 1491000    242.91928   -4730.3728   -4261.8826   -4730.3728            0    1468.4206     20.15526    19.998901    21.260717    8569.8347    474.83306    2976.2653    954.16347    172.19197    493.35942   -674.25595    -4078.356 
 1492000    242.84459   -4705.2929   -4236.9467   -4705.2929            0    580.26222     20.15708    20.116367    21.461786      8702.48    1115.0729    444.29575    181.41803    307.25424   -64.363886    92.128805   -4163.3017 
 1493000    255.64951   -4706.1783   -4213.1367   -4706.1783            0    2420.0734    20.179113    20.013728    21.049253    8500.9358     2197.391    3804.7399    1258.0894    457.16661   -1330.4501    141.79582   -3913.1022 
 1494000    258.50723   -4723.1892   -4224.6363   -4723.1892            0    3302.4384    20.365747    19.982603    20.906437    8508.0971    2656.4849    4189.7793    3061.0509   -103.14917   -702.02572    421.59326   -3814.8636 
 1495000    256.09167   -4692.0841   -4198.1897   -4692.0841            0    1398.1812     20.13625    20.323371    20.912205    8558.0372     1518.045    1692.5722    983.92634     550.8808    727.73397   -89.336034   -4023.6825 
 1496000    254.03143   -4708.2238   -4218.3028   -4708.2238            0    1857.6405    20.291501     20.16366    20.833233    8523.9362     1112.164     967.7436     3493.014    46.122066    1178.3854    765.24025   -3987.3742 
 1497000    246.25506   -4716.6784   -4241.7548   -4716.6784            0    1717.7969    20.062786    20.151367    21.212826    8576.1877    3955.3654   -104.95346    1302.9789   -647.43127   -447.48396   -181.94183   -4026.9015 
 1498000    255.34083   -4711.2655   -4218.8192   -4711.2655            0    1191.3358     19.94489    20.409789     21.12275    8598.4591    4045.9673   -1553.2641    1081.3041    1013.7244    1232.5112    661.55516    -4069.426 
 1499000    248.06923   -4739.4698   -4261.0474   -4739.4698            0    859.16273    20.142083    20.177632    21.181106     8608.415    824.84017    841.64799    911.00002      527.223    137.87993    723.54834   -4153.1839 
 1500000    255.02595   -4687.8563   -4196.0173   -4687.8563            0    1431.0948    20.137266    20.071766    21.076468    8518.9081   -618.33136    3758.2768    1153.3391    534.24861   -1105.5871    381.41575   -4018.2188 
Loop time of 357.371 on 64 procs for 250000 steps with 972 atoms

Performance: 120.883 ns/day, 0.199 hours/ns, 699.554 timesteps/s
193.5% CPU use with 32 MPI tasks x 2 OpenMP threads

MPI task timing breakdown:
Section |  min time  |  avg time  |  max time  |%varavg| %total
---------------------------------------------------------------
Pair    | 28.215     | 34.545     | 41.221     |  59.3 |  9.67
Bond    | 0.97962    | 1.2078     | 1.6376     |  11.9 |  0.34
Kspace  | 160.34     | 166.5      | 173.04     |  28.3 | 46.59
Neigh   | 2.2026     | 2.3803     | 2.6062     |   7.8 |  0.67
Comm    | 62.559     | 67.116     | 70.578     |  26.8 | 18.78
Output  | 0.51365    | 0.51435    | 0.51584    |   0.0 |  0.14
Modify  | 68.459     | 70.181     | 72.588     |  13.2 | 19.64
Other   |            | 14.92      |            |       |  4.18

Nlocal:        30.3750 ave          36 max          26 min
Histogram: 1 4 4 6 3 4 3 2 1 4
Nghost:        2550.78 ave        2579 max        2523 min
Histogram: 3 1 2 5 7 2 3 4 4 1
Neighs:        9248.31 ave       11526 max        7506 min
Histogram: 2 6 4 2 6 2 6 1 2 1

Total # of neighbors = 295946
Ave neighs/atom = 304.47119
Ave special neighs/atom = 2.0000000
Neighbor list builds = 7568
Dangerous builds = 0

unfix		3
unfix		2
unfix		1

write_data	data.final.${pid}
write_data	data.final.1
System init for write_data ...
PPPM initialization ...
  extracting TIP4P info from pair style
  using 12-bit tables for long-range coulomb (../kspace.cpp:340)
  G vector (1/distance) = 0.37175124
  grid = 24 24 25
  stencil order = 5
  estimated absolute RMS force accuracy = 0.00348798
  estimated relative force accuracy = 1.0503948e-05
  using double precision FFTW3
  3d grid and FFT values/proc = 3458 576
Last active /omp style is kspace_style pppm/tip4p/omp
WARNING: Not all mixed pair coeffs generated from mixing. Use write_data with 'pair ij' option to store all pair coeffs. (../write_data.cpp:312)

write_restart   restart.lmp.${pid}
write_restart   restart.lmp.1
System init for write_restart ...
PPPM initialization ...
  extracting TIP4P info from pair style
  using 12-bit tables for long-range coulomb (../kspace.cpp:340)
  G vector (1/distance) = 0.37175124
  grid = 24 24 25
  stencil order = 5
  estimated absolute RMS force accuracy = 0.00348798
  estimated relative force accuracy = 1.0503948e-05
  using double precision FFTW3
  3d grid and FFT values/proc = 3458 576
Last active /omp style is kspace_style pppm/tip4p/omp
Total wall time: 0:05:57
