#include		in.partitions
include		in.temp
variable        temperature equal 137.16
variable	tempDamp equal 100.0
include		in.pressure
variable        pressure equal 9793.8
variable        pressureDamp equal 1000.0 # This is 1 ps
include		in.seed
variable        seed equal 745823

units		real
atom_style	full
box tilt large
read_restart	restart.lmp.${pid}
read_restart	restart.lmp.0
Reading restart file ...
  restart file = 30 Jul 2021, LAMMPS = 30 Jul 2021
  restoring atom style full from restart
  triclinic box = (-10.565923 -9.0828845 0.23474336) to (12.545923 12.072882 21.625256) with tilt (-9.0819798 1.9540673 2.5150941)
  4 by 4 by 4 MPI processor grid
  restoring pair style lj/cut/tip4p/long/omp from restart
  restoring bond style harmonic/omp from restart
  restoring angle style harmonic/omp from restart
  1296 atoms
  864 bonds
  432 angles
Finding 1-2 1-3 1-4 neighbors ...
  special bond factors lj:    0        0        0       
  special bond factors coul:  0        0        0       
     2 = max # of 1-2 neighbors
     1 = max # of 1-3 neighbors
     1 = max # of 1-4 neighbors
     2 = max # of special neighbors
  special bonds CPU = 0.005 seconds
  read_restart CPU = 0.013 seconds
include 	in.setup
variable	out_freq equal 1000
variable	out_freq2 equal 10000
variable	out_freq3 equal 1000

timestep	2.0

neigh_modify    delay 7 every 1

include		in.tip4p
# This is TIP4P/Ice

# create groups ###
group ox type 2
432 atoms in group ox
group hy type 1
864 atoms in group hy

# set charges - beside manually ###
set group ox charge -1.1794
Setting atom values ...
  432 settings made for charge
set group hy charge 0.5897
Setting atom values ...
  864 settings made for charge

# ### TIP3P Potential Parameters ###
pair_style lj/cut/tip4p/long/omp 2 1 1 1 0.1577 8.5
pair_coeff 1 1*2 0.000 0.000
pair_coeff 2 2 0.21084 3.1668
bond_style  harmonic
bond_coeff  1 450 0.9572
angle_style harmonic
angle_coeff 1 55 104.52
kspace_style pppm/tip4p/omp 1.0e-5
pair_modify tail yes

thermo          ${out_freq}
thermo          1000
thermo_style    custom step temp pe etotal epair emol press lx ly lz vol pxx pyy pzz pxy pxz pyz enthalpy

restart 	${out_freq3} restart.lmp.${pid} restart2.lmp.${pid}
restart 	1000 restart.lmp.${pid} restart2.lmp.${pid}
restart 	1000 restart.lmp.0 restart2.lmp.${pid}
restart 	1000 restart.lmp.0 restart2.lmp.0


include         in.dump
dump            myDump all atom ${out_freq2} dump.water.${pid}
dump            myDump all atom 10000 dump.water.${pid}
dump            myDump all atom 10000 dump.water.0
dump            myDump2 all dcd ${out_freq2} dump.dcd
dump            myDump2 all dcd 10000 dump.dcd
dump_modify     myDump append yes
dump_modify     myDump2 append yes


variable natoms 	equal  "count(all)"                        # NUMBER ATOMS
variable H      	equal  "enthalpy/v_natoms"                 # ENTHALPY-per-atom
variable Vol      	equal  "vol/v_natoms"                 # volume-per-atom
fix AVG all 		ave/time ${out_freq} 1 ${out_freq} v_Vol v_H file vol_enthalpy.dat
fix AVG all 		ave/time 1000 1 ${out_freq} v_Vol v_H file vol_enthalpy.dat
fix AVG all 		ave/time 1000 1 1000 v_Vol v_H file vol_enthalpy.dat


timer           timeout 10:00:00 every 1000
New timer settings: style=normal  mode=nosync  timeout=10:00:00

fix 		1 all shake 1e-6 200 0 b 1 a 1
       0 = # of size 2 clusters
       0 = # of size 3 clusters
       0 = # of size 4 clusters
     432 = # of frozen angles
  find clusters CPU = 0.003 seconds
fix             2 all nph tri ${pressure} ${pressure} ${pressureDamp}
fix             2 all nph tri 9793.8 ${pressure} ${pressureDamp}
fix             2 all nph tri 9793.8 9793.8 ${pressureDamp}
fix             2 all nph tri 9793.8 9793.8 1000
fix             3 all temp/csvr ${temperature} ${temperature} ${tempDamp} ${seed}
fix             3 all temp/csvr 137.16 ${temperature} ${tempDamp} ${seed}
fix             3 all temp/csvr 137.16 137.16 ${tempDamp} ${seed}
fix             3 all temp/csvr 137.16 137.16 100 ${seed}
fix             3 all temp/csvr 137.16 137.16 100 745823


run             250000
PPPM initialization ...
  extracting TIP4P info from pair style
  using 12-bit tables for long-range coulomb (../kspace.cpp:340)
  G vector (1/distance) = 0.37239011
  grid = 30 36 32
  stencil order = 5
  estimated absolute RMS force accuracy = 0.0035122573
  estimated relative force accuracy = 1.0577059e-05
  using double precision FFTW3
  3d grid and FFT values/proc = 4896 600
Last active /omp style is kspace_style pppm/tip4p/omp
Neighbor list info ...
  update every 1 steps, delay 7 steps, check yes
  max neighbors/atom: 2000, page size: 100000
  master list distance cutoff = 10.8154
  ghost atom cutoff = 10.8154
  binsize = 5.4077, bins = 7 5 4
  1 neighbor lists, perpetual/occasional/extra = 1 0 0
  (1) pair lj/cut/tip4p/long/omp, perpetual
      attributes: half, newton on, omp
      pair build: half/bin/newton/tri/omp
      stencil: half/bin/3d/tri
      bin: standard
Per MPI rank memory allocation (min/avg/max) = 9.423 | 9.434 | 9.439 Mbytes
Step Temp PotEng TotEng E_pair E_mol Press Lx Ly Lz Volume Pxx Pyy Pzz Pxy Pxz Pyz Enthalpy 
31250000    142.76781   -6641.2728   -6274.0113   -6641.2728            0    10130.988    23.111847    21.155767    21.390512    10458.866    10562.352     9276.218    10554.393   -152.06568   -1706.6169    1028.1584   -4728.7132 
31251000     140.8363   -6664.0567   -6301.7639   -6664.0567            0    9509.2247    23.146532    21.141952     21.42866     10486.39    10036.931    9821.2464    8669.4963   -162.61388   -86.025665   -909.37741   -4847.4873 
31252000    135.88808   -6646.3122   -6296.7484   -6646.3122            0    9899.7441    23.046602    21.295044    21.317293    10462.067    9580.5727    9387.7006    10730.959   -249.95704    823.31852    318.57386   -4786.2602 
31253000    138.86471   -6661.6975   -6304.4765   -6661.6975            0    9820.8542     23.03259    21.303816    21.346992    10474.586    9655.3161    9964.5183     9842.728    89.448243    156.34475    33.084927   -4804.2321 
31254000     133.8403   -6663.0161   -6318.7201   -6663.0161            0    9771.2421    23.014667    21.291536    21.373648    10473.464     10032.12    10281.711    8999.8953    686.29783   -455.48994   -815.10077   -4826.2143 
31255000    131.31792   -6650.8996   -6313.0923   -6650.8996            0    8120.5725    23.026771    21.297307    21.480297    10534.114    7861.4326    7696.3597    8803.9252    434.36643   -421.17337    816.72501   -5065.5348 
31256000    140.63434   -6650.2799   -6288.5066   -6650.2799            0    9724.4596    23.250363    21.097558    21.366481    10480.812    10044.419    9334.3399    9794.6202   -1054.2169   -271.51893   -177.87022   -4802.1045 
31257000    136.68976   -6657.9299   -6306.3038   -6657.9299            0    9610.2418    23.203289    21.091117    21.418131    10481.676    9065.5998    9978.5302    9786.5954   -324.03245    41.641227    132.93437   -4837.2391 
31258000     137.5312   -6639.8767   -6286.0861   -6639.8767            0    10562.043    23.129596     21.13552    21.338626    10431.516    9989.7412    10657.104    11039.285    445.97252   -452.08898    433.90968   -4679.2512 
31259000    141.19967   -6640.5907   -6277.3631   -6640.5907            0    10180.969    23.029483    21.211093    21.425941    10466.155    11041.156    9703.8834    9797.8692   -494.00643    280.32326   -934.30051    -4723.359 
31260000    136.20599   -6642.9178   -6292.5362   -6642.9178            0      9542.15    23.046849    21.289659    21.355621    10478.339    10392.026    9300.7743    8933.6498    718.24069   -823.72553    287.96561   -4834.3446 
31261000    139.29389   -6657.1116   -6298.7866   -6657.1116            0    9352.2072    23.048011    21.326093    21.335439     10486.88    8605.5047    8273.5996    11177.517     406.8471    1724.0838    503.85181   -4868.4563 
31262000    142.54124   -6645.7455   -6279.0668   -6645.7455            0    9360.2186    22.969395    21.339319    21.448874    10513.192     9673.714    8296.4454    10110.496    186.77352   -423.44594    122.99649   -4843.9195 
31263000    142.19568   -6656.4321   -6290.6423   -6656.4321            0    8244.5417    23.139854    21.224179    21.466284    10542.616    8269.4908    9096.0269    7368.1076   -340.27261    816.38731    238.65066   -5023.0173 
31264000    136.02581   -6670.1233   -6320.2052   -6670.1233            0    9701.5471    23.187025    21.166966    21.354473    10480.754    9492.6787    9716.1007     9895.862   -1033.3783    -194.7415   -755.18304   -4837.3136 
31265000    140.96439   -6659.3048   -6296.6825   -6659.3048            0    9858.2134    23.141846    21.122243    21.454352    10487.052    8980.4991    10817.116    9777.0249   -368.63053    62.077436   -568.44118   -4788.9388 
31266000     136.9857   -6649.7874      -6297.4   -6649.7874            0    10140.267    23.200716    21.119405    21.328278    10450.543    8826.3011    10477.003    11117.496    348.83044    651.98987    124.95782   -4751.9174 
31267000    140.80966   -6655.8564   -6293.6322   -6655.8564            0    10141.139    22.901697    21.329851    21.383578     10445.66    11523.322     9069.053    9831.0418   -279.24883    -629.4354   -509.86517   -4748.7389 
31268000    133.40526   -6660.2573   -6317.0804   -6660.2573            0    9697.5179    22.953324    21.346873    21.355272    10463.692    10599.401    9441.2067     9051.946    343.83073   -241.82775    60.240272   -4837.2176 
31269000    139.72405   -6659.3849   -6299.9533   -6659.3849            0    10243.474    22.932576    21.349939    21.343177    10449.813    10459.696    9353.2845    10917.443    56.983704    911.11529    586.89283   -4738.8497 
31270000    138.47061   -6658.1997   -6301.9925   -6658.1997            0    10524.882    23.079346    21.195905    21.339213    10438.879     10983.85    10564.194    10026.602    20.341486   -140.95728    518.22677   -4699.6808 
31271000    133.92552   -6665.2604   -6320.7452   -6665.2604            0     8999.183    23.245524    21.107094    21.382611    10491.281    8589.2492    10038.222    8370.0779   -335.13356    191.82514   -500.02403   -4943.8291 
31272000      136.893   -6648.0594   -6295.9104   -6648.0594            0    9728.9126    23.190602    21.030851    21.451238    10462.157    9318.9776    10987.147    8880.6132   -940.78442   -387.40339   -651.06024   -4811.4746 
31273000    136.43139    -6663.797   -6312.8356    -6663.797            0    9145.1681    23.129145    21.157991    21.431705    10487.953    8499.5533    10345.557    8590.3942    -119.5129   -130.63109   -761.55439    -4914.027 
31274000    146.57754   -6635.2987   -6258.2369   -6635.2987            0    9865.3432    23.026129    21.374935    21.262278    10464.911    9520.8141    10354.602    9720.6137    275.21732     -547.546   -1642.7403   -4752.5884 
31275000    142.42363   -6643.9354   -6277.5593   -6643.9354            0    9382.3796    22.887468    21.407901     21.37413    10472.739    9892.7635    9345.5381    8908.8373    329.14011   -229.06334    636.07808   -4844.5494 
31276000     139.1387   -6630.8022   -6272.8763   -6630.8022            0    11578.416    22.947807    21.265026    21.358847    10422.812    12082.958    10809.653    11842.636    899.63654    -177.9405    641.36341   -4512.8874 
31277000     133.2048   -6629.7042   -6287.0429   -6629.7042            0    9470.3274    23.161128     21.15329    21.410989    10489.973    9228.8288    10080.539    9101.6145    489.09371   -991.88817   -282.91568   -4838.2202 
31278000    133.87808   -6665.8648   -6321.4716   -6665.8648            0    8885.4364    23.187879    21.139953     21.39462    10487.443    8672.5145    8530.5343    9453.2603    321.03503   -1179.0572    941.45352   -4962.4565 
31279000    133.69287   -6651.4894   -6307.5726   -6651.4894            0    11000.382     23.16912    21.054316    21.413127    10445.537    10154.897    13063.471    9782.7788   -217.57265   -403.40973   -1835.8751   -4631.8026 
31280000    143.59281   -6644.6317   -6275.2479   -6644.6317            0    10709.094    22.982999    21.221497     21.41783    10446.197    11589.055    10118.611    10419.616    -31.37431   -374.80187    472.71198   -4643.7489 
31281000    142.17255   -6642.4696   -6276.7393   -6642.4696            0    10139.489    22.968548    21.354474    21.297048    10445.803    10633.855    8889.0177    10895.595    197.90773   -362.34937    516.44687   -4732.0761 
31282000     142.5916   -6659.5812   -6292.7731   -6659.5812            0     9012.139    23.051977    21.277527    21.415487    10504.062    8459.6188    9328.3265    9248.4717   -123.46706    392.63122   -131.78649   -4912.1947 
31283000    138.32471   -6653.7962   -6297.9643   -6653.7962            0    9703.7041    22.997898     21.25641    21.415022    10468.792    9583.3449    9304.8676      10222.9    306.84027   -599.00285    601.47149   -4816.4358 
31284000     134.5836   -6654.4753   -6308.2672   -6654.4753            0    9850.8851    23.162613     21.13566    21.373377    10463.489    9807.3884    9562.5724    10182.695   -92.387068   -429.94833    50.108881   -4805.0295 
31285000     134.1146   -6654.5497   -6309.5481   -6654.5497            0    10686.931    23.165824    21.096742    21.380907     10449.35    9073.3966    11869.216    11118.179    418.34931    1171.9327   -416.11142   -4680.9342 
31286000    131.66913   -6648.0777   -6309.3669   -6648.0777            0     8813.965     22.98655    21.219677    21.524067    10498.733    8973.4576    8859.1898    8609.2474      525.377   -585.02683    1370.2594    -4959.832 
31287000    141.47825    -6654.067   -6290.1229    -6654.067            0    10056.615    23.028474    21.356905    21.265424    10458.695    10908.617    9438.7392    9822.4889    221.30187   -470.09009   -1314.7662    -4756.194 
31288000    133.39865   -6649.2197   -6306.0598   -6649.2197            0    8898.8653    22.997177    21.278903    21.456079    10499.633    9736.2198    8791.6258    8168.7504   -316.03578   -116.57323   -217.18817   -4943.4088 
31289000    138.95361    -6655.625   -6298.1753    -6655.625            0    9480.6967    23.170711    21.124607    21.404983    10477.143    9567.0234    9506.9654    9368.1013    490.88231   -70.571161   -379.13937   -4849.5401 
31290000    133.84877   -6652.3637   -6308.0459   -6652.3637            0     9732.195    23.346199    21.070298    21.287853    10471.736    8538.0204    10660.868    9997.6962   -44.166709   -291.39327    -290.8028   -4821.7496 
31291000    135.23204    -6659.157   -6311.2809    -6659.157            0    9596.7559    23.123007    21.098932     21.48037    10479.644    9256.7521    9671.5559    9861.9597    439.55282   -854.14353   -203.14848    -4844.562 
31292000     137.3091   -6651.7902   -6298.5709   -6651.7902            0    10495.749    23.011472    21.239971    21.366692    10443.248    11472.599    9071.4762    10943.171   -232.19427   -182.45596   -32.364252   -4700.0257 
31293000    140.15875   -6648.4998   -6287.9499   -6648.4998            0    9882.1545    22.897811    21.299152     21.42403    10448.584    10426.676    9840.5134    9379.2736    334.49099    1199.1274    47.455881   -4782.0886 
31294000    139.41062   -6645.7858   -6287.1605   -6645.7858            0    11212.982    22.906713    21.253102    21.401922    10419.284    12145.459    10839.142    10654.346    901.13309    -1021.443   -143.63423   -4583.2966 
31295000    130.24881   -6667.3618   -6332.3047   -6667.3618            0    10376.743    23.027237     21.21921    21.370152    10441.879     10812.26     10395.27    9922.6972   -155.45362   -204.33201   -332.78451   -4752.0918 
31296000    140.03092   -6652.6156   -6292.3946   -6652.6156            0    9936.4839    23.361625    21.085921    21.256873    10471.165    9039.8898    9589.9639    11179.598    46.992753    416.54485    1299.1606   -4774.9822 
31297000    132.33047   -6652.8377   -6312.4257   -6652.8377            0    10053.712    23.177881    21.086446    21.420274    10468.926     9580.925    10061.345    10518.867    627.06284    50.486185      1020.94   -4777.4395 
31298000     138.3181   -6644.8457   -6289.0308   -6644.8457            0    10069.211    23.059403    21.181566    21.442467    10473.236    10841.811    9577.1932    9788.6279   -37.639048   -648.49982    426.95268   -4751.0455 
31299000    141.56058   -6650.9305   -6286.7745   -6650.9305            0     9629.272    23.048882    21.295254    21.352666    10480.568    10288.889    8711.2047    9887.7227    871.65291    299.14336   -119.21029   -4814.9564 
31300000    140.83058   -6655.7455   -6293.4674   -6655.7455            0    10155.316    22.934864    21.280104    21.404967    10446.829    10364.305    10374.742    9726.9014     1031.394   -1051.6943    34.588495   -4746.2411 
31301000    140.48686   -6646.5352   -6285.1414   -6646.5352            0    9583.2421    23.111003    21.240288    21.336373    10473.692    8651.2727    9360.0296    10738.424    760.40519   -38.993519    736.30718   -4821.3197 
31302000    134.79881   -6654.7215   -6307.9598   -6654.7215            0    10421.687    23.046262    21.178909    21.413391    10451.762    10920.896    9859.8652    10484.298    -153.8966     175.6664    440.22685   -4719.4005 
31303000    127.37803   -6634.9133   -6307.2411   -6634.9133            0    10580.912    23.025285    21.137645    21.481368    10454.988    10977.031    10532.461    10233.243   -142.71297   -988.41757   -702.71232   -4693.9136 
31304000    140.67833   -6651.9874   -6290.1009   -6651.9874            0    10256.965    23.153881    21.210905    21.294812    10458.197    9598.2745    9971.3412     11201.28    329.49946   -434.26776   -199.55581   -4725.6873 
31305000     137.0325   -6646.1767    -6293.669   -6646.1767            0    10188.168    23.128439    21.162281    21.376001    10462.495    9805.6773    10687.486     10071.34   -433.95676   -34.366125   -83.454619   -4739.1099 
31306000    141.26138   -6637.1968   -6273.8105   -6637.1968            0    11120.999    23.073225    21.059732    21.474149    10434.631    11548.499    11605.877    10208.622   -765.63565    887.84095   -361.29911   -4581.4347 
31307000    139.04122   -6651.3404   -6293.6653   -6651.3404            0    10477.355    23.103836    21.207349    21.310574    10441.566    10998.408    10307.718    10125.939   -476.53514    300.65324    3.7062084   -4698.1787 
31308000     139.1091   -6654.5381   -6296.6884   -6654.5381            0    10959.501    23.016018    21.233458    21.332521    10425.409    11828.096    9950.7833    11099.624   -252.39261   -283.75534    456.72865   -4630.3632 
31309000    137.89867   -6653.2148   -6298.4789   -6653.2148            0    9857.7358    23.071905    21.271398    21.359464     10482.62    9806.0051    9787.7203     9979.482   -455.39104    582.37499   -484.97957   -4791.4454 
31310000    135.51969   -6674.5722   -6325.9561   -6674.5722            0    8671.2082    22.973366    21.267154    21.506692    10507.699    9107.4654    8903.0365    8003.1227   -1783.2257    922.29003    336.52335   -4997.1453 
31311000      138.119   -6654.0317    -6298.729   -6654.0317            0    9887.9051    22.995979    21.248351    21.415435    10464.152    11644.062    8615.9113    9403.7418   -631.38257   -642.61079   -221.57571   -4789.7464 
31312000    137.11716   -6642.2123   -6289.4867   -6642.2123            0    9501.6975    23.100691    21.276568    21.319232    10478.476    8008.4395    10239.283     10257.37    927.57913   -55.019864   -512.65108    -4837.458 
31313000    142.58999   -6639.8762   -6273.0722   -6639.8762            0    10163.949    22.988986    21.265644    21.370071    10447.306    10307.155    10080.113    10104.578    333.47842    558.84357    189.95965   -4724.4599 
31314000    134.70134   -6651.7171   -6305.2061   -6651.7171            0    9826.7656    23.118936    21.158482    21.407262    10471.611    9438.0741    10409.372    9632.8506     283.6939   -297.57406   -532.61276    -4804.485 
31315000    130.65859   -6654.8094   -6318.6982   -6654.8094            0    10661.977    23.157147    21.091532    21.370787    10437.914    10316.659    11479.033    10190.238    568.35657    113.18763   -487.88168   -4695.6652 
31316000    136.57776   -6636.1523   -6284.8143   -6636.1523            0    9703.8743    23.281753    21.160403    21.273678    10480.505    9384.8402    9878.7957    9847.9868    -1327.699   -143.42391    -82.14394   -4801.6022 
31317000    130.12411   -6660.0017   -6325.2653   -6660.0017            0    9841.1535    23.037546    21.159873    21.490403     10475.96    9443.3162    10305.816    9774.3279    322.99104    627.76745     647.9373   -4821.7228 
31318000     131.5928   -6657.1891   -6318.6746   -6657.1891            0    9203.1036     23.08145     21.27825    21.377872    10499.375     9149.381    8676.2683    9783.6615    488.26321    341.30372   -21.325587   -4909.4713 
31319000    130.52201   -6664.3294   -6328.5695   -6664.3294            0    9404.8567    23.035876    21.298761    21.368213    10484.007    9089.3302    9428.2228    9697.0172    896.99705    35.504815   -110.23038   -4890.5811 
31320000    132.91844   -6646.8742   -6304.9496   -6646.8742            0    10170.416    23.019516    21.253214    21.409937     10474.57    10192.351     9716.227    10602.671    1279.1103    19.417239    961.29314   -4751.3081 
31321000    135.27553    -6641.705    -6293.717    -6641.705            0    9984.3702    23.195619    21.116682    21.372837    10468.725    9345.9083    10664.125    9943.0774   -470.42272    293.97907   -1244.1153    -4769.347 
31322000    148.61709    -6636.732   -6254.4236    -6636.732            0    11848.484    23.013389    21.088191    21.409136    10390.084     13034.26     11657.57    10853.621   -173.28472   -737.89802   -142.12165   -4459.0381 
31323000    131.58779   -6651.4323   -6312.9307   -6651.4323            0    9841.9807    23.127584    21.131712    21.394979    10456.271    9442.0048    10499.858    9584.0788     10.69741    921.23075    682.06263   -4812.0878 
31324000     139.4159    -6665.034    -6306.395    -6665.034            0    9251.5145    23.094996    21.245657    21.381007    10490.984    8708.0194    9290.3754    9756.1486   -781.42852    633.07526    598.08174   -4890.9111 
31325000    136.61419   -6650.7702   -6299.3386   -6650.7702            0    9900.3044    22.986168     21.21023    21.461172     10463.22    11058.924    9156.4585    9485.5308   -55.149812   -249.36464    656.60731   -4788.5983 
31326000    130.12047   -6638.2926   -6303.5656   -6638.2926            0     9487.032     23.07833    21.279679    21.334304    10477.265    8757.3721    9817.2063    9886.5177   -848.78992    245.30838   -433.84765   -4853.9455 
31327000    134.38341   -6661.0374   -6315.3442   -6661.0374            0    9625.2673    23.113009    21.195189    21.421348    10493.988    8462.9139    9658.8732    10754.015   -456.52954    281.22334    58.801046   -4842.2543 
31328000    141.83812   -6645.3563   -6280.4864   -6645.3563            0    9406.1679    23.186647    21.042103    21.513244    10496.221    9506.9278    10508.973    8202.6026    -16.60674   -131.31249      504.839    -4840.622 
31329000    134.30972   -6658.5109   -6313.0073   -6658.5109            0    10458.974    23.050043      21.2224    21.369641    10453.542    10666.798    10437.172    10272.952   -810.16681   -835.61624    360.95692   -4718.4929 
31330000    139.58772   -6635.5666   -6276.4857   -6635.5666            0    10872.698    23.109675    21.074825    21.449273     10446.49    11092.412     10829.73    10695.953    136.00259    215.75298    107.72656   -4620.0156 
31331000    136.09543   -6659.3862    -6309.289   -6659.3862            0    9229.2072    23.037192    21.229037    21.430661    10480.823    9304.9075    8338.1274    10044.587   -123.67899   -797.78172    1126.2524   -4898.5857 
31332000     136.7869   -6664.3072   -6312.4312   -6664.3072            0    9061.1616     23.05636    21.261282    21.395921    10488.447    8971.6668    9202.0424    9009.7757    431.53021   -415.42949   -47.421711   -4926.4066 
31333000    140.88711   -6660.7764   -6298.3529   -6660.7764            0    10085.114    22.938225    21.354239    21.324755    10445.469    10342.244    9596.4994    10316.598    322.20572    380.16448   -529.81951   -4762.0224 
31334000    147.06984   -6655.1754   -6276.8472   -6655.1754            0    8431.5125    22.961217    21.398478    21.375212    10502.392    8488.3437      7730.73    9075.4637    46.353092   -159.26016    482.55929    -4985.421 
31335000    139.71778   -6667.3326   -6307.9171   -6667.3326            0    10122.486    23.084923    21.120969    21.461451    10464.087    10078.257    10478.723    9810.4787    277.68018   -282.71173   -9.5442494    -4763.145 
31336000    140.64836   -6673.4708   -6311.6615   -6673.4708            0    9422.5264    23.161575    21.110525    21.431271    10478.885     8496.765    10417.732    9353.0817    285.88733    582.08238    511.25023   -4871.6753 
31337000    133.03783   -6659.1176   -6316.8858   -6659.1176            0    9433.4448    23.246197    21.065825    21.368559     10464.19    9062.1488    9094.8041    10143.382   -109.43687   -118.85312    669.34283   -4877.2527 
31338000    137.95931   -6652.1407   -6297.2487   -6652.1407            0    9492.2896    23.176652     21.18086    21.347493    10479.514     9702.954    9288.1606    9485.7541   -453.07078   -663.14745   -630.88931    -4846.514 
31339000    136.24642   -6680.4403   -6329.9547   -6680.4403            0    9418.1634    23.066123    21.175068    21.466095    10484.615    9943.6381    8869.6334    9441.2188    601.43137   -139.88323   -126.18031   -4889.8483 
31340000    137.56758   -6662.2849   -6308.4007   -6662.2849            0    9844.4835    23.015569     21.27934    21.347643    10455.139    9753.5582    9117.1897    10662.703     1015.049    367.65699    175.22818   -4807.3387 
31341000    138.90768   -6677.1377   -6319.8061   -6677.1377            0    9448.3272     22.96609    21.349846     21.36615    10476.304    10622.118    8653.1424     9069.721    109.49211   -113.25766   -398.78584   -4876.2326 
31342000    135.88889   -6647.9171   -6298.3512   -6647.9171            0    9825.1826    23.107908    21.204582    21.383727    10477.888    10119.297    9488.2511    9867.9993    251.61398   -162.03138    94.090166   -4796.9724 
31343000    134.51809   -6645.1671   -6299.1276   -6645.1671            0    9939.5471    23.173707    21.045485    21.484197    10477.884    9868.2787    10805.425    9144.9372   -243.86816   -338.07264    589.84799   -4780.2734 
31344000    138.00734   -6653.6057   -6298.5902   -6653.6057            0    8835.9332    23.200377    21.184846    21.387946    10512.099    8099.9156     9425.504    8982.3799   -416.85216    176.69424   -116.89552   -4943.9694 
31345000    134.29684   -6669.3276   -6323.8572   -6669.3276            0     9717.637    23.064697    21.200497    21.404777    10466.573    9019.4395    9899.6341    10233.837   -89.254294     493.4714    477.35276   -4840.5159 
31346000    146.90601   -6657.7657    -6279.859   -6657.7657            0    10295.036    23.030446    21.293953    21.277877    10434.868    9810.6987    10042.469     11031.94    823.75376    66.627643     1143.227   -4713.1415 
31347000    137.07074   -6656.1004   -6303.4943   -6656.1004            0    9608.7408    22.986033    21.245219    21.441735    10470.928    9143.2677    10266.018    9416.9369   -116.58881   -437.65158   -677.84089   -4836.1651 
31348000    134.27826   -6666.7585   -6321.3359   -6666.7585            0    9870.1904    23.093896    21.130502    21.368203    10427.376    10135.907    9147.5745     10327.09   -362.68316    39.204102     592.0984   -4820.3506 
31349000    137.68676   -6657.1531   -6302.9623   -6657.1531            0    9650.0763    23.210641    21.062749    21.431899    10477.624    9385.4246    9131.8534    10432.951    340.64545    198.81981     322.6828   -4828.3785 
31350000    137.44882   -6668.0438   -6314.4651   -6668.0438            0    9000.0925    23.146419    21.252103    21.347273    10500.939    8744.4917    9359.9374    8895.8483   -146.16566   -265.62676   -942.83929   -4936.1421 
31351000    132.15447   -6652.5642   -6312.6049   -6652.5642            0     10530.98    23.034756    21.132767    21.403231    10418.839     10060.04    10706.089    10826.809    722.07639    513.81383    1125.4048   -4712.4428 
31352000    140.10782   -6667.6913   -6307.2725   -6667.6913            0    9523.7919    23.021941    21.171309    21.497132    10477.802    9437.7938    9947.0055    9186.5764    919.94263    -98.93798   -95.277625   -4851.9609 
31353000    134.11695    -6636.428   -6291.4203    -6636.428            0    8710.2396    23.136618    21.331347    21.331868    10528.028    7976.3271      9211.48    8942.9117    12.911609    448.04147   -23.673002   -4954.0458 
31354000    135.36276   -6642.0342   -6293.8217   -6642.0342            0    10270.699    23.167011    21.151689    21.344345    10459.186    9884.0487    10804.041    10124.006    -166.1327   -293.73012    79.322169   -4727.1653 
31355000    141.30081   -6655.2704   -6291.7826   -6655.2704            0    10381.517    23.025286    21.134978    21.491504    10458.602    10170.226    10636.321    10338.005    -550.2987    588.88349   -578.30614   -4708.3108 
31356000    136.72157   -6665.0931   -6313.3852   -6665.0931            0    9435.3932    23.257973    21.216946    21.252667    10487.408    8949.6943    8790.4301    10566.055    508.97895    110.09098    96.656772   -4870.2598 
31357000    136.63244   -6655.4573   -6303.9787   -6655.4573            0    11020.108    23.015632    21.156422    21.459304    10449.145    11395.649    11139.763    10524.912     39.71461   -511.76423    205.90013   -4624.6238 
31358000    135.78097   -6651.7908   -6302.5026   -6651.7908            0    10070.586    23.027598    21.251758     21.32943    10438.131    9929.5076    9591.9023    10690.348   -465.36703    613.95862   -472.04894   -4769.4629 
31359000    138.41533   -6667.8193   -6311.7543   -6667.8193            0    10112.924    23.039527    21.282336    21.336913    10462.234    10930.326    9991.3003    9417.1458    381.06424   -506.05376   -100.04907   -4768.7148 
31360000    135.16651   -6656.6287   -6308.9211   -6656.6287            0    10456.188    22.955992    21.228736    21.481841    10468.675    10698.423    10707.043    9963.0966     -181.856    486.62316   -650.60952   -4712.5238 
31361000    133.71928   -6643.2877    -6299.303   -6643.2877            0    8863.0584      23.2486    21.197833    21.279397    10486.911     7747.968    9073.9412    9767.2661    762.24932     248.9208    386.15518   -4943.7794 
31362000     135.9253   -6646.9402   -6297.2807   -6646.9402            0    10335.621    23.095311    21.134746    21.429833    10460.191     11822.69    9770.0736    9414.0991    404.33632    -1995.193   -316.61321   -4720.5697 
31363000    134.40158   -6640.9116   -6295.1718   -6640.9116            0    10662.023    23.118871     21.12974    21.388284    10448.085    10629.719    10568.803    10787.547    613.78657   -208.82088   -118.14872   -4670.5502 
31364000    139.87283   -6656.5768   -6296.7625   -6656.5768            0    9614.0343    23.097727    21.272282    21.325501    10478.101    9197.3524    9161.4548    10483.296   -260.90181    501.76392     467.6756   -4827.6193 
31365000    136.72055   -6648.7497   -6297.0444   -6648.7497            0    10466.624    22.977716    21.240314    21.448724    10468.134    11974.015    9941.7154    9484.1421   -980.68345   -151.47126   -539.46842   -4699.1364 
31366000    129.64251   -6647.3702   -6313.8727   -6647.3702            0    10677.472    23.024026    21.324872    21.213047    10415.276    11262.248    9955.4977    10814.669   -33.854315   -323.49169   -203.24157   -4692.0062 
31367000    131.43679   -6674.2424   -6336.1293   -6674.2424            0    9448.3967    23.035742     21.25072    21.386462    10469.232    8775.3969     9745.918    9823.8751   -127.30896    840.86299   -385.03274   -4893.5197 
31368000    131.99931   -6654.8931   -6315.3329   -6654.8931            0    10208.219    23.100934    21.166578    21.389383    10458.718    10750.012     10070.04    9804.6043   -193.92754   -344.73074   -338.42188   -4758.2766 
31369000    140.26391   -6672.1657   -6311.3453   -6672.1657            0    8232.6365    23.241436    21.200495    21.341259    10515.477    7658.0322    8161.4305    8878.4467   -703.47574   -502.94401    602.14564   -5048.8092 
31370000    129.61051   -6630.4234   -6297.0082   -6630.4234            0    11252.911    23.144087    21.034051    21.405288    10420.392    11020.871    12214.715    10523.146    610.54882   -181.37052   -412.02775   -4586.8952 
31371000    137.45942   -6659.8869    -6306.281   -6659.8869            0    10172.163    23.017714    21.278514    21.346709     10455.25    9665.5256    9924.2419    10926.723    316.61512    654.05538    676.33697   -4755.2386 
31372000       136.16   -6631.7486   -6281.4853   -6631.7486            0     8972.367    22.999562    21.338687    21.410366    10507.789    8677.2341    8167.1577    10072.709    1062.2431   -59.138534    1297.2954    -4906.512 
31373000    134.60753   -6653.8108   -6307.5411   -6653.8108            0    9835.0608    23.056779    21.247431    21.348343    10458.496    10117.656    10116.372     9271.154    21.387683   -1181.4717   -647.39514   -4807.4343 
31374000    132.80748   -6624.1573   -6282.5181   -6624.1573            0    12076.522    23.105457    21.173097    21.221411    10381.813    11380.391    12559.054     12290.12    691.42463   -27.368683   -132.25933   -4454.0349 
31375000    135.98989   -6641.3433   -6291.5176   -6641.3433            0    8852.5979    23.168168     21.05684    21.534466    10505.555     7841.154    9643.5593    9073.0805    1362.8357    -1028.782    333.25796   -4935.1868 
31376000    139.04148   -6659.8955   -6302.2198   -6659.8955            0     9414.659    23.068838    21.274865    21.331797    10469.356    9254.2275    10268.247    8721.5023   -1247.0323   -462.98799   -845.78497   -4864.7443 
31377000    141.26272   -6665.1796   -6301.7898   -6665.1796            0    11043.583    22.997669    21.208433    21.366765    10421.523    11465.575    10752.458    10912.715   -1096.0624    1042.8019     29.61346   -4623.3064 
31378000    136.30679   -6658.6079    -6307.967   -6658.6079            0    9018.5205    22.977952    21.353231    21.419369    10509.489    9736.4747    8147.7218     9171.365     712.0315   -301.41621    178.34988   -4925.6973 
31379000    144.50308   -6645.8041   -6274.0788   -6645.8041            0    10687.016    23.053813    21.244467    21.345765    10454.429    11690.995    9579.7243    10790.329   -347.98213    99.891977   -560.70576   -4644.6601 
31380000    132.44592   -6666.1614   -6325.4523   -6666.1614            0    9936.4206    23.159032    21.100889    21.384356    10450.025    9144.4644    10301.717    10363.081   -45.640545    77.060044   -178.51084   -4811.1131 
31381000    131.84527   -6664.7236   -6325.5597   -6664.7236            0    9168.5933    23.120549    21.175853    21.415449    10484.947    8520.1452    9562.8543    9422.7805   -88.195218   -423.58568    1067.9849   -4923.5699 
31382000    138.75074   -6640.6952   -6283.7674   -6640.6952            0    9350.6607    23.154697     21.17689    21.370636    10478.973    10221.531    9482.3647     8348.086   -336.40884    486.07192   -723.04181    -4854.752 
31383000    137.37291   -6641.2965   -6287.9131   -6641.2965            0    10625.239    22.929861    21.240009    21.439309    10441.596    10917.039    10088.264    10870.415   -33.912992     570.9712    890.63946    -4669.902 
31384000     135.8373   -6663.3826   -6313.9494   -6663.3826            0     10656.49    23.053208    21.195095    21.305156    10410.018    10152.254    10518.563    11298.655   -568.52751    1523.8471    65.895196   -4696.0871 
31385000    130.03729   -6654.1273   -6319.6143   -6654.1273            0    10274.903    23.073664    21.241522    21.342323    10460.294    9542.2719    10319.794    10962.643    554.29299   -269.83911    380.71793   -4752.1506 
31386000    138.74787   -6650.1491   -6293.2287   -6650.1491            0    9799.7969    23.049219    21.195579    21.458994     10483.61    9644.1545    10447.577    9307.6595    667.95174    14.554991   -907.38476   -4794.9113 
31387000    134.49057   -6655.3147   -6309.3459   -6655.3147            0    9229.1045    23.282864    21.104614    21.349776    10490.764    9373.8601    9243.8707    9069.5826    532.68621   -786.23453   -1100.5531   -4897.3202 
31388000    132.38606   -6659.3681    -6318.813   -6659.3681            0    9559.6368    23.108742    21.197339    21.365811    10465.911    9335.8545    9316.4025    10026.654   -439.92946    377.16353   -682.83472   -4859.6819 
31389000    133.84197   -6662.6657   -6318.3654   -6662.6657            0    8815.1479    23.034409    21.232744    21.511923    10521.131    9493.3525    8567.9716    8384.1196   -305.34755   -876.63866   -315.31129   -4965.7699 
31390000    136.27914   -6647.0826   -6296.5128   -6647.0826            0    10290.643     23.09472    21.336244    21.211282    10451.957    9422.1599    9326.0676    12123.702    1447.4128   -850.35604   -196.10202   -4727.8991 
31391000    134.79311   -6656.2232   -6309.4762   -6656.2232            0     10239.62    23.022764    21.187569    21.406395    10441.962    10580.376    9787.0095    10351.475    207.39454    137.76241    584.43726   -4750.1325 
31392000    141.68103   -6656.0547   -6291.5889   -6656.0547            0    10800.927    23.059676    21.172983    21.333933    10416.125    10166.083    11249.391    10987.308   -548.50485    583.32854    955.05817   -4650.8363 
31393000    135.03944   -6655.0854   -6307.7046   -6655.0854            0    8516.4913    23.273617    21.172536    21.356292    10523.558    8332.7323    8873.5749    8343.1666   -714.48794   -760.42383   -468.93551   -5000.6336 
31394000     138.8541   -6665.6544   -6308.4607   -6665.6544            0     8755.303    23.129291    21.116586    21.492852    10497.359    9013.4019    9163.4843    8089.0229    1146.0641   -66.046004    638.32138   -4968.0832 
31395000    141.69611   -6650.0105   -6285.5059   -6650.0105            0    9059.6813    23.079899    21.281975     21.38032    10501.711    8813.2942    8873.9464    9491.8034   -403.15421    92.822253    122.34118   -4897.9552 
31396000    134.68917   -6657.4525   -6310.9728   -6657.4525            0    9925.9917     23.04249    21.276813    21.347736    10466.171    11136.442    9488.3144    9153.2182   -99.763117   -525.50541   -764.02798   -4795.8856 
31397000    134.30184   -6663.6214   -6318.1381   -6663.6214            0    9406.5048    22.969731    21.309859     21.38418    10467.165    10686.118    8555.6138    8977.7831   -632.28242    460.20787    927.16098   -4882.2082 
31398000    133.28171   -6663.9908   -6321.1318   -6663.9908            0    9084.3411    23.131712    21.290154    21.296856    10488.227    8331.1905    8171.3792    10750.454    376.97752    174.44307    1093.9859   -4931.5906 
31399000     135.5083   -6636.5299   -6287.9431   -6636.5299            0    9798.1527    23.118036    21.127653    21.478095    10490.542    10323.609    9929.9097    9140.9395    307.09969   -529.38099   -765.60963   -4788.8865 
31400000    137.64254   -6669.3343   -6315.2572   -6669.3343            0    9488.2503    23.211756    21.001858     21.51724     10489.44     8815.517    10952.839    8696.3948   -1275.9953    576.53043    517.81826   -4863.7663 
31401000    137.74501   -6644.0757   -6289.7351   -6644.0757            0      9134.98     23.19774    21.198758    21.338784    10493.631    9595.6046    8411.8313    9397.5042    468.09852   -1602.8281    646.91946   -4891.7284 
31402000    137.39663   -6670.8153   -6317.3708   -6670.8153            0    10144.499    23.047629     21.16681    21.441166    10459.961    10428.424     9818.771    10186.303   -109.82596    241.10692   -434.30199   -4769.8497 
31403000    139.17327   -6636.2978    -6278.283   -6636.2978            0    10742.095    22.939305    21.343037    21.338256    10447.092    11002.927    10297.028    10926.329    316.03148    193.68317   -49.678735   -4641.6163 
31404000    140.97607   -6670.9597   -6308.3073   -6670.9597            0     8814.707    23.029273    21.355629    21.343664    10496.912    9749.1663     8454.953    8240.0019   -356.14899    421.63368   -189.36667   -4958.8929 
31405000    133.25198   -6658.7774   -6315.9948   -6658.7774            0    9688.7212    23.008095    21.220626    21.441787     10468.87    9476.2611    10115.403    9474.4997    193.95411    664.05762    -39.94829   -4836.7427 
31406000    136.37045   -6683.8389   -6333.0343   -6683.8389            0    10150.858    23.129239    21.127288    21.357726    10436.626    9920.2489    10703.072    9829.2527   -288.93095    800.77721   -458.98191   -4787.9977 
31407000    130.49041   -6643.8424   -6308.1638   -6643.8424            0    10066.033     23.35253    21.050995    21.302233     10472.05    8346.0094    11005.833    10846.258   -511.74941   -315.32471    853.39757   -4770.8379 
31408000    140.28037   -6671.5367    -6310.674   -6671.5367            0    9906.0373    23.099917    21.066667    21.500797     10463.11    11245.332    9304.8315    9167.9487   -631.25434   -514.70269   -730.92823   -4799.0749 
31409000    139.91612   -6654.8261   -6294.9004   -6654.8261            0    10647.719    23.056009    21.312331    21.219793    10426.924    10498.072    10615.345    10829.739   -157.50175    821.55343    141.56303   -4675.7445 
31410000    137.77397   -6658.8392   -6304.4241   -6658.8392            0    10569.359    23.024987    21.236792    21.333417    10431.547      11655.2    10477.115    9575.7632   -430.01211   -726.24287   -1834.8169   -4696.4714 
31411000    132.64749   -6664.3079   -6323.0803   -6664.3079            0    9111.4355    23.001892    21.201388     21.50454    10487.163    10047.744    8576.1139    8710.4483   -386.72169    258.48208    312.47055   -4929.5362 
31412000    134.89594   -6646.8544   -6299.8428   -6646.8544            0    10161.273    23.159067    21.217279     21.28856    10460.611    9548.2493    10458.083    10477.488   -233.43315    243.63845   -234.77572   -4749.6666 
31413000    137.49621   -6655.3709   -6301.6703   -6655.3709            0    10028.849    23.071787    21.102909    21.497512    10466.748    10898.626    9632.2789    9555.6434    6.2838692   -111.92628    125.42421   -4770.7987 
31414000    134.34963   -6662.6281   -6317.0219   -6662.6281            0     9837.034    23.011613    21.307429     21.33502    10460.951    9403.5278    9800.1577    10307.417    305.57501    121.30374   -575.95173    -4816.262 
31415000    136.13571    -6661.986   -6311.7852    -6661.986            0    8107.0245    23.138727     21.27217    21.393489    10530.109    6659.9503    8211.4665    9449.6566    1344.2549    163.33864    1105.1889   -5066.7826 
31416000    138.01673   -6639.6584   -6284.6188   -6639.6584            0    10213.212    22.937444    21.353379    21.373712    10468.672    10334.189    10158.286     10147.16    121.64351    318.52348    -593.6181   -4725.3183 
31417000    137.78787   -6664.9924   -6310.5415   -6664.9924            0    9130.5943    23.061135    21.258908    21.387949    10485.539    8766.1975    9519.1364    9106.4491   -50.089271    13.815574   -205.00301   -4914.2834 
31418000    138.12515   -6641.7757   -6286.4572   -6641.7757            0    10017.017    23.192882    21.078871     21.42289    10473.217    9576.4191    10523.119    9951.5138   -246.51832    260.33005   -71.351499   -4756.4466 
31419000    140.38309   -6634.6374   -6273.5104   -6634.6374            0    9760.8741    23.123538    21.184165    21.395422    10480.608    9900.5862    10422.949    8959.0872   -1398.1795   -720.18152    343.33858   -4781.5713 
31420000    135.48148   -6655.1285   -6306.6107   -6655.1285            0    9195.0863    23.060377    21.190005    21.466319    10489.506    10050.752    8469.6117     9064.895    90.065435    297.72047    12.437545   -4899.9585 
31421000    139.00621   -6659.4268   -6301.8418   -6659.4268            0    9966.4157    22.904175    21.400846    21.348144    10464.193    10963.742    8702.8123    10232.693   -133.44042    623.22375    25.023386   -4780.8719 
31422000    136.50287   -6654.1091   -6302.9638   -6654.1091            0    9319.3775    23.044563    21.301406    21.369945    10490.113    9452.7004    8662.2039    9843.2283   -346.22873    186.24762   -500.88128   -4877.2152 
31423000    135.61747   -6652.9716   -6304.1039   -6652.9716            0    10959.049    23.132174    21.068136    21.396486    10427.616    11137.062    10853.616     10886.47    552.82236   -169.19568    347.76853   -4637.4947 
31424000    137.47066   -6662.7178   -6309.0829   -6662.7178            0    10440.654    23.193196    21.142321    21.284874    10437.208    9397.8055    11501.523    10422.633    -638.1607   -356.53746   -85.481325   -4719.8486 
31425000    139.63425   -6656.0203   -6296.8197   -6656.0203            0    9932.5267    23.111728    21.121862    21.447412    10469.827      10462.7    10101.537    9233.3425    337.28191    41.067696    50.026021   -4780.2054 
31426000    122.85402   -6634.5627   -6318.5282   -6634.5627            0    9697.1352    23.056328    21.250651     21.41248    10491.301    8450.6395    10898.759    9742.0068   -179.84416    542.31385    34.227163   -4834.8194 
31427000    143.53482   -6645.9461   -6276.7115   -6645.9461            0    10481.376    23.006068    21.383885    21.249254    10453.765    10478.572    9145.6593    11819.896   -213.11661    443.42676    153.29048   -4678.7479 
31428000    136.55265    -6647.709   -6296.4356    -6647.709            0    10013.812    22.972836    21.348036    21.382138    10486.333      9847.69    9463.2764    10730.471    968.09438    343.80198    14.083459   -4764.9991 
31429000    138.38281   -6657.3342   -6301.3528   -6657.3342            0    9959.6679     22.91545    21.242372    21.484569    10458.227    10879.198    9296.7183    9703.0875   -1240.9928    126.88201   -145.39255   -4782.2793 
31430000    136.86088   -6644.6579   -6292.5916   -6644.6579            0    10723.823    23.250485      21.1122     21.25883    10435.298    9002.8245    11410.044    11758.601    194.39449   -522.68088    109.83623   -4660.5531 
31431000    136.67192   -6653.6808   -6302.1006   -6653.6808            0    9796.4692    23.117355    21.132042    21.388214    10448.504    9836.2755    9896.4654    9656.6668   -681.63967   -1020.1848     -60.7517   -4809.3076 
31432000    135.72655   -6643.0927   -6293.9444   -6643.0927            0    9936.2248    23.059609    21.150259    21.477919     10475.14    10484.594    10587.632    8736.4487   -285.76088   -56.817789   -322.09084   -4775.9956 
31433000    137.84226   -6665.9818   -6311.3909   -6665.9818            0     10344.23    23.136032    21.255579    21.238562    10444.482    9833.1043    9827.2065    11372.379    -192.5456    38.869558   -282.10285   -4735.7365 
31434000    136.34943   -6668.2642   -6317.5136   -6668.2642            0    9499.8552    22.974165    21.291758     21.43772    10486.483    10083.212    8903.6109     9512.743   -233.04093    -121.7318    543.01897   -4864.6571 
31435000    141.86041   -6660.7702    -6295.843   -6660.7702            0    9220.0066    23.138776    21.177295    21.460527    10516.016     8577.295    10451.004    8631.7212    724.35445   -80.106297   -373.40285   -4881.8138 
31436000    135.32826   -6635.5179   -6287.3942   -6635.5179            0    10171.795    23.242832    21.203172    21.243042    10469.034    8698.9973    11283.307     10533.08    205.71008    -372.5665   -430.38782   -4734.3634 
31437000    131.96128   -6663.2742   -6323.8119   -6663.2742            0    9661.2319    23.048781    21.074017    21.577151    10480.678     8790.477    10740.534    9452.6844    550.73984     999.7695   -38.739684   -4847.0932 
31438000    136.61736   -6640.2234   -6288.7836   -6640.2234            0    9538.6957    23.076978    21.243582    21.416374    10499.113    10225.582      9210.51    9179.9948    -312.8389   -348.03121   -137.79439     -4828.23 
31439000    129.27881   -6661.1126   -6328.5507   -6661.1126            0    8938.3116    23.214372    21.216999    21.311637    10496.819    8699.2108    8412.8384    9702.8855    430.38848    50.353872   -133.44508   -4960.2262 
31440000    144.73934   -6637.6773   -6265.3442   -6637.6773            0    10538.796    23.041413    20.990149    21.630664    10461.513    10511.193    12793.812    8311.3817    898.21512   -912.09487   -446.41686   -4657.4355 
31441000    135.80849   -6630.7792   -6281.4201   -6630.7792            0    10615.414     23.12182    21.165393    21.324172    10435.675    10075.126    10389.399    11381.719   -633.28105    719.02856   -232.86531   -4665.8219 
31442000    137.41265   -6657.3962   -6303.9105   -6657.3962            0    9317.3632    23.109409    21.204169     21.43365    10502.828    9440.3106    9405.1396    9106.6393    318.20662    692.05442    -390.3968   -4876.7424 
31443000    132.91407   -6646.1438   -6304.2304   -6646.1438            0    10601.888    22.993283    21.289125    21.324127    10438.307    10308.994    10960.771    10535.897   -72.365865   -183.83509    483.62011   -4690.2838 
31444000    135.30228   -6654.6829    -6306.626   -6654.6829            0    8774.7258    23.014182    21.257456    21.484957    10510.934    9213.6317    9008.3581    8102.1875   -633.29025    246.03977   -134.85776   -4961.5378 
31445000    137.55607   -6643.8574   -6290.0028   -6643.8574            0    10587.829    23.083246    21.218983    21.364387    10464.341    11111.887    10983.253    9668.3468    -18.85789   -350.31634   -1058.3632   -4674.1764 
31446000    136.83408   -6667.2411   -6315.2437   -6667.2411            0    8179.6175    23.142597    21.216377    21.422435     10518.46     8068.713    8644.7476    7825.3918    153.82734   -552.21979   -230.32854   -5060.4826 
31447000    138.28233   -6664.4364   -6308.7136   -6664.4364            0    8429.6817    23.170579     21.13252    21.532498    10543.446    8729.9849    9391.4118    7167.6485   -144.78132    738.27036   -858.76036   -5012.5206 
31448000    137.72445   -6635.8593   -6281.5716   -6635.8593            0    11590.706    23.044848     21.24529     21.26183    10409.675    10889.985    12157.322    11724.811    1315.6332   -349.83201    1157.4923   -4521.9351 
31449000    141.52136    -6654.828   -6290.7729    -6654.828            0    10240.642    23.054361     21.17989     21.38876    10443.893    9938.1309    10183.782    10600.012   -86.418357    358.15503    553.45675   -4730.9853 
31450000    135.19667   -6660.5136   -6312.7284   -6660.5136            0    9769.5862    23.065695    21.281394    21.307577    10459.253    9549.2715     9739.005    10020.482    -573.1083    -123.1268   -91.178066   -4822.5003 
31451000    139.56281   -6655.5203   -6296.5035   -6655.5203            0    10529.197    23.169283    21.132268    21.351407    10454.065    9469.6026    10803.644    11314.343    373.71169    632.13229    426.76967   -4691.2031 
31452000    134.35076   -6657.2421    -6311.633   -6657.2421            0    8371.2447    23.206288    21.177232    21.412014    10522.826    7864.4242    8333.2874    8916.0227   -764.75663   -647.12084    320.60653    -5026.943 
31453000    126.93974   -6655.6408   -6329.0961   -6655.6408            0    9973.2946    23.146887    21.135681    21.374714    10457.049     9438.366    10201.549    10279.969    415.16096   -261.70402   -94.764297   -4808.1155 
31454000    133.78657   -6651.1864   -6307.0286   -6651.1864            0    9484.1394    23.078511    21.265633    21.353139    10479.675    8877.3276    10175.572    9399.5184    274.39053    243.00669   -324.11336   -4857.5172 
31455000    132.70025    -6655.474   -6314.1107    -6655.474            0    9673.9275    22.955327     21.33469    21.390107    10475.693    9994.8959    8785.1015    10241.785    55.280804    423.79254   -723.29709   -4836.1548 
31456000    134.41787   -6670.9087   -6325.1269   -6670.9087            0    8803.7426     23.08203    21.269239     21.36892    10490.798    9236.7973    7884.6273    9289.8033    416.86204    153.36024    694.55725    -4978.176 
31457000    130.39143   -6657.3887   -6321.9647   -6657.3887            0    9000.8887    23.009907    21.319019    21.385255    10490.508    8479.0114    9414.1419    9109.5127   -621.74932   -194.65168   -551.77983   -4944.8891 
31458000    137.20277   -6653.0791   -6300.1333   -6653.0791            0    9799.8801    23.167136    21.056672    21.418994    10448.673    9410.7333     9964.264    10024.643    147.55558    490.82812   -1041.9893   -4806.7964 
31459000    138.81075   -6650.2434   -6293.1612   -6650.2434            0    10530.011    23.070854     21.16329    21.420862    10458.847    10749.656    10793.111    10047.268   -607.31846    104.82723    52.524972   -4687.0022 
31460000    132.79981   -6646.1077   -6304.4883   -6646.1077            0    9904.6232    23.136536    21.221932    21.337965    10476.984    9118.4896    10577.352    10018.028    196.70422   -176.34231   -745.35743   -4791.1009 
31461000    137.42545   -6650.2469   -6296.7283   -6650.2469            0    8861.9739    23.082532    21.230536    21.405058    10489.646    9996.1025    7903.0703     8686.749   -342.74233    580.87917    166.79715   -4941.0171 
31462000    131.07347   -6647.4061   -6310.2276   -6647.4061            0    10649.467    23.094163    21.206067    21.345161    10453.501    10801.147    9767.1242    11380.131   -121.90531   -549.72172    853.95197    -4686.678 
31463000    133.51848   -6656.3962   -6312.9281   -6656.3962            0    8552.7105     23.18781    21.213337     21.37173    10512.558    9015.5083    8043.8321    8598.7912     201.7986    55.024527   -515.26208   -5001.6704 
31464000    137.27287    -6652.048   -6298.9219    -6652.048            0    10548.996    23.065118    21.134477    21.426166    10444.596    10367.256    11222.737    10056.995   -1048.5791     15.40079    279.76183   -4692.0596 
31465000    130.31073   -6655.5265     -6320.31   -6655.5265            0    10505.301    23.049306    21.222971    21.336574    10437.313    10562.815    10676.766    10276.323   -631.87595   -153.29169    -810.6199   -4721.2193 
31466000    132.90914   -6638.7016   -6296.8009   -6638.7016            0    11567.706    23.027028    21.210054    21.297629    10401.858    11117.873     11219.68    12365.567   -154.88591    1269.0416    381.76453    -4541.975 
31467000    139.20489   -6664.4992    -6306.403   -6664.4992            0     9509.684    23.054619    21.262935    21.355665    10468.736    9044.9995    9702.8939    9781.1584    343.25467     604.6635     410.7481   -4854.5046 
31468000    144.51368   -6663.7368   -6291.9842   -6663.7368            0    10388.866    23.037609    21.252633    21.341694    10449.104    10101.097    10736.446    10329.054    -241.3925     524.0983   -893.02567   -4708.8306 
31469000    132.60962   -6654.2389   -6313.1088   -6654.2389            0    9958.7204    23.048073    21.239036    21.448936    10499.659    10626.475    10173.681    9076.0053   -721.25499   -188.09122   -574.38627   -4788.1623 
31470000    135.66418   -6676.3361   -6327.3483   -6676.3361            0    9073.1373    23.209432    21.134554    21.387963    10491.245    9000.0818    8281.6704    9937.6597    528.82329    127.18384    530.82574   -4939.1216 
31471000    130.56732   -6649.2131   -6313.3367   -6649.2131            0    9772.3204    23.126855    21.198908    21.364563    10474.278    9763.6846    9090.8029    10462.474   -95.025263   -813.21455   -108.44672   -4820.5502 
31472000    138.24723   -6668.4591   -6312.8265   -6668.4591            0    10495.422    23.100816    21.101487    21.440006    10451.179    10748.459    10728.249    10009.558    -5.261471    9.6363622   -182.47421   -4713.1171 
31473000    137.77124   -6670.1983   -6315.7902   -6670.1983            0    9006.2219    23.112246    21.213679    21.385572    10485.256    9235.4566    8590.1514    9193.0578    419.64925   -815.78539    747.04272   -4938.5885 
31474000     141.2674    -6655.129   -6291.7272    -6655.129            0    8842.6394    23.149231    21.298412    21.315464    10509.416    9190.4635    7450.4808    9886.9739    49.822582    -38.47204    -406.9101   -4936.4243 
31475000    132.28668   -6648.1421   -6307.8427   -6648.1421            0    9799.6157    22.914034    21.363473    21.378573    10465.311     9968.458    9015.4796     10414.91    1542.4285    -956.9888   -372.64943   -4812.1682 
31476000    135.25759   -6652.8315   -6304.8896   -6652.8315            0    9997.9171    22.983613    21.220181    21.477625     10474.99    9895.8324    9910.4378    10187.481    275.65232    120.52048    427.67202   -4777.5379 
31477000    138.32265   -6628.6928   -6272.8663   -6628.6928            0    10064.628    23.076296    21.251241    21.340068    10465.168    10065.208      9445.24    10683.436   -118.67357   -49.501384   -953.81866   -4736.7651 
31478000    140.86904   -6642.2879   -6279.9109   -6642.2879            0    9073.9276    23.130318    21.164484    21.431235    10491.474    8966.1813    9942.9163    8312.6854   -924.29502   -684.47315   -513.92483    -4891.533 
31479000      142.411   -6661.9352   -6295.5916   -6661.9352            0    9485.9599    23.174134    21.042704    21.491395    10480.202    8968.6361    10617.102     8872.142     1092.415    49.568736   -610.16827    -4845.729 
31480000    143.28422   -6651.7021   -6283.1121   -6651.7021            0    9607.1353    23.071337    21.191558    21.413198    10469.289    9475.0138    9820.8572    9525.5348    145.17865   -457.56563   -208.07106   -4816.2578 
31481000    145.31266   -6657.2332   -6283.4252   -6657.2332            0    9321.1752    23.155968    21.201367    21.307151    10460.494    9620.6293    9027.0921    9315.8041   -54.365841    131.84834   -38.619849    -4861.428 
31482000    136.60033   -6650.6848   -6299.2888   -6650.6848            0    9572.2845    23.057096    21.200898    21.436984    10479.065    10399.387     9024.239    9293.2278    251.16818    454.73081    339.91347   -4836.3909 
31483000    132.10044   -6656.7073    -6316.887   -6656.7073            0    8720.2823     23.06313    21.282019    21.390918    10499.304    8163.6811    8528.5413    9468.6243   -90.263071    777.90219    890.32172   -4981.6236 
31484000    133.71358    -6636.914    -6292.944    -6636.914            0     10852.69    22.993748    21.201584    21.367657    10416.816    10869.726    11819.172     9869.171    306.43003    375.80102   -969.22812   -4644.2188 
31485000    133.50986    -6644.938    -6301.492    -6644.938            0    10881.593    22.979012    21.230535    21.368084    10424.563     11636.55    10355.329    10652.899    99.804867    110.38156    343.49127   -4647.1464 
31486000    132.46377   -6651.8053   -6311.0504   -6651.8053            0    9046.1512      23.1518    21.195019    21.405251    10503.617    9311.3537    7991.2827    9835.8172    405.27156    122.95482    20.783275   -4925.3204 
31487000    134.09413   -6662.1731   -6317.2242   -6662.1731            0    10292.867    23.050045    21.129357    21.459588     10451.52    10361.264    10655.107    9862.2283   -661.06738   -389.50614    -231.3995   -4748.3371 
31488000    143.01448   -6658.1828   -6290.2868   -6658.1828            0    9280.2905    23.144803    21.174092    21.422279     10498.42    9808.8136    8483.3685    9548.6892   -1493.3794    648.54757    -18.19884   -4869.3936 
31489000    132.84728   -6650.8434   -6309.1019   -6650.8434            0    9287.9921    23.128591    21.272955    21.319423    10489.444     9404.301    9173.3508    9286.3245    351.79716   -133.58324   -680.15145   -4888.2454 
31490000    140.56213   -6651.7312   -6290.1437   -6651.7312            0    10203.381    22.913007    21.348072    21.354707    10445.624    10363.034    9187.9829    11059.126   -206.01933   -671.15725    315.16633   -4735.7738 
31491000    133.25788   -6656.1683   -6313.3706   -6656.1683            0    9375.4718    23.134652    21.144932    21.419001     10477.76     9514.168    9218.5128    9393.7347   -1334.8853    583.60153    232.06046   -4880.7292 
31492000    131.47052   -6646.0711   -6307.8712   -6646.0711            0    10608.057     23.07932    21.182777    21.382186     10453.41    9629.8083    11574.965    10619.399    130.74222   -328.21192    514.30829   -4690.6488 
31493000    133.77648   -6633.4124   -6289.2806   -6633.4124            0    10178.821    23.093384    21.116246    21.430961    10450.713    10455.073    10502.601    9578.7892    1278.5173   -312.08393    265.09562   -4737.8966 
31494000     137.6356   -6656.2891   -6302.2299   -6656.2891            0    9083.7775    23.141059    21.274231    21.281408    10477.013    8384.8119    8703.2746    10163.246    424.96749   -203.04354    966.69385   -4914.2607 
31495000    144.72133   -6647.1911   -6274.9043   -6647.1911            0    11073.216    23.018408    21.217013    21.402646    10452.664    10627.484    11469.709    11122.454   -37.687666    532.46433     374.7803    -4586.888 
31496000    136.59647   -6659.0611    -6307.675   -6659.0611            0        10422    23.057515    21.104835    21.464848    10445.333     10493.34    11673.322    9099.3382    350.49333    425.98972   -269.66734   -4720.0452 
31497000    132.64888   -6645.3783   -6304.1472   -6645.3783            0    9454.3933     23.15004    21.231661    21.312006    10475.145    8428.3992     10038.97    9895.8108    407.91588    419.63256    1265.3381   -4859.8067 
31498000    138.76699   -6657.1882   -6300.2186   -6657.1882            0    9285.8566    23.143524     21.15114    21.446383     10498.26    9284.6192    9297.1272    9275.8233    244.65807   -372.54143    29.825796    -4878.495 
31499000     134.8425   -6653.3252    -6306.451   -6653.3252            0    10231.123    23.033781    21.187645    21.420392    10453.827    10614.681    10622.974    9455.7142   -1036.7363    57.463754    348.18561   -4746.6309 
31500000    145.23484   -6644.7545   -6271.1467   -6644.7545            0    10283.542     23.21554    21.105944    21.338144    10455.389    9445.3989    10440.173    10965.056    629.92367   -331.94292   -219.71154   -4703.1005 
Loop time of 506.554 on 64 procs for 250000 steps with 1296 atoms

Performance: 85.282 ns/day, 0.281 hours/ns, 493.531 timesteps/s
99.1% CPU use with 64 MPI tasks x 1 OpenMP threads

MPI task timing breakdown:
Section |  min time  |  avg time  |  max time  |%varavg| %total
---------------------------------------------------------------
Pair    | 30.362     | 41.755     | 52.486     | 108.5 |  8.24
Bond    | 0.27947    | 0.28672    | 0.29582    |   0.6 |  0.06
Kspace  | 246.12     | 257.14     | 268.64     |  43.9 | 50.76
Neigh   | 1.9231     | 1.9453     | 1.9652     |   0.8 |  0.38
Comm    | 91.747     | 92.562     | 93.314     |   4.3 | 18.27
Output  | 0.55511    | 0.55598    | 0.55769    |   0.0 |  0.11
Modify  | 98.747     | 101.34     | 104.41     |  22.4 | 20.00
Other   |            | 10.97      |            |       |  2.17

Nlocal:        20.2500 ave          27 max          14 min
Histogram: 5 7 5 10 4 6 16 2 5 4
Nghost:        2680.25 ave        2701 max        2653 min
Histogram: 5 4 5 5 2 7 11 11 9 5
Neighs:        6680.73 ave        8855 max        4629 min
Histogram: 5 7 8 7 4 7 12 5 5 4

Total # of neighbors = 427567
Ave neighs/atom = 329.91281
Ave special neighs/atom = 2.0000000
Neighbor list builds = 3536
Dangerous builds = 0

unfix		3
unfix		2
unfix		1

write_data	data.final.${pid}
write_data	data.final.0
System init for write_data ...
PPPM initialization ...
  extracting TIP4P info from pair style
  using 12-bit tables for long-range coulomb (../kspace.cpp:340)
  G vector (1/distance) = 0.37213835
  grid = 30 36 32
  stencil order = 5
  estimated absolute RMS force accuracy = 0.0035608321
  estimated relative force accuracy = 1.072334e-05
  using double precision FFTW3
  3d grid and FFT values/proc = 4896 600
Last active /omp style is kspace_style pppm/tip4p/omp
WARNING: Not all mixed pair coeffs generated from mixing. Use write_data with 'pair ij' option to store all pair coeffs. (../write_data.cpp:312)

write_restart   restart.lmp.${pid}
write_restart   restart.lmp.0
System init for write_restart ...
PPPM initialization ...
  extracting TIP4P info from pair style
  using 12-bit tables for long-range coulomb (../kspace.cpp:340)
  G vector (1/distance) = 0.37213835
  grid = 30 36 32
  stencil order = 5
  estimated absolute RMS force accuracy = 0.0035608321
  estimated relative force accuracy = 1.072334e-05
  using double precision FFTW3
  3d grid and FFT values/proc = 4896 600
Last active /omp style is kspace_style pppm/tip4p/omp
Total wall time: 0:08:26
