LAMMPS (30 Jul 2021)
Processor partition = 1
  using 2 OpenMP thread(s) per MPI task
using multi-threaded neighbor list subroutines
variable        pid world 0 1
variable        phase world IceIh IceIII

shell cd ${phase}
shell cd IceIII
include Restart.lmp
echo both
log log.lammps
#include		in.partitions
include		in.temp
variable        temperature equal 197.72
variable	tempDamp equal 100.0
include		in.pressure
variable        pressure equal 1689.9
variable        pressureDamp equal 1000.0 # This is 1 ps
include		in.seed
variable        seed equal 745823

units		real
atom_style	full

read_restart	restart.lmp.${pid}
read_restart	restart.lmp.1
Reading restart file ...
  restart file = 30 Jul 2021, LAMMPS = 30 Jul 2021
  restoring atom style full from restart
  orthogonal box = (0.0022190171 -0.093696605 -0.15797766) to (19.997782 20.093698 20.857976)
  2 by 4 by 4 MPI processor grid
  restoring pair style lj/cut/tip4p/long/omp from restart
  restoring bond style harmonic/omp from restart
  restoring angle style harmonic/omp from restart
  972 atoms
  648 bonds
  324 angles
Finding 1-2 1-3 1-4 neighbors ...
  special bond factors lj:    0        0        0       
  special bond factors coul:  0        0        0       
     2 = max # of 1-2 neighbors
     1 = max # of 1-3 neighbors
     1 = max # of 1-4 neighbors
     2 = max # of special neighbors
  special bonds CPU = 0.002 seconds
  read_restart CPU = 0.008 seconds
include 	in.setup
variable	out_freq equal 1000
variable	out_freq2 equal 10000
variable	out_freq3 equal 1000

timestep	2.0

neigh_modify    delay 7 every 1

include		in.tip4p
# This is TIP4P/Ice

# create groups ###
group ox type 2
324 atoms in group ox
group hy type 1
648 atoms in group hy

# set charges - beside manually ###
set group ox charge -1.1794
Setting atom values ...
  324 settings made for charge
set group hy charge 0.5897
Setting atom values ...
  648 settings made for charge

# ### TIP3P Potential Parameters ###
pair_style lj/cut/tip4p/long/omp 2 1 1 1 0.1577 8.5
pair_coeff 1 1*2 0.000 0.000
pair_coeff 2 2 0.21084 3.1668
bond_style  harmonic
bond_coeff  1 450 0.9572
angle_style harmonic
angle_coeff 1 55 104.52
kspace_style pppm/tip4p/omp 1.0e-5
pair_modify tail yes

thermo          ${out_freq}
thermo          1000
thermo_style    custom step temp pe etotal epair emol press lx ly lz vol pxx pyy pzz pxy pxz pyz enthalpy

restart 	${out_freq3} restart.lmp.${pid} restart2.lmp.${pid}
restart 	1000 restart.lmp.${pid} restart2.lmp.${pid}
restart 	1000 restart.lmp.1 restart2.lmp.${pid}
restart 	1000 restart.lmp.1 restart2.lmp.1


include         in.dump
dump            myDump all atom ${out_freq2} dump.water.${pid}
dump            myDump all atom 10000 dump.water.${pid}
dump            myDump all atom 10000 dump.water.1
dump            myDump2 all dcd ${out_freq2} dump.dcd
dump            myDump2 all dcd 10000 dump.dcd
dump_modify     myDump append yes
dump_modify     myDump2 append yes


variable natoms 	equal  "count(all)"                        # NUMBER ATOMS
variable H      	equal  "enthalpy/v_natoms"                 # ENTHALPY-per-atom
variable Vol      	equal  "vol/v_natoms"                 # volume-per-atom
fix AVG all 		ave/time ${out_freq} 1 ${out_freq} v_Vol v_H file vol_enthalpy.dat
fix AVG all 		ave/time 1000 1 ${out_freq} v_Vol v_H file vol_enthalpy.dat
fix AVG all 		ave/time 1000 1 1000 v_Vol v_H file vol_enthalpy.dat


timer           timeout 02:55:00 every 1000
New timer settings: style=normal  mode=nosync  timeout=02:55:00

fix 		1 all shake 1e-6 200 0 b 1 a 1
Finding SHAKE clusters ...
       0 = # of size 2 clusters
       0 = # of size 3 clusters
       0 = # of size 4 clusters
     324 = # of frozen angles
  find clusters CPU = 0.000 seconds
fix             2 all nph aniso ${pressure} ${pressure} ${pressureDamp}
fix             2 all nph aniso 1689.9 ${pressure} ${pressureDamp}
fix             2 all nph aniso 1689.9 1689.9 ${pressureDamp}
fix             2 all nph aniso 1689.9 1689.9 1000
fix             3 all temp/csvr ${temperature} ${temperature} ${tempDamp} ${seed}
fix             3 all temp/csvr 197.72 ${temperature} ${tempDamp} ${seed}
fix             3 all temp/csvr 197.72 197.72 ${tempDamp} ${seed}
fix             3 all temp/csvr 197.72 197.72 100 ${seed}
fix             3 all temp/csvr 197.72 197.72 100 745823


run             250000
PPPM initialization ...
  extracting TIP4P info from pair style
  using 12-bit tables for long-range coulomb (../kspace.cpp:340)
  G vector (1/distance) = 0.37186108
  grid = 24 24 25
  stencil order = 5
  estimated absolute RMS force accuracy = 0.0034747045
  estimated relative force accuracy = 1.046397e-05
  using double precision FFTW3
  3d grid and FFT values/proc = 3458 576
Last active /omp style is kspace_style pppm/tip4p/omp
Neighbor list info ...
  update every 1 steps, delay 7 steps, check yes
  max neighbors/atom: 2000, page size: 100000
  master list distance cutoff = 10.8154
  ghost atom cutoff = 10.8154
  binsize = 5.4077, bins = 4 4 4
  1 neighbor lists, perpetual/occasional/extra = 1 0 0
  (1) pair lj/cut/tip4p/long/omp, perpetual
      attributes: half, newton on, omp
      pair build: half/bin/newton/omp
      stencil: half/bin/3d
      bin: standard
Setting up Verlet run ...
  Unit style    : real
  Current step  : 11000000
  Time step     : 2
  Walltime left : 2:54:59.94
Per MPI rank memory allocation (min/avg/max) = 10.19 | 10.19 | 10.21 Mbytes
Step Temp PotEng TotEng E_pair E_mol Press Lx Ly Lz Volume Pxx Pyy Pzz Pxy Pxz Pyz Enthalpy 
11000000     203.4489    -4803.864   -4411.4957    -4803.864            0    1759.4196    19.995563    20.187394    21.015953    8483.2642    2725.6772    1280.8848    1271.6968   -233.11996    -576.3693   -495.87256   -4193.8208 
11001000    196.32575   -4837.1884   -4458.5577   -4837.1884            0    2623.8064    20.035317    20.211705    20.858638    8446.6622    3479.9072    943.98727    3447.5248     103.1025   -669.03915   -507.45341   -4135.3417 
11002000     194.9652   -4822.6682   -4446.6615   -4822.6682            0    1859.2671     20.16017    19.923743    20.962478    8419.9158    3251.3487    1465.7858    860.66689   -342.97916    -554.8034    234.95376   -4218.3512 
11003000    188.73186   -4820.9953   -4457.0101   -4820.9953            0   -334.74792    20.224465    20.012533    21.130766    8552.5244   -1324.7264    1455.5414   -1135.0587    139.01058    138.68661   -136.67416   -4498.7631 
11004000    192.68939   -4853.7903   -4482.1726   -4853.7903            0   -57.980638    20.255711    19.964394    21.077591    8523.6305   -1816.2873    951.47532    690.87009   -355.55947   -235.75779   -616.22725   -4489.3801 
11005000    198.81553   -4839.0611   -4455.6286   -4839.0611            0    1940.9508    20.069254    20.040219    20.850897    8386.0693    1812.0141    2225.7873    1785.0511   -749.25392    493.44628   -1221.9848    -4218.246 
11006000    208.12925   -4841.3383   -4439.9435   -4841.3383            0    2172.8422    20.033286    20.032727    20.980703    8420.0041    2704.2839    1469.7614    2344.4813   -368.85631    3.7561752    873.73806   -4173.1247 
11007000    203.50448   -4846.5809   -4454.1054   -4846.5809            0   -40.750644    20.195859    20.105095    21.058263    8550.4897   -1653.7458    351.85752    1179.6363    164.03888    145.31978    374.20095    -4459.187 
11008000    198.04667   -4827.6618   -4445.7122   -4827.6618            0   -292.63954    20.246233    20.015917    21.047475    8529.4247    207.99891   -905.50439   -180.41313    173.48682    262.24615   -691.56562   -4482.1145 
11009000    204.46935   -4823.0672   -4428.7309   -4823.0672            0     2830.418    20.172479     19.94014    21.019092    8454.7628    1870.3836    3632.8663    2988.0042   -116.97695   -798.88611   -275.79376   -4079.7289 
11010000    206.26663   -4835.8147   -4438.0121   -4835.8147            0    3334.2421    20.180118    19.985004     20.76201    8373.3134    2106.2026     5806.045    2090.4785   -758.43544   -262.79356   -812.90401   -4030.8472 
11011000    206.66972    -4858.916   -4460.3361    -4858.916            0    603.63405    20.141757    19.903512    21.100193    8458.8925    919.49672    544.90993     346.4955   -238.42701    721.38407    290.78232   -4385.8692 
11012000    205.61591   -4815.3792   -4418.8316   -4815.3792            0    1596.9598     20.20086    20.037095    20.966691    8486.6149     1302.908    1971.9728    1515.9987   -393.78107    762.20737   -979.97088   -4221.1782 
11013000    208.37492   -4822.6861   -4420.8176   -4822.6861            0    1150.9226    19.938683    20.030387    21.225759    8477.1334    1177.4502    1538.7156    736.60197   -189.88307   -750.34244     1087.126   -4278.5287 
11014000    197.62556   -4843.4133   -4462.2758   -4843.4133            0    2613.5745    19.927087    20.126781    20.815511     8348.438    2565.7316    2529.8256    2745.1663   -495.63594    1776.3485    775.52627   -4144.0642 
11015000    196.60156   -4834.2519   -4455.0893   -4834.2519            0    2346.9508     19.91442    20.230186    20.798973     8379.333    2705.2828    935.58478    3399.9849   -144.92663    587.24057    1429.6474   -4168.2825 
11016000    202.42367   -4838.3426   -4447.9516   -4838.3426            0    2497.4035    19.778617    20.015573    21.059478    8337.0331    2058.4745    3900.3283    1533.4077    317.07028   -187.12057   -850.05258   -4144.2996 
11017000    197.54306    -4838.098   -4457.1195    -4838.098            0    1479.8682     20.11646    20.233288     20.87985    8498.5612    1618.7499    479.06936    2341.7855   -359.17903    559.84449   -862.42027   -4273.7005 
11018000    197.75837   -4858.2216   -4476.8279   -4858.2216            0     1823.448     20.03463    20.173749    20.907782    8450.3733    2609.1238    998.43568    1862.7845    726.79101    344.85216   -314.14287   -4252.1062 
11019000    188.31215   -4822.6239   -4459.4481   -4822.6239            0    726.64888    20.034327     20.04251    21.182377    8505.5338    778.50114    855.61973    545.82577   -26.234349    300.67294   -478.51698   -4369.3113 
11020000    192.34911   -4833.0688   -4462.1073   -4833.0688            0    1654.5668     20.15637    20.021039    20.807584    8396.9311    1449.0546    330.00406    3184.6416    -229.3448    642.26447    595.79568    -4259.488 
11021000    194.18549   -4856.1882   -4481.6852   -4856.1882            0    583.76336    20.084115    20.024059    21.089618    8481.5171   -1420.9946    1793.9814    1378.3033   -281.69726    1489.6305    -813.7298    -4409.477 
11022000    209.41908   -4861.2319   -4457.3496   -4861.2319            0    1849.4669    20.066218    19.969718    20.991502    8411.6457    1413.3215    2202.0528    1933.0264   -10.204218    585.68068   -450.14185   -4230.4658 
11023000    189.61079   -4837.0992   -4471.4189   -4837.0992            0    2129.9515    20.010681    20.111117    20.781086    8363.0809    2772.1316    402.22958    3215.4934    954.92974      428.031   -1184.0606   -4211.6352 
11024000    207.36059   -4816.1222   -4416.2099   -4816.1222            0    1353.2291    20.051339     20.06882    21.072903    8479.8773     1657.219    1425.4542    977.01416    -203.6877    297.77435    81.250677   -4248.8556 
11025000    201.78852   -4815.2607   -4426.0946   -4815.2607            0    1196.8515    20.114351    19.949253    21.047635     8445.706    1190.2595     1825.945    574.34995    426.86972    429.01182    299.18038   -4278.6761 
11026000    204.77341   -4828.8508    -4433.928   -4828.8508            0    634.41621    20.351172    20.138947    20.714192    8489.7359      1296.06   -305.60295    912.79155    30.078343   -585.88035   -562.64431   -4355.3784 
11027000    201.49054   -4817.1379   -4428.5464   -4817.1379            0    1829.7123    20.060879    20.004804    21.109591    8471.5731    2529.4846    1595.4349    1364.2173   -74.957999     1147.803     518.9661   -4202.4869 
11028000    203.74293   -4861.6023   -4468.6669   -4861.6023            0    1798.5809    19.972955    20.120203     21.00511    8441.1119    2222.1122    2244.6449    928.98573    68.790093    382.31096    408.85646   -4247.2527 
11029000    204.92902   -4842.3182   -4447.0953   -4842.3182            0    2898.9661    20.135684    20.016245    20.840501    8399.5723    1147.7079    4435.0152    3114.1753   -255.56889   -56.958311   -713.66142   -4091.9745 
11030000    211.42521   -4838.3177   -4430.5664   -4838.3177            0    1397.3975    19.884019    20.021402    21.178573    8431.3154     2675.747    732.77364     783.6718   -218.47592   -1454.2993    109.92016   -4258.7395 
11031000    203.29921   -4821.6028   -4429.5231   -4821.6028            0    2630.8462    20.180997    20.043391    20.854907    8435.7185    1314.5521     4390.829    2187.1574   -983.97983    1008.8802   -14.007603   -4105.8599 
11032000    203.39727   -4837.1345   -4444.8658   -4837.1345            0    1854.1145    20.115331    20.025172    21.036748    8473.8749    3780.0095    1460.6819     321.6521    -469.7669    1380.9249     1193.974   -4215.7292 
11033000    193.09216   -4818.1533   -4445.7588   -4818.1533            0    776.47126     20.21486    20.127011    21.026419    8554.9079    1142.0719    504.80695    682.53488    77.286145    535.62523   -213.22987   -4348.8827 
11034000    190.81453   -4835.9818   -4467.9799   -4835.9818            0    1747.8847    20.098697    20.062444    20.856472     8409.934    1796.8287     2470.833    975.99241     5.770433    403.82665   -1248.4329   -4253.6014 
11035000     190.2469   -4855.8323   -4488.9252   -4855.8323            0    1981.9362    19.907582     20.00987    21.203083    8446.2085    3945.6195    70.519517    1929.6695    93.511796    592.63453   -35.794023   -4244.7917 
11036000     197.2036   -4854.8404   -4474.5167   -4854.8404            0    1574.8065    20.083058    20.156767    20.840729    8436.5255    3345.3736   -108.87416    1487.9202    74.616821   -778.20424    76.298137   -4280.7555 
11037000    205.12982   -4853.3519   -4457.7418   -4853.3519            0    2869.4043    20.072935    19.962253    20.967206    8401.5804    2921.4651    3444.7182    2242.0295   -485.68571    444.96776   -995.03426   -4106.1582 
11038000    196.86432   -4824.3598   -4444.6904   -4824.3598            0    2388.0601    20.101493    20.067423    20.925296    8440.9543    2997.8288    2462.2255    1704.1261    102.43628    -619.1329   -799.85796   -4150.7138 
11039000    194.03629   -4849.2448   -4475.0295   -4849.2448            0    537.06251    20.145582    20.063858     21.01335    8493.5559    633.97492    604.93589    372.27672   -403.00827   -348.93295   -995.26532   -4408.5037 
11040000    196.74853   -4837.3884   -4457.9423   -4837.3884            0    2722.0231    20.177098    19.879244     20.87312    8372.3221    2138.4814    3552.7823    2474.8056    85.185577    1370.8791   -115.88145   -4125.5786 
11041000    202.65819   -4841.4115   -4450.5682   -4841.4115            0    1918.9978    20.023349    20.033698    20.990699    8420.2453    2308.6081    982.96527    2465.4202   -152.36891    -1.516007    9.4471492    -4214.914 
11042000     202.5532   -4851.0977   -4460.4569   -4851.0977            0    2070.4536    20.067446    19.948312    20.993555    8403.9648    2070.8407    1954.9668    2185.5532   -25.762429    764.37791   -279.95344   -4206.6954 
11043000    205.70138   -4829.1302   -4432.4178   -4829.1302            0    2548.2168    20.018781    20.317746    20.633815    8392.5255    2992.0871    1091.1606    3561.4027    59.768474   -507.18184   -848.04557   -4120.5253 
11044000    186.42659   -4843.0586   -4483.5193   -4843.0586            0    2484.1132    20.083263    19.966736     20.96371    8406.3892     3176.648    1833.3349    2442.3566    29.933342    1009.7678   -930.96918   -4178.9706 
11045000    191.31993   -4846.8779   -4477.9013   -4846.8779            0    1219.8367    20.116757    20.069262    20.899609    8437.7673    2283.2252    758.86048    617.42446   -55.278592   -71.259061   -517.22398   -4327.7929 
11046000    195.13262   -4846.2664   -4469.9368   -4846.2664            0    1827.8388    20.022978     20.07382    21.001049    8441.1126    2303.3064    2450.4182    729.79184   -566.65675    914.34428    401.13048   -4244.9207 
11047000    198.18609   -4841.8613   -4459.6427   -4841.8613            0     1780.447    20.233746    20.036871    20.985027    8507.7694    2541.5818    451.68505    2348.0741   -467.26481   -344.40153    -117.1028   -4238.7301 
11048000    195.64041   -4854.6886   -4477.3796   -4854.6886            0    2473.1928    19.927095    19.846652    21.081696    8337.5181    3019.6857    3603.7928    796.09996    174.08123    855.32795   -748.12917   -4176.6538 
11049000    207.61209   -4846.8852   -4446.4878   -4846.8852            0    1811.5405     20.06839    20.158771    20.885458    8449.2973    2462.4895   -7.4427594    2979.5746   -246.95821    302.83002    -29.13901    -4223.262 
11050000     186.1271   -4838.5065   -4479.5448   -4838.5065            0    811.98036      19.9556    20.274746    20.982305      8489.33    2641.5499   -905.65356    700.04473   -219.43317     326.6604    840.79279    -4379.015 
11051000    208.17775   -4808.7617   -4407.2734   -4808.7617            0    940.29974    19.982997    20.122358    21.076231    8474.8579    658.33978    795.44926    1367.1102   -51.109349    91.768121    408.79968    -4291.055 
11052000    199.10069   -4853.4866   -4469.5042   -4853.4866            0    1523.2888    19.870578    20.134974    20.940121    8378.0075     3415.863   -322.91335    1476.9169   -195.59928    1685.5138    520.43249   -4283.3817 
11053000    188.09856   -4846.7017   -4483.9378   -4846.7017            0    465.53818    20.067565    20.102602    20.966567    8458.1286    1220.9827    453.35284   -277.72099    785.09302   -119.52553   -497.13081   -4426.5122 
11054000    208.14469   -4839.4719   -4438.0474   -4839.4719            0    362.65518    20.227636    20.107625    20.808685    8463.5104   -220.24904    20.739595     1287.475    310.11833    383.42173     1242.243   -4393.2842 
11055000    199.36139   -4830.9597   -4446.4745   -4830.9597            0    2618.1132    19.933362    19.896568     21.17239    8397.0862    877.03132    4640.8687    2336.4397   -73.900611     940.9293    14.694207   -4125.8528 
11056000    211.69283   -4826.9228   -4418.6554   -4826.9228            0    2287.9408    20.201109    20.167509    20.726081    8443.9306    1892.7768    2225.5737    2745.4718    138.76017     372.3173    1250.1039   -4136.9045 
11057000    193.12996   -4855.6178   -4483.1504   -4855.6178            0    716.83625    19.994114     20.06492    21.220573    8513.2757      1549.66    951.39008   -350.54134   -531.57844   -484.48444    612.02579   -4394.1499 
11058000    199.49733   -4835.3578   -4450.6104   -4835.3578            0    2390.6944    20.162623    19.985549    20.884184    8415.5136   -655.37892    5347.3003    2480.1619   -783.49792   -949.86568    762.85285   -4157.1965 
11059000    198.93948   -4848.3287   -4464.6571   -4848.3287            0    394.62499    20.168914    20.183079    20.912317    8512.7933    484.26954   -93.391551    792.99698   -273.64597    331.14077    1125.5567   -4415.6643 
11060000    203.26593   -4842.6475   -4450.6321   -4842.6475            0    1585.1001     19.99473    20.101163    20.905084    8402.1153    1660.6105    1533.8899    1560.8001   -260.15593   -169.43337   -216.04197   -4256.3999 
11061000    187.40651    -4805.053   -4443.6238    -4805.053            0    2979.6617    19.885045    20.152537     20.96104    8399.8033    4397.1131    3247.1667    1294.7054    -696.0442   -350.18641    182.89903   -4078.6077 
11062000    202.36338   -4810.8986   -4420.6238   -4810.8986            0    2003.1622    20.135578    20.097273    20.923067    8466.9423    2768.5743   -509.91074    3750.8231   -106.18301    936.24497    184.96163     -4173.27 
11063000    200.77484   -4822.3116   -4435.1004   -4822.3116            0    3152.9737    20.085383    20.018728    20.817206    8370.2619    1933.2217    4222.9504    3302.7488   -129.16056    163.01029    369.75963   -4050.2116 
11064000    189.45701   -4818.6719   -4453.2881   -4818.6719            0    2119.2024     20.11624    19.913876    21.068006    8439.6808    60.177176    3473.4511     2823.979   -143.99833   -90.845932   -141.22566    -4192.448 
11065000     197.6592   -4848.3722   -4467.1698   -4848.3722            0    1066.5471    20.169301    19.996789    20.970585    8457.8828    555.13422    2260.4739    384.03309   -344.51514    495.43705    632.37245   -4335.6117 
11066000    210.15713   -4824.2222   -4418.9165   -4824.2222            0    1049.7496    19.974768    20.278588    20.704307    8386.4883    534.93406     1307.733    1306.5816    23.451614   -724.41039   -278.66564   -4290.5234 
11067000    198.24301   -4851.4422   -4469.1139   -4851.4422            0    1251.0597    20.026372    20.171392    21.019904    8491.1962    476.01858    846.74526    2430.4151   -208.59034    10.658971     310.6181   -4314.1884 
11068000    193.52933   -4825.7945   -4452.5569   -4825.7945            0    2623.6046    20.048997    20.123428    20.942214    8449.2314    3152.2958    1459.5725    3258.9455   -820.97297   -238.48208    399.24912   -4129.2675 
11069000    187.43434   -4843.8834   -4482.4005   -4843.8834            0    2908.3572    20.129976    19.968924    20.902586    8402.2952    2014.1775    4426.2665    2284.6277    633.39104   -153.39642   -133.06537   -4126.0138 
11070000    199.37528   -4826.9826   -4442.4706   -4826.9826            0    2821.8801     20.14581     19.86785    20.982955    8398.5103    3378.9519    2064.7511    3021.9372   -139.50927   -251.04533   -783.09994   -4096.8365 
11071000    203.00351   -4837.8215   -4446.3121   -4837.8215            0    1892.0006     20.18659    19.953943    20.950618    8438.9524    1165.6466    2438.8447    2071.5106    631.04976     37.01691    59.329417   -4213.4571 
11072000    214.69553   -4826.5262   -4412.4678   -4826.5262            0    2451.1511    20.133496    20.067228    21.079595    8516.6508    2940.2483     2682.207    1730.9981    -250.8509    111.88777   -19.751798   -4108.0186 
11073000    189.11593   -4845.6714   -4480.9454   -4845.6714            0    2177.9838    20.002426    20.111805    20.941986    8424.6447    1732.8834    1586.6365    3214.4316   -114.59711     81.40739   -1763.0831   -4213.3479 
11074000    189.48082   -4840.8726   -4475.4429   -4840.8726            0     2283.434    19.994843    20.103917    20.978812    8432.9509    1343.1575    3232.0759    2275.0687    352.73385   -640.35231    102.25929   -4194.6126 
11075000    196.80079   -4842.0908   -4462.5439   -4842.0908            0    1622.7842    19.941695    20.141434     21.12252    8483.9516    2544.1961    1458.2254    865.93115   -251.07414    137.13286   -121.85006   -4261.7573 
11076000    194.80797   -4835.7608   -4460.0573   -4835.7608            0    105.92475    20.249123    20.123545    20.922709    8525.6724   -67.188881    423.56065    -38.59753   -518.88434    546.21543   -449.38599   -4446.8868 
11077000     188.7307   -4851.9841   -4488.0011   -4851.9841            0    1907.7476    20.087302    19.873786    20.947731    8362.5589    2423.7262    1893.1241    1406.3924    271.92403    561.09243    706.02799   -4255.3334 
11078000    206.66419   -4824.3166   -4425.7473   -4824.3166            0    1037.0778    20.296306    20.050467    20.812201     8469.534   -48.232162    1756.2636    1403.2018   -88.858448    309.24744   -396.41719    -4297.648 
11079000     193.9387   -4848.5457   -4474.5186   -4848.5457            0    3257.0063    20.013792    19.856534     21.25341    8446.2021    2883.3122    4568.9259    2318.7808    852.62158     651.4349    803.89673   -4073.3232 
11080000     205.1982   -4827.6256   -4431.8836   -4827.6256            0     2394.742    20.191258     19.82578    20.994177    8404.1254    2094.9866    3661.8233    1427.4163   -216.45535    50.557384   -309.24879   -4138.3707 
11081000    198.70264   -4830.1425   -4446.9278   -4830.1425            0     1996.066    20.095114    20.083483     20.88246    8427.7406    2224.5707    2421.9214    1341.7059   -9.2783777   -276.01133   -1597.1167   -4201.5914 
11082000    194.33705   -4855.5051   -4480.7098   -4855.5051            0    1383.5459    20.127293    20.030433    21.091035    8503.0276    1112.7606    2557.7837    480.09342   -114.70232    573.43343     -916.841   -4309.1391 
11083000    202.02586   -4835.4671   -4445.8432   -4835.4671            0    1107.5692     20.10746    20.056867    21.014732    8475.0866    2202.5965   -474.43537    1594.5466    192.71299    872.81872    1745.2493   -4308.9472 
11084000    204.21004   -4815.1085   -4421.2723   -4815.1085            0     405.7095    19.987307    20.235495    21.007313     8496.472    658.66328   -46.325393    604.79061    -120.1935    55.697634    345.68148   -4370.9999 
11085000    194.09437   -4848.2648   -4473.9374   -4848.2648            0    406.15179    20.164606    19.935658    21.117758    8489.2268    585.87044    137.71877    494.86616   -8.8974393   -2010.0081   -447.26781   -4423.6531 
11086000    191.21327   -4838.4291   -4469.6583   -4838.4291            0    1005.8787     20.13299    20.202073    20.810741    8464.3139    2904.0324   -980.71862    1094.3224   -373.45667     138.3255     292.5751   -4345.4892 
11087000    201.20605   -4854.6657   -4466.6229   -4854.6657            0    1372.6611    20.126182    20.005562     21.02032    8463.5288    635.10945    1307.7941    2175.0796    155.46125   -18.231562   -1756.8178   -4297.1928 
11088000    199.80081   -4839.6476   -4454.3149   -4839.6476            0    1956.9913     20.09935    19.989169    21.011687     8441.851    717.31633    3317.3293    1836.3282   -77.846295   -232.59492    266.46486   -4213.3785 
11089000    186.10719   -4847.8148   -4488.8914   -4847.8148            0    3241.6392    20.152405    20.075971    20.746677    8393.6719    1114.9623     4784.014    3825.9413   -294.17018    210.76752    36.230291   -4092.0724 
11090000    199.12348   -4851.1616   -4467.1353   -4851.1616            0    1914.1964    19.992586    20.052504     21.30356     8540.627    3801.8593    1932.0523    8.6776844    513.21753   -58.866685    831.83024   -4228.7101 
11091000    198.13222    -4847.238   -4465.1233    -4847.238            0    1501.6137    19.956053    20.080428    20.927386    8386.1495   -493.99153    3229.5916    1769.2411   -557.88892     364.2717   -614.17285   -4281.4709 
11092000    199.55157   -4844.5011   -4459.6491   -4844.5011            0    2649.4858    19.947987     20.09152     20.94318    8393.7201    2933.3164    1915.3148    3099.8262   -460.55453     390.5308   -581.45279   -4135.3155 
11093000    197.88546   -4816.4895   -4434.8507   -4816.4895            0    2472.2309    20.163638    20.008398    20.816463    8398.2371    2695.0235    3101.9748    1619.6944   -607.26704   -338.98958    158.42307   -4132.0527 
11094000    199.41686   -4846.9337   -4462.3415   -4846.9337            0    505.89115    20.248339    20.018645     20.98613    8506.6082    794.30525    337.15101    386.21718   -1279.0117    90.295076     1704.965   -4399.5806 
11095000    197.18286   -4866.7785   -4486.4948   -4866.7785            0    2475.9822     20.00117    20.078202    20.890415    8389.3303    2740.6846    1336.9907    3350.2714   -219.12937    344.54497    8.5808274   -4183.5589 
11096000    203.65024   -4834.6816    -4441.925   -4834.6816            0    2200.3809    19.947228    20.057696    21.257826    8505.1593    1487.8651    3346.7731    1766.5046   -73.058133    73.348665    256.64931   -4168.9919 
11097000    199.71786   -4841.2308   -4456.0581   -4841.2308            0    2800.0059     20.02379    20.071178     20.88698    8394.4996    1756.0042     3619.116    3024.8976    838.53179    65.681694    413.13352    -4113.267 
11098000    191.82656   -4826.7116   -4456.7579   -4826.7116            0    2144.0442    20.212813     19.99279    20.820023    8413.5903    2287.7442     2833.071    1311.3174   -361.24131    -216.7925    -220.8983    -4193.676 
11099000    188.44368   -4827.5603   -4464.1308   -4827.5603            0    1571.9873    20.065094    19.927201    21.143018    8453.8486    1764.9229     1319.404    1631.6349     275.6447    54.858367   -830.30596   -4270.3193 
11100000    196.52596   -4842.3753   -4463.3584   -4842.3753            0    1304.2898     20.11874    20.230163    20.779001    8457.1654    1053.9412    906.92796    1952.0003   -370.76584   -199.78663    209.19173   -4302.4885 
11101000    188.58432   -4854.0012   -4490.3005   -4854.0012            0    3063.9873     19.86683    20.178593    21.045441    8436.7952    4047.5543    1610.8736     3533.534   -161.00648    321.64484    1209.7341   -4113.3013 
11102000    185.50905   -4809.1282   -4451.3584   -4809.1282            0    2195.6605    20.018872    20.155988     20.86803     8420.253    3707.8324    1542.4486    1336.7004   -256.03281    126.42485    -1108.019   -4181.7296 
11103000    196.56081   -4820.5682   -4441.4841   -4820.5682            0    760.63436    20.101861    20.068915    20.943663    8449.1455    1089.9927    1208.7012   -16.790804    161.82358    381.33016   -593.75943   -4347.7572 
11104000    189.42556   -4809.2295   -4443.9064   -4809.2295            0    306.03005    20.245815    20.132158    20.900583    8518.9096    707.41546    486.73097   -276.05627   -238.76754     188.4253   -352.65042   -4405.8853 
11105000    204.42255   -4812.7764   -4418.5303   -4812.7764            0    1747.8569      20.1141    19.751962    21.528104    8552.9636    1817.5419    2175.5687    1250.4601    77.975982    365.57018    1316.3328   -4200.5093 
11106000    195.98596   -4849.6794    -4471.704   -4849.6794            0    1117.5079    20.229772    20.091291    20.798713    8453.4757    440.77752    1120.4278    1791.3184    687.88434    793.81275   -380.24724   -4333.9317 
11107000    197.16127   -4827.6669   -4447.4248   -4827.6669            0    1996.5402    20.134667    19.942594    20.853882    8373.6154    823.75354    2427.0903    2738.7768   -44.750764   -726.51077   -766.68416   -4203.6061 
11108000    200.91166   -4830.7197   -4443.2446   -4830.7197            0    964.91162    20.054087    20.369704     20.94305    8555.1482    1041.2112    820.16902    1033.3547   -734.10819   -131.27402    64.664236   -4322.8545 
11109000    199.47238    -4840.445   -4455.7457    -4840.445            0    903.12124    20.016432    20.229803    21.005379    8505.6762    2011.8282     184.2903    513.24526   -136.15132   -348.79146    -781.8351   -4343.7166 
11110000    207.61654   -4833.3992   -4432.9932   -4833.3992            0    1994.4305    20.114947    20.067837    20.854101    8418.0389    1469.0971    1883.7662    2630.4283    66.677946      1000.44   -26.842067     -4188.14 
11111000    204.21541   -4827.2156    -4433.369   -4827.2156            0    1284.0784    20.251945    20.000286    20.991422    8502.4641    2923.2222   -422.54024    1351.5532   -7.8452688    118.92287   -778.20824   -4274.1437 
11112000    200.51633   -4830.7101   -4443.9975   -4830.7101            0    1047.4331    20.284449    19.888686    20.960937    8456.2923    -908.6969    2797.9649    1253.0314   -371.72362   -516.58587   -495.43801   -4314.8214 
11113000    199.08382   -4858.5533   -4474.6034   -4858.5533            0    2197.7847    20.153142     19.91817    21.221653    8518.6626    2885.7629    3241.1227    466.46836    85.935569    1512.4995    7.1201497   -4201.5595 
11114000    196.49484   -4824.1309   -4445.1741   -4824.1309            0    2395.6533    20.165169    20.138298    20.783108    8439.8574    1037.4347    2433.9006    3715.6246   -397.21017   -86.679071    613.85373   -4150.3011 
11115000    203.07654    -4853.535   -4461.8848    -4853.535            0    1594.0903    20.249589    19.968928    20.956621    8474.0733    1039.9474    2216.1531    1526.1705     71.23524    863.43319   -178.58516   -4264.8781 
11116000    198.54785     -4861.83   -4478.9138     -4861.83            0    2222.2949    20.111108     19.79038    21.109273    8401.6276    2261.1737    3461.4167    944.29418   -559.32097   -515.22057   -557.83357    -4206.618 
11117000    193.85608   -4850.4341   -4476.5664   -4850.4341            0     2724.912    19.954201    20.005004    21.010776    8387.1629    2881.7753    2670.4487     2622.512    -490.6697    68.114367    590.15023   -4143.2601 
11118000     199.0112   -4854.2267   -4470.4169   -4854.2267            0    1278.5057    20.236679    20.157042    20.770072    8472.3534    1175.4247    285.96079    2374.1314   -221.02892   -876.38397   -459.20459    -4312.444 
11119000    188.82701   -4840.0488     -4475.88   -4840.0488            0    1606.0925     20.17433    20.025061    20.970466    8471.9043     2637.427    544.46528    1636.3851   -1252.8698     53.40261    1118.4063   -4277.4408 
11120000    197.72785   -4830.2563   -4448.9215   -4830.2563            0    2467.7554    20.323619    19.927988    20.749374    8403.6798    289.26441    3902.8858    3211.1159   -211.92917   -408.21621   -84.320434   -4146.4757 
11121000     195.3052   -4859.2424   -4482.5799   -4859.2424            0    1531.4675    20.189191     19.89493    20.975454    8425.0542    2348.0198    569.98636    1676.3964    218.74504    747.86318   -666.87598   -4294.4073 
11122000    208.90585    -4835.349   -4432.4565    -4835.349            0    3118.6967    20.029632    19.941841    21.051058    8408.3765     4739.375    2143.6723    2473.0428   -242.31944      324.683   -280.58632   -4050.0184 
11123000    197.62832   -4833.2711   -4452.1283   -4833.2711            0    3184.8838    20.057134    20.078127    20.845269    8394.5916    2759.0477    3306.9494    3488.6542   -153.11179    68.397995    821.13361   -4062.2141 
11124000      204.354   -4842.8346   -4448.7207   -4842.8346            0    2428.0262    20.047703    20.069602    21.003408     8450.709    3137.9454    2340.9968    1805.1363      421.304   -397.76419   -137.50321   -4149.4788 
11125000    205.81055   -4828.4187   -4431.4957   -4828.4187            0    1964.0509    20.006737    20.213393     21.04883    8512.2318    3428.6838    701.60697    1761.8618   -267.63229   -852.88108     547.4093   -4187.6742 
11126000    193.91148   -4850.9101   -4476.9355   -4850.9101            0    1371.3535    20.149014    19.964949     20.88845    8402.8813    2040.0832    1064.2293     1009.748    581.54682   -853.56342    193.17831   -4308.8797 
11127000    199.89285   -4843.3165   -4457.8063   -4843.3165            0    1109.1598    19.870664     20.22773    21.003752    8442.2153    2138.1146    732.25313    457.11175   -617.67024    208.93099     337.7591   -4321.2454 
11128000    202.31805     -4860.88   -4470.6926     -4860.88            0    3197.0239    20.043433    20.117416     20.83369    8400.6035    3206.3505     2287.818    4096.9031    511.03391   -191.02423    217.74359   -4079.0118 
11129000    205.33247   -4818.1742   -4422.1732   -4818.1742            0     1698.092    19.994777     19.83239    21.283362    8439.7941    2659.3022     1463.585    971.38896   -239.21903    770.06114    365.70039   -4213.1623 
11130000    189.78985   -4852.1001   -4486.0745   -4852.1001            0    1333.6801    20.147865    20.151863    20.764336    8430.6734       660.16    1103.8296    2237.0507    272.11989    356.20916    270.89805   -4322.0949 
11131000    179.80232   -4832.3485   -4485.5846   -4832.3485            0    1090.5254    20.249555    19.869084    21.192631    8526.6457    594.40754    3018.6866   -341.51802   -65.960473   -464.48767    24.327327   -4349.9752 
11132000    201.01323   -4819.8332   -4432.1623   -4819.8332            0    1610.5323    20.167117    19.969597    20.945689    8435.4402    978.25026     2096.314    1757.0327   -406.95469    918.73049   -649.05045    -4234.031 
11133000     209.9292   -4840.0169   -4435.1508   -4840.0169            0    923.77933     20.21493    20.209922    20.851141    8518.5705   -524.53776    960.32337    2335.5524   -693.54453    767.40264    101.40903   -4320.3855 
11134000    190.03302   -4836.2361   -4469.7415   -4836.2361            0     2188.939    19.993421    20.100489    21.073904    8469.1287    2545.2528    2469.3364    1552.2279   -601.23296    -729.8179   -1253.1633   -4199.3778 
11135000    197.93558    -4841.922   -4460.1866    -4841.922            0    1440.7656     20.08803    20.169048    20.663483    8371.9432    877.65798    849.04573    2595.5931    117.07956   -1128.2625     507.5576   -4284.2746 
11136000    201.84601   -4840.0182   -4450.7412   -4840.0182            0    593.04438    20.119013    20.040705    21.058175    8490.6395    637.03281    1717.5251   -575.42473    136.24897    414.48272   -223.89549   -4377.3062 
11137000    196.66223   -4843.8965   -4464.6168   -4843.8965            0    882.86521    20.132856    20.001731    20.938408    8431.7286    786.55235    1040.0489    821.99441    84.507691   -142.64126    80.788937   -4356.0526 
11138000    199.12513    -4847.159   -4463.1294    -4847.159            0    228.72163    19.983945    20.201841     21.04584    8496.4685    756.06203   -1167.5075    1097.6104    229.54926    46.894797    309.97087    -4434.788 
11139000    194.59885   -4864.2108   -4488.9106   -4864.2108            0     745.5479    20.163571    19.955348    21.124009    8499.6903    296.03917    1380.0767    560.52786    448.12469   -850.52312   -1517.4262    -4396.493 
11140000    208.30249   -4845.0604   -4443.3316   -4845.0604            0    1750.3104    20.209984    19.834735    20.988949    8413.6236    2711.2761    2072.8343    466.82067    66.186389   -255.92198    59.751359   -4228.5613 
11141000    193.63652   -4833.9226   -4460.4783   -4833.9226            0     1831.971    20.211933    20.034184    20.801249    8423.0413    2098.9708    1953.8772    1443.0652   -4.1216016    731.16035   -19.989707   -4235.4364 
11142000     197.7718   -4839.8973   -4458.4777   -4839.8973            0    2834.4176    19.888533     20.05509    21.043689    8393.6191    5428.5952    1669.0958    1405.5618   -7.4835278    318.44557   -243.04324   -4111.5101 
11143000    198.32918   -4844.8299   -4462.3354   -4844.8299            0    1256.3292    19.904073    20.354088    20.873258    8456.3677     1951.881    390.66256    1426.4439   -820.75027   -416.54134   -40.813263   -4307.3956 
11144000    205.65459   -4849.7804   -4453.1582   -4849.7804            0    757.81179     20.14527    20.103285    20.929101     8475.995    395.31403    662.86599    1215.2554    288.77382    348.19449    326.09267   -4359.4823 
11145000    200.66041   -4844.6289   -4457.6385   -4844.6289            0     1933.252    19.965995    20.007409    21.245372    8486.8426    2254.6827    2580.9754    964.09789   -336.36717     560.8482    175.83644   -4218.3562 
11146000    189.63824   -4842.7186   -4476.9853   -4842.7186            0    2776.1925    20.132105    20.019863    20.873369    8412.8441    2837.3244    3011.0035    2480.2496    112.68292   -831.10384    412.84133   -4136.3668 
11147000    194.92663   -4854.8731   -4478.9408   -4854.8731            0     188.8889    20.187561    20.178429    20.920798    8522.1551   -618.07444   -93.981528    1278.7227     603.8958    218.04701   -98.977803   -4455.4643 
11148000    184.33325   -4827.0409   -4471.5387   -4827.0409            0    998.38246    20.011542    19.979137    21.243785    8493.5483    1317.9402     365.3911     1311.816   -394.11188   -158.81662    902.41045   -4347.8694 
11149000    200.66573    -4824.859   -4437.8582    -4824.859            0    2603.5828     20.13766    20.191409    20.683392    8410.0269    3377.6141    895.89212     3537.242   -57.111709   -1156.7737    339.75045   -4118.5246 
11150000    205.81122   -4860.7178   -4463.7936   -4860.7178            0    2641.4101    20.030968    20.029322    20.996693    8424.0142    2471.4488    4023.6989    1429.0827   -203.56285   -1166.6258   -770.96524   -4139.2815 
11151000     199.5271   -4810.0066   -4425.2018   -4810.0066            0    2184.7706    20.265364    20.038951    20.780862    8439.0377   -1356.4223    5106.0457    2804.6884    99.256904    1246.5799    1972.0874   -4156.3118 
11152000     201.8138   -4829.5333   -4440.3184   -4829.5333            0    1421.1495    20.119785    19.995428    21.005813    8450.7163    316.38665    3422.7095    524.35225    458.89109    523.05377   -455.67356   -4265.1688 
11153000    197.72733   -4841.6708    -4460.337   -4841.6708            0    1177.1753     20.23036    19.860269    21.156922    8500.4362    618.95012    2247.1162    665.45967   -734.13585    488.24981    340.08737   -4314.4024 
11154000    200.17413   -4844.9845   -4458.9319   -4844.9845            0    2417.8985    20.223883    19.916714    20.853667    8399.7171    1904.6814    2677.9401     2671.074   -436.06559     1085.503    471.51898   -4162.7363 
11155000    186.98189   -4822.0185   -4461.4082   -4822.0185            0    2487.9591    20.083367    19.905988    21.040494     8411.553    3107.8264     2837.468    1518.5831   -163.14197    1484.5931   -810.66425   -4156.2006 
11156000    194.60649     -4849.47    -4474.155     -4849.47            0    1889.4849    20.006286    20.156304    20.956637     8450.822    3433.9574    555.67698    1678.8204     98.94369   -98.317656    650.32694   -4241.2825 
11157000    196.94703   -4826.0332   -4446.2043   -4826.0332            0    2131.7199    20.043251     20.21612    20.908618    8472.1045    2294.0861    582.97279    3518.1007    96.866351   -545.60136   -281.94843   -4182.8155 
11158000    188.91212   -4845.4832   -4481.1503   -4845.4832            0     1861.208    20.106048    19.928625    21.126095    8464.9283    2181.8929    2288.3753    1113.3558    609.73504    207.94236   -1228.8891   -4251.3799 
11159000    192.16273   -4847.9222   -4477.3202   -4847.9222            0    2631.3318    20.122875    19.939024    21.076284    8456.4476    3335.3588     2727.364    1831.2725   -459.53512    744.90972    138.86353   -4152.8017 
11160000    198.32511   -4839.4382   -4456.9516   -4839.4382            0    814.38375    20.214426    20.087257    20.816969    8452.7796    1086.1066    2.3768812    1354.6677   -5.1024412    390.87045   -34.952339   -4356.5583 
11161000    193.56814   -4843.7369   -4470.4245   -4843.7369            0    1335.6736    20.050555    20.087587    20.998648    8457.5683    1801.0884    971.61355    1234.3188    43.793223     583.1501   -489.90212   -4305.6759 
11162000    192.94182   -4818.5821   -4446.4776   -4818.5821            0    915.36846    20.345396    20.080837     20.75602    8479.9254   -743.74893    1789.8168    1700.0375   -44.080069   -766.43009   -1040.3829    -4333.273 
11163000    196.16269   -4833.3183    -4455.002   -4833.3183            0    1755.1179     20.14336    19.952085    21.155128    8502.2888    1182.6263    1935.5138    2147.2138   -573.32608   -562.70995    608.49351   -4237.3724 
11164000    193.10502   -4838.8021   -4466.3829   -4838.8021            0    1209.8404     20.08742    20.058988    21.095346    8500.0176    45.684801     1681.866    1901.9704   -645.33785   -138.90774    1381.8329   -4316.4062 
11165000    198.27225   -4843.3874   -4461.0027   -4843.3874            0    1389.3209    20.085774    20.139301    20.902916    8455.5105     834.5277    920.51966    2412.9153   -22.234939   -527.86054    332.12547   -4289.6787 
11166000    198.62867   -4822.5559   -4439.4838   -4822.5559            0    2608.9352     19.85835    20.070458     21.06614    8396.2511     3226.464    1910.8293    2689.5122    277.72016   -904.70988   -318.17612   -4120.0179 
11167000    195.86724   -4826.6304    -4448.884   -4826.6304            0    1151.4583    20.057056    20.240465    20.754086    8425.4145   -5.7444695    2622.4241    837.69515   -275.57666   -489.56867   -82.245455   -4307.3974 
11168000    198.89631   -4819.7651   -4436.1769   -4819.7651            0     260.0832    20.004835    20.074745    21.231453    8526.3807    943.03556    1735.6178   -1898.4038   -144.05305   -41.097897    1147.4399   -4403.8359 
11169000    210.88835   -4832.4574   -4425.7415   -4832.4574            0     308.3437    20.261378    20.078452    20.909044    8506.1566    779.27751   -533.67108    679.42466   -286.83326   -419.15248    773.58778   -4387.4904 
11170000    193.28511   -4824.2274   -4451.4608   -4824.2274            0    1140.7242    20.204266    20.028555    20.946031    8476.0679    1021.5148    1908.8105    491.84726   -274.87883    394.86559   -318.56268   -4310.4505 
11171000    197.21873   -4819.1208   -4438.7679   -4819.1208            0    1074.8406    20.021645    19.994789    21.085091    8440.9642    2906.3856    19.033769    299.10228   -660.65636   -769.04681    23.456879    -4306.452 
11172000    194.10262   -4838.8775   -4464.5342   -4838.8775            0    2268.2625    20.290692     20.15702    20.642314    8442.7042    2819.3235     452.1855    3533.2784    90.803972    369.26719   -1030.7008   -4185.2472 
11173000    193.40017   -4851.8055    -4478.817   -4851.8055            0    1701.6231    20.109779    19.885853    21.005409    8400.0657   -320.02971    4230.9831    1193.9159   -487.50311   -216.43448    476.73961   -4270.3574 
11174000    191.64382   -4824.3261   -4454.7249   -4824.3261            0    2674.5155    20.082894    19.990986    20.939934    8406.8989    3594.8556    2782.8855    1645.8053   -642.78142    1415.9135    946.26203   -4126.8132 
11175000    201.07395   -4849.6184   -4461.8304   -4849.6184            0    1725.8063     20.05512    20.091037    20.901017    8421.6081    2704.7739    1461.1327    1011.5123   -213.41603    1281.5488    221.71286    -4249.866 
11176000    194.10154    -4852.188   -4477.8468    -4852.188            0    2383.7598    20.022705    20.137069    21.010938    8471.5808    2296.2093    1791.7887    3063.2814   -168.36782    36.801076   -84.935119   -4183.3349 
11177000    199.36975     -4834.56   -4450.0587     -4834.56            0    1346.0818    20.055408    20.199898    20.893807    8464.4404    2435.1825   -64.807126    1667.8701   -2.3072073    1102.8169    494.24278   -4283.8914 
11178000    182.73049   -4809.7931    -4457.382   -4809.7931            0    1884.5226    20.143846    19.931357    20.942737    8408.3872    1662.6972    2444.7207    1546.1499   -356.66321   -274.38426    605.99874   -4226.2873 
11179000    202.92266   -4825.3145   -4433.9611   -4825.3145            0    1827.4615    20.095952    20.032451    21.015793    8460.3525    1269.9589    2004.8997     2207.526   -193.55952    155.74637    443.60336   -4208.4787 
11180000    202.73274   -4829.9137   -4438.9265   -4829.9137            0    2298.0312     20.11362    20.101463    20.707796    8372.4354    1186.4283    3113.8313    2593.8341    903.04179    1298.5546    513.53455   -4158.3291 
11181000    189.91118    -4832.215   -4465.9554    -4832.215            0    2398.7872    20.079634    20.122689    20.980073    8477.1291      748.186    4316.4227    2131.7528   -393.82556   -957.24526     1874.573   -4169.3928 
11182000    199.82187   -4841.4173    -4456.044   -4841.4173            0    2091.3299    20.083057    19.944314     21.03249    8424.4122    2186.2441    1861.9705    2225.7752   -144.37166   -1344.8452    208.12887   -4199.1002 
11183000    191.73235    -4857.847   -4488.0751    -4857.847            0    3582.0889    20.147848    20.037403    20.884346    8431.2307    2298.3984     4679.412    3768.4562   -167.97875      634.922   -878.84706   -4047.6184 
11184000    195.42505   -4856.0466   -4479.1529   -4856.0466            0    3384.3129    20.044892    20.017848    20.863662    8371.6612    2837.0241    4104.4458    3211.4688    -976.1744     85.05237    203.67117   -4065.9551 
11185000    207.42342   -4837.2526   -4437.2191   -4837.2526            0    2030.3714    20.067597     20.05526    20.967354    8438.5396    2754.5165    2043.0039    1293.5938    594.68928    919.29623    661.13198   -4187.3465 
11186000     199.1349   -4819.8141   -4435.7657   -4819.8141            0    2654.3944     20.29303    20.101911    20.594915    8401.2568    1810.8271       3156.9     2995.456    241.54636    421.24435     847.1075   -4110.5394 
11187000    195.51057   -4838.1571   -4461.0985   -4838.1571            0    1018.9826    20.228543    19.977362    21.000372    8486.5216    825.25955    1729.3239    502.36442    88.374496    775.79851   -861.32679   -4334.9819 
11188000    200.73724   -4831.7075   -4444.5689   -4831.7075            0    3312.6518    19.935479    20.062523    21.058436    8422.4482    3908.4025    3222.8391    2806.7139   -577.35406     776.4651    62.769158   -4037.6667 
11189000    187.25125   -4839.5868    -4478.457   -4839.5868            0    2521.7938    20.118125    20.150612    20.692685    8388.6597     882.4982     3761.481    2921.4021   -85.213698    611.52619   -1287.9969   -4169.9408 
11190000    214.15577   -4837.3328   -4424.3154   -4837.3328            0    3243.4777    19.901338    20.055398    21.013223    8386.9921    3824.7185    2608.3156    3297.3989    180.10627    609.40097   -1208.2181   -4027.5872 
11191000    195.81823   -4828.4152   -4450.7633   -4828.4152            0    3257.8424    19.938131    19.968443    21.083684    8394.1194    3865.1142    3407.1514    2501.2617   -555.38223    697.86051    512.34456   -4051.9395 
11192000    204.52994   -4842.2263   -4447.7731   -4842.2263            0    964.09659    20.181948    20.160976    20.926254     8514.637    236.00552     885.3721    1770.9121    -176.3051    -178.5284   -211.09964   -4328.0543 
11193000    201.08977    -4833.648   -4445.8295    -4833.648            0    1000.3449    20.033725    19.894129     21.21193    8454.0888    409.83869    2343.5582    247.63785   -484.28806    -760.1547   -769.74135   -4322.4927 
11194000    201.22635   -4824.1852   -4436.1032   -4824.1852            0    1626.7596    20.089528    20.141353    20.803113    8417.5696    379.92014    2149.7244    2350.6342    406.33542   -119.90935   -486.96394   -4236.3996 
11195000    195.01094   -4828.2265   -4452.1315   -4828.2265            0    1779.5462    20.153774     20.05044    20.958008    8468.9637   -143.35077    3970.9851    1511.0043     147.3366    456.98418    64.097785   -4232.3377 
11196000    200.14795   -4846.5994   -4460.5973   -4846.5994            0    810.83809    20.239433    19.940923    20.942408    8452.2089   -16.139712    2101.4996    347.15434   -238.40682    114.47991     695.2097   -4360.6479 
11197000    197.81408    -4834.446   -4452.9449    -4834.446            0    2168.5633    20.049171    20.074439    20.940595    8428.0841    1907.0294    2022.1387    2576.5216    143.49743   -1544.3352   -1722.8545   -4186.3961 
11198000     205.4606   -4842.2149   -4445.9668   -4842.2149            0    1804.6015    19.888054    20.348919    20.914139    8463.9606    3798.7715   -207.77139    1822.8043   -301.43004   -923.45786    252.93129   -4223.2101 
11199000    203.64929   -4828.1638    -4435.409   -4828.1638            0    2221.1942    20.197704    20.057932    20.972929    8496.6405    1401.7119    2517.0877    2744.7829   -543.73682   -892.72326    793.08687   -4160.1702 
11200000    197.97275   -4852.4613   -4470.6542   -4852.4613            0    3098.2679    20.164325      20.0271    20.813233    8405.0694    1819.5332    3245.2043     4230.066    136.19903   -646.33087    813.92527   -4090.8707 
11201000    192.97246   -4836.4629   -4464.2993   -4836.4629            0    976.59196     20.00413     20.07989    20.994817    8433.2138    562.98568     864.2467    1502.5435    247.03476   -958.82636   -719.64259   -4344.1884 
11202000    197.04254    -4827.712   -4447.6989    -4827.712            0    1822.7706     19.91194    20.140216    20.959339    8405.3398    1530.7869    2216.8867    1720.6383    -94.40165    584.89669    486.54908   -4224.2578 
11203000    194.24664    -4849.125   -4474.5041    -4849.125            0    1156.3902    20.161507    20.112159    20.999049    8514.9343    566.95108    3018.7804   -116.56098    224.60593    992.94327   -2058.0465   -4330.9017 
11204000    188.22348   -4835.5276   -4472.5228   -4835.5276            0    2124.8646    20.207003    19.872225    20.996761    8431.4199    1317.4433    3095.6892    1961.4614    91.135579    1044.2814    195.17294   -4211.2418 
11205000    189.19944    -4852.258   -4487.3709    -4852.258            0    2063.4767     20.18425    20.009538    20.901909     8441.811    2071.6799    2689.8267    1428.9235   -118.03677   -1000.1252    85.369959   -4233.3257 
11206000     191.2306   -4848.9873    -4480.183   -4848.9873            0    1034.5896    20.183016    20.069831    20.960318    8490.3899     2214.821    732.44055    156.50729   -768.04354   -548.87137   -245.85673   -4352.0764 
11207000    198.32932   -4841.8425   -4459.3477   -4841.8425            0    1591.6537    20.067486    20.078326    21.041209    8477.9561    3527.3524    860.02261    387.58605    191.18378   -625.11741    159.77172    -4262.552 
11208000    198.52556   -4829.4562    -4446.583   -4829.4562            0    1569.6466    20.038197    20.070361    20.948717    8425.0264    2845.0866    242.37218    1621.4809    122.81852    306.37769   -517.73915   -4253.7199 
11209000    198.67229    -4842.251   -4459.0948    -4842.251            0   -375.23752    20.123742    20.081394    21.136522    8541.5389   -1335.9525    625.88495   -415.64498   -577.29688   -286.07002    938.06695   -4505.8379 
11210000    205.34205   -4830.0892   -4434.0698   -4830.0892            0    1130.6306    20.302186    19.990664    21.090964    8559.8558   -597.30739     2907.415    1081.7841    -188.2297   -1300.7732   -1113.6523   -4292.9256 
11211000    195.28693   -4836.5889   -4459.9616   -4836.5889            0    1408.3842    20.314957    20.022768     20.91577    8507.7336    647.62948    1631.8326    1945.6904   -584.35114    605.64811    202.93551   -4285.2141 
11212000    194.14747   -4827.5936   -4453.1639   -4827.5936            0    2758.3411    20.116309    19.827237     20.96402    8361.5165    2865.6517    3018.0096    2391.3621   -829.38143    407.00324    3.0381225   -4116.8004 
11213000    195.37045   -4814.3124    -4437.524   -4814.3124            0   -45.738178    20.160202    20.034378    21.052162    8502.9071    55.832095   -370.06882    177.02219   -341.18956   -378.74427    666.21583   -4443.1959 
11214000     203.9013   -4838.7625   -4445.5216   -4838.7625            0    2331.5507    20.123523     20.04805    20.935442    8446.1399     2560.556    2254.0074    2180.0886   -31.029925    314.66704    74.027101   -4158.3252 
11215000    181.69313   -4842.7261   -4492.3156   -4842.7261            0    3244.4544    20.109243    19.975957     20.93016    8407.6741    2460.6525    4047.9882    3224.7224   -253.62933    331.64464    161.59218   -4094.4894 
11216000    193.86883   -4843.6925   -4469.8001   -4843.6925            0    1362.8103    20.147254    19.981003    21.053691    8475.4232   -181.00498    2940.9085    1328.5273   -633.54921     387.6756     -551.527   -4301.3495 
11217000    190.62811   -4856.4648   -4488.8224   -4856.4648            0    1060.4361    20.067669     20.00215    20.963482    8414.6689       1349.6    1028.9032    802.80517    538.50334    1451.0378    224.95696   -4358.6864 
11218000    201.26573   -4830.9816   -4442.8237   -4830.9816            0    1048.6905    19.966107    20.148491    21.040618    8464.3653     2021.261   -206.63853    1331.4489   -42.022511     2148.576    -184.4483    -4313.369 
11219000    199.12186   -4830.0969   -4446.0736   -4830.0969            0    2477.4827    19.994687    20.092478    20.826395    8366.8543    3464.6744    1896.3905    2071.3831   -611.91743   -828.02985    423.84853   -4143.7663 
11220000    190.72683   -4845.1467    -4477.314   -4845.1467            0    1969.6543    20.093114    20.013106    20.879544    8396.1996    3093.8875    1624.2138    1190.8616   -752.47955     754.7198   -1210.1772   -4236.1299 
11221000     198.1996   -4843.4831   -4461.2385   -4843.4831            0    1583.1463     20.04321    19.905255    21.217525    8465.0543    3120.0066    1251.2761    378.15632   -249.24619    555.03299   -454.62632   -4265.7926 
11222000    197.54102   -4854.8641   -4473.8896   -4854.8641            0    3104.1926     20.15262    20.016511    20.779749    8382.2416     2363.278    3808.6089    3140.6909   -2.2953887    97.971155    932.16412   -4094.4132 
11223000     190.1321    -4836.297   -4469.6112    -4836.297            0    715.34254    20.043863    20.130358    21.093553    8511.0405    2226.1396   -350.04214    269.93021    511.63052   -241.59294     959.5574   -4380.8195 
11224000    201.03366   -4842.8414   -4455.1311   -4842.8414            0    1956.9236    20.041427    20.086038    21.064961    8479.7604    1853.1273    1515.7251    2501.9182    482.56693    567.39344    941.70694   -4213.1211 
11225000    194.79071   -4850.8826   -4475.2123   -4850.8826            0    1986.2037    20.053691    20.121036    20.868931    8420.6352    2156.8966    1563.5232    2238.1914   -463.00922   -762.40753   -291.70072    -4231.294 
11226000    191.84598   -4827.6505   -4457.6594   -4827.6505            0    1644.5718    20.306611     19.72753    21.140801    8468.9898    670.59187    2875.4643    1387.6592     317.2129    2.8095177    1288.9894   -4254.5359 
11227000    201.00348    -4796.459   -4408.8069    -4796.459            0    876.53382     20.22535    19.966834    20.949971    8460.3568   -150.37809    1248.2114    1531.7681   -810.64388   -200.06772    1063.9738   -4300.6552 
11228000    212.85629   -4847.8779   -4437.3666   -4847.8779            0    1700.8464    19.937325    19.909365    21.146086    8393.7167    2426.0128    988.48607    1688.0405    647.71244    175.65455   -473.80233   -4229.1596 
11229000    197.01201   -4821.8572   -4441.9029   -4821.8572            0    1799.9351    20.203057    20.085729    20.867942    8468.0674    3549.9177    438.06604    1411.8215   0.64143409    378.67882    800.61658   -4219.6144 
11230000    207.57021   -4832.6623   -4432.3457   -4832.6623            0    553.34879    20.241633    19.965948     21.10306     8528.662   -1369.4477    2310.8404    718.65365    139.44746    861.55456    213.64773   -4363.5192 
11231000    199.90644   -4825.2653    -4439.729   -4825.2653            0    3025.0808    20.094914    20.041931     20.88658    8411.8798    3010.1924    3492.7327    2572.3173   -384.69419     697.0648   -490.93466   -4068.6162 
11232000    202.80067   -4846.3958   -4455.2777   -4846.3958            0    48.096701     20.27989    20.148646    20.768881    8486.4207   -318.48936    412.93286    49.846601    149.66528    234.03496    226.95062    -4449.325 
11233000    197.19087   -4846.1316   -4465.8324   -4846.1316            0    1500.4131    20.048717      20.0692    21.056087    8472.1628    1096.1118    1844.9845     1560.143   -905.31853    616.25047     1143.835   -4280.4446 
11234000    199.57285   -4828.0421   -4443.1491   -4828.0421            0    2408.8604    20.117172    20.202815     20.73409    8426.8214    1483.0108    2176.3772    3567.1931   -691.09903    582.63513    1258.2044   -4147.1085 
11235000    191.33226   -4841.5712   -4472.5708   -4841.5712            0    2549.3707    20.066594    19.883719    20.990405    8375.1403    2945.8804    3323.7228    1378.5089    636.06946   -592.76573      127.437   -4161.1835 
11236000    193.32451   -4841.8071   -4468.9645   -4841.8071            0    1247.1881    20.083669    19.885205    21.160134    8450.6778    812.47425    1316.8531    1612.2371   -212.04034   -531.69157    68.007791   -4315.2555 
11237000    193.80404   -4830.6795   -4456.9121   -4830.6795            0    2036.8183    20.188334    20.017581    20.818671    8413.2751    2536.3066     1501.335    2072.8132   -848.47675   -832.12178    29.460462   -4206.9966 
11238000    199.61687    -4826.345   -4441.3671    -4826.345            0    1886.6724    20.127689    19.942079     21.22461    8519.3029    2224.8003    1455.1139     1980.103     419.6375    1101.2748    550.34805   -4206.9569 
11239000    192.62551   -4824.4301   -4452.9356   -4824.4301            0    868.18417    20.061703    20.142346    20.764307    8390.6434    863.28637    978.81264    762.45349   -372.69179    275.46817   -244.19968   -4346.6968 
11240000    203.70111   -4836.3497    -4443.495   -4836.3497            0    3014.0846    20.023733    20.103656    20.856045    8395.6059    3514.6208    3058.7646    2468.8683   -314.95193    624.82698    750.53394   -4074.4466 
11241000    190.63634   -4842.0347   -4474.3765   -4842.0347            0    1325.5918    19.989831    20.110532    21.124526    8492.1888    1796.4118    1219.9147    960.44887   -257.51073   -685.09201    404.71927   -4310.2021 
11242000    204.64336   -4852.1677   -4457.4958   -4852.1677            0    2933.8641    20.153015    20.126183    20.720961    8404.4895    3245.6874    2443.8036    3112.1012     -21.6395   -666.74387   -219.11085   -4097.8896 
11243000    194.69568    -4817.585    -4442.098    -4817.585            0    1909.8823    20.046511    20.067581    21.061622    8472.7741    3059.4233     1281.909    1388.3145   -255.49622   -71.491182   -532.58673   -4206.1001 
11244000    198.10809   -4826.0231   -4443.9549   -4826.0231            0    819.87451     20.13725    20.046625    21.061951    8502.3705    1594.7235    292.89382    572.00623   -265.06966    1199.3277    277.19465   -4342.2919 
11245000    203.10917   -4818.6314   -4426.9183   -4818.6314            0    1805.2757    20.159643    20.196368    20.862505    8494.2015    1879.5206    1116.9006    2419.4059   -320.76252    999.67796     -242.066   -4203.2821 
11246000    200.22678   -4829.0655   -4442.9113   -4829.0655            0    1391.0016    20.069154    19.946593    21.168805    8474.1108    1179.9217    1938.5344    1054.5489    273.87836    518.44312   -1372.1459   -4271.0027 
11247000    194.20428   -4835.1827   -4460.6434   -4835.1827            0    923.36396    20.261439    20.036361    20.857654    8467.4885     1058.827    963.27193    747.99292    311.40814    105.57162    354.37646   -4346.6175 
11248000    199.95607   -4829.6146   -4443.9825   -4829.6146            0    684.93156    20.099512    20.123782     21.04623     8512.741    1569.2117   -270.80072    756.38372    169.16316   -416.88616    209.35524   -4358.9485 
11249000    187.22579    -4839.381   -4478.3003    -4839.381            0    712.77311    20.074273    20.028734     21.04464     8461.256    1176.3313     115.1816    846.80646   -347.72577    790.53716     320.4158    -4390.345 
11250000    210.74243   -4831.9143   -4425.4798   -4831.9143            0    1160.4578    20.186945    20.134138    20.802741    8455.2057    208.19699    1495.8995    1777.2768    -149.0932   -189.35125    -753.9361   -4282.3832 
Loop time of 370.948 on 64 procs for 250000 steps with 972 atoms

Performance: 116.458 ns/day, 0.206 hours/ns, 673.948 timesteps/s
195.6% CPU use with 32 MPI tasks x 2 OpenMP threads

MPI task timing breakdown:
Section |  min time  |  avg time  |  max time  |%varavg| %total
---------------------------------------------------------------
Pair    | 28.122     | 35.607     | 45.397     |  70.6 |  9.60
Bond    | 0.98573    | 1.3154     | 2.0292     |  21.6 |  0.35
Kspace  | 165.71     | 177.52     | 187.8      |  38.3 | 47.86
Neigh   | 1.5362     | 1.6475     | 1.9231     |   8.5 |  0.44
Comm    | 62.665     | 69.691     | 73.775     |  32.3 | 18.79
Output  | 0.65825    | 0.65863    | 0.66023    |   0.0 |  0.18
Modify  | 68.333     | 71.198     | 74.323     |  17.8 | 19.19
Other   |            | 13.31      |            |       |  3.59

Nlocal:        30.3750 ave          35 max          26 min
Histogram: 1 3 8 2 3 4 2 4 2 3
Nghost:        2559.88 ave        2599 max        2526 min
Histogram: 2 4 1 9 5 1 1 4 2 3
Neighs:        9326.56 ave       11427 max        7752 min
Histogram: 6 6 2 1 4 1 5 3 1 3

Total # of neighbors = 298450
Ave neighs/atom = 307.04733
Ave special neighs/atom = 2.0000000
Neighbor list builds = 4956
Dangerous builds = 0

unfix		3
unfix		2
unfix		1

write_data	data.final.${pid}
write_data	data.final.1
System init for write_data ...
PPPM initialization ...
  extracting TIP4P info from pair style
  using 12-bit tables for long-range coulomb (../kspace.cpp:340)
  G vector (1/distance) = 0.37193003
  grid = 24 24 25
  stencil order = 5
  estimated absolute RMS force accuracy = 0.0034675764
  estimated relative force accuracy = 1.0442503e-05
  using double precision FFTW3
  3d grid and FFT values/proc = 3458 576
Last active /omp style is kspace_style pppm/tip4p/omp
WARNING: Not all mixed pair coeffs generated from mixing. Use write_data with 'pair ij' option to store all pair coeffs. (../write_data.cpp:312)

write_restart   restart.lmp.${pid}
write_restart   restart.lmp.1
System init for write_restart ...
PPPM initialization ...
  extracting TIP4P info from pair style
  using 12-bit tables for long-range coulomb (../kspace.cpp:340)
  G vector (1/distance) = 0.37193003
  grid = 24 24 25
  stencil order = 5
  estimated absolute RMS force accuracy = 0.0034675764
  estimated relative force accuracy = 1.0442503e-05
  using double precision FFTW3
  3d grid and FFT values/proc = 3458 576
Last active /omp style is kspace_style pppm/tip4p/omp
Total wall time: 0:06:11
