LAMMPS (30 Jul 2021)
  using 1 OpenMP thread(s) per MPI task
package omp 0
using multi-threaded neighbor list subroutines
echo both

include		in.partitions
variable        pid world 0
include		in.temp
variable        temperature equal 283.45
variable	tempDamp equal 100.0
include		in.pressure
variable        pressure equal 11500.0
variable        pressureDamp equal 1000.0 # This is 1 ps
include		in.seed
variable        seed world 745823

units		real
atom_style	full
read_restart	restart.lmp.${pid}
read_restart	restart.lmp.0
Reading restart file ...
  restart file = 30 Jul 2021, LAMMPS = 30 Jul 2021
  restoring atom style full from restart
  orthogonal box = (-0.11140286 -0.12893771 -0.025975284) to (24.841404 24.858939 22.835975)
  4 by 4 by 4 MPI processor grid
  restoring pair style lj/cut/tip4p/long/omp from restart
  restoring bond style harmonic/omp from restart
  restoring angle style harmonic/omp from restart
  1920 atoms
  1280 bonds
  640 angles
Finding 1-2 1-3 1-4 neighbors ...
  special bond factors lj:    0        0        0       
  special bond factors coul:  0        0        0       
     2 = max # of 1-2 neighbors
     1 = max # of 1-3 neighbors
     1 = max # of 1-4 neighbors
     2 = max # of special neighbors
  special bonds CPU = 1.769 seconds
  read_restart CPU = 2.212 seconds
include 	in.setup
variable	out_freq equal 1000
variable	out_freq2 equal 10000
variable	out_freq3 equal 1000

timestep	2.0

neigh_modify    delay 7 every 1

include		in.tip4p
# This is TIP4P/Ice

# create groups ###
group ox type 2
640 atoms in group ox
group hy type 1
1280 atoms in group hy

# set charges - beside manually ###
set group ox charge -1.1794
Setting atom values ...
  640 settings made for charge
set group hy charge 0.5897
Setting atom values ...
  1280 settings made for charge

# ### TIP3P Potential Parameters ###
pair_style lj/cut/tip4p/long/omp 2 1 1 1 0.1577 8.5
pair_coeff 1 1*2 0.000 0.000
pair_coeff 2 2 0.21084 3.1668
bond_style  harmonic
bond_coeff  1 450 0.9572
angle_style harmonic
angle_coeff 1 55 104.52
kspace_style pppm/tip4p/omp 1.0e-5
pair_modify tail yes

thermo          ${out_freq}
thermo          1000
thermo_style    custom step temp pe etotal epair emol press lx ly lz vol pxx pyy pzz pxy pxz pyz enthalpy

restart 	${out_freq3} restart.lmp.${pid} restart2.lmp.${pid}
restart 	1000 restart.lmp.${pid} restart2.lmp.${pid}
restart 	1000 restart.lmp.0 restart2.lmp.${pid}
restart 	1000 restart.lmp.0 restart2.lmp.0


include         in.dump
dump            myDump all atom ${out_freq2} dump.water.${pid}
dump            myDump all atom 10000 dump.water.${pid}
dump            myDump all atom 10000 dump.water.0
dump            myDump2 all dcd ${out_freq2} dump.dcd
dump            myDump2 all dcd 10000 dump.dcd
dump_modify     myDump append yes
dump_modify     myDump2 append yes


variable natoms 	equal  "count(all)"                        # NUMBER ATOMS
variable H      	equal  "enthalpy/v_natoms"                 # ENTHALPY-per-atom
variable Vol      	equal  "vol/v_natoms"                 # volume-per-atom
fix AVG all 		ave/time ${out_freq} 1 ${out_freq} v_Vol v_H file vol_enthalpy.dat
fix AVG all 		ave/time 1000 1 ${out_freq} v_Vol v_H file vol_enthalpy.dat
fix AVG all 		ave/time 1000 1 1000 v_Vol v_H file vol_enthalpy.dat




fix 		1 all shake 1e-6 200 0 b 1 a 1
       0 = # of size 2 clusters
       0 = # of size 3 clusters
       0 = # of size 4 clusters
     640 = # of frozen angles
  find clusters CPU = 1.210 seconds
fix             2 all nph aniso ${pressure} ${pressure} ${pressureDamp}
fix             2 all nph aniso 11500 ${pressure} ${pressureDamp}
fix             2 all nph aniso 11500 11500 ${pressureDamp}
fix             2 all nph aniso 11500 11500 1000
fix             3 all temp/csvr ${temperature} ${temperature} ${tempDamp} ${seed}
fix             3 all temp/csvr 283.45 ${temperature} ${tempDamp} ${seed}
fix             3 all temp/csvr 283.45 283.45 ${tempDamp} ${seed}
fix             3 all temp/csvr 283.45 283.45 100 ${seed}
fix             3 all temp/csvr 283.45 283.45 100 745823


run             250000
PPPM initialization ...
  extracting TIP4P info from pair style
  using 12-bit tables for long-range coulomb (../kspace.cpp:340)
  G vector (1/distance) = 0.37445962
  grid = 30 30 30
  stencil order = 5
  estimated absolute RMS force accuracy = 0.0032742036
  estimated relative force accuracy = 9.8601668e-06
  using double precision FFTW3
  3d grid and FFT values/proc = 3600 512
Last active /omp style is kspace_style pppm/tip4p/omp
Neighbor list info ...
  update every 1 steps, delay 7 steps, check yes
  max neighbors/atom: 2000, page size: 100000
  master list distance cutoff = 10.8154
  ghost atom cutoff = 10.8154
  binsize = 5.4077, bins = 5 5 5
  1 neighbor lists, perpetual/occasional/extra = 1 0 0
  (1) pair lj/cut/tip4p/long/omp, perpetual
      attributes: half, newton on, omp
      pair build: half/bin/newton/omp
      stencil: half/bin/3d
      bin: standard
Per MPI rank memory allocation (min/avg/max) = 9.331 | 9.339 | 9.345 Mbytes
Step Temp PotEng TotEng E_pair E_mol Press Lx Ly Lz Volume Pxx Pyy Pzz Pxy Pxz Pyz Enthalpy 
 6250000    286.39817   -8992.6979   -7900.8175   -8992.6979            0    11144.719    24.952807    24.987876    22.861951     14254.83    9762.2662    12270.586    11401.305   -306.82558   -428.69565    270.20429   -5583.9188 
 6251000    283.67376   -9033.8253   -7952.3316   -9033.8253            0    10467.901    24.907683    24.892107    23.015595    14269.777    10588.538     10930.44    9884.7235   -379.30361   -1054.2817    109.94944   -5773.8561 
 6252000    280.17157   -9011.7915   -7943.6497   -9011.7915            0    10724.711    24.898638    24.958839    22.979973      14280.7    11017.759     9292.892    11863.481    787.86267   -740.74995   -700.91583    -5710.021 
 6253000    283.19491   -9002.6446   -7922.9765   -9002.6446            0     11838.37     24.85038    25.062568    22.840724     14225.53      12923.8    10752.357    11838.952   -345.22162    340.63167   -858.09486   -5466.9319 
 6254000    274.43695   -9021.3828    -7975.104   -9021.3828            0    11185.257    24.848544    24.951158    22.955477    14232.395    12618.695    10653.294    10283.781   -590.68802    310.41404   -613.23245   -5653.4376 
 6255000     277.9205   -8970.7799   -7911.2202   -8970.7799            0     10835.89    24.939051    24.899197    22.996513    14279.968    11986.064    10806.214    9715.3926    145.78537   -471.46549   -393.70168   -5654.5519 
 6256000    286.72459   -8985.5976   -7892.4727   -8985.5976            0    11263.647    24.987448    24.965852    22.883091    14275.225     11652.78    11381.692    10756.469    45.926255   -556.43264   -714.06333   -5547.4995 
 6257000    277.47368   -9013.5087   -7955.6525   -9013.5087            0    9657.4583    24.956291    24.796685    23.136028    14317.345    8431.5248    11478.699    9062.1509   -101.40077    -263.5791     -477.697   -5939.1386 
 6258000    285.34082   -9054.4125   -7966.5631   -9054.4125            0    10575.469    25.001946    24.968427     22.87698    14281.167    10550.282    11281.705    9894.4207   -193.88994   -1635.6471    761.70656   -5763.9449 
 6259000    285.92925   -8973.9026   -7883.8099   -8973.9026            0    11599.687    24.946756    24.862779    22.964259    14243.482     11836.34    11168.551    11794.168   -460.92577    696.17613    411.05582   -5474.2466 
 6260000    288.16676   -9009.4746   -7910.8515   -9009.4746            0    12119.066    24.934042    24.919876    22.862142    14205.466    11817.751    13049.962    11489.485   -57.104647   -1117.0184   -606.00183   -5400.1185 
 6261000    278.98676   -9000.8553   -7937.2305   -9000.8553            0    12160.443    24.808367    24.801622    23.088924    14206.331    12437.249    12730.141    11313.938   -638.00225   -325.99773    213.80908   -5417.7719 
 6262000    289.60469   -8981.6057   -7877.5005   -8981.6057            0     11743.67    24.912567    24.966482    22.921147    14256.475    11642.128    12783.866    10805.017   -680.82658   -1227.3847   -86.511753   -5435.8027 
 6263000    295.27618   -9028.1207   -7902.3932   -9028.1207            0    11502.151    24.698511     25.02746    23.057779    14252.959     13778.89     10371.34    10356.223   -496.75257   -128.95141    -731.5708   -5511.5011 
 6264000    281.21695   -9055.1063   -7982.9791   -9055.1063            0     11375.22    24.900551    24.882357    22.926457    14204.875    11494.004    11184.516     11447.14    746.77888    -650.5063    616.09675   -5626.4483 
 6265000    280.59272   -8995.8572   -7926.1097   -8995.8572            0    11914.717    25.114548     24.90162    22.753494    14229.874    10953.464     11925.23    12865.456   -1394.2208   -169.57437    1706.8418    -5453.471 
 6266000    287.11598   -9003.3049   -7908.6879   -9003.3049            0    12217.218    24.888566    24.790326    23.046446    14219.557    12556.334    12701.057    11394.263    17.397851   -995.84837    301.83751   -5375.1099 
 6267000    281.50098   -8980.7072   -7907.4971   -8980.7072            0     12049.46    24.987718    24.966419    22.775778    14208.757    11535.011    12900.446    11712.924   -626.66178    409.44644   -304.29361   -5410.6061 
 6268000    280.54204   -9038.6146   -7969.0604   -9038.6146            0    11151.043    24.912094    24.921806    22.931067    14236.853    11559.814    11761.039    10132.276    210.45233    176.80543   -797.74395   -5653.7706 
 6269000    281.08465   -9014.6004   -7942.9775   -9014.6004            0     11466.53    24.799603      25.0015    22.899911     14198.57    12968.192     10496.03    10935.368   -298.94352    14.901836   -732.26089   -5568.5851 
 6270000     284.9854   -9041.4606   -7954.9663   -9041.4606            0    11612.044    24.914964    24.975018    22.856372    14222.416    11601.312    11082.868    12151.952    416.82912   -1110.3406    96.205642   -5546.4037 
 6271000    280.96689   -9025.0443   -7953.8704   -9025.0443            0    11862.766     24.76521    24.910791    23.051019    14220.657    11983.782    12188.816    11415.701    247.23636   -87.863981    919.83024   -5493.6075 
 6272000    287.65393   -8998.3799    -7901.712   -8998.3799            0    10917.081    25.046263    24.978685    22.818056    14275.494    9808.2018    11628.687    11314.354    242.18115    679.47263    451.98217   -5628.8474 
 6273000    281.04463   -9052.4568   -7980.9865   -9052.4568            0    11801.533    24.916348    24.864426    22.915403    14196.795     11699.26    11962.738    11742.602    194.90254   -670.08591   -378.63722   -5537.5298 
 6274000    287.48615   -8952.9844   -7856.9561   -8952.9844            0    11568.046    25.057073    24.919648    22.927658    14316.338    10641.477    12615.188    11447.472    431.29092   -110.68622    1015.7146   -5441.6742 
 6275000     288.4943   -9029.4644   -7929.5926   -9029.4644            0    10531.741    24.981413    24.945064    22.924874    14285.932    10776.468     9439.456    11379.299   -323.80894   -854.00981     77.63723     -5735.35 
 6276000    290.86448   -9016.7586   -7907.8505   -9016.7586            0    9616.9139    24.951546    24.967553    23.013669    14337.033    9930.8256    9968.3974    8951.5186   -334.97382   -630.28568   -340.92105   -5897.0411 
 6277000    281.01314   -9005.8585   -7934.5082   -9005.8585            0    10062.498    24.930352    24.991332    22.961863    14306.221    9670.0442    10046.612    10470.836   -473.23247     1165.338    703.84733    -5835.053 
 6278000    278.57218    -9017.955   -7955.9108    -9017.955            0    10094.352     24.82383    25.163533    22.888252    14297.267    11404.468    8825.7254    10052.863    284.89967   -1303.4727   -1106.8182   -5851.1277 
 6279000    279.65022   -9030.1358   -7963.9816   -9030.1358            0    10204.524    24.932004    24.956675    22.949599    14279.698     9628.038    9982.4066    11003.126    312.45136   -504.22906   -442.37963   -5838.8412 
 6280000    285.66228   -8985.0619    -7895.987   -8985.0619            0    10726.541    24.994315    24.892589    22.962337    14286.551    9634.5512     11986.51    10558.561    -866.4515    890.04193    1483.7347    -5661.062 
 6281000    286.81135   -8966.6304   -7873.1748   -8966.6304            0    11147.143     24.99574    24.944586    22.908613    14283.712    11945.782    10347.605     11148.04   -228.08452   -714.24687    273.95808   -5551.0769 
 6282000    281.84611   -8984.3362   -7909.8103   -8984.3362            0    10233.994    24.836402    25.027728    23.060277    14334.238    11100.218    9582.6189    10019.146    30.689535   -702.55978    -275.0253   -5770.3922 
 6283000    282.81304   -9004.2208   -7926.0085   -9004.2208            0    9681.1737    24.908295    25.097445    22.927062    14332.499      10296.8    7698.6502    11048.071    887.07372    -692.3814   -1209.4596   -5902.4031 
 6284000    284.59501   -9071.1785   -7986.1726   -9071.1785            0    10132.439    24.833071    25.085063    22.912399     14273.03    10871.415    9238.7556    10287.146   -62.983881    1067.6458   -294.92051   -5877.0293 
 6285000    271.49246   -9039.7773   -8004.7242   -9039.7773            0    11298.812    24.891383    25.060128    22.866433    14263.652    10311.177    11275.528    12309.732    935.03675   -84.363842   -1390.8794   -5654.3369 
 6286000    284.78378   -9027.9818   -7942.2562   -9027.9818            0    12437.578    24.864613    24.878056    22.981251    14215.816    14395.342     12602.79    10314.602    -1411.113    565.86447    212.91697    -5363.659 
 6287000    287.24427   -9024.8427   -7929.7365   -9024.8427            0    12210.349    24.987469    24.936907    22.754655    14178.657    12147.689    11344.597     13138.76    14.686229    -832.7909   -238.37033   -5404.8664 
 6288000    285.69226   -8988.3477   -7899.1585   -8988.3477            0    13262.308    24.888313    24.945108    22.835483    14177.218     12855.66    13152.463    13778.803    865.51918    590.15571   -531.80452   -5157.0411 
 6289000    287.37144   -9064.9772   -7969.3863   -9064.9772            0    9948.7079    24.898575    24.819197    23.075217    14259.622    9427.4634    10543.822    9874.8377    343.46289   -131.54683   -378.44333   -5900.4335 
 6290000    275.83992   -9001.7292   -7950.1016   -9001.7292            0    12538.278    24.985177    24.876934    22.843883     14198.72    12023.095    13168.599     12423.14   -756.37075   -974.30542    394.75853   -5353.7531 
 6291000    276.97217   -9026.6228   -7970.6786   -9026.6228            0    12830.807    24.801911    24.803535    23.004852    14152.011    12381.881     13523.24    12587.301    163.30339    183.02455     982.7713   -5322.4953 
 6292000    282.95687   -9018.8386    -7940.078   -9018.8386            0    10446.253    24.985172     24.96483    22.870343     14265.39    9755.4176    11027.651     10555.69   -226.14475  -0.62630346   -900.56543    -5766.776 
 6293000    289.51188   -9015.5774   -7911.8261   -9015.5774            0     11132.91    24.754418    24.970965    23.061893    14255.518    12373.219    10601.184    10424.329    527.70318   -1476.3436   -156.67765   -5597.2706 
 6294000    282.31956   -9018.7373   -7942.4064   -9018.7373            0    11769.385     24.84547     25.01411    22.886697    14223.792    12092.693    11012.716    12202.746    209.28167   -251.20929    235.18597   -5500.9721 
 6295000    272.99229   -9060.4377   -8019.6666   -9060.4377            0    10473.997    24.980447    24.986627    22.843742     14258.54    10508.995    9122.3066    11790.689   -120.75305    -137.3609    254.46397   -5841.6389 
 6296000    292.83204   -9000.4908   -7884.0815   -9000.4908            0    11501.087    24.881166    24.829806    23.024427    14224.365    11264.574    12749.506    10489.182     207.6574    311.66491   -514.18119   -5498.2065 
 6297000    283.22666   -9040.6522    -7960.863   -9040.6522            0    12095.624    25.037695    24.877353    22.755845    14173.969    11301.589    11775.865    13209.419   -950.39031    267.85365   -172.71583   -5460.5426 
 6298000    283.65561   -9026.6726    -7945.248   -9026.6726            0    11562.654    24.963021    24.943572    22.841306    14222.525    12002.484    10361.362    12324.116    522.68412   -223.79673   -452.19936   -5546.9114 
 6299000    288.59324   -9006.4358   -7906.1868   -9006.4358            0     10499.11    24.868859    24.842718    23.095757    14268.791    10932.008     11118.23    9447.0929   -197.46158    490.77007   -35.338626   -5721.3674 
 6300000    291.89286    -9005.944   -7893.1153    -9005.944            0    12191.802    24.961645    24.987913    22.771824    14203.683    13788.131    10689.115    12098.161   -203.47724   -1420.9456    837.29472   -5367.6303 
 6301000    284.65582   -9005.4463   -7920.2085   -9005.4463            0    10984.255    24.960022    24.991131    22.809408    14228.034    10826.776    10515.659    11610.331   -230.36336   -830.00274    1472.0437   -5640.9615 
 6302000    284.15206   -9021.0512    -7937.734   -9021.0512            0    11343.129    24.887496    24.880523    23.025165    14257.503    10793.402    11665.773    11570.211   -195.77359     915.3805   -519.27499   -5579.1453 
 6303000    283.55869   -9030.4611   -7949.4061   -9030.4611            0     10163.72    24.964724    24.915542    22.991971    14301.228    10186.544    10485.359    9819.2554   -138.06233   -567.39703    558.08132    -5829.572 
 6304000     280.0031   -8986.3934   -7918.8939   -8986.3934            0    10004.182    24.984534    24.998406    22.923358    14317.322    9871.0276    9191.7256    10949.792   -580.79183   -915.98411    303.89987   -5829.9862 
 6305000    301.28019   -9060.3352   -7911.7177   -9060.3352            0    9204.0119    24.862402    25.047926    23.018839    14335.019    9912.6456    9363.3279    8336.0623   -878.35937   -284.89455    106.48551   -5987.5127 
 6306000    280.64456   -8974.5411    -7904.596   -8974.5411            0    11577.163    24.852419    25.082215    22.894935    14271.643    11737.379    11040.753    11953.359   -133.45747   -989.16657     269.6573   -5494.9569 
 6307000     285.4142   -9019.2025   -7931.0734   -9019.2025            0    10835.099    24.919243    24.966406    22.903983    14249.574    10620.324    11072.782    10812.191    549.61342    105.91438   -491.58423   -5679.3727 
 6308000    285.71554   -9038.8539   -7949.5759   -9038.8539            0    11925.811    24.777216    24.876957    23.028318    14194.235    13606.559    10963.422    11207.452   -91.760906    975.85708    1569.7591   -5480.8334 
 6309000    282.70377   -9007.0284   -7929.2327   -9007.0284            0    11377.159    24.855484    25.017542    22.903245    14241.767    11524.964    10966.171    11640.342   -716.96885   -142.84808   -394.28117   -5566.1789 
 6310000    265.17229   -9004.5757    -7993.618   -9004.5757            0    10669.336    24.886757    25.080604    22.891115    14288.059    10801.746    8660.2023     12546.06    95.042566    56.908991     327.4729   -5770.3771 
 6311000     279.7757   -9015.8427   -7949.2101   -9015.8427            0    11284.704    24.906477    25.048243    22.836127    14246.626    11907.193    9733.9346    12212.984    437.86371   -623.34119    545.68109   -5604.5598 
 6312000    283.28005   -9002.7304   -7922.7376   -9002.7304            0    11260.571    24.848234    24.906341     23.00363    14236.453    10858.809    12888.782     10034.12   -795.16041     111.1342    406.66071   -5584.7721 
 6313000    292.02827   -8986.4454   -7873.1004   -8986.4454            0    11433.444    24.976794    24.987863    22.869064    14272.964    12377.016     10968.91    10954.406    440.54536     151.3976   -561.93359   -5493.1543 
 6314000    289.15932    -9019.593   -7917.1858    -9019.593            0    11616.084    24.841631    24.927142    22.998417    14241.329    12541.247    11842.859    10464.146    263.72149    90.905473    771.99041   -5504.5811 
 6315000     284.3773   -9075.1689    -7990.993   -9075.1689            0    10590.157    25.007927    24.854971    22.934729    14255.569    10067.897    10999.151    10703.423    720.38408   -107.31223    -1604.891    -5789.269 
 6316000    282.57205   -8934.9651   -7857.6716   -8934.9651            0    11886.578    25.035269    24.904403    22.919814    14290.239    10424.509    13061.148    12174.078   -854.89216   -286.56906   -1108.8568   -5380.4079 
 6317000    282.12707   -9048.8403   -7973.2433   -9048.8403            0    12010.912    24.804246    24.789503    23.074494    14188.158    13902.288    12135.045    9995.4022    152.46679   -715.83034     637.7789   -5487.9486 
 6318000    277.12589   -9016.6022   -7960.0719   -9016.6022            0    11885.529    24.919627    24.946356    22.824297    14188.814    11693.277     11824.37     12138.94   -93.434547    672.43676    200.59418   -5500.6078 
 6319000    290.70155   -9064.9065   -7956.6196   -9064.9065            0    12874.351    24.933932    24.797983    22.886638    14151.065    12657.829     13582.79    12382.436    -352.2003   -129.38748    32.030127   -5299.6268 
 6320000    279.11465   -9013.8073   -7949.6949   -9013.8073            0    11925.377    24.912064    24.824035    22.952634    14194.321     12443.34     11157.38    12175.413    67.949566     213.2323    1154.2146   -5481.0272 
 6321000    288.76242   -9019.2421   -7918.3481   -9019.2421            0    11811.778    25.039644    24.910631    22.801523    14222.526    10971.842    12399.069    12064.424    57.740265   -360.85723    1298.9355   -5468.3378 
 6322000    296.33759   -9017.1476   -7887.3736   -9017.1476            0    11616.057    24.934092    24.740247    23.086233    14241.334    11529.374    12844.718    10474.079     54.98923    265.31832   -419.49915   -5474.7737 
 6323000     271.7482   -9047.0628   -8011.0347   -9047.0628            0    11858.362    24.997672    24.882974    22.818483    14193.471    11117.784    12458.113    11999.188   -99.987101   -327.59166   -237.68912   -5556.3869 
 6324000    285.31972   -8997.6572   -7909.8883   -8997.6572            0    11108.752    24.922486    24.808987    23.022784    14235.025     10311.14    11603.161    11411.955   -1258.8536    398.06215   -133.26449   -5603.6755 
 6325000    293.23014   -9011.0846   -7893.1576   -9011.0846            0    11083.255    24.973218    24.962845    22.863763    14253.328    8574.6321    12818.096    11857.037   -332.57152    -4.150857     308.3823   -5589.2795 
 6326000    290.68482   -9027.8437   -7919.6206   -9027.8437            0    12260.597     24.94953     24.89773    22.834313    14184.371    12636.981    11759.849    12384.959   -416.83835    534.41795    627.33161   -5383.3385 
 6327000    284.66534   -9056.6101    -7971.336   -9056.6101            0    11914.358    24.736005    24.816422     23.07112    14162.418    12348.487    13219.356    10175.232   -34.635658    285.67025    75.385537   -5510.4927 
 6328000     283.6364   -8965.7015   -7884.3502   -8965.7015            0    11892.035    25.040233    24.921764    22.807427    14232.902    11717.214    10782.616    13176.275    310.59728   -426.42046    1332.9965   -5415.8935 
 6329000    276.20885   -8997.0339   -7943.9998   -8997.0339            0     12788.71    24.853285    24.905745    22.927094    14191.633    12569.207    13268.671    12528.252   -8.5938413    265.64807    1077.3466   -5297.1153 
 6330000    276.52172   -8983.5883   -7929.3614   -8983.5883            0    10946.888    24.870626    24.915092    23.084462    14304.378    10831.114    11187.415    10822.136     1068.668    411.73305   -347.42077   -5645.6799 
 6331000    278.11073   -8957.5503   -7897.2654   -8957.5503            0    10095.821    24.942929    25.174101    22.791165    14310.933    10545.377      9174.28    10567.807   -1230.7576   -897.38744    1205.4025   -5790.1637 
 6332000    287.15389    -9042.285   -7947.5234    -9042.285            0    11596.458    24.936229    24.896097    22.940909    14242.055    11773.983    11226.654    11788.736   -478.94731    120.50506    134.28621   -5538.8723 
 6333000    274.14721   -9026.6754   -7981.5012   -9026.6754            0    11523.317    25.045294    24.725257    22.987099    14234.792        10215    13110.944    11244.008    638.95277     354.0475    161.85869   -5589.2624 
 6334000    297.67055   -9008.7527   -7873.8968   -9008.7527            0    10898.351      25.0487    24.929409    22.853137    14270.625    11194.138    9358.9078    12142.007    848.92758    607.53109    1046.4405   -5605.7057 
 6335000    277.68407   -8993.6715   -7935.0131   -8993.6715            0    11794.624    24.897751    24.833387    23.072045    14265.341    12684.821    10344.436    12354.615   -390.08002    489.62385   -474.48648   -5481.1962 
 6336000    281.49539   -8984.6872   -7911.4984   -8984.6872            0    12739.996    24.825822    25.025131    22.851834    14197.147    14451.343    11250.548    12518.097    283.38322    159.54403    393.64083   -5273.6717 
 6337000    284.72926    -9000.945   -7915.4272    -9000.945            0    13678.357    24.852247    24.877544    22.819641    14108.537    14018.008    14695.812    12321.252   -42.153536    1077.1221   -402.79887   -5100.9884 
 6338000    286.69396   -8970.6028   -7877.5946   -8970.6028            0    13174.217    24.890235    24.888175    22.916309    14196.024    13910.671    13408.707    12203.272   -19.686893    1182.4183   -573.01829   -5150.0779 
 6339000    272.68261   -9019.6714   -7980.0809   -9019.6714            0    14429.705    24.853119    24.741029    22.906048     14084.74    13160.765    15608.846    14519.503    9.4355329    -375.9891    528.87726   -5016.0538 
 6340000    285.69916   -8999.8927   -7910.6773   -8999.8927            0    12729.262    24.933154    24.850827    22.903527    14191.243    12442.212    13769.272    11976.303   -1042.4104    617.07033    -730.8775    -5276.169 
 6341000    277.14001   -9022.0302   -7965.4461   -9022.0302            0    12089.614    24.946017    24.893462    22.813877    14167.252    12240.026    11859.095    12169.722    951.39063   -359.83713    273.23624   -5467.5524 
 6342000    288.02332   -9020.1693    -7922.093   -9020.1693            0    12554.713    24.773808    24.767024    23.144405    14200.794    12820.203    13209.109    11634.826    152.89938   -988.67727   -322.22858   -5321.9616 
 6343000    289.16127    -9020.626   -7918.2114    -9020.626            0    11317.932    24.889031    24.989707    22.876887    14228.728    11000.578    11842.571    11110.646   -645.65424   -23.090699    155.97539   -5569.6115 
 6344000    280.87574   -9010.0254    -7939.199   -9010.0254            0    11597.907    24.956714    24.802858    22.969179    14217.872    11187.854    13138.623    10467.244    477.70368   -586.40301   -162.26684   -5534.3372 
 6345000    270.84599   -9029.1786   -7996.5902   -9029.1786            0    12487.671    24.965487    24.819672    22.858993    14164.237    11743.027     12524.63    13195.355     681.4498    1062.7003   -441.82534   -5417.0013 
 6346000    279.41517   -9000.3384   -7935.0804   -9000.3384            0    10319.759     24.84557    24.925787    23.085282    14296.609    10212.016     10975.57    9771.6905   -476.66139    -1559.022    1057.9767   -5783.3965 
 6347000    287.31353   -9014.4244   -7919.0542   -9014.4244            0    11667.871    24.910596    24.938907    22.927796    14243.734    11991.171    10748.586    12263.855   -532.39255    337.48499    1211.1015   -5495.2846 
 6348000    269.41461   -9032.1349   -8005.0035   -9032.1349            0    11225.048    24.927903    24.932392    22.891224    14227.177    11396.275     10418.58     11860.29   -383.97412    100.40397   -283.15222    -5675.932 
 6349000    285.27166   -9011.7782   -7924.1925   -9011.7782            0    10410.692    24.866509    24.898299    23.115249    14311.431    10595.225    11286.184    9350.6685    46.067409    647.14638    -296.7938   -5751.2983 
 6350000    281.89728   -9055.3411   -7980.6201   -9055.3411            0    10807.106    24.961669    24.950169    22.865609    14240.652    10321.152    10871.008    11229.159   -420.53465   -784.14331   -460.13386    -5736.143 
 6351000    279.13039   -9003.1561   -7938.9838   -9003.1561            0    12764.295    24.928361    24.926851    22.838835    14191.721    13369.879    12048.713    12874.292    979.46697    -1018.551   -132.22982    -5297.136 
 6352000    282.71468   -8973.1277   -7895.2904   -8973.1277            0    11505.265    24.872577    24.890836    22.997333    14237.631    11453.472    12075.126    10987.198   -145.70857    -451.5923      1531.63   -5506.3229 
 6353000    282.44097   -9007.9378    -7931.144   -9007.9378            0    10007.373    24.953247    25.050152    22.862306     14290.83    10610.077    9844.3369    9567.7051   -120.91397   -1.7674808   -193.73353   -5845.4364 
 6354000    281.04753   -9024.0332   -7952.5519   -9024.0332            0    9638.2572    24.946769    25.122109    22.843515    14316.384    10155.227    8133.4581    10626.086   -336.51897   -287.01821   -106.35567   -5940.1824 
 6355000    285.87685   -9012.3233   -7922.4303   -9012.3233            0    11728.926    24.847875    24.913094     22.99726    14236.166    13111.134    11125.782    10949.861   -1223.8421    326.67111   -1540.3036   -5487.2722 
 6356000    283.97943    -9039.091   -7956.4319    -9039.091            0    11382.711    24.904879    24.896486    22.912295     14206.63    12104.236     11635.73    10408.168   -891.41749    712.59348   -201.03623   -5598.0578 
 6357000     285.7822   -9021.1185   -7931.5864   -9021.1185            0    12245.832    24.955463    25.002015    22.786785    14217.515    12065.085    10734.798    13937.614   -77.184395    1052.0864    -293.6561   -5392.4392 
 6358000    291.02464   -9039.1989   -7929.6803   -9039.1989            0     12034.55    24.757968    24.836112    23.061273    14180.185    11982.106     13805.93    10315.615   -941.61266    575.80098   -123.95403   -5440.8938 
 6359000    277.62503    -8997.617   -7939.1838    -8997.617            0    12486.921    25.077882     24.97115    22.638213    14176.582      10517.1    12904.506    14039.156   -551.50926   -738.66383   -4.2747121   -5357.5017 
 6360000    282.37247   -9040.6319   -7964.0993   -9040.6319            0    10829.969    25.029228    24.846529    22.906496    14245.308    10097.101    12040.636    10352.169    414.53145   -177.64616    542.63493   -5714.1385 
 6361000    284.16655   -9012.4956   -7929.1231   -9012.4956            0    11843.296    24.850208     24.85815    22.998369    14206.787    11535.599    12149.005    11845.284   -119.96688    240.23267    1275.8563   -5475.2938 
 6362000    287.02969   -9024.1993   -7929.9113   -9024.1993            0    10517.834    25.070736    24.969677    22.764886    14251.005       9314.7    10820.505    11418.297   -70.536854   -146.35864   -961.67914   -5743.9237 
 6363000    275.62644   -8991.5505   -7940.7368   -8991.5505            0    10383.988    24.826199    24.878519    23.118472    14278.872    10991.631    9789.0747     10371.26    326.91355   -234.48723    569.29006    -5778.347 
 6364000    294.05246   -8984.0679   -7863.0058   -8984.0679            0    11700.959    24.973102    24.988844    22.816448    14238.581    11647.882    11482.517    11972.478   -336.81948    105.98069    369.36036   -5433.2421 
 6365000    292.38162   -8979.7873   -7865.0952   -8979.7873            0    12102.096    24.732452    24.846664    23.166145    14236.034    13439.128    12099.411     10767.75   -752.20405    251.47739   -501.36132   -5352.4826 
 6366000     280.9532   -9021.7474   -7950.6257   -9021.7474            0    12752.356    24.904916    24.860741    22.884498    14169.044    12442.683    12733.705    13080.679    1031.2711    291.11644    1750.1171   -5315.4665 
 6367000    279.85316   -9060.4446   -7993.5168   -9060.4446            0     11339.93    24.975156    24.924685    22.821198    14206.148    10553.497    12019.801    11446.492    31.352673    386.27296    -825.0886   -5644.0864 
 6368000    276.68174   -9045.1457   -7990.3087   -9045.1457            0    11532.191    24.707718    24.854294    23.165461    14225.745      13395.6    12033.009    9167.9639   -1139.1875    1504.9915   -175.44263   -5597.7493 
 6369000    286.65852   -9026.2759   -7933.4028   -9026.2759            0    10600.087    24.989124    24.967094    22.845549    14253.471    9651.0275    10558.802    11590.433   -422.66325    305.01404    78.478208   -5729.9388 
 6370000    280.89205   -9017.7543   -7946.8657   -9017.7543            0    11030.538    24.915029    24.901957    22.988864    14263.049    11645.095    10547.545    10898.973    510.64029    439.68543    884.45265   -5652.3821 
 6371000    275.60374     -9002.07   -7951.3429     -9002.07            0    12983.987      24.9059    24.852154    22.930218    14193.009    12009.156    13301.913    13640.891   -478.41648   -304.27446   -79.721483   -5263.7813 
 6372000    283.81347   -9006.7926   -7924.7662   -9006.7926            0    10812.122    24.949162     24.88867    23.011963    14289.312    10674.021    11197.266    10565.079   -491.44374   -93.602785    86.311479   -5671.5745 
 6373000     272.8763   -9013.1794   -7972.8505   -9013.1794            0     11461.95    25.034946    24.992961    22.762236    14242.272    10332.703    12365.555    11687.593   -50.780415   -1199.3648    1058.5304   -5592.1011 
 6374000     290.2632   -8997.3676   -7890.7519   -8997.3676            0     11330.55    24.876559    24.892508    22.984311    14232.804    10767.404    11744.889    11479.358   -287.19581    -1379.851    -376.8439     -5538.86 
 6375000    290.22848    -8984.075   -7877.5917    -8984.075            0    12337.006    24.732542    25.052108    22.943455    14215.818    12859.651    12227.123    11924.246   -825.10382   -749.12267    356.81962    -5319.845 
 6376000    285.68048   -9021.8973    -7932.753   -9021.8973            0    12351.401    24.826921    24.999134    22.848623    14181.033    12919.792    12278.599    11855.813    240.30409   -765.11016    59.055626   -5378.2879 
 6377000    289.59384   -9010.4211   -7906.3573   -9010.4211            0    12413.246    24.857026    24.835077    23.008511    14203.755    11882.974     13259.78    12096.985    10.746488   -181.59332   -323.35892   -5334.9881 
 6378000    287.70557   -9035.8181   -7938.9533   -9035.8181            0    12875.362    25.078423    24.844452    22.736073     14165.93     10203.85    14626.132    13796.102   -557.79581   -622.98455   -474.32249   -5278.9607 
 6379000    288.16654   -9006.7706   -7908.1483   -9006.7706            0    11771.864    24.951527     24.81309    22.944338    14205.401    10879.109    12105.075    12331.408   -712.39094    754.35652    624.54561   -5469.3571 
 6380000    277.96455   -9036.1267   -7976.3991   -9036.1267            0    11149.316    25.140429    24.797327    22.840229    14238.951    8915.2664    13075.245    11457.437   -104.79275    580.52258    650.93576   -5661.1265 
 6381000    283.81023   -9059.0277   -7977.0137   -9059.0277            0    11189.732    24.938884    24.855742    22.924663    14210.413    12137.191    10984.818    10447.188    709.10114   -371.55167     237.5696   -5658.0054 
 6382000    285.49035   -9031.6481   -7943.2287   -9031.6481            0    10810.692    24.881157    25.034009    22.914169    14272.666    10540.382    10240.612    11651.081   -1279.3595   -277.58738    654.64138   -5692.9595 
 6383000    276.77355   -9010.7339   -7955.5469   -9010.7339            0    10459.105    24.890783    25.088489    22.868694    14280.861    11085.792    9500.5424     10790.98    385.78635   -373.61217   -338.20222   -5777.2111 
 6384000    270.60905   -9021.4407   -7989.7555   -9021.4407            0    11133.316     24.85102     24.94922    22.971408    14242.585    11710.758    10516.378    11172.811     -697.222   -160.29563   -642.85739   -5677.2157 
 6385000    275.69683   -9052.6223   -8001.5403   -9052.6223            0    10836.908     24.94318    24.940959    22.875823    14231.206    11731.341    10733.613    10045.771   -787.42253    353.80673    569.19458   -5752.3667 
 6386000    279.59959   -8996.3906   -7930.4294   -8996.3906            0    11233.894    24.991216    24.818156    22.978271    14251.948    10375.735    12598.214    10727.734    376.08828   -227.00486    420.64823   -5595.4641 
 6387000    274.73666   -9019.9122   -7972.4907   -9019.9122            0    11147.435    25.002957    24.875623    22.879516    14230.239    10360.128    11424.028    11658.147    32.097884   -1118.4108   -208.46975   -5659.0253 
 6388000    279.48221   -9015.0338   -7949.5202   -9015.0338            0    10164.722    25.023633    24.850763    23.004763    14305.659    10346.703    10820.531    9326.9322   -182.21566    716.61912   -173.52953   -5828.8201 
 6389000    284.21071   -9070.3813   -7986.8405   -9070.3813            0    11527.878    24.984841    24.856238    22.904669    14224.468    11367.456    12110.417    11105.762    241.37358   -54.947336    605.84628   -5595.3906 
 6390000    287.03728   -9032.6921   -7938.3751   -9032.6921            0    10533.121    24.925971    24.988652    22.936655    14286.472    11332.129    9790.3944     10476.84    283.55087   -413.28344    169.12153    -5743.762 
 6391000    280.05485   -9047.2457   -7979.5489   -9047.2457            0    11250.231    24.844517    24.885871    22.994177    14216.781    12207.108    11856.155    9687.4292    123.43668    1084.1575    821.76966   -5646.9579 
 6392000    284.59365   -9075.1539   -7990.1531   -9075.1539            0    11139.409    24.850953    24.987341     22.94988     14250.94    11234.157    9869.0853    12314.983  -0.19808463    702.29841   -523.08818   -5674.9903 
 6393000    282.96244   -9010.8026   -7932.0207   -9010.8026            0    10888.455     24.96681    24.975941    22.835357    14239.433    10825.792    10968.939    10870.633    582.55395   -1029.5612    682.72444   -5670.8422 
 6394000    285.14361   -9023.0598   -7935.9623   -9023.0598            0    11322.669    24.884319    24.743125    23.115416    14232.527    10189.404    13623.195    10155.408    240.28405    39.834506    281.51755    -5585.752 
 6395000    295.66775   -8992.9992   -7865.7789   -8992.9992            0      11873.6    24.866876    24.917197    22.948533    14219.206    13060.256    10636.831    11923.713   -441.11478   -250.71205    1865.3132   -5403.5204 
 6396000    279.05428   -9018.9455   -7955.0633   -9018.9455            0    10084.072    24.978465    25.151356    22.761305    14299.613    9921.3178    9189.4449    11141.453   -524.90218    390.33504   -1087.4813   -5852.0786 
 6397000    277.92735   -9013.2182   -7953.6324   -9013.2182            0    11562.981    24.872946    24.875339    22.982127     14219.57    12508.628    11603.747     10576.57   -1766.4867   -3.0855637   -626.03312   -5555.7263 
 6398000     276.5271   -9033.5008   -7979.2534   -9033.5008            0    11774.329    24.864333    24.952142     22.87385    14191.357    12260.028    11152.477     11910.48   -895.21153    540.85218    685.05666   -5542.3631 
 6399000    280.38052   -8996.5979   -7927.6595   -8996.5979            0    12021.459    24.880164    24.962044    22.902666    14223.924    11340.909    12275.609    12447.859    339.38527     220.2627   -453.13424   -5433.9119 
 6400000     270.0666   -8991.7437   -7962.1266   -8991.7437            0    11128.727    24.990586    24.746598    23.086694     14277.55     9635.723    12896.379     10854.08    1292.6768    408.44327   -1109.3448   -5644.8649 
 6401000    278.30671   -8986.9269   -7925.8948   -8986.9269            0    11878.513     25.00786    24.895221    22.897438      14255.4    10581.496    11856.424    13197.618    81.727435   -37.237195   -384.61342   -5456.3474 
 6402000    284.58837   -9056.0987    -7971.118   -9056.0987            0    10442.134    25.031469    24.842573    22.976854    14288.067    10797.122    11091.996    9437.2831   -175.07827   -973.07692    313.57963   -5795.2196 
 6403000    283.03219   -9001.6048    -7922.557   -9001.6048            0    9743.9304    25.001011    25.010678    22.874135    14303.019    8933.0781    10133.474    10165.239   -303.53793     826.6472    171.23896   -5890.0231 
 6404000    274.67302   -9029.9951   -7982.8163   -9029.9951            0    11133.843    24.918687    24.920624    22.929982    14239.272    9857.6491    11655.447    11888.432   -969.28808    59.495122    1075.2182   -5670.7048 
 6405000     282.4786    -9006.709   -7929.7717    -9006.709            0     11659.18    25.096929     24.93019    22.703065    14204.653    9756.0264     11334.47    13887.045   -609.85116   -548.01157    211.32906   -5514.4524 
 6406000     275.9945    -9092.959   -8040.7421    -9092.959            0    11752.959    24.812385    24.760679    23.078688    14178.888    11911.119    12549.971    10797.786   -732.75618   -562.45258   -37.444691   -5610.4119 
 6407000    273.62761   -8995.0506   -7951.8573   -8995.0506            0    11896.403    25.014512    24.933558    22.836315    14243.028    10686.248    11474.145    13528.816    737.35014   -867.28535    687.61062    -5480.737 
 6408000     279.9607   -9016.4313   -7949.0934   -9016.4313            0    9571.0031    24.918992    24.890806    23.095999    14325.381    11733.718    9992.6792     6986.612    410.51221   -138.42308    37.942254     -5949.51 
 6409000    288.40708   -9011.1042   -7911.5649   -9011.1042            0    11299.277    24.977415    24.947132      22.8662    14248.269    9915.2765    11058.906    12923.649    221.78095    410.94891    1008.6766   -5563.6159 
 6410000    284.36048   -9025.0703   -7940.9584   -9025.0703            0    11494.264    24.846879    24.872095     23.03444    14235.145    10892.433     12418.46    11171.899    767.58443   -179.06318    912.91329   -5554.6919 
 6411000    288.03021    -9094.193   -7996.0905    -9094.193            0    10964.699    24.922493    24.880649    22.942725    14226.504     10789.08    10765.074    11339.944    708.77828    155.18433    499.61886    -5721.146 
 6412000    285.95155   -9034.4961   -7944.3184   -9034.4961            0    11808.639    24.947752    24.965006    22.865636    14241.193    10468.305     11982.85    12974.761     688.6455   -621.10961    978.74021   -5491.7445 
 6413000    287.30215    -9005.548   -7910.2212    -9005.548            0    12951.088    24.889256     24.63114    23.123951    14176.156    12337.118    14684.192    11831.954    51.748643   -222.35032    517.78555   -5232.6525 
 6414000    274.28305    -9007.303   -7961.6109    -9007.303            0    11409.497     24.96406    24.951115    22.817641    14212.678    11745.307    10596.352    11886.832   -395.85955   -764.10584    914.92153   -5596.6807 
 6415000    284.94605   -9020.6901   -7934.3458   -9020.6901            0    11052.191    24.854478    24.931893    22.986852    14244.244    11106.791    11010.083    11039.698   -740.75143   -1127.1324     -289.009   -5638.3892 
 6416000    290.58444   -9011.8132   -7903.9728   -9011.8132            0    11597.848    24.826094    24.937889    22.976908    14225.243     13401.96    10603.505    10788.081   -220.34382   -789.03866    102.57421   -5497.8766 
 6417000    261.36942   -9021.3407   -8024.8813   -9021.3407            0    9826.4888    25.020011    25.004947    22.867016    14306.155     10038.25    9797.5272    9643.6891   -76.234348   -415.90946   -607.23084   -5974.6767 
 6418000    283.35733   -8983.7496   -7903.4622   -8983.7496            0     9675.914    25.011924    24.921268    23.018933    14348.365    9377.4407    10259.814    9390.4878     -1088.39   -260.10299   -1015.5392   -5878.7174 
 6419000    286.04593   -9038.3139   -7947.7763   -9038.3139            0    9938.7144    24.940144    24.990601    22.947495    14302.466    9450.2083    10204.107    10161.828    -104.3029    666.44359    976.41844   -5874.6917 
 6420000    276.46664   -9009.3915   -7955.3746   -9009.3915            0    10944.575    24.954412    25.065078    22.768131    14241.108    10332.876    10860.255    11640.594   -221.37986   -78.124856    374.67769   -5682.2744 
 6421000     283.3916   -9032.4179   -7951.9999   -9032.4179            0    11600.617    24.914087    24.807381    23.036493     14237.78    10786.759    12005.088    12010.003   -398.96612    -742.8572    192.40538   -5543.2083 
 6422000    280.17519   -9012.5661   -7944.4104   -9012.5661            0    11768.646    24.992996    24.812366    22.878108    14187.524    12066.309    12700.556    10539.075    -121.0294    487.97903   -94.201102   -5509.3541 
 6423000    284.42454    -9010.359    -7926.003    -9010.359            0    13003.699    24.918829    24.802446    22.884083     14143.46    11721.017    13667.798    13622.282   -499.86893   -520.08629   -773.98568   -5243.7579 
 6424000    283.73069   -9035.1108   -7953.4001   -9035.1108            0    13335.534    24.754634     24.87397    22.962441    14139.032    15324.376    12410.731    12271.494    721.46392   -766.17723    488.07868   -5203.5694 
 6425000    286.22424    -9039.703   -7948.4856    -9039.703            0    11815.159    24.895866    24.948723    22.840178    14186.493    12393.529    10424.349    12627.599   -259.19644    119.68844   -951.81388    -5503.983 
 6426000    275.39654   -9021.3767   -7971.4395   -9021.3767            0    12283.714    24.891645    24.912857    22.880204    14188.518    12322.529    11139.243    13389.369   -201.02087   -750.72058    84.331768   -5429.6323 
 6427000    281.36016    -9010.219   -7937.5458    -9010.219            0    11388.765    24.893182    24.911334    22.981599    14251.404    10893.685     11230.65    12041.959    133.87413   -273.67971   -1031.4806   -5570.4809 
 6428000    280.78095   -9032.7489   -7962.2839   -9032.7489            0    10501.113    25.016114    25.018978    22.777477    14255.913    9344.1533    10262.452    11896.734    961.27508    -723.2923   -527.61185   -5779.0199 
 6429000    282.98837   -9036.1975   -7957.3168   -9036.1975            0    10688.936    24.919792    24.921798    22.952202    14254.373    11155.829    10392.009    10518.971   -1130.3967    1258.5461    468.45335   -5735.2429 
 6430000    278.04299   -9033.0276   -7973.0009   -9033.0276            0    10885.812     24.93339    24.881995    22.960607    14244.588    10650.242    10984.308    11022.888    124.60348   -797.75043    436.07452   -5711.5528 
 6431000     288.3698   -9040.4393   -7941.0421   -9040.4393            0    11591.363    24.927668    24.869391    22.938672    14220.507    11556.514    11828.698    11388.878    498.00504   -760.36667    422.16606   -5537.0919 
 6432000    279.82207   -8941.3449   -7874.5356   -8941.3449            0    14206.314    24.750875    24.937178    22.946051    14162.693    14056.587    14541.791    14020.563   -198.47296   -1039.3382    214.96591   -4940.2449 
 6433000    289.06286   -9048.3136   -7946.2741   -9048.3136            0    11086.466    24.919347    24.989585    22.871073     14242.37    11135.077    11504.097    10620.225    595.19181   -220.36674    823.44745   -5643.5003 
 6434000    284.90345   -9004.9231   -7918.7412   -9004.9231            0    12076.041     24.84499    24.894727    22.978564    14212.454    13996.807    11524.587     10706.73    342.97424    67.736435    247.91521   -5415.6911 
 6435000    290.17965   -8977.6457   -7871.3485   -8977.6457            0    12085.047    24.858014    24.916103     22.96074    14221.075    13112.702     11391.59    11750.847    265.54355   -1190.3098   -570.00863   -5364.9124 
 6436000    285.63251   -8978.7755   -7889.8141   -8978.7755            0     10993.37    24.961983    25.038424    22.856582    14285.563     10920.28    10363.548    11696.282   -722.33378   -355.82486    1616.0977   -5599.4522 
 6437000    277.91614   -9057.7955   -7998.2524   -9057.7955            0     9971.156    24.878894    25.043488    22.920216    14280.539    10199.828    9211.2927    10502.347    116.15102   -417.04646   -463.60848   -5921.5896 
 6438000    287.93027    -8986.454   -7888.7325    -8986.454            0    11535.027    24.890377    24.923431    22.991768    14263.026    11505.036     11419.63    11680.413    713.64059   -143.06563    252.31186   -5489.3131 
 6439000    273.75019   -9033.8422   -7990.1816   -9033.8422            0    11745.514    24.876574    25.082748    22.777692    14212.661    11732.621    10607.682    12896.239   -415.09953   -337.21621    333.38673   -5555.6056 
 6440000    280.63517   -8945.4086   -7875.4993   -8945.4086            0    12371.455      24.8719      24.8609    22.986444    14213.387    12945.101    12873.172    11296.094    15.644274    79.130109   -246.82058   -5311.0491 
 6441000    278.09693   -8983.9675   -7923.7352   -8983.9675            0    12024.215    24.952096    24.945316    22.894464    14250.383     11935.83    12100.292    12036.521   -131.03735   -322.28609    1583.3164   -5424.7762 
 6442000    295.55205   -9035.2644   -7908.4852   -9035.2644            0    11159.987    24.931747    24.886793      22.9318    14228.522    10513.736    11907.897    11058.329    339.62817      878.617    656.21912   -5592.6941 
 6443000    281.24609   -9014.5121   -7942.2737   -9014.5121            0    11200.839    24.914556    24.782336    23.065233    14241.419      11442.9    12177.874    9981.7431   -140.70315    152.30654    669.38857   -5615.8988 
 6444000    277.91525   -9020.9143   -7961.3746   -9020.9143            0    10455.276    25.105123    24.890565    22.842702    14273.964    9795.7995    10575.244    10994.783   -826.00418   -443.39366    99.059494   -5784.8882 
 6445000    279.57415   -9010.1779   -7944.3138   -9010.1779            0    10503.492    24.960054    24.924062    22.959036    14282.953    10868.944    10506.004    10135.528    -102.5034   -1197.4027    1070.0453   -5756.4132 
 6446000    285.63577   -9009.7959   -7920.8221   -9009.7959            0    10382.114    24.909987     25.14326    22.839942    14305.073    10515.668    9329.1304    11301.545   -860.96855    168.66815     1303.641   -5754.8554 
 6447000    283.98178   -9028.8838   -7946.2158   -9028.8838            0    10806.796    24.834279    24.987823    22.968945    14253.484    11163.712    9962.6268    11294.048   -15.796681    789.69788    487.43061   -5699.7807 
 6448000    289.96171   -9025.2842   -7919.8179   -9025.2842            0    11419.466    24.809951    24.951567    22.998703    14237.282    11704.013    10543.833    12010.551    903.14204    293.41204   -183.78463   -5548.7241 
 6449000    292.18429    -9012.358   -7898.4182    -9012.358            0    11214.364    24.952734    25.107915    22.749752    14252.973    11101.273    9376.1482     13165.67   -1307.6641   -808.32048    171.91473   -5567.3447 
 6450000    277.60594   -8993.4917   -7935.1312   -8993.4917            0    12334.918    24.821884      24.9045    22.988647    14211.043    12425.663     13481.28     11097.81     20.99262    1079.0335   -770.56927   -5378.6765 
 6451000    298.88875   -9003.5332    -7864.033   -9003.5332            0     13833.89    24.858712    24.947396    22.757439    14113.257    14458.784    13486.087    13556.797   -30.642574   -247.94797    476.91728   -5016.6399 
 6452000    291.63273   -9049.4044   -7937.5675   -9049.4044            0    12765.786    24.817029    24.794978    22.988913    14145.945    13296.024    13724.846    11276.489   -706.36302   -805.20126    638.81964   -5303.9335 
 6453000    276.08855   -9045.1702   -7992.5947   -9045.1702            0    12576.062     24.87262    24.942264     22.89487    14203.507    11735.637    12365.262    13627.285   -55.644242   -600.79294   -468.08956   -5387.5443 
 6454000    289.54998   -9040.9148   -7937.0182   -9040.9148            0    9944.5095      25.0762    24.903302    22.913961    14309.314    8751.6332    10093.172    10988.723     590.3408   -2063.7125    58.559117   -5861.7317 
 6455000    285.37875   -9069.8921   -7981.8982   -9069.8921            0    11092.942    24.920104    24.841627    22.970251     14219.87    11132.142    11097.543    11049.142   -402.31523   -1614.7038    380.49141   -5681.4191 
 6456000    265.94659   -9054.1428   -8040.2332   -9054.1428            0    11381.311    25.006387    24.924299    22.802053     14211.76    10648.257    11515.129    11980.548    63.922631    1177.5204   -1178.6458   -5681.2977 
 6457000    281.94982   -9015.9424   -7941.0211   -9015.9424            0    11589.683    24.994642    24.847608    22.939409    14246.682    11574.234    11959.742    11235.074   -196.78817   -182.74242   -822.79441   -5532.9951 
 6458000     284.0519   -9027.2627   -7944.3273   -9027.2627            0    10916.917    24.974255     24.85779     22.98336     14268.18    9875.1525    12331.383    10544.216   -670.76415    974.72679    931.44355   -5672.6613 
 6459000    285.99606   -8989.5226   -7899.1752   -8989.5226            0    10877.825    25.004818    25.061548    22.773603    14271.294    11141.214    10257.504    11234.757   -813.82133    378.08676   -477.60047   -5635.1498 
 6460000    283.12828   -9001.8643   -7922.4502   -9001.8643            0    11240.938    24.872923    24.885414    23.026568    14252.823    10707.301    12437.242     10578.27   -541.01974   -569.09972    -260.5388   -5585.8773 
 6461000    290.15733   -9027.9032   -7921.6911   -9027.9032            0    10874.642    24.973164    25.039294    22.867403    14299.225    9514.7456    10781.066    12328.113   -60.608644     65.78085    726.83383   -5653.8985 
 6462000    287.86533   -9050.6763   -7953.2024   -9050.6763            0     11279.69    24.828628    24.920418    23.003419    14233.131    12531.035    10303.115    11004.922   -187.99891    156.78522   -231.90061   -5611.8138 
 6463000    284.26238   -9033.2828    -7949.545   -9033.2828            0    12198.524     24.83878    25.042427    22.844536    14209.834    13322.224    11475.351    11797.999    359.37101    1450.3265    767.49025   -5421.5733 
 6464000    283.18825   -8992.5028   -7912.8601   -8992.5028            0    11720.311    24.800135    25.014701    22.955091    14240.603     11882.06    12433.156    10845.718   -264.02602   -1350.0906    264.17114   -5478.7321 
 6465000    291.88364   -9068.8917   -7956.0982   -9068.8917            0    11114.174    24.799024    25.015131    22.932116    14225.957    12073.389    10437.277    10831.856    935.63296    593.79044   -919.15881   -5650.2294 
 6466000    281.28669   -9046.7554   -7974.3623   -9046.7554            0     11696.09     25.00429     24.85857    22.891322    14228.579    11062.616    12322.369    11703.285   -701.81839    -207.5196    699.15238   -5547.3156 
 6467000    290.72799    -9020.623   -7912.2353    -9020.623            0    11664.208    24.992977    24.782994    22.966704    14225.595    10541.434    12933.768    11517.423   -646.15708   -1092.9702    1177.9366    -5492.312 
 6468000    276.04851   -8975.4303   -7923.0075   -8975.4303            0    12186.544    24.946523     24.83066    22.957543     14220.79    12379.883    11911.149      12268.6   -944.85837   -107.69449   -569.19957   -5395.5715 
 6469000    283.80507   -9064.8914    -7982.897   -9064.8914            0    11753.086    25.024667     24.95992    22.734639    14200.367    10156.182    12336.931    12766.147    574.44114    429.25041   -5.7624956   -5548.8589 
 6470000     278.5211   -9020.1919   -7958.3424   -9020.1919            0    11130.232    24.861571    24.878915    23.073618      14271.7    12435.731    10756.009    10198.957   -216.71552   -6.3132566   -401.40513    -5641.717 
 6471000    275.82733   -8983.7597   -7932.1802   -8983.7597            0    12914.339    24.851667    25.011199    22.778995    14158.739    12233.201    11889.237     14620.58   -108.10011    9.6591076   -92.207365   -5265.4893 
 6472000    285.52564   -9048.2404   -7959.6864   -9048.2404            0    12151.304    24.846886    24.994739    22.767057    14139.286    12310.746    11154.465    12988.701     237.1645    342.00637    404.28093   -5454.0027 
 6473000    280.91362   -9008.8936   -7937.9227   -9008.8936            0    12363.548    24.710683    24.860622    23.115029    14200.092    12463.532    13818.917    10808.195   -221.02012    -126.0133   -540.52179   -5377.5088 
 6474000    299.08086   -8998.9333   -7858.7007   -8998.9333            0    12989.964    24.888516     24.90556    22.839783    14157.523    12904.348     13752.05    12313.493   -324.18695    222.10278    17.121882   -5176.6245 
 6475000    282.03668   -9023.3544   -7948.1019   -9023.3544            0    11843.639    24.896896    24.891821    22.914189    14200.589    11812.246    11673.553    12045.118   -32.050186    55.270863    362.31263   -5495.2721 
 6476000    289.02723   -9042.8532   -7940.9496   -9042.8532            0    11762.472    24.898167    24.872011     22.93018    14199.914     11984.03     12131.94    11171.447   -301.58224    55.436319    428.79637   -5505.0453 
 6477000    284.53527   -9006.9419   -7922.1637   -9006.9419            0     9328.375    24.958752    24.889613    23.108743    14355.467    9780.3061    10141.868    8062.9507   -1175.1062   -573.24538   -363.44825   -5969.1773 
 6478000    293.87887   -9044.3351   -7923.9348   -9044.3351            0    10032.244    25.001376    24.918328    23.001905    14330.014    10157.861    9888.3111     10050.56    394.65952    441.81885    1731.7117   -5827.3106 
 6479000    281.05006   -9036.5348   -7965.0438   -9036.5348            0    10661.947    25.047659    24.986943    22.833109     14290.43    10632.039    10256.596    11097.207   -569.74313   -228.22312   -917.66825   -5742.9739 
 6480000    287.37478   -9017.6463   -7922.0426   -9017.6463            0    11647.954    24.840227      24.8941    22.999601     14222.38     11803.96    11632.778    11507.124   -254.36381   -532.89518   -579.69631   -5506.0376 
 6481000    292.23036   -9008.9147   -7894.7993   -9008.9147            0     11442.29    24.824787    25.000878    22.950903    14244.282     13877.44    9119.3179    11330.112   -134.26849   -271.49121    776.45186   -5517.7981 
 6482000    281.60357   -9001.7174   -7928.1161   -9001.7174            0    11331.911    24.824239    25.027473    22.953922    14260.996    12494.964    10381.684    11119.085   -475.34399    752.97597    360.77972   -5571.2826 
 6483000    288.51619    -9007.204   -7907.2487    -9007.204            0     12404.82    24.793349    25.011586    22.941261    14226.357    13236.788     11967.64    12010.033    62.788167   -83.161754    843.01707   -5333.5361 
 6484000    283.42026   -9003.5735   -7923.0463   -9003.5735            0    11738.758    24.896465    24.983595     22.89789    14242.561    12319.956    10606.997     12289.32    347.39746   -219.60132    756.53614   -5484.7521 
 6485000    274.91053   -9032.0581   -7983.9738   -9032.0581            0    11007.604    24.978795    24.932377    22.876412    14246.989    10512.296    10578.536    11931.981    81.036308     55.12304   -241.70402    -5696.839 
 6486000    284.43663   -9007.8163   -7923.4142   -9007.8163            0    13072.563    24.832934    24.873576    22.983803    14196.725    13865.104    12649.172    12703.413   -9.6152741    357.58729   -605.80847   -5216.8097 
 6487000    285.08355   -9037.1952   -7950.3267   -9037.1952            0     13227.31    24.918591    24.994149    22.721462    14151.357    12021.425    13966.394     13694.11    730.18464   -1317.8035    1055.7034   -5220.4344 
 6488000    285.51303   -8954.5107   -7866.0048   -8954.5107            0    12548.063      24.8686    24.898145    22.975714    14226.149    12946.719    12354.656    12342.814   -990.13201    182.05141    357.52712   -5262.6106 
 6489000    292.09495   -9042.1705   -7928.5713   -9042.1705            0    11351.205    25.021033    24.870977    22.879222    14237.683    10828.816    11239.777    11985.023    271.96687   -669.80241   -644.33848   -5571.5843 
 6490000    289.92498   -8994.0538   -7888.7275   -8994.0538            0    11128.742    24.979764    24.749051    23.079506    14268.338    9917.3666    12897.602    10571.259   -74.899704   -973.04967    507.36708   -5572.9578 
 6491000    280.18473   -8995.1877   -7926.9957   -8995.1877            0    11787.589    25.044895    24.828351    22.930441    14258.686    11358.323    12049.401    11955.042   -240.58193   -438.85457    293.59902   -5475.7866 
 6492000    286.95514   -8999.6553   -7905.6514   -8999.6553            0    11023.833    24.930418    24.822853    23.031057    14252.634    10773.939    12021.627    10275.931    395.18866    -1759.594    1053.3402   -5614.2371 
 6493000    292.50014   -9058.2974   -7943.1535   -9058.2974            0    11318.958    25.038154    25.029585    22.687912    14218.392    10583.574    10303.785    13069.517   -39.478459   -1332.7226   -508.49485   -5596.0467 
 6494000    277.91274   -9029.9704   -7970.4403   -9029.9704            0     10709.92    24.826274    24.976877     23.00141    14262.779    11278.706    10697.664    10153.391    868.35761   -281.82469     553.8924   -5742.6912 
 6495000    281.16304   -8988.2276   -7916.3059   -8988.2276            0    11488.626    24.802548    25.025894    22.948381    14244.196    12631.367    10932.787    10901.724    91.111712    -598.6215   -141.61501   -5529.6933 
 6496000    283.80846   -9042.6175   -7960.6102   -9042.6175            0    11200.533     24.77745     25.01886    22.935827    14218.001    12686.936    9954.8188    10959.843     500.0729   -535.25743   -84.835511   -5638.1243 
 6497000    285.36095   -8974.2858   -7886.3597   -8974.2858            0    12319.088     24.86176    25.003394    22.903412    14237.411    12884.658    11296.372    12776.234    56.721476   -647.58717   -524.53323   -5328.4483 
 6498000    275.56303   -9035.9898   -7985.4178   -9035.9898            0    10333.815    24.815863    25.085805    22.926955    14272.624    11596.021    9898.5041    9506.9213   -783.15262    -1158.389    83.481569   -5834.4179 
 6499000    280.43262   -9071.4324   -8002.2954   -9071.4324            0    12010.554    24.847379    25.002101    22.837738    14187.641    13718.977    10202.937    12109.749   -1104.7643   -136.21777    27.850758   -5517.1653 
 6500000    300.18534   -9055.9088   -7911.4653   -9055.9088            0    9825.2186    24.845127    24.960838     23.06462    14303.644     10178.43    10278.148    9019.0777   -62.550529     847.8011   -1017.8998   -5861.8857 
Loop time of 532.841 on 64 procs for 250000 steps with 1920 atoms

Performance: 81.075 ns/day, 0.296 hours/ns, 469.183 timesteps/s
99.2% CPU use with 64 MPI tasks x 1 OpenMP threads

MPI task timing breakdown:
Section |  min time  |  avg time  |  max time  |%varavg| %total
---------------------------------------------------------------
Pair    | 62.83      | 65.23      | 67.828     |  13.9 | 12.24
Bond    | 0.27147    | 0.28101    | 0.29474    |   0.8 |  0.05
Kspace  | 225.51     | 232.2      | 239.43     |  20.6 | 43.58
Neigh   | 6.9575     | 7.7275     | 8.6343     |  14.8 |  1.45
Comm    | 97.348     | 106.19     | 115.74     |  39.0 | 19.93
Output  | 1.3115     | 1.3128     | 1.3139     |   0.0 |  0.25
Modify  | 104.68     | 112.69     | 117.42     |  34.5 | 21.15
Other   |            | 7.207      |            |       |  1.35

Nlocal:        30.0000 ave          33 max          27 min
Histogram: 5 5 0 14 0 15 13 0 10 2
Nghost:        2826.14 ave        2853 max        2796 min
Histogram: 3 5 4 7 9 12 8 7 4 5
Neighs:        10618.4 ave       11758 max        9210 min
Histogram: 3 1 4 12 8 8 9 10 2 7

Total # of neighbors = 679577
Ave neighs/atom = 353.94635
Ave special neighs/atom = 2.0000000
Neighbor list builds = 13613
Dangerous builds = 1

unfix		3
unfix		2
unfix		1

write_data	data.final.${pid}
write_data	data.final.0
System init for write_data ...
PPPM initialization ...
  extracting TIP4P info from pair style
  using 12-bit tables for long-range coulomb (../kspace.cpp:340)
  G vector (1/distance) = 0.37446407
  grid = 30 30 30
  stencil order = 5
  estimated absolute RMS force accuracy = 0.0032677945
  estimated relative force accuracy = 9.840866e-06
  using double precision FFTW3
  3d grid and FFT values/proc = 3600 512
Last active /omp style is kspace_style pppm/tip4p/omp
WARNING: Not all mixed pair coeffs generated from mixing. Use write_data with 'pair ij' option to store all pair coeffs. (../write_data.cpp:312)

write_restart   restart.lmp.${pid}
write_restart   restart.lmp.0
System init for write_restart ...
PPPM initialization ...
  extracting TIP4P info from pair style
  using 12-bit tables for long-range coulomb (../kspace.cpp:340)
  G vector (1/distance) = 0.37446407
  grid = 30 30 30
  stencil order = 5
  estimated absolute RMS force accuracy = 0.0032677945
  estimated relative force accuracy = 9.840866e-06
  using double precision FFTW3
  3d grid and FFT values/proc = 3600 512
Last active /omp style is kspace_style pppm/tip4p/omp
Total wall time: 0:08:57
