LAMMPS (30 Jul 2021)
Processor partition = 0
  using 4 OpenMP thread(s) per MPI task
using multi-threaded neighbor list subroutines
variable        pid world 0 1
variable        phase world IceIh Liquid

shell cd ${phase}
shell cd IceIh
include Restart.lmp
echo both
log log.lammps
#include		in.partitions
include		in.temp
variable        temperature equal 277.96
variable	tempDamp equal 100.0
include		in.pressure
variable        pressure equal -1500.0
variable        pressureDamp equal 1000.0 # This is 1 ps
include		in.seed
variable        seed equal 745823

units		real
atom_style	full
#include		in.box
read_restart	restart.lmp.${pid}
read_restart	restart.lmp.0
Reading restart file ...
  restart file = 30 Jul 2021, LAMMPS = 30 Jul 2021
  restoring atom style full from restart
  orthogonal box = (0.022771480 -0.056441426 -0.14112466) to (18.184801 23.685619 22.354320)
  2 by 4 by 2 MPI processor grid
  restoring pair style lj/cut/tip4p/long/omp from restart
  restoring bond style harmonic/omp from restart
  restoring angle style harmonic/omp from restart
  864 atoms
  576 bonds
  288 angles
Finding 1-2 1-3 1-4 neighbors ...
  special bond factors lj:    0        0        0       
  special bond factors coul:  0        0        0       
     2 = max # of 1-2 neighbors
     1 = max # of 1-3 neighbors
     1 = max # of 1-4 neighbors
     2 = max # of special neighbors
  special bonds CPU = 0.001 seconds
  read_restart CPU = 0.006 seconds
include 	in.setup
variable	out_freq equal 1000
variable	out_freq2 equal 10000
variable	out_freq3 equal 1000

timestep	2.0

neigh_modify    delay 7 every 1

include		in.tip4p
# This is TIP4P/Ice

# create groups ###
group ox type 2
288 atoms in group ox
group hy type 1
576 atoms in group hy

# set charges - beside manually ###
set group ox charge -1.1794
Setting atom values ...
  288 settings made for charge
set group hy charge 0.5897
Setting atom values ...
  576 settings made for charge

# ### TIP3P Potential Parameters ###
pair_style lj/cut/tip4p/long/omp 2 1 1 1 0.1577 8.5
pair_coeff 1 1*2 0.000 0.000
pair_coeff 2 2 0.21084 3.1668
bond_style  harmonic
bond_coeff  1 450 0.9572
angle_style harmonic
angle_coeff 1 55 104.52
kspace_style pppm/tip4p/omp 1.0e-5
pair_modify tail yes

thermo          ${out_freq}
thermo          1000
thermo_style    custom step temp pe etotal epair emol press lx ly lz vol pxx pyy pzz pxy pxz pyz enthalpy

restart 	${out_freq3} restart.lmp.${pid} restart2.lmp.${pid}
restart 	1000 restart.lmp.${pid} restart2.lmp.${pid}
restart 	1000 restart.lmp.0 restart2.lmp.${pid}
restart 	1000 restart.lmp.0 restart2.lmp.0


include         in.dump
dump            myDump all atom ${out_freq2} dump.water.${pid}
dump            myDump all atom 10000 dump.water.${pid}
dump            myDump all atom 10000 dump.water.0
dump            myDump2 all dcd ${out_freq2} dump.dcd
dump            myDump2 all dcd 10000 dump.dcd
dump_modify     myDump append yes
dump_modify     myDump2 append yes


variable natoms 	equal  "count(all)"                        # NUMBER ATOMS
variable H      	equal  "enthalpy/v_natoms"                 # ENTHALPY-per-atom
variable Vol      	equal  "vol/v_natoms"                 # volume-per-atom
fix AVG all 		ave/time ${out_freq} 1 ${out_freq} v_Vol v_H file vol_enthalpy.dat
fix AVG all 		ave/time 1000 1 ${out_freq} v_Vol v_H file vol_enthalpy.dat
fix AVG all 		ave/time 1000 1 1000 v_Vol v_H file vol_enthalpy.dat


timer           timeout 23:50:00 every 1000
New timer settings: style=normal  mode=nosync  timeout=23:50:00

fix 		1 all shake 1e-6 200 0 b 1 a 1
Finding SHAKE clusters ...
       0 = # of size 2 clusters
       0 = # of size 3 clusters
       0 = # of size 4 clusters
     288 = # of frozen angles
  find clusters CPU = 0.000 seconds
fix             2 all nph aniso ${pressure} ${pressure} ${pressureDamp}
fix             2 all nph aniso -1500 ${pressure} ${pressureDamp}
fix             2 all nph aniso -1500 -1500 ${pressureDamp}
fix             2 all nph aniso -1500 -1500 1000
fix             3 all temp/csvr ${temperature} ${temperature} ${tempDamp} ${seed}
fix             3 all temp/csvr 277.96 ${temperature} ${tempDamp} ${seed}
fix             3 all temp/csvr 277.96 277.96 ${tempDamp} ${seed}
fix             3 all temp/csvr 277.96 277.96 100 ${seed}
fix             3 all temp/csvr 277.96 277.96 100 745823


run             250000
PPPM initialization ...
  extracting TIP4P info from pair style
  using 12-bit tables for long-range coulomb (../kspace.cpp:340)
  G vector (1/distance) = 0.37295212
  grid = 24 27 27
  stencil order = 5
  estimated absolute RMS force accuracy = 0.0028857246
  estimated relative force accuracy = 8.690274e-06
  using double precision FFTW3
  3d grid and FFT values/proc = 6615 1296
Last active /omp style is kspace_style pppm/tip4p/omp
Neighbor list info ...
  update every 1 steps, delay 7 steps, check yes
  max neighbors/atom: 2000, page size: 100000
  master list distance cutoff = 10.8154
  ghost atom cutoff = 10.8154
  binsize = 5.4077, bins = 4 5 5
  1 neighbor lists, perpetual/occasional/extra = 1 0 0
  (1) pair lj/cut/tip4p/long/omp, perpetual
      attributes: half, newton on, omp
      pair build: half/bin/newton/omp
      stencil: half/bin/3d
      bin: standard
Setting up Verlet run ...
  Unit style    : real
  Current step  : 6250000
  Time step     : 2
  Walltime left : 23:49:59.96
Per MPI rank memory allocation (min/avg/max) = 12.26 | 12.29 | 12.31 Mbytes
Step Temp PotEng TotEng E_pair E_mol Press Lx Ly Lz Volume Pxx Pyy Pzz Pxy Pxz Pyz Enthalpy 
 6250000    287.33028    -4142.511   -3650.0368    -4142.511            0    -1498.131    18.162029    23.742061    22.495445     9700.126    -1873.437   -751.84114    -1869.115   -251.27113    47.856164    209.50348    -3861.972 
 6251000     278.1078   -4153.5869   -3676.9197   -4153.5869            0   -2078.9814    18.250113    23.838141    22.485087    9782.1093   -1523.4996   -1856.2144   -2857.2301    115.71021   -891.31678    205.32224   -3973.5114 
 6252000    289.68253   -4186.8516   -3690.3457   -4186.8516            0   -1247.4232    18.424214    23.658068    22.163134     9660.496   -1351.6965   -1079.3006   -1311.2725   -1543.4191    -8.245493    579.76106   -3866.0932 
 6253000     281.0988   -4179.6519   -3697.8582   -4179.6519            0   -768.09899    18.324711     23.25517    22.607044    9633.8622   -499.96143    572.99247    -2377.328    116.73025   -207.46829    456.10618   -3805.7761 
 6254000    262.30699   -4193.3518   -3743.7666   -4193.3518            0    -357.8701    18.249919    23.599776    22.261435    9587.8669   -580.31023   -665.90499    172.60491    1270.6672   -11.922178   -103.42196   -3793.8073 
 6255000    286.81952   -4178.6724   -3687.0735   -4178.6724            0   -1939.9393    18.213815    23.710884     22.32398    9640.9598   -1036.9951   -2537.8608   -2244.9619   -245.69374   -75.687544   -432.51441   -3959.8358 
 6256000    274.43464   -4137.6272   -3667.2557   -4137.6272            0   -1212.3145    18.152513    23.938959    22.266796    9676.0866   -1737.4588   -144.08828   -1755.3964   -1035.4954   -186.35103    1383.2224   -3838.3324 
 6257000    272.60059   -4150.7733   -3683.5452   -4150.7733            0   -1509.9246    18.128566    23.870719    22.170191     9593.971   -852.48568   -1987.5063   -1689.7818   -681.38103   -981.12761   -265.72562   -3894.8112 
 6258000    289.13646   -4173.1501   -3677.5801   -4173.1501            0   -800.49005    18.281804    23.459565     22.42252    9616.6413   -1024.8579   -1047.3043   -329.30791   -431.32591   -54.379483    -251.9229   -3789.8479 
 6259000    275.87084   -4134.2427   -3661.4095   -4134.2427            0    298.16326    18.438364    23.531536     21.96063    9528.3444   -866.34782    2100.5482   -339.71066    -806.4077    602.76227    131.72514   -3619.9764 
 6260000    274.94777   -4158.5151    -3687.264   -4158.5151            0   -1645.3843    18.219974    23.837771    22.294237    9682.9125   -1173.7418   -2394.8362   -1367.5749   -7.4551631    996.74107   -51.346603   -3919.6175 
 6261000    282.17272   -4183.5176   -3699.8832   -4183.5176            0   -443.23422    17.920505    23.905331    22.407975    9599.4778    -72.79451    -338.9881   -917.92007    252.40202   -344.40849   -623.16082   -3761.9353 
 6262000     275.5675   -4114.8112    -3642.498   -4114.8112            0   -1871.0659    18.297055    23.831119    22.318391    9731.6955   -1835.8749   -2117.1737   -1660.1493   -38.147583    120.02589   -1006.0684   -3908.0523 
 6263000    284.81388   -4151.2959   -3663.1347   -4151.2959            0   -2776.8631     18.58801    23.423274    22.386227    9746.7852   -4586.1077   -1959.6415   -1784.8402   -1235.8966    340.01562    42.807802   -4057.8571 
 6264000    273.67941   -4182.7892   -3713.7121   -4182.7892            0   -2837.4803    18.433127    23.725988    22.394299    9794.0156   -3615.7564   -2774.8078   -2121.8766    300.65429    -593.2433   -123.98182   -4119.0055 
 6265000    269.68091   -4155.8293   -3693.6055   -4155.8293            0   -2416.3509    18.209913    23.856018    22.473192    9762.7142    -1998.199   -2592.3088   -2658.5451   -423.61984    286.55054    24.291808   -4037.6435 
 6266000    274.65002    -4158.496   -3687.7553    -4158.496            0   -1893.3785    18.283027    23.856096    22.333503    9741.0174   -1713.9941   -1516.3032    -2449.838   -269.49344    196.72813    404.25543   -3956.7338 
 6267000    290.60787   -4186.8591   -3688.7672   -4186.8591            0    -1045.202    18.272271    23.758433     22.18502    9630.9729    -95.65132   -1183.8835   -1856.0713    -79.81906    76.187014   -27.996763    -3835.574 
 6268000    263.40126   -4178.0108     -3726.55   -4178.0108            0    -1210.524    18.299274      23.3294    22.522228    9614.9886     -2227.58   -1129.0557   -274.93626     370.2931    630.30551    515.89616   -3896.2954 
 6269000    282.31929   -4177.1518   -3693.2662   -4177.1518            0   -2190.1474    18.365824    23.716749    22.252231    9692.5745   -3092.3548   -2417.9326   -1060.1547   -271.23635    1375.5412    212.92492   -4002.8572 
 6270000    279.20259   -4198.0233   -3719.4796   -4198.0233            0   -1680.7442    18.085388    24.127704    22.061832    9626.8768   -1884.5811   -2930.0417   -227.60994   -522.80324    232.73344    935.83538   -3955.4529 
 6271000    282.33539   -4202.9772    -3719.064   -4202.9772            0   -1239.9425    18.091598    23.751237    22.386092    9619.2551   -701.03529   -537.19734   -2481.5947    -119.3295   -651.83596    -126.8853   -3893.0117 
 6272000    288.72798   -4171.1318   -3676.2619   -4171.1318            0   -1276.1315    18.549122    23.528681    22.173251    9677.2128   -1020.6471   -1362.4139   -1445.3335   -268.17944   -174.67471   -413.89224   -3856.3652 
 6273000    274.57923    -4193.879   -3723.2596    -4193.879            0    -1431.999    18.363376    23.556477    22.371379    9677.3317   -1310.5856   -490.25628   -2495.1551    129.17111   -1000.1722   -184.80938   -3925.3633 
 6274000     288.4401   -4122.7643   -3628.3878   -4122.7643            0   -2026.2632    18.194553     23.79731    22.576404    9775.1634   -1859.6647     -1718.89   -2500.2349   -531.46257    560.97304   -303.39994   -3917.2534 
 6275000    275.40756   -4157.9933   -3685.9542   -4157.9933            0    -1144.307    18.321164    23.816589    22.124092    9653.7951   -2427.5996   -643.05272   -362.26854    203.62229   -476.41293    8.9553697    -3847.062 
 6276000    285.55649   -4144.9925   -3655.5585   -4144.9925            0   -768.27756    18.282753    23.449098    22.601687    9689.6612   -852.62964   -282.56514   -1169.6379   -690.27922   -501.26436    516.55443   -3764.1267 
 6277000    289.01168   -4160.7948   -3665.4386   -4160.7948            0   -1554.3308    18.298397    23.904997    22.180879    9702.4294   -1993.1496   -1673.0206   -996.82225    -468.6292   -657.87591    98.329063   -3885.3764 
 6278000    276.95677   -4184.4903   -3709.7958   -4184.4903            0    -1362.927     18.25954    23.865862    22.229653    9687.2306   -1357.1223   -1294.2157   -1437.4432    204.96259     69.39681   -572.11815   -3902.3479 
 6279000    264.26719   -4192.3186   -3739.3737   -4192.3186            0   -935.68092     18.02135    23.540104    22.654823      9610.73   -1118.9943   -586.97071   -1101.0777    -88.38674   -490.00034   -170.92558   -3870.5212 
 6280000    294.38697   -4173.4611   -3668.8919   -4173.4611            0   -1292.1371    18.363518    23.687696    22.223898    9667.1607   -2217.2675   -2238.4594    579.31548   -756.59059   -17.542888    531.79741   -3851.0647 
 6281000    286.75666     -4151.84   -3660.3489     -4151.84            0    -2772.955    18.385718      23.5081    22.703268    9812.6549   -2574.8934   -1324.9554   -4419.0163   -670.32386    186.13677    137.89468   -4057.1796 
 6282000    278.30657   -4159.6052   -3682.5973   -4159.6052            0   -2176.6831    18.327634    23.810925    22.266647    9717.1185   -2634.1871   -2358.4242   -1537.4379   -30.937385    698.95292   -21.020562   -3991.0642 
 6283000    274.78712   -4158.7685   -3687.7928   -4158.7685            0   -2077.5794    18.204012    23.945333    22.186149    9670.9676   -2939.0755    -2697.901   -595.76168   -180.44898   -337.29303   -361.31254    -3980.817 
 6284000    271.72033   -4192.4176   -3726.6983   -4192.4176            0   -764.02001    18.198346    23.600868    22.383997    9613.8546   -643.87557   -563.81869   -1084.3658    530.29636    453.25137    381.42108   -3833.8201 
 6285000    254.88925   -4172.8855    -3736.014   -4172.8855            0   -1797.6594    18.423337    23.747891    22.060603    9651.8532   -2065.2308   -2382.6885   -945.05885    281.83967   -238.77808   -520.94432   -3989.0568 
 6286000    280.01777   -4206.7846   -3726.8438   -4206.7846            0   -677.48077    18.145431    23.700424    22.272785    9578.5093   -1797.3148   -435.61965    200.49213    675.47303    293.34618    -103.5792   -3821.4829 
 6287000    278.39338   -4159.9737    -3682.817   -4159.9737            0   -2575.9823    18.153306    23.831136     22.39208     9687.125   -3016.2307    -3523.522    -1188.194    342.42901   -286.46397    976.57974   -4046.7435 
 6288000    279.16455   -4173.0098   -3694.5314   -4173.0098            0   -1650.1106    18.220394    24.046153    22.043466    9657.9122   -2157.7483   -3568.0042    775.42085   -239.31135    990.15416    212.41556   -3926.9507 
 6289000    278.90592   -4160.3179   -3682.2827   -4160.3179            0   -1755.2794    18.387995    23.731315     22.32792    9743.2637   -1618.5338    -2996.404   -650.90023     73.15952    34.425092    257.72703      -3931.7 
 6290000    272.11583   -4173.6532    -3707.256   -4173.6532            0   -2858.2063    18.429897    23.579867    22.380398    9725.9505   -2944.2802   -2433.6767    -3196.662      788.761   -365.91916   -175.30403   -4112.6726 
 6291000    286.74977   -4183.4577   -3691.9784   -4183.4577            0   -2440.7939    18.406976    23.838295    22.200096    9741.2006   -1491.3445   -3754.3073   -2076.7299    63.155977    170.22372    58.151737   -4038.7308 
 6292000    275.36673    -4168.254   -3696.2848    -4168.254            0   -2018.6275    18.040585    23.684546    22.720328    9708.0109   -590.33521   -2830.9171     -2634.63    831.44965    291.15377    744.55933   -3982.0849 
 6293000    276.54203   -4151.5676    -3677.584   -4151.5676            0   -1206.5883    18.205671    23.851838    22.234704    9655.1692   -923.49345   -549.60938   -2146.6622    236.99506    165.08565    242.92668   -3847.4846 
 6294000    278.59522   -4169.0964   -3691.5937   -4169.0964            0   -733.91806    18.269664    23.771874    22.168625    9627.9259   -1387.3881   -1396.0509    581.68483    68.679626   -167.73431    582.35408   -3794.6456 
 6295000    272.39212   -4219.0378   -3752.1671   -4219.0378            0   -1539.8791    18.271067    23.511497    22.411399    9627.4919    -1859.929   -1663.7712   -1095.9372   -874.24027   -245.06701    106.58494    -3968.377 
 6296000    288.33319   -4175.6605   -3681.4673   -4175.6605            0   -771.57257    18.358493    23.719398    22.126365    9634.9788   -346.07068   -2195.8523    227.20526   -1066.7651    796.96598   -316.53229   -3789.8858 
 6297000    274.78458   -4179.8895   -3708.9181   -4179.8895            0   -1991.6913    18.104149    23.834542    22.393692    9662.9703   -1249.7362   -2676.0247   -2049.3131    640.14495    534.82479    863.00704   -3989.5963 
 6298000    273.16332   -4157.6151   -3689.4225   -4157.6151            0   -842.01183    18.225087    23.635688    22.349516    9627.3331   -1123.4302   -784.12291   -618.48242    1266.0119   -123.68784   -185.19117    -3807.645 
 6299000     274.6196   -4148.0552   -3677.3666   -4148.0552            0   -1042.1248    18.396712    23.703508    21.895939    9548.0879   -1309.8494   -268.84612   -1547.6789   -558.75068    85.907528    153.60289   -3822.4815 
 6300000    276.89245   -4188.0002    -3713.416   -4188.0002            0   -365.81176    18.160342     23.51716    22.325434    9534.7391    768.43311   -537.38164   -1328.4868     437.6965   -242.99614    749.34264   -3764.2837 
 6301000     297.9081   -4184.2554   -3673.6511   -4184.2554            0   -488.77685    18.426762    23.676739     21.91822    9562.6046   -1657.7271    1255.5029   -1064.1063   -981.12606   -120.19505   -379.51358   -3741.8163 
 6302000     267.5873    -4171.243   -3712.6075    -4171.243            0   -1227.6937    18.173077     23.72386     22.36245     9641.247    -8.066387   -1994.2797   -1680.7348     171.4043    87.060976    102.87434   -3885.2307 
 6303000    267.12685   -4169.4992    -3711.653   -4169.4992            0   -2226.5158    18.036323    23.860011    22.504552    9684.7631    -1328.522   -2150.1715   -3200.8538     184.1262    643.51605    370.76399   -4026.1312 
 6304000    278.16654   -4142.2697   -3665.5018   -4142.2697            0   -1746.8445    18.319214    23.915325    22.277824    9760.1363   -1955.7705   -1574.8726   -1709.8904   -51.127391    209.96208    -63.92287   -3914.1504 
 6305000    278.49979    -4165.798   -3688.4589    -4165.798            0   -2013.8098    18.357239    23.449852    22.515563    9692.3765   -2341.6235   -894.78125   -2805.0246    204.87136    85.986157   -953.42688   -3973.1177 
 6306000    285.81842   -4143.9507   -3654.0677   -4143.9507            0   -1263.9055    18.339536     23.62176    22.263031    9644.6148   -2091.4015   -2054.7406    354.42561   -570.60044    572.59268    98.668437   -3831.8447 
 6307000    284.91061   -4185.3652   -3697.0381   -4185.3652            0   -925.66645    18.137109    23.830875    22.323048    9648.5387   -427.69666    -1665.179   -684.12374   -21.820212   -369.46939   -272.37293   -3827.2924 
 6308000    277.35328   -4173.7817   -3698.4076   -4173.7817            0   -201.71166    18.117618    23.747848    22.418837    9645.8044    369.47535    766.60534   -1741.2157   -682.88216    407.51297   -107.72284   -3726.7832 
 6309000     281.2253   -4171.4314   -3689.4208   -4171.4314            0   -1460.9253    18.441449    23.664386      22.0457    9620.8662   -2834.0592   -1608.5019    59.785207   -784.10201    802.10737   -428.26572    -3894.404 
 6310000    270.04546   -4194.2601   -3731.4114   -4194.2601            0   -1528.7086    18.288744    23.727868    22.389672    9716.0633   -1662.0627   -1409.1441    -1514.919   -174.23614    48.189911    173.66822   -3948.0276 
 6311000    281.75975   -4178.5445   -3695.6179   -4178.5445            0   -3391.9097    18.385993    23.875744    22.325895    9800.6051   -3538.8962    -4176.408   -2460.4248   -317.15242     66.88786    400.27149   -4180.4296 
 6312000     290.6396   -4160.2148   -3662.0685   -4160.2148            0   -3107.9278    18.360859    23.799228    22.440656     9805.989   -2441.7671   -2318.5482   -4563.4679   -1111.2149    477.12042    417.61507   -4106.5341 
 6313000    288.58232   -4141.8588   -3647.2385   -4141.8588            0   -1384.3021     18.42254    23.687647    22.271976    9719.1927   -2451.6034   -1034.2605   -667.04232    123.83177   -348.83924   -10.409239   -3843.4557 
 6314000    274.89698   -4164.0839   -3692.9199   -4164.0839            0   -721.55545    18.416695    23.599713    22.366387    9721.0742   -1824.1212   -405.30245    64.757347   -1091.2281    320.97532    1118.5421   -3795.2162 
 6315000    269.14505   -4189.8401   -3728.5347   -4189.8401            0   -1201.4421    18.192592    23.692822    22.499347    9697.9801   -1253.5721    -1729.588   -621.16619     -769.812    346.63568    550.23221   -3898.4608 
 6316000    294.43707   -4162.5877   -3657.9326   -4162.5877            0   -1496.3958    18.206918     24.07637    22.222609    9741.4246   -1217.6714   -2970.1889   -301.32708    353.51671    433.56845    151.71858   -3870.5236 
 6317000    253.68568     -4170.59   -3735.7814     -4170.59            0   -1254.2989    18.231202    23.816223    22.334777    9697.7237     280.6946    -3309.322   -734.26932   -171.34526    33.161945    156.57015   -3913.1786 
 6318000    273.67162   -4168.6774   -3699.6136   -4168.6774            0   -1955.9374    18.470572     23.62834     22.29454    9729.9825   -1510.0305   -2760.0687    -1597.713    118.27925   -1029.0276    62.516672   -3977.1647 
 6319000    269.93726   -4208.3058   -3745.6426   -4208.3058            0   -2355.7032    18.414175    23.496649    22.427753    9703.8473   -2949.4654   -1751.2627   -2366.3816   -834.58075   -399.26232   -532.79878   -4079.0233 
 6320000     270.7551   -4153.5666   -3689.5016   -4153.5666            0   -2156.7449    18.261003    23.680319    22.590074    9768.5437   -2076.0018   -1209.6969   -3184.5361    1247.2811   -159.11447     690.2201   -3996.7605 
 6321000    271.93601   -4171.8473   -3705.7583   -4171.8473            0   -1673.0619    18.156891     24.04909    22.206907     9696.795   -1546.5592   -2289.8321   -1182.7943   -778.01981    -305.0302   -215.57219    -3942.359 
 6322000     301.8515   -4140.6539   -3623.2907   -4140.6539            0     -2335.81    18.260737    23.865546    22.440849    9779.7776   -1621.5574   -1903.8158   -3482.0568    97.679643   -605.29657    557.44904   -3956.4427 
 6323000    269.54846   -4194.3449   -3732.3481   -4194.3449            0    -1684.076    18.303085    23.462475    22.528746    9674.6469   -1500.6183   -1813.1927    -1738.417   -1007.7904   -565.49602    181.36849   -3969.9624 
 6324000    296.55502   -4210.8523   -3702.5671   -4210.8523            0    -2324.807    18.415672    23.750294    22.215757    9716.6753   -2137.4785   -3255.2858   -1581.6565   -314.36054    638.95459     201.2382   -4032.0103 
 6325000    268.77924    -4155.578   -3694.8996    -4155.578            0   -1587.4599    18.098392    23.862722    22.446434    9694.0963   -1663.2555   -1697.5883   -1401.5358    644.84099    264.26282   -180.08445   -3919.3322 
 6326000     266.9032   -4155.0079    -3697.545   -4155.0079            0   -2340.2824     18.19004    23.886377    22.362781    9716.4981   -2785.0082   -3186.1821   -1049.6568    320.49228    35.409684   -583.51529    -4029.175 
 6327000    270.67056   -4184.6835   -3720.7634   -4184.6835            0   -1761.0639    18.271075    23.649414    22.286749    9630.1087   -2635.2147    -2367.739    -280.2381   -1041.5967   -770.76317    416.91356   -3968.0965 
 6328000     310.9236   -4185.1932   -3652.2808   -4185.1932            0   -626.01006    18.298109    23.409209    22.298747    9551.5402   -265.14798   -172.70918    -1440.173    297.43144    538.19625   -487.33072   -3739.4837 
 6329000    281.63549   -4191.6213   -3708.9077   -4191.6213            0   -355.21115    18.292112    23.661111    22.150583    9587.0313    637.95603   -894.96538   -808.62408    920.94297    343.69847   -571.73635   -3758.5722 
 6330000     285.8968   -4145.5991   -3655.5818   -4145.5991            0    387.64117    18.059593    23.601116    22.348571     9525.554    927.87416    -96.18018    331.22953   -726.35946    498.68224   -181.63565   -3601.7305 
 6331000     270.4601   -4162.4727   -3698.9133   -4162.4727            0   -1108.9836    18.143376    23.935365    22.249848    9662.4045   -1346.8312   -435.23786   -1544.8818   -62.795865    133.73823   -16.148166   -3855.1872 
 6332000    272.67794   -4187.7083   -3720.3477   -4187.7083            0   -566.15219    18.236783    23.735114    22.221729    9618.7228    -98.10812   -503.98304   -1096.3654   -1212.1795   -507.98465   -414.24754   -3799.7671 
 6333000    257.52157   -4160.0595   -3718.6763   -4160.0595            0   -1483.6225    18.384385    23.631568    22.259485    9670.6742   -1280.6424   -94.784341   -3075.4409  -0.92899578   -29.399931    816.36815   -3927.9218 
 6334000    290.45324   -4145.3283   -3647.5013   -4145.3283            0   -573.70451    18.485603    23.568087    22.200885    9672.2663   -335.62358   -521.51274   -863.97722    -28.85922   -475.70789    86.358867   -3728.4282 
 6335000      290.128   -4200.7462   -3703.4767   -4200.7462            0   -1821.0463    18.115335    23.788242    22.512072    9701.1717   -1216.7062   -1679.5922   -2566.8405    474.20137    29.669981    69.231245   -3961.1214 
 6336000    277.29283   -4158.1402   -3682.8698   -4158.1402            0   -1699.8835    18.188372    24.228571    21.990471    9690.7226   -1557.7351   -2871.0611   -670.85413    482.45281   -7.3014428   -591.84997    -3923.113 
 6337000    272.97424   -4185.4449   -3717.5764   -4185.4449            0   -845.85971    18.281527     23.60118    22.276098    9611.3697   -293.92155     -2889.91    646.25241    54.254626   -277.36718   -187.20979   -3836.1422 
 6338000    294.69838   -4164.5202   -3659.4172   -4164.5202            0    -752.2612    18.298713     23.46027    22.290367    9569.0929   -581.73452   -1663.9263   -11.122799    130.33799   -174.79804    1.5292535   -3764.3993 
 6339000    266.20748   -4198.7308   -3742.4603   -4198.7308            0   -1235.4391    18.281488     23.63188    22.217614    9598.5854   -1012.8329   -279.22317   -2414.2614   -1086.3431   -623.17015    524.32065   -3915.4039 
 6340000    275.48515   -4178.3862   -3706.2141   -4178.3862            0    255.58438    17.979411    24.056102    22.022557    9525.0764    490.18408    752.64746   -476.07839    208.20872    306.97921    358.38598     -3670.71 
 6341000     262.2837   -4183.0894   -3733.5441   -4183.0894            0   -792.93322    18.037542    23.798586     22.49593    9656.7827   -410.05336    -206.6843    -1762.062    15.552714   -290.82132   -358.87513   -3845.2163 
 6342000     290.7821   -4177.3245    -3678.934   -4177.3245            0   -697.09093    18.333928    23.444293    22.314674    9591.4268   -34.101091    165.84031    -2223.012    914.74092   -118.31397   -924.77636   -3776.4438 
 6343000    268.34448   -4187.1399   -3727.2066   -4187.1399            0   -1226.1835    18.397474    23.623286    22.231902      9662.18   -1656.1608   -754.41578   -1267.9738    94.937031    552.18391   -1.6659443   -3899.9918 
 6344000    268.03889   -4163.8094   -3704.3999   -4163.8094            0    -1223.236    18.215271    23.661009    22.453797       9677.4   -344.39361   -1668.3363    -1656.978    128.32298   -198.17926    745.18854   -3877.0412 
 6345000    278.91743   -4198.6342   -3720.5792   -4198.6342            0   -2529.8457    18.047049     24.14957    22.247171    9695.9499   -1515.6299    -4592.074    -1481.833   -304.60722    332.63791    150.04544   -4078.3133 
 6346000    296.89583   -4193.5801   -3684.7108   -4193.5801            0   -2080.4648     18.27031    23.867947     22.26404    9708.7866   -1516.1028    -3403.101   -1322.1905    348.29808    307.22517   -521.09338   -3979.2894 
 6347000    271.99529   -4163.2609   -3697.0703   -4163.2609            0   -1892.7248    18.544439     23.24632    22.408396    9660.0348   -3746.0065   -1102.7041   -829.46386    751.87445    358.88896    102.69044   -3963.7206 
 6348000    267.56194   -4184.9211   -3726.3291   -4184.9211            0   -1403.7387    18.317895    23.584404    22.346932    9654.2461   -2378.3307   -623.70201   -1209.1834   -385.70061    42.565825    445.12566   -3923.9717 
 6349000     287.6989   -4184.6295   -3691.5234   -4184.6295            0   -1355.7673     18.09232    23.831851    22.286067    9609.1611   -693.14051   -1518.3025    -1855.859   -741.75378     691.5454    596.01336   -3881.5203 
 6350000    277.72322   -4198.5467   -3722.5386   -4198.5467            0    -1585.337    18.145071    23.790422    22.386993    9663.9928   -111.41338   -1844.1317   -2800.4661   -355.83373    254.85364    368.23817   -3945.9751 
 6351000    268.66806   -4208.3146   -3747.8267   -4208.3146            0   -1397.1638    18.280992    23.772524    22.124404    9614.9413   -774.91841   -1499.3362   -1917.2367   -552.54792   -617.61428   -223.29543   -3943.7427 
 6352000    284.96697   -4168.6957    -3680.272   -4168.6957            0   -1919.3309    18.399973    23.565795    22.233328     9640.593   -2029.7655   -1683.7449   -2044.4822    398.90666    48.609436   -63.784464   -3950.1264 
 6353000    266.98868   -4136.0116   -3678.4022   -4136.0116            0   -2611.1253    18.172597     23.62658    22.690632    9742.3658   -1562.3789   -2951.5826   -3319.4144    786.65333    47.852013   -3.0428684   -4049.3971 
 6354000     268.1627   -4159.2323   -3699.6106   -4159.2323            0   -1209.3502    18.275592    23.872425    22.156452    9666.4768    905.25914   -2421.5057    -2111.804   -225.02777   -469.72052   -27.483623   -3870.0995 
 6355000    300.20496      -4181.7    -3667.159      -4181.7            0   -1597.9114    18.168821     23.87021     22.31181    9676.4888   -2049.7086   -3346.4729    602.44737    208.09928    296.17882    907.74744   -3892.6589 
 6356000    268.75601   -4186.7492   -3726.1106   -4186.7492            0   -1350.1589    18.169858    23.633131    22.540876    9679.2921   -2596.2453    -282.6565   -1171.5748     328.1663   -108.71916    262.03353   -3916.7024 
 6357000     272.4834   -4189.2203   -3722.1931   -4189.2203            0   -1192.9405    18.524887    23.719301    21.998175    9665.9403   -3172.4187   -634.26458    227.86174   -71.913237   -545.53113    589.06007   -3890.3593 
 6358000    276.14346   -4169.8913   -3696.5909   -4169.8913            0   -1716.8573     18.15779    23.638887    22.523744    9667.8655   -968.80522   -1624.4977   -2557.2691    39.391954   -578.83097    43.081638   -3938.6607 
 6359000    270.45063   -4164.4807   -3700.9375   -4164.4807            0   -2674.0179    18.213176    24.059111    22.223393    9738.1314   -2839.6439   -4106.7805   -1075.6294    630.54832    -54.67992   -121.42662   -4080.7033 
 6360000    289.82734   -4199.8593   -3703.1052   -4199.8593            0   -2084.8719     18.28378    23.744949    22.298101    9680.6629   -2411.2374   -1644.8486   -2198.5295    -497.2588   -290.24231    3.8779711   -3997.4527 
 6361000    284.06006   -4171.2388   -3684.3696   -4171.2388            0   -279.59242    18.101557     23.67105    22.368118    9584.3553   -700.85015    741.25225   -879.17937     574.6991   -590.70822   -604.51341   -3723.4505 
 6362000    282.69251   -4178.5028   -3693.9775   -4178.5028            0   -660.94527    18.364874    23.674181    22.159233    9634.2441   -1144.4946   -647.41899   -190.92225   -781.45881    404.47286   -331.36204    -3786.844 
 6363000    278.71786   -4194.0281   -3716.3152   -4194.0281            0   -1642.9376    18.398396    23.432076    22.323599     9623.985   -1020.5786   -1449.3863    -2458.848   -404.93815   -792.60167   -398.66631   -3946.9113 
 6364000    284.12509   -4139.4115   -3652.4308   -4139.4115            0    -1558.546    18.275444    23.729335    22.540799    9775.1358   -1715.4335   -1080.5427   -1879.6617   -1207.1687    575.59835    1126.9971   -3874.6176 
 6365000    281.66298   -4153.8135   -3671.0528   -4153.8135            0   -1890.4444    18.292524    23.892066    22.320157    9754.9397   -1003.0843   -2971.0334   -1697.2156   -373.37711    902.38029     -647.766   -3939.9984 
 6366000    261.54754   -4170.1418   -3721.8583   -4170.1418            0   -2277.3331    18.173588    23.837953     22.43769    9720.4819   -839.12518   -3148.5842   -2844.2899   -345.94791    680.90083   -831.53709   -4044.7004 
 6367000    274.52798    -4211.229   -3740.6975    -4211.229            0   -2336.1402    18.358165    23.577363    22.527106    9750.5676   -756.10505   -2502.1832   -3750.1323   -203.53919   -232.64348     371.1752   -4072.9014 
 6368000       271.08   -4189.9047   -3725.2828   -4189.9047            0   -1355.3085    18.347508     23.74409     22.21033    9675.8166   -2322.2771   -1607.6715   -135.97694    600.96161     251.9119    309.18001   -3916.5329 
 6369000      273.214   -4147.6562   -3679.3768   -4147.6562            0   -863.73669    17.991404    23.811152    22.623175    9691.6788    1073.9187   -1837.6288      -1827.5   -483.93825   -667.34991   -377.41198   -3801.4601 
 6370000    280.09561   -4201.1482   -3721.0739   -4201.1482            0   -1692.3914    18.242954    23.967984    22.103549    9664.7068   -1404.1247    -2265.116   -1407.9337   -95.738674   -165.03223   -85.466475   -3959.6162 
 6371000    281.32382   -4201.8057   -3719.6263   -4201.8057            0   -1410.5191    18.289266    23.514271     22.22795    9559.3245   -2248.4254   -1101.6469   -881.48506    244.36435    577.08771    322.44719   -3916.2709 
 6372000    288.41765   -4163.4825   -3669.1446   -4163.4825            0   -910.49133    18.242012    23.531709    22.434972    9630.5646   -1253.9741    713.28957   -2190.7894    63.380163   -388.98941    194.29032   -3797.0248 
 6373000    259.89176   -4184.8374   -3739.3918   -4184.8374            0   -1870.9252    18.502726    23.753014    21.991632    9665.2237   -2825.3829   -1404.0114   -1383.3811   -53.002451   -160.70667   -575.92177   -4003.1125 
 6374000    273.45295   -4146.8754   -3678.1864   -4146.8754            0   -2110.0998    18.220648    23.834672    22.374161    9716.7215   -2152.1389   -1737.1818   -2440.9786     -229.608    65.803858   -398.67408   -3977.2053 
 6375000    282.31943   -4136.4675   -3652.5817   -4136.4675            0   -2112.1372    18.106324    23.880351     22.54704    9749.0102   -2319.0557   -840.41787   -3176.9381   -745.48225    89.395884   -31.524377   -3952.8839 
 6376000    280.02904   -4181.4715   -3701.5113   -4181.4715            0   -360.88262    18.306204    23.722995    22.128252    9609.8128   -1121.0412    -587.9287    626.32205    782.22753   -334.68166    -106.6298   -3752.0887 
 6377000     283.7724   -4177.8137   -3691.4375   -4177.8137            0   -1911.5756    18.266117    23.526054    22.399386    9625.6803   -2266.1348   -1397.5907   -2071.0014    419.68195    174.09369   -20.836237   -3959.7858 
 6378000    270.04323   -4157.8095   -3694.9646   -4157.8095            0   -927.62807    18.184287    23.762915    22.400428    9679.4863   -847.37759   -327.15354   -1608.3531   -888.43842   -205.71229    471.24273   -3825.9136 
 6379000    289.11936   -4165.2087   -3669.6681   -4165.2087            0   -1856.8112    18.185763    24.012117    22.185601    9687.9788   -2997.4601   -779.82885   -1793.1446    211.37523     234.8262    1.9010265   -3932.0155 
 6380000    267.83743   -4183.0751   -3724.0109   -4183.0751            0   -2469.2564    18.070543    23.883543    22.531873    9724.4996   -1693.1375   -2377.0641   -3337.5675   -688.40265    -335.4992    46.457345   -4074.2054 
 6381000     264.9582   -4186.3213    -3732.192   -4186.3213            0   -2140.5598    18.338399    23.768179    22.219042    9684.6217   -154.01495   -2005.4157   -4262.2487     1587.124    29.061078   -108.03168   -4034.5253 
 6382000    277.12149   -4134.9044   -3659.9276   -4134.9044            0   -1426.3815    18.432617    23.543745    22.328786    9690.0864   -3155.5422   -810.27712   -313.32527    511.73639    676.78157    852.89799   -3861.5038 
 6383000    257.33931   -4152.9187   -3711.8479   -4152.9187            0   -1284.9954     18.27304    23.659299    22.376832    9674.1155   -2121.0586   -422.48398   -1311.4436    -644.7299    554.66417    761.52663   -3893.1442 
 6384000    268.34539   -4182.6581   -3722.7233   -4182.6581            0   -1792.9367    18.104213    24.042578    22.184278    9656.1943   -926.57309    -2494.738   -1957.4989   -84.655788   -269.29064    175.45938   -3975.2149 
 6385000    265.13483   -4195.4741   -3741.0421   -4195.4741            0   -460.92589    18.132446    23.636591    22.295572    9555.6414    486.44087   -1192.0977   -677.12081    406.59812   -460.28899    692.17002   -3805.2763 
 6386000    277.37241   -4173.2951   -3697.8883   -4173.2951            0   -294.08696    18.348609    23.586996    22.190545    9603.8144   -785.08082    732.85017   -830.03023   -56.539763   -548.20977    1038.8035   -3739.0787 
 6387000    271.49397   -4192.9368   -3727.6055   -4192.9368            0   -1163.2568    18.236707    23.690883    22.334749    9649.5874   -1406.7532   -1506.7313   -576.28599    123.22787    28.531453   -713.74962   -3891.3098 
 6388000    285.03115   -4193.5986   -3705.0649   -4193.5986            0   -1729.8408    18.309512    23.770002    22.190358    9657.6236   -1896.0579   -514.07456     -2779.39    912.14754   -270.33732    1417.9695    -3948.707 
 6389000     265.8495   -4214.1787   -3758.5218   -4214.1787            0   -1765.7581    18.057304    23.981965    22.233002    9627.9934   -520.07494   -2236.3712   -2540.8282   -722.58948   -1.2618935    -901.0727   -4006.4597 
 6390000    272.87822   -4170.9711   -3703.2672   -4170.9711            0   -1871.9908    18.177498    23.767238    22.480742    9712.3307   -1875.8684   -3701.8173   -38.286577   -428.44691   -122.08288    1466.7006   -3968.4241 
 6391000    264.39305   -4184.9929   -3731.8323   -4184.9929            0    -2294.991    18.464053    23.756395    22.167934    9723.7277   -1863.9312   -2931.4093   -2089.6324   -219.68137   -381.55712    88.142847   -4057.2863 
 6392000    271.10867    -4177.326    -3712.655    -4177.326            0   -2699.7749    18.454403    23.666771    22.309848    9743.9628   -2637.8896   -1865.4599   -3595.9752   -790.77048   -68.579192   -203.96135   -4096.3084 
 6393000    269.62255   -4172.7807   -3710.6568   -4172.7807            0   -1591.2307    18.262659    23.625598    22.413838    9670.8138   -1697.2081    -670.6778    -2405.806    40.620081   -139.74999    -465.9195   -3935.0823 
 6394000    282.58253   -4188.1285   -3703.7917   -4188.1285            0   -2753.0986    18.133336    23.951599    22.367696    9714.7912   -3051.5055   -3674.2443    -1533.546    339.02668    543.30259     917.4984   -4093.8515 
 6395000    288.13621   -4166.6985   -3672.8429   -4166.6985            0    -2349.428    18.302011    23.847349    22.392677    9773.3832   -2851.7675   -2046.7839   -2149.7327   -523.10959   -203.94241    843.30302   -4007.7181 
 6396000    273.99425    -4186.906   -3717.2892    -4186.906            0   -1404.3855    18.481863     23.53087    22.304376    9700.0466   -3658.4784   -40.410996   -514.26715    1004.5196   -254.39297    516.42277   -3915.9609 
 6397000    258.49027   -4180.9064    -3737.863   -4180.9064            0   -1626.5827    18.199754    23.587178    22.546248    9678.6724    -1207.413   -2422.5538   -1249.7813    7.2748494    643.43598   -142.35474   -3967.4608 
 6398000     262.9303   -4196.3831   -3745.7296   -4196.3831            0   -1498.6508    18.138348    23.859764    22.247364    9628.1412   -1251.7637   -1375.4514   -1868.7374    550.80068   -319.00196    -512.0763    -3956.165 
 6399000    278.11932   -4127.1614   -3650.4744   -4127.1614            0   -2253.0583    18.257354    23.810346    22.420147      9746.35   -3257.8683   -883.87808   -2617.4285   -363.79388   -114.59756   -383.40296   -3970.7253 
 6400000    270.03517   -4174.9679   -3712.1369   -4174.9679            0   -766.96784    18.276618    23.530454    22.389277     9628.668   -43.756578   -724.57484   -1532.5721    279.35575     594.0881    1057.7653   -3819.8377 
 6401000    283.34855    -4152.697   -3667.0472    -4152.697            0   -2343.8244    18.609051    23.621649    22.137158    9730.9736   -3407.9619   -2189.7961   -1433.7151    949.47827    109.73027    8.9472681    -3999.674 
 6402000    263.33015   -4183.2875   -3731.9486   -4183.2875            0   -2156.7542    18.269983      23.7378    22.427457    9726.5462   -2649.5055   -2460.7031   -1360.0542    12.850244    123.61915    109.39895   -4037.8879 
 6403000    281.03421   -4179.8469   -3698.1639   -4179.8469            0   -1101.7425    18.113522    23.909242      22.1963    9612.7861    -644.7298   -1403.3266   -1257.1711   -438.18112    123.91721     10.85793     -3852.62 
 6404000    255.15648    -4155.655   -3718.3255    -4155.655            0    -1141.649    18.285967    23.545708    22.326637    9612.8684   -1520.7171   -506.30111   -1397.9288   -785.95799    81.614427    297.04423   -3878.3777 
 6405000    285.84798   -4205.7822   -3715.8486   -4205.7822            0   -746.27008    18.376991    23.252499    22.342323    9547.1196   -1267.1173   -877.23599   -94.456908   -148.34183    530.17047   -95.942293   -3819.7555 
 6406000     257.7063   -4199.6122   -3757.9124   -4199.6122            0   -733.20501    18.259849    23.758933    22.129478    9600.5316    246.38979   -1413.3863   -1032.6185    288.09195   -838.03821    294.56488   -3860.5713 
 6407000    267.02405   -4177.0132   -3719.3431   -4177.0132            0   -1955.0986    18.000641    23.887953    22.470808     9662.413   -2406.7173   -1855.4214   -1603.1571   -91.733995     336.2233   -621.95415   -3994.8486 
 6408000    283.28483   -4199.8525    -3714.312   -4199.8525            0   -2426.3578    18.262999    23.759819    22.317557    9684.1581   -2396.5019   -2669.4018   -2213.1696    387.84385   -817.04494    985.99343    -4056.995 
 6409000    278.69334   -4170.6584   -3692.9875   -4170.6584            0   -3138.9343    18.512005    23.735239    22.336733    9814.4667   -3164.9346   -3580.4139   -2671.4544    612.60507    -486.1566    609.05221   -4142.2755 
 6410000    277.69493   -4140.5629   -3664.6032   -4140.5629            0   -1202.1797    18.264569    23.702437    22.359901     9679.932   -499.51209   -2720.3074   -386.71948    -433.0001   -688.86404   -574.11687   -3834.3172 
 6411000     276.7361   -4210.6395   -3736.3233   -4210.6395            0   -594.37869    18.199619    24.003339    21.996027    9608.9999    414.54123   -2575.0718    377.39453   -131.18654   -127.18541      64.1932    -3819.618 
 6412000    263.21356   -4167.4256   -3716.2865   -4167.4256            0   -1969.8297    18.133348    23.816337    22.568499    9746.6558   -1017.1777   -1411.4753   -3480.8361    629.68815    -331.8041    330.44538   -3996.2879 
 6413000    278.84846   -4174.8761   -3696.9394   -4174.8761            0   -2096.8289    18.321654    23.722929    22.373125    9724.3292    -1644.397   -1962.6112   -2683.4785   -206.23314   -395.49572    130.59414   -3994.3103 
 6414000    289.29179   -4212.1355   -3716.2992   -4212.1355            0   -1563.3489    18.419558    23.713976    22.120207    9662.1273   -2500.9029   -1345.9875   -843.15643    381.88931    158.53535   -698.60404   -3936.5942 
 6415000    266.67832     -4156.62   -3699.5425     -4156.62            0   -1062.3915    18.189104    23.646839    22.398554    9633.9499   -942.58102   -1533.9768   -710.61666   -532.57665   -135.35854    575.65396   -3848.8098 
 6416000    282.64029    -4169.073   -3684.6372    -4169.073            0   -642.86209    18.231419    23.834314    22.128553    9615.5946   -21.223587   -451.70134   -1455.6613   -536.41733    3.5224433   -81.615258    -3774.788 
 6417000    270.46402   -4204.4345   -3740.8684   -4204.4345            0   -1999.8086    18.223978     23.84784    22.174256    9636.9875   -2494.2658   -1987.9416   -1517.2183   -717.37896     480.7393   -401.37986   -4021.9326 
 6418000    295.43889   -4171.6507   -3665.2785   -4171.6507            0   -473.11977    18.175401    23.418389    22.538721    9593.3496    604.08125    1065.6014    -3089.042   -719.90192   -60.756192   -597.41533   -3731.4723 
 6419000      285.515   -4164.3366   -3674.9736   -4164.3366            0   -1296.4389    18.404358    23.648064    22.179289    9653.0351   -1519.2825   -2454.8645    84.830438   -344.71937   -640.67749   -323.16293   -3857.4858 
 6420000    272.68079    -4168.326   -3700.9605    -4168.326            0   -2396.9069    18.247727    23.760068    22.400108    9711.9527   -2661.1127   -3110.9703   -1418.6377    771.08926     152.9306      779.686   -4040.4557 
 6421000    276.05658   -4176.1692   -3703.0177   -4176.1692            0   -2690.3342    18.263185    23.868514    22.295517    9718.9523   -3836.9577     -3495.71   -738.33476   -713.03516    330.57426   -211.37178   -4084.3482 
 6422000    273.33304   -4172.7756   -3704.2921   -4172.7756            0   -2896.5169    18.420993    23.782927    22.310177    9774.2031   -4148.7722   -2026.7516   -2514.0268    212.60055   -858.93269    478.67738   -4117.1811 
 6423000    241.53094   -4127.8365   -3713.8607   -4127.8365            0   -693.68078    18.325981    23.564211    22.307694    9633.2939   -1067.6847   -590.60929   -422.74839    163.11448      292.061    486.42148   -3811.3171 
 6424000    265.34171   -4177.4381   -3722.6515   -4177.4381            0   -254.83489    18.147821    23.768273    22.214191    9581.9217     771.0987    22.856766   -1558.4601    283.36783   -644.96524   -233.48458   -3758.2627 
 6425000    286.25293   -4182.7675   -3692.1398   -4182.7675            0   -463.56485    18.042599    23.831105    22.234415    9560.2438    164.44172   -752.52798   -802.60829    327.83829   -222.68378   -38.584262    -3756.773 
 6426000    276.28438   -4201.3331   -3727.7912   -4201.3331            0   -783.92674    18.178041    23.675842    22.183682    9547.4228   -1651.1234   -247.22893   -453.42786   -632.71669     854.1423     584.3053   -3836.9446 
 6427000    293.63468   -4174.9439   -3671.6641   -4174.9439            0   -1040.8831    18.229829     23.48183    22.396255    9587.1593   -1658.1049    -489.8921   -974.65242   -1065.5322    -259.4202   -525.58803   -3817.1992 
 6428000    274.62386   -4158.1681   -3687.4722   -4158.1681            0   -460.72238    18.248667    23.777098    22.174705    9621.6121    517.84541   -979.42505    -920.5875    701.86806   -1054.1241   -444.51546   -3752.1214 
 6429000    275.97561   -4177.3967    -3704.384   -4177.3967            0   -2441.2681    18.210571    23.840019    22.239776    9655.1843   -1550.2795   -2703.9051   -3069.6196   -91.488447    393.06869    37.797804   -4048.1413 
 6430000    261.86331   -4153.7016   -3704.8769   -4153.7016            0   -1931.7361    18.250913    23.564332    22.545135    9695.9992   -1272.1996   -479.56321   -4043.4454    624.08981   -270.33079   -333.50518   -3978.0363 
 6431000    288.87742   -4189.4255   -3694.2995   -4189.4255            0   -2345.4983    18.435246    23.831798    22.077416    9699.6035   -1914.7816   -3522.8342   -1598.8791    355.88041   -1245.0066   -154.18484   -4026.0908 
 6432000     298.9824   -4178.0021   -3665.5565   -4178.0021            0   -1530.6818    18.211383    23.796046     22.33417    9678.7112   -1959.0887   -1487.8662   -1145.0905   -217.78949    356.16218    701.90152   -3881.6185 
 6433000     263.5338   -4167.9009    -3716.213   -4167.9009            0   -2109.8876    18.208194    23.646568    22.599248    9730.3616   -3132.0995     -1858.38   -1339.1832   -1791.5405   -282.89158    944.52637   -4015.6215 
 6434000    270.21782   -4190.8981    -3727.754   -4190.8981            0   -749.67548    18.436324     23.61189    22.221347    9673.3178     -2015.47    504.63326    -738.1897     344.6819    58.459617   -33.753483   -3833.5148 
 6435000    284.14984   -4146.9104   -3659.8873   -4146.9104            0   -2017.6479    18.308249    23.799501    22.450536    9782.3089   -1518.8381   -3154.7936   -1379.3122    405.42219   -491.95926    47.965808   -3947.7349 
 6436000    290.35521   -4167.7712   -3670.1124   -4167.7712            0   -2321.0242     18.32902    23.833604    22.231866    9711.9152   -3013.7805   -2623.6145   -1325.6777   -765.04867    74.421114    870.59053   -3998.8583 
 6437000    272.16391    -4182.036   -3715.5564    -4182.036            0   -1117.0626    18.251071    23.893644    22.163407    9665.1201   -2076.2745   -591.35902   -683.55421    430.94265    423.35536    393.65894   -3873.0129 
 6438000    288.23315   -4158.2889   -3664.2672   -4158.2889            0   -1665.5294     18.19073    23.570512    22.572744    9678.3983   -1317.6336   -385.48673    -3293.468   -210.83851     246.0256   -149.58553   -3899.3558 
 6439000    259.20695   -4180.6722   -3736.4003   -4180.6722            0   -1461.8502    18.423812    23.728894    22.049103    9639.3536    -3145.533   -1572.5655    332.54808    469.68827    94.811742   -248.60349   -3941.9074 
 6440000     295.3235    -4162.957   -3656.7826    -4162.957            0   -1397.3958    18.225027    23.584027     22.39241    9624.6957   -3367.7211   -239.96343   -584.50275    453.66656     459.5081    736.58625   -3852.9299 
 6441000    279.26138   -4162.5675   -3683.9231   -4162.5675            0    -2206.167    18.375715    23.757485    22.160158    9674.2554   -3460.3559   -2341.2904   -816.85475    39.176055    222.46327    190.84686   -3995.1892 
 6442000    271.87812    -4155.931   -3689.9412    -4155.931            0   -564.17292    18.283128    23.667572    22.198688    9605.7553   -1947.4882    1637.3392   -1382.3698   -1570.3503    532.25627    184.27575   -3768.9762 
 6443000    273.15833   -4156.4104   -3688.2263   -4156.4104            0   -1976.8403    18.059553    23.678996    22.638614    9680.9979   -1073.7529   -1079.4834   -3777.2847   -378.44879    4.4614592    572.64977   -3967.3313 
 6444000     283.1692   -4159.7432   -3674.4009   -4159.7432            0   -714.71069    18.402953    23.685175    22.039079    9606.3308   -2168.0405   -1560.2385    1584.1469    492.75679   -139.83705    95.659444   -3774.5308 
 6445000     278.5537   -4178.8055    -3701.374   -4178.8055            0   -2514.3281    18.296158    23.690934    22.503862    9754.3683   -2646.6606    -1687.774   -3208.5497    889.78315    204.33486     670.9416   -4059.0559 
 6446000    290.91992   -4200.2635   -3701.6367   -4200.2635            0    -1760.964    18.051943    24.027121    22.341569    9690.3477   -807.67077   -3132.4059   -1342.8152   -491.92748    -95.09129   -11.947833   -3950.5028 
 6447000    271.60132   -4163.1562   -3697.6409   -4163.1562            0   -2088.4628    18.254878    23.928055     22.18868    9692.0983   -1852.5586   -2700.9521   -1711.8779    324.96281      470.278   -98.125726   -3992.8437 
 6448000    269.83443   -4146.8212   -3684.3342   -4146.8212            0   -1876.3316    18.496228    23.385753    22.487085    9726.7485   -2962.4081   -474.93892   -2191.6476    240.16257    92.228478    1649.8684   -3950.5006 
 6449000    298.16539   -4185.4144   -3674.3691   -4185.4144            0   -1471.7349    18.325889    23.695109    22.147019    9616.9873   -1321.5148   -1523.7271   -1569.9629     1562.328    72.437921   -292.27712   -3880.7857 
 6450000    278.03093   -4182.6131   -3706.0776   -4182.6131            0   -1398.1475    17.959117    23.830942    22.457465    9611.4063   -539.02278   -1356.7679   -2298.6517   -603.81977    21.350245    -289.1694   -3902.0594 
 6451000    273.00613   -4165.5569   -3697.6338   -4165.5569            0   -1218.9252    18.203052    23.797831     22.26605    9645.5008   -2460.9569    -1013.528    -182.2905   -137.60042    415.28388    91.062322   -3869.0997 
 6452000    283.42551   -4165.7646   -3679.9829   -4165.7646            0   -1116.4516    18.404023     23.75857     22.15072    9685.4746   -2075.1991   -873.11803   -401.03754    476.23172   -176.00075   -376.36445   -3837.6847 
 6453000    273.73938   -4197.5856   -3728.4057   -4197.5856            0   -923.61634    18.308417     23.50943    22.395863    9639.6376   -1137.4775   -382.79943   -1250.5721   -432.51916   -266.68079    348.29835   -3858.2516 
 6454000    274.73056   -4196.3856   -3725.5068   -4196.3856            0   -1874.3259    18.365763    23.639619    22.280427    9673.2625   -2625.9715   -1349.9258   -1647.0803    231.65581    254.66109   -44.901799   -3989.9266 
 6455000    262.06467   -4180.7418    -3731.572   -4180.7418            0   -1749.8131    18.181202    23.963965     22.25524     9696.468   -547.41742   -2788.9227    -1913.099    82.195567   -102.31146    414.43802   -3979.0183 
 6456000    282.74425    -4203.307    -3718.693    -4203.307            0   -2344.8854    17.909129    24.101936    22.484321     9705.238   -1629.9334   -2781.1211   -2623.6016   -1013.6285   -595.91339    609.18581   -4050.5903 
 6457000    280.40154   -4187.6999   -3707.1012   -4187.6999            0   -1621.1289    18.293972    23.619366     22.39269    9675.7024   -2089.0179   -770.78158    -2003.587   -171.87086   -65.582819    223.00989   -3935.8591 
 6458000    279.65592   -4163.9657    -3684.645   -4163.9657            0   -2082.4283    18.434063    23.542023    22.331177    9691.1759   -2201.5889   -3279.0659   -766.63015    47.090333   -425.86989    198.26017   -3978.9668 
 6459000    271.69318   -4161.8013   -3696.1285   -4161.8013            0   -1100.8803    18.283743    23.636129    22.330473    9650.2685   -1723.2745    852.05657    -2431.423   -636.16925   -184.72786    170.64979   -3851.0655 
 6460000    297.17981   -4187.1819   -3677.8258   -4187.1819            0   -783.02973    18.148607    23.884327    22.150303    9601.4316   -636.76126   -1350.7042    -361.6237   -21.294361   -491.07119    622.56369   -3787.4712 
 6461000    269.10259   -4180.4772   -3719.2446   -4180.4772            0   -2378.6935    18.186262    23.591895    22.463825    9638.0679   -1575.3655   -1512.4147   -4048.3004   -2007.6176   -14.441433    533.63911   -4053.5969 
 6462000    262.99759   -4147.8928   -3697.1239   -4147.8928            0   -1304.0527      18.4462    23.566275    22.421678    9746.8879   -538.39474   -1451.4951   -1922.2681    663.08872    348.65756    191.63508   -3882.4928 
 6463000    282.93467   -4153.4096   -3668.4692   -4153.4096            0   -2114.6847    18.549593    23.685347    22.170645    9740.7516   -1811.8636   -3287.4784    -1244.712   -1191.7751   -198.14849   -355.19671    -3968.879 
 6464000    271.26615   -4169.2003   -3704.2594   -4169.2003            0   -2703.3335    18.217247    23.739939    22.466976    9716.4354   -2783.4596   -2676.1591   -2650.3817    165.72857    355.10815    521.17876   -4087.3332 
 6465000    267.33665   -4213.8361   -3755.6303   -4213.8361            0    -1940.661    18.073256    24.131912     22.25982     9708.447   -1000.8953   -3791.0828    -1030.005   -134.89646   -513.03889    221.60274   -4030.4041 
 6466000    261.59091   -4153.5475   -3705.1896   -4153.5475            0   -2737.8317    18.351729    23.786932     22.34672    9755.0434   -2108.9562   -2080.4113   -4024.1275   -639.15717    163.17694   -206.53552   -4094.6935 
 6467000    274.73055   -4205.3058    -3734.427   -4205.3058            0   -1343.8326    18.432381    23.451246    22.345644    9659.1794   -2213.1609   -376.02479   -1442.3121    494.65556   -1068.6303   -1182.5985   -3923.7317 
 6468000    277.02288   -4163.3663   -3688.5586   -4163.3663            0   -1302.1811    18.436628     23.60654    22.194995     9659.817   -2777.2746   -140.32007   -988.94865     -326.392   -210.36244    -433.0505    -3872.008 
 6469000     286.2294   -4174.2606   -3683.6732   -4174.2606            0   -2213.6927    18.124755    23.917139    22.440753    9727.8935   -2097.0277   -1980.1056   -2563.9449   -516.53022    178.69996   -374.14588   -3997.7328 
 6470000    261.95975   -4179.7014   -3730.7113   -4179.7014            0   -1863.4608    18.207304    23.859367    22.317524    9695.0615   -2929.0748   -2408.0013   -253.30636    774.75524   -156.99927   -650.02918   -3994.1908 
 6471000    267.00656    -4158.579   -3700.9389    -4158.579            0   -859.34028    18.319336    23.616838    22.247721     9625.361   -1069.6155   -404.70816   -1103.6972   -694.63991    295.22562    45.017657   -3821.5696 
 6472000    277.13125   -4196.4937   -3721.5002   -4196.4937            0   -1359.7119    18.326685    23.500326    22.329728    9617.0357   -2645.8711   -1050.8711    -382.3935   -514.85607   -592.07216   -36.133774   -3912.2061 
 6473000    273.83811   -4187.7127   -3718.3636   -4187.7127            0   -895.10153    18.250665    23.585834    22.188867    9551.3566    239.90426   -1741.8435   -1183.3654    -397.2991    150.83029    204.73957   -3843.0483 
 6474000    278.74864   -4172.4959   -3694.7302   -4172.4959            0   -1635.2275    18.201689     23.85398    22.194682    9636.5473   -1222.7786   -2562.9883   -1119.9157    729.62554   -39.915314   -310.96092   -3924.5437 
 6475000    281.88486   -4213.2937   -3730.1527   -4213.2937            0   -909.70793    18.223137    23.706507    22.225348    9601.5043   -1089.7823    96.884758   -1736.2263   -292.06669   -541.30742    210.56149   -3857.5374 
 6476000    283.03105    -4172.196   -3687.0905    -4172.196            0    -1292.643    18.306746    23.343934    22.525709    9626.3946   -976.66513    461.95878   -3363.2227    157.66598    600.64417   -326.16628    -3868.566 
 6477000    292.91623   -4115.5718   -3613.5234   -4115.5718            0    -3042.069    18.455434    23.653984    22.271227    9722.3828   -3110.5019   -3498.4921   -2517.2129    831.68732     -129.256   -610.03243   -4044.8613 
 6478000    282.53704   -4159.1874   -3674.9286   -4159.1874            0    -2071.039    18.160968     23.89014    22.380093    9710.0074   -835.14275   -3132.8254   -2245.1489    188.87618    238.29511    131.89725   -3968.2094 
 6479000    282.47647   -4164.5828   -3680.4278   -4164.5828            0   -1304.6672    18.076128    23.953426    22.363971    9683.2684   -720.51794   -2438.7807   -754.70292   -415.18518   -303.93024    601.32396   -3864.6736 
 6480000    275.41964   -4122.9289   -3650.8691   -4122.9289            0   -1856.9913    18.475105    23.506707    22.371253    9715.5867   -2536.4239   -1006.1835   -2028.3667    435.51241   -137.78208   -652.82388   -3913.9896 
 6481000    291.32112   -4175.9984    -3676.684   -4175.9984            0   -2085.0737    18.450171    23.547049    22.339194    9705.1978    -2662.052   -2118.2537   -1474.9155    -381.1984    28.681138    1328.5135   -3971.8061 
 6482000    284.33688   -4183.0338   -3695.6901   -4183.0338            0   -1107.9986     18.08039    23.831627    22.351955    9631.1248    472.40721   -2216.6249    -1579.778   -101.82404    594.49477    88.280292   -3851.3197 
 6483000    282.03416   -4197.1917   -3713.7948   -4197.1917            0   -1988.9294    18.142429    23.989084     22.24414    9681.1005   -1619.9877   -2372.6911   -1974.1094    447.90249    620.00285   -841.62541   -3994.6096 
 6484000    275.85473   -4152.7529   -3679.9473   -4152.7529            0   -1196.8055    18.361053    23.657628     22.29083     9682.668   -726.83984   -2214.4282   -649.14846   -515.69538   -413.36782    208.64818   -3848.9503 
 6485000    281.99982   -4211.2238   -3727.8858   -4211.2238            0   -2101.7542    18.443194    23.510074    22.325888    9680.5243   -2153.5971   -1609.9713   -2541.6943    381.52822   -696.92531    579.42312   -4024.6125 
 6486000    281.53038   -4185.8958   -3703.3623   -4185.8958            0   -1394.5596    18.359717    23.751857    22.126178    9648.7251   -1463.0698    -1863.623     -856.986     494.6606    934.93142    274.11388   -3899.6002 
 6487000    281.50139   -4196.2454   -3713.7616   -4196.2454            0   -1672.9403    18.126441    23.759773    22.405557    9649.6284    59.910052   -1268.8045   -3809.9266    41.628921   -284.37499   -42.905675   -3949.1944 
 6488000    283.94622   -4167.9943   -3681.3202   -4167.9943            0   -2229.2518    18.163689    24.033726    22.257736    9716.4174   -2520.9019   -4012.7058   -154.14767    435.71224    235.78194   -385.94247   -3997.2141 
 6489000    292.33603   -4197.5894   -3696.5355   -4197.5894            0   -2674.1863    18.367996    23.617085    22.427929    9729.2026   -3173.2524   -1851.3908   -2997.9158   -576.81862   -149.05358    914.86661   -4075.9769 
 6490000     284.9142   -4173.5231   -3685.1899   -4173.5231            0   -2085.2298    18.601988    23.463383    22.421625    9786.2672   -2190.4049   -2307.9658   -1757.3188    1021.5116    709.68234    780.05589   -3982.7995 
 6491000    267.32554   -4183.4924   -3725.3055   -4183.4924            0   -1590.2527    18.266868     23.83033    22.189486    9659.2047    -1312.783   -1633.8746   -1824.1005    36.657524   -89.417143    421.35542   -3949.3238 
 6492000    284.23106   -4180.6564   -3693.4941   -4180.6564            0   -2024.3043    18.059949     24.07727     22.31844    9704.8224   -1169.4642    -2671.999   -2231.4497    776.43141   -659.04162    294.82846   -3980.0037 
 6493000    278.03376    -4147.804   -3671.2636    -4147.804            0   -1581.0139    18.245165    23.768737    22.292908    9667.6432   -1137.7339   -1508.1096   -2097.1982    -288.1542   -365.14943    91.901753    -3894.175 
 6494000    279.99393   -4171.1247   -3691.2247   -4171.1247            0   -619.45825    18.455636    23.352927    22.221605    9577.3588   -785.02172    828.36929   -1901.7223   -173.72385    396.98897    115.58565   -3777.7481 
 6495000    286.04402   -4149.7915   -3659.5219   -4149.7915            0   -1674.2265    18.353141    23.587734    22.352271       9676.5   -2043.4753   -1153.4294   -1825.7749   -18.044368   -49.775883    -4.977143   -3895.7918 
 6496000    283.41016   -4176.2153   -3690.4599   -4176.2153            0   -2082.1496    18.249085    23.916448     22.21878    9697.4598   -1297.8588   -2632.4543   -2316.1355    686.50123    968.01677   -368.50483   -3984.9332 
 6497000    278.31717   -4181.6028   -3704.5767   -4181.6028            0   -2182.1075     17.99822     23.89809    22.412936    9640.3213   -1339.6376    -2791.131   -2415.5538   -226.22629    265.20199     -443.402   -4011.3683 
 6498000    288.27507   -4162.4594   -3668.3658   -4162.4594            0   -1313.1171     18.22891    23.681043    22.111141     9544.929   -620.57745   -2447.2341   -871.53966   -650.02747   -674.34951    367.45904   -3851.1557 
 6499000    267.04101   -4186.6855   -3728.9864   -4186.6855            0   -747.80556    18.488609    23.371852     22.13202    9563.5344   -408.63977   -1791.0312   -43.745692   -12.051358    313.82744    708.39842   -3833.2861 
 6500000    296.26126   -4164.1093   -3656.3277   -4164.1093            0   -1754.7878    18.303252    23.579224    22.457115    9691.9624    -3275.469   -1641.6498   -347.24466   -1071.1279    288.24073    453.47811   -3904.3623 
Loop time of 364.415 on 64 procs for 250000 steps with 864 atoms

Performance: 118.546 ns/day, 0.202 hours/ns, 686.032 timesteps/s
385.0% CPU use with 16 MPI tasks x 4 OpenMP threads

MPI task timing breakdown:
Section |  min time  |  avg time  |  max time  |%varavg| %total
---------------------------------------------------------------
Pair    | 24.548     | 26.818     | 29.819     |  32.1 |  7.36
Bond    | 1.749      | 1.8565     | 2.0725     |   7.2 |  0.51
Kspace  | 194.41     | 199.22     | 204.25     |  21.7 | 54.67
Neigh   | 1.6244     | 1.8478     | 2.0133     |   9.3 |  0.51
Comm    | 49.083     | 53.532     | 59.615     |  38.5 | 14.69
Output  | 0.68508    | 0.68546    | 0.68697    |   0.1 |  0.19
Modify  | 58.575     | 64.919     | 68.716     |  46.4 | 17.81
Other   |            | 15.53      |            |       |  4.26

Nlocal:        54.0000 ave          63 max          44 min
Histogram: 1 1 3 2 1 0 3 0 3 2
Nghost:        2463.81 ave        2490 max        2434 min
Histogram: 1 1 1 1 1 4 4 2 0 1
Neighs:        12573.4 ave       14372 max        9880 min
Histogram: 1 1 0 3 1 2 1 2 1 4

Total # of neighbors = 201175
Ave neighs/atom = 232.84144
Ave special neighs/atom = 2.0000000
Neighbor list builds = 7607
Dangerous builds = 0

unfix		3
unfix		2
unfix		1

write_data	data.final.${pid} nocoeff
write_data	data.final.0 nocoeff
System init for write_data ...
PPPM initialization ...
  extracting TIP4P info from pair style
  using 12-bit tables for long-range coulomb (../kspace.cpp:340)
  G vector (1/distance) = 0.37310684
  grid = 24 27 27
  stencil order = 5
  estimated absolute RMS force accuracy = 0.0028627097
  estimated relative force accuracy = 8.6209652e-06
  using double precision FFTW3
  3d grid and FFT values/proc = 6615 1296
Last active /omp style is kspace_style pppm/tip4p/omp

write_restart   restart.lmp.${pid}
write_restart   restart.lmp.0
System init for write_restart ...
PPPM initialization ...
  extracting TIP4P info from pair style
  using 12-bit tables for long-range coulomb (../kspace.cpp:340)
  G vector (1/distance) = 0.37310684
  grid = 24 27 27
  stencil order = 5
  estimated absolute RMS force accuracy = 0.0028627097
  estimated relative force accuracy = 8.6209652e-06
  using double precision FFTW3
  3d grid and FFT values/proc = 6615 1296
Last active /omp style is kspace_style pppm/tip4p/omp
Total wall time: 0:06:04
