LAMMPS (30 Jul 2021)
  using 32 OpenMP thread(s) per MPI task
package omp 0
using multi-threaded neighbor list subroutines
echo both

include		in.partitions
variable        pid world 0
include		in.temp
variable	temperature equal 250.0
variable	tempDamp equal 100.0
include		in.pressure
variable        pressure equal 7500
variable        pressureDamp equal 1000.0 # This is 1 ps
include		in.seed
variable        seed world 745823

units		real
atom_style	full
include		in.box
read_data       iceV.data
Reading data file ...
  triclinic box = (-3.3947780 0.0048050000 -0.13785900) to (15.004777 22.575194 19.367857) with tilt (0.0000000 -6.7926110 0.0000000)
  1 by 1 by 1 MPI processor grid
  reading atoms ...
  1008 atoms
  scanning bonds ...
  2 = max bonds/atom
  scanning angles ...
  1 = max angles/atom
  reading bonds ...
  672 bonds
  reading angles ...
  336 angles
Finding 1-2 1-3 1-4 neighbors ...
  special bond factors lj:    0        0        0       
  special bond factors coul:  0        0        0       
     2 = max # of 1-2 neighbors
     1 = max # of 1-3 neighbors
     1 = max # of 1-4 neighbors
     2 = max # of special neighbors
  special bonds CPU = 0.000 seconds
  read_data CPU = 0.007 seconds
include 	in.setup
variable	out_freq equal 500
variable	out_freq2 equal 500

timestep	2.0

neigh_modify    delay 7 every 1

include		in.tip4p
# This is TIP4P/Ice

# create groups ###
group ox type 2
336 atoms in group ox
group hy type 1
672 atoms in group hy

# set charges - beside manually ###
set group ox charge -1.1794
Setting atom values ...
  336 settings made for charge
set group hy charge 0.5897
Setting atom values ...
  672 settings made for charge

# ### TIP3P Potential Parameters ###
pair_style lj/cut/tip4p/long 2 1 1 1 0.1577 8.5
pair_coeff 1 1*2 0.000 0.000
pair_coeff 2 2 0.21084 3.1668
bond_style  harmonic
bond_coeff  1 450 0.9572
angle_style harmonic
angle_coeff 1 55 104.52
kspace_style pppm/tip4p 1.0e-5
pair_modify tail yes

thermo          ${out_freq}
thermo          500
thermo_style 	custom step temp pe etotal epair emol press lx ly lz xy xz yz vol pxx pyy pzz pxy pxz pyz

restart 	${out_freq} restart.lmp.${pid} restart2.lmp.${pid}
restart 	500 restart.lmp.${pid} restart2.lmp.${pid}
restart 	500 restart.lmp.0 restart2.lmp.${pid}
restart 	500 restart.lmp.0 restart2.lmp.0


include         in.dump
dump            myDump all atom ${out_freq2} dump.water.${pid}
dump            myDump all atom 500 dump.water.${pid}
dump            myDump all atom 500 dump.water.0
dump            myDump2 all dcd ${out_freq2} dump.dcd
dump            myDump2 all dcd 500 dump.dcd
dump_modify     myDump append yes
dump_modify     myDump2 append yes


timer           timeout 00:55:00 every 1000
New timer settings: style=normal  mode=nosync  timeout=00:55:00

fix 		1 all shake 1e-6 200 0 b 1 a 1
       0 = # of size 2 clusters
       0 = # of size 3 clusters
       0 = # of size 4 clusters
     336 = # of frozen angles
  find clusters CPU = 0.000 seconds
fix             2 all nph tri ${pressure} ${pressure} ${pressureDamp}
fix             2 all nph tri 7500 ${pressure} ${pressureDamp}
fix             2 all nph tri 7500 7500 ${pressureDamp}
fix             2 all nph tri 7500 7500 1000
fix             3 all temp/csvr ${temperature} ${temperature} ${tempDamp} ${seed}
fix             3 all temp/csvr 250 ${temperature} ${tempDamp} ${seed}
fix             3 all temp/csvr 250 250 ${tempDamp} ${seed}
fix             3 all temp/csvr 250 250 100 ${seed}
fix             3 all temp/csvr 250 250 100 745823
velocity 	all create ${temperature} ${seed} dist gaussian
velocity 	all create 250 ${seed} dist gaussian
velocity 	all create 250 745823 dist gaussian

run             500000
PPPM initialization ...
  extracting TIP4P info from pair style
  using 12-bit tables for long-range coulomb (../kspace.cpp:340)
  G vector (1/distance) = 0.3786717
  grid = 24 27 36
  stencil order = 5
  estimated absolute RMS force accuracy = 0.0025036634
  estimated relative force accuracy = 7.5397079e-06
  using double precision FFTW3
  3d grid and FFT values/proc = 50490 23328
Last active /omp style is kspace_style pppm/tip4p/omp
Neighbor list info ...
  update every 1 steps, delay 7 steps, check yes
  max neighbors/atom: 2000, page size: 100000
  master list distance cutoff = 10.8154
  ghost atom cutoff = 10.8154
  binsize = 5.4077, bins = 5 5 4
  1 neighbor lists, perpetual/occasional/extra = 1 0 0
  (1) pair lj/cut/tip4p/long/omp, perpetual
      attributes: half, newton on, omp
      pair build: half/bin/newton/tri/omp
      stencil: half/bin/3d/tri
      bin: standard
Per MPI rank memory allocation (min/avg/max) = 41.61 | 41.61 | 41.61 Mbytes
Step Temp PotEng TotEng E_pair E_mol Press Lx Ly Lz Xy Xz Yz Volume Pxx Pyy Pzz Pxy Pxz Pyz 
       0          250   -5066.8341   -4566.8032   -5066.8341            0   -4117.8896    18.399555    22.570389    19.505716            0    -6.792611            0    8100.4335   -2807.1366    351.39328   -9897.9254   -707.22757    -1050.075   -3136.0424 
     500    243.29665   -4835.1436   -4348.5203   -4835.1436            0    7113.6897    17.937191    23.109807    19.260242  -0.20285825   -6.5271117   0.19761266    7983.8521    7386.0003    7200.7862    6754.2825   -438.46142    654.00243   -649.16963 
    1000    246.48515   -4846.4999   -4353.4991   -4846.4999            0    8583.9836    18.035956    22.619223    19.409292 -0.024215151   -6.3100614 -0.0042628516    7918.2012    7622.5939    10075.328    8054.0293   -609.53299    291.55915    913.54164 
    1500    239.83507   -4846.1001   -4366.4003   -4846.1001            0    8715.1431    17.812664    23.055211    19.265572  -0.11763738   -6.5422999   0.18486988    7911.8836    8537.2791    9347.9259    8260.2243   -738.85681      93.8407    -848.4125 
    2000    260.49793   -4857.8957   -4336.8676   -4857.8957            0    7979.6124    18.057006    22.529827    19.452214 -0.0051021312   -6.2976923   0.15923023    7913.5734    8935.4664    8522.0485    6481.3223    691.24787   -237.46205   -1774.6389 
    2500    244.79291   -4807.8992   -4318.2831   -4807.8992            0    7267.6237     17.88867    23.285921    19.124545  -0.34126855   -6.4499948  0.030467341    7966.4088    6788.2325    6114.7334    8899.9051    2379.1839    -498.9085    2010.6233 
    3000    242.78368   -4839.8061   -4354.2087   -4839.8061            0     7010.981    18.309461    22.571531    19.342204    -0.156997   -6.7028886 -0.090986144    7993.6022    5922.9622    6640.2859     8469.695    -281.9361    571.26011    383.64428 
    3500    240.75508   -4851.1179    -4369.578   -4851.1179            0    6182.3444    17.918851    23.192051      19.2039  -0.12816116   -6.3679641   0.30643845     7980.659    5893.7392    5356.9777    7296.3163    101.70668   -228.04195    266.13803 
    4000    242.04729   -4875.6145     -4391.49   -4875.6145            0    4668.2342    18.189296    22.554261    19.610714  -0.07957679   -6.7099357 -0.050141149    8045.2197     5235.383     5589.058    3180.2616   -1019.0171    317.58147   -731.93018 
    4500    244.71793   -4854.4765   -4365.0104   -4854.4765            0    5779.7164    17.860531    23.169315    19.346544  -0.16245005   -6.3453624   0.24346941    8005.9145    4917.5635    6130.4262    6291.1596    55.080607    954.66725    1134.1508 
    5000    247.38757   -4836.5733   -4341.7676   -4836.5733            0    7487.9639    18.121274    22.667901    19.325503  -0.11567667   -6.6744816   0.16256177    7938.3608    7032.8414    7953.7904    7477.2599    421.83675   -351.62434    1365.1888 
    5500    250.13128   -4873.4936   -4373.2002   -4873.4936            0    7441.6711     18.00895    22.966555    19.213512  -0.29574061   -6.5274676   0.10896793    7946.7761    7793.1287    6453.3783    8078.5062   -1004.5487   -356.13954   -72.206856 
    6000    251.53146   -4829.6477   -4326.5537   -4829.6477            0    8620.2418     18.07581    22.817001    19.280363  -0.12047223   -6.5622036 -0.045955311    7951.9115    9268.8094    8201.9032    8390.0127   -789.30909    288.93887    776.21256 
    6500    242.58299   -4846.2425   -4361.0465   -4846.2425            0     7790.067    18.045859    22.752545    19.337026  -0.26610461   -6.3171962   0.27971417     7939.574    5315.3653    9330.8949    8723.9409   -671.25368   0.24398342    435.42453 
    7000    254.09979   -4851.9826   -4343.7516   -4851.9826            0    8625.4069    17.878196    22.923591    19.364991   0.23897754   -6.4341238   0.16345506    7936.4017    9537.9103      6563.91    9774.4005   -1638.9982   -59.598618   -88.069101 
    7500    248.49346   -4861.3609   -4364.3433   -4861.3609            0    7757.4303    17.943137    22.773913    19.348386  -0.33246747   -6.5821504   0.13503527    7906.4363    7588.3021    8700.1037     6983.885    642.92595    148.55483   -116.95401 
    8000    247.68616   -4831.1644   -4335.7614   -4831.1644            0    9447.8146    17.860786    22.997737    19.303635  -0.25073775   -6.3778419  -0.14121143    7929.1163    10331.024    8250.6581    9761.7617    482.37521   -376.84394     353.8574 
    8500    245.67045   -4833.1669   -4341.7956   -4833.1669            0    8930.2764    18.209144    22.820978     19.14783  -0.28723766   -6.7480938   0.21913489      7956.89    9004.0662     8027.441    9759.3219     1424.733   -1223.9249   -338.18511 
    9000    254.11517   -4817.9418     -4309.68   -4817.9418            0    8951.4062    17.859325    23.117922    19.193661  0.073728876   -6.2882523   0.14278191    7924.4962     10663.67    8228.1225    7962.4259   -1418.2036   -482.60232   -1331.8227 
    9500    255.27902   -4816.5864   -4305.9969   -4816.5864            0    9054.7739    18.029267    22.598725    19.458518  -0.25882226   -6.5857897   0.16805778    7928.1485    9080.3791     10369.62    7714.3222    601.20344    1075.2875   -376.00963 
   10000    257.64393    -4841.319   -4325.9993    -4841.319            0     7804.379    17.756184    23.504223    19.113072   0.26872809   -6.3360928  0.058904095    7976.7509    8140.7345    6543.5485    8728.8541   -933.01467    428.72797    449.91368 
   10500     253.3848    -4823.682   -4316.8811    -4823.682            0    5692.4618    18.192358    22.797605    19.434124   -0.3110861   -6.4277418   0.19287903    8060.1512    4364.9623    6084.7536    6627.6696     -379.362   -626.10445   -574.31107 
   11000    246.44759   -4834.5368   -4341.6112   -4834.5368            0    9203.5755    17.872233    22.983583    19.236184  -0.24569405   -6.6272115 -0.00090696718    7901.6078     8142.838    9715.5217     9752.367    1218.0274    604.72347    2266.4429 
   11500    241.37054   -4846.5534   -4363.7825   -4846.5534            0    6892.5927    17.916414    22.759965    19.522633    -0.133112   -6.2976391  0.026558128      7960.88    5994.1388    8162.6687    6520.9707    352.71893   -84.616602    2175.7281 
   12000     251.9337   -4799.4185   -4295.5199   -4799.4185            0    7171.9735    18.013045    22.898934    19.328392  -0.05452616   -6.6011116   0.22113256    7972.5659    8787.8416    6698.9556    6029.1234   -960.22246    1078.0297   -850.34003 
   12500    264.67775   -4865.3039   -4335.9157   -4865.3039            0     7018.726    18.077063     22.91505    19.223176  0.020118175   -6.4039204   0.17338006    7962.9471    6836.8425     5845.095    8374.2403   -319.93988   -376.05637   -113.83738 
   13000    267.45615   -4840.4335   -4305.4881   -4840.4335            0    7356.7319    18.078338    22.816997    19.301384  -0.23405328   -6.6908723   0.17324864    7961.6932    8478.7729    6507.4618     7083.961   -340.99423    323.12596    85.576275 
   13500    246.45295   -4868.2333   -4375.2969   -4868.2333            0    8344.1232    17.836777    22.857453    19.432363 -0.022311649   -6.4256835   0.02226478    7922.6387    9012.0452    8790.5028    7229.8216    605.25503    858.50064    474.62449 
   14000    254.76806   -4857.5366    -4347.969   -4857.5366            0    7497.5593    17.962882    22.950858    19.262696  -0.39606854   -6.1658891   0.36816406    7941.3075     6953.755    6528.9032    9010.0195   -6.9541816   -571.96542   -971.84758 
   14500    250.06916   -4876.5475   -4376.3783   -4876.5475            0    7448.3119    18.193661    22.756214    19.243344 -0.081444624   -7.0158292  -0.17119315     7967.107    6903.2646    7875.3042    7566.3671    318.53966    -680.7827    1605.1802 
   15000    252.25994   -4850.0384   -4345.4873   -4850.0384            0    7926.6391    18.029336    22.958442    19.261995  -0.36369859   -6.2946451   0.17201238    7973.0302    6837.1166    7648.3141    9294.4866    599.30821   -166.99067   -712.29876 
   15500    247.58741    -4840.287   -4345.0816    -4840.287            0    6971.5895    17.908076    22.840058    19.450286   0.40248192   -6.7340049 -0.016280466     7955.585    9146.4437    6235.7564    5532.5685   -1774.5837    501.61759     837.3866 
   16000    254.42274   -4848.9969     -4340.12   -4848.9969            0    7189.4475    17.899607    22.958603    19.354444  -0.38461552   -6.3162536   0.34423294    7953.7081    6889.1257    6025.3745    8653.8423    366.73281    412.13518    607.79247 
   16500    252.15429   -4846.5463   -4342.2066   -4846.5463            0    7627.5576    18.066301     22.81085     19.27992 -0.048842282   -6.5790987  -0.13443167    7945.4034    6135.4516    8213.8193     8533.402   -1139.9231    121.41875    344.19964 
   17000    248.51275   -4837.6847   -4340.6285   -4837.6847            0    9823.0942    18.067522    22.759469    19.176356  -0.63472916   -6.6949322   0.33421855     7885.456    10506.863    9780.4883    9181.9311    2032.6586     737.4797   -1940.5514 
   17500    255.77544   -4839.1893   -4327.6069   -4839.1893            0    7635.4311    17.943537    23.000287    19.347325   0.11734043   -6.1821264 -0.034569952    7984.7667    7876.2032    7925.5718    7104.5182   -1635.8211    263.10879    826.10857 
   18000    247.76685   -4869.3741   -4373.8098   -4869.3741            0    5009.2687    18.106368    22.812282    19.476859  -0.22742675   -7.0453975   0.34049786     8044.869    4041.4472    5739.0613    5247.2975    1146.7426    617.30031   -1967.7697 
   18500    248.74838   -4861.4842   -4363.9568   -4861.4842            0    6733.8914    18.010952    22.959782    19.283184  0.035066437   -6.3879187 -0.097113193    7974.1279    5395.7918    7241.9618    7563.9205    102.34284    772.43195    1873.1338 
   19000    245.20005   -4833.8248   -4343.3944   -4833.8248            0    6969.4216    18.157669     22.83329    19.223909  -0.25905067   -6.7022862 -0.020104894    7970.2198    7592.9087    6550.2242    6765.1319    333.74886   -449.48742   -532.42287 
   19500    250.75548   -4840.6838   -4339.1418   -4840.6838            0    8598.2971    17.850477    22.981917    19.305654 -0.074082937   -6.4907996    0.2364128    7919.9159    8063.4246    8735.2346    8996.2321    509.60038    453.80391   -65.258387 
   20000    251.43945   -4844.8549   -4341.9449   -4844.8549            0    9293.2906    17.849728    22.646494     19.54245   -0.1137459   -6.3329928  0.063870412    7899.7179    8956.4272    10868.575    8054.8694   -354.02177     815.6025   -1006.3394 
   20500    247.96469   -4834.3742   -4338.4142   -4834.3742            0    6291.9197    18.096102    23.104125    19.194998  -0.30167718   -6.7650003   0.16681755     8025.325    6084.4384    5671.6419    7119.6789    421.95213    103.65849     96.95563 
   21000    243.64384    -4853.614   -4366.2963    -4853.614            0    7461.8607     18.16762    22.813326    19.198557  0.066097227   -6.2875676 0.0097337835    7957.1077    7515.9292    7286.7094    7582.9435   -1068.7068   -742.21829    993.43666 
   21500    242.00061   -4865.6006   -4381.5694   -4865.6006            0    6477.6232    17.957508    23.117323    19.285123  -0.26222052   -6.6362537   0.17434328    8005.8238    5312.2627    7099.2045    7021.4024    435.56034    905.56007     -374.505 
   22000    245.14683    -4835.016    -4344.692    -4835.016            0    7412.9861    17.981799    22.675687    19.573616 -0.044356938   -6.4160269 0.00034437491    7981.1349    6829.0537    8692.7308    6717.1739    -1452.595   -478.84644    787.38639 
   22500    245.33051     -4852.56   -4361.8687     -4852.56            0      6546.76    17.869252    23.050096    19.404755  -0.23059965   -6.4250617   0.35781991    7992.5854    6889.4048    6871.0969    5879.7784   -652.00317    706.19602   -1384.3317 
   23000    235.27223   -4845.5037   -4374.9301   -4845.5037            0    6426.2372    18.162121    22.883932    19.257769  -0.09713622   -6.6488478  0.041389141     8003.928    6620.4377    4990.6182    7667.6558   -1262.0248    403.36829    1353.5077 
   23500    254.23867   -4858.1969   -4349.6881   -4858.1969            0    7314.0514    18.047986    23.029902    19.184404   -0.2500654   -6.4425736   0.18941134    7973.8698    6190.8247    6774.4788    8976.8506    1147.8449   -1093.7179   -69.652264 
   24000    261.19342    -4823.043   -4300.6239    -4823.043            0    7505.5717     18.10527    22.795358    19.367346 -0.037668111   -7.1293711  -0.14246247    7993.2156    7878.0463    9064.8323    5573.8367    363.89573    1910.0608    860.03533 
   24500    242.69102   -4842.7888   -4357.3768   -4842.7888            0    6443.9753    17.830949    22.975492    19.468507  -0.26790277   -5.9532968   0.16765041    7975.7574    8089.4223    5435.8893    5806.6144   -183.75977   -1235.4852    264.53784 
   25000    256.34602   -4829.9193   -4317.1956   -4829.9193            0    7484.3715    18.013989    22.953345    19.318244  0.071912789   -6.9509277  0.076937256     7987.733    8376.3799    7464.5216    6612.2131   -1775.6615    1073.6644   -1653.0084 
   25500    232.01046   -4809.8698   -4345.8202   -4809.8698            0    8097.3147    18.126938    22.624212    19.358372  -0.36091398   -6.1860858   0.36751225    7939.0174    6096.4252    9759.6037    8435.9152    721.78408   -397.40237    667.13854 
   26000     235.1496   -4795.4806   -4325.1523   -4795.4806            0     8412.582    17.983795    22.910374    19.383345 0.0092400938   -6.3366909 -0.061260398    7986.2381    6920.6622    8715.4393    9601.6444     392.4499    -467.2878    1221.4824 
   26500    244.45526   -4850.3152   -4361.3744   -4850.3152            0    5595.2792    18.025092    22.936113    19.329143  -0.39982344   -6.6193824   0.22869456    7991.1615    6971.0466    4460.8394    5353.9517   -529.27035   -411.77038    130.40612 
   27000    265.12034   -4843.7573   -4313.4839   -4843.7573            0    6622.4303    18.081476    22.762445    19.410928   0.20123712   -6.0821342  -0.17103572    7989.1229    6259.6644    6182.7377    7424.8889   -211.54664   -318.40507     1753.057 
   27500    260.86986   -4848.7438   -4326.9719   -4848.7438            0    8187.9449    17.990864    22.843768    19.298557  -0.37424933   -6.7241976   0.20684603     7931.304    8040.3766    7763.6753    8759.7828    454.49802    94.120156      1757.44 
   28000    251.52015    -4859.659   -4356.5876    -4859.659            0    8596.3204       17.928    22.866802    19.293548 -0.061005761    -6.125102  -0.20302796    7909.5057    7173.3793    9096.2632    9519.3186    624.23876    196.87401     1513.381 
   28500    269.60971    -4852.521   -4313.2683    -4852.521            0    9428.9247    18.062898    22.810355    19.181439  -0.57035115   -6.5424839   0.19072547    7903.1581    8070.8601    10085.915    10129.999    1420.1336    484.07802   -73.816009 
   29000    239.48814   -4824.2962   -4345.2903   -4824.2962            0    8362.8097    18.008599    22.929365    19.260249   0.19946249   -6.6397502   0.17524148    7953.0524     7921.142    7589.2562    9578.0308   -2298.4045   -611.42524   -1344.7963 
   29500    244.75103   -4848.2803    -4358.748   -4848.2803            0    6839.4778    18.034003    22.823381    19.381183  -0.25767843     -6.22324   0.38028681    7977.2355    5752.3745    6905.9744    7860.0845   -1227.9699   -938.81191   -953.68759 
   30000    245.39814   -4814.7862   -4323.9596   -4814.7862            0    7951.4139    17.964004    22.978161    19.396952  -0.20546446   -6.7757606  -0.13292791    8006.6696    9245.2564    6586.0883    8022.8969    443.94363   -146.74457   -291.48806 
   30500    248.53726   -4847.0036   -4349.8983   -4847.0036            0    6976.6337    17.813534    22.857983    19.564108  -0.19156572   -6.1628379   0.12028009    7966.1421    8448.2864     7106.935    5374.6798   -819.10786   -320.70699   -384.58739 
   31000    261.99951   -4837.4115   -4313.3801   -4837.4115            0    6026.7919    18.122455    22.842369    19.397741   0.29700761    -6.848591    0.2940741    8029.8852    3887.0135    6237.6642     7955.698   -815.08598     615.3089   -1807.0397 
   31500    257.22218   -4852.9829   -4338.5067   -4852.9829            0    7841.3657     17.97898    22.986296    19.262132  -0.21077709   -6.3238511  0.081872261    7960.4646    8411.1149    7096.5735    8016.4086    388.95988    1.4018489   -790.96598 
   32000    251.29546   -4830.6564   -4328.0344   -4830.6564            0    8630.1574    18.128532    22.706745    19.287402  -0.42918225   -6.6364849  -0.17188041    7939.4654    10045.856    8396.7639    7447.8521   -375.58413    326.76507   -246.15429 
   32500    247.69528   -4867.4599   -4372.0387   -4867.4599            0    7380.0983    17.981125    22.959053    19.301494  -0.11569833   -6.6728644   0.10537144    7968.2281    6849.7865    8270.2976    7020.2108   -373.96945    1263.5596    73.578183 
   33000    251.44649   -4844.1848   -4341.2607   -4844.1848            0    7491.3967     17.91363    22.860347    19.415102 -0.022136591   -6.1496666   0.17564787    7950.7132    7658.7953    6764.4327    8050.9621    -97.99855   -1111.4702    -1173.324 
   33500    253.83964   -4853.0761   -4345.3655   -4853.0761            0    8676.2506    18.093493    22.834286    19.215077  0.046330218   -7.2583404   0.15556444    7938.7472    7933.1501    9194.4492    8901.1526    39.452989    1930.4506   -220.62832 
   34000    243.05259   -4856.0213   -4369.8861   -4856.0213            0    7870.6581    18.000409    22.877074    19.245623  -0.46709164    -6.243347   0.15612272     7925.284    8113.6984    7927.8037     7570.472    229.98992   -437.29673   -1280.0419 
   34500    247.25403   -4871.3103   -4376.7717   -4871.3103            0    7847.2257    17.903325    22.892688    19.365945  -0.10704425    -6.611399  -0.11135653    7937.2341    8784.4319    7293.9547    7463.2905   -542.11211    709.43684    1049.5291 
   35000    244.74935   -4866.7308   -4377.2018   -4866.7308            0     6350.316    17.900157    22.878314    19.490966  -0.31843981    -6.394023     0.383449    7982.0457    7858.4838    5200.2065    5992.2576     622.4747   -1039.1394    112.74384 
   35500    249.25428   -4855.1384    -4356.599   -4855.1384            0    6848.0644    18.013362    22.892374    19.294367   0.19037181   -6.2402846    0.1189829    7956.3915    6868.2766    6713.8311    6962.0854     617.6841    -942.1481   -1259.9521 
   36000    245.71603     -4865.95   -4374.4876     -4865.95            0    8273.5714    17.978249    22.923981    19.224044  -0.36429265   -6.7852034   0.10281118    7922.8637    8261.7149    8140.3948    8418.6044    1109.6794    616.82004       2038.3 
   36500     261.5795   -4839.8303    -4316.639   -4839.8303            0    8655.8857    17.949391    22.656448    19.424381  -0.12009573   -6.1791763  -0.12087781    7899.3026    9212.9366    8758.6616    7996.0588   -280.32993   -376.20904   -682.09584 
   37000    257.55322   -4852.8319   -4337.6937   -4852.8319            0    8053.2533    17.918106    22.932355    19.285154  -0.12379212   -6.6533915   0.23991873    7924.3539    8631.4165    7814.3639    7713.9794   -31.648063    455.21562   -544.99743 
   37500    261.83511   -4877.7652   -4354.0626   -4877.7652            0    8667.5594    18.090693      22.7539    19.243342  0.021048712   -6.2548129   0.29993717      7921.21    7811.9401    9465.4627    8725.2753   -945.73936   -19.654822   -687.94539 
   38000    238.88621   -4823.1597   -4345.3578   -4823.1597            0    7321.3311    17.962631    23.176196     19.17691  -0.15987826   -6.3993304 -0.046756211    7983.4525    6065.6705    7525.8976    8372.4251    442.23416    993.57443    838.39505 
   38500    239.11737   -4833.8801   -4355.6158   -4833.8801            0    8400.2838    18.083872    22.698275    19.392126  -0.31569085   -6.7947982  -0.03505527    7959.9387    5274.0322    10663.041    9263.7786    738.64895    2089.3265    1565.1906 
   39000     250.4304   -4850.9477   -4350.0559   -4850.9477            0     8102.594    17.909358    22.874868    19.387251 -0.085765075   -6.2449456    0.1200631    7942.4567    7756.2571     7842.041    8709.4839   -186.99563   -1166.4373    516.27542 
   39500    238.74006   -4815.2049   -4337.6952   -4815.2049            0    7680.6018    18.000999    22.951767    19.320989   0.12216689    -7.218631 -0.019639372    7982.5579    8612.6301    6420.7667    8008.4087   -1362.4875    889.73572   -192.84873 
   40000    248.32969    -4833.391   -4336.7009    -4833.391            0    6102.1131    18.095629    22.890354    19.342991  -0.24017918   -6.0927099   0.29902267    8012.1637    5460.0452    5595.4325    7250.8617    158.40156   -892.64038    935.71738 
   40500    248.97276   -4871.0366   -4373.0603   -4871.0366            0    7099.5368    17.947032    23.051611    19.277046  0.015760472   -6.6516002  -0.11602888    7975.0683    8857.5238    6638.6696    5802.4169   -1514.6807    969.71247    1620.4934 
   41000    247.03718   -4836.6012   -4342.4963   -4836.6012            0     7015.509    17.983596    22.731946     19.56944  -0.42684596    -6.473937   0.39235275    8000.0291    7333.1097    7371.8331    6341.5843   -133.22276    617.00813   -2052.2923 
   41500    257.40845   -4850.7218   -4335.8731   -4850.7218            0    8814.1522    17.833682    22.991587    19.342943  -0.13033152   -6.3037739  0.051277551    7931.0838    9086.4855    9459.9275    7896.0436    856.20405    1700.3435    575.29335 
   42000    256.15019   -4857.0761   -4344.7441   -4857.0761            0    8827.5292    18.197343    22.639473    19.260524  -0.11917686    -6.946272   0.13666228    7934.9171    8439.9049    8518.4248    9524.2579    338.67466    1314.1861   -422.40799 
   42500     257.3309   -4854.8823   -4340.1887   -4854.8823            0    8397.4078    17.792213    23.047581     19.26749   -0.1238182   -5.9304341   0.26480791     7900.971    9704.1391    8276.3336    7211.7508     159.7138   -811.02179    313.00677 
   43000    253.33152   -4829.1115   -4322.4171   -4829.1115            0    7599.9928    17.934398    22.760581    19.447712 -0.098122507   -6.7037971  0.028894399    7938.5037    7398.1896    8160.5739     7241.215   -946.83435    37.712226    1299.2871 
   43500    254.69237   -4864.3869   -4354.9707   -4864.3869            0    7124.0752    17.831483    23.062168    19.440623  -0.59238227   -6.4636515   0.19536906    7994.6194     7304.954    8232.0934    5835.1781    653.55806    565.32542   -775.59355 
   44000    242.59908   -4862.8793   -4377.6512   -4862.8793            0    6289.2543    18.098887    22.791034    19.342705   0.20232459   -6.3235958   0.01339739    7978.7178    5525.5737    7062.3359    6279.8532   -1393.8441   -76.604005    505.53626 
   44500    253.71094   -4853.1205   -4345.6673   -4853.1205            0    6144.7858    18.030868    23.035011     19.22538  -0.22572596   -6.7369538   0.22758195    7985.0931    4468.1646    6344.2067    7621.9861   -173.03767    1631.7444    583.43414 
   45000    246.12079   -4874.1411   -4381.8691   -4874.1411            0    6660.2366    17.963312    22.632277    19.586125 -0.014807554   -6.0065132  -0.14141808    7962.7523    5853.0852    8551.4713    5576.1535   -485.61958   -432.08698    149.12191 
   45500    231.48231   -4853.2464   -4390.2532   -4853.2464            0    7655.4844    17.834277    23.193181    19.211061  -0.27923266   -6.6253962   0.28023962    7946.3407    8983.2951    6549.0982      7434.06    390.63093   -124.67368   -162.15558 
   46000    245.53602   -4859.2939   -4368.1915   -4859.2939            0    7341.5189    18.182481    22.502449    19.404991   0.16157446   -6.4913231  0.074192383    7939.5588     6167.486    7833.5638    8023.5067   -1130.7722   -13.705845    35.285925 
   46500    239.37384   -4838.6671   -4359.8899   -4838.6671            0    7649.3449    17.800272    23.129076    19.258803  -0.35532543   -6.2198853   0.18924619    7928.9234    8645.9192    7167.3052    7134.8103    193.48416   -1177.7941    647.88237 
   47000    250.53118   -4841.3842   -4340.2909   -4841.3842            0    8584.3767    18.051718    22.743334    19.341485 -0.091814116   -6.5957484  -0.16689805    7940.7678    9106.8576    8866.2984    7779.9741    1398.6207    279.86387    1260.1787 
   47500    263.59294   -4855.1081   -4327.8896   -4855.1081            0    6694.6255    17.770743    23.228508    19.300138   -0.3483473   -5.7798952   0.15539108    7966.8622    7431.2404    6297.8277    6354.8085   -448.33183   -1225.8176   -26.797447 
   48000    255.31723   -4876.4548   -4365.7888   -4876.4548            0    7233.1147    17.992073    22.822708    19.421649  0.065224959    -6.607986  0.091460483    7975.0692     9103.403    6581.0861    6014.8548   -938.29832    966.52579   -675.52613 
   48500    266.90045   -4861.8721   -4328.0382   -4861.8721            0    7976.8094    17.964355    22.922161    19.293281  -0.56499105   -6.3991352    0.2153628    7944.6226    7042.1454    8220.9109    8667.3717    1709.0515    1141.3792   -46.863212 
   49000    252.49357   -4823.5495   -4318.5311   -4823.5495            0    7458.1148     18.08374    22.741977    19.341828   0.32907281   -6.1420762 -0.086477496    7954.5198    8468.1289    7577.1811    6329.0343   -2450.5432   -281.83247    -801.8892 
   49500    272.05258   -4829.7798    -4285.641   -4829.7798            0    6541.4337    18.005987    23.012498    19.284738  -0.28624114    -6.827785   0.34104497    7990.8769    6983.9164    6406.7639    6233.6208    37.249479   -57.380928   -1625.3156 
   50000     241.6705   -4855.5036   -4372.1328   -4855.5036            0    7735.2631    17.958556    22.699894    19.550806 -0.030311838   -6.1950992  -0.14761045    7970.0289    9217.5099    7346.5252    6641.7541   -526.99775   -1426.5616    98.059154 
   50500    253.60797   -4844.7813    -4337.534   -4844.7813            0    5540.1606    17.790453    23.170744    19.373134  -0.35546885   -6.5943841    0.2996052    7985.9552    7636.0713    4500.9391    4483.4715    374.45103    412.26431    -1538.585 
   51000    259.42557   -4806.4976   -4287.6144   -4806.4976            0    6654.9442    18.167945    22.744194    19.376787   0.11839865   -6.5116119  0.069979549    8006.7844    6922.9163    6800.0152     6241.901   -1101.4395    187.93764   -959.38466 
   51500    248.63782   -4866.9422   -4369.6358   -4866.9422            0    6320.0466    18.122164    23.128241    19.101111  -0.46979727   -6.6860766   0.26839099    8005.9208    6172.9965    6209.3544    6577.7891    76.979538   -98.093934   -950.32117 
   52000     243.6869   -4861.9137   -4374.5098   -4861.9137            0    6553.9966    18.021865     22.78362    19.438785 -0.044980099   -6.6586448  -0.13290577    7981.6301    5436.4083    6987.5119    7238.0697   -226.64744   -7.9609773    1623.8535 
   52500    255.03238    -4821.453   -4311.3567    -4821.453            0    7034.4782     17.93217    22.933474     19.37705  -0.19220133   -6.3362786   0.30683619    7968.7527    8220.1053      6267.73    6615.5994    -365.1733    382.53481   -1525.5336 
   53000      238.696   -4855.3151   -4377.8936   -4855.3151            0    9928.1246    17.906797    22.804267    19.270669   0.16394179   -6.7203943  0.036679139    7869.2043    10257.754    10557.063    8969.5575   -1145.7881    1230.5569   -1907.4511 
   53500    253.19245   -4865.5526   -4359.1365   -4865.5526            0    7090.1847    18.133764    22.876841    19.159023  -0.38032906   -6.2945652  0.092201694    7947.9911    6833.0731    6942.8387    7494.6424    877.97418   -2.3816629   -265.46832 
   54000    253.80974   -4823.5651   -4315.9143   -4823.5651            0    6114.9558    18.123852    22.960321    19.269365  0.033584815   -6.6222194 -0.0015118136    8018.5506    5400.7428    5524.9823    7419.1423   -123.92515    340.15176    108.93973 
   54500    238.51658   -4875.6482   -4398.5855   -4875.6482            0    5656.5764     17.93819    22.822723    19.566565  -0.44739463   -6.5478858   0.45178412    8010.5194    7042.3503      4889.75    5037.6289    697.04476    18.157912   -1920.0135 
   55000    257.98404   -4845.8253   -4329.8253   -4845.8253            0    8071.4485    17.761652    22.980754    19.498579  0.054388984   -6.3447089 -0.029660899    7958.8554    6200.8544    9710.4159    8303.0753   -654.87068    1690.8621   -924.60777 
   55500    252.14185   -4885.0957   -4380.7809   -4885.0957            0    8148.7004    17.998069    22.744124    19.376688    -0.393493   -6.6100462   0.20252246    7931.8532    9787.3882    8008.0395    6650.6736   -753.41528     51.69505    -9.204746 
   56000    263.22714   -4828.3854   -4301.8986   -4828.3854            0    6294.5261    18.119353    23.015858     19.19907   0.19455693    -6.527302  -0.11363018    8006.6354    5235.1385    7004.7128    6643.7269   -1217.2562    633.66903    1416.9625 
   56500      261.009    -4841.511   -4319.4607    -4841.511            0    9494.4967    18.142224    22.650408    19.252704  -0.41997199   -6.5775879   0.32340778    7911.4904    8285.5682    10343.356    9854.5662    1431.7583    626.30125   -410.23256 
   57000    240.37899   -4854.5123   -4373.7246   -4854.5123            0    8732.0439    17.873607     22.99404    19.271021  -0.12588197    -6.485857 -0.060069156    7920.1281    8879.9006    8354.4308    8961.8003   -58.215056    321.14127    1210.7683 
   57500    252.83845   -4844.2117   -4338.5036   -4844.2117            0    7905.3016     18.01378    22.617802    19.500856  -0.27417528   -6.4977172   0.23653541     7945.275    8334.0482    6808.9097    8572.9467    -1048.801   -588.83427     147.4067 
   58000    255.77602   -4854.1347   -4342.5511   -4854.1347            0    7803.4752    17.799836    23.236802    19.205373   0.21038631   -6.6552911  0.082075707    7943.5584    7757.7627    8273.4334    7379.2294   -2227.8426    986.48506   -719.03203 
   58500    245.45187    -4857.918   -4366.9839    -4857.918            0    6439.0323    18.069703    22.720184    19.411894  -0.21739409   -6.2755277    0.2665267    7969.4947    5176.3102    6606.9351    7533.8517   -208.31337    676.65915    570.54177 
   59000    252.67132   -4855.3868   -4350.0129   -4855.3868            0    5793.1944     18.06774     22.93688    19.271363  0.076666624   -6.7463912  0.021152077    7986.3918    5263.2729    5799.8493     6316.461    37.759995    1183.9712      94.2882 
   59500    256.16781   -4847.9527   -4335.5854   -4847.9527            0    6673.5252    17.953222    23.137873    19.258651  -0.60187401   -6.3415649   0.26456571    8000.0316    6730.3573    5659.6446    7630.5736    1535.1468   -618.64033    2134.5772 
   60000    244.25345   -4845.5857   -4357.0486   -4845.5857            0    6841.2162    18.067636    22.787581    19.423689   0.03001469   -6.3745005 0.0014852614     7997.077    5958.2169    8674.7091    5890.7228    341.27323    861.07464   -75.466112 
   60500    239.83682   -4870.6543    -4390.951   -4870.6543            0    6393.6742    17.936269    23.015282    19.294078  -0.34975745   -6.5516122   0.23452115    7964.7557    6054.2682    6673.6779    6453.0764    320.25951   -15.447326   -82.517384 
   61000    252.42283   -4820.8724   -4315.9956   -4820.8724            0     7520.993    18.188252    22.434066    19.538011   0.29563343   -5.9554206  -0.13517331    7972.2206    7312.4265    8093.7581    7156.7943   -1645.3907   -210.57134    1805.3392 
   61500    246.07305   -4852.7827   -4360.6062   -4852.7827            0    9047.3676    17.880116    23.114045    19.158916  -0.36838226   -6.6800561   0.31695463    7918.0313    9181.9273     8910.356    9049.8196   -930.38756    918.37115   -274.33375 
   62000    277.11874   -4852.0625   -4297.7908   -4852.0625            0    6631.8859    18.138508    22.710731    19.358619 -0.033507355    -6.249038  -0.16178953    7974.5658    5485.8658     7715.678    6694.1137    239.86505   -387.26258     599.2183 
   62500    258.81502   -4845.5309   -4327.8689   -4845.5309            0    6469.6165    17.980179    23.185354    19.177984  -0.39559397    -6.643208   0.31842677    7994.8569    5049.0847    6620.2835    7739.4813     91.41664    1072.3721   -746.90126 
   63000    265.21251   -4845.1735   -4314.7157   -4845.1735            0    6706.9991     18.03649    22.787866    19.482312   0.10915552   -6.5311999   0.09646551     8007.486    5378.8241    7562.2679    7179.9054    -1525.851    141.56146   -617.85046 
   63500    245.98104   -4851.9751   -4359.9826   -4851.9751            0    6496.6938    17.948566    23.074736    19.303773  -0.25887033   -6.4175373   0.14334873    7994.8202    7092.9488    5938.2443    6458.8882    355.47595    -482.1917    929.83625 
   64000    243.26842   -4840.8772   -4354.3103   -4840.8772            0    7924.8767    18.221555    22.743308    19.180653 -0.0079035052   -6.8492759 -0.038627347    7948.8164    8055.9041    7778.2463    7940.4795   -126.61078   -320.59125   -579.24073 
   64500    247.03124   -4845.9359   -4351.8429   -4845.9359            0     7895.407    17.975946    22.873302    19.260043  -0.18907044   -6.3173486  0.021772706    7919.1377    7610.8307    7596.3987    8478.9917    34.598022   -612.17316    152.09214 
   65000    241.45733   -4850.0027   -4367.0583   -4850.0027            0     7656.861    17.897401    22.931948    19.315853  -0.32004294   -6.6473907   0.34209936    7927.6561     8654.861    8547.2591     5768.463    850.96105    1336.5393   -1669.0376 
   65500    246.63544   -4842.1564    -4348.855   -4842.1564            0    9190.8274     17.85571    22.769534    19.425644   0.34494476   -6.2865905 -0.019410814    7897.8101    9707.7753    9535.6039    8329.1028   -1653.2437    574.76454    699.01618 
   66000    261.63933   -4822.1857   -4298.8747   -4822.1857            0    8868.4059    17.895164    22.952386    19.286459  -0.41747201   -6.5397408   0.20600987    7921.6566    8893.4595    8843.1201    8868.6382    695.70137   -274.84492    161.77157 
   66500    252.64459   -4808.4865   -4303.1662   -4808.4865            0    8551.8477     18.13541    22.683155    19.349573 -0.038175357   -6.3993963  -0.21379368    7959.8013    8118.1474    9164.4371    8372.9585   -664.15205   -942.08061    1528.1715 
   67000    248.08852   -4860.5513   -4364.3436   -4860.5513            0    6208.0441    18.025261    23.105682    19.240246  -0.25356355   -6.5042023   0.31190139     8013.292    4042.7639    5883.1385    8698.2297   -899.83557   -1308.9847    1062.4597 
   67500    248.40956   -4871.1462   -4374.2964   -4871.1462            0    6097.2536    18.081945    22.797184    19.431097   0.11093906   -6.5688092  0.091402031    8009.8367    5048.3164    6624.0654    6619.3789   -1582.3477   -87.589908    679.60995 
   68000    251.51324   -4838.4629   -4335.4053   -4838.4629            0    8260.0829     17.63566    23.299635     19.29049  -0.50740582   -5.9848831   0.23325537    7926.5483    8274.4351    7554.7751    8951.0386    2122.9636   -344.43958    659.54265 
   68500    259.60698   -4869.3585   -4350.1125   -4869.3585            0    7924.4504    18.136726    22.548037     19.40188   0.11943414   -6.5788752 -0.058157513    7934.3519    8073.7435     7072.098    8627.5098   -1021.0826   -306.01451   -408.49978 
   69000    244.66932   -4866.1176   -4376.7488   -4866.1176            0    7206.5385     17.87413    23.225383    19.071813  -0.22337473   -6.5867558   0.31827979    7917.3485    8666.2208    6256.2788    6697.1159   -305.44972     308.9688   -779.93368 
   69500    246.44277   -4881.0523   -4388.1363   -4881.0523            0    7562.5267     18.15961    22.550259    19.420394  0.048002434   -6.4008129  0.015119363    7952.7276    6999.7466    7930.6502    7757.1833    183.56843     -532.668    838.80955 
   70000    259.95116   -4859.7285   -4339.7941   -4859.7285            0    6116.4351    17.828314    23.330544    19.197237  -0.58814946   -6.4875973  0.079090574    7984.9806    7454.1328    5226.5651    5668.6074    2698.7068    80.024197    1292.2656 
   70500     259.2365   -4887.5263   -4369.0213   -4887.5263            0    7716.3879    18.047237    22.617097    19.452792  0.050674267   -6.5115587   -0.1082774    7940.1651    6611.9742    8522.0259    8015.1635   -471.58674    192.32299    385.39704 
   71000    255.27454   -4852.4347   -4341.8541   -4852.4347            0    8249.4285    17.944808    22.976146     19.23368  -0.10871624   -6.4298411   0.26270694     7930.095    6557.5733    8136.1442    10054.568   -417.59163   -159.89566   -209.90556 
   71500    250.22173   -4849.4481   -4348.9738   -4849.4481            0    6988.9513    18.020181    22.727163    19.425024 -0.079866172   -6.4501164   0.21169277    7955.4717    5580.1755    8466.5722    6920.1062    246.16038    1664.9909     1439.588 
   72000    266.63038   -4822.7469   -4289.4531   -4822.7469            0     6793.178    17.898423     23.29689    19.206159  -0.36081771   -6.1934978 -0.035788835    8008.5377    6591.5522    7205.5164    6582.4652    1841.0749   -245.02937     1343.209 
   72500    250.74689   -4869.2471   -4367.7224   -4869.2471            0    6847.6862     18.11235    22.631391    19.442078  -0.14919727   -6.6061587 -0.077643312    7969.4572    7220.7714     7433.211    5889.0761    1216.8475    259.27307   -193.25254 
   73000    244.00412   -4873.1421   -4385.1037   -4873.1421            0    7740.3953    17.845726    23.117693    19.271823  -0.19411336   -6.4836867   0.18860746    7950.6294    8272.5402    7672.5801    7276.0657    191.69105     733.1999   -1402.2946 
   73500    252.17736   -4851.5594   -4347.1735   -4851.5594            0    8184.7252    18.272559    22.353319    19.419532   0.20008171   -6.3504106    0.1546513    7931.9538    6711.0968     9450.803    8392.2759    483.04222   -736.14127   -1629.1267 
   74000     244.3988   -4873.6743   -4384.8465   -4873.6743            0    7039.5828    17.811954    23.295213    19.139314   -0.3468558   -6.5100185   0.17142999     7941.538    6330.9033    5962.8535    8824.9915    562.27133   -433.00099    135.62711 
   74500    250.05557   -4822.8492   -4322.7072   -4822.8492            0    6420.1355    18.191506    22.644119    19.482654  -0.23167749   -6.5772941  0.066948396    8025.5019    6584.3733    6290.7639    6385.2694    361.47633    -1306.346   -305.04227 
   75000    243.25684   -4845.1193   -4358.5756   -4845.1193            0    6676.7441    17.923791    23.257274    19.184235    0.0307769   -6.4081516   0.12229671    7997.1116     7935.845    5248.2004    6846.1868    969.21183   -1384.6741    114.37894 
   75500    229.46578   -4854.3066   -4395.3467   -4854.3066            0    7718.0756    18.094333    22.539264    19.489778  -0.25796449   -6.5802605  0.072699965    7948.5734    7574.8095    6855.4873    8723.9301   -494.41986    -239.3337    -1180.964 
   76000    246.19778   -4838.7754   -4346.3494   -4838.7754            0     5972.676    17.845431    23.212418    19.359107   -0.1336935    -6.519307   0.13728642    8019.2312    7786.0426    3919.9891    6211.9961   -366.34368    557.53888   -1499.5408 
   76500    224.89151    -4870.614   -4420.8032    -4870.614            0    7758.7479    18.052311    22.664885    19.441121  -0.22346749   -6.4656041   0.18225681    7954.4039    7043.9141    8607.7409    7624.5887   -219.94699   -24.388614   -620.38288 
   77000    231.24514   -4853.9612   -4391.4424   -4853.9612            0    5227.1046    17.796561    23.223578    19.290298  0.011517995    -6.606172 -0.096637112    7972.6764    4736.8514    4930.3745    6014.0877   -768.25059    208.99489     59.37463 
   77500    244.70204   -4826.3796   -4336.9453   -4826.3796            0    6895.5269    18.073916    22.675332    19.462572  -0.29564533   -6.4357202   0.27886014    7976.3858    7328.2795    6814.3663    6543.9351   -1003.3574    210.38359   -58.419555 
   78000    265.24684   -4827.1545   -4296.6281   -4827.1545            0    8633.3679    17.948544    23.080728    19.135509   0.15170225   -6.4181499 -0.0029495659    7927.1805    10008.052    7994.1469    7897.9053   -1794.4106   -615.37113    760.60375 
   78500    239.45891   -4854.2013   -4375.2539   -4854.2013            0    7938.3845    18.241725    22.598032    19.300987  -0.54465779   -6.6714012   0.21034118    7956.3895    6676.7636    8656.8587    8481.5311    1085.3177    549.37007    365.37092 
   79000    247.55694   -4860.7019   -4365.5574   -4860.7019            0    6700.7655     17.88628    23.074758    19.316233 -0.013070297   -6.5245606  0.082880418    7972.2263    5627.3807    6689.7067     7785.209    206.44716    548.53432    78.858439 
   79500     246.3897   -4825.1096   -4332.2997   -4825.1096            0    6723.2127    18.044949    22.698891    19.480783  -0.18798801   -6.5040651   0.21231025    7979.3349    8244.3855    6131.2399    5794.0126   -284.78422   -289.22777    456.37065 
   80000     253.2583   -4816.8918   -4310.3439   -4816.8918            0    7504.8447    17.682327    23.542555    19.126988 -0.065301173   -6.8307577  0.049393691    7962.3193    9212.8295    6216.5499    7085.1545    234.66609    1107.0027   -1122.3472 
   80500    251.02048   -4852.8973   -4350.8254   -4852.8973            0    8431.0862    18.208666    22.506565    19.347955  -0.14221821   -6.2804676  0.078233294    7929.0728    8317.9672    8520.9483    8454.3431   -205.87779   -565.78931   -351.44272 
   81000    245.56064   -4831.4028   -4340.2512   -4831.4028            0    7713.1641    17.920079    23.252504    19.108332  -0.14709727   -6.7983775  0.086807791    7962.1879    8198.4448    6326.9294     8614.118    246.32898    131.43124    280.07519 
   81500    248.18494   -4850.9586   -4354.5581   -4850.9586            0    8444.0139    18.044664    22.488791    19.575468  -0.10830032   -6.3436311  0.050679915     7943.777    8838.7648    8516.6831    7976.5938   -226.84587    746.23016    441.43021 
   82000    247.97686   -4872.1107   -4376.1264   -4872.1107            0    6667.4086    17.837553    23.078366    19.368654  -0.07014088   -6.5084414   0.16071254    7973.3306    6253.7474    7640.9612    6107.5172   -248.90878    1497.6776    1129.3205 
   82500     264.5115   -4847.1059   -4318.0503   -4847.1059            0    6952.0213    18.142496    22.786637    19.349611  -0.16078055   -6.5555412   0.18981395    7999.2546    6475.7257    6500.9112     7879.427    112.16357    -63.29179   -497.02679 
   83000    244.54371   -4815.4196    -4326.302   -4815.4196            0     7615.548    18.036049    23.158442    19.097123  -0.13395633   -6.2215341 -0.0094528199    7976.6162    7059.7986    5685.4498    10101.396   -225.15013   -241.85615   -87.952938 
   83500    241.36754   -4864.0628   -4381.2979   -4864.0628            0    5316.7594    18.094469    22.836924    19.411713  -0.22260554   -6.9395614  0.040131927    8021.3474     6153.873     5174.993    4621.4122    453.36959    392.98125    836.42339 
   84000    257.28984   -4825.7241   -4311.1126   -4825.7241            0    6612.6242    17.897301    23.071894    19.389231  -0.16382838   -6.2784592   0.10368087    8006.2912     6537.808     6327.014    6973.0505    34.177814   -281.49524   -1477.4973 
   84500    247.25142   -4848.8802   -4354.3468   -4848.8802            0    7140.4782     17.98499    22.886558    19.343314   0.11470415   -6.6409598   0.29894436    7961.9886      7140.46    7476.0281    6804.9463    386.09413    254.37617    405.83526 
   85000    245.46257   -4862.2141   -4371.2586   -4862.2141            0    6206.9164    18.061942    22.909969    19.318745 -0.048634815   -6.5917878   0.10484011    7994.0685    5908.1913    6296.8821    6415.6758   -996.87328   -93.988997   -216.13198 
   85500    259.80482    -4828.255   -4308.6133    -4828.255            0     6966.969    18.007677    23.035744    19.290342  -0.24336556   -6.5224034 -0.058681781    8002.0241    6328.6026    6558.2976    8014.0068     395.0986    316.55317    1755.6953 
   86000    237.61635   -4841.2462   -4365.9841   -4841.2462            0    7237.3178    18.193873    22.566282    19.363633  -0.35744444   -6.7696305   0.13186865    7950.0891    6558.2681    8464.7526    6688.9327   -682.53036    761.14931   -804.15902 
   86500    246.45057   -4849.7082   -4356.7766   -4849.7082            0    9251.2792     17.86875    23.221103    19.056839  0.085299272   -6.1797602  0.036081499    7907.2937    8465.4847    8612.8442    10675.509   -332.18525   -51.637187   -540.14534 
   87000    252.47195   -4861.9304   -4356.9553   -4861.9304            0    7822.8846    18.142925    22.514148    19.453637  -0.33242023   -6.7926869    0.3406757    7946.2759    6411.3409    9292.5732    7764.7397    905.46303   -490.37293   -1511.9285 
   87500    252.98965   -4838.2011   -4332.1906   -4838.2011            0    7588.0437    17.784179    23.092725     19.42791  -0.02973345   -6.3118776   -0.0791558    7978.7543    7278.1231    7937.6943    7548.3136    -35.83486    383.95795    227.85582 
   88000    241.46369   -4836.7192    -4353.762   -4836.7192            0    7236.3041    18.096417    22.734184    19.430547  -0.37644281   -6.5885721   0.19843348    7993.8683    8193.5734    6590.5782    6924.7607   -159.55634   -575.70684    505.20956 
   88500    250.50384   -4852.4152   -4351.3766   -4852.4152            0    6841.7012    18.000876    23.211883    19.063704   0.23680679   -6.6143293  0.085608668    7965.4678    6725.8446    5716.0407    8083.2183    800.81391    519.53449    120.97718 
   89000    238.65677   -4876.7616   -4399.4186   -4876.7616            0    6447.1556    18.174551    22.577823    19.429623  -0.17140446   -6.1506297   0.21129088    7972.7865    7225.2927    6604.1891     5511.985    385.95006   -784.06155   -195.80291 
   89500    240.94618    -4855.547   -4373.6249    -4855.547            0    7748.5972     17.91006    23.026165    19.267836  -0.11252767   -6.7918343  0.022946745    7946.0557    7752.4407     6997.057    8496.2937    1464.6611    232.81774    1489.0606 
   90000    247.08569   -4849.1392   -4354.9373   -4849.1392            0    8561.3252     17.91172    22.657362    19.484389  -0.53046562   -6.0119826   0.13415059    7907.3952    8196.0056    9300.7913    8187.1786    2333.1683   -1014.2071    1615.9332 
   90500    240.93696   -4847.5772   -4365.6735   -4847.5772            0    7494.6222    17.924305    23.056314    19.286088   0.11272422   -6.5082637  0.093670523    7970.3306     7769.502    7772.1156    6942.2489    547.69105    126.65782    476.24661 
   91000    243.78264   -4849.9006   -4362.3052   -4849.9006            0    6124.0944    18.046484    22.763937    19.426069 -0.078236736   -6.5509299   0.28676512    7980.4046    4202.4398    7016.7292    7153.1143    858.58617    29.450096    704.94647 
   91500    234.95038   -4831.3572   -4361.4274   -4831.3572            0    6392.4039    18.002321    23.097826    19.183296  -0.06222709   -6.1873734  0.036901526    7976.6922     5908.359    5989.9884    7278.8642   -1064.6403   -642.53842   -1375.7499 
   92000    243.54418   -4844.5184   -4357.3999   -4844.5184            0    7343.9256      18.0923    22.670916    19.409003  -0.44590535    -6.574023 -0.024026317    7960.9716    6949.2792    8155.4998    6926.9977    1848.4258    528.25002    2018.3989 
   92500    240.56048   -4870.6273   -4389.4766   -4870.6273            0    6360.6214    17.915622    23.055694    19.331201  -0.11563747   -6.4787439   0.17961599      7984.89    8330.8084    6036.1293    4714.9264   -1248.5036   -92.426448    195.79846 
   93000    255.18972   -4830.3464   -4319.9355   -4830.3464            0    7424.3418    17.982434    22.706215    19.514894 -0.051855073   -6.3143523   0.37451701    7968.1852    7255.4429    8993.6259    6023.9567    138.40339    645.10597   -987.20753 
   93500     247.8087    -4865.303    -4369.655    -4865.303            0    9002.0577    17.955623    22.901726    19.277436 -0.089605796    -6.711951 -0.0011961394    7927.1664    8734.8597    8170.4694    10100.844    -208.2705    610.56826    342.68201 
   94000    253.12076    -4853.151   -4346.8782    -4853.151            0      6796.13      17.9961    22.760269    19.449068  -0.36767808    -5.813032   0.14616011    7966.2615    7758.7353    6738.8516    5890.8031    71.021349   -1813.1764    1975.5985 
   94500    231.21314   -4864.3725   -4401.9177   -4864.3725            0    5547.5882    18.036137    23.099509    19.208986  0.047781718   -6.7782056   0.11765308     8002.961    8563.4214    3272.7916    4806.5516    410.53921   -852.75311    330.31143 
   95000    242.52863   -4873.8041   -4388.7169   -4873.8041            0    7676.8209    17.977314    22.792729    19.353848  -0.26108186   -6.3509562   0.20814061    7930.2789    6780.7501     7862.443    8387.2695    41.965091   -59.479731      181.977 
   95500    256.74405   -4828.7567   -4315.2369   -4828.7567            0    6123.9492    17.749969    23.054137    19.564926 -0.022793819    -6.165361 -0.067538508    8006.1679    7625.2056    6439.3162    4307.3257   -696.83272   -595.28333    1337.5725 
   96000    257.63034   -4852.3406   -4337.0481   -4852.3406            0     7672.122    18.026917    22.838709    19.413603  -0.19844907   -6.6536446   0.23936434    7992.8037    7257.1197    7935.5901    7823.6563   -27.651419    42.829376    9.6532401 
   96500    239.98741   -4815.0503   -4335.0459   -4815.0503            0    6387.6626    18.138113    23.057275    19.119252  0.071133469   -6.2696238   0.19264492    7995.9666     6568.667    5917.7871    6676.5336    8.3321228    -289.3981   -977.69176 
   97000    251.51115   -4854.5553   -4351.5019   -4854.5553            0    7114.8931    18.058657    22.910917    19.228744  -0.29165556   -6.4510578  0.015089008    7955.7081    6120.8357    7385.5414    7838.3022    603.58673   -358.08189    1404.5759 
   97500    242.37917   -4834.3917   -4349.6034   -4834.3917            0    6414.0468    18.082467    22.971592    19.346676 -0.079241903   -6.6540307 -0.088752046    8036.2811    5548.5927    5510.5998     8182.948   -662.51561   -630.78747    1030.4279 
   98000    252.15818   -4855.3272   -4350.9797   -4855.3272            0    8362.0866    17.826352    22.992098    19.459658  -0.27441233   -6.2253669   0.32684896    7975.8371    10372.827    7294.1539    7419.2787    -688.6486    -740.6325    234.58558 
   98500    244.57167   -4856.7337   -4367.5602   -4856.7337            0    6646.7869    17.940927    22.879015    19.466541  0.053928037   -6.6101799  -0.05706009    7990.4454    5364.1171    8688.3003    5887.9434   -94.161177    436.84689    622.97088 
   99000     248.8226   -4858.0817   -4360.4058   -4858.0817            0    7959.4608     17.91042    22.960604    19.291236  -0.44171733   -6.5291507   0.29538931    7933.2132    8869.4666    7557.8982    7451.0176   -396.22789       826.27   -973.46339 
   99500    250.85851   -4803.7598   -4302.0117   -4803.7598            0    7200.6381    18.076284    22.815543    19.306081   0.28177189    -6.177413   -0.1519797    7962.2185     6764.437    7734.3453    7103.1319   -1467.9378   -704.40474   -1053.5382 
  100000    245.77091   -4836.9859   -4345.4137   -4836.9859            0    8922.5492    18.059243    22.769376    19.283592  -0.46833614   -6.8045508   0.29753664    7929.3683    9040.6613    9400.0723     8326.914    1347.6089    261.38757   -1996.7881 
  100500    257.18544   -4839.6415   -4325.2389   -4839.6415            0    7404.9207    17.933987    22.894682    19.345428   0.18941582   -6.2100152 -0.024738394     7943.096     7033.622     7673.779     7507.361    213.98263    185.71843     1787.151 
  101000    251.27218   -4893.3116   -4390.7362   -4893.3116            0    4728.6004    18.137114    22.812223    19.404207  -0.61344153   -6.8782103   0.55118068    8028.4496    4693.0142    4675.9319     4816.855   -111.10913   -158.60094   -2125.4912 
  101500    259.44545   -4857.1941   -4338.2712   -4857.1941            0    7026.7915    18.067658    22.965503    19.232879 -0.0040032684   -6.7191129 -0.016596157    7980.3537    6163.6726    7205.7271    7710.9746   -667.73386    428.67174    725.24641 
  102000    257.61653   -4864.3204   -4349.0555   -4864.3204            0    6550.2503    17.971704     22.91963    19.300398  -0.41455682   -6.2125269   0.15419054    7949.9268     7026.272    5083.7023    7540.7767   -655.32342   -956.14056   -1089.6461 
  102500    234.60307   -4850.4236   -4381.1885   -4850.4236            0     7887.854    17.897568    22.759195    19.492213 -0.004718738    -6.719933 -0.046756566    7939.8455    8342.5195     8891.918    6429.1244   -251.22809    828.21679   -572.64804 
  103000    256.03008   -4835.1144   -4323.0226   -4835.1144            0    8809.9873    17.786093    23.100316    19.302024  -0.10551832   -6.0961749   0.34131984    7930.5138    11484.014    7750.8087    7195.1394    762.42637   -1411.8374   -1320.5654 
  103500    261.07622   -4861.6087    -4339.424   -4861.6087            0    7578.5111    18.199143    22.668597    19.291093 -0.099751219   -6.7370184 -0.00091533722    7958.5218    8100.9896    7419.2519    7215.2919   -331.69865   -25.646313   -1449.3078 
  104000     251.4567   -4838.0603   -4335.1158   -4838.0603            0    7319.9082    17.946455    23.210046    19.136468  -0.39787311   -6.3189806  0.083831146    7971.0671     7351.412     5870.241    8738.0716    1603.0475   -1099.6576    656.33781 
  104500    246.96806   -4851.1253   -4357.1587   -4851.1253            0    6623.9623    18.246773    22.279939    19.669929  0.066583203   -6.4908784  0.091068541    7996.5536    7713.6851    7320.8415    4837.3601    843.66076   -731.40602   -1942.6618 
  105000    255.94492   -4821.1957   -4309.2742   -4821.1957            0    7381.1468    17.851824    23.160407    19.333723   -0.1592898   -6.6975971   0.20036716    7993.6344    6505.0186    8147.1567     7491.265    -1008.839     1830.054   -1170.4974 
  105500      261.508   -4827.5987   -4304.5504   -4827.5987            0    8274.3059    18.086191    22.683626    19.379433  -0.14141535   -6.1110279 -0.042459553    7950.6139    8182.0974     8638.987    8001.8333    198.21124   -489.96042    452.51305 
  106000    240.28627   -4859.6873   -4379.0851   -4859.6873            0    6732.7728    18.114517    23.107667    19.083635  -0.11976591   -7.0266153  0.069542653    7988.1085    5777.1503    6113.3366    8307.8315   -200.31599    1421.3989    613.80332 
  106500    260.60687   -4856.1245   -4334.8785   -4856.1245            0    7500.1638    18.054663    22.772493    19.297034  -0.01807546   -6.1196278   0.16945746    7933.9696    6244.7981    7992.7968    8262.8966   -1245.1533    76.462574   -347.25184 
  107000    250.88086    -4838.772   -4336.9793    -4838.772            0     8883.526    17.777849    23.030761    19.373697  -0.12270036   -6.7068983  0.042942521    7932.3162     9988.167     9661.905    7000.5061   -1164.5937    690.75819    637.84309 
  107500    253.70381   -4827.3824   -4319.9434   -4827.3824            0    7910.3879    17.914812    22.810887    19.434569  -0.39358164   -6.3942047 -0.078883368      7941.99    7869.3936    7947.1535    7914.6168    619.59988    485.65782    523.00254 
  108000    258.98886   -4840.3222   -4322.3125   -4840.3222            0    8423.9223    18.046035    22.883124    19.184503  0.014421473   -6.1952502   0.24525108     7922.234    8520.4595     8433.942    8317.3654   -1311.1397    154.07098   -2149.5008 
  108500    250.86291   -4842.1054   -4340.3486   -4842.1054            0     7592.543    18.083838    22.857573    19.257145 -0.086379375   -6.8427899   0.34026859    7959.9922    9047.2917    7361.9993    6368.3382   -1282.7357    153.02692   -846.33097 
  109000    243.17153   -4840.5392   -4354.1661   -4840.5392            0    8817.5834     17.89125    22.791004    19.413898  0.058941093   -6.0501786  -0.14948798    7916.2023     10318.68     7986.235    8147.8349   -204.58394   -1250.0759    717.23466 
  109500    258.40941     -4844.58   -4327.7292     -4844.58            0    7831.0565    17.923817    23.033881    19.254697   -0.8016585   -6.5654646   0.21897136    7949.3993    6145.5085      7576.53    9771.1311    1560.1088    26.791561    466.91495 
  110000    241.59625   -4808.0984   -4324.8761   -4808.0984            0    7121.0656    18.040997    22.916886    19.315433   0.21403796   -6.4446481  0.028012403    7985.8392    6186.8819    6697.0514    8479.2636   -615.00086    1303.4481    951.63496 
  110500    240.91457   -4855.7615   -4373.9026   -4855.7615            0    5350.6538    18.103022    23.017838    19.246999  -0.27350849   -6.4763066   0.41352687    8020.0785    3353.8621    5651.5229    7046.5762   -721.69092    196.68515   -1939.7084 
  111000     259.6101   -4832.4608   -4313.2086   -4832.4608            0    7532.8353    17.993205     22.95225    19.344957  -0.13470494   -6.7209825 -0.011305597    7989.1685    8752.8384    7017.8002    6827.8674    29.465316   -218.38923   -870.95186 
  111500    249.63708   -4836.6166   -4337.3116   -4836.6166            0     6992.111    17.975407    22.932253    19.327045  -0.34759294   -6.0859227  0.029691569    7966.9285    6448.0141    6526.5796    8001.7392    724.23876   -955.07769    -297.7804 
  112000    258.98352   -4864.5358   -4346.5367   -4864.5358            0    6289.4725    18.028817    22.911286    19.294431 -0.037773737   -7.1059161   0.15842184    7969.8232    5096.7843    6349.9266    7421.7066    110.53851    910.36597   -247.67845 
  112500    250.35602   -4865.4068   -4364.6638   -4865.4068            0     7461.189     17.86812    22.892285    19.431429  -0.11181227    -5.848721   0.29098238    7948.2723    9876.5947    6195.4768    6311.4955    140.74353   -1406.9173    456.96924 
  113000    239.13093   -4846.9473   -4368.6559   -4846.9473            0    7657.3617    17.924021    22.951312     19.32683  -0.17444616   -6.7316769  0.045905187    7950.6675    7784.6179     7003.628    8183.8394      992.366     765.8431   -629.12512 
  113500    252.07357   -4856.4282   -4352.2499   -4856.4282            0    8926.5422    18.003257    22.809058    19.240166  -0.31572864    -6.186756  -0.10336163    7900.7304    8449.2269    8416.6025    9913.7972    689.28992    151.59388    320.30484 
  114000    247.32964   -4821.0293   -4326.3394   -4821.0293            0    8369.6151    17.977604    22.881996    19.316317  -0.11855826   -6.3272741  0.047592043    7946.0268    7776.8435    8538.3898     8793.612   -322.13768   -245.07599    95.648801 
  114500    256.00004   -4849.6676   -4337.6359   -4849.6676            0     6169.348    18.088575    22.767623    19.418533 -0.057280828   -6.7911928   0.13015632    7997.2094    3825.7029    6879.4188    7802.9222   -1335.0633    551.42018   -1628.4276 
  115000    237.77382   -4829.9393   -4354.3623   -4829.9393            0    5592.7431      17.8913     23.19797    19.307277  0.028073122     -5.99983   0.34779061    8013.3278    6451.3341    4978.5211    5348.3741   -1099.3619   -348.03083   -2201.8194 
  115500    242.69247   -4854.4662   -4369.0513   -4854.4662            0     7553.294    18.123887    22.703572    19.365569  -0.41739771   -6.6708309  0.015553856    7968.4856     6818.956    7778.8101    8062.1158    765.53102    721.41845   -1630.0233 
  116000    251.07426    -4884.402   -4382.2225    -4884.402            0    6031.1229    17.998693    23.009577    19.273489    -0.279886   -6.4426988 -0.050426131    7981.9674    7581.4475    4803.5972     5708.324    1514.5962   -927.16801    295.61428 
  116500    239.39962   -4833.4005   -4354.5717   -4833.4005            0    6759.5963    18.005204    22.691296     19.53876  -0.13820479   -6.3699305   0.18825676    7982.7834    7199.4617    7788.9837    5290.3435    1864.8832   -977.91188    33.412951 
  117000    233.61464   -4858.8651    -4391.607   -4858.8651            0     6510.757    17.904662    23.007173    19.406583 -2.7671899e-05   -6.8801359   0.32131586    7994.2634    8012.0125    5827.1261    5693.1324   -595.79348    593.45525    -197.1842 
  117500    248.87743   -4842.2616    -4344.476   -4842.2616            0    7008.5104    18.130306    22.750045    19.334957  -0.08209849   -6.4305449  0.061909544    7974.9987    5757.2995    7720.1662    7548.0655     1454.159   -1133.6125    272.98566 
  118000    245.93977   -4864.7941   -4372.8842   -4864.7941            0    7716.2482    18.054066     23.12896    19.032172  -0.40995715    -6.495726  0.066770804     7947.298    6235.1679    7430.6863    9482.8905    1506.3971   -277.32478    1747.1901 
  118500    244.51297    -4848.489   -4359.4328    -4848.489            0     8491.628    17.972302    22.685538    19.398115 -0.041007915   -6.4149172  0.032328244    7908.8316    7297.1999     9617.318    8560.3662   -325.58672    1033.2734    741.38299 
  119000    252.81423   -4868.9879   -4363.3282   -4868.9879            0    8955.2954    17.927529    22.979805     19.17857 -0.085127188   -6.6547136   0.30274417    7901.0167     9517.759    8156.6559    9191.4714   -422.97566   -725.08075   -60.353081 
  119500    236.66612    -4839.555   -4366.1935    -4839.555            0    5826.3291    18.046971    22.760136    19.492307 -0.038962674   -6.2781377 0.0033741098    8006.4942     5939.214    6206.9546    5332.8186   -884.67104    284.54909   -708.45211 
  120000     238.3936   -4839.3982   -4362.5815   -4839.3982            0    7018.0706    17.925333    22.947754    19.418988  -0.26368656   -6.4756735   0.10184533    7987.9257     7724.516    7694.0902    5635.6055     1161.011   -325.48637    1280.7336 
  120500    262.28193   -4863.9664   -4339.3701   -4863.9664            0    6955.9577    18.074948    22.811484    19.387274  -0.20077422   -6.9644682   0.10121351    7993.6907    6492.4939    7807.6534    6567.7259    391.65258    52.112161    1043.3314 
  121000    248.36515   -4862.5071   -4365.7461   -4862.5071            0    8527.3343    18.019933    22.850389    19.237116 -0.054677252   -6.1055517  0.058950416    7921.1225    11127.884    7302.4625    7151.6567    -439.9907   -1215.7789    492.74337 
  121500    247.52981   -4859.4595   -4364.3693   -4859.4595            0    7160.3183    18.017154    22.948977    19.297757  -0.23913469   -6.8691828   0.18658519    7979.1452    7256.4954    7156.3202    7068.1394    914.03111    263.70144   -238.82548 
  122000    253.54121   -4821.8257    -4314.712   -4821.8257            0    7213.1673    17.861916     22.90994    19.467766   0.11666115   -6.1645733  0.071913676    7966.5098    10112.358    6118.8915    5408.2519    411.19171   -729.58626   -949.49572 
  122500    262.52134   -4825.1769   -4300.1018   -4825.1769            0    5828.3395    17.896554    23.120926    19.368772   -0.2986711   -6.5882171   0.30214501    8014.5056    6983.4712    5136.1475       5365.4   -882.10914    332.92977   -296.61777 
  123000    255.42975   -4868.4296   -4357.5386   -4868.4296            0     5370.226     18.06853    22.768568    19.521177  -0.12467877   -6.3940209   -0.1714602     8030.906    6187.9211    5033.6997    4889.0571    115.48525   -802.22236    3022.2663 
  123500    256.22199   -4860.7447   -4348.2691   -4860.7447            0    6492.1599    17.932204    23.126598    19.208966  -0.28006384   -6.4385327   0.22305779     7966.167    5826.1984     6208.833    7441.4484    559.36603     411.2467     -1375.96 
  124000    254.59648   -4845.5752   -4336.3508   -4845.5752            0    7408.2909     18.31132    22.449597    19.413947   0.17043958   -6.8077627  -0.13889397    7980.7192    6282.4767    7743.9322    8198.4639   -1380.9996   -6.5830793    740.17965 
  124500     250.3408   -4828.1918   -4327.4792   -4828.1918            0    7268.7115    17.797945    23.237567    19.261962  -0.32551376   -6.1103632   0.32038262    7966.3806    6300.3047    6755.9954    8749.8345    3.0972221   -29.674217    14.667297 
  125000    266.37393   -4851.1965   -4318.4158   -4851.1965            0    7377.1684    18.143813    22.616228    19.423492  0.084953549    -6.674761 -0.018462792    7970.3256    7200.3122    8515.8287    6415.3643   -2073.6789    542.90825    1161.2465 
  125500    248.24573   -4843.3089   -4346.7867   -4843.3089            0    8550.4088    17.951557    23.092471    19.089975  -0.33345399   -6.4640718   0.33563527     7913.669     9747.106     7098.053    8806.0674    2399.7626   -670.02086   -1361.9295 
  126000    252.07681   -4870.5157   -4366.3309   -4870.5157            0    7397.5829    18.099707    22.701306    19.319523  0.006433295   -6.3860785   -0.1386481    7938.1407    4646.6942    8447.6738    9098.3807    229.49853    260.28711     1319.602 
  126500    233.87792   -4857.8407    -4390.056   -4857.8407            0    8743.7466    17.991289    22.921486    19.134191  -0.31933601    -6.479754  0.058484368    7890.6931    10004.556    7925.3791    8301.3052   -148.23472    6.7223384   -298.42912 
  127000    252.03231    -4864.785   -4360.6892    -4864.785            0    8055.8257    18.092105    22.669638    19.370706   0.11592945   -6.6317146   0.19018188    7944.7298    6757.1042    8732.4733    8677.8995   -136.12913     858.9123   -1571.4204 
  127500    250.82673   -4852.3051   -4350.6207   -4852.3051            0    6605.1064    17.804997    22.996415     19.43733  -0.10719552   -6.3319897   0.11560306     7958.636    6147.5058    7354.9555    6312.8581    306.81602   -661.33445   -1726.9445 
  128000    241.31131   -4848.7161   -4366.0636   -4848.7161            0    7356.6231    18.082763    22.737133    19.392447  -0.28567094   -6.6993448  0.049734902    7973.2084     6747.589    7530.0562     7792.224    1246.9355    585.19854   -522.98269 
  128500    238.59418    -4849.707   -4372.4891    -4849.707            0    7392.9161    18.113045     22.90882    19.269483   -0.1466334   -6.4619169    0.1419359    7995.8428    7180.1769    6962.7619    8035.8095   -1477.7586   -323.49243    14.154999 
  129000    251.49912   -4809.0452   -4306.0159   -4809.0452            0      6350.95    18.109775    22.913649    19.288327 -0.019060919    -6.604177   0.16262751    8003.9038    3957.0839    6695.6095    8400.1566   -811.09442    312.19544   -417.20932 
  129500    250.13223   -4856.7837   -4356.4883   -4856.7837            0    6888.6364     18.03938    22.941232    19.245609  0.010542721   -6.6416901   0.20285345    7964.7108    6259.4624    7637.4867    6768.9601     538.8156   -199.98898    1091.4533 
  130000    243.69577   -4869.4091   -4381.9875   -4869.4091            0    6219.9815     17.91095    22.982372    19.348211  -0.32616451    -6.234116  0.097177528    7964.4224    6815.1814    6610.1636    5234.5996    323.39586    416.30579    749.55204 
  130500    257.61898   -4837.1395   -4321.8698   -4837.1395            0    5078.2933    18.168462    22.854584    19.387959  -0.17447277   -6.7904137 -0.074575556    8050.5138    4607.4658     5881.503    4745.9111   -147.33102    431.69315     -1127.93 
  131000    236.61676   -4856.6247   -4383.3619   -4856.6247            0    7228.9462    17.897466    23.090926    19.242073 -0.076464084   -6.2503879   0.17770378    7952.1537     10393.81    5045.6791    6247.3495   -88.837101   -962.56889     697.4306 
  131500    249.42458   -4865.8941   -4367.0141   -4865.8941            0    5634.2773    18.051431     22.80287    19.426212  -0.11284569   -6.5104912 -0.045751376    7996.3035    6738.7354    5511.9689    4652.1277    -543.3059   -297.51732    193.91916 
  132000    257.14385   -4838.0314   -4323.7119   -4838.0314            0    7261.4908    17.928802    23.103974    19.258786  -0.31281346    -6.533498   0.24949842    7977.5009    7238.2009    8091.5359    6454.7356    1139.4151    572.69116   -373.23123 
  132500    268.64619   -4858.7413   -4321.4157   -4858.7413            0    7033.5407    18.046419    22.686579    19.465599   0.16245355   -6.5712584  0.030765754    7969.4402    8491.8975    6977.7109    5631.0137   -133.42848   -249.33251    -1445.269 
  133000     252.2778   -4828.7835   -4324.1968   -4828.7835            0    7652.5266     17.80878    23.026253     19.38564  -0.36798612   -6.5407399   0.29550923    7949.4595    9653.8721    7990.6986     5313.009    375.89142    1677.9721   -864.56678 
  133500    259.84732    -4849.724   -4329.9972    -4849.724            0    5469.1324    18.182997    22.646529    19.398826   0.15280887   -6.3410247  -0.18863765    7988.0829    5610.3972     5889.979     4907.021   -19.857715    -1268.162   -666.53741 
  134000      237.297   -4851.6647   -4377.0414   -4851.6647            0    7688.6194    18.029583    23.086973    19.155113  -0.38134288   -6.6117699   0.20842532    7973.2875    7662.5247     7050.886    8352.4476   -434.10986    545.64539    488.42235 
  134500    248.81178    -4829.137   -4331.4827    -4829.137            0     8159.045      18.0276    22.818109    19.348288   0.25678191   -6.4439281  0.010299543    7959.0295    8104.2714    7000.4523    9372.4113   -1382.4303   -1191.7732     945.5183 
  135000    249.01634   -4861.4985    -4363.435   -4861.4985            0    9200.4207    17.802237    22.942694    19.327076  -0.34932657   -6.3935232   0.31383208    7893.7824    11012.542     8376.085    8212.6349   -242.18546   -275.31182    -255.7716 
  135500    256.02174   -4866.3859   -4354.3108   -4866.3859            0    6422.8139    18.027557    22.915412    19.332881 -0.070175662   -6.5430423 0.0026028125     7986.585    8922.7086     5968.764    4376.9692    293.38169   -314.80508   -41.738503 
  136000    256.23052   -4848.0894   -4335.5967   -4848.0894            0    6253.7012     18.18942    22.977801    19.091042  -0.32347532   -6.3404517   0.13655609     7979.156    5117.7442    6360.3249    7283.0344    450.91221   -568.92367    -49.69584 
  136500    261.66826   -4858.5833   -4335.2144   -4858.5833            0    8335.4908    18.009911     22.86463    19.290106 -0.078472399   -6.5700749  0.056984961    7943.4715    6580.9256    9302.2869    9123.2598   -205.45754    -264.7401    308.51814 
  137000    251.07697   -4856.6278   -4354.4428   -4856.6278            0     8471.483    17.761354    22.849204    19.454057  -0.41833542   -6.2970915    0.2650658    7895.0946    10335.593    8198.9692    6879.8867    37.550529    426.59672   -339.28819 
  137500    251.71204   -4835.5107   -4332.0555   -4835.5107            0     8376.378    17.858995    22.879714    19.415447 -0.0091492212   -6.3286084 0.0043830584    7933.3206    9733.1297    7806.5914     7589.413    -1204.247   -344.77862   -1095.3098 
  138000    263.19154   -4882.2266    -4355.811   -4882.2266            0    6845.5453    18.156514    22.889081    19.208287  -0.31841672   -6.7495562   0.45480197    7982.6939    7015.6412    5141.4388    8379.5559   -100.09493    271.59443   -1153.0371 
  138500    267.60371   -4858.7363   -4323.4958   -4858.7363            0    8213.7926    17.946718    22.800201    19.318871   0.26307468   -6.0325939 -0.047933668    7905.0654    9243.2318    7584.2207    7813.9253   -473.01151   -117.50801   -1036.4008 
  139000    241.53958   -4869.0478   -4385.9389   -4869.0478            0    7246.0095      17.9223    22.920245    19.341436  -0.46592129   -6.6305275    0.1459722    7945.1429    8383.1621    6924.5543    6430.3121    46.276768   -111.49206   -39.745143 
  139500    253.17053   -4869.3952   -4363.0229   -4869.3952            0    8757.8272    17.858395    22.820248    19.434722    0.0816053     -6.38993  -0.10907795    7920.2905    9293.1337    9033.0192    7947.3287   -889.35625   -79.215526    1014.6944 
  140000    247.93862   -4815.5667   -4319.6588   -4815.5667            0    9594.3438    17.829311    22.921406    19.334858  -0.25686684   -6.1765024   0.41811535    7901.6324    10995.636    8767.5962     9019.799   -526.00299    -489.7665   -1027.9859 
  140500    254.78533   -4835.5584   -4325.9563   -4835.5584            0    7988.4523    18.088682    22.830872     19.25675   0.12662573   -6.6159172 -0.075224552    7952.6598    6471.5824    10647.683    6846.0921   -568.00409     1912.929   -860.87376 
  141000    252.68015   -4855.0251   -4349.6336   -4855.0251            0    8765.8052    18.168792    22.821494    19.047444  -0.74171938   -6.4907813   0.29970894    7897.8127       7831.7    8298.6228    10167.093    1755.6736    -730.0832    85.007723 
  141500    255.15422   -4822.9179    -4312.578   -4822.9179            0    8315.4142    17.942409    22.875033    19.360175  0.068967431   -6.3930324  0.031250437    7946.0586    7267.7415    9140.9923    8537.5089   -270.53107    -1087.528   -1393.1505 
  142000    253.72057   -4854.9326   -4347.4602   -4854.9326            0    7055.9323    17.973401    22.823117    19.388876  -0.34860526   -6.7202945   0.26109817    7953.4922    5967.9515    8332.2251    6867.6203    1355.9722    1319.3189    -931.2106 
  142500     244.4707   -4835.8277   -4346.8561   -4835.8277            0    7455.0233    17.883325    23.067798    19.247989   0.12843431   -6.0527037 -0.085249121    7940.3524    6077.3941    7545.6326    8742.0432    590.60001    235.73859    660.28611 
  143000    240.68052   -4843.0039   -4361.6131   -4843.0039            0    6231.2887    18.087996    22.722995    19.421993  -0.37913539   -6.5753369   0.26493115    7982.6999    6333.8352    6572.0541     5787.977   -1045.4881    148.32083    251.68742 
  143500    250.12394   -4869.9855   -4369.7067   -4869.9855            0    7124.8848    17.806144    23.104286     19.37569   0.01496694   -6.3945367 -0.067639971    7971.1247    8233.0471    6470.8299    6670.7775    70.321212    161.70747    337.27236 
  144000     248.5255   -4833.8981   -4336.8164   -4833.8981            0    9196.4213    18.004424    22.504712    19.511213  -0.50372028    -6.304313   0.21489274    7905.6388    9154.4378    10969.129    7465.6968    741.23443    470.26262   -58.854524 
  144500    248.05356   -4866.0092   -4369.8714   -4866.0092            0    6847.8738    17.919248    23.042791    19.245564  0.051131223   -6.6663554   0.11864858    7946.6759    6949.3438    6185.1572    7409.1204    679.13619   -160.81312    801.75688 
  145000    249.90539   -4852.7617   -4352.9201   -4852.7617            0    7820.0555    18.141302    22.690232    19.392857  -0.25503379    -6.318882   0.18144531    7982.6886     7312.363    8821.4176    7326.3859    2044.5111    -778.3893    1876.6434 
  145500    250.87171   -4844.7739   -4342.9994   -4844.7739            0    8758.0605    17.816174     23.21057    19.139764 -0.041269367   -7.2315288 -0.063917466    7914.7435    9463.9609    8671.0846    8139.1359   -343.10633    2444.1312    2981.9965 
  146000    257.13391   -4868.9657   -4354.6661   -4868.9657            0    7991.6012    18.067906    22.598897    19.386563  -0.16629038   -6.2060519  0.081735709    7915.8197    6686.0256    8511.5854    8777.1924    513.26118    362.78989    438.25344 
  146500    245.45666   -4852.8235   -4361.8798   -4852.8235            0    5838.0723    18.009575    23.263205      19.1095  0.078357326   -6.9191983   0.12832523    8006.1243    4899.7166    5786.7751    6827.7252   -712.42271    930.02848   -187.03564 
  147000    242.12002   -4867.3228   -4383.0528   -4867.3228            0    6510.3671     18.12391     22.65911    19.461948  -0.31642028    -6.248122   0.26011671    7992.4706    6443.8283    6718.4197    6368.8532    926.11597   -484.52856   -2427.8758 
  147500     257.6916   -4857.3982   -4341.9832   -4857.3982            0    7514.9246    17.877378    23.134384    19.231365 -0.038000746   -6.5397761 0.0078417874    7953.7488    9759.1503    6693.3125    6092.3108   -109.74503   -693.86138   -919.36365 
  148000    249.73964   -4854.2293   -4354.7191   -4854.2293            0    8895.9608    18.229459    22.347973    19.471565  -0.45452899   -6.7043827   0.20306751    7932.5491    9273.3901    9946.7318    7467.7606    350.67815    929.48672    -1334.056 
  148500    244.08869    -4841.328   -4353.1204    -4841.328            0    7122.7255    17.971908     23.16661    19.164102 -0.034217205   -6.2328868  0.030247697    7978.9393     7007.055    6384.7521    7976.3694   -399.95193   -456.40362   -1281.1913 
  149000    249.91061   -4833.4746   -4333.6225   -4833.4746            0    5203.0196    18.115798    22.838605    19.470519  -0.16518554   -6.8037434   0.22061816    8055.7236    5586.4997    5562.4876    4460.0716    750.08908    1063.8463    18.919678 
  149500    255.68879   -4827.7169   -4316.3077   -4827.7169            0    6549.6083    17.878856    23.069529     19.34202 -0.0088411906   -6.1121765 -0.060433523    7977.7473    5773.8801    7398.0029     6476.942   -593.92723   -300.98264    442.71845 
  150000    244.44411   -4854.5465    -4365.628   -4854.5465            0    7160.1657    17.928056    22.812361    19.415211  -0.43346701   -6.5664563   0.19647279    7940.4582      6198.78    8011.0743    7270.6428    814.94166   -559.96095    1085.7081 
  150500    239.75547   -4859.6423   -4380.1018   -4859.6423            0    7058.8247    18.011799    22.780399    19.424899 -0.009118822   -6.5483976   0.12618092    7970.3464    6496.2864    6511.0917    8169.0961   -357.78327   -869.44206    -339.3962 
  151000    257.64628   -4822.9602   -4307.6359   -4822.9602            0    7368.8181    17.874281    23.131714    19.346181  -0.15982233   -6.1965436  0.063717412    7998.9253    9426.8758    5638.9151    7040.6635     1051.531   -1820.6372   -1439.2232 
  151500    256.82354   -4872.6959   -4359.0171   -4872.6959            0    7026.2564    18.206273    22.621166    19.381309  -0.36375704   -6.8524039   0.11720815    7982.1364    5166.4091    7084.3363    8828.0239     1114.671    574.24606    401.48221 
  152000    251.73609   -4844.8743    -4341.371   -4844.8743            0    8077.8066    17.916551    23.152311     19.14624  0.042426755    -6.207609  0.023228186    7942.0434    8640.2509    6367.3083    9225.8605    584.69004    -1179.132    53.079581 
  152500    236.21858   -4841.8769   -4369.4105   -4841.8769            0    8067.1039     18.16445    22.520146    19.445012  -0.26044112   -7.0392904   0.40458595    7954.2947    8655.5865     9068.402    6477.3231    396.90354    1077.2659   -3078.8061 
  153000     264.1083    -4863.352   -4335.1028    -4863.352            0     6648.573    17.783857    23.091282    19.401787   0.17274953   -6.2986994   -0.1209449    7967.3837    7484.9486    6259.9687    6200.8016    126.21264   -931.86816    335.95286 
  153500    247.37242   -4841.2542   -4346.4788   -4841.2542            0    5757.5843    18.035403    22.843068    19.481368  -0.41137858   -6.4867481   0.21592846    8026.0106    7432.3363    4581.3474    5259.0691   -133.23156   -1031.9761   -1749.6208 
  154000    238.00971   -4836.0168    -4359.968   -4836.0168            0    6408.6606    18.023365    23.133017    19.177014   0.13297978   -6.4685012 -0.085005639    7995.5648     6414.465    5025.0373    7786.4795    67.967542   -791.32158    1855.3929 
  154500    235.09005    -4860.104   -4389.8949    -4860.104            0    8969.8104    18.097449    22.648756    19.356434  -0.35246141   -6.4408398   0.33310449    7933.9064    7337.9603    10612.337    8959.1339   -209.99955    337.13853   -1929.0034 
  155000    256.81911   -4873.6528   -4359.9828   -4873.6528            0    7803.6582     17.81122    22.924253    19.404375   0.03542479   -6.6966228 -0.041239459    7922.9795    7417.9337    8830.7578     7162.283     425.6697    1381.8396     1165.898 
  155500     247.7644   -4840.3968   -4344.8374   -4840.3968            0    7416.1281    17.917268    22.840807    19.398747  -0.24923475   -6.2459917    0.1475738    7938.8375    7243.0497    8441.2587     6564.076   -532.35723    87.210713   -275.93865 
  156000    245.28556   -4864.2485   -4373.6471   -4864.2485            0    9302.2616    17.984507    22.959593    19.187406   0.20494593   -7.1290521  0.026962855    7922.8055    8206.8067    10080.572    9619.4056   -1209.3825    1619.6161   -325.81669 
  156500    246.80538   -4859.8087   -4366.1674   -4859.8087            0    6052.5662    18.055342    22.922752    19.340473   -0.2261102   -6.1788559   0.27852204    8004.5989    7301.3722    5635.9522    5220.3741    35.765042   -745.91388   -2273.8274 
  157000    240.28259    -4838.502   -4357.9072    -4838.502            0    8176.7422    18.005458    22.928625    19.331971  0.068889227   -6.7429447  -0.12847029    7981.0184    8520.5197    8046.6075    7963.0992    405.07459    89.913964   -486.84015 
  157500     246.5646   -4843.3811   -4350.2215   -4843.3811            0    6856.9415    18.052312    22.909198    19.269683  -0.95934685   -6.4800833   0.31804072    7969.2471    7754.6503    5750.9946    7065.1797    773.96462   -299.43445   -88.615946 
  158000    252.83051   -4874.0321   -4368.3399   -4874.0321            0    8873.0299      17.9482     22.84004     19.29558   0.10364429   -6.3385381  0.093268598    7909.9836    7448.9839    9511.1523    9658.9534   -396.14626   -783.94772      350.655 
  158500    250.35335     -4857.84   -4357.1024     -4857.84            0    7814.8592    17.967433    22.770057    19.371066  -0.57245039   -6.5872506    0.3171371    7925.0805    7891.8042    9223.2488    6329.5245    781.39547    161.68175    956.82632 
  159000    244.32878   -4854.6453   -4365.9575   -4854.6453            0    6994.1779    17.957478    22.906164    19.329916   0.11973311   -6.1333641 -0.074015894    7951.1086    6817.7126    6370.7527    7794.0684    1220.5162   -1075.9825    550.26859 
  159500    249.21379   -4820.8654    -4322.407   -4820.8654            0    7505.2369    18.092592     22.86261    19.338621  -0.39594007   -6.7097625   0.33270933    7999.3021    7090.0274    8451.8823    6973.8011   -643.14619    1123.4225    -1313.422 
  160000    246.72098   -4827.7921   -4334.3196   -4827.7921            0    8478.4118    18.012704     22.80097    19.388163   0.38736763   -6.6162689  -0.35165886    7962.8564    9515.2464    7971.3729     7948.616   -440.93511    325.29927    1749.3114 
  160500    250.54877   -4862.2758   -4361.1473   -4862.2758            0    7620.4069    17.870376    23.020399    19.329629  -0.52386972   -6.0340448   0.26135025    7951.8842    9905.3845    6154.5311    6801.3049    1919.0863   -563.64282     764.3973 
  161000    242.23396   -4862.5792   -4378.0814   -4862.5792            0    6502.4797    18.028546    22.963132    19.282099  0.098244233   -6.9128684  -0.17511602    7982.6324    6804.2919    6858.1211     5845.026    729.41104    1774.2399    1644.2966 
  161500    242.06075   -4838.8297   -4354.6783   -4838.8297            0    7602.8127    17.961892    22.778188    19.448839  -0.36305773   -6.0165967   0.33638313    7957.2855    9195.0142    7358.5663    6254.8576    1056.7974   -186.61219   0.50259705 
  162000    247.27742    -4843.059   -4348.4736    -4843.059            0    7256.6648    17.930105     22.88725    19.493566   0.20959254   -6.8131441   -0.1135487    7999.5902    7998.8909    7185.3401    6585.7633    254.55217    279.26586    1025.5463 
  162500     249.1309   -4853.2587   -4354.9662   -4853.2587            0    8283.8239    17.933232     22.89705    19.292486  -0.43293975   -6.4887964   0.23216221    7921.8443    6926.9254    9236.5963    8687.9499    2460.3348    -340.7929   -466.36232 
  163000    248.17576   -4854.3266   -4357.9444   -4854.3266            0    7474.8998    18.150979    22.866777    19.208591 -0.060897655   -6.3546723  -0.06021974    7972.6101    7337.1093     7289.344    7798.2462   -201.57869    564.95309    1354.7911 
  163500    246.45814   -4864.5881   -4371.6413   -4864.5881            0    4839.1902    18.046095    23.009893    19.321389   -0.4154141    -6.865079   0.30267471    8022.9883    4170.1241    4056.0089    6291.4377    853.32939    497.64788    436.01075 
  164000    258.35791   -4883.1638    -4366.416   -4883.1638            0    7392.2956    18.012163    22.808949    19.355905 0.0032326573     -6.34623  0.066985241     7952.151    7066.5566    8089.1383    7021.1918   -69.317408   -492.90913    240.95347 
  164500    252.91892   -4844.9656   -4339.0965   -4844.9656            0    8864.7704    17.998901    22.822216    19.347669   -0.6407747   -6.8333997    0.2361756     7947.535    10606.657    8860.8402     7126.814     1672.285   -223.30656   -1322.0094 
  165000    245.87098   -4858.3459   -4366.5735   -4858.3459            0    7101.2914      17.9836    22.962666    19.264214   0.10452099   -6.4405307  -0.18071728    7955.1842    7414.4726     6733.331    7156.0706   -1411.5521   -589.01558   -594.00635 
  165500    258.15682   -4855.9491   -4339.6035   -4855.9491            0    7895.9975    17.938033    22.954371    19.319761  -0.24936576   -6.2635591   0.38823146    7955.0328    9686.2235    6611.1174    7390.6515   -470.88786   -645.27651   -1509.1352 
  166000    245.57196    -4802.898   -4311.7237    -4802.898            0    8269.2147    17.968295    22.940118    19.373286 -0.089590741   -6.9567671 -0.068469508    7985.5678    9544.2255    8154.5106     7108.908    305.18774    617.86392    1691.5794 
  166500    246.21669   -4856.1772   -4363.7134   -4856.1772            0    8339.0241    17.991873    22.825561    19.291903  -0.20565663   -6.0867124     0.165047    7922.6943    6312.3393    8629.2955    10075.437   -1461.2741   -16.161697   -635.41305 
  167000    244.42282   -4857.6896   -4368.8138   -4857.6896            0    6599.2001    18.056571    22.917062    19.288999  -0.12091014     -7.01686   0.14444852    7981.8564    6073.2165    7090.3959     6633.988   -661.63425     620.1849   -918.32687 
  167500    249.95436   -4863.1125   -4363.1729   -4863.1125            0    7657.2831    17.872647    23.036596    19.201809   -0.5206582   -5.9748466   0.29937016    7905.8643    8243.3069    7533.6911    7194.8512     977.7371   -561.00409   -217.31439 
  168000    246.47737   -4810.2688   -4317.2836   -4810.2688            0    10995.475    17.857629    22.819755    19.365513   0.16218314   -6.4132739  0.019937809    7891.5767    11297.913    10630.458    11058.056   -416.02576    252.61573     756.5026 
  168500    258.23212   -4857.7787   -4341.2825   -4857.7787            0    9369.5586    17.942503    22.918145    19.231062  -0.18381362   -6.6245238    0.2187886    7907.9837    8154.4477    9470.1039    10484.124   -1432.6738    247.68245    485.25547 
  169000    268.39733   -4840.1892   -4303.3614   -4840.1892            0    7462.9473    18.043603    23.043726    19.137381    0.1748375   -5.8764233 0.0052433946    7957.1672    8226.9714    6774.5499    7387.3207   -1985.3827   -1465.7446    765.26448 
  169500     240.3282   -4838.0567   -4357.3707   -4838.0567            0    8465.6108    18.018333    22.790606    19.345162  -0.43629214   -6.6723004    0.2431995    7944.0661    8425.4837    8600.7391    8370.6097     1560.552    647.43591   -257.94264 
  170000    241.92548   -4819.9073   -4336.0265   -4819.9073            0    8741.8526     17.89715    22.919329    19.338168 -0.089848345   -6.4007449  -0.06581647    7932.3362    8976.8278    9487.2332    7761.4969   -609.00941    683.16346    2191.4661 
  170500    234.91398   -4864.2597   -4394.4028   -4864.2597            0    8333.7184    17.998202    22.685767    19.403482 -0.055637979   -6.4933981   0.23091095    7922.5004    8283.2238    8321.1585    8396.7728   -1075.5445    14.739898   -336.10469 
  171000      253.317   -4838.2176   -4331.5523   -4838.2176            0    8906.6737    17.929837    23.016216    19.203095  -0.20853194   -6.7509252   0.27402843    7924.6754    9250.3807    8519.7437    8949.8966      75.4794   -26.435748   -1139.6743 
  171500    263.77148   -4892.5364   -4364.9609   -4892.5364            0     5920.279    18.089474    22.661434    19.412074   0.05184388   -6.0481851 -0.0079383129    7957.6583    4589.1346     7769.753    5401.9495   -202.93153   -503.91447   -529.52629 
  172000    249.80711    -4858.785   -4359.1399    -4858.785            0    7570.5359    17.851375    23.177543    19.202711  -0.24598231   -6.9511981    0.2293577    7945.1414     7543.628     7756.631    7411.3488    420.96911    597.80871    -530.1658 
  172500    266.86755   -4879.0303   -4345.2622   -4879.0303            0     6422.042    18.050441    22.735796    19.419954 -0.048027167   -6.2857145   0.18089363    7969.7769    4945.5341    7628.0332    6692.5587   -1276.5487    820.09767   -1514.2894 
  173000    238.84874   -4853.1348   -4375.4079   -4853.1348            0    6969.5867    17.915983    23.126402     19.18098  -0.28778892   -6.4266818   0.08541884    7947.2983    6759.5247     6164.792    7984.4434    447.58335    186.51285    847.19849 
  173500    261.06188    -4856.644    -4334.488    -4856.644            0    7015.1929    18.160422    22.689321    19.414761 -0.008877853   -6.7242589   0.12204992    7999.8064     6209.483    6853.1833    7982.9126    -845.1615    -1145.996   -641.67981 
  174000     244.9119   -4846.7403   -4356.8862   -4846.7403            0    6293.0499    17.999797    22.980787    19.278985  -0.21353189   -6.3163857   0.18850195    7974.7427    5265.9666    5863.7206    7749.4626   -1900.3466   -395.01601   -547.02522 
  174500    257.32369   -4838.0682   -4323.3891   -4838.0682            0    8269.2322    18.164204    22.528985    19.420427  -0.11231603   -7.0113254 -0.079615056     7947.248    6781.8695    9526.9734    8498.8539   -1099.4492    2329.1424    1694.5536 
  175000    246.81736   -4851.9957   -4358.3305   -4851.9957            0    8617.8758    17.858965    23.098806    19.222223  -0.28193099   -6.2661456     0.229405    7929.5665    7484.1237    8122.7014    10246.802    712.47304    530.93269   -1028.7456 
  175500    236.40958   -4873.9219   -4401.0735   -4873.9219            0    7644.4045     18.00976    22.769773    19.391033   0.14028574   -6.6030908  0.020504971     7951.839    8233.3197    7138.0226    7561.8712   -1206.5962     226.3271   -1094.5093 
  176000    246.26711   -4844.9778   -4352.4132   -4844.9778            0    8585.4364    17.895927    22.917116    19.334051  -0.58859341   -6.6296396   0.25676722    7929.3397    9241.7807     8425.893    8088.6356    1477.8648    -170.6867    361.65027 
  176500    244.00769   -4849.8394   -4361.7939   -4849.8394            0    8578.7216    18.030914    22.898889    19.189435  0.067720526   -6.2122176  -0.17029091    7923.0854     8144.044    8584.2389    9007.8819    727.74835   -1004.4618    782.49132 
  177000    265.64859   -4855.0722   -4323.7422   -4855.0722            0    8183.1886    18.108146    22.767676    19.269444  -0.24914338   -6.7835297   0.29880822    7944.4143    6554.1381    9489.9963    8505.4313   -880.17616     1092.615   -1819.1947 
  177500    249.55137   -4851.9306    -4352.797   -4851.9306            0     6407.462    17.921835     23.09586    19.269553   0.16604775   -6.0943616   0.16238465     7976.057    5817.4266    7231.7108    6173.2487   -558.77223    646.74499    989.08793 
  178000    259.08218   -4858.1671   -4339.9707   -4858.1671            0    6375.0566    18.021637    22.578612    19.628967  -0.28874284   -6.5219999   0.02947627    7987.0961    7512.3555    6941.4937    4671.3205    1328.2316   -251.56446   -611.95309 
  178500    237.00037    -4876.022    -4401.992    -4876.022            0     8519.594    17.842012    23.136882    19.149154  -0.16421275   -6.6431115 -0.055324124    7904.9341    11842.148    6187.2328    7529.4013    243.24576    302.18376    462.32639 
  179000    250.76917   -4842.0685   -4340.4992   -4842.0685            0    5577.9979    18.227239    22.712283     19.46609    -0.167407    -6.375622   0.24549663    8058.6147    5941.9295    5718.7008    5073.3634    166.13594   -95.172362   -157.91076 
  179500    245.21204   -4858.5344     -4368.08   -4858.5344            0    6755.1904    18.017759    23.070817    19.194609  0.057893659   -6.5967539   0.15186378    7978.8999    5086.5125    5526.5743    9652.4845   -176.52155   -621.52719   -1581.0605 
  180000    254.73475   -4856.5101   -4347.0091   -4856.5101            0    5752.8664    18.037695    22.921911    19.423404  -0.34814711    -6.124666   0.16523424    8030.7703    5668.0586    5634.7824    5955.7582    1034.7475   -539.69144   -272.09507 
  180500    244.74779   -4851.4853   -4361.9595   -4851.4853            0    7285.1917    17.856474    22.966564     19.45592 -0.056322081   -6.5887597 -0.078135957    7978.9087    9985.1838    7195.5405    4674.8506   -1793.0004      1681.84   -984.37457 
  181000    252.84099    -4860.622   -4354.9088    -4860.622            0    9476.4957     17.96625    22.624291    19.357454  -0.25998587   -6.3104341   0.21796364    7868.2952    12127.626    9046.7724    7255.0882    1058.6249   -415.66166   -1146.2411 
  181500    249.22545   -4851.5312   -4353.0496   -4851.5312            0    8650.1317    17.915327    23.012924    19.164505  0.073318127   -6.6354669   0.19149185      7901.22    8015.9902    8256.3904    9678.0145    -936.8559    201.90173   -1024.6646 
  182000    259.98261   -4850.5522   -4330.5549   -4850.5522            0    9942.6101    18.086768     22.66227    19.329624  -0.12625954   -6.4810893   0.19348396    7922.9657    9373.3856    10033.185     10421.26     1709.816   -351.37707    704.02335 
  182500    251.22268   -4834.3482   -4331.8718   -4834.3482            0     5936.407    17.913877    23.127527    19.260541 -0.061974632   -6.4574472 -0.042966709    7979.7128    5783.8279    5505.2071    6520.1859   -1287.6841   -912.14524   -249.31375 
  183000    236.81793   -4854.8732   -4381.2081   -4854.8732            0    5845.0998     18.21858    22.425827    19.700687  -0.46952285   -6.7778016   0.28486134    8049.0449    5950.9826    5556.4157     6027.901    283.48563    671.09887   -2125.2432 
  183500    251.91334   -4850.6066   -4346.7488   -4850.6066            0    5675.3886    17.881997    23.236844    19.223193   0.19610188   -6.3465791  0.067320568    7987.6435    5197.8248     4918.365     6909.976    82.518101   -951.95641   -270.25768 
  184000    232.55439    -4846.081   -4380.9435    -4846.081            0    5833.3835    18.167037     22.72569    19.374823  -0.26434684   -6.4776545    0.2696017    7999.0595    5839.9167    6008.3358    5651.8979    144.44061   -248.62084   -161.58711 
  184500    256.52082   -4834.1694   -4321.0961   -4834.1694            0    5382.6406    17.940092    23.318651    19.228143   0.17152273   -6.6053338  -0.11270013    8043.8774    5104.6734    4983.9321    6059.3163   -506.98573    47.815808    269.94821 
  185000    260.94026   -4847.4515   -4325.5387   -4847.4515            0    7034.2648    17.925885     22.76903    19.573877   -0.2719052   -6.3953188   0.23717741    7989.1761    9145.5195    6462.9284    5494.3467    815.23846   -284.23047   -771.54581 
  185500    253.88727    -4859.364   -4351.5581    -4859.364            0    7570.9395    17.955503    22.987886    19.247819   0.18217921   -6.6729206   0.12937978    7944.7115    7800.5193    7785.0874    7127.2119   -1970.3372    655.16206    220.99729 
  186000    251.89822   -4830.1636    -4326.336   -4830.1636            0    7326.0767    18.172569    22.755036    19.175472   -0.3250447   -6.2207315  0.056973341    7929.3923    8367.4223    6144.6352    7466.1726   -573.95623   -1183.1558    -166.0992 
  186500     253.4398   -4859.5737   -4352.6627   -4859.5737            0    9414.7002    18.052045    22.834676     19.12064  -0.14156609   -6.7327958  0.043457508    7881.7686    7284.8063    9639.0636    11320.231   -591.24468   -354.30232   -574.16662 
  187000    248.28366   -4856.3533   -4359.7553   -4856.3533            0    7470.2446    17.874575    22.974916     19.37955   -0.2490638   -6.5129183   0.23594086    7958.5391    7205.0277    7210.8748    7994.8313    626.21681    699.02452   -1705.3035 
  187500    251.30549   -4859.6464   -4357.0044   -4859.6464            0    6767.6761    18.084816    22.576117    19.568828 -0.087952483   -6.5939991  0.094618899    7989.6571    5577.6673    8557.2531    6168.1078   -830.82121    639.39556    -570.5038 
  188000    265.78383   -4861.6554   -4330.0549   -4861.6554            0    8783.1006    17.837794     23.38145    19.024938  -0.12269383   -6.7659666   0.24619866    7934.7972     8963.773    7896.6664    9488.8625   -139.63606     327.6049   -1531.1283 
  188500    250.68222   -4843.6601   -4342.2647   -4843.6601            0    8345.2678    18.053433    22.673981     19.35197  -0.19537816   -6.1719179  0.036522249    7921.5972    8362.6439    9679.7013    6993.4581    90.151101   -758.68389   -483.83616 
  189000    242.85244   -4866.7364   -4381.0015   -4866.7364            0    7119.6135    17.790063    23.100356    19.353535  -0.22000135   -6.6550873 -0.018895405    7953.4669    8288.6637    6163.3865    6906.7903   -105.73987    295.71068     81.75989 
  189500    247.88204   -4866.6407    -4370.846   -4866.6407            0    6750.7638    18.101378    22.463694    19.569161 -0.072965827   -6.4993406   0.10293356    7957.2872    5963.5543    8144.5671      6144.17    654.22329   -383.21318   -797.18532 
  190000    255.03569   -4810.5924   -4300.4895   -4810.5924            0    7456.4273    17.939887    23.209506    19.153114  -0.17136993   -6.5234921   0.21504889    7974.8951    7518.1239    6958.5444    7892.6135   -1391.2088   -36.972268   -1090.1562 
  190500    254.68761   -4829.2187    -4319.812   -4829.2187            0    6784.0637    18.478096    22.392681    19.317415   -0.1514585   -6.5467209 -0.035950683    7993.0462    4519.8707    8081.8763    7750.4442    758.38903     -367.806    768.66053 
  191000    256.71044   -4851.9181   -4338.4655   -4851.9181            0    7571.5206    17.856247    23.265113    19.225358  0.027656795   -6.0909486  0.060128341     7986.744    8283.8023      6694.55    7736.2094   -778.08871   -56.291583    75.415011 
  191500    251.15969   -4876.9416   -4374.5912   -4876.9416            0    6578.9371    17.975507    22.698881    19.510542  -0.19302217   -6.7605175   0.10756091     7960.767    7369.1518    6680.6791    5686.9803    760.91824    820.19911   -378.06836 
  192000    251.19986   -4842.6918    -4340.261   -4842.6918            0    7965.0185    17.783127    22.971644    19.436544 -0.079623571   -6.1735237    0.2316821    7939.9772    7523.3217    8712.2496    7659.4843    1511.7568    1123.8309   -705.97493 
  192500    261.91266   -4818.0028   -4294.1452   -4818.0028            0    8541.6875    18.036463    22.845927    19.264757  -0.19209341   -6.4730028   0.12720257    7938.2303    10446.477    7847.0492    7331.5368    369.48259   -435.94673   -947.82779 
  193000     245.6386   -4834.7809   -4343.4733   -4834.7809            0    7873.5868    17.930061    23.088669    19.101785  -0.23291422   -6.5082843  0.051971318    7907.7807    7513.7978    6738.5529    9368.4097    1351.4487    433.87452    254.44679 
  193500    251.14842   -4823.1166   -4320.7887   -4823.1166            0    7551.9786    17.981519    22.645725    19.593931 -0.016439171   -5.8794974  0.086598317    7978.7379    8506.3233    8308.1578    5841.4548   -401.38827    695.00527   -821.89988 
  194000    246.91692   -4840.4004    -4346.536   -4840.4004            0    7582.5568    17.979959    23.043768    19.264268 -0.098817764   -6.7651278   0.20417144    7981.6872    7890.6122      7713.35    7143.7082    8.4034089    1473.5293   -204.81398 
  194500    251.69138   -4837.0801   -4333.6662   -4837.0801            0    7968.6845    17.963809    22.731326    19.537787   0.10784767   -6.0816985  0.088673262    7978.0836    9730.6576    7524.9431    6650.4529   -1326.9652   -1549.7382   -1190.2279 
  195000    250.41674   -4849.6254   -4348.7609   -4849.6254            0    7394.5851    17.894078    23.048047    19.305147  -0.45593256   -6.6335656   0.13195616    7961.8973    7647.0866    6979.3983    7557.2703    1306.5365   -701.79814    372.67959 
  195500    251.76349   -4827.3004   -4323.7424   -4827.3004            0    10157.153    18.060261    22.817774    19.262239  -0.15230447   -6.5865796 0.0074734215    7937.8715    8503.1145    10115.417    11852.929   -1370.9969    661.50184    484.46093 
  196000    250.91242   -4865.1376   -4363.2817   -4865.1376            0    6648.2943    18.041702    22.945012    19.259604  -0.14523154   -6.1820278   0.36632884    7972.8419    6173.3789    6572.0333    7199.4708   -844.61331   -943.50959   -1152.2251 
  196500    249.01212   -4838.3551   -4340.3001   -4838.3551            0    6546.7301    18.156779    22.846234    19.313349  0.098340321   -6.9045345   0.24644761     8011.448    7073.2923     6413.566    6153.3319   -1001.2828    1517.9946   -266.25036 
  197000    245.20437   -4841.4928   -4351.0538   -4841.4928            0    7203.3741    17.913851    22.929173    19.328193  -0.26255944   -6.3424097  0.017063168    7939.0514    7862.5035    6739.3129    7008.3059    288.06419   -127.79273    935.93753 
  197500    248.79211   -4840.9514   -4343.3364   -4840.9514            0    7976.2341    18.063207     22.73211    19.434442  0.042752898   -6.9319467   0.33675659    7980.0695    7845.2861    8789.9889    7293.4272   -817.60719    1636.4536   -275.06046 
  198000    247.35916   -4845.7177   -4350.9688   -4845.7177            0    7656.1756     17.95029     23.08854    19.232471  -0.10893051   -6.4645922   0.12400805    7970.8204    9321.9189    6704.8103    6941.7975   -1291.6278    532.42867   -354.39159 
  198500    250.23347   -4866.4798    -4365.982   -4866.4798            0    7389.2088    18.021609    22.899325    19.284147  -0.29170986   -6.3859521   0.10073263    7958.2334    7822.3914    7049.5033    7295.7317    382.19956   -452.48734   -254.11929 
  199000    262.66962   -4851.0321   -4325.6605   -4851.0321            0    7591.0334    18.157861    22.726429     19.32909  -0.06497548   -6.7575598 -0.093945584     7976.407    8465.3753    6923.0886    7384.6363   -826.71548    294.52921   -1755.8592 
  199500    266.09305   -4850.3414   -4318.1225   -4850.3414            0      7190.05     17.79731     23.11324    19.399085  -0.17189502   -6.2356002   0.28799915    7979.8815    7431.9716    7084.1054     7054.073   -720.60966    198.00287    -1943.622 
  200000    248.02794   -4854.4935    -4358.407   -4854.4935            0    7578.9342      17.9219    22.820725    19.457883  -0.12430491   -6.5138107   0.11575039    7958.0943    8034.9181     7098.526    7603.3585   -255.10439    144.46288    748.25206 
  200500    246.73117   -4866.9179   -4373.4251   -4866.9179            0    7547.5622    18.066603    22.965741    19.170048    -0.402975   -6.5013977 -0.043638463    7953.9006    7765.1893     6801.604    8075.8934   -993.31645   -1003.7363    722.59446 
  201000    244.99822    -4842.099   -4352.0723    -4842.099            0    5948.1803    18.145147    22.901401    19.274456  -0.11227339   -6.4517903  0.034953988    8009.4865    4791.7483     5516.819    7535.9737   -31.283961    -643.8498   -705.80676 
  201500    257.68129   -4851.6397   -4336.2452   -4851.6397            0    7145.4976    18.012578    22.962497    19.312444  0.086359167   -6.5606332   0.25403056    7987.8926    8847.8855    6212.6912    6375.9162   -977.61934   -714.03387    208.85583 
  202000    253.58439   -4847.1848   -4339.9847   -4847.1848            0    9803.5037     17.77918    22.821894    19.514477  -0.14021727    -6.106754   0.42174781    7918.0878    11438.826    10003.758    7967.9271    52.408291    243.87449   -2673.6109 
  202500     237.3143   -4852.0483   -4377.3904   -4852.0483            0     6048.037    18.037112    22.864965    19.402511  -0.10600928   -6.7165185  0.033777673    8001.9436     5791.818    6331.3897    6020.9034   -608.27296    933.43981   -855.66079 
  203000    244.14137    -4865.682   -4377.3691    -4865.682            0    6618.6758    17.933346    23.143143    19.249905  -0.36765033   -6.1832167    0.0964041    7989.3647    6540.6599    6683.6553    6631.7123   -540.07896     34.35711    435.40657 
  203500     263.1021     -4865.59   -4339.3533     -4865.59            0    6399.7895    18.149951    22.655819    19.389023  0.090372999   -6.4688008   0.16172509    7972.8049    6579.2834    6536.1932    6083.8921   -942.72436    252.96824    63.461668 
  204000    242.86338   -4862.8096   -4377.0528   -4862.8096            0    9335.5563    17.959615    22.885307    19.239988  -0.10529402   -6.8322631    0.2772004    7907.8528    9038.1134    10115.951    8852.6043    133.75383    1742.6642    859.22831 
  204500    248.03932    -4874.288   -4378.1787    -4874.288            0    8420.4503    17.940087    22.793704    19.416624  -0.12879508   -6.1847666 -0.078998118    7939.8659     6775.432    10416.266    8069.6533   -93.120039   -44.892501    697.30463 
  205000    245.83039   -4875.2042   -4383.5131   -4875.2042            0    7122.2234    17.933468    23.019968     19.31944   -0.4283286   -6.7178711  0.052516025    7975.6029    8851.4744    5572.2788    6942.9169    1692.8097    27.600339    1762.5932 
  205500    262.72854   -4834.3728   -4308.8832   -4834.3728            0    8499.8126    18.185604    22.623933    19.356684   0.17826169   -6.5472141  0.086356829    7963.9181      9930.44    8082.9882    7486.0095   -2016.3862   -553.88021   -1409.9353 
  206000     239.7922   -4847.1102   -4367.4962   -4847.1102            0    7749.6639    17.906167    23.033633    19.313513  -0.29589651   -6.3947907   0.36459236     7965.744    10813.638    5886.6145    6548.7387   -76.290362   -914.39275   -356.13049 
  206500    234.57463   -4827.2684   -4358.0902   -4827.2684            0    7438.5597    17.964037    22.802802    19.440806  0.017159973   -6.7175533 -0.059040506    7963.5445    7677.4852    6650.0036    7988.1903   -282.21362   -451.41668     1043.702 
  207000    250.47402   -4849.9367   -4348.9577   -4849.9367            0    7698.4982    17.768047    23.164208    19.287626  -0.39658167   -5.9656066   0.12437689    7938.4538    8590.6249    7116.4114    7388.4583     358.5655    -1364.242    1328.3429 
  207500     251.8775   -4876.7189   -4372.9327   -4876.7189            0    6166.4136    18.230218    22.707309    19.321653 0.0046175839   -6.7627942   0.15691355    7998.3757     3794.165    7363.2479    7341.8278    173.04916    762.64194    233.95747 
  208000    254.66013   -4842.8902   -4333.5384   -4842.8902            0    7428.0056    17.990518    23.032237    19.219747  -0.15755707    -6.378089   0.16527138      7963.93    8195.5679    6956.2193    7132.2297    1637.1432    60.910542    504.36096 
  208500     249.4936   -4876.9289   -4377.9109   -4876.9289            0    5979.3507     18.09116    22.766247    19.305092  -0.23843248   -6.5462434  0.017744693    7951.1461    5836.1834    6463.3944    5638.4743     1042.454   -222.33449    2035.4559 
  209000    257.92441   -4867.2592   -4351.3785   -4867.2592            0    7242.9792     18.01377    22.867633    19.293562 -0.0058598068   -6.5369649   0.25958532     7947.641    5100.2388    7659.8988       8968.8   -239.63973      154.548   -603.76391 
  209500    250.87791   -4840.5986   -4338.8118   -4840.5986            0    6507.8714    17.962068    22.976513    19.391482  -0.21237547   -6.4080172  0.019085064    8002.9751    7316.1358    6474.3844    5733.0939    264.13697    372.13643    2456.4022 
  210000    248.63247   -4841.2765   -4343.9808   -4841.2765            0    5885.6548    17.933398    22.951067    19.540464  -0.21939458   -6.6320461  0.080879056     8042.672    6384.9233    6132.6519    5139.3891    1433.7593   -319.94378    286.32056 
  210500    262.58827   -4847.8573   -4322.6483   -4847.8573            0    6547.9477    17.975484    23.036697    19.276555  -0.11504816    -6.396292   0.22668812    7982.3399    6120.9614    6348.9098     7173.972   -216.12506   -577.82907   -117.64492 
  211000    244.22339   -4826.8082   -4338.3313   -4826.8082            0    8194.5335    18.110842    22.621204    19.357372 -0.0061612723    -6.480116  0.011798453    7930.5037    8473.6093    8642.5078    7467.4833    153.88314    -780.5706    157.71049 
  211500    245.35459   -4842.7434   -4352.0039   -4842.7434            0    6853.6079    17.732963    23.125658    19.390131  -0.65325262   -6.8295263   0.15085356    7951.6297    9136.1127    6387.6396    5037.0714    405.48224    316.11967    157.86599 
  212000     253.8936   -4843.2685   -4335.4499   -4843.2685            0    8655.0452    17.919852    22.764009    19.420878  -0.01135706   -6.3309906 -0.051839191    7922.3134    10916.291    9050.9347    5997.9102   -999.32449    -319.2284    407.44733 
  212500    255.65191   -4830.2286   -4318.8932   -4830.2286            0    8872.8455    17.845948    22.950413    19.293818   -0.2367458   -6.5783898    0.1448978    7902.2053    8516.0197    10416.292     7686.225    81.753348    1646.3801   -91.233722 
  213000    244.81063   -4838.3738   -4348.7223   -4838.3738            0    8273.1419    18.060264     22.57982    19.483031 -0.075864605   -6.3508311   0.13021065    7945.1314    8062.1904    8356.3074    8400.9279    89.479832   -527.51537   -2298.8051 
  213500    252.10665   -4843.5662   -4339.3217   -4843.5662            0    7664.0092    17.974703    23.174844      19.1132  -0.17290161   -6.4590442   0.14724899    7961.8125    6947.0213    6650.7123    9394.2939   -673.79792    150.42305   -75.794526 
  214000    244.91425   -4853.1159   -4363.2572   -4853.1159            0     6895.116    18.174318    22.727981    19.352979  -0.21521144   -6.5845494   0.11272147    7994.0488    7601.6468    6339.9776    6743.7235    1295.8687   -1004.1707   -198.61886 
  214500    241.23486   -4865.1285    -4382.629   -4865.1285            0    7335.1159    17.845401    23.228639    19.181846  0.033989515   -6.4257669    -0.142798     7951.343     6354.728    6985.2048     8665.415   -260.02657    -60.45531    542.08722 
  215000    232.39136   -4867.9931   -4403.1816   -4867.9931            0     7634.348    18.166833    22.479711     19.54204  -0.26723556   -6.5807568   0.25553363    7980.6789    7616.3788    8402.4908    6884.1743   -453.53052    1286.3604   -61.928039 
  215500    242.42674   -4822.6807   -4337.7973   -4822.6807            0    7498.9032    17.855654    23.211699     19.24492  0.064136573   -6.4225589  0.050292357    7976.2508    6696.2112    7321.2552    8479.2432   -382.80665    1382.2506      271.559 
  216000     254.3841    -4858.417   -4349.6174    -4858.417            0    6918.9855    18.154293    22.523819    19.473465  -0.36756753   -6.5490274   0.29933484    7962.7777    6630.2269    7977.8672    6148.8623    1255.5243   -113.76391    272.57817 
  216500    236.19419   -4834.1099   -4361.6924   -4834.1099            0    7259.7878    17.963989    23.155905    19.184886 -0.029559123   -6.4255176  -0.11773833    7980.3835    6502.0282    7239.8107    8037.5244   -653.30936     279.1574     1671.317 
  217000    240.29325    -4871.665   -4391.0488    -4871.665            0    6192.6076     18.05469    22.764046    19.470974  -0.26165124   -6.5474143   0.20974759    8002.5271    7206.6158    5200.4757    6170.7314   -361.50296   -243.81655   -281.06481 
  217500    255.61196   -4827.9688   -4316.7133   -4827.9688            0    8687.6551    17.871642    23.027555    19.319136   0.11320602   -6.3287992 -0.029573174    7950.6011     10427.22    7449.0187    8186.7263    559.87734    73.564711    960.38326 
  218000    256.00215   -4837.3537   -4325.3177   -4837.3537            0    8168.7387    18.047687    22.810074    19.312602  -0.35062322   -6.4247637   0.33812665    7950.4009    9027.3651    7524.6004    7954.2507    50.131143   -491.67396   -608.99968 
  218500    256.96209   -4853.8142   -4339.8582   -4853.8142            0    8068.4581    17.927471    22.821657    19.425897   0.14472022   -6.5455933 -0.031451568    7947.8069    9609.1038    8279.5066    6316.7638   -727.93392    635.04265     -250.346 
  219000    248.94976   -4849.2234   -4351.2931   -4849.2234            0    7543.7271    17.898261    22.990226    19.332205  -0.67505577   -6.4066346   0.32840629    7954.9136    6603.4457      7792.94    8234.7956    947.78635   -298.22915   -687.21625 
  219500    249.43814   -4839.6103   -4340.7032   -4839.6103            0    7120.0864    18.055289    22.820154      19.3579 -0.027464069   -6.5478603  -0.15529278    7975.9285    7036.3533    6469.0496    7854.8562   -397.58726    192.71734   -922.16932 
  220000    234.64796   -4847.8067   -4378.4818   -4847.8067            0     9166.421    17.845036    23.072178    19.210517  -0.31723148   -6.3564682   0.49968039    7909.4281     10172.68    8385.8889    8940.6943   -498.44294   -748.13859   -2397.4462 
  220500     231.7644   -4851.0035    -4387.446   -4851.0035            0    8989.2835    18.129423    22.503041     19.36299   0.25585025   -6.7617285  -0.13516303     7899.464    8905.4002    10903.421    7159.0295    23.275232    1255.1114    1097.7552 
  221000    238.78409   -4834.6103   -4357.0126   -4834.6103            0    7756.5021    17.909779    23.048314    19.309674  -0.24446653   -6.3425619   0.13414845    7970.8446    8248.3692     7354.513    7666.6241    833.61072   -480.27834   -2832.0275 
  221500    231.02762   -4877.2321   -4415.1483   -4877.2321            0    7719.4797    17.938902     22.75042    19.502651 -0.078802406   -6.7126635 -0.053296932    7959.3744    10299.204    7040.5574    5818.6781    629.14132    701.54675    2337.8863 
  222000    237.14889   -4862.8584   -4388.5313   -4862.8584            0    7347.6519    17.856322    22.970767    19.358404   -0.2306686   -6.2342917    0.2574855    7940.3026    7045.3714    7760.9155    7236.6689   -802.00264    364.36683    141.78857 
  222500    252.87964    -4833.145   -4327.3545    -4833.145            0    6345.2154    18.057142    22.941967     19.31892  0.060296812   -6.5387525  0.032992852    8003.1788    6967.0511    5997.5989    6070.9962    50.964618   -585.67823     -608.171 
  223000    234.36693    -4862.035   -4393.2722    -4862.035            0    5182.7282    18.126224    22.939597    19.294073  -0.31574247   -6.4036289   0.32419265    8022.6354    5410.5945    4859.4735    5278.1165    575.08972   -367.31723   -981.64976 
  223500    252.20477   -4841.9411   -4337.5004   -4841.9411            0    6225.5115    17.964089    22.962513    19.352052 -0.085986246   -6.5674434  -0.14903738    7982.7333    6260.7963    5843.2949    6572.4433   -1661.5686   -325.53019   -1042.8783 
  224000    260.65077   -4863.8427    -4342.509   -4863.8427            0    7377.4009    17.910866    22.598868    19.589903   -0.3847504   -6.4302955   0.34467018    7929.3127    7432.1172    8345.0741    6355.0116    1673.3626    268.66105    1124.8724 
  224500    236.40433   -4846.6338    -4373.796   -4846.6338            0    7272.9335    17.959182    23.000476    19.298083   0.19506332   -6.3458089  0.038955722    7971.4539    7743.4044    7133.0932     6942.303   -489.77197   -140.88497    333.29941 
  225000    241.90889   -4855.2756   -4371.4279   -4855.2756            0    8288.7268    18.088073    22.815705    19.231627  -0.40140901   -6.6374449    0.2800447    7936.7413    8557.2637    8402.1076    7906.8092   -517.59033    585.58528   -1763.0821 
  225500     266.2062   -4834.7194   -4302.2741   -4834.7194            0    8432.7957    18.009665    22.900703    19.268787   0.15801557   -6.2444738  -0.19874332    7947.1028    8624.1391    9527.8252    7146.4228   -1093.9455    972.69536    1683.7553 
  226000    256.79968   -4863.9793   -4350.3483   -4863.9793            0    9923.6368    18.002332    22.848581    19.277207  -0.47012337   -6.7496577    0.3170544      7929.25    10577.058    9636.3559    9557.4963    299.49303     185.5632   -144.59977 
  226500    249.76278   -4827.5593   -4328.0029   -4827.5593            0    10458.796    17.939416    22.728291    19.303171   0.26300061    -6.480367  -0.08677045    7870.5257     9512.591    9996.6374     11867.16    -1943.991   -505.95882    -433.6833 
  227000    270.09038   -4827.4295   -4287.2153   -4827.4295            0    7647.6178     17.95954    22.935932    19.289936  -0.57171249   -6.2502802   0.18794754     7945.887    8016.7315    7359.6054    7566.5165    1156.3301   -647.23407    984.06754 
  227500    261.94868   -4852.6087   -4328.6789   -4852.6087            0    7950.0483    17.970453     22.78896    19.375362  0.060592874    -6.814034  -0.19163901    7934.7519    6566.0642    8448.1698     8835.911   -336.78689    1250.0169    -1014.469 
  228000    248.65069   -4813.3915   -4316.0594   -4813.3915            0    7760.2057    17.863791    23.054111    19.273379  -0.42201563   -6.0121388   0.30398071    7937.4293      10108.6    6458.1113    6713.9053    909.52792   -1624.7681   -2208.7263 
  228500    253.37258   -4844.3761   -4337.5996   -4844.3761            0    7621.0055     18.09365    22.773216    19.340521   0.30137616   -6.5444549     0.012395    7969.2733    6490.5499    8542.3911    7830.0755   -2688.9162   -463.61088     125.5291 
  229000    257.01208   -4845.5675   -4331.5116   -4845.5675            0    6297.8435    17.937986    23.071092    19.343384  -0.27959703    -6.340367   0.32608572    8005.2383    6551.7539     6246.751    6095.0257    1107.1157    680.06727    -1306.247 
  229500    239.92863   -4845.1973   -4365.3104   -4845.1973            0    7308.4044    18.116938    22.731483    19.419916 -0.033805395   -6.5923617  -0.28023502    7997.6044    8947.4318    6873.1577    6104.6236    9.4733093    -720.2313    1387.1311 
  230000    253.75919   -4819.6724   -4312.1226   -4819.6724            0    7602.1054    17.907167    23.045674    19.308546  -0.18474027   -6.4299869   0.25824905    7968.3036    7703.1013    7137.1835    7966.0316   -85.697297    297.13173   -570.29425 
  230500    242.36713   -4818.1713   -4333.4071   -4818.1713            0     8449.599    18.089059    22.788354    19.328896  0.045400985    -6.512409   0.17721735     7967.755    8712.6815    7923.0866    8713.0288   -1437.6091    251.01706    298.79478 
  231000     258.6697    -4840.097   -4322.7257    -4840.097            0     10208.98    17.928555    22.920036    19.208446   -0.3476088   -6.5384914   0.18328374    7893.1947    9194.9735    10029.314    11402.653    563.00415   -587.23284   -638.72879 
  231500    249.21219   -4843.6048   -4345.1496   -4843.6048            0    9815.9274    17.928184    22.874532    19.288281  -0.15165403   -6.3764093 -0.049498346    7910.1012    10096.153    9498.7922    9852.8369   -160.50152    -134.1923    1462.7142 
  232000    246.17851   -4836.5981   -4344.2106   -4836.5981            0    8670.7622    18.060238    22.751273    19.277256 -0.012890627   -6.5677842   0.17987217    7920.8973    8083.6224    9130.1149    8798.5492   -405.88222    593.72866    -1613.915 
  232500    249.04168   -4844.5567   -4346.4425   -4844.5567            0    8250.9971    17.938317    23.004398    19.173129  -0.20785606   -6.5046647   0.30195414    7911.9867     8621.829    7128.6665    9002.4958    167.18836   -1128.2741    251.72883 
  233000    245.65508   -4847.7631   -4356.4226   -4847.7631            0    7849.7265    17.972333    22.732288    19.431837  -0.09680729   -6.4190353 0.0075955781    7938.9207    7245.2309     8870.225    7433.7238   -295.18066    130.24586    759.45192 
  233500     260.4436   -4864.5348   -4343.6154   -4864.5348            0     7674.828    17.996122    22.991301    19.253583 -0.084754371   -6.5758714   0.12573677    7966.2521    8593.5727    6432.1366    7998.7749   -1388.7519    751.88059   -2616.1113 
  234000    256.83557   -4841.1451   -4327.4422   -4841.1451            0     6784.385    18.063283    22.672516    19.537769 -0.045211476   -6.3437578   0.48815862     8001.499    7616.7832    6948.0825    5788.2891   -1720.9648   -399.38559   -2906.9291 
  234500    251.42312   -4842.0621   -4339.1848   -4842.0621            0    7006.0354    17.853641    23.088909    19.357368 -0.065897223   -6.5197738 -0.038064221    7979.5155    8005.3535    6353.5019    6659.2508    135.14379    730.98669   -194.77573 
  235000    240.48735   -4859.2338   -4378.2294   -4859.2338            0    8341.8185    18.041589    22.547535    19.523156  -0.56370824   -6.5824368 0.0090084398    7941.8901     7068.408    10459.613     7497.434   -727.54047    320.01726   -757.92981 
  235500    243.92862   -4863.4716   -4375.5842   -4863.4716            0    9282.4722     17.94046    22.895552    19.186121 -0.022957556   -6.3728952   0.16954449    7880.8285     8631.896    10329.928    8885.5926   -797.75113   -449.02241    429.47926 
  236000    248.67292   -4858.9676   -4361.5911   -4858.9676            0    8758.8173    17.959416    22.914113    19.180999  -0.10830984   -6.5874183   0.20350244    7893.4435     8519.659     8884.826     8871.967    1016.7622    182.13744   -731.93081 
  236500    245.69651   -4867.0536   -4375.6303   -4867.0536            0    9375.6726    17.988527    22.741943    19.269166  -0.44504972   -6.5396103 -0.039570686    7882.9011    7877.2109    8983.6658    11266.141    960.41077   -64.751033    1012.9749 
  237000    253.00974    -4866.487   -4360.4362    -4866.487            0      7327.78    17.842042    23.100756    19.318214    -0.180127   -6.4399117 -0.033194858    7962.2855    9507.7221    6547.5801    5928.0377    370.77155    135.33847    592.73689 
  237500    236.68551   -4855.3886   -4381.9883   -4855.3886            0    7095.1122    18.068771    22.758312    19.433553 -0.098456053   -6.3854041   0.28987474    7991.3633     7181.191    7576.6185    6527.5272    -1380.069    287.33521   -369.27432 
  238000    249.00453   -4828.8402   -4330.8004   -4828.8402            0    6455.3832    18.075111     23.01059    19.199355  0.092031181   -6.6226511   0.28633909    7985.3756    5770.0512     6050.062    7546.0365   -325.72194   -657.45533   -2367.5792 
  238500    251.76353   -4863.5036   -4359.9454   -4863.5036            0    7152.0539    18.141507    22.735528    19.368319  -0.20864701   -6.5164386  0.054694205    7988.5939    7073.2896    7155.8073    7227.0647   -152.62407   -890.62173    557.84892 
  239000    256.52353   -4861.1727    -4348.094   -4861.1727            0    6192.1467    17.778539    23.240773    19.293558  -0.38361893   -6.2664347  -0.32760368    7971.8475    6284.2492     5339.426    6952.7648    2008.2484   -606.87919    2050.0568 
  239500    251.01605   -4825.2202    -4323.157   -4825.2202            0    7149.6018    17.995953    22.821635    19.423338 -0.092686555    -6.531772   0.18853277    7977.1079    6635.1503    8038.0529    6775.6022    1875.7434    1295.9294    132.88174 
  240000     250.5881     -4836.35   -4335.1428     -4836.35            0    5581.0372    17.992514    23.310536    19.128896  0.016571707   -6.5591101   0.12261653    8022.9486    4263.6919    5193.1209    7286.2988   -718.90359     666.8581   -766.43182 
  240500    250.35714   -4849.7517   -4349.0064   -4849.7517            0    6065.8001    18.176025    22.735182    19.372578   -0.4577312   -6.3626859  0.025673602    8005.4318    6147.5473    6649.2896    5400.5634    1274.8105    452.35862    230.52924 
  241000    236.08141   -4845.7599   -4373.5679   -4845.7599            0    7174.2494     17.88521    23.111933    19.314741  -0.08764117   -6.4772841 -0.021219553    7983.9758    7315.7448    6936.0279    7270.9757    1121.4567    646.54573    700.96211 
  241500    250.27989   -4823.2543   -4322.6636   -4823.2543            0    8447.1621    17.912404    22.698747    19.514767  -0.12976794   -6.5216283    0.4031932    7934.4917    9057.2563    8520.1958    7764.0341   -664.44688    762.85414   -1708.0978 
  242000    247.17923   -4847.4547   -4353.0657   -4847.4547            0    7055.1814     17.76379    23.086187    19.392923  0.081146716   -6.3451485 -0.089832856    7953.0022     9139.827    5920.9031     6104.814   -827.43028    119.77591    488.29239 
  242500    255.03263   -4827.3638   -4317.2671   -4827.3638            0    8493.3681    18.085816    22.804757    19.255686  -0.28229666   -6.5437264  0.033125311    7941.8661    8848.2188    7608.8772    9023.0084    442.02871   -507.53882    1435.9669 
  243000    263.47165   -4849.1452   -4322.1694   -4849.1452            0    9344.1695    17.942169     23.13372    19.090188  -0.13059419   -6.4913447  0.082685055    7923.7471    8565.8184    8961.6668    10505.023   -247.51901     61.67452    728.54967 
  243500    258.90054   -4861.2178   -4343.3847   -4861.2178            0    7028.0264    18.036717    22.632773    19.549373  0.091030407   -6.2530396   0.20180622     7980.463     6885.584    6796.8578    7401.6374   -1050.4919   -592.50531   -901.95434 
  244000    250.84543   -4834.1941   -4332.4722   -4834.1941            0    8689.7652    17.769982    23.037288    19.403504  -0.21098618   -6.6240654    0.1501171    7943.2549    10892.715    7248.5285    7928.0526   -666.67653   -387.32856   -714.24104 
  244500     252.1796   -4828.4656   -4324.0753   -4828.4656            0     6578.904    18.118263    22.843273    19.283415  -0.16892206   -6.2618626   0.13070496    7981.0282    6023.5113    7007.9497    6705.2508    953.17732   -825.98339    898.55659 
  245000    244.22975   -4805.8962   -4317.4066   -4805.8962            0    7449.1794    18.143558    23.098596    19.049302 -0.077699408   -6.7092171 -0.024240354    7983.3854    6764.5467    6880.9279    8702.0637   -88.929772    720.13989    1482.8369 
  245500    245.84282   -4843.0197   -4351.3037   -4843.0197            0    7601.3322    18.073679    22.831856    19.270556  -0.24431076   -6.3356597   0.12331464    7952.1037    7532.2233    7729.1469    7542.6265   -58.565498   -198.80786    -99.97242 
  246000    238.07704   -4834.9737   -4358.7902   -4834.9737            0    5634.7736    18.046568    22.913847    19.385069  -0.31802896   -6.6196988  0.054455415    8016.0423    7424.3275    5105.3098    4374.6835   -289.59352    455.10546    727.87772 
  246500    246.50724   -4845.7686   -4352.7236   -4845.7686            0    7057.3213    17.729464    22.932277    19.634411 -0.068871136   -6.5529438  0.070775813    7982.8994    9466.1772    7192.4354    4513.3513   -617.21342   -456.59633    313.81634 
  247000    258.91639   -4871.7262   -4353.8615   -4871.7262            0    7601.7035    18.091898    22.748349    19.324361  -0.17276653   -6.2609921   0.09047115    7953.1498    6945.3761    8283.0097    7576.7248    900.15357    4.2866191    234.58564 
  247500    248.77722   -4831.3014   -4333.7162   -4831.3014            0    7389.9701    18.079468    23.105609    19.039227 -0.094034279   -6.9527109   0.27071107    7953.3922    6367.5176    7378.8974    8423.4953    133.18561    472.22408   -80.352683 
  248000     252.9885   -4831.0183     -4325.01   -4831.0183            0    7852.9505    18.048633    22.717718    19.413317 -0.0032503043   -6.2979662   0.11468751    7959.9211     10009.58    6992.9727    6556.2993    7.0788399   -1453.4102     169.7806 
  248500    243.76031   -4870.0166   -4382.4658   -4870.0166            0    8255.1879    17.841355    22.857735    19.344516  -0.21123935    -6.469086 -0.066791691    7888.9441    8299.1077    7681.2449    8785.2112   -246.78398   -106.75254    575.98488 
  249000    245.82001   -4854.2738   -4362.6034   -4854.2738            0    7935.6441    18.013501    22.877851    19.294516  -0.15136328   -6.4725927   0.24494723    7951.4667    8999.5342    6787.6359    8019.7623   -1100.7064     615.5823   -2080.0403 
  249500    254.69864   -4850.4378   -4341.0091   -4850.4378            0    8377.0687     18.06512    22.819545    19.155334    0.1198469   -6.4098046   0.16137741    7896.5531    7173.9203    8117.0236    9840.2621    -2271.401   -574.00055   -1357.2966 
  250000     245.2791   -4802.3107   -4311.7222   -4802.3107            0    7815.6118    18.102534    22.839495    19.304024  -0.37013157   -6.5322239  0.088398405    7981.3015    6614.9539    8115.0933    8716.7883    1552.1893    738.78679    526.06494 
  250500    261.13103   -4861.9587   -4339.6644   -4861.9587            0    7513.2898    17.877147    22.968034    19.343845  -0.10444144   -6.6152777  -0.20525048    7942.6395    8416.6476    7493.6833    6629.5383    -242.2203     775.3139    2253.8539 
  251000    256.81462   -4828.5301   -4314.8691   -4828.5301            0    7942.0082    17.868156    22.859862    19.424357  -0.20496395   -6.2939232   0.42245651    7934.1423    7888.0306       8536.9    7401.0941   -690.44008    122.65528    314.73153 
  251500    245.41087    -4839.159    -4348.307    -4839.159            0    8919.7807    17.941538    22.956946    19.263356  0.071134442   -6.4570017  0.091658716    7934.2469     10023.18    8404.3673    8331.7948   -114.03318    45.099936    291.73612 
  252000    250.55295   -4876.3261   -4375.1893   -4876.3261            0    6743.6511    18.234625    22.617287    19.319301  -0.47045468   -6.5432946  0.050919948    7967.6226    5688.6663    7389.9467    7152.3402    1.8986625   -48.553836   -1213.5617 
  252500     245.1711   -4826.6303   -4336.2578   -4826.6303            0    7644.8076    17.849531    23.119146    19.248607  0.035261149   -6.5115378 -0.093916519    7943.2437      6507.08    7476.1429       8951.2   -614.21489    1073.1975    891.02079 
  253000    258.95128   -4862.8561   -4344.9216   -4862.8561            0    8123.3429    18.013922    22.613582    19.493227  -0.15310139   -6.4529998   0.32799685    7940.7475    9281.9761    8418.3186     6669.734   -1431.4495   -382.41536   -1123.1815 
  253500    244.56968   -4822.8186    -4333.649   -4822.8186            0    7753.1858    17.819063    23.140143    19.258319 -0.080361251   -6.3937856  0.036060582    7940.8918    7345.5189    7660.7896    8253.2488    122.21393   -13.514886    903.14132 
  254000    249.34464   -4811.8405   -4313.1204   -4811.8405            0    7257.5559    18.102166    22.733116    19.411286  -0.41645618   -6.5316247  -0.02089924    7988.1063    7573.4897    7283.6852    6915.4928    1544.5442   -48.284465    2955.1812 
  254500    247.05021   -4831.9963   -4337.8654   -4831.9963            0    6350.6273    18.081531    23.124336    19.271755 -0.052522564   -6.4554077   0.03674899    8057.9716    6105.8097    5811.7468    7134.3255    191.25016   -339.06022    312.66225 
  255000    234.67241   -4851.6552   -4382.2814   -4851.6552            0    7513.7832    18.150105    22.760861    19.323812  -0.11022292   -6.7329691   0.32519675    7982.8988     7279.315    7128.4606    8133.5739   -1119.6705   -272.35831    -702.5922 
  255500    239.15606   -4865.9538   -4387.6121   -4865.9538            0    7308.2257    17.836536    22.991267    19.400819    0.0477705   -6.1560329  0.086649753    7955.9766    9062.0476    6432.1562    6430.4732   -103.53337   -457.11973   -717.55551 
  256000    255.63148   -4828.1875    -4316.893   -4828.1875            0    8760.4229    18.006939    22.710536     19.42486  -0.20843175   -6.7634632  0.097240871     7943.743    9038.4217    9523.9714    7718.8757    206.67675    1293.1036    862.67076 
  256500    262.74662   -4843.6067    -4318.081   -4843.6067            0    6294.7407    17.942391    23.236236    19.158384 -0.097746582    -6.267634   0.16483632    7987.3915    5677.9751    6106.2285    7100.0187    484.78311   -355.78442   -965.85661 
  257000    262.26872   -4843.7385   -4319.1686   -4843.7385            0    9283.2079    18.192236    22.616478    19.348432  -0.11086411   -6.4294795 0.0073713873    7960.8023    8800.4051    9615.8209    9433.3977   -306.52844    375.90602   -664.83785 
  257500     231.9562   -4806.5244   -4342.5833   -4806.5244            0    6121.4881      17.9213    23.221835     19.21649  -0.31625262   -6.8789601  0.058456767    7997.2394     5461.059    6066.5284    6836.8768    1175.0561    634.86976    928.57173 
  258000    252.54936   -4834.9875   -4329.8575   -4834.9875            0    8585.3382    18.004208    22.648947    19.474576   0.10532438   -6.2138825   0.11892304    7941.2719    8508.7604    9994.1337    7253.1207   -549.16509   -166.29999   -1534.8774 
  258500    259.89914   -4851.0001   -4331.1697   -4851.0001            0    7293.9158    17.908323    23.182726    19.209709   -0.3011659    -6.772271   0.18808481    7975.1748    9528.6951    6520.0201    5833.0322   -1856.2343   -17.960735   -995.35394 
  259000    239.26061   -4873.4748    -4394.924   -4873.4748            0    5997.4711    18.305533    22.338617    19.531939 -0.015469081   -6.4345967  0.023718235     7987.006      4286.32    8001.7685    5704.3249   -530.63939   -105.46283   -1594.0709 
  259500    244.92721   -4859.7668   -4369.8821   -4859.7668            0    6636.3239    17.895091    23.192353    19.244976  -0.11775592   -6.4443135   0.26328946    7987.2283    5213.7701    6579.5539    8115.6478   -56.253666    -679.5203   -2468.3903 
  260000    240.12096   -4859.8766    -4379.605   -4859.8766            0    8996.5634    18.048171    22.483984    19.504247 -0.015187767   -6.5978122 -0.011579524    7914.7214    9528.4797    9483.0678    7978.1427   -905.56736   -278.71966   -916.14202 
  260500    256.51642   -4837.9247   -4324.8601   -4837.9247            0    6477.9184    17.789934    23.124412    19.378911  -0.35353582   -6.2924261   0.13603666    7972.1306    7291.3422    6826.3929    5316.0199   -60.308004    877.76034   -561.33157 
  261000    246.83223   -4866.2139   -4372.5189   -4866.2139            0    7293.1454    18.143576     22.47475     19.54265   0.11203808   -6.7802723   0.10733003    7968.9522    7357.4905    9181.7376    5340.2081   -2119.0577    429.74256   -862.37666 
  261500     256.2525   -4880.2118   -4367.6751   -4880.2118            0    8408.0472    17.845709    23.120052    19.169712  -0.22231308   -6.4389273   0.27785451    7909.3028    10326.469    6645.8297    8251.8425   -1021.9599     -555.186   -1919.7363 
  262000    244.37244   -4862.2585   -4373.4834   -4862.2585            0    7424.1132    18.105856    22.648259    19.392694   0.03261783   -6.2182186 -0.026295367    7952.2868    6681.1127    8508.6314    7082.5954   -68.698096    -962.4623    251.55962 
  262500    264.23769   -4864.0214   -4335.5134   -4864.0214            0    8106.5896    17.853278    23.207209    19.189582  -0.39314419   -6.7293867   0.11237367    7950.7191     7133.247     8002.222    9184.2999    663.86065    19.231571    1180.1475 
  263000    256.91067      -4846.5   -4332.6469      -4846.5            0    6146.2867    18.235806     22.51144    19.408467 -0.046423681   -6.3573446 -0.023215882    7967.4524    5050.0227    6643.3054    6745.5321    1330.3415   -309.26875    2272.9956 
  263500    262.87574   -4822.2339     -4296.45   -4822.2339            0    7056.0527     17.81135    23.214312    19.316048  -0.11499874   -6.2950388   0.25405581    7986.7656    8773.8063    7003.8518    5390.4998     959.5003    445.51106   -493.09733 
  264000    254.42118   -4861.0073   -4352.1335   -4861.0073            0    8820.9859    18.043487    22.557765    19.470701  -0.10529276   -6.6877702   0.16760683     7924.979    7820.2765    9115.5715    9527.1096   -21.841084   -292.98743    426.79999 
  264500     240.3731   -4864.1584   -4383.3825   -4864.1584            0    7400.9243    17.776852    23.303933    19.108725  -0.19700745   -6.3090177 -0.066323378    7916.1826    9195.7027     5766.096    7240.9741    48.749527   -481.06661    708.58531 
  265000    244.98155   -4837.9841   -4347.9908   -4837.9841            0    8551.5686    18.096394    22.851595    19.228761  -0.20209598   -6.4447674   0.13796896    7951.6981    7676.7993    7524.7537    10453.153   -763.60688   -546.08323   -1934.9789 
  265500    241.77208   -4860.9615   -4377.3875   -4860.9615            0     7446.714    17.965835    22.851176    19.467447  0.053624584   -6.7816886   0.20497335    7992.1747    7875.1714    8254.3029    6210.6677   -589.64842    602.75684    -1140.247 
  266000    249.70595   -4882.4092   -4382.9665   -4882.4092            0    7906.8764    17.863051    22.853762    19.424763  -0.23016543   -6.2982012   0.16328561    7929.9249    7856.9415     7919.506    7944.1818    904.03124    830.43302   -1238.2332 
  266500     263.3008   -4841.4826   -4314.8485   -4841.4826            0    6758.5356    18.149884    22.824218    19.272014  -0.17307261   -6.7238658  0.068965105     7983.565    6880.2822    6629.3194    6766.0052   -1014.6207   -25.293791    917.66868 
  267000    243.42118   -4864.5664    -4377.694   -4864.5664            0    6868.0704    18.000416    23.094646    19.153323  -0.15784659   -6.5270201  0.090142587    7962.2899    7724.7461    5326.2863    7553.1789    683.70605    226.60219    228.55668 
  267500    246.08163   -4843.3887   -4351.1951   -4843.3887            0    7749.4028    17.966596    22.672975    19.500085  -0.15775862   -6.1659973  0.057519922    7943.4801    9733.0106    7326.8101    6188.3878    1186.6951   -345.07434    1145.3372 
  268000    253.32228   -4858.6372   -4351.9614   -4858.6372            0    5485.6988    17.854016     23.02277    19.439222 -0.065470273   -6.9066689  0.096063694    7990.4709    7584.6633    5601.7495    3270.6836   -57.955839   -245.41301    1740.3875 
  268500    241.50199   -4849.3511   -4366.3173   -4849.3511            0    7697.4397    18.010903    22.720252    19.452637  -0.13523497   -6.2358207  0.078524879    7960.2574    8150.2575    7816.6166     7125.445    267.70356   -210.66477    401.89663 
  269000    244.53132   -4839.3788   -4350.2859   -4839.3788            0    7832.8153    18.014571    23.155302    19.039371 -0.082305279   -6.5357484   0.24156886    7941.9469    6664.8618    6714.0698    10119.514   -1211.8499   -31.015743   -1174.6658 
  269500    259.53209   -4834.4052    -4315.309   -4834.4052            0    7039.8766    18.124709     22.80115    19.281629 -0.071347534    -6.529126  0.060089342    7968.4072    9112.7471    5528.7644    6478.1183    636.15665   -1052.4227    207.20027 
  270000    245.90193   -4818.2294   -4326.3952   -4818.2294            0    5635.8228    17.950895    23.163274    19.250608  -0.20011885   -6.3147682  0.012076225    8004.4316     5110.167    5804.9677    5992.3336    491.10853    96.641155    986.44435 
  270500     246.0331   -4826.3503   -4334.2537   -4826.3503            0    7055.2345     18.13957    22.561292    19.619928  -0.14728651   -6.7023353 -0.026517973    8029.4976    7443.4191    7818.6353    5903.6491    1593.0451    785.83753     1391.988 
  271000    243.54076   -4846.0768   -4358.9652   -4846.0768            0    6844.3053    17.940498    23.091308    19.300081 -0.030100832   -6.4456123   0.23745313    7995.4362    4712.3503     8007.944    7812.6216    154.97342    124.80316    160.89281 
  271500    253.36682   -4852.7714   -4346.0065   -4852.7714            0    8200.1234    18.214764    22.619055    19.376483  -0.19046844   -6.4914635   0.04882244    7983.1257    7017.2047     9521.042    8062.1235    1711.7686     305.1931     1018.998 
  272000    256.94953   -4831.8098    -4317.879   -4831.8098            0    7321.3375    17.889491    23.177903    19.188687  -0.25695859   -6.6125433  0.091692262    7956.4141    7012.0681    6685.7626    8266.1817   -107.47935    268.50272    1910.7998 
  272500    242.21632   -4803.1812   -4318.7187   -4803.1812            0    8072.3559      17.8766    22.859361    19.437678  -0.15294846   -6.3132993   0.20735799    7943.1613    8934.5912    8701.3038    6581.1726    219.99458   -616.16665    -478.4536 
  273000    256.69826   -4863.2752    -4349.847   -4863.2752            0    7502.4941    17.928066    22.753503    19.484151  0.065026377    -6.419274 -0.059505743    7948.0979    8583.7109    7308.9218    6614.8495    486.11739    -552.5398    436.34883 
  273500    243.49902   -4857.6975   -4370.6694   -4857.6975            0    8096.6424    18.025183    23.016034    19.135219  -0.30785494   -6.6392153   0.26558479    7938.5944    7652.3453    7719.3241    8918.2578   -894.19482   -167.90138   -2737.3719 
  274000    260.25805   -4851.4977   -4330.9494   -4851.4977            0    6429.8288    18.217825    22.730994    19.274964   0.18030589   -6.4203092 0.0077186517    7981.9416    6208.1268    6442.1321    6639.2276   -1847.1505   -218.49771   -1328.7999 
  274500    256.49283    -4842.874   -4329.8567    -4842.874            0    9561.1683     17.86707    22.987735    19.254392  -0.20926002   -6.5236496   0.23507105    7908.2307    9307.8407     9509.036    9866.6282    -425.8503    827.84081   -558.45127 
  275000    242.78246   -4828.3892   -4342.7943   -4828.3892            0    8283.1272    17.883782    22.799959    19.439038  -0.12326177   -6.3578422 -0.0031234322    7926.2583    8273.9278    8607.9265    7967.5273    42.056187    776.40621   -670.99876 
  275500     240.6735   -4862.1082   -4380.7315   -4862.1082            0    8670.3556    17.847069    22.861508    19.366135  -0.36229622   -6.6159498   0.23366676    7901.5945    8771.2068    10014.652    7225.2085    919.43187     129.1882    179.70619 
  276000    271.13513   -4851.6353   -4309.3315   -4851.6353            0    7616.4752    18.149363    22.782006    19.198827  0.034191813   -6.7138348  -0.03086877    7938.3097    6898.5768    7536.3293    8414.5195    30.036812    64.120912    905.40298 
  276500    252.34561   -4836.7016   -4331.9792   -4836.7016            0    8664.4027    18.045909    22.864628    19.219719  -0.12432583   -6.4648032   0.23931727    7930.3061    6014.4117    10069.687    9909.1093   -329.18486    1138.8412   -1866.7872 
  277000    258.85227   -4864.5241   -4346.7876   -4864.5241            0    6152.0753    18.081665    22.995242    19.226415 -0.014993951   -6.5159689 -0.088701237    7994.1949    6167.3312    5438.3839    6850.5107     158.0242   -317.28053    391.28728 
  277500    242.49624   -4828.2523   -4343.2298   -4828.2523            0    6602.7115    18.028445    22.812546    19.459208  -0.40477791   -6.2303705  0.076176492    8003.0806    5195.5771    8165.1864    6447.3709    482.67183    1227.1562   -279.47083 
  278000    251.78947   -4843.7277   -4340.1177   -4843.7277            0    6227.6511    17.927137    22.992501    19.341286 -0.085028915   -6.5849543   0.13651661    7972.2793    7022.1502    6269.3054    5391.4977   -401.51411   -374.75061    2.5752186 
  278500    252.05579    -4837.025   -4332.8822    -4837.025            0     9567.018    17.965596    22.759156     19.34409   0.10059006   -6.2388084   0.31572228    7909.4464    8982.8828    9787.9489    9930.2224   -1030.0075    200.52264    394.57994 
  279000    238.03538   -4834.5487   -4358.4485   -4834.5487            0    8437.0845    18.085139    22.919616    19.073367  -0.30050898   -6.5431525  0.057887689     7905.995    7509.6653    8257.4281    9544.1602    115.19516   -898.06332   -125.01965 
  279500    252.52147   -4862.2241     -4357.15   -4862.2241            0    7688.1684    18.023948    22.947456    19.267763  -0.29870057   -6.4395335 -0.033385094    7969.2188     6871.517    7709.5956    8483.3925    1181.0701    393.27851    1037.0217 
  280000    244.58795   -4859.1835   -4369.9774   -4859.1835            0     5406.954    17.986136    22.983773    19.455379  -0.12291177   -6.5580942   0.20774658    8042.6449    5994.4676    4992.3141    5234.0803   -1446.9064   -591.35141   -1723.0398 
  280500    246.35675   -4866.7592   -4374.0152   -4866.7592            0    5308.6437    18.051729    22.902325    19.437875   0.13598236   -6.3580711   0.21021234    8036.1338    6525.7591    5087.7787    4312.3933    1356.5927    604.69866    336.31603 
  281000    248.69837   -4832.2408   -4334.8134   -4832.2408            0    6527.2104    18.014621    23.025613     19.31262  -0.20824898   -6.4616986  -0.05188266    8010.8303    8093.3538    5275.9194     6212.358    779.23773    512.92413    647.97075 
  281500    253.62694   -4847.0969   -4339.8117   -4847.0969            0    4939.7336    18.169078    22.728574    19.441976  -0.39268835   -6.6048049 -0.019898311    8028.7048     4522.516     5506.621    4790.0639    459.80969    396.54459    955.59631 
  282000    236.80814   -4842.2914   -4368.6459   -4842.2914            0    7151.7387    17.915918    22.993084     19.33953   0.12926449   -6.5626426   0.31568775    7966.7689    7113.2708    7514.6332     6827.312   -388.75381    604.42135    212.49656 
  282500    254.86795   -4857.5985   -4347.8311   -4857.5985            0    7316.1084    18.013382    22.780592    19.383575 -0.013230449   -6.3517678   0.18094954    7954.1565    8392.6548    6167.6954    7387.9748    -1901.862    68.154135    -880.7974 
  283000    243.58633   -4873.6572   -4386.4544   -4873.6572            0    10306.475    17.795051    22.924616    19.275568  -0.45065437   -6.7061256  0.094372562    7863.3661    9261.9195    10895.724    10761.782    1955.5136    586.25814   -282.93447 
  283500     241.0703    -4851.914   -4369.7437    -4851.914            0    8191.8994    17.946426    22.797284    19.357958  -0.17327873   -6.3429913  0.023115603    7919.9168    8626.3438    8344.5221    7604.8322   -182.77595     198.4381   -72.198869 
  284000     244.0477   -4840.7376   -4352.6121   -4840.7376            0    8019.2375    18.017755    22.840311    19.337048 -0.029482831   -6.3055634   0.18964233    7957.7971    7742.8103    8279.0224    8035.8797   -199.73022   -126.21807   -1028.7869 
  284500    261.68269   -4807.7961   -4284.3984   -4807.7961            0    5444.2855    17.956557      23.1107    19.447981  -0.53478991   -6.1558696  0.018238298    8070.6904    5513.1284    5426.2083    5393.5197    1141.0784    900.38144    518.95453 
  285000    247.88088   -4853.6048   -4357.8124   -4853.6048            0     6797.789    18.076184    22.860546    19.331856  -0.22154295   -6.5417675 0.0069791337    7988.5304     5938.427    7081.8233    7373.1165    1143.5603   -181.80239    935.30635 
  285500    260.16056   -4820.6592   -4300.3059   -4820.6592            0    7532.0788    18.112755    22.976448    19.228267  -0.10682015   -6.5038108   0.35434461    8002.1662    5598.3069    8233.0614    8764.8681    442.44989    21.539496    409.38796 
  286000    247.48397   -4865.4558   -4370.4573   -4865.4558            0     5816.548    18.041275    22.812275    19.452104   0.24994249   -6.4672075   0.07788737     8005.757    7041.1901    6272.1476    4136.3061   -22.854698   -93.450364    -1219.839 
  286500    253.01909   -4843.0933   -4337.0238   -4843.0933            0    6633.9872    17.837125    23.048287    19.452131  -0.37574882    -6.497381   0.10059726    7997.0664    7859.6844    6612.0107    5430.2665    819.03274   -455.80561   -582.88236 
  287000    247.12808   -4897.2086   -4402.9219   -4897.2086            0    6813.4432    17.980498    22.840128    19.367745  -0.15766572   -6.4810059  -0.14137457    7953.8851    7158.5357    7336.2699    5945.5239   -658.45543    161.14928    751.42364 
  287500    255.20193   -4877.9123   -4367.4769   -4877.9123            0    7509.0354    18.012478    22.744747    19.437007  -0.08347812    -6.776099   0.18656858    7963.1327    8037.2377    8399.8815     6089.987    151.65451    958.36551    879.06342 
  288000    250.34111   -4918.3073   -4417.5942   -4918.3073            0    7788.0431     17.97153    22.956792    19.213127 0.0085410192   -6.4075835   0.34703327    7926.7343    7306.3947    7911.7976     8145.937   -59.704907    300.73741   -2302.5073 
  288500    236.35185   -4877.2212   -4404.4883   -4877.2212            0    7284.9363    18.084734    22.812004    19.242707 -0.068669944   -6.5872325   0.13743569    7938.5598     7088.954    6544.5842    8221.2709   -818.31418   -829.68775    -1699.192 
  289000      256.964   -4849.8879   -4335.9281   -4849.8879            0    7700.1334    17.905797    23.015978    19.322402  -0.48218212   -6.5745157 -0.061745765    7963.1374    7438.1998    7552.6067    8109.5938    1700.2104    434.32264    1054.2406 
  289500    251.14571   -4857.6163   -4355.2939   -4857.6163            0    8432.5445    17.938366    22.781794    19.386802 -0.076605167   -6.2167289 -0.090593362    7922.7688    8422.6814    8527.0365    8347.9158    -68.45459     -1167.63   -1328.9832 
  290000    257.19766   -4830.5721    -4316.145   -4830.5721            0    8772.0535    17.943269    23.028172    19.183908   -0.1824634   -6.7363266   0.40946747     7926.804     10219.04    8035.7768    8061.3436    526.97254   -222.93252   -1258.4707 
  290500    250.16852    -4849.249   -4348.8811    -4849.249            0     6931.964    18.071759    22.806291     19.35902  0.081169126   -6.3938172   0.14858064    7978.8161    6998.5388    7896.2377    5901.1155   -191.40275    493.38761   -520.18267 
  291000     262.2363   -4833.4232   -4308.9182   -4833.4232            0    7200.1145    17.894789    23.118544    19.315506  -0.55176438   -6.6008969   0.11386986    7990.8533    9743.1234    4930.9864    6926.2336    1410.2242   -1376.6501    1936.0667 
  291500    257.71878   -4854.0945   -4338.6251   -4854.0945            0    6673.6236    18.081196    22.850798    19.346774 -0.096769291   -6.5422185  -0.21160374    7993.5022    6698.8901    5379.0278    7942.9528   -232.34239   -273.86208    801.02626 
  292000    244.98316   -4857.3696    -4367.373   -4857.3696            0    7810.6933    17.992907    22.983682    19.208578 -0.038924873   -6.2527694   0.29018039    7943.5777    7792.1602    7197.3396    8442.5799     24.19729   -676.24546   -452.30345 
  292500    244.06256   -4862.8834   -4374.7282   -4862.8834            0    8121.2433    18.032738    22.997026    19.203967  -0.14336884   -6.7785009   0.16254498    7963.8722    7786.4826    8508.5807    8068.6667    1086.4741    1403.9181   -815.59373 
  293000    240.68175   -4866.4869   -4385.0937   -4866.4869            0    6602.8715    17.902965    22.895717    19.472946  -0.18276259   -5.9043059 -0.062770024     7981.984    9140.5228    6217.9915    4450.1004    766.01032   -750.90069    2055.3746 
  293500    253.74753   -4835.8261   -4328.2997   -4835.8261            0    6352.6291    17.987883    22.965465    19.384108  -0.18278046   -6.8111454  0.079615614    8007.5769    7330.1947    6211.4242    5516.2683    208.08806    367.01929   -1053.1987 
  294000    248.78198   -4852.2076   -4354.6129   -4852.2076            0     6167.653    17.989879    22.862763    19.394175 -0.058866832   -5.8966504  0.097021033    7976.7919    6858.8575    5879.9126    5764.1889   -1829.2925   -928.63171   -279.31738 
  294500    251.33954   -4859.0148   -4356.3046   -4859.0148            0    6093.0976    18.027598    23.012031    19.265264 -0.064199657   -6.6988457   0.25809856    7992.2264     6407.449    6253.7306    5618.1132    339.55509   -829.03567   -625.56729 
  295000    250.13006   -4838.5006   -4338.2095   -4838.5006            0    7008.0553    18.121892    22.716475    19.356165   0.15109756   -6.3205006  0.024186684    7968.2653    7986.3687    5582.2625    7455.5347   -171.28923   -1731.6904    1529.6177 
  295500    254.89703   -4857.6289   -4347.8034   -4857.6289            0    7118.7161    17.900669    23.202539    19.202233  -0.53162425   -6.3194071  0.043814269    7975.4744    7327.4721     7934.045    6094.6313    1941.4748    185.82868    994.20865 
  296000    249.69267   -4853.9252    -4354.509   -4853.9252            0     7889.138     18.03677    22.585527    19.458382  0.040854529   -6.8304381  0.017288071    7926.7603    6650.6222    9017.0818    7999.7101   -1303.7776     2181.391   -1148.1893 
  296500    231.23533   -4848.4229   -4385.9236   -4848.4229            0    6834.7366    17.871198    23.090562     19.33314  -0.13222689    -6.114983   0.36008546    7977.9361    6984.7456    6386.4945    7132.9696    384.92548   -540.53024   -23.977886 
  297000    236.51307   -4847.0209   -4373.9656   -4847.0209            0    5607.1852    18.069127    22.854264    19.409662 0.0036285735   -6.7019208   0.10521331    8015.3484    7857.7953     4177.019    4786.7413   -924.64752   -910.20807   -413.24528 
  297500    262.13854   -4835.8635   -4311.5541   -4835.8635            0    9026.1018    17.930902    23.091637    19.130868  -0.62519649   -6.2146293   0.40585201    7921.2104    9379.6124    9044.3228    8654.3702    675.32225    -721.7862   -2103.8805 
  298000    252.61689   -4851.9018   -4346.6369   -4851.9018            0    6938.1301    18.040821     22.63081    19.526143  0.078229714   -6.3377687  -0.25107874    7972.1021    6673.0201    7558.2817    6583.0884     38.12282    -327.9595    2302.2722 
  298500    235.19529   -4830.3887    -4359.969   -4830.3887            0    8329.4615     17.94188    23.036854    19.229516   -0.4138439   -6.7581738   0.26681956    7948.0295    8550.4309    8458.4164    7979.5371    779.06588   -135.44196   -660.77559 
  299000    238.10111   -4815.8625   -4339.6308   -4815.8625            0     9121.785    18.050556    22.642508    19.345993   0.24800912   -6.1135285 -0.052800521    7906.8984    8282.6531    9905.4986    9177.2033   -990.22421   -396.13452    726.07491 
  299500    266.76183   -4858.0695   -4324.5129   -4858.0695            0    9303.5177    17.844131    23.050311    19.218727  -0.26250013   -6.5950063   0.36114719    7904.9078    9142.8466    9118.6848    9649.0216    654.18972    1267.9749    -952.4572 
  300000    247.42467   -4889.6928   -4394.8129   -4889.6928            0    6804.6486    18.021127    22.730049    19.424681 -0.0095134023   -6.5323917  0.065108214    7956.7593     5989.395    7117.0623    7307.4887     -568.434   -115.17349    919.45378 
  300500    258.90357   -4862.9624   -4345.1233   -4862.9624            0    7693.8775    17.765731    23.181098    19.297467  -0.44752443   -5.9128976   -0.2364667    7947.2594    7016.2234    7906.4581     8158.951    2787.4172   -831.30341    1606.9294 
  301000    231.96719   -4833.4893   -4369.5263   -4833.4893            0    9367.8692    18.067044    22.697865    19.387235  -0.13836044   -6.7162226   0.12620001     7950.382    8347.2226    10231.833    9524.5519    648.33093    944.87517   -1173.9756 
  301500    252.16102   -4854.6264   -4350.2732   -4854.6264            0    6056.7768    17.900427    23.039356    19.334515   0.03568292   -6.1521583   0.27012648    7973.8303    6956.5596    6129.1605    5084.6102   -669.32405   -883.69775    -2091.908 
  302000    249.01253   -4865.8908    -4367.835   -4865.8908            0    6419.8077    18.138663    22.780008    19.428406   -0.1647378   -6.7221192  0.013804006     8027.796    6465.8614    6664.3957    6129.1659   -395.70547     369.8079    1026.5053 
  302500    250.77583   -4873.4604   -4371.8778   -4873.4604            0      7310.13    17.963515     22.92453    19.375559  -0.40324372   -6.4145172  -0.06663627    7978.9547    9135.1448    6107.5474     6687.698    604.34429    -772.9311   -12.564975 
  303000    254.70719   -4844.8799    -4335.434   -4844.8799            0    6732.2322    18.034764    22.932077    19.252782  0.042031559   -6.2735768   0.17336842    7962.4615    5394.2331    6803.3321    7999.1314   -1554.7825   -34.447403    -1976.493 
  303500    245.19663   -4844.8534   -4354.4299   -4844.8534            0     7513.646    18.057877    22.815085    19.318141   -0.1764938   -6.6301305   0.39170865    7958.9197    6665.1036      7942.35    7933.4845   -307.46476   -285.88319   -969.65717 
  304000    234.57267    -4846.138   -4376.9637    -4846.138            0    6752.1662    17.881054    22.999594    19.376302   0.12668866   -6.2317405  -0.10792045    7968.6396    8880.9828    6286.7845    5088.7315    757.18777    1277.2944    70.033948 
  304500    243.52438   -4819.2332   -4332.1543   -4819.2332            0    7910.9463    18.087121    22.805071    19.427732  -0.51927593   -6.6391208  0.054894616    8013.5133    7665.2821    8448.6818    7618.8749    1385.7987    934.02174   -1415.9856 
  305000    246.12711   -4857.8047   -4365.5201   -4857.8047            0    5613.3348      18.0715     22.97605     19.22548   0.25187651    -6.589059 -0.085902983    7982.6439    4969.9913    5809.8828    6060.1303   -571.89133   -330.21482    277.03168 
  305500    244.79955   -4835.7309   -4346.1016   -4835.7309            0    7633.3966    17.949996    22.890886    19.353851  -0.47732583   -6.1561234   0.66542329    7952.3294    7787.6981    7218.2925    7894.1991   -118.37457   -351.82878   -673.06471 
  306000    256.96135   -4859.1333   -4345.1789   -4859.1333            0    7406.0176    17.995783    22.845297    19.312016   0.16730046   -6.6317433  -0.10051339    7939.5368    7411.6903    7156.9233     7649.439     807.3869    89.118391     719.8438 
  306500    253.54444   -4836.1186   -4328.9984   -4836.1186            0    6768.3052    17.925553    22.925796    19.358386  -0.61366715   -6.1734666   0.26533475    7955.4751    7668.2279    6158.1251    6478.5627    572.52775   -1373.6792   -1792.3566 
  307000    253.57972   -4828.5681   -4321.3773   -4828.5681            0    8767.0416    17.938501    22.908821     19.30042   0.34632329   -6.5605703  -0.23035087    7931.5056    9250.6826    8309.5529    8740.8893   -532.72183    52.524897   -422.56195 
  307500    263.76202   -4874.8892   -4347.3326   -4874.8892            0    6722.2449    18.085664    22.903958    19.216795   -0.3692697   -6.5072208   0.43095068    7960.2359    5738.9579    7373.0142    7054.7626    232.96252   -530.34701   -588.74924 
  308000    246.38655   -4856.2922   -4363.4886   -4856.2922            0    7017.0677    18.129887    22.845323    19.234394   0.18506157   -6.4668427 -0.094599223    7966.5616    4774.7008    8743.3435    7533.1587   -910.61103    528.66967   -610.68974 
  308500    255.19209   -4845.5812   -4335.1655   -4845.5812            0    7840.5754    17.970108    22.926442    19.339146  -0.58480962   -6.7000345    0.2355816    7967.5471    8038.0095    8010.7499    7472.9668    1232.4007   -347.80972   -412.93656 
  309000    260.71788   -4834.3263   -4312.8584   -4834.3263            0    8682.2691    17.805781    22.957229    19.442242  0.014791941   -6.2062097  -0.13950053    7947.4323    9739.4786    7416.3136    8891.0151   -495.06724   -1224.4361    1515.2255 
  309500    267.18227   -4827.7815    -4293.384   -4827.7815            0     7526.823    17.958055    23.024913    19.242882  -0.32879306   -6.4544658   0.35903176    7956.5981    7798.4076    5987.6397    8794.4216    -289.0259   -77.309195   -1101.0512 
  310000     261.8076   -4857.7156   -4334.0681   -4857.7156            0    7063.8031    18.074188    22.833983    19.315335 0.0084029341   -6.5712341   0.02157194    7971.5488    9008.6854    6316.2882    5866.4358   -648.47895   -177.26261     778.4534 
  310500    255.10673    -4813.669    -4303.424    -4813.669            0    5058.8061    18.023356    23.119545    19.317178  -0.49092905     -5.95315   0.20806521    8049.3092    5423.6045    4627.2092    5125.6045    241.46176    -1402.878    1027.7443 
  311000    231.27522   -4832.8662   -4370.2872   -4832.8662            0    7946.4275    17.994132    22.836472    19.395747  0.078760484    -6.519215  0.085997467     7970.149    7125.4956    8378.2118     8335.575   -1675.2047    854.88144   -1903.8436 
  311500    246.23129   -4852.0068   -4359.5138   -4852.0068            0    7454.5388    17.928893    22.754518     19.48999  -0.10835943   -6.4541656      0.12623    7951.2009    8515.2017    8276.3582    5572.0565   -399.38803    -676.1966   -442.20234 
  312000    255.90974   -4850.1398   -4338.2887   -4850.1398            0    6951.7622    17.832602    23.148812    19.252037  -0.19114568   -6.4614446  -0.13636376    7947.3095    8026.0856    7168.2111    5660.9898    856.26158    224.66517    2713.8535 
  312500    245.34698   -4846.5078   -4355.7835   -4846.5078            0     8597.737    18.176181    22.622569    19.255671  -0.30313191   -6.6366722  0.043689543    7917.7762    8214.2897    8432.8478    9146.0735    976.47683   -1026.8754   -34.352364 
  313000    251.57642    -4850.734   -4347.5501    -4850.734            0    7540.8243    17.916921    23.139607    19.185764  -0.15132132   -6.4273375   0.28230405    7954.2359    5844.2643    8374.1574    8404.0511   -1034.1137    292.83829    398.40175 
  313500    233.90824   -4839.8922   -4372.0468   -4839.8922            0    7222.1078    18.245007    22.458803     19.45322  0.080609249   -6.6028815   0.11523834    7971.1715    4561.2298    9113.0998    7991.9938   -1667.3705    410.59552   -709.17416 
  314000    257.13339   -4853.9288   -4339.6302   -4853.9288            0    8183.6897    17.936535    23.119511    19.147841  -0.33323985   -6.5677041   0.20661418    7940.3016    7066.4783    8810.2761    8674.3147    2503.0965    757.49155    2737.7759 
  314500    259.74729   -4855.7416   -4336.2149   -4855.7416            0    7571.1998    18.144161    22.512484    19.474875 -0.0055491289   -6.3744175  -0.07741453     7954.905    5778.3986     9728.798     7206.403   -779.59655    1359.3332    966.09086 
  315000    246.84039   -4847.0959   -4353.3846   -4847.0959            0    8606.1085    17.726089    23.173126    19.289336  -0.32152886   -6.6679913    0.1737537    7923.4592    9972.6023    7866.8701     7978.853    549.37517    554.82611   -453.05056 
  315500    253.71485   -4820.7113   -4313.2502   -4820.7113            0    6022.9947    18.184477     22.67829    19.546741  0.043825397    -6.337794  -0.10164082    8060.9364    5655.6219    6978.0627    5435.2997   -156.14785      255.458     130.4429 
  316000    250.51057   -4839.7752   -4338.7231   -4839.7752            0    7373.1934    17.969163    23.033114    19.311266  -0.22439118   -6.5625508   0.25535709    7992.6581    6521.8407    7146.9849    8450.7548   -583.84295    83.417949   -896.70342 
  316500    270.66616   -4870.0983   -4328.7326   -4870.0983            0    5558.6851     18.09347    22.909288    19.343123   0.21366523   -6.6598837 -0.098368283    8017.8894     5394.553    5429.3829    5852.1194   -691.27228    745.42731    1548.5033 
  317000    231.92911   -4832.4279    -4368.541   -4832.4279            0    7042.7493    17.979115    23.047452    19.242281  -0.44895281   -5.9161749   0.23119739     7973.478    5618.0075    6719.1142    8791.1262    1149.7738   -315.43706    210.44046 
  317500    246.88802   -4898.4527   -4404.6462   -4898.4527            0    8518.5193    18.069594    22.743679    19.262187 -0.044426832   -6.8068887 -0.021695899    7916.1623    6926.3794    9320.9841    9308.1945    75.410291     603.8918    691.71831 
  318000    255.18049   -4861.0612   -4350.6687   -4861.0612            0    6873.8231    17.825369    23.174557    19.221607  -0.36033722   -6.1509203   0.11293973    7940.3505    6991.8732    6313.7436    7315.8524    1037.1085   -1197.0716    1139.8646 
  318500    249.11644   -4865.3736   -4367.1099   -4865.3736            0    6318.5587    18.025759    22.665912    19.499397   0.18945934   -6.3902849   0.14039992    7966.8738    7099.2886    6762.3102    5094.0771   -1798.7458     -300.495   -91.488048 
  319000    252.16179   -4850.5062   -4346.1515   -4850.5062            0    9001.6252    17.917369    22.968334    19.237466  -0.19612114   -6.6944047   0.22061504     7916.835    9224.0076     9750.646     8030.222   -312.67312    36.952973   -856.83107 
  319500    248.47991   -4834.8647   -4337.8742   -4834.8647            0    7961.0367    17.896375    22.927468    19.310732  -0.28744586   -6.0518558 -0.082846465    7923.5516    8086.1622    7840.1607    7956.7872    1205.3288     363.6945    139.49092 
  320000    236.95446   -4832.5846   -4358.6464   -4832.5846            0    8703.3564    18.045444    22.800516    19.385843  -0.16929205   -6.9524043    0.1619002    7976.2166    11240.874    7874.3231    6994.8724   -1223.0601   -632.20898   -1910.7773 
  320500    261.79028      -4859.6   -4335.9871      -4859.6            0    8615.1736    17.923786    23.051973    19.196354  0.066357842   -5.9683301   0.10197877    7931.5231    9536.6343    7548.7615    8760.1249   -1092.2964    -1430.618   -78.538696 
  321000    246.40608   -4860.6134   -4367.7708   -4860.6134            0    7364.5375    18.220496    22.638567    19.342589 -0.047821713   -6.9132582  0.096304418    7978.5455    6644.3083    7738.7216    7710.5825   -312.60201    938.80116    422.14048 
  321500    244.02134   -4858.7421   -4370.6693   -4858.7421            0    7242.3672    17.780832    23.142923    19.251752  -0.25457517   -6.3281401  0.066018101    7922.1042    7253.1981    7871.2941    6602.6093    240.19691     285.6545    690.49191 
  322000    256.53468   -4846.9759   -4333.8749   -4846.9759            0    7047.5731     18.07024    22.542314    19.544851 -0.056215036   -6.5379181   0.12514453    7961.4976    7194.7652    8541.2589    5406.6952   -883.74377    113.22109   -29.114053 
  322500    248.16909   -4858.9276   -4362.5587   -4858.9276            0    7876.7375    17.936266    23.232015     19.10662  -0.22503421   -6.7542375   0.11488638    7961.6443    6216.9128    8340.1502    9073.1496    1744.0088    1508.7955    -2335.852 
  323000    255.25645   -4847.1248   -4336.5803   -4847.1248            0    7416.5517    18.143734     22.56404     19.45615 0.0078835819    -6.147993 -0.050576165    7965.2686    7198.1729    7887.6941    7163.7882    630.77483   -209.72662    687.10735 
  323500    263.99951   -4870.8257   -4342.7941   -4870.8257            0    8296.0043    17.936789    23.054965    19.143463  -0.17174234    -6.686997   0.22967736    7916.4357    7713.9138     8532.833     8641.266    279.13794    421.36761   -87.749994 
  324000    242.44466   -4860.7498   -4375.8305   -4860.7498            0    9074.5593    18.016433     22.68835    19.292414 -0.072002768   -6.2180975   0.20480988    7886.0279     10216.75     8720.808    8286.1203   -612.70652   -941.00171   -387.64257 
  324500    244.88192   -4828.2999   -4338.5058   -4828.2999            0    9716.9803    17.815658    22.994009    19.231807  -0.13182731   -6.6080333  0.074687873    7878.3755    12306.828    7695.1249     9148.988     980.3172    142.73986    -1382.086 
  325000    250.43275   -4834.1876   -4333.2911   -4834.1876            0    7058.6511    18.044398    22.718017     19.44997  -0.24731213    -6.397104   0.12680839    7973.1837     6764.906    6668.8276    7742.2198   -722.19503     330.1314   -881.66786 
  325500    261.70246   -4824.6924   -4301.2552   -4824.6924            0    7018.8534    17.896754    23.235874    19.205883  0.012463826   -6.5925463  -0.16451854    7986.7033    5752.5293    6098.8762    9205.1548    1657.0171    1029.3643    1297.5857 
  326000    252.30347   -4857.9561    -4353.318   -4857.9561            0    6492.8396    18.290224    22.549177    19.426825  -0.32604229   -6.7388777   0.31836761    8012.1953     5646.495    6898.2079    6933.8158    681.06737   -432.51339   -2177.2851 
  326500    239.51084   -4832.5933    -4353.542   -4832.5933            0    6777.9591    17.917816    23.178359    19.232029  0.093169041   -6.3021597   0.16823211    7987.1692    7359.2963    7274.2748    5700.3063   -1493.6131    -336.8676   -942.98649 
  327000    254.17848   -4836.5255   -4328.1372   -4836.5255            0    6285.6155    18.352255    22.505652    19.355674  -0.45579773   -6.6498624   0.22370139    7994.4638    6212.4773    7054.1133    5590.2559    1591.8589   -1027.2854   -469.58099 
  327500    244.29569   -4848.9009   -4360.2793   -4848.9009            0    7294.6485    17.680002    23.231256    19.365123  0.070139495   -6.6137403 -0.024818559    7953.8108    6537.0878    7500.9169    7845.9408   -623.89349   -159.08504   -452.29583 
  328000    247.14636   -4852.2261   -4357.9029   -4852.2261            0    5881.6216     18.11279    22.632094    19.552312  -0.26445267   -6.3993827   0.15159784    8015.0867    4837.7101    7709.5238     5097.631    246.00705    1375.4203    872.24469 
  328500    254.72377   -4828.9023   -4319.4233   -4828.9023            0     6735.039    17.872584    23.185973    19.286895 -0.042933109   -6.8360811 -0.057435752     7992.359    7558.9999    6002.6167    6643.5005    189.83317    295.70037   -397.25586 
  329000    240.80035   -4823.9924   -4342.3619   -4823.9924            0    6592.8613    18.117563    22.881961    19.283294  -0.03300603   -6.0335557 0.0024377127    7994.1863    6943.9571    5478.1024    7356.5242    1522.8135   -1700.0154    1435.9752 
  329500    250.66699   -4861.8831   -4360.5181   -4861.8831            0    6467.5767    18.032988     22.90972     19.30087  -0.12944162   -6.9624415   0.14087674    7973.7816    8870.7728    6478.8692    4053.0881   -890.27282     464.4026   -353.73745 
  330000    248.60014   -4813.3224   -4316.0914   -4813.3224            0    7882.9767    17.804865    22.847405    19.578806  -0.15370274   -5.9926047  0.071806716    7964.5595    8145.3682    8464.9051    7038.6568    1710.4687     -58.0306    2458.5188 
  330500    260.17758   -4902.5159   -4382.1286   -4902.5159            0    6020.0544    17.922068    23.021761    19.438088  -0.10725624   -6.5302015  -0.09753605    8020.1076    6887.2783    5456.4852    5716.3998   -212.87835    469.92573    1304.6168 
  331000    252.44516   -4885.4175    -4380.496   -4885.4175            0    7210.0413    18.015755    22.908578    19.318864  -0.20191529    -6.580213  0.088645849    7973.1909    8632.3423    5700.7424    7297.0391    781.98141   -463.68581    242.48635 
  331500    250.34976   -4834.1189   -4333.3884   -4834.1189            0    6458.9573    18.043575    23.205338    19.049073   0.16768793    -6.176995   0.22389857     7975.985    5189.1701    6844.3106    7343.3913   -1039.1781   -479.32032   -452.61843 
  332000    244.06465    -4833.958   -4345.7986    -4833.958            0    7487.4524    18.127316    22.641421    19.389744  -0.30235919   -6.6276925   0.20756878    7958.0974    4551.3085    8916.4456    8994.6031    194.44832    927.17825   -1373.7636 
  332500    255.93235   -4830.8427   -4318.9464   -4830.8427            0    6093.4327    17.809908    23.113612     19.45764 -0.076716743   -6.2962472 -0.095000042    8009.7628     6956.939    6450.3998    4872.9591   -196.69888    470.96063    1415.6484 
  333000    249.13064   -4864.0953   -4365.8032   -4864.0953            0    7189.0327    18.038693    22.870471    19.420767  -0.14503221   -6.4401344   0.19342128    8012.1037    7204.2945    7855.6043    6507.1993   -1186.8382   -78.223417   -1021.9017 
  333500    251.21648   -4825.8624   -4323.3984   -4825.8624            0    7698.8777    17.987416    22.920122    19.335226  -0.19564002    -6.561582   0.42879178    7971.4062    6827.4612    7626.7605    8642.4114   -312.28256    -396.7577     285.8255 
  334000    250.85061   -4865.2978   -4363.5656   -4865.2978            0    7947.9005    17.908799    22.763832     19.48017  0.042345644    -6.015125  -0.22725797    7941.5373    9163.9951     8093.457    6586.2492    -464.1366   -14.352795    794.32575 
  334500    249.67777   -4841.0399   -4341.6535   -4841.0399            0      6236.29    18.042005    22.969242    19.338479  -0.46833604   -6.6543686   0.12430234    8014.0815    6669.5338    6859.4377    5179.8985     804.5897    1011.8794    2041.8578 
  335000    240.61581   -4856.6688   -4375.4075   -4856.6688            0    6725.0832    18.098529    22.846596    19.331742   0.24228334   -6.1938242 -0.020088014    7993.4777    7935.2723    7343.4459    4896.5316   -1049.4073    -628.0662    1721.0753 
  335500    265.92371   -4843.2843    -4311.404   -4843.2843            0    7018.5492    17.868214    23.030924    19.340023  -0.41382044     -6.45156   0.47253745    7958.8348    9232.4915    5643.2069    6179.9492    580.03737   -1056.4679      1375.09 
  336000    266.62109    -4825.519   -4292.2439    -4825.519            0    8856.7466     17.93701    22.676681    19.522917    0.2079546    -6.434583   -0.1552596    7940.9826    8755.0362    8880.5501    8934.6535    -760.0136   -304.99175   -639.49362 
  336500    258.42003   -4856.2765   -4339.4045   -4856.2765            0    7546.0688    17.824554    22.972593    19.355249  -0.37995058   -6.6180406   0.33077949    7925.5146    9216.1363    7382.7543    6039.3159    953.44126    602.80094   -1434.4325 
  337000    242.19154   -4823.8807   -4339.4676   -4823.8807            0    8302.3003    18.104082    22.754296    19.267795  0.091492088   -6.4744595 -0.0013719686     7937.284    7127.5783    8023.9776    9755.3448    -795.0711   -481.90396   -218.75682 
  337500    256.89523   -4847.9677   -4334.1455   -4847.9677            0    7852.2939    18.104772    22.860007    19.201079  -0.38469119   -6.5708458  0.088866922    7946.8509    6599.1791    8354.3326      8603.37    1373.6651    136.27443    575.45694 
  338000    232.93708   -4831.5826   -4365.6796   -4831.5826            0    9895.5696    17.917303    22.922376    19.222982  -0.10436879   -6.4953751 -0.080540392    7895.0162    10588.834     9249.554    9848.3205    745.08358   -1244.1476    1338.2379 
  338500    247.18968   -4843.3991   -4348.9892   -4843.3991            0    7288.5629    17.916543    22.800442    19.456158  0.019150334   -6.2910966   0.21684211    7947.9397    8774.7285    7552.6994    5538.2608    660.74905   -1116.7127   -2365.7866 
  339000    253.49001   -4839.3113      -4332.3   -4839.3113            0    8086.5232    17.904288    22.972141     19.31421  0.075914479   -6.9068604   0.32192876    7943.9308    10185.564    6615.0177    7458.9876   -2164.3121    672.22082   -691.81136 
  339500    247.96088   -4831.7514    -4335.799   -4831.7514            0    7432.0127    18.082756    22.741212    19.330442  -0.19675129   -6.1384915  0.079557361    7949.1375    6314.2697    8157.1927    7824.5757    521.11848    883.41735   -381.11306 
  340000    244.40746    -4843.086   -4354.2409    -4843.086            0    7936.3171    17.896631     23.01357    19.311914  -0.17673044   -6.8699622 -0.038104691    7953.9087    9869.8259    7110.7557    6828.3696     593.4284    179.40021   -333.79807 
  340500    266.45529   -4830.2111   -4297.2676   -4830.2111            0    8421.6347    18.064975    22.546625    19.540273   -0.2395978    -6.039538   0.16678914    7958.8356    8709.8737    9198.9927    7356.0377   -171.35755    -674.2547    -1465.962 
  341000    243.76007   -4834.8338   -4347.2835   -4834.8338            0    7774.0093    17.993553    22.945206    19.264789 -0.021904468   -6.6783688   0.11514177    7953.7725    7484.2035    7597.5862    8240.2383   -701.17233    777.83657    1199.5081 
  341500    247.79975   -4892.5148   -4396.8846   -4892.5148            0    6716.7806    18.208075     22.72307    19.249045  -0.42187708   -6.4028873   0.29065473    7964.1647    5376.8764     6744.942    8028.5236    594.95296   -838.31178    108.18481 
  342000    249.04841   -4850.2821   -4352.1545   -4850.2821            0    6967.7104    17.966951    23.198996    19.239616  0.099923367    -6.203132   -0.2181906    8019.3648    6480.0225     6518.194    7904.9148    571.90617    -122.2454    1733.8121 
  342500    253.01137   -4857.5574   -4351.5034   -4857.5574            0    6454.3037    17.965938    22.819985    19.493018    -0.187662     -6.62106   0.31057823    7991.7954    6989.2612    7860.2421    4513.4079    145.02002       395.05   -1240.4851 
  343000    240.25496   -4827.6681   -4347.1285   -4827.6681            0    6420.7839    17.949092    22.975818    19.418399  0.073213929   -6.2513851   0.17512355     8008.052    6101.2618    5003.2558     8157.834   -1010.5817   -759.77664   -540.51318 
  343500    251.87381   -4872.1365   -4368.3578   -4872.1365            0    9124.5526     18.03415    22.767997    19.293241  -0.42237036   -6.7967434 -0.049800782     7921.833    8912.2961    9588.0906     8873.271    1264.3159   -24.596941    1396.9776 
  344000    243.38424   -4841.4459   -4354.6473   -4841.4459            0    9274.8556    17.975031    22.793496     19.29679  -0.15916714   -6.2088133 -0.0011830038    7906.1608    7868.9694    9619.2903    10336.307    91.920054     130.4486    419.00121 
  344500    236.56206   -4856.9436   -4383.7902   -4856.9436            0    8306.2462     17.91121    23.017681    19.293632 -0.046792579   -6.8526161   0.36074333    7954.2725    9270.1242    8027.4267    7621.1878   -440.74597    450.34235    334.93996 
  345000    254.87834   -4861.6766   -4351.8884   -4861.6766            0    7307.9739    18.098779    22.774366    19.321032  0.069379135   -6.4221286   0.21011162    7963.9015    6924.5264    6811.7155    8187.6797   -125.02956    -973.8562    981.12349 
  345500    244.93876   -4861.4752   -4371.5675   -4861.4752            0    5400.3898    17.998268    23.000606    19.393382   -0.2203362   -6.4248929  0.062874145    8028.2991    6148.6407    5217.5169    4835.0118   -271.60478   -428.55028   -467.15151 
  346000    249.05401   -4860.8155   -4362.6767   -4860.8155            0    6902.3019    17.955981    22.836105    19.486273  -0.14541658   -6.7364027 -0.064413915    7990.2423    8302.6171    6392.3705    6011.9181    618.42485    582.54622     1320.155 
  346500    241.98667   -4883.8375   -4399.8343   -4883.8375            0    6930.4209    17.927453    22.879652    19.362616  -0.18010782   -6.1300281   0.24852827    7942.0396    7721.7418    6468.5805    6600.9403   -269.10181   -998.41484    578.80106 
  347000    252.00166   -4863.4447   -4359.4103   -4863.4447            0    8020.0634    18.144214      22.7071    19.270675  0.028603922   -6.9813946  0.076785709    7939.5658    6689.4113    9075.2482    8295.5307   -761.73128    1178.0662   -273.23096 
  347500    262.40831   -4823.3346   -4298.4856   -4823.3346            0    10729.346    17.888024    22.833192    19.320859  -0.26071217    -5.870907   0.25852983    7891.4249    10210.094    10195.706    11782.239    795.53273   -809.29923   -310.97836 
  348000    241.97382   -4853.7811   -4369.8035   -4853.7811            0    7603.7085    18.068454    22.891053    19.255491 -0.001786796    -6.797224 -0.084479963    7964.1854    7919.3966    6654.2517    8237.4771   -300.54412   -342.88679    1647.8254 
  348500    245.88275   -4839.6084   -4347.8125   -4839.6084            0    5754.9988     17.94505    23.115962    19.314409  -0.60521888   -6.2923582  0.056278761    8011.9472    5975.2636    6239.0827    5050.6501    643.81676   -132.93042   -472.75647 
  349000    242.92969   -4872.8215   -4386.9321   -4872.8215            0     5756.052    17.986664     22.81379    19.433406  -0.05075579   -6.3058873 -0.032910727    7974.3807    5131.8959    6631.6214    5504.6387   -23.862926    35.060652    2051.6351 
  349500    249.31757   -4838.7434   -4340.0775   -4838.7434            0    7321.1119    18.016053    22.923002    19.293591 -0.096185686   -6.6297996   0.27630114     7967.906    6635.9205    7872.9652    7454.4501   -923.59167    981.17295   -1142.6653 
  350000    265.20649   -4871.9806   -4341.5349   -4871.9806            0    8183.3381    18.119823    22.960271    19.059744   0.13477373    -5.805321 0.00028239056    7929.5408    6628.4258    8025.0507    9896.5379   -1304.1979   -1481.0531    591.07184 
  350500    250.68745   -4827.4336   -4326.0277   -4827.4336            0    8954.0993    18.001592    22.830186    19.316853   -0.2757035   -6.6793467  0.069539362    7938.8345    9546.6714    8493.4251    8822.2013    1175.1691    -296.3615   -61.521946 
  351000    247.22588   -4827.2895   -4332.8072   -4827.2895            0    8378.0107    17.961922    22.804557    19.339574  -0.14804732   -6.4442529   0.25135808     7921.754    9035.0913     7885.268    8213.6728    225.01804   -918.90019    1486.3238 
  351500    244.60298   -4853.4523   -4364.2161   -4853.4523            0    5530.9156    18.142848    22.828464    19.354038  0.080223663   -6.3403343   0.13953311    8015.9269     5637.322    3847.8631    7107.5617   -1192.3972   -429.70211    313.94386 
  352000    255.67526   -4847.7755   -4336.3934   -4847.7755            0    5605.6179    18.102288    22.938105    19.331745  -0.45387819   -6.7993326   0.19917044    8027.1628    7554.1476    5392.6901    3870.0159    671.30858    513.21265    434.25485 
  352500    237.10605   -4858.9044    -4384.663   -4858.9044            0    5961.5171    18.057557    22.849565    19.333939 -0.031170267   -6.0534212  -0.06752987    7977.3249    6891.2931     5399.588    5593.6703    920.43523    329.87513    717.55327 
  353000    252.25356   -4848.6273    -4344.089   -4848.6273            0    7968.9791    17.886687    23.168733    19.116232  -0.39691663   -7.0450713   0.39495821    7921.9934    8471.2278    8101.2513    7334.4582    116.69747    1930.0684   -2715.2814 
  353500    232.73377   -4870.9446   -4405.4483   -4870.9446            0    7542.7887    17.897723    22.799921    19.414475 0.00094198354   -6.4295864   0.12695204       7922.4    6744.7405    7461.6781    8421.9475   -1943.3856   -81.820927   -419.38987 
  354000    250.26774   -4862.1511   -4361.5847   -4862.1511            0    7232.4383    17.995003    22.905749    19.359961  -0.16604076   -6.6100565   0.39122226    7979.9633    7610.1245    7212.1392    6875.0513   -1356.7698    94.522372   -1532.0869 
  354500    258.42646   -4834.1179    -4317.233   -4834.1179            0    8061.6347    18.106008    22.883079    19.254461  -0.20557747   -6.6069422  -0.21126898    7977.5321    8797.0616     7584.758    7803.0845    993.13003   -761.42876    2200.0429 
  355000    256.56064   -4853.2746   -4340.1216   -4853.2746            0    6259.2326    18.049436     22.94578    19.290484  -0.21484113   -6.4256067   0.10271351    7989.3157    6623.4603    7007.3061    5146.9314   -136.16353     693.4162   -308.75884 
  355500    249.53137   -4870.1318   -4371.0382   -4870.1318            0    4503.8763    18.076597    22.904503    19.495037  0.038722133   -7.1159736   0.20436235    8071.6367    4022.0684    4167.0068    5322.5536    957.63819   -191.26987   -1064.2981 
  356000    255.08922   -4860.9012   -4350.6913   -4860.9012            0    7197.5025    17.861779    22.954804    19.377484  -0.25449146   -6.3115868   0.18083181     7945.033    8591.6107    5798.9766    7201.9203    132.83179   -1489.3147   -1535.9849 
  356500    252.31137   -4878.8549    -4374.201   -4878.8549            0    6337.7177    17.945254    22.860928    19.381525  0.074160918   -6.4761407 0.0020445147    7951.1769    7812.9956    5043.4934    6156.6641    953.07635   -1485.3849    1029.2243 
  357000    249.12139   -4840.6536     -4342.38   -4840.6536            0    6957.8897    18.216565    22.869368    19.121178  -0.71329105   -6.7964304   0.40851023    7965.9079    5660.7523    7642.3562    7570.5606    1202.4722    178.82757   -942.68206 
  357500    269.31727   -4835.6625   -4296.9947   -4835.6625            0    7422.2605    18.092548    22.886089    19.302438   0.22456459   -6.3281729 -0.056907525    7992.5153    8871.7015     5768.453     7626.627   -242.72117     203.4191     328.3551 
  358000    244.47822   -4837.6537   -4348.6671   -4837.6537            0    6078.7997    17.966461    22.836084    19.451562  -0.44239578   -6.7843654   0.42730109    7980.6569    6240.4612    5968.1384    6027.7996     982.5119   -674.38225    1683.2672 
  358500    254.03089   -4838.6778   -4330.5847   -4838.6778            0    7435.1535    17.868542    22.817226    19.510892   0.14109117    -6.350578   -0.1715246    7954.7968    8915.1899    7184.9179    6205.3528    -1739.308   -503.67691    -131.4435 
  359000    249.91321   -4856.3689   -4356.5116   -4856.3689            0    8069.9968    18.023295    22.913846    19.251648  -0.31137708   -6.5743664   0.13967353    7950.6032    8174.8439    7318.5529    8716.5937    1266.1638   -1116.8352    1185.7959 
  359500    253.98642   -4833.2135   -4325.2092   -4833.2135            0     6646.892    18.305148    22.820366    19.182815  0.099216291   -6.3979561    0.2316981    8013.2407    5249.6098    6734.0715    7956.9947   -1997.2373   -374.07213   -915.55685 
  360000    256.56268   -4869.0055   -4355.8485   -4869.0055            0    6243.5962    17.952584    23.074144    19.330484 -0.0013471511   -6.4142606   0.13478661    8007.4695    5649.7086    6640.3771    6440.7028    109.32218     1209.572   -906.73211 
  360500    251.44767   -4848.9039   -4345.9775   -4848.9039            0    5743.2425    18.069938      22.7744    19.561544  -0.34971232    -6.737609 -0.017505202    8050.2013    5587.5683    6141.9774    5500.1819    988.28795    148.22626    1167.5991 
  361000    256.19991    -4841.829   -4329.3975    -4841.829            0    6136.5733    17.921133    23.158747    19.288089   -0.1430275   -6.3153429  0.043139774    8005.1545    7340.9833    5611.2023    5457.5344    1770.0492   -783.89816    403.90738 
  361500    251.27981   -4841.5478   -4338.9571   -4841.5478            0    7389.9366    18.059527      22.6667    19.386216   -0.1868028   -6.5994759   0.30562073    7935.7453    7635.0194    8295.5018    6239.2886   -429.70329   -659.12823   -154.39693 
  362000    245.30583   -4850.5348   -4359.8928   -4850.5348            0    7965.7461    17.801797    23.203717    19.171199 0.0018011713   -6.4391246  0.052830087     7919.006    9550.3243    6279.8729    8067.0411   -327.00307   -566.15011    1410.7279 
  362500    259.63945   -4822.0815   -4302.7705   -4822.0815            0    7713.9625    18.193911    22.632042    19.399439  -0.46489191   -6.3510516  0.036819589    7988.0167     9495.612    7392.7562    6253.5192    713.37233   -356.59524     1429.189 
  363000    258.89871   -4854.6457   -4336.8163   -4854.6457            0    6902.4968    17.939529    23.071345    19.280381 -0.012969375   -6.6474995  -0.04534482    7979.9385    6019.5213    7652.9242     7035.045    1797.8915    -124.3253     1836.557 
  363500    257.73449   -4822.0981   -4306.5973   -4822.0981            0    7259.2823    18.086707    22.614367    19.469758  -0.30827915   -6.1922873   0.23509949    7963.5092    7287.4128    7771.6751     6718.759    566.81037   -745.21548   -248.92644 
  364000    252.11949   -4854.7291    -4350.459   -4854.7291            0    8340.6122    17.980771     23.07749    19.096413  0.072826717   -6.6981285   0.12821546    7924.0772    7546.7464    8706.4485    8768.6416   -891.32398     743.4443    232.82302 
  364500    247.64856   -4832.0291   -4336.7013   -4832.0291            0    7486.2002    18.092612    22.847416     19.28708  -0.22475663   -6.2802375   0.26839653    7972.6894    6642.3575    7804.6476    8011.5955    1220.4748   -451.43304    1126.3767 
  365000    253.21486   -4851.0506   -4344.5896   -4851.0506            0    7417.2203    17.951962    22.989751    19.310926 -0.056303414   -6.6671991  -0.29313156    7969.8342    5132.7246    9122.1769    7996.7593    657.75213    1137.2914    1692.2745 
  365500    250.27015   -4836.6443   -4336.0731   -4836.6443            0    8110.4357    17.955612    22.688897    19.488894  -0.40917116   -6.5645111   0.21321928    7939.6398     9211.197    8821.0959    6299.0142    1399.3038    113.34175    1384.0979 
  366000    268.82672   -4845.2338   -4307.5471   -4845.2338            0    7675.1021    17.906343    22.955467    19.355882  0.063663997   -6.2529304  0.035791315    7956.2056    7235.3439     8848.539    6941.4235    -254.4539    630.65613    384.29916 
  366500    246.38899   -4838.0725   -4345.2641   -4838.0725            0    8155.7652    18.101271    22.917509    19.149079   -0.3104049   -6.9384395    0.2704627     7943.728    9841.4479    7630.4275    6995.4203    978.65185    1316.2845    336.43958 
  367000     237.8688   -4833.2572   -4357.4902   -4833.2572            0    7459.3453    18.103229    22.803323    19.220318  0.001471993   -6.1014469  -0.20840894    7934.4119    6679.7382    7230.2123    8468.0855     90.65197    173.62975   -528.13043 
  367500    261.11876   -4851.4232   -4329.1534   -4851.4232            0    8276.0196     17.89894     23.04546    19.267852   -0.3533138   -6.5684319   0.17720866     7947.783    7470.8196    8597.7902    8759.4491   -145.89436    1110.9433   -650.27174 
  368000    258.05494   -4843.2158   -4327.0741   -4843.2158            0    8476.2339    18.077697    22.710784    19.356075   0.37099816   -6.4806714   0.14667806    7946.8043    8410.7664    9109.1263     7908.809   -2338.0555    249.42731   -1111.1198 
  368500    256.64432   -4844.7998   -4331.4795   -4844.7998            0    7198.3987    17.818929    23.045767    19.343542  -0.42248665   -6.2458723   0.31295124    7943.4426    6465.7767    7131.2485     7998.171    1154.0318   -756.67313   -547.92573 
  369000    259.12132   -4858.7323   -4340.4577   -4858.7323            0     9465.861    18.019395    22.761562    19.291109  0.090034842   -6.7135011  -0.19752958    7912.2399    8909.7673    9521.6652    9966.1504   -1194.4589    81.950795    373.72404 
  369500    250.45441   -4858.9514   -4358.0117   -4858.9514            0    8222.5396    17.853751    22.945362    19.284086  -0.61656999   -6.0815806   0.33268575    7899.9332    8577.1299    8094.6211    7995.8678    1423.1252   -118.95568    -1768.316 
  370000    263.32845   -4835.2327   -4308.5432   -4835.2327            0    7156.4637    18.031909    22.909639       19.345   0.53060082   -6.8055304 -0.088198704    7991.5073    7028.3732    6851.9472    7589.0708   -2364.4037   -897.52709     288.6617 
  370500    251.11634   -4860.7532   -4358.4895   -4860.7532            0    10189.104    17.903416    22.828997    19.292959  -0.48176432   -6.4575415   0.35529047    7885.3607    10467.828    11167.934    8931.5484    160.16412    574.18629    1284.6747 
  371000    264.18434   -4856.9687   -4328.5674   -4856.9687            0    7181.5086    17.960729    22.877653    19.391255  0.076331287   -6.4207679  -0.31428025    7967.8536    8309.4498    7127.5183    6107.5577    165.37354   -616.82554    2165.8672 
  371500    248.81113   -4837.0852   -4339.4322   -4837.0852            0    6667.5099    18.019066    22.984025    19.280248   -0.4933885   -6.6082165    0.4259191    7984.9274    5155.2027    6850.7898    7996.5373     167.6646    -234.3009    -176.5345 
  372000    244.66165   -4828.6763   -4339.3227   -4828.6763            0    7331.9244    18.028533    22.832782    19.386216   0.30245272   -6.4410405  -0.20959443    7980.1722    7107.5278    9089.2027    5799.0426    615.11642     763.9673    2492.4837 
  372500    240.56887    -4854.756   -4373.5885    -4854.756            0    7370.7177    18.026576    22.847015    19.316555   -0.4242871   -6.4620201   0.28678337    7955.5896    8412.2347    6479.1878    7220.7306    -86.24606    660.88039   -1466.6156 
  373000    253.83025   -4893.3066   -4385.6147   -4893.3066            0    5640.8442    18.150283    22.973096    19.167028   0.15876358   -6.5303015 -0.092464354    7992.0408     4133.268    5980.8575     6808.407   -1072.8458    532.02121   -1122.9904 
  373500    246.95984   -4840.3279   -4346.3777   -4840.3279            0    6021.0158    17.964904    22.953021    19.394245  -0.36659475   -6.4370121   0.37028858    7997.1941     6603.573    5841.1593     5618.315    1245.5009   -453.85864   -815.73423 
  374000    261.05688   -4836.0054   -4313.8594   -4836.0054            0    8393.9397     17.92296    22.993736    19.343427   0.08993618   -6.6577462  0.042830831    7971.7321     8291.488    7933.6746    8956.6564   -82.681782    1226.9249    1726.1646 
  374500    244.34824   -4819.2984   -4330.5718   -4819.2984            0    5891.3126    17.999729    22.771892     19.55128  -0.45842248   -6.0993142   0.24654113     8013.833    5829.4599    6089.5523    5754.9257   -1543.3108   -1397.9904   -24.408921 
  375000    246.69379   -4830.2119   -4336.7938   -4830.2119            0    8494.3949    17.941402    23.032396    19.244671 -0.048800587   -6.5780785  0.036178293    7952.5421    9433.6838    8277.5248    7771.9762   -148.21749   -360.40023   -713.05146 
  375500    241.55865   -4838.2733   -4355.1261   -4838.2733            0    9567.1428    18.204629    22.576425    19.238103  -0.22110703   -6.6048043   0.19602949    7906.7729    7595.4783    10834.763    10271.187    538.35824    465.69323    1910.4103 
  376000    250.35669   -4857.0001   -4356.2558   -4857.0001            0    7117.6759    17.846255    23.146216     19.20648  0.005832104   -6.3044852  0.072365039    7933.6831    5759.1564    7520.1244    8073.7469    140.35382   -344.83216    1665.8148 
  376500    254.24454   -4808.2299   -4299.7094   -4808.2299            0    8338.1649    18.042914    22.452895    19.528283  -0.30666166   -6.8258367   0.29757376     7911.213    8077.7684    10268.935    6667.7916   -34.893716    310.29995   -208.71211 
  377000     234.6477   -4862.5015   -4393.1771   -4862.5015            0    7192.8698    17.910043    23.095255    19.197982 -0.071690077   -6.4580198 -0.028000557     7940.996    7000.4468    6957.0036     7621.159    675.51453   -555.02582   -19.762587 
  377500    238.51913   -4835.6118    -4358.544   -4835.6118            0    6314.6232    18.239508    22.665988    19.420496  -0.16298356   -6.4468223   0.16657673    8028.7534    6759.9023    5278.0996    6905.8677    1465.2084   -943.54061   -348.26028 
  378000    246.90331   -4852.2228   -4358.3856   -4852.2228            0    7389.1036    17.642132    23.378723    19.289672   0.37266636   -6.3610464  0.063603623    7956.0354    9960.2293    5235.0915    6971.9901    71.275624   -815.46996   -1005.4299 
  378500    243.42792   -4877.0599    -4390.174   -4877.0599            0    6803.7761    18.081944    22.549291    19.512524  -0.30300265   -6.5490977   0.19613025    7955.9393    6329.6381    8906.4693    5175.2208    -38.96613    283.64389    5.1729514 
  379000    254.92254   -4865.7027   -4355.8262   -4865.7027            0    7682.1065    17.925063    23.020475    19.276542 -0.038610561   -6.4524421  -0.12136853    7954.3395    7966.9236    8070.3083    7009.0875   -631.31207   -371.49329    1143.5475 
  379500    253.15774   -4867.9224   -4361.5756   -4867.9224            0    7459.6159    18.217541     22.65355    19.282252  -0.45628135    -6.904289   0.33544038    7957.6304    7521.0613     7026.186    7831.6004    1740.0901    748.32265   -1041.2888 
  380000    243.92458   -4868.3264   -4380.4471   -4868.3264            0     6656.503    17.931136    23.051999    19.210538   0.23738942   -6.2442999   0.14143478    7940.6475    6685.1139    7056.7994    6227.5958    150.38262    146.93157    16.120871 
  380500    259.27625   -4855.2198   -4336.6353   -4855.2198            0    7528.2785     18.17268    22.632471    19.345984  -0.54765986   -6.7041495   0.27924702    7956.8613    6289.0797    8673.8331    7621.9226    1416.8135    807.68794   -109.44592 
  381000    235.08988   -4838.9869   -4368.7781   -4838.9869            0    7325.1416    17.783582    23.167082    19.254263  0.068446991    -6.375316  -0.28792824    7932.6349    7465.0667    6252.1517    8258.2064    336.10332   -576.21241    608.75997 
  381500    257.58189   -4832.7344   -4317.5388   -4832.7344            0    8049.2269    18.111842    22.625779    19.437966  -0.15781006   -6.5073044   0.19278054    7965.5725    6207.1527    9177.8467    8762.6814    149.16299    754.39518    -1100.655 
  382000    230.26974   -4830.9772   -4370.4093   -4830.9772            0    8331.0257    17.944172    23.223671    19.052651  0.092294019   -6.7844157   0.18389894    7939.8024    7870.6568    7398.7635    9723.6568     -1801.72    560.49577   -11.821669 
  382500    268.02548   -4820.9461   -4284.8621   -4820.9461            0    7136.4736     18.11954    22.732993    19.433134  -0.34384818    -6.263227   0.10231397    8004.7288    6243.7706    8440.3304    6725.3197    117.07745   -638.62904    1648.4523 
  383000    260.53648   -4834.9251     -4313.82   -4834.9251            0    7402.7433    17.970998    23.100143     19.29043   -0.1082923   -6.6970097  -0.15817162     8008.087    6845.8208    8023.4311    7338.9779   -1308.4665    1084.1403    451.71044 
  383500    250.18474   -4823.3973   -4322.9969   -4823.3973            0     5826.672    18.148427    22.825438    19.337132  -0.28985829   -6.2729324   0.17285482    8010.3259     6282.447    5083.4181     6114.151    324.41015    524.92415   -292.50021 
  384000    238.63299   -4858.8751   -4381.5797   -4858.8751            0    6737.3683    18.057807    22.967596    19.282055   0.20490963   -6.5813603  0.038986796    7997.1246    5285.2901    7074.2672    7852.5476    770.11604    388.75001    1661.7041 
  384500    252.34957   -4856.8101   -4352.0798   -4856.8101            0    5833.6095    18.017093    22.974295    19.292915  -0.40031683   -6.6126597   0.16235209     7985.916    5974.4454    4903.3794    6623.0038    836.84974   -114.97108    140.80075 
  385000    236.87351   -4834.3617   -4360.5854   -4834.3617            0    6896.7125    17.990934    22.808472    19.412848 -0.054135041   -6.2154063 -0.044986964    7965.9791    8220.7249    6674.8407    5794.5719   -229.88711   -531.25564    305.03558 
  385500     249.8668   -4865.0854    -4365.321   -4865.0854            0    9189.0607    17.877916    22.971793    19.243321  -0.14947729   -6.6540446   0.27118535    7902.9971    10404.199    8573.9844    8588.9992    69.192893   -153.19278    258.94954 
  386000    229.96563   -4833.5895   -4373.6299   -4833.5895            0    8933.5582    18.036938    22.697814    19.326735  0.046920651   -6.2269728 -0.00013447412    7912.3474    11293.863    8186.8789    7319.9326    -1775.242   -963.13429    727.65229 
  386500    255.24341   -4843.3414   -4332.8231   -4843.3414            0    6802.8304    17.933597    23.183888     19.18632  -0.44129934   -6.6847101   0.29976413    7977.1059    8929.9653    5439.7149    6038.8111    261.76397    1210.5957   -997.21811 
  387000    252.61534   -4859.0704   -4353.8085   -4859.0704            0    7816.7786    17.973398    22.890756    19.318107 -0.080829934   -6.4533819 -0.020227494    7947.9458     9129.427    7584.8667    6736.0419   -1295.7149    585.09893    429.00697 
  387500    240.54178   -4835.0634   -4353.9501   -4835.0634            0    7004.9342    17.930745    22.850358    19.479625  -0.19272263   -6.5169994  -0.03436562    7981.2686    7125.2858    7099.6123    6789.9043    471.16107    810.85963    480.87124 
  388000    245.67714   -4876.2814   -4384.8967   -4876.2814            0    7312.0419    18.034531    22.933642    19.157572 -0.042339189   -6.7254446   0.24663797    7923.5233    6608.2891    6932.4492    8395.3872   -1121.0479   -979.08827   -781.39562 
  388500    252.36159   -4880.5184   -4375.7641   -4880.5184            0    9273.4872     17.98386    22.698375    19.311209 -0.051411521   -6.4578003   0.09136413    7882.9208    9767.0725    9785.7216    8267.6675   -213.78669     358.0723    1106.0584 
  389000    244.55323   -4850.7944   -4361.6577   -4850.7944            0    6682.1289    17.855807    23.113118     19.36258  -0.34347006   -6.3841218  0.072475272    7991.0017    7927.4846    5588.8018    6530.1002    1006.5741   -39.572741   -8.1787855 
  389500    247.25636   -4856.4244   -4361.8812   -4856.4244            0    6814.9647    18.083322    22.656463    19.444085  0.079377182   -6.7014658 -0.0069553627    7966.3215    6091.0427    8191.1789    6162.6726   -542.38349   -492.84932   -864.06275 
  390000    243.65846   -4870.8182   -4383.4711   -4870.8182            0    6782.1674    17.964368     23.00192    19.288094  -0.29205429   -6.3502073   0.30183554    7970.1287    6263.4141    7013.9163    7069.1717    232.77027    -333.9101   -675.92217 
  390500    252.14058   -4829.5893    -4325.277   -4829.5893            0     8289.278    18.108417    22.663213    19.326229   0.25319672   -6.6464542  -0.10357319    7931.3862    8595.6845    8584.0007    7688.1488    -281.9481    785.83496   -620.05825 
  391000    250.51569   -4825.0149   -4323.9525   -4825.0149            0    8964.7436    17.854051    22.895766    19.317803   -0.3622025   -6.5145666   0.23379141    7896.7733    10147.974    8458.2527    8288.0041    880.44291    -1192.879   -501.55253 
  391500    253.76315   -4827.6275   -4320.0699   -4827.6275            0    6877.3943    18.044602    22.822144    19.402049   0.15291267   -6.4007016   0.05534436    7990.0837    5518.9508    8423.6637    6689.5683   -718.34221    1082.4727    545.77475 
  392000    233.62417   -4880.5071   -4413.2299   -4880.5071            0    6140.6187    17.991513    23.051181    19.279449   -0.4390007   -6.2483937   0.12042807    7995.6818    5028.4615    7551.1325     5842.262     1579.937   -90.514867    501.12974 
  392500    233.86805   -4852.3028   -4384.5378   -4852.3028            0    6240.9392    18.115151    22.833416    19.354646 -0.010815171   -6.6546354 -0.037628771    8005.6775    4459.7589     6659.242    7603.8166   -413.33034   -581.55103   -496.63549 
  393000    252.89099   -4860.7589   -4354.9457   -4860.7589            0    5971.3425    17.966486    22.952788    19.399922  -0.36551581   -6.2841025    0.3413335    8000.1578    7532.9822    5808.5619    4572.4834    420.70117    244.82321   -629.22747 
  393500    255.78648   -4827.0029   -4315.3983   -4827.0029            0    7899.3262    17.850144    22.960607    19.451699   0.14095963   -6.3305213 -0.092214847    7972.2816    8154.6298    7603.1249    7940.2239   -1733.9868    -475.7346    603.59052 
  394000    244.98697   -4859.2959   -4369.2917   -4859.2959            0     8010.219     18.03515    22.931738    19.230328  -0.28576517   -6.5360169   0.16151868     7953.228     7288.989    8489.7581    8251.9098    107.77442    583.42754    405.90845 
  394500    250.29923   -4863.9241   -4363.2947   -4863.9241            0    8713.3069    18.021435    22.768187    19.279019   0.19352625   -6.4710555   0.18392695    7910.4784    9785.3232    7651.2728    8703.3249   -1066.1127   -1680.0424   -583.90304 
  395000    259.04658   -4858.4753   -4340.3502   -4858.4753            0    8203.1772    17.859034    22.994384    19.295142  -0.40749764   -6.6239497   0.26434332    7923.6946    8446.9172    7733.0064    8429.6082    348.65123   -308.64641   -1582.7463 
  395500    245.55886   -4857.5424   -4366.3943   -4857.5424            0    6991.1525    17.961229    22.817323    19.475393  -0.18713523   -6.3019591  -0.19858496    7981.5451    8968.8057    6542.4697    5462.1822   -838.02044   -253.52697    469.60171 
  396000    247.01515   -4854.1599   -4360.0991   -4854.1599            0    7864.1889     18.03926    22.901827    19.200086  -0.26386309   -6.6607678   0.12304327    7932.1702     8931.394    6793.7815    7867.3912   -85.261334    453.68359    2253.4485 
  396500    241.74788    -4850.993   -4367.4674    -4850.993            0    6795.9321     18.04454    22.939009    19.262591   0.17642176   -6.3290956   0.22398246    7973.2459    6347.2962     6744.735    7295.7652   -405.25323   -219.73195    -361.8697 
  397000    236.18118   -4823.2515     -4350.86   -4823.2515            0    6934.1564    17.941447     22.96316    19.428505  -0.18268236   -6.4598691    0.1813579    8004.3947     7384.432    6978.2849    6439.7524    308.89668   -141.66558    564.71207 
  397500    261.46191   -4841.8462   -4318.8901   -4841.8462            0    6949.6439    18.005108    22.874193    19.414227  -0.24154323   -6.6688562  -0.10477184    7995.7944     6242.063    7228.1427     7378.726    1225.7786    276.50702    1440.8757 
  398000    242.25824   -4856.3761   -4371.8297   -4856.3761            0    5305.9726    17.902371    23.043276    19.370818  -0.27738847   -6.1888373   0.18926819    7991.0295    5631.4902    5158.4335     5127.994   -657.51878   -1163.5098   -378.73675 
  398500    264.61788   -4851.6933   -4322.4248   -4851.6933            0    7224.7248    18.116099    22.802314    19.347704   0.16645037   -6.7033032    0.2194943    7992.3234    6989.0525    7407.6954    7277.4267   -591.49031    237.17645    -1084.689 
  399000    241.36588   -4879.4292   -4396.6676   -4879.4292            0    5455.2281    18.151394    23.011658    19.138167  -0.34621432   -6.3439235    0.0856293    7993.8909    4664.0652    5280.2478    6421.3713    833.99502    258.09128   -283.18853 
  399500    252.02354    -4865.284   -4361.2058    -4865.284            0    7134.6478    18.007482    22.925724    19.340717   -0.1635824   -6.4337279  0.019872138    7984.5163     9738.138    6608.1912    5057.6143    966.81824   -692.56714   -151.81974 
  400000    232.78191   -4835.2683   -4369.6757   -4835.2683            0    9119.2756    17.844173    22.894986    19.372663  -0.08618732   -6.5815212   0.11767643    7914.5481    9130.5517     9448.725    8778.5501    1142.0905    766.11662    -665.7193 
  400500    249.17803   -4858.1755   -4359.7887   -4858.1755            0    6886.3488     17.86733    22.839288    19.495819   0.13780546    -6.308961    0.2144811    7955.7968    5807.7619    8107.7662    6743.5183   -866.14324    557.43873   -1289.2199 
  401000    255.27911    -4869.519   -4358.9292    -4869.519            0    7953.6885    17.978058     22.87384    19.388391 -0.033339149   -6.6641127   0.06670228    7973.0339    9234.1747    7095.1707    7531.7203   -847.42216    261.24321   -618.54458 
  401500    252.94772   -4858.0455   -4352.1188   -4858.0455            0    4395.7957    18.177757    23.165381    19.165005  -0.31479781   -6.2890806   0.10893091    8070.2814    4422.2148    3197.8087    5567.3636   -493.44702   -400.06964   -467.17728 
  402000    254.09969   -4862.7147   -4354.4839   -4862.7147            0    7597.4575    18.118653      22.9317    19.169115 -0.044163331   -6.5103998  0.039249794     7964.605    7347.9347    7893.4432    7550.9947   -273.19772    138.53719   -1466.7604 
  402500    255.54463    -4826.405   -4315.2842    -4826.405            0    9363.5441    17.900034    22.712326    19.448788  -0.11292727   -6.5588836   0.35385712    7906.9321    10031.265    9840.3559    8219.0111     184.3349    851.06473   -87.471461 
  403000    251.02356   -4869.4028   -4367.3247   -4869.4028            0    7906.5647    17.844812    22.943103    19.368051   0.06860195   -6.3439684  0.069277417    7929.5774    7965.5951    8050.0427    7704.0564   -229.12027   -150.27243   -1309.2442 
  403500    264.58772   -4857.5017   -4328.2936   -4857.5017            0    8281.0609    18.158555    22.689754    19.328217  -0.45217688    -6.807501   0.12228375    7963.4797    8189.4365    8913.7853     7739.961    660.97247    155.23783   -138.46367 
  404000    238.09886   -4852.2154   -4375.9883   -4852.2154            0    8143.4518      18.0718    22.931621    19.199744  -0.12929417   -6.4899248  0.053142362    7956.6744    8698.4425    6968.5908    8763.3219   -181.87376    34.251656   -544.22202 
  404500      241.562   -4868.8298   -4385.6759   -4868.8298            0    8166.7834    18.096578    22.764207    19.370272 -0.022353854   -6.6809956   0.16818373    7979.6658    6570.7899    8725.4341    9204.1261   -991.64441    374.49707   -1717.7122 
  405000    252.56302   -4858.2533    -4353.096   -4858.2533            0    5506.7007    17.743674     23.19251    19.442567   -0.2018846    -6.459797  -0.10956527     8001.012    5209.2595    5796.2329    5514.6096    2114.6088    400.90716    1507.5305 
  405500    242.65429   -4814.0401   -4328.7015   -4814.0401            0    7379.4291    18.006685    22.775142    19.496431   -0.1566712    -6.488834   0.20873801    7995.5802    10125.748    6548.9214    5463.6184   -803.85808    679.21278    900.51699 
  406000     260.7256   -4856.7377   -4335.2543   -4856.7377            0    8849.5514    17.955414    23.065259    19.140232   0.11262899    -6.613148   0.28288367    7926.8556    8738.4523    8479.3728    9330.8289   -83.885782    1237.5483   -593.87825 
  406500    258.64429   -4847.4335    -4330.113   -4847.4335            0    5256.6822    18.144614    22.803862    19.448687  -0.27097172   -6.2140907  -0.14694567    8047.2301    4944.1988    5146.1564    5679.6915   -108.96948   -541.60622      680.111 
  407000    243.89091   -4865.6974   -4377.8854   -4865.6974            0    7743.8521    17.950493    22.864431    19.326637 -0.064787807   -6.5477024   0.12498583    7932.1892    7020.1885    7958.8347     8252.533   -578.47871   -155.98067    146.85428 
  407500    255.32958   -4829.9732   -4319.2825   -4829.9732            0    9275.6592     17.84854    22.827477    19.448196   0.24807262   -6.2602264   0.29345172    7923.9172     11112.68    8390.6961    8323.6013    -484.2255    974.52129   -819.65243 
  408000    246.41719    -4841.531   -4348.6661    -4841.531            0    7269.6883    17.909067    23.004714    19.366026  -0.26199399   -6.1718539  -0.12444623    7978.6661    7361.1931    6621.7261    7826.1459    947.76027     31.66004    2253.7684 
  408500    246.62682   -4861.3211    -4368.037   -4861.3211            0    5468.5624    18.147979    22.825918    19.327332  -0.21518809   -6.7070769 -0.026477073    8006.2368    6092.7061    5414.8973    4898.0839    595.34195   -820.09463   -87.715935 
  409000    248.94885   -4838.1799   -4340.2514   -4838.1799            0    6504.1135    18.040381     22.96051    19.359336 -0.074925942   -6.2817445   0.14611046    8018.9536    5655.2131    7020.9961    6836.1313   -1505.7708   -270.85557    -582.4112 
  409500    258.00818   -4836.2896   -4320.2413   -4836.2896            0    6493.8159    17.908756    22.946514    19.490494 0.0073787685    -6.578089   0.21225762     8009.492     6274.551    6959.2149     6247.682     354.2064    528.48476   -1224.4733 
  410000    241.51376   -4845.8368   -4362.7794   -4845.8368            0     6333.633    17.888262    23.020201    19.387772  -0.29148567   -6.3597604  0.030664138    7983.7176    8130.5165    4717.9913    6152.3913   -400.69139   -359.28143   -795.19747 
  410500    246.91591   -4856.0681   -4362.2058   -4856.0681            0    7425.8808    18.036704    22.905406    19.228095  -0.23899127   -6.3498146 -0.065107886    7943.8572    5887.3404     7585.589     8804.713      991.248    49.799353   -586.24813 
  411000    261.73909   -4863.0961   -4339.5855   -4863.0961            0    7196.0345    18.083929    22.735357     19.34445  -0.17757552    -6.565649   0.25729588     7953.366    7322.1384    7858.1547    6407.8103    -4.027613   -63.770874   -393.15754 
  411500    254.04741   -4842.7593   -4334.6331   -4842.7593            0    8880.6063    17.818892    23.028473      19.2971  0.027914705   -6.3513035   0.22492052    7918.4083     10193.41    8452.7944    7995.6145    199.13544    240.93544     460.9502 
  412000    256.77537   -4834.1074   -4320.5249   -4834.1074            0    8730.1784    17.975802     22.70097    19.438419  -0.30531743   -6.5803109   0.15105479    7932.1993    8534.5938     9521.275    8134.6665    186.82787    696.26464   -659.49836 
  412500    268.83567   -4839.1905   -4301.4859   -4839.1905            0    7071.6641    18.045145    23.078764    19.117242 -0.092987072   -6.2128913  -0.25656889      7961.56     5408.997    7130.1401     8675.855    288.57538   -106.33828    912.69982 
  413000    237.04678   -4872.7807   -4398.6579   -4872.7807            0    6999.7003    18.114938     22.65385    19.360002  -0.46208404   -6.5240652   0.28985133    7944.8238    7065.7205    6520.4812    7412.8993    614.23315   -1086.5537   -18.073691 
  413500    246.96289   -4837.2221   -4343.2659   -4837.2221            0     8743.925    17.816489    23.057871    19.296241   0.10186487   -6.6546639  0.054217402    7927.0947    8836.1072    8866.6715    8528.9964   -236.15227     1616.136   -207.48151 
  414000    248.52761   -4867.2699   -4370.1839   -4867.2699            0    8005.8019    18.028494    22.547988    19.541198  -0.33906333   -6.1104937   0.25822449    7943.6195     8029.395    8589.7291    7398.2815    1288.4347    340.56025   -1761.7879 
  414500    239.23805   -4859.8312   -4381.3256   -4859.8312            0    8242.5659    17.912724    23.134302    19.129584 -0.020128026   -6.8430051  0.031284638    7927.2686    8244.8088    6310.3207    10172.568   -456.35903    247.22979   -73.173307 
  415000    244.45906   -4836.3707   -4347.4224   -4836.3707            0    7562.0405    18.277949    22.625299    19.255015  -0.36590612   -6.1168218   0.17528172    7962.7969    5667.2744    8615.9864    8402.8608    396.54691   -199.48182    930.01013 
  415500    247.20271   -4858.7517   -4364.3158   -4858.7517            0    7858.2799    17.977693      22.9232    19.225221  0.004022536   -6.6088536  0.044710065     7922.834    8050.7176    7000.2013     8523.921   -795.64555   -551.61513   -695.47867 
  416000    248.44066   -4819.1676   -4322.2555   -4819.1676            0    8732.5124    17.866642    22.728172    19.524684  -0.27661897   -6.3391662   0.41685667    7928.5078    8445.8321    8828.7627    8922.9423   -987.97176    786.46338   -1066.0885 
  416500    251.33455   -4825.1675   -4322.4673   -4825.1675            0    7960.9098     17.85531    22.989847    19.369941  0.050214456   -6.0396766  -0.24506422    7951.1836    10455.197    7715.0428    5712.4894   -629.74153   -397.53545    575.22714 
  417000    257.39123   -4870.2307   -4355.4164   -4870.2307            0     8878.281    18.083727    22.743334    19.185022  -0.31319247    -6.921105   0.23980235    7890.4969    7945.2505    9600.5799    9089.0126    428.81392    1287.3865   -254.52655 
  417500     261.7062   -4808.6518   -4285.2071   -4808.6518            0    8518.8101    17.931959    23.041414    19.221108 -0.0056997834   -6.1973271  0.060199925    7941.7331    7304.4826    8143.5147    10108.433   -560.75015   -372.84682   -504.33261 
  418000    244.16667   -4838.1482   -4349.7847   -4838.1482            0    8247.9984    18.001904    22.836046    19.455194  -0.20859499   -6.9236116   0.15256094    7997.8805    9037.2158    8977.0675    6729.7119    1209.7234    2360.3643    818.28223 
  418500     250.3009    -4849.571   -4348.9383    -4849.571            0    6399.6358    18.007182    22.907551    19.352881  -0.30632974   -6.1172416 -0.092029468    7983.0719    6843.9257    5397.6658    6957.3157    809.65495    -1165.747     448.5961 
  419000    240.66875   -4818.6867   -4337.3195   -4818.6867            0    6849.1088    18.114741    23.041037    19.179266 -0.077486602    -6.496349  0.083177503     8005.088    5531.7936    6786.6526    8228.8802    276.52135   -61.690701   -1511.3075 
  419500    245.64781   -4853.6619   -4362.3359   -4853.6619            0    7835.9545    18.090714    22.891444    19.237922 -0.084858095   -6.6326634   0.21066448    7966.8574    8938.2633    7303.7088    7265.8914    1220.3208   -591.62013   -1006.2854 
  420000    255.63493   -4857.0281   -4345.7266   -4857.0281            0    6562.5529    17.844495    22.877979    19.482713 -0.088679123   -5.9163142   0.11286716    7953.7395    6481.7885    6479.4576    6726.4126    377.29929   -1277.1843   -263.92271 
  420500    250.89571   -4859.7574    -4357.935   -4859.7574            0    8909.5256    17.924193     22.80236    19.368499   -0.1978124    -6.891569  0.089189949    7916.1748    9190.1865    8387.4571    9150.9331    800.81045   -639.43384     1028.863 
  421000    254.12146   -4816.9133    -4308.639   -4816.9133            0    8724.3976    17.956328    22.945286    19.308322  -0.13682279   -6.2627077  0.034461685    7955.2812    8956.0385    8539.8277    8677.3267    1228.3259    568.22259    1026.4033 
  421500     247.6485   -4819.8729   -4324.5453   -4819.8729            0    9369.7702    18.053039    22.711897    19.248657   0.01060147   -6.4005117   0.15162149    7892.3105    8396.2951    10030.041    9682.9748    361.77643   -428.46635    1590.7749 
  422000    251.20079   -4822.5693   -4320.1367   -4822.5693            0    8236.1965    17.993005    22.999128    19.237553 -0.078907784   -6.6626654   0.22635127    7960.9503    8384.4693    7792.6614    8531.4588      325.339    408.86362    22.604725 
  422500     248.7712   -4852.4026   -4354.8295   -4852.4026            0    6955.5752    17.931905    22.810691    19.472992  -0.25165856   -6.3090186 -0.038064646    7965.2162    7823.2562    7850.6391    5192.8304   -618.16481    896.48392    3.3137975 
  423000    259.80131   -4827.3746   -4307.7399   -4827.3746            0    7768.8526    17.932251    22.912106    19.375071  -0.34182722   -6.5737709 0.0075423433    7960.5509    7576.6991    8593.1755    7136.6833    1066.8305    616.94714    1617.9095 
  423500    254.87231   -4855.7238   -4345.9477   -4855.7238            0    6245.1197    17.964464    22.973873    19.323699  0.026391716   -6.5716307   0.13611831    7975.1476    6243.2581    5922.0434    6570.0575   -593.57226   -694.94916   -633.60225 
  424000    247.66644   -4857.6447   -4362.2812   -4857.6447            0    7838.3531    18.086227    22.889666    19.215252   0.04996443   -6.3532545     0.333564    7954.8779    8750.3924    8025.5081    6739.1589   -2611.6866    115.99872   -1756.4811 
  424500     252.6175   -4843.7394   -4338.4732   -4843.7394            0    7954.1993    18.039062    22.825103    19.316494   -0.1194039   -6.7332297  0.051859453    7953.4396    7337.4213    8308.3987    8216.7778   -613.98889    240.90105    965.41103 
  425000    245.70095   -4845.4832   -4354.0509   -4845.4832            0    6020.3259    17.905044    22.782199    19.566117  -0.20361846   -6.3131544 -0.090135456    7981.3374    6058.3905    5743.6075    6258.9798   -429.32301   -413.84935   -787.13096 
  425500    258.55037   -4877.4832   -4360.3505   -4877.4832            0    5319.0326    17.942157    23.008174    19.365756 -0.074140678   -6.6897915   0.25543725    7994.4992    5874.8485    4733.8841    5348.3652   -976.81376   -737.85762   -200.40568 
  426000    232.19513   -4836.2538   -4371.8348   -4836.2538            0    7851.6447    18.152402    22.750936    19.312739 -0.072537182   -6.6293282   0.17317566     7975.855     7304.084    8239.4419     8011.408     211.8148   -24.610443   -412.43462 
  426500    248.96672   -4842.0637   -4344.0995   -4842.0637            0    7966.8264    17.959454    22.989823    19.219188  -0.27156672   -6.2438872  -0.13808299    7935.3083     6648.584    7756.8932    9495.0019    844.62621   -732.70942    2294.8882 
  427000    247.32077    -4860.368   -4365.6959    -4860.368            0    7101.4986    17.914972    22.663472    19.558593 -0.045970413   -6.8016232 0.0026060582     7941.091    8310.0143    7788.1587    5206.3229    8.0501695   -333.46999    1857.6182 
  427500    243.27266   -4820.7576   -4334.1823   -4820.7576            0    8233.8443    17.890257    22.899175    19.369562 -0.064354605   -6.4097539   0.16006642    7935.1694    10302.475    8127.3842    6271.6741   -1370.2171   -772.26373   -160.84015 
  428000    258.41353   -4844.4541   -4327.5951   -4844.4541            0    8662.4125    18.174889    22.729608    19.167772  0.058810469   -6.7396747   0.17670479    7918.3621    8178.1427    8868.7354    8940.3595   -926.71271    816.45912   -112.77465 
  428500    249.71055   -4850.2692   -4350.8173   -4850.2692            0    7894.2217    18.038392     22.97088    19.199546  -0.15500645   -6.3515301  0.093156652    7955.4805    6437.5321     8502.097     8743.036    1662.2499    352.73354   -1982.8408 
  429000    242.46416   -4851.4025   -4366.4442   -4851.4025            0    6862.6527    17.924565     22.82556    19.491973  -0.35127742   -6.4394101  -0.29220244    7974.9114    7301.0216    6627.9593    6658.9771    1029.4701   -161.02468    2747.0069 
  429500    247.25641   -4855.2032   -4360.6598   -4855.2032            0    6807.9648    17.975948    22.854213    19.411439  -0.28166482   -6.5946425   0.15225111    7974.7267    7890.0132    8012.1909    4521.6904    828.92054    505.24462       -205.1 
  430000    243.89185   -4853.1994   -4365.3856   -4853.1994            0    5043.4821    18.040379    22.999869    19.409017   0.25148954   -6.2147607   0.22339944    8053.3127     3724.831    6354.6304    5050.9849   -2021.9946   -224.03393   -1733.9175 
  430500    246.90365   -4848.0712   -4354.2334   -4848.0712            0    6464.3631    18.063712    22.951355     19.26907  -0.23562018   -6.4988273   0.24503503    7988.6997    4752.2629    6834.2038    7806.6226     365.7966   -384.69009   -619.71369 
  431000    252.61397   -4834.8243   -4329.5651   -4834.8243            0    5805.2657    17.979091    22.971014    19.427282 -0.045504158   -6.4529916  -0.11062482     8023.428    5492.9082    5650.5241    6272.3646   -652.53882   -99.399673   -692.87873 
  431500    245.31506   -4828.1647   -4337.5043   -4828.1647            0     7248.257    17.897229    22.895061    19.443102  -0.68477675   -6.2341482   0.18731033    7966.9693    7839.6516    7553.6071    6351.5125    2607.6535    70.996257     232.2641 
  432000    245.49206   -4835.9482   -4344.9338   -4835.9482            0    7613.2495    18.027325    22.915454    19.251978   0.21741682   -6.6634733 -0.027182848    7953.0756    9727.1529    6570.7529    6541.8427   -1500.9135   -1014.7381    1704.9258 
  432500    250.30942   -4877.1065   -4376.4567   -4877.1065            0    7784.9369    18.020125    22.769846    19.382096  -0.21993508   -6.3239885   0.41712484    7952.7734    5666.5518    8350.6758    9337.5831    445.78797    -725.3863   -122.57936 
  433000    270.03344   -4883.0696   -4342.9694   -4883.0696            0    7868.4348    17.894068    22.931424    19.383593 -0.0088945849     -6.49529   -0.1777332     7953.795    9376.9465    7368.5413    6859.8166   -957.01474    1030.5785    616.69193 
  433500    251.11389   -4869.3361   -4367.0773   -4869.3361            0    9085.4286    17.944721    22.864967    19.284694  -0.45056536   -6.6041332    0.1736119    7912.6153    9172.6391    8786.7667      9296.88    1287.7132    1121.4117    201.30037 
  434000    248.29356   -4833.4482   -4336.8304   -4833.4482            0    8559.4941    18.000376    22.828725    19.357308   0.27515234   -6.3431087   0.14473464    7954.4142    9030.3557    9044.2722    7603.8543   -708.14085    524.96588    462.95404 
WARNING: Wall time limit reached (../timer.cpp:235)
Loop time of 3303.28 on 32 procs for 434000 steps with 1008 atoms

Performance: 22.703 ns/day, 1.057 hours/ns, 131.384 timesteps/s
3186.0% CPU use with 1 MPI tasks x 32 OpenMP threads

MPI task timing breakdown:
Section |  min time  |  avg time  |  max time  |%varavg| %total
---------------------------------------------------------------
Pair    | 218.77     | 218.77     | 218.77     |   0.0 |  6.62
Bond    | 26.48      | 26.48      | 26.48      |   0.0 |  0.80
Kspace  | 1384.1     | 1384.1     | 1384.1     |   0.0 | 41.90
Neigh   | 12.156     | 12.156     | 12.156     |   0.0 |  0.37
Comm    | 109.19     | 109.19     | 109.19     |   0.0 |  3.31
Output  | 2.4044     | 2.4044     | 2.4044     |   0.0 |  0.07
Modify  | 1546.7     | 1546.7     | 1546.7     |   0.0 | 46.82
Other   |            | 3.554      |            |       |  0.11

Nlocal:        1008.00 ave        1008 max        1008 min
Histogram: 1 0 0 0 0 0 0 0 0 0
Nghost:        8471.00 ave        8471 max        8471 min
Histogram: 1 0 0 0 0 0 0 0 0 0
Neighs:        336510.0 ave      336510 max      336510 min
Histogram: 1 0 0 0 0 0 0 0 0 0

Total # of neighbors = 336510
Ave neighs/atom = 333.83929
Ave special neighs/atom = 2.0000000
Neighbor list builds = 15326
Dangerous builds = 0

unfix		3
unfix		2
unfix		1

write_data	data.final.${pid}
write_data	data.final.0
System init for write_data ...
PPPM initialization ...
  extracting TIP4P info from pair style
  using 12-bit tables for long-range coulomb (../kspace.cpp:340)
  G vector (1/distance) = 0.37805051
  grid = 24 27 32
  stencil order = 5
  estimated absolute RMS force accuracy = 0.0026137946
  estimated relative force accuracy = 7.8713648e-06
  using double precision FFTW3
  3d grid and FFT values/proc = 46002 20736
Last active /omp style is kspace_style pppm/tip4p/omp
WARNING: Not all mixed pair coeffs generated from mixing. Use write_data with 'pair ij' option to store all pair coeffs. (../write_data.cpp:312)

write_restart   restart.lmp.${pid}
write_restart   restart.lmp.0
System init for write_restart ...
PPPM initialization ...
  extracting TIP4P info from pair style
  using 12-bit tables for long-range coulomb (../kspace.cpp:340)
  G vector (1/distance) = 0.37805051
  grid = 24 27 32
  stencil order = 5
  estimated absolute RMS force accuracy = 0.0026137946
  estimated relative force accuracy = 7.8713648e-06
  using double precision FFTW3
  3d grid and FFT values/proc = 46002 20736
Last active /omp style is kspace_style pppm/tip4p/omp
Total wall time: 0:55:03
