#include		in.partitions
include		in.temp
variable        temperature equal 87.85
variable	tempDamp equal 100.0
include		in.pressure
variable        pressure equal 1418.8
variable        pressureDamp equal 1000.0 # This is 1 ps
include		in.seed
variable        seed equal 745823

units		real
atom_style	full
box tilt large
read_restart	restart.lmp.${pid}
read_restart	restart.lmp.0
Reading restart file ...
  restart file = 30 Jul 2021, LAMMPS = 30 Jul 2021
  restoring atom style full from restart
  triclinic box = (-10.614496 -9.2532628 0.13884631) to (12.594496 12.243261 21.721153) with tilt (-9.2337237 1.6038094 3.0132998)
  4 by 4 by 4 MPI processor grid
  restoring pair style lj/cut/tip4p/long/omp from restart
  restoring bond style harmonic/omp from restart
  restoring angle style harmonic/omp from restart
  1296 atoms
  864 bonds
  432 angles
Finding 1-2 1-3 1-4 neighbors ...
  special bond factors lj:    0        0        0       
  special bond factors coul:  0        0        0       
     2 = max # of 1-2 neighbors
     1 = max # of 1-3 neighbors
     1 = max # of 1-4 neighbors
     2 = max # of special neighbors
  special bonds CPU = 0.005 seconds
  read_restart CPU = 0.013 seconds
include 	in.setup
variable	out_freq equal 1000
variable	out_freq2 equal 10000
variable	out_freq3 equal 1000

timestep	2.0

neigh_modify    delay 7 every 1

include		in.tip4p
# This is TIP4P/Ice

# create groups ###
group ox type 2
432 atoms in group ox
group hy type 1
864 atoms in group hy

# set charges - beside manually ###
set group ox charge -1.1794
Setting atom values ...
  432 settings made for charge
set group hy charge 0.5897
Setting atom values ...
  864 settings made for charge

# ### TIP3P Potential Parameters ###
pair_style lj/cut/tip4p/long/omp 2 1 1 1 0.1577 8.5
pair_coeff 1 1*2 0.000 0.000
pair_coeff 2 2 0.21084 3.1668
bond_style  harmonic
bond_coeff  1 450 0.9572
angle_style harmonic
angle_coeff 1 55 104.52
kspace_style pppm/tip4p/omp 1.0e-5
pair_modify tail yes

thermo          ${out_freq}
thermo          1000
thermo_style    custom step temp pe etotal epair emol press lx ly lz vol pxx pyy pzz pxy pxz pyz enthalpy

restart 	${out_freq3} restart.lmp.${pid} restart2.lmp.${pid}
restart 	1000 restart.lmp.${pid} restart2.lmp.${pid}
restart 	1000 restart.lmp.0 restart2.lmp.${pid}
restart 	1000 restart.lmp.0 restart2.lmp.0


include         in.dump
dump            myDump all atom ${out_freq2} dump.water.${pid}
dump            myDump all atom 10000 dump.water.${pid}
dump            myDump all atom 10000 dump.water.0
dump            myDump2 all dcd ${out_freq2} dump.dcd
dump            myDump2 all dcd 10000 dump.dcd
dump_modify     myDump append yes
dump_modify     myDump2 append yes


variable natoms 	equal  "count(all)"                        # NUMBER ATOMS
variable H      	equal  "enthalpy/v_natoms"                 # ENTHALPY-per-atom
variable Vol      	equal  "vol/v_natoms"                 # volume-per-atom
fix AVG all 		ave/time ${out_freq} 1 ${out_freq} v_Vol v_H file vol_enthalpy.dat
fix AVG all 		ave/time 1000 1 ${out_freq} v_Vol v_H file vol_enthalpy.dat
fix AVG all 		ave/time 1000 1 1000 v_Vol v_H file vol_enthalpy.dat


timer           timeout 10:00:00 every 1000
New timer settings: style=normal  mode=nosync  timeout=10:00:00

fix 		1 all shake 1e-6 200 0 b 1 a 1
       0 = # of size 2 clusters
       0 = # of size 3 clusters
       0 = # of size 4 clusters
     432 = # of frozen angles
  find clusters CPU = 0.001 seconds
fix             2 all nph tri ${pressure} ${pressure} ${pressureDamp}
fix             2 all nph tri 1418.8 ${pressure} ${pressureDamp}
fix             2 all nph tri 1418.8 1418.8 ${pressureDamp}
fix             2 all nph tri 1418.8 1418.8 1000
fix             3 all temp/csvr ${temperature} ${temperature} ${tempDamp} ${seed}
fix             3 all temp/csvr 87.85 ${temperature} ${tempDamp} ${seed}
fix             3 all temp/csvr 87.85 87.85 ${tempDamp} ${seed}
fix             3 all temp/csvr 87.85 87.85 100 ${seed}
fix             3 all temp/csvr 87.85 87.85 100 745823


run             250000
PPPM initialization ...
  extracting TIP4P info from pair style
  using 12-bit tables for long-range coulomb (../kspace.cpp:340)
  G vector (1/distance) = 0.36782644
  grid = 30 40 32
  stencil order = 5
  estimated absolute RMS force accuracy = 0.0044153258
  estimated relative force accuracy = 1.3296622e-05
  using double precision FFTW3
  3d grid and FFT values/proc = 5168 640
Last active /omp style is kspace_style pppm/tip4p/omp
Neighbor list info ...
  update every 1 steps, delay 7 steps, check yes
  max neighbors/atom: 2000, page size: 100000
  master list distance cutoff = 10.8154
  ghost atom cutoff = 10.8154
  binsize = 5.4077, bins = 7 5 4
  1 neighbor lists, perpetual/occasional/extra = 1 0 0
  (1) pair lj/cut/tip4p/long/omp, perpetual
      attributes: half, newton on, omp
      pair build: half/bin/newton/tri/omp
      stencil: half/bin/3d/tri
      bin: standard
Per MPI rank memory allocation (min/avg/max) = 9.444 | 9.449 | 9.454 Mbytes
Step Temp PotEng TotEng E_pair E_mol Press Lx Ly Lz Volume Pxx Pyy Pzz Pxy Pxz Pyz Enthalpy 
 2500000    94.665616   -6777.6497   -6534.1282   -6777.6497            0    1582.2702    23.208991    21.496524    21.582306    10767.685    1867.1694    316.94204    2562.6991    674.55429     679.9835   -116.27534   -6285.6554 
 2501000    87.881365   -6792.7414   -6566.6719   -6792.7414            0    1192.9075    23.322979    21.314159    21.685851    10780.247    1562.1909    852.84415    1163.6873   -429.12388    46.343789   -543.58262   -6379.1244 
 2502000     85.56995   -6785.3323   -6565.2088   -6785.3323            0    1489.3764    23.256091    21.389266    21.657463    10773.088    1500.2746    1284.8534    1683.0013    1051.8621   -156.24681    59.480539   -6331.2063 
 2503000    84.156913   -6782.7715   -6566.2829   -6782.7715            0    1353.3362    23.141142    21.465614    21.713697    10786.036    1410.4525    587.82105    2061.7349   -973.89807   -154.54924    598.45092   -6353.3987 
 2504000    87.970165   -6803.4345   -6577.1366   -6803.4345            0    2103.6872    23.173117    21.348352    21.710149    10740.181    1894.9839    2648.9393    1767.1384   -1269.7599   -358.32482   -85.334308   -6247.6265 
 2505000    85.354566   -6786.0018   -6566.4324   -6786.0018            0    1744.1665    23.165975    21.434038    21.660803    10755.464    1910.9069    1473.2499    1848.3427   -745.24174    49.869092   -22.864993    -6292.847 
 2506000    88.939455   -6786.6805   -6557.8892   -6786.6805            0    1510.1218    23.293718    21.379035    21.629115    10771.239    873.28612    1920.8699    1736.2094   -4.9964058    180.28492    101.76644   -6320.6679 
 2507000    83.246699   -6785.2227   -6571.0757   -6785.2227            0    1345.9736    23.330087    21.359876    21.626009     10776.84    996.88627    1642.2146      1398.82   -238.98614    279.37803   -287.16025   -6359.5301 
 2508000    85.420456   -6780.5338   -6560.7948   -6780.5338            0    1875.6756    23.179975    21.450244    21.663386    10771.385    1936.1371    1575.5414    2115.3483   -66.974447    1170.8557   -87.908276   -6266.1457 
 2509000    90.795676   -6784.1202   -6550.5539   -6784.1202            0    1693.8447    23.329341    21.129639    21.849334    10770.423    1367.0473    3213.4221    501.06463   -507.58158    571.78513   -78.908553   -6284.4922 
 2510000    89.178047   -6791.4933   -6562.0882   -6791.4933            0    1765.2839    23.129524    21.410507    21.697395    10744.872    2104.1347    1522.6572    1669.0599   -127.57751    6.4056237    6.1189841    -6285.463 
 2511000    87.161684   -6791.6923   -6567.4742   -6791.6923            0    1278.6008     23.25993    21.380862    21.710996    10797.255    1058.4429    1219.4591    1557.9005   -442.46281    93.438133    427.26693   -6366.1369 
 2512000      90.0317   -6782.6051    -6551.004   -6782.6051            0    1013.8908    23.317047    21.317701    21.699897    10786.278    482.79498    1755.2223    803.65501   -811.48703   -116.64492    507.16865   -6391.5121 
 2513000    93.992563   -6799.3087   -6557.5186   -6799.3087            0     1131.769    23.230285    21.435577    21.645394    10778.423    702.20338    1225.3318    1467.7718    818.00398    388.52455    243.74066   -6379.6132 
 2514000    85.820116   -6795.6541   -6574.8871   -6795.6541            0    1445.7325    23.312284    21.230983    21.746958    10763.498    925.90966    1960.6266    1450.6611    278.59468    575.70568  -0.65003251   -6347.9439 
 2515000    87.919945   -6792.3827    -6566.214   -6792.3827            0    1713.2616    23.174982    21.389981    21.712363    10763.088    1414.2821    1705.8035    2019.6993    836.46607    389.55335   -258.69522   -6297.2857 
 2516000    86.012298   -6791.5177   -6570.2563   -6791.5177            0     1182.423    23.257119    21.277552    21.775336    10775.624    996.51798    1447.2581    1103.4931   -199.53292   -218.75548   -5.5350291   -6384.4369 
 2517000     89.25008   -6793.5142   -6563.9238   -6793.5142            0    1299.6838    23.208258    21.331724    21.753651    10769.627    1809.3886    894.42945    1195.2333   -441.95319   -154.70645    350.34899   -6359.7903 
 2518000    83.143832   -6789.7693   -6575.8869   -6789.7693            0    1604.0177    23.166741    21.445213    21.705688    10783.726    2313.8005    1564.8045    933.44807    5.1408326   -736.04288   -229.27248   -6323.6237 
 2519000    86.565391   -6792.2989   -6569.6147   -6792.2989            0    2173.4414    23.327542    21.262027    21.654919    10740.641    1176.8351     3133.026    2210.4631   -180.02396    835.25429    352.96783   -6229.1641 
 2520000    86.867061   -6796.3629   -6572.9026   -6796.3629            0    1886.2213    23.140218    21.455502    21.657891    10752.818    2034.8663    1606.1767     2017.621   -309.15476    176.53406    548.91771   -6277.1076 
 2521000    85.701814   -6800.1949   -6579.7322   -6800.1949            0    945.39197    23.315043    21.336134    21.691007    10790.254    489.54256    1420.5973      926.036    358.81013    45.362822   -115.44668   -6430.9608 
 2522000    87.869443   -6790.6262   -6564.5874   -6790.6262            0    657.97364    23.285846    21.399183    21.689154    10807.664    314.26983    1325.0803    334.57082    212.00414    101.93545   -672.85844   -6460.8785 
 2523000    89.039219   -6800.5173   -6571.4693   -6800.5173            0    1202.4868    23.214541    21.433983    21.647095    10771.163    1374.7792    1117.4102    1115.2711   -416.44175    627.89041   -518.05334    -6382.575 
 2524000    94.787862   -6784.9869   -6541.1509   -6784.9869            0    1526.1461     23.30624    21.285977    21.731704    10781.014    1767.6566    1646.0241    1164.7577   -554.12227   -528.14031   -671.87749   -6301.1949 
 2525000    92.439799   -6788.5995   -6550.8038   -6788.5995            0     1491.953    23.146688    21.475214    21.675259    10774.339      2310.53     767.8384    1397.4907    349.43075   -938.57721    359.58198   -6316.3692 
 2526000    90.864102   -6786.8228   -6553.0804   -6786.8228            0    1493.1973    23.380159     21.30846    21.643058    10782.467    1021.3826    2114.3361    1343.8731    88.845536   -963.78197   -47.704905   -6318.2733 
 2527000    88.669347   -6787.9155    -6559.819   -6787.9155            0     831.6401    23.287322    21.422423    21.644928    10798.024    1034.5423    859.56158    600.81644   -814.87674   -423.93105    -702.6018   -6428.8539 
 2528000    84.096236   -6791.7884   -6575.4559   -6791.7884            0    795.41457    23.232152    21.453933    21.670295    10800.931    559.77925    803.74068    1022.7238   -272.59368   -128.47621   -549.03691   -6450.1618 
 2529000    87.181836   -6796.8411   -6572.5711   -6796.8411            0    1485.6116    23.315049    21.317094    21.698347    10784.276    937.79485     2281.128    1237.9119    346.20472   -757.19195   -71.465359   -6338.9177 
 2530000    88.257267   -6778.6725   -6551.6361   -6778.6725            0    1392.2346     23.23529     21.42785    21.667501    10787.866    1903.2555     1464.103    809.34515     587.6711   -107.51197   -322.45495   -6332.5959 
 2531000    91.875078   -6791.0059   -6554.6629   -6791.0059            0    2305.8127    23.271018    21.288318    21.674285    10737.459    1870.7626    2002.3749    3044.3006   -186.28976    830.12291   -97.450469   -6193.5845 
 2532000    92.892681   -6799.9549   -6560.9941   -6799.9549            0    1553.1227    23.170386    21.436581    21.672159    10764.428    1758.7687    1185.2425     1715.357    102.28153    474.57029   -188.71475   -6317.1723 
 2533000    86.244378   -6789.3848   -6567.5264   -6789.3848            0    1063.1411    23.342312    21.332029    21.673906     10792.28   -4.8859874    2136.4982    1057.8111   -517.44818   -232.34625   -438.17003    -6400.194 
 2534000    87.751752    -6797.178    -6571.442    -6797.178            0    696.84539    23.251378    21.395443    21.709244    10799.774    396.94096     780.3875    913.20771    759.39547   -275.49411    830.54574   -6461.6863 
 2535000    84.277606   -6790.0353   -6573.2363   -6790.0353            0    968.28714    23.156941    21.407231    21.795866    10804.777    1453.0189    1336.5092    115.33335    -570.1557   -378.19697   -316.80031   -6420.6569 
 2536000    85.163356   -6791.6598   -6572.5822   -6791.6598            0    945.14423    23.255248    21.316806    21.789961    10801.885    2255.6996    220.19392    359.53919   -1448.6459   -226.90321    -148.3375   -6423.6895 
 2537000     90.20433   -6794.9277   -6562.8826   -6794.9277            0    2085.7717    23.180826    21.407108    21.631244    10734.168     2181.084    2264.2295    1812.0015     216.6005     387.9953   -372.85907   -6236.3616 
 2538000    88.815113   -6794.0876   -6565.6162   -6794.0876            0    2124.1621    23.301067    21.345533    21.590574    10738.584    1333.1242    2300.2897    2739.0723    1058.4046   -205.34134    316.23017   -6232.9485 
 2539000    86.161471    -6786.774   -6565.1289    -6786.774            0    1349.9013    23.246834    21.321795    21.726174    10768.887    1258.3122    1828.9753    962.41646    253.19712    163.73134   -224.63897   -6353.1226 
 2540000    86.401748   -6796.4221   -6574.1589   -6796.4221            0    1035.2283    23.111354    21.365039    21.858695    10793.277    2002.7093    1216.6782   -113.70272   -407.63108    138.32894    217.33586   -6411.2048 
 2541000    85.419401   -6793.3195   -6573.5833   -6793.3195            0    558.42934    23.240152    21.324624    21.830039    10818.694    1093.9609    252.70343    328.62373   -933.03121    235.99231    762.31713   -6485.4745 
 2542000    87.999487   -6795.4034   -6569.0301   -6795.4034            0    1212.3388    23.213929    21.388279     21.70878    10778.539    1794.5532     1128.829    713.63405    501.34375   -428.53718    430.73759   -6378.4578 
 2543000    89.007184   -6789.0578   -6560.0923   -6789.0578            0    1925.3506    23.283177    21.365368    21.597263    10743.637    2095.1107     2172.047    1508.8941    -267.9845    339.77439   -119.21728   -6258.4189 
 2544000    89.104432   -6788.4144   -6559.1987   -6788.4144            0    2371.8145    23.356341    21.367328    21.501778    10730.733    1823.4379    2261.2843    3030.7212   -1107.1739    174.41684    255.05108   -6188.0174 
 2545000    82.899381   -6801.2374   -6587.9837   -6801.2374            0    1662.2958     23.19771     21.45576    21.601423    10751.557     1831.347    588.75834    2566.7822   -439.80162     433.2989    382.61362    -6327.335 
 2546000    86.500457   -6783.5411   -6561.0239   -6783.5411            0    1850.7597    23.243765    21.286066    21.760244     10766.28    1731.4829    2262.1881    1558.6081    151.70829     221.6356   -806.50434   -6270.4266 
 2547000    87.553926   -6800.5544   -6575.3273   -6800.5544            0    2178.8277     23.18238    21.337932    21.699771    10734.096    1649.5209    2895.9161    1991.0462    388.44995   -31.437827     321.5741    -6234.241 
 2548000    90.347819   -6794.6145   -6562.2003   -6794.6145            0    570.58819    23.276032    21.476717    21.629447    10812.404    93.179808     100.4127    1518.1721    561.04765   -406.04674    56.886524   -6472.2255 
 2549000    89.043029   -6786.3241   -6557.2663   -6786.3241            0    1148.8239    23.384807    21.399653    21.552362    10785.379    -221.0577    1392.1112    2275.4181    43.443489    74.845843    76.070872   -6376.5635 
 2550000    90.727657   -6796.1311   -6562.7398   -6796.1311            0    1261.8202     23.23725    21.520411    21.536622    10769.929     1024.274    578.80236    2182.3843   -423.00731    566.39618   -499.73754   -6364.5477 
 2551000     90.15216   -6789.4103   -6557.4994   -6789.4103            0    1747.1176    23.363336    21.288227    21.649243    10767.554    1272.6334    2119.9476    1848.7718   -68.373501    -82.23939   -699.50045    -6283.143 
 2552000     87.39061   -6800.7885   -6575.9815   -6800.7885            0    1340.5551    23.165597    21.423138    21.749404    10793.789    1908.6406    554.37705    1558.6475    26.420938   -161.44862    46.149271   -6364.9562 
 2553000    87.113773   -6796.5517   -6572.4568   -6796.5517            0    1353.9098     23.22791    21.308857    21.807924    10794.054    1435.5725     1633.226    992.93078     471.1658    488.60308   -486.65184   -6359.3241 
 2554000    90.053599   -6791.1439   -6559.4865   -6791.1439            0    1918.7961      23.2812    21.340201    21.652137    10757.333    1229.0141    2227.0189    2300.3555   -10.536322    -182.2717    287.40215   -6258.4568 
 2555000    89.303712   -6790.7329   -6561.0046   -6790.7329            0    1010.3367    23.223631    21.505503    21.592992    10784.315    1233.7617    431.29656    1365.9517   -271.74391   -41.574963   -741.09484   -6402.1007 
 2556000    92.112641   -6792.3747   -6555.4206   -6792.3747            0    668.28262    23.445598    21.314883    21.605469    10797.121    138.02115   -199.26296    2066.0897   -16.230534   -461.00784     69.58473   -6450.1895 
 2557000    85.316483   -6784.6706   -6565.1992   -6784.6706            0    2363.5934    23.128538    21.421892    21.659398    10731.301    2796.1994    2050.4369     2244.144    7.0481643   -950.70312   -343.39325   -6195.2849 
 2558000    85.150602   -6785.6185   -6566.5738   -6785.6185            0    1441.9581    23.210362    21.327392     21.78127    10782.088    1287.0473    1924.0128    1114.8141    -584.9143   -4.5897722   -480.58985   -6339.8321 
 2559000    89.324859   -6793.3223   -6563.5396   -6793.3223            0    1678.6277    23.195545    21.302845    21.793278    10768.737    1973.4604    1539.4918    1522.9308    111.49914     279.4537    -172.5802   -6299.9095 
 2560000    86.862034   -6804.8773     -6581.43   -6804.8773            0    1418.1475    23.202382    21.450383    21.647979    10774.199    2123.8418    968.50733    1162.0934    955.67993     -218.161   -228.26924   -6358.5956 
 2561000    89.737097   -6800.4898   -6569.6466   -6800.4898            0    942.83969    23.392012    21.306607    21.648898    10789.906    383.47393    1457.0503    987.99482   -101.45309    34.972109    134.28541   -6421.2816 
 2562000    90.450848   -6793.0245   -6560.3452   -6793.0245            0    527.35888    23.193399    21.547541    21.589259    10789.463    330.22448   -438.12277    1689.9749    -438.0545    755.68735    413.05681   -6477.3636 
 2563000    89.236191   -6780.2889   -6550.7342   -6780.2889            0    1004.7558    23.299446     21.32174    21.732964    10796.604    627.06503    1610.9304    776.27206    683.22492   -126.62932   -45.344101    -6392.528 
 2564000    88.840413   -6799.8764   -6571.3398   -6799.8764            0    1041.9362    23.150429    21.388956    21.775697    10782.531    1767.7651    776.85227    581.19117   -558.85835   -591.22345    377.57018   -6407.4931 
 2565000    86.143045   -6804.6123   -6583.0145   -6804.6123            0    1439.4399    23.208416    21.384713    21.685263    10762.511    1842.0343    955.74333     1520.542    301.75803    64.600619    64.251661   -6357.0798 
 2566000    91.959484   -6791.7879   -6555.2277   -6791.7879            0    1495.4633    23.320892    21.298748    21.668417    10762.828    754.27206    2093.9046    1638.2132    126.98336    90.915704   -299.17715   -6320.4926 
 2567000    86.504718   -6802.5828   -6580.0547   -6802.5828            0    1725.3627     23.14485    21.485415    21.587649    10735.035    2444.7263    1318.4507    1412.9112   -151.55736    632.37042   -337.36557   -6309.9328 
 2568000    86.731796   -6798.5813    -6575.469   -6798.5813            0    1286.6021    23.370904    21.279359    21.661905    10772.852    270.89101    1574.8146    2014.1006   -422.99617    555.57124    520.18792   -6373.3297 
 2569000    82.738989   -6798.7279   -6585.8869   -6798.7279            0    1562.2886    23.153902    21.433668    21.701513    10769.876    1241.8952    1528.0669    1916.9039    239.66376   -239.24344    558.43252    -6340.502 
 2570000    88.285721   -6797.8295   -6570.7199   -6797.8295            0    1541.0456    23.190005    21.351893    21.755676    10772.334      2066.99    1675.7294    880.41742    88.159452   -71.332822   -101.85464   -6328.6163 
 2571000    88.967737    -6791.115   -6562.2509    -6791.115            0     1251.541    23.278539    21.298029     21.72549    10771.215    1320.3267    1941.1889    493.10749   -648.90293   -40.743653   -407.09089   -6365.6499 
 2572000    91.481014    -6780.823   -6545.4936    -6780.823            0    1098.8027     23.16481    21.539434    21.633612     10794.24     1647.704    421.23313    1227.4711    267.62623   -529.76159   -811.53798   -6372.5169 
 2573000    85.638655   -6798.0559   -6577.7557   -6798.0559            0    2432.2712    23.313943    21.266988    21.633625    10726.326    1829.8079    2915.0193    2551.9866    544.79295    65.332765   -151.00412   -6197.2695 
 2574000    91.435906   -6803.2914   -6568.0781   -6803.2914            0     1836.154    23.226222    21.408997    21.626177    10753.619    1141.6508    1598.7547    2768.0565   -331.41348    477.42883    252.77762   -6280.1132 
 2575000    90.504903   -6802.1877   -6569.3693   -6802.1877            0    580.58059    23.228071     21.46528    21.702862    10820.983    633.71542   -188.13807    1296.1644   -453.56787    69.574802    -240.2996   -6477.7462 
 2576000    86.405129     -6791.85    -6569.578     -6791.85            0    1094.8034    23.352158    21.285508    21.684268    10778.437    789.40351    2094.0138    400.99289     -227.001   -600.38252   -259.47674   -6397.4832 
 2577000     87.75296   -6799.4719   -6573.7327   -6799.4719            0    581.25713    23.211244    21.517963     21.63873    10807.652    174.69181    408.26495    1160.8146     505.7234    136.63578    628.71564   -6482.1158 
 2578000    92.555554   -6792.2142   -6554.1207   -6792.2142            0    411.67295    23.381913    21.349449    21.659654    10812.304   -127.89372    833.62648    529.28609   -661.74962   -217.72197   -340.02401   -6489.2055 
 2579000     86.42037   -6796.0475   -6573.7364   -6796.0475            0    2012.7499    23.215694    21.396326    21.608477    10733.591    2786.2329    1436.6173    1815.3994   -743.09965   -577.79821   -437.09397   -6258.6637 
 2580000    91.250694   -6787.0494   -6552.3125   -6787.0494            0    2364.2868    23.177921    21.339289    21.740456    10752.837    3428.8043    1868.7655    1795.2906    227.11482   -351.12551    233.49696   -6181.5472 
 2581000    83.097412   -6787.5805   -6573.8175   -6787.5805            0    1922.5249    23.283548    21.332075    21.666703    10761.557    2036.3226    1574.5178    2156.7344   -208.55351   -501.90564   -693.47851   -6272.0844 
 2582000    88.173966   -6798.6935   -6571.8713   -6798.6935            0    1833.0249    23.182689    21.480274    21.577673    10745.045    1958.6255    1381.5265    2158.9227   -443.76046    352.69251   -180.17737   -6284.6263 
 2583000       91.164   -6802.6634   -6568.1496   -6802.6634            0    923.06277    23.404846    21.305088    21.654175    10797.688    341.73545    1426.0833    1001.3695   -342.42514    254.95347   -502.87066   -6422.7919 
 2584000    94.689086   -6792.3044   -6548.7225   -6792.3044            0    993.23103    23.188778    21.463636    21.701782    10801.313    1961.2477    481.55969    536.88565   -348.89775   -438.25367   -935.00474   -6392.2627 
 2585000    86.679749   -6791.6127   -6568.6344   -6791.6127            0    1428.7919    23.211438    21.360765    21.739181    10778.592    1964.9121    1478.9054    842.55813   -415.29422   -131.02925   -926.77703   -6344.0358 
 2586000    87.087615   -6797.3784   -6573.3508   -6797.3784            0    1233.0653    23.311421    21.301954    21.719009      10785.2    1172.6306     1030.793    1495.7724   -430.65154    482.33099    388.04359   -6379.4006 
 2587000    87.489637   -6803.5943   -6578.5325   -6803.5943            0    1652.7605    23.146025    21.529192    21.591005    10759.126    2000.7685    954.14628    2003.3666   -243.65644   -220.70412    89.584142   -6319.1965 
 2588000    87.536539   -6788.1573   -6562.9749   -6788.1573            0    1576.4112    23.394418    21.306931    21.594338    10763.984   -21.143646    2586.3807    2163.9965    76.886411   -36.196762   -192.73648   -6315.5072 
 2589000    85.338461   -6804.7366   -6585.2086   -6804.7366            0    2263.1544     23.16659    21.469112    21.563151    10724.781    2753.2676    1223.0943    2813.1013   -21.298441   -493.44224    308.17496   -6231.2288 
 2590000    88.212073   -6799.8488   -6572.9286   -6799.8488            0    1493.2802    23.226884    21.354357    21.694869     10760.55    1574.4995    1485.6591     1419.682   -512.94706   -155.30302   -483.54798   -6338.5857 
 2591000    86.758182   -6803.3296   -6580.1495   -6803.3296            0    673.31182    23.309143    21.323611    21.756245    10813.617    1104.6799    459.43851    455.81707   -98.714517   -97.115743   -79.937531   -6473.9645 
 2592000    86.231435   -6789.0325   -6567.2074   -6789.0325            0    1657.6316    23.164744    21.510861    21.631276    10778.726    2220.2638    673.54558    2079.0854    4.5935157    751.56194    327.99333   -6306.6333 
 2593000    89.576649   -6798.3768   -6567.9463   -6798.3768            0    1344.5392    23.355016    21.235444    21.681477    10753.018    1175.3645    1562.9786    1295.2744   -565.64218    420.35194    97.347899   -6357.0934 
 2594000    86.031946   -6782.9884   -6561.6764   -6782.9884            0     1949.147    23.148411    21.439974    21.683407    10761.503    2786.5645    1228.4424     1832.434    82.730796    216.12146   -36.968249   -6255.7666 
 2595000    89.509791   -6811.2617   -6581.0033   -6811.2617            0     1522.098    23.342734    21.285802    21.659322    10761.842     1207.127    1619.9148    1739.2521   -58.205689    447.75577    -94.61336   -6342.1093 
 2596000    91.246623   -6795.3545   -6560.6281   -6795.3545            0    1669.1233    23.185173    21.405113     21.70449    10771.532    1915.2517    1764.3494    1327.7689   -747.35641   -9.8515947    34.808402   -6298.4226 
 2597000    88.262527   -6797.1291   -6570.0791   -6797.1291            0    1074.2841    23.202713    21.427531    21.692039    10784.779    1303.7218    1152.7753    766.35501   -459.60787   -21.836229   -15.352716   -6401.1104 
 2598000    82.844432   -6794.9612    -6581.849   -6794.9612            0    203.89631    23.431679    21.257434     21.73611    10826.699   -134.60562    1005.5671   -259.27252   -647.88063   -338.64566   -52.647897   -6549.6545 
 2599000     88.81201   -6790.1432   -6561.6797   -6790.1432            0    1018.3285    23.035942    21.638833    21.631971    10782.908    1601.7163    422.59499    1030.6741    274.54308    525.04141   -78.146962   -6401.5397 
 2600000    88.653301   -6801.9435   -6573.8883   -6801.9435            0     2087.993    23.306453     21.19777     21.73617    10738.643    2792.2555    2246.3214    1225.4021   -334.78907   -627.45849     529.0883   -6246.8833 
 2601000    87.655014   -6803.4361   -6577.9489   -6803.4361            0    1401.9573    23.157622    21.394795    21.731638    10766.995    1815.2638    1713.4696    677.13845    33.030926    185.67129    149.05872   -6357.8058 
 2602000    87.480135   -6792.5134   -6567.4761   -6792.5134            0    1985.0145     23.28609     21.34859    21.620947    10748.317    1998.6704    1894.4647    2061.9083    133.18146    442.40343    355.83579   -6256.3188 
 2603000    90.487094   -6789.3782   -6556.6057   -6789.3782            0    2033.3742     23.23706    21.319981     21.70291    10751.919    2081.9421    1773.4414    2244.7392   -53.062954    535.26831    508.97902    -6237.761 
 2604000    86.545878   -6787.6371   -6565.0031   -6787.6371            0    1562.9882      23.1226    21.441364    21.719596    10768.144    1945.6126    1351.7789    1391.5731   -104.45484    216.66794    105.60195   -6319.5478 
 2605000    87.077229   -6786.6457   -6562.6448   -6786.6457            0    1471.3462    23.353972     21.28238    21.710723     10790.84    529.50576    2023.3941    1861.1387   -90.866951    130.74643    318.71306   -6331.0942 
 2606000    88.414496   -6802.9974   -6575.5565   -6802.9974            0    1195.4394    23.025259    21.586957    21.678326    10775.109    2152.5989   -154.27144    1587.9908    67.424959   -62.700231    83.602302   -6387.7005 
 2607000    83.016634   -6785.6799   -6572.1246   -6785.6799            0     374.7578    23.380993     21.26068    21.759276    10816.445   -205.90209    1354.6575   -24.481974   -184.30269    89.762443   -359.16415   -6513.0078 
 2608000    89.486835   -6800.2903   -6570.0909   -6800.2903            0    642.69926    23.172596    21.405444    21.779198    10802.911    721.84545    837.54849    368.70384    440.84504    481.08471   -128.33753    -6468.834 
 2609000    85.797628   -6795.7115   -6575.0023   -6795.7115            0    1734.7494    23.166416    21.378427    21.730544    10762.303    2192.0078    1026.9834    1985.2569    112.42118   -57.267037    249.93761    -6302.721 
 2610000     84.77276   -6793.1226   -6575.0499   -6793.1226            0    1379.5512    23.278091    21.223853    21.829595    10784.928     1270.064    2033.4043    835.18514   -742.50124    344.42672   -329.31231   -6358.0642 
 2611000    87.415282   -6789.8078   -6564.9373   -6789.8078            0    1624.9263    23.063027    21.540733    21.659669    10760.405     2523.384    988.18663    1363.2082    -30.41033    -691.3903    272.51432   -6309.9385 
 2612000    87.391516   -6789.6187   -6564.8093   -6789.6187            0    535.80981    23.385474    21.332951    21.661227    10806.378     321.0561    347.12088    939.25243    9.7957426   -185.55364    200.28993   -6480.3657 
 2613000    89.965368   -6794.7846   -6563.3542   -6794.7846            0    1168.3024    23.272403    21.398927    21.661965    10787.755    839.96224    1437.7441    1227.2009    78.558759    577.19765    -20.06974   -6379.5471 
 2614000    87.574424   -6787.3351   -6562.0552   -6787.3351            0    1274.4824    23.164533    21.437686      21.6995    10775.841    2108.1013    1363.8208    351.52507   -574.42009    167.24737   -90.535523   -6361.7645 
 2615000    89.477602   -6793.1651   -6562.9894   -6793.1651            0    1779.3586    23.272022    21.270101    21.761959    10772.132    1182.8435    2650.1527    1505.0796    645.66142    93.889271    195.83946   -6283.4513 
 2616000    85.202201   -6801.2186   -6582.0411   -6801.2186            0     1124.386    23.117371    21.477456    21.722744    10785.393     1604.634    617.79538    1150.7288    114.84829   -573.62203   -254.67482    -6405.182 
 2617000    85.925699   -6811.6989   -6590.6603   -6811.6989            0    1002.2304    23.424927    21.142749    21.781018    10787.427    710.04176    1507.8067    788.84265   -467.56782    72.767474    70.392984   -6432.9859 
 2618000    85.684724   -6798.2243   -6577.8056   -6798.2243            0    1271.4808    23.150687    21.438809    21.703752    10772.075     1436.731    953.00837    1424.7032    325.99249     691.3527    347.44687   -6378.0564 
 2619000    84.900688   -6787.6678    -6569.266   -6787.6678            0    1256.0316    23.264205    21.333335    21.707192    10773.346    1515.3168    1490.5671    762.21097   -90.213709    220.00128   -615.56785   -6371.9205 
 2620000    87.278031   -6793.9599   -6569.4424   -6793.9599            0    1129.9282    23.357197    21.324683    21.648945    10783.011     316.5164    1674.7103    1398.5578    438.00548   -268.44581    717.79735   -6391.7509 
 2621000    85.805289   -6791.4052   -6570.6763   -6791.4052            0    1152.1599    23.216172    21.451928    21.666586    10790.646    1417.4283    259.98279    1779.0686    27.899594    453.53034    952.10313   -6389.3603 
 2622000    93.207975   -6794.0522   -6554.2803   -6794.0522            0    1668.7614    23.320084     21.26215    21.679152    10749.285    2323.6773    1052.0879    1630.5189    508.75318   -1165.3156    212.78592   -6292.6731 
 2623000    88.774894   -6800.0511   -6571.6831   -6800.0511            0    1606.4532    23.093415    21.436014    21.720427     10752.28    2517.0052    1868.9515    433.40297   -10.559862    272.65435   -583.59508   -6319.7736 
 2624000     86.35791   -6784.5746   -6562.4242   -6784.5746            0    1288.7932    23.260986    21.321321    21.759496    10791.729    1240.9544    1829.4139     796.0113   -55.110304    243.77458   -609.96494   -6359.5858 
 2625000    90.221783    -6791.444   -6559.3539    -6791.444            0    1325.9651    23.242049    21.385421    21.709005    10790.266    1236.3883    1113.8098    1627.6974    465.92956   -387.19944    54.113512   -6350.6935 
 2626000    88.113395   -6796.6995   -6570.0331   -6796.6995            0    1178.7755    23.148088    21.443635    21.723723    10783.203     1731.308    804.80103    1000.2175    409.65897    34.447151   -466.20334   -6384.6566 
 2627000     88.20992   -6795.1822   -6568.2675   -6795.1822            0    1019.9527    23.348438    21.295352    21.690264    10784.686    1035.2717    1306.4607    718.12576    132.19153     5.311457    14.539051   -6407.8457 
 2628000    85.863388   -6787.5357   -6566.6573   -6787.5357            0    1449.0682    23.159898    21.495182    21.636563    10771.248    1722.0473    685.39736      1939.76   -352.60078    233.30057    260.52955   -6339.0267 
 2629000    89.914644   -6782.9869   -6551.6869   -6782.9869            0    959.53075    23.378977    21.292126    21.689013    10796.533    322.49199    1460.9314    1095.1688   -693.22877    -31.37179    433.53346   -6400.6027 
 2630000    85.701667   -6805.4783    -6585.016   -6805.4783            0    1412.5182    23.180232    21.439087    21.644066    10756.301    1841.9597    1259.9087    1135.6861   -68.579995     374.0756   -81.171277   -6363.4348 
 2631000    86.967576    -6806.055   -6582.3362    -6806.055            0    1996.9221    23.189131    21.332548    21.709415    10739.284    2230.5539    2002.9401    1757.2724    159.33697   -294.07246    95.209703   -6269.5754 
 2632000    88.787528   -6784.6173   -6556.2168   -6784.6173            0    1444.9786    23.331866    21.216106    21.762233    10772.553     196.7402     2453.702    1684.4935    650.12168   -32.991228    70.740842   -6329.2011 
 2633000    89.019948   -6793.7545   -6564.7561   -6793.7545            0    1285.4019    23.149556    21.510914    21.649518     10780.77    1328.0866     1013.922    1514.1971    728.86183    180.49522    423.69255   -6362.6569 
 2634000    82.096174   -6791.9011   -6580.7137   -6791.9011            0    1394.2856    23.312847    21.265573    21.706374    10761.175    515.59189     2278.797    1388.4679    254.44719    161.06708   -46.402665   -6361.8936 
 2635000    85.148258   -6798.3281   -6579.2894   -6798.3281            0    1628.1279    23.091122    21.392036    21.738369    10738.018    1396.0691    2772.1124    716.20224    1001.9317     -196.126    222.85719   -6324.3197 
 2636000    92.971771   -6795.2952    -6556.131   -6795.2952            0     1142.873    23.224594    21.365534    21.720621    10777.899    763.62611    864.01809    1800.9747   -55.441911   -275.18442     800.1423    -6376.489 
 2637000    87.329838   -6796.0183   -6571.3676   -6796.0183            0     1305.352    23.245571    21.360698     21.69835    10774.134    1909.0091     971.2054    1035.8415   -744.80875    63.894077   -422.22325    -6366.258 
 2638000    89.748213    -6807.529   -6576.6572    -6807.529            0    2468.7624    23.189229    21.375057    21.593855    10703.449    2026.9143    2885.1805    2494.1925    538.16744    67.905154    757.10759   -6191.2863 
 2639000    86.290931   -6796.2558   -6574.2776   -6796.2558            0    1916.8538    23.240464    21.318922    21.659919    10731.659    1454.6047    2181.2518    2114.7049     364.5006    664.74679    46.956472   -6274.2704 
 2640000    85.911452   -6791.6917   -6570.6897   -6791.6917            0    1297.3474    23.234592    21.378284    21.674626    10766.127    1211.1389    1453.6028    1227.3003   -108.31846    627.07923   -119.74699   -6366.9894 
 2641000    87.033815   -6799.0579   -6575.1687   -6799.0579            0     1836.857     23.18254    21.302032    21.737243    10734.616    2297.3188      2478.71    734.54227    795.94297    141.50729    23.899136   -6287.6026 
 2642000    87.256593   -6795.1652   -6570.7029   -6795.1652            0    983.54171    23.260025    21.323258    21.760075    10792.552    1138.7115    1146.3731    665.54055   -256.37656    934.57421    696.77125   -6415.8951 
 2643000    86.936779   -6790.2316    -6566.592   -6790.2316            0    1386.4015    23.219089    21.396585    21.661066    10761.418    1658.0644    1216.0914    1285.0489    238.29637   -611.00143    467.23472   -6349.0043 
 2644000    86.733692   -6795.7413   -6572.6242   -6795.7413            0    1533.9573    23.284823    21.282202    21.702937     10754.94    1547.6359    1972.5324    1081.7036    103.96356    173.30814    162.45552   -6332.0234 
 2645000    96.744723   -6805.3822   -6556.5123   -6805.3822            0    1063.6255    23.147155    21.371958    21.779475    10774.307    1843.6577    778.50131    568.71743    68.000117    269.84307    1097.3329   -6389.3825 
 2646000    83.905041   -6788.7607   -6572.9201   -6788.7607            0    1735.4264    23.167865    21.369705    21.752837    10769.622    1609.4476    1548.4587     2048.373    63.059934    267.82899    229.79866   -6300.3473 
 2647000    89.267333   -6808.9146   -6579.2798   -6808.9146            0    1670.5775    23.300804    21.254455    21.706714    10750.161    1088.3139    2170.2085    1753.2101    804.56514    239.65594    113.67277   -6317.3666 
 2648000    86.586075   -6801.5315   -6578.7941   -6801.5315            0    849.57114    23.169388    21.481043    21.649985    10775.254    818.12556      457.864    1272.7239    431.46938    464.00408    432.30622   -6445.2874 
 2649000    91.307717   -6792.6813   -6557.7977   -6792.6813            0    1310.1773    23.328938    21.329392     21.64906    10772.401    1163.3624    1404.6199    1362.5496   -147.06986      371.227    186.02465   -6351.9631 
 2650000    88.008332   -6801.0268   -6574.6308   -6801.0268            0    1690.4864    23.192211    21.388324    21.654784    10741.694    1300.8394    1461.0461    2309.5736    -485.3761     340.6618    7.2598806   -6309.8049 
 2651000    92.697741   -6797.0799   -6558.6206   -6797.0799            0    1060.5813    23.210846    21.296124    21.799442    10775.487    1510.1482    1214.2709    457.32474   -199.39003    53.296969    924.40779   -6391.9508 
 2652000    86.627409   -6800.9549   -6578.1112   -6800.9549            0    1357.4728     23.17907    21.366735    21.761399    10777.573    1113.7926    2025.8825    932.74342    423.08813    853.46892    317.09474   -6364.7438 
 2653000    88.831775   -6785.7514   -6557.2371   -6785.7514            0     1259.164    23.248146    21.399396    21.667048    10779.276    1055.7032    810.79885    1910.9898    1051.4055    -42.49344    1116.4624   -6359.2906 
 2654000    89.148444   -6799.1314   -6569.8025   -6799.1314            0    1541.3869    23.324714    21.290669    21.635552    10744.189    1843.2566    1687.6581    1093.2461   -568.81574    952.34037   -63.981473    -6328.278 
 2655000    87.559959   -6803.2037    -6577.961   -6803.2037            0    1097.3603     23.23868    21.395566    21.685641    10782.203    856.27983    1775.0757    660.72535    17.572648    695.91597    379.06487    -6405.404 
 2656000    85.985098   -6809.5115   -6588.3201   -6809.5115            0    1526.3765    23.243572    21.309584    21.737102    10766.623    1355.9054    1281.5027    1941.7214   -75.287105    305.39527    423.18007   -6348.6482 
 2657000    87.884913   -6799.5457   -6573.4672   -6799.5457            0    1666.1285    23.171947    21.344031    21.751626    10757.979    1875.1051    1455.8559    1667.4245   -115.09283   -95.263894     690.8797   -6312.0614 
 2658000    87.026155   -6799.9926   -6576.1231   -6799.9926            0    1479.7373    23.189442    21.382592    21.719298    10769.521    2075.3533    1548.9326    814.92587    245.58361   -888.78234   -270.04995    -6343.712 
 2659000    87.060962   -6791.0672   -6567.1082   -6791.0672            0    1041.1647    23.283535    21.294463    21.768636    10793.115    395.95028    1510.4659    1217.0779    49.720257    735.21269    173.01143   -6403.2221 
 2660000    84.092121   -6790.1107   -6573.7888   -6790.1107            0    1975.6483    23.152491    21.386158    21.722739    10755.859    1598.0996    2336.5273    1992.3182    725.67426   -558.01138    321.95509   -6263.8824 
 2661000    84.302661   -6797.7126   -6580.8491   -6797.7126            0    1335.8159    23.270273    21.342931     21.69077    10772.848    1075.1594    2241.4641     690.8242     791.9293   -477.57103    79.107593   -6370.9779 
 2662000    91.658337   -6805.5781   -6569.7926   -6805.5781            0    642.73121    23.273681    21.404708    21.686743    10803.605    390.89813    700.34845    836.94706    422.40046   -320.50162   -5.9453466   -6468.5242 
 2663000    88.724939   -6798.5481   -6570.3086   -6798.5481            0    1716.6276    23.262073    21.383656    21.630835    10759.787    1595.6005    1972.8138    1581.4684   -230.09593   -214.94034   -617.12129   -6300.9347 
 2664000    86.245837   -6798.8694   -6577.0072   -6798.8694            0    2051.9865    23.214613    21.354151     21.65773    10736.351    1786.8588    2457.9701    1911.1305    -60.03574    226.54237   -779.01596   -6255.7099 
 2665000    89.133518   -6797.8107   -6568.5202   -6797.8107            0    884.81608    23.244184    21.388366    21.720249    10798.333    664.47589    1287.9788    701.99358    580.20285   -283.09484   -798.67166    -6429.177 
 2666000    89.176553   -6789.1774   -6559.7761   -6789.1774            0    807.43805    23.321399    21.342113    21.753874    10827.511    434.89931    959.18035    1028.2345   -494.86951   -809.27712   -165.03008   -6432.2751 
 2667000    87.308231   -6795.9379   -6571.3428   -6795.9379            0    1479.4829    23.228338    21.418197    21.652607     10772.37    831.23577     2085.749    1521.4639     600.5292    340.66752    -223.8271   -6338.9101 
 2668000    91.734154   -6791.1682   -6555.1877   -6791.1682            0    1608.2162    23.308666    21.273858    21.689749    10755.193    1696.7917    1581.0202    1546.8369   -209.84638   -328.51219    303.21187   -6302.9334 
 2669000    92.461639   -6787.6175   -6549.7655   -6787.6175            0    1321.6356    23.180501    21.424079    21.734078    10793.597    2005.2962    462.99613    1496.6146    83.826942   -102.07532    480.88148   -6341.7222 
 2670000    88.264565   -6799.7288   -6572.6735   -6799.7288            0    948.57006    23.252723    21.346473    21.757144    10799.455    1295.5286    1504.2282    45.953345    -43.09809   -18.780404   -638.00456   -6423.2747 
 2671000    89.567933   -6798.0738   -6567.6658   -6798.0738            0    1573.1604    23.200576    21.345763    21.730397    10761.631    1581.2538    1658.7855    1479.4418    294.05464    299.15459   -135.12577   -6320.7624 
 2672000     90.64942   -6800.6386   -6567.4485   -6800.6386            0    1382.2535    23.280787    21.362892    21.661417    10773.197    878.11363    1212.8157    2055.8311   -114.73512    473.89579     664.3168   -6350.2743 
 2673000    83.862006   -6791.7992   -6576.0693   -6791.7992            0    1384.8086    23.274139    21.319777    21.710997    10772.985     1128.227    1996.8569     1029.342     522.8657    459.72288   -26.010218    -6358.498 
 2674000    87.270455    -6799.856    -6575.358    -6799.856            0    1675.6629    23.064974     21.46173    21.701595    10742.598    2513.2255    1499.4903    1014.2728    312.67023   -215.56038   -29.562105   -6312.8323 
 2675000    88.303467    -6792.496   -6565.3407    -6792.496            0    720.26395     23.36981    21.279645    21.723118    10802.934    82.424604    1450.6721    627.69521   -258.79738   -79.579516   -243.00271   -6451.8633 
 2676000    85.840985   -6797.4049   -6576.5842   -6797.4049            0    915.25606    23.251835    21.436026    21.641895    10786.903    241.12182    1156.5536    1348.0928    760.17972    65.390112    112.40763   -6432.5999 
 2677000     94.80847   -6796.3092   -6552.4202   -6796.3092            0    1676.5161    23.331586    21.293781    21.630294    10746.313    905.57002    2112.8057    2011.1727    709.79745    54.176253     287.8992     -6289.67 
 2678000    87.286229   -6785.6196   -6561.0811   -6785.6196            0    1756.7389    23.218329    21.326888    21.719006    10754.703    2368.0712    1810.1728    1091.9726    128.16226   -138.68078    229.28216   -6285.5431 
 2679000    89.005231   -6797.9138   -6568.9533   -6797.9138            0    1527.5218    23.145487    21.368583    21.742409    10753.497    1635.4712     1415.657    1531.4371   -17.605759    687.04294    581.87043    -6329.394 
 2680000     90.12358    -6797.694   -6565.8566    -6797.694            0    1480.4017    23.296002    21.307382    21.683318    10763.096    1186.6028    1883.9402    1370.6619   -358.11874    243.99389    210.99955   -6333.4799 
 2681000    87.634995   -6794.3026    -6568.867   -6794.3026            0    1501.1358    23.177737    21.489278    21.584417    10750.612    1620.3774    1138.8208    1744.2091    66.820742   -362.26632     -158.863   -6333.5089 
 2682000    89.146934   -6788.4694   -6559.1443   -6788.4694            0    1433.7244    23.328748    21.344016    21.640227      10775.3     572.4827    1343.2937    2385.3969    382.47596    450.32201    921.51875   -6333.8392 
 2683000    84.315999    -6793.719   -6576.8213    -6793.719            0     1636.533    23.227004    21.339801    21.721352    10766.398    1089.3323     1736.504    2083.7626   -237.16056     525.8563    260.93856    -6319.858 
 2684000    84.763899   -6792.7038   -6574.6539   -6792.7038            0    2017.7564    23.108364    21.337015    21.770274    10734.128    2747.6983    1990.8082    1314.7627    352.12248   -2.7436189    696.99007   -6258.7817 
 2685000    90.436054   -6791.9541   -6559.3129   -6791.9541            0    1796.5617    23.258135    21.234505    21.759894    10746.667    1750.6292    2801.1604    837.89556    593.40858   -260.23266     770.7029   -6277.7393 
 2686000    90.259727    -6791.386   -6559.1984    -6791.386            0    1310.3183    23.211407    21.380368    21.715267    10776.601    1626.0843    1252.1573    1052.7133    931.78966   -494.10552    603.57435   -6353.2613 
 2687000    83.737551   -6798.4877   -6583.0779   -6798.4877            0    673.10029    23.249962    21.377932    21.723614    10797.421     730.0098    902.83227    386.45881   -479.69283    264.37557    236.28374   -6477.0853 
 2688000    90.613006    -6789.964   -6556.8675    -6789.964            0    1160.5555    23.333778    21.289899    21.707515    10783.724    477.96026    1895.0533     1108.653    242.20912    321.30448    134.83011   -6374.3475 
 2689000     84.38056   -6800.2216   -6583.1577   -6800.2216            0     737.9363     23.19896    21.422337    21.717683    10793.166    562.65631    622.53558     1028.617    129.14535    299.98785    39.678738   -6467.0012 
 2690000    87.840272   -6772.8351   -6546.8713   -6772.8351            0    1267.0047    23.247007    21.351576    21.747308    10794.499     1346.117    1602.4573     852.4398    354.92991   -346.96351    298.41768    -6347.411 
 2691000    89.257236   -6787.5221   -6557.9133   -6787.5221            0    1312.0442    23.229759    21.360091    21.740524    10787.425    1870.2757    1245.5905    820.26634   -450.59435   -180.53612   -120.03091   -6351.4979 
 2692000    89.342267   -6794.0638   -6564.2362   -6794.0638            0    1898.5187    23.178296    21.427913    21.647492    10751.498    2069.6238    1388.6918    2237.2405    503.60919   -387.86441    95.641692   -6266.5493 
 2693000    88.837885   -6801.2982   -6572.7682   -6801.2982            0    1345.6967    23.381385     21.24588    21.667518    10763.515    734.88019    2121.0889    1181.1211   -401.92358   -282.32421   -190.97551   -6361.5277 
 2694000     89.69634   -6796.6776   -6565.9393   -6796.6776            0    2268.8829     23.18947    21.425118    21.564893     10714.24    2033.3202    1621.4799    3151.8485   -9.7719476    686.02748    610.55161   -6211.4122 
 2695000     88.18261   -6786.7475   -6559.9031   -6786.7475            0    1807.1259    23.268685    21.333397    21.637322    10740.769    1296.7784    1984.1722    2140.4272    486.11649   -181.41004    741.97134   -6276.8293 
 2696000    88.857814   -6801.3269   -6572.7455   -6801.3269            0    1227.2134    23.237476    21.308764    21.779523     10784.39    1755.2559    1136.3178    790.06664   -326.61016    272.32185    422.60393   -6379.7303 
 2697000    85.444582    -6784.977    -6565.176    -6784.977            0      994.164    23.121202    21.432479    21.792262    10799.039    1909.6844    909.83574    162.97184   -123.79197    189.87405   -171.91935   -6408.6023 
 2698000    92.056807   -6798.5464   -6561.7358   -6798.5464            0    1906.5075    23.245103    21.325955    21.703853    10759.121    1766.2781     1665.278    2287.9665   -178.15775    153.45679    232.03187   -6262.5843 
 2699000    90.021702   -6793.1676   -6561.5923   -6793.1676            0    1748.4907    23.205635    21.367478    21.655023    10737.554    1758.3375    1715.8125     1771.322   -257.72018    470.20422    319.72377   -6287.7853 
 2700000     86.83647   -6796.9566    -6573.575   -6796.9566            0     1046.391    23.255478    21.354161    21.678275    10765.457    811.36282     1241.656    1086.1541    112.45599    385.16457    843.06648   -6409.2884 
 2701000     87.49931   -6790.6995   -6565.6129   -6790.6995            0    1043.8103    23.291895    21.342303    21.733252    10803.658    561.42318    1702.8923    867.11541    699.27199    553.55969    817.47243   -6401.1498 
 2702000    89.789967   -6801.3191   -6570.3398   -6801.3191            0    1825.1693    23.205724    21.354581    21.700613    10753.706     1289.627    2128.7687    2057.1123    419.83037   -160.37691    317.89196   -6284.0953 
 2703000    82.517225   -6797.5092   -6585.2386   -6797.5092            0    2008.1883    23.193544    21.291224    21.738027     10734.65    2389.2798    1494.3496    2140.9355    249.68931   -414.85292    225.24476    -6270.849 
 2704000    87.522003   -6798.8977   -6573.7526   -6798.8977            0     1311.981    23.204023    21.364706    21.750269    10782.634    1619.5737    1049.1731    1267.1963   -409.51731   -40.093588   -164.72703   -6367.4388 
 2705000    85.926284   -6798.4477   -6577.4075   -6798.4477            0    1082.0507    23.219514    21.408818    21.691733    10783.011    831.13146    1122.8079    1292.2127   -97.470119    628.45865    70.753038   -6407.2452 
 2706000    87.021175   -6804.0139   -6580.1573   -6804.0139            0    1430.3744    23.246015    21.253541    21.791841     10766.48    1378.5351    1858.3716    1054.2165   -577.49112   -124.03314   -14.948726   -6355.5627 
 2707000    84.580193   -6796.1501   -6578.5727   -6796.1501            0    1578.2293    23.096763    21.410003    21.758339    10759.537    2890.9894    794.39333    1049.3052   -170.09411    112.53455   -270.63539    -6330.922 
 2708000    84.894918   -6785.5144   -6567.1274   -6785.5144            0     1010.107    23.317326    21.313582    21.745412    10806.942    1196.4755    706.41263     1127.433   -19.674973    130.53277    815.10714   -6407.9263 
 2709000    87.627604   -6787.9952   -6562.5786   -6787.9952            0    1182.3298    23.254916    21.404146    21.651224    10776.932    1870.9869    703.76893    972.23349    65.758575   -86.449587    260.02801   -6376.7512 
 2710000    85.748874   -6791.5815   -6570.9978   -6791.5815            0    1675.5801    23.275564    21.340524    21.646909    10752.295    2146.0851    1430.9674    1449.6879    471.63994   -966.52015    273.84869   -6308.2481 
 2711000    88.747707   -6788.7279   -6560.4299   -6788.7279            0    1746.4827    23.244454     21.31061    21.739397    10768.686    1297.7886    2025.8243    1915.8352    719.96712    -239.0573   -315.55446   -6286.1443 
 2712000    86.686829   -6799.6616    -6576.665   -6799.6616            0     1906.721    23.146461      21.3696    21.736916    10751.744    2506.4023     1698.819    1514.9416    -405.1038    299.52325   -340.58843   -6277.6851 
 2713000    86.781275   -6795.4526   -6572.2131   -6795.4526            0    1291.0056    23.278358    21.337585    21.675915    10766.512    967.38422    1579.7295     1325.903   -669.35485    234.91102    816.45709   -6369.5012 
 2714000    88.104402   -6795.9993   -6569.3561   -6795.9993            0    1620.2645    23.229447    21.398158    21.657266     10765.12    2153.0095    1094.3773    1613.4068    427.21495    118.53989    468.23547   -6314.9774 
 2715000    85.252358   -6804.1634   -6584.8569   -6804.1634            0    994.93894    23.267241    21.305533    21.733814    10773.907    1417.8284    722.80559    844.18285    517.24537   -163.31931    587.21885   -6428.5257 
 2716000    85.983791   -6791.5596   -6570.3715   -6791.5596            0    1024.6872    23.096183     21.44989    21.755086      10777.7    1687.9098    515.36027    870.79145    202.20727    968.89188    277.34041   -6409.3094 
 2717000    87.857838   -6795.8001   -6569.7911   -6795.8001            0    2076.6871    23.260908    21.277621    21.702028    10741.132    1869.6296    2088.3106    2272.1212     -347.032    89.407145    202.69758   -6244.4815 
 2718000    91.002387   -6795.8296   -6561.7315   -6795.8296            0    1247.6544    23.271719    21.384855    21.663736    10781.226    1504.9914    993.26275    1244.7091   -90.046214   -298.59727    179.55952   -6365.5589 
 2719000    85.291198   -6790.6825   -6571.2761   -6790.6825            0    2770.9976    23.209692    21.402786    21.559902    10709.926     2479.006    2544.0144    3289.9723   -905.89672    589.73263    772.13488   -6138.4649 
 2720000     82.26106   -6795.7216   -6584.1101   -6795.7216            0    1199.1369    23.302422    21.348055    21.658926    10774.479    1232.9436    1352.8337    1011.6335   -666.96213   -111.87907    69.528999    -6395.684 
 2721000     84.43915   -6792.4863   -6575.2717   -6792.4863            0     1076.283    23.258533    21.389869    21.713701      10802.5    1258.9933     1015.048    954.80757   -249.98377    81.675807    420.46514   -6405.7105 
 2722000    89.502382   -6807.1887   -6576.9493   -6807.1887            0    1103.5235    23.124569    21.419161    21.774356    10785.032    2008.5046    341.93413    960.13168    5.0609189    375.71931   -36.578797   -6403.3776 
 2723000    89.903966   -6806.7567   -6575.4842   -6806.7567            0    1768.6828    23.295772    21.209496    21.763464    10753.144     1490.644    2787.2666    1028.1377   -168.06637    97.262625   -460.00964    -6298.113 
 2724000    91.411999   -6793.5719   -6558.4201   -6793.5719            0    1173.6607    23.170865    21.493145    21.686478    10800.186    1560.5146    447.58678    1512.8808   -542.69153    111.42934    423.76719   -6373.5572 
 2725000    88.919177   -6804.0656   -6575.3265   -6804.0656            0    1276.0113    23.271574    21.379059    21.657923    10775.344    1430.3509    1324.1651     1073.518    20.955353   -75.767107    138.22946   -6374.8047 
 2726000    86.402431   -6793.4112   -6571.1462   -6793.4112            0     1712.396    23.222581     21.34775    21.694185    10754.889    1342.5562    1829.4154    1965.2164   -200.71109    689.28324     133.4094   -6302.5586 
 2727000    89.644978    -6780.081   -6549.4747    -6780.081            0    1905.1489    23.198728    21.422167    21.661152    10764.878    2093.0988    2027.6591    1594.6888    234.85822   -258.78095   -529.10578   -6250.3764 
 2728000    90.441816   -6789.8756   -6557.2195   -6789.8756            0    1331.4812    23.295726    21.373769    21.668628    10789.188     1279.212     1226.892    1488.3395   -153.67197   -52.538305    288.95711    -6347.712 
 2729000    86.675652    -6787.059   -6564.0912    -6787.059            0    1018.0032    23.275567    21.467073    21.601626    10793.432    1156.6319    953.01457    944.36299   -335.15542    154.04042    -594.0628   -6403.8462 
 2730000    89.058294   -6784.4223   -6555.3253   -6784.4223            0    929.51145    23.313656    21.380946    21.687791     10810.67    502.18318      764.535    1521.8162   -254.05663     151.6964   -537.30952   -6408.7761 
 2731000    87.669889   -6782.3044   -6556.7789   -6782.3044            0    1973.9915    23.232475    21.407344    21.636695    10760.915    1637.6026     2224.874    2059.4979   -48.644308    67.789993   -464.36033   -6246.9868 
 2732000    86.582046   -6787.2249   -6564.4979   -6787.2249            0    2289.5426    23.296648    21.350974       21.591    10739.496    2235.7309    2657.1004    1975.7966   -201.92216   -306.97655   -829.37393   -6205.8993 
 2733000      88.4477    -6802.053   -6574.5267    -6802.053            0    1885.6671    23.261117     21.41239    21.589155    10753.043    931.51827    1749.8162    2975.6668   -320.72788    736.91969   -251.37215   -6278.8124 
 2734000    87.228705   -6792.3301   -6567.9395   -6792.3301            0    1318.7127    23.244909    21.458923    21.641475    10794.999     1638.856    651.44265    1665.8394   -2.8018908   -310.61359    -252.1706   -6360.3294 
 2735000    87.429637   -6797.1983   -6572.2909   -6797.1983            0     2046.956    23.277769    21.292701    21.694488    10752.799    2282.7334    2185.0922    1673.0423    -456.9305   -146.48762   -264.26128   -6251.2902 
 2736000     85.73963   -6791.9012   -6571.3412   -6791.9012            0    1576.5224    23.176271    21.461938    21.644945    10766.362    1723.4755    407.23769    2598.8539   -390.57231   -81.442519    492.79618   -6323.8014 
 2737000    88.189718   -6802.6155   -6575.7528   -6802.6155            0     1103.535    23.315833     21.35364    21.684176    10796.072    1438.2311    947.12689    925.24709    -128.7459    -616.5689   -104.14667   -6402.0016 
 2738000    92.238327   -6796.6632   -6559.3857   -6796.6632            0    1648.3923    23.292139    21.412301    21.604431    10774.957    900.63005    2253.5516    1790.9954    232.41076   -361.13984   -1136.1884   -6300.3546 
 2739000    87.120474   -6795.8623   -6571.7502   -6795.8623            0    1580.4648    23.307742    21.380023    21.596302    10761.871    890.98369    1667.0379    2183.3728    181.23168    37.187822   -370.70877   -6323.6949 
 2740000     89.38182   -6794.7747   -6564.8455   -6794.7747            0    924.62462    23.334667    21.379076    21.653553    10802.387    588.23823    1500.2218    685.41385    240.67291   -428.95162   -321.42821   -6419.1785 
 2741000    87.753349   -6797.8335   -6572.0934   -6797.8335            0    1214.8508    23.142966    21.518376    21.667371     10790.33    1734.0124    812.75074    1097.7893   -238.89215    265.27227   -1116.0674   -6380.9173 
 2742000      89.6472   -6801.8943   -6571.2824   -6801.8943            0    1411.5731    23.343724    21.296624    21.696862    10786.433    1029.5818    1882.0184     1323.119   -515.04428  -0.30512477   -465.12519   -6349.2291 
 2743000    84.544272   -6779.8949   -6562.4099   -6779.8949            0    1874.5099    23.167945    21.459009    21.650072    10763.574    1511.9139    1381.5001    2730.1158   -236.74117    585.95207     47.73054   -6268.1574 
 2744000    86.533461   -6791.5411    -6568.939   -6791.5411            0    753.35238    23.336802    21.369426    21.655615    10799.527    585.44271    1177.3384      497.276   -38.958957   -878.45164   -363.34302    -6450.286 
 2745000    91.756202     -6787.76   -6551.7228     -6787.76            0    842.81781    23.292098    21.426363    21.684309    10821.879    828.68036    1207.6706    492.10248   -707.02091    33.462948   -805.17038   -6418.7042 
 2746000    84.276261    -6791.957   -6575.1614    -6791.957            0    1742.4346    23.188494    21.445861    21.652855    10767.905    2578.7864    1230.2222    1418.2952    182.31231    67.920925   -424.78169   -6301.5315 
 2747000    89.309793   -6798.6566   -6568.9126   -6798.6566            0    1801.1556    23.287858    21.352201    21.645591    10763.206    2047.5505    1987.5786    1368.3376    -271.2316   -335.86353   -304.62413   -6286.1846 
 2748000    87.002421   -6789.9804    -6566.172   -6789.9804            0    1456.2963    23.305489    21.428972    21.589801     10782.22    1413.7058    1481.5663    1473.6168   -163.58717   -292.25879   -504.13784   -6337.1728 
 2749000    87.766262   -6800.2194    -6574.446   -6800.2194            0    1513.2943    23.291316     21.39908    21.603136    10767.278    809.39033    1645.6255     2084.867   -219.87399    587.16626   -457.96314   -6336.8139 
 2750000    90.128061   -6780.7635   -6548.9146   -6780.7635            0    1313.2724    23.303079    21.416981     21.61793    10789.111    1239.5242    835.83093    1864.4622   -270.76001    47.434973    1.7560742   -6342.2737 
Loop time of 540.157 on 64 procs for 250000 steps with 1296 atoms

Performance: 79.977 ns/day, 0.300 hours/ns, 462.828 timesteps/s
99.1% CPU use with 64 MPI tasks x 1 OpenMP threads

MPI task timing breakdown:
Section |  min time  |  avg time  |  max time  |%varavg| %total
---------------------------------------------------------------
Pair    | 29.046     | 40.57      | 52.606     | 116.4 |  7.51
Bond    | 0.27832    | 0.28839    | 0.2996     |   0.7 |  0.05
Kspace  | 274.2      | 286.52     | 298.19     |  44.0 | 53.04
Neigh   | 1.0738     | 1.0936     | 1.1102     |   0.7 |  0.20
Comm    | 91.129     | 92.261     | 94.29      |  10.0 | 17.08
Output  | 0.64567    | 0.64599    | 0.64725    |   0.0 |  0.12
Modify  | 105.48     | 107.19     | 109.39     |   9.0 | 19.84
Other   |            | 11.59      |            |       |  2.15

Nlocal:        20.2500 ave          26 max          14 min
Histogram: 5 6 8 8 0 9 7 7 5 9
Nghost:        2597.80 ave        2619 max        2564 min
Histogram: 2 4 2 5 5 6 16 6 13 5
Neighs:        6471.31 ave        8325 max        4507 min
Histogram: 5 6 8 8 1 8 7 7 7 7

Total # of neighbors = 414164
Ave neighs/atom = 319.57099
Ave special neighs/atom = 2.0000000
Neighbor list builds = 1974
Dangerous builds = 0

unfix		3
unfix		2
unfix		1

write_data	data.final.${pid}
write_data	data.final.0
System init for write_data ...
PPPM initialization ...
  extracting TIP4P info from pair style
  using 12-bit tables for long-range coulomb (../kspace.cpp:340)
  G vector (1/distance) = 0.37779428
  grid = 30 40 36
  stencil order = 5
  estimated absolute RMS force accuracy = 0.0025806531
  estimated relative force accuracy = 7.7715602e-06
  using double precision FFTW3
  3d grid and FFT values/proc = 5472 750
Last active /omp style is kspace_style pppm/tip4p/omp
WARNING: Not all mixed pair coeffs generated from mixing. Use write_data with 'pair ij' option to store all pair coeffs. (../write_data.cpp:312)

write_restart   restart.lmp.${pid}
write_restart   restart.lmp.0
System init for write_restart ...
PPPM initialization ...
  extracting TIP4P info from pair style
  using 12-bit tables for long-range coulomb (../kspace.cpp:340)
  G vector (1/distance) = 0.37779428
  grid = 30 40 36
  stencil order = 5
  estimated absolute RMS force accuracy = 0.0025806531
  estimated relative force accuracy = 7.7715602e-06
  using double precision FFTW3
  3d grid and FFT values/proc = 5472 750
Last active /omp style is kspace_style pppm/tip4p/omp
Total wall time: 0:09:00
