#include		in.partitions
include		in.temp
variable        temperature equal 52.60
variable	tempDamp equal 100.0
include		in.pressure
variable        pressure equal 2008.6
variable        pressureDamp equal 1000.0 # This is 1 ps
include		in.seed
variable        seed equal 745823

units		real
atom_style	full
box tilt large
read_restart	restart.lmp.${pid}
read_restart	restart.lmp.0
Reading restart file ...
  restart file = 30 Jul 2021, LAMMPS = 30 Jul 2021
  restoring atom style full from restart
  triclinic box = (-10.659515 -9.1213855 0.13826987) to (12.639515 12.111383 21.721729) with tilt (-9.0698182 1.9442529 2.9029140)
  2 by 2 by 4 MPI processor grid
  restoring pair style lj/cut/tip4p/long/omp from restart
  restoring bond style harmonic/omp from restart
  restoring angle style harmonic/omp from restart
  1296 atoms
  864 bonds
  432 angles
Finding 1-2 1-3 1-4 neighbors ...
  special bond factors lj:    0        0        0       
  special bond factors coul:  0        0        0       
     2 = max # of 1-2 neighbors
     1 = max # of 1-3 neighbors
     1 = max # of 1-4 neighbors
     2 = max # of special neighbors
  special bonds CPU = 0.001 seconds
  read_restart CPU = 0.005 seconds
include 	in.setup
variable	out_freq equal 1000
variable	out_freq2 equal 10000
variable	out_freq3 equal 1000

timestep	2.0

neigh_modify    delay 7 every 1

include		in.tip4p
# This is TIP4P/Ice

# create groups ###
group ox type 2
432 atoms in group ox
group hy type 1
864 atoms in group hy

# set charges - beside manually ###
set group ox charge -1.1794
Setting atom values ...
  432 settings made for charge
set group hy charge 0.5897
Setting atom values ...
  864 settings made for charge

# ### TIP3P Potential Parameters ###
pair_style lj/cut/tip4p/long/omp 2 1 1 1 0.1577 8.5
pair_coeff 1 1*2 0.000 0.000
pair_coeff 2 2 0.21084 3.1668
bond_style  harmonic
bond_coeff  1 450 0.9572
angle_style harmonic
angle_coeff 1 55 104.52
kspace_style pppm/tip4p/omp 1.0e-5
pair_modify tail yes

thermo          ${out_freq}
thermo          1000
thermo_style    custom step temp pe etotal epair emol press lx ly lz vol pxx pyy pzz pxy pxz pyz enthalpy

restart 	${out_freq3} restart.lmp.${pid} restart2.lmp.${pid}
restart 	1000 restart.lmp.${pid} restart2.lmp.${pid}
restart 	1000 restart.lmp.0 restart2.lmp.${pid}
restart 	1000 restart.lmp.0 restart2.lmp.0


include         in.dump
dump            myDump all atom ${out_freq2} dump.water.${pid}
dump            myDump all atom 10000 dump.water.${pid}
dump            myDump all atom 10000 dump.water.0
dump            myDump2 all dcd ${out_freq2} dump.dcd
dump            myDump2 all dcd 10000 dump.dcd
dump_modify     myDump append yes
dump_modify     myDump2 append yes


variable natoms 	equal  "count(all)"                        # NUMBER ATOMS
variable H      	equal  "enthalpy/v_natoms"                 # ENTHALPY-per-atom
variable Vol      	equal  "vol/v_natoms"                 # volume-per-atom
fix AVG all 		ave/time ${out_freq} 1 ${out_freq} v_Vol v_H file vol_enthalpy.dat
fix AVG all 		ave/time 1000 1 ${out_freq} v_Vol v_H file vol_enthalpy.dat
fix AVG all 		ave/time 1000 1 1000 v_Vol v_H file vol_enthalpy.dat


timer           timeout 10:00:00 every 1000
New timer settings: style=normal  mode=nosync  timeout=10:00:00

fix 		1 all shake 1e-6 200 0 b 1 a 1
       0 = # of size 2 clusters
       0 = # of size 3 clusters
       0 = # of size 4 clusters
     432 = # of frozen angles
  find clusters CPU = 0.000 seconds
fix             2 all nph tri ${pressure} ${pressure} ${pressureDamp}
fix             2 all nph tri 2008.6 ${pressure} ${pressureDamp}
fix             2 all nph tri 2008.6 2008.6 ${pressureDamp}
fix             2 all nph tri 2008.6 2008.6 1000
fix             3 all temp/csvr ${temperature} ${temperature} ${tempDamp} ${seed}
fix             3 all temp/csvr 52.6 ${temperature} ${tempDamp} ${seed}
fix             3 all temp/csvr 52.6 52.6 ${tempDamp} ${seed}
fix             3 all temp/csvr 52.6 52.6 100 ${seed}
fix             3 all temp/csvr 52.6 52.6 100 745823


run             250000
PPPM initialization ...
  extracting TIP4P info from pair style
  using 12-bit tables for long-range coulomb (../kspace.cpp:340)
  G vector (1/distance) = 0.36742156
  grid = 27 40 32
  stencil order = 5
  estimated absolute RMS force accuracy = 0.0045328472
  estimated relative force accuracy = 1.3650535e-05
  using double precision FFTW3
  3d grid and FFT values/proc = 10353 2240
Last active /omp style is kspace_style pppm/tip4p/omp
Neighbor list info ...
  update every 1 steps, delay 7 steps, check yes
  max neighbors/atom: 2000, page size: 100000
  master list distance cutoff = 10.8154
  ghost atom cutoff = 10.8154
  binsize = 5.4077, bins = 7 5 4
  1 neighbor lists, perpetual/occasional/extra = 1 0 0
  (1) pair lj/cut/tip4p/long/omp, perpetual
      attributes: half, newton on, omp
      pair build: half/bin/newton/tri/omp
      stencil: half/bin/3d/tri
      bin: standard
Per MPI rank memory allocation (min/avg/max) = 12.67 | 12.68 | 12.69 Mbytes
Step Temp PotEng TotEng E_pair E_mol Press Lx Ly Lz Volume Pxx Pyy Pzz Pxy Pxz Pyz Enthalpy 
37500000     57.82901   -6878.6331   -6729.8715   -6878.6331            0    2186.3636    23.299029    21.232769    21.583459      10677.4    2069.6117    2231.7272     2257.752   -680.94074   -53.014228    19.072619   -6389.4133 
37501000    52.900275   -6889.5683   -6753.4855   -6889.5683            0    1766.5018    23.342079    21.150717    21.658888     10693.03    1158.9687    2444.5995    1695.9372    333.24157   -511.02309    172.72147   -6478.0051 
37502000    51.638309    -6886.068   -6753.2316    -6886.068            0    2001.8209    23.299268    21.200724    21.634598    10686.655    1374.8666    2599.3469    2031.2492    101.86559   -403.17339    132.77034     -6441.24 
37503000    54.072133   -6891.9406   -6752.8433   -6891.9406            0    2054.7775    23.269229    21.203324    21.628139    10670.999    1882.6376    2499.1959    1782.4989    -51.45626   -267.39142     145.1827   -6433.0674 
37504000    51.683859   -6893.4416    -6760.488   -6893.4416            0    2166.4581    23.274338    21.172456    21.667086    10676.996    1655.5348    3322.9564     1520.883   -35.376709   -519.39228   -11.011594   -6423.1422 
37505000    53.253308   -6891.9307   -6754.9399   -6891.9307            0    1789.7298    23.286258    21.211476    21.630748    10684.203    1638.4857    2377.4303    1353.2735   -370.57304   -121.93898   -283.54243   -6476.0675 
37506000    54.081758   -6887.7706   -6748.6486   -6887.7706            0    2121.8211    23.269043    21.200465    21.642548    10676.583    1484.7313     2811.089    2069.6431    607.52643   -756.06588   -393.68232   -6418.2661 
37507000    52.335128   -6892.4425   -6757.8136   -6892.4425            0    1173.4344    23.283504    21.197412    21.709902    10714.923    1091.5164    1639.0218    789.76498    379.13905    -796.7662    232.89658   -6574.4455 
37508000    53.945926   -6890.1682   -6751.3956   -6890.1682            0    1936.2826    23.271204    21.264781    21.581644    10679.829      1854.99    1806.0975    2147.7603   -229.53703   -227.70692    230.54585   -6449.8112 
37509000    55.181916   -6885.3609   -6743.4088   -6885.3609            0    2310.5325    23.310623    21.146496    21.617792    10656.231    1985.3897    2420.2859    2525.9219   -447.19699   -623.92379    340.15315   -6384.3285 
37510000    53.109284   -6886.2907   -6749.6703   -6886.2907            0    2221.5802    23.217184    21.192339    21.681214    10667.731     2403.923    2599.1686     1661.649    509.19184    52.686921    46.049228   -6404.0415 
37511000    53.633035   -6890.1952   -6752.2275   -6890.1952            0     2155.156    23.275139    21.213567    21.587051    10658.579    1542.9371    2633.2225    2289.3083   -226.03465  -0.67473645    88.814309   -6417.2205 
37512000    53.225767   -6878.3073   -6741.3873   -6878.3073            0    2073.4851    23.265753     21.16598    21.664929    10668.731    2387.3988    2624.8257    1208.2309    51.220954   -285.10693   -354.25334   -6418.7686 
37513000    53.891565   -6884.1609   -6745.5282   -6884.1609            0    2836.3429    23.239067    21.189469    21.604104    10638.368    2446.4639    3083.8682    2978.6967   -598.99509   -512.57203    260.38371   -6305.4704 
37514000    50.403323   -6887.3399   -6757.6804   -6887.3399            0    2570.6897    23.231022    21.225015    21.592604    10646.854    2022.9276    3188.1266    2501.0149    245.20688   -517.82018    24.099796   -6358.5205 
37515000    52.675927   -6886.4739   -6750.9683   -6886.4739            0    2689.0086    23.246881     21.13995    21.658896    10644.002    2396.1235    2916.8477    2754.0545    -505.9886    -268.7209    -2.492735   -6333.5485 
37516000    54.168804   -6892.5216   -6753.1756   -6892.5216            0    2243.8802     23.28686    21.201897    21.579975    10654.586    2139.9409    2400.1153    2191.5845   -321.76936   -603.98325    14.051546   -6404.5076 
37517000    53.112826   -6888.9281   -6752.2986   -6888.9281            0    2123.3059    23.218565    21.233789    21.634276     10666.09     2234.319    2099.1787    2036.4201    -817.6967     133.5899    168.05439   -6422.0099 
37518000    51.229635   -6890.7088   -6758.9237   -6890.7088            0    2518.5036    23.266082    21.119896     21.67912    10652.625    2076.5595    3578.2941    1900.6573   -18.767639    -464.1779   -256.76015   -6367.6549 
37519000    52.489915   -6888.1273   -6753.1002   -6888.1273            0    2060.6881    23.261168    21.236738    21.590954    10665.744    1518.5158    2178.1531    2485.3953   -251.87184    -29.69714   -40.091704   -6432.5624 
37520000    51.642472   -6888.5699   -6755.7228   -6888.5699            0    2304.6394    23.234419    21.213704    21.638938    10665.575    2091.0677     2721.102    2101.7484    298.76879   -17.419312   -140.23789   -6397.2443 
37521000    51.816521   -6893.3009    -6760.006   -6893.3009            0    2062.7433    23.244514    21.230895    21.622753    10670.868    2252.3483    2290.8983    1644.9832   -565.98244   -208.83303    93.823557   -6438.9944 
37522000    54.292718   -6892.2313   -6752.5666   -6892.2313            0    1990.3129    23.222327    21.262104    21.632802    10681.315    1595.0597    2315.7224    2060.1565    324.78987   -429.28371   -39.939182   -6442.5236 
37523000    52.109869   -6891.1833   -6757.1338   -6891.1833            0    1972.5518    23.269008    21.234796     21.62269    10684.044    1332.0441    2350.1438    2235.4676    224.55761   -198.33055    115.88271    -6449.779 
37524000    57.496441   -6888.3568   -6740.4507   -6888.3568            0    1820.5441     23.28211    21.192464     21.68756    10700.757    1409.1711    2834.5746    1217.8865   -190.24044    302.51764   -317.47012   -6456.3374 
37525000    56.744118   -6892.1317   -6746.1609   -6892.1317            0    1665.4937    23.307946    21.247261    21.590858    10692.441    950.16286    1943.2723     2103.046    128.08494    165.45125    421.47582   -6486.4467 
37526000    53.429696    -6883.928   -6746.4834    -6883.928            0    1602.3983     23.23559    21.267073    21.663077    10704.874    1404.8338    1742.8933    1659.4678   -8.5361778   -172.36384   -355.63531   -6496.3176 
37527000    52.730631   -6884.7043    -6749.058   -6884.7043            0    1854.5094    23.248622    21.253095    21.603582    10674.441     1962.676    1776.2189    1824.6334    356.08466   -318.89503    661.01205   -6460.3558 
37528000    49.904259   -6888.7147    -6760.339   -6888.7147            0    2137.5971     23.22929    21.215656    21.677251    10683.083    2102.7881    2877.8058    1432.1975    317.78475    -102.2173   -369.46286   -6427.2975 
37529000    53.106087   -6894.9387   -6758.3266   -6894.9387            0    1957.0353    23.318637    21.179613    21.606849    10671.184    984.97395     2929.136    1956.9959    211.09936    281.38645    534.58173   -6453.7565 
37530000     53.81371   -6884.1008   -6745.6683   -6884.1008            0    2080.6144    23.217012     21.28258    21.632054    10688.785    2662.2047    2073.8539    1505.7845   -263.33484   -55.074558   -440.97785   -6421.3318 
37531000    55.408086   -6889.9408   -6747.4068   -6889.9408            0    1872.7051    23.313808    21.196927    21.613772    10681.117    1281.5048    2527.3134    1809.2971    315.91477    69.771108   -188.69741   -6455.6897 
37532000    53.841224   -6887.8749   -6749.3717   -6887.8749            0    1917.0536    23.286887    21.221367    21.644941    10696.488    1263.5056    2841.6645    1645.9906    260.75504   -382.64083   -670.52379   -6450.3165 
37533000    53.098828   -6889.3205    -6752.727   -6889.3205            0    2202.0236    23.238253    21.233773    21.614436    10665.336    1664.7731     3133.467    1807.8306    105.50294    4.7596005    359.79249   -6410.2177 
37534000    52.128347   -6890.8219   -6756.7249   -6890.8219            0    2273.9846    23.296232    21.202045    21.596216    10666.971    1274.0005    3506.9256    2041.0278    165.12838   -138.55739   -126.79435   -6402.9684 
37535000    52.495224   -6895.0948    -6760.054   -6895.0948            0    1959.7862    23.232948     21.22745    21.638825    10671.754    2051.1025    2091.5268    1736.7293    66.543307    145.94496   -56.283561   -6455.0396 
37536000    50.325986   -6886.7208   -6757.2603   -6886.7208            0    2312.0791     23.24498    21.265142     21.56304    10658.779    2306.5365     2075.354    2554.3467   -203.68739   -142.87224   -151.76799   -6397.8537 
37537000    53.069463   -6888.7535   -6752.2355   -6888.7535            0    1641.2867    23.256795    21.209836    21.671046    10689.738    1068.7409    2338.6627    1516.4563   -340.10928   -344.02711    230.58343   -6496.3608 
37538000    52.082472   -6887.3866   -6753.4076   -6887.3866            0    1919.3377    23.259171    21.237485    21.614957     10677.06    1800.1039    2250.6226    1707.2866   -383.56606    -383.9334   -106.89858   -6454.5399 
37539000    51.439548   -6884.6465   -6752.3214   -6884.6465            0    2219.3865    23.242421    21.197079     21.64778    10665.243    1865.1562    2649.0947    2143.9085    100.40864    200.89448    -225.7565   -6407.1144 
37540000    52.525581   -6891.7145   -6756.5957   -6891.7145            0    1927.7478    23.299981    21.212391     21.57804     10664.91     1483.264    2124.3728    2175.6066    -475.8269    437.40965   -10.990476     -6456.76 
37541000    52.465933   -6892.3586   -6757.3932   -6892.3586            0    2099.1498      23.1873    21.253242    21.647558    10668.031    2356.7711    1368.4779    2572.2003   -404.12836   -240.62954    502.23218   -6430.8027 
37542000    54.140782   -6892.9233   -6753.6494   -6892.9233            0    2061.8759    23.231843    21.263144    21.579868    10660.067     1249.306         2526    2410.3217    28.037612   -52.237409   -301.22734   -6433.0976 
37543000    54.087557   -6887.6992   -6748.5623   -6887.6992            0    2168.4245    23.259952     21.16911    21.674201    10672.214    2143.4496    3082.7753    1279.0484    59.041847    29.067687   -412.01141   -6411.0616 
37544000    52.236457   -6884.7827   -6750.4076   -6884.7827            0    2410.7955    23.267439    21.252468    21.554644    10658.567    1993.5611    2732.2895     2506.536   -98.895926    -128.7051    193.06887   -6375.6633 
37545000    49.160846   -6892.5527   -6766.0895   -6892.5527            0    2016.2919    23.170033    21.259884    21.699354    10688.933    1908.0602       2777.1    1363.7153   -562.98649    29.969343    192.81062   -6451.7755 
37546000    53.265165   -6886.0501   -6749.0288   -6886.0501            0    2175.8869    23.273368    21.242458     21.57697    10667.299    1715.0857     2796.627    2015.9479    988.47434   -127.60015    140.27148   -6410.5225 
37547000     49.62366   -6885.0164   -6757.3626   -6885.0164            0    1909.1581    23.173913    21.300669    21.643402    10683.613    2091.9422    2047.0246    1588.5074    258.01944    119.13652   -400.67192   -6459.8976 
37548000    55.063092   -6889.1673   -6747.5208   -6889.1673            0    2452.1579    23.245598    21.264618     21.55547    10655.058    2077.9971    2300.2228    2978.2537    74.466521    32.148269    476.81809   -6366.4724 
37549000    53.330383   -6886.8267   -6749.6376   -6886.8267            0    2059.9403    23.182359    21.279995     21.65915    10684.902    2146.7533    2211.0783    1821.9892   -415.49467   -94.325992   -130.91327   -6428.6405 
37550000    52.716669    -6888.806   -6753.1956    -6888.806            0    1977.3951    23.248695    21.282612    21.561573    10668.514    2047.0228    1562.2496    2322.9131   -11.397787    189.54916    515.02658    -6445.534 
37551000    53.485751   -6887.2142   -6749.6254   -6887.2142            0    1411.2029    23.170051    21.301904    21.711608    10716.116    1994.7563    1293.8085     945.0438   -582.97728   -110.82082   -160.86957   -6529.0776 
37552000    52.185243   -6893.9635   -6759.7201   -6893.9635            0    1577.2464    23.231931    21.297367    21.606081    10690.234    1185.6746    2221.4483    1324.6164    216.31988    -432.5751    270.83166   -6513.8178 
37553000    53.158289   -6893.5752   -6756.8288   -6893.5752            0    1959.6858    23.188388    21.280311    21.650832    10683.735    2001.1389    2232.6894    1645.2291    599.55438   -203.17163   -31.304071   -6451.4875 
37554000    55.408547   -6892.6026   -6750.0675   -6892.6026            0    1959.0576     23.30997    21.245406    21.545594     10670.02     1245.862    2261.1179     2370.193    323.30888   -288.89498   -60.332551    -6445.216 
37555000    54.190757   -6890.7967   -6751.3943   -6890.7967            0    1779.0152    23.183309    21.311733    21.632785    10688.251    2171.8222    1607.6826    1557.5406    -125.7843   -456.12201    209.08204   -6474.0864 
37556000    53.484774   -6883.2006   -6745.6143   -6883.2006            0    1593.1677    23.212616    21.317499    21.619358    10698.013    1684.9721     1352.014     1742.517   -199.23864   -476.37543   -19.350956    -6497.049 
37557000    53.682232   -6891.6869   -6753.5926   -6891.6869            0    1889.6755    23.191737    21.281422    21.658117    10689.432    1888.1065    2346.4376    1434.4825    314.81036    22.674663    -99.58982   -6459.0028 
37558000    52.815795   -6889.3536   -6753.4882   -6889.3536            0    2488.1799    23.219093    21.280987    21.558028    10652.365    2063.2316    2870.3708    2530.9372     -416.951    309.30379   -1.3987702   -6366.9399 
37559000     53.06748    -6889.429   -6752.9162    -6889.429            0    2082.1937    23.166978    21.279405    21.645659    10670.866    2427.2415    2128.1554    1691.1842   -61.200453   -727.49969   -32.236681   -6428.8776 
37560000    50.941666   -6893.6963    -6762.652   -6893.6963            0    1823.1921    23.224869    21.304345    21.593191    10684.108    1666.4817    1716.2556    2086.8391   -317.29834   -292.13267    45.959903   -6478.5681 
37561000    52.380312   -6888.5843   -6753.8391   -6888.5843            0    1871.1646     23.23508    21.242239    21.640084    10680.791    1799.0447    1904.2918    1910.1572    133.50385   -289.32011   -2.7901729   -6462.3708 
37562000    52.561436    -6886.572   -6751.3609    -6886.572            0    1463.5004    23.217501    21.337668    21.606266    10703.902    2134.5212    944.11364    1311.8664   -371.55677   -183.72324   -202.59467   -6522.9005 
37563000     54.31787   -6883.0319   -6743.3025   -6883.0319            0    1940.1417    23.184032    21.303848     21.63435    10685.402    2099.4548    2239.7411    1481.2292   -270.21045    111.77143   -355.76987   -6440.9593 
37564000    51.906276   -6888.0797   -6754.5539   -6888.0797            0    2075.2932    23.258578    21.260188    21.581133    10671.476    1249.0787    2712.7223    2264.0786    28.134901    680.07257    72.118542   -6431.5708 
37565000    50.364372   -6892.6303   -6763.0711   -6892.6303            0     1857.531     23.19178    21.276691    21.662664    10689.319    1977.9209    1537.1205    2057.5515   -65.824128   -40.515939   -100.61584   -6473.4955 
37566000    51.546884   -6879.7888   -6747.1876   -6879.7888            0    1956.7842    23.218095    21.326974    21.581923    10686.758    2190.4682     1657.957    2021.9274     123.9049   -263.62136    24.408915   -6442.2122 
37567000    51.383165   -6894.0526   -6761.8725   -6894.0526            0      2186.34    23.187996    21.283448    21.632171     10675.92    2616.4078    1987.5101    1955.1021   -257.58466   -264.99123   -50.136123   -6421.4652 
37568000    51.554218   -6891.5757   -6758.9556   -6891.5757            0    1891.4362    23.234066    21.295185    21.587413    10680.885     1605.953    1779.5748    2288.7807    545.82191   -245.99935    63.898472   -6464.3271 
37569000    49.535651   -6892.0041   -6764.5766   -6892.0041            0    1565.6404    23.167334    21.323019    21.661999    10700.973    1938.1369    1679.4124    1079.3718   -153.94564   -141.91625   -185.47474   -6520.2385 
37570000     52.42287     -6890.23   -6755.3753     -6890.23            0    1727.5435    23.231032    21.341556    21.551431    10684.906    1425.2743     1633.017    2124.3392    20.993538   -327.04278    136.14842    -6486.175 
37571000    52.884314   -6887.9056   -6751.8639   -6887.9056            0    1791.8869    23.150741    21.307567    21.688146    10698.458    2158.2309    1737.5272    1479.9025   -414.50399   -94.377849    34.769412   -6472.2829 
37572000    56.922904   -6888.6001   -6742.1694   -6888.6001            0    1649.8525    23.235851    21.352581    21.545694    10689.796    1661.9627    1357.1674    1930.4274   -290.48395    74.454452   -31.085734   -6484.9578 
37573000    51.572028   -6891.6124   -6758.9465   -6891.6124            0    1956.7046    23.159209    21.295778    21.668377    10686.699    2561.5869    2113.8737    1194.6533    93.890076   -422.40853    74.862122   -6453.9852 
37574000    52.773767   -6890.9641   -6755.2068   -6890.9641            0    1838.7673    23.185384    21.351474    21.585436      10685.7    1974.2476    1621.7734    1920.2809    356.56407   -743.67703    493.11506   -6468.6534 
37575000    53.121887   -6889.7383   -6753.0855   -6889.7383            0    1376.2918    23.185153    21.331526    21.626268    10695.805    1766.2232    1038.6532    1323.9991    853.22766   -146.94544   -28.245365   -6538.4014 
37576000    51.685738   -6887.0863   -6754.1279   -6887.0863            0    1732.5457    23.183129     21.32119    21.616167    10684.696    1816.9082    2173.0552    1207.6736    866.50147   -27.918041   -113.34238   -6484.1534 
37577000     49.17292   -6883.5255   -6757.0312   -6883.5255            0    2023.9598    23.139115    21.353425    21.600887    10672.985    2036.1426    2392.7987    1642.9381    109.78893    298.52945    218.63914   -6441.9926 
37578000    53.673439    -6883.178   -6745.1063    -6883.178            0    2045.7432    23.148115    21.358375    21.599769    10679.058    1602.9839    2064.5106    2469.7351   -139.49866    213.72803   -14.442082   -6426.4959 
37579000    50.670449   -6888.6146   -6758.2679   -6888.6146            0    2210.3864    23.165925     21.30244    21.603764    10661.257     2484.776    1929.9823    2216.4009    335.89826    77.079897    246.18637   -6414.5893 
37580000    56.791133    -6891.461   -6745.3693    -6891.461            0    2326.2606    23.168834    21.315963    21.587243    10661.205    2594.4026    2037.1737    2347.2056    366.05122   -568.37674    75.277835   -6383.6759 
37581000    52.673509   -6892.9837   -6757.4843   -6892.9837            0     1982.534    23.135262    21.296302    21.665462    10674.476    2064.9985    2692.4176    1190.1859    535.95864   -302.41712    106.29002   -6448.8507 
37582000    52.751956   -6891.5407   -6755.8395   -6891.5407            0    2208.1948    23.174891    21.351193    21.545561    10660.993    1722.3712    2330.5162    2571.6971     301.6258    361.91518   -435.13977   -6412.5102 
37583000    55.730276   -6897.3601   -6753.9974   -6897.3601            0      1762.93    23.149822    21.320162    21.631735    10676.515    1835.8404    1693.4939    1759.4558    17.496127      254.169   -107.35254   -6479.4986 
37584000    55.194263   -6884.3457   -6742.3618   -6884.3457            0    1962.2226    23.148284    21.391805    21.580369    10686.244    2122.9234    1337.6762    2426.0682   -304.74809    462.65925    192.88225   -6436.5535 
37585000     51.71675   -6888.9655   -6755.9273   -6888.9655            0    1843.9664    23.148725    21.339967    21.617055    10678.675    1516.8499    1845.6907    2169.3587   -176.48105    -162.7485    290.14573   -6468.7525 
37586000    51.596322   -6889.0895   -6756.3611   -6889.0895            0    2215.6076    23.157625    21.317583    21.590722    10658.575    2610.9307    2005.9475    2029.9447    89.885393   -504.26513    155.05023   -6411.9574 
37587000    51.071192   -6890.9537   -6759.5761   -6890.9537            0    2055.7647     23.15659    21.319516    21.605525    10666.373    2747.4207    1844.3743    1575.4993    116.27375   -592.34913   -85.001003   -6439.7852 
37588000    51.604733   -6884.6766   -6751.9265   -6884.6766            0    1615.4185    23.156916    21.324026    21.635971    10683.814    1761.7414    1559.5374    1524.9766   -193.08591    47.245189    303.06118   -6500.2242 
37589000    50.623769    -6892.935   -6762.7085    -6892.935            0     2032.143    23.171815    21.344533    21.563809    10665.278    1877.9921    2001.3201    2217.1168    108.88765   -175.74035    8.2445548   -6446.6246 
37590000    50.559104   -6885.8052    -6755.745   -6885.8052            0    2095.1988    23.169287    21.276287    21.632676    10663.966    2018.9521    2392.0407    1874.6035    666.24591   -116.41567    47.565583   -6429.8933 
37591000    53.020186   -6895.6839   -6759.2927   -6895.6839            0      2318.98    23.161326    21.300822    21.596507    10654.751    2468.6423    2348.3631    2139.9345   -743.22934     625.6831    40.723224   -6398.9497 
37592000    52.109502   -6886.4253   -6752.3768   -6886.4253            0    2372.5866    23.154532     21.33941     21.57437    10659.984    2019.3148    1856.5524    3241.8927    416.86937   -192.80541    447.11521   -6383.5228 
37593000    52.985681   -6890.5541   -6754.2516   -6890.5541            0    1620.9948    23.174116    21.314494    21.644817     10691.34    1621.0372    2031.0128    1210.9345   -188.56003    508.20232    108.72568   -6501.5025 
37594000    52.297341   -6885.8111   -6751.2794   -6885.8111            0    2027.6966    23.180901    21.310339    21.611725    10676.038    1690.6823    1842.0493    2550.3582    789.33103    6.1261302    265.93418   -6435.5689 
37595000    50.759901   -6891.9656   -6761.3889   -6891.9656            0    2117.5204    23.144444    21.338685    21.586815    10661.123    2210.8515    1873.3432    2268.3665   -79.098771    177.82584    121.94028   -6432.1535 
37596000    53.521823   -6884.6288   -6746.9471   -6884.6288            0    2230.5573    23.136682    21.368712    21.562134    10660.342    2241.6043    1885.2598    2564.8079    542.92351   -454.14158    228.78633    -6400.162 
37597000    52.407793   -6888.5614   -6753.7456   -6888.5614            0    1765.9873    23.158219    21.344566    21.608535    10681.145    1888.6207     1522.606    1886.7352   -222.00176    425.92972   -172.95282   -6478.6515 
37598000    48.799967   -6886.8084   -6761.2734   -6886.8084            0    1960.1562    23.145632    21.338753    21.625652    10680.886    2048.0523    1986.6713    1845.7451    641.91593    -209.5285    150.98912   -6455.9403 
37599000     53.07774   -6888.2763    -6751.737   -6888.2763            0    1840.1614    23.136442    21.348719    21.597027    10667.493    2096.3723    2004.8327    1419.2792    -509.1859     4.465442   -186.22016   -6465.4549 
37600000    51.251576   -6890.0094   -6758.1679   -6890.0094            0    2062.9422    23.176785    21.345954    21.567236    10669.972    1845.9505    1578.4148    2764.4612    342.35147   -185.00522   -343.23569   -6437.1522 
37601000    51.509999   -6894.6176   -6762.1112   -6894.6176            0    1868.5115    23.148803    21.310005    21.645587    10677.792     2285.976    1448.8363    1870.7222   -351.14482    192.96584    4.8602523   -6471.1379 
37602000    50.369646   -6884.2285   -6754.6557   -6884.2285            0    1790.0265    23.178802    21.338062    21.589189    10677.812    2097.7402    1636.9743     1635.365   -185.28625    155.09513   -267.11157   -6475.9039 
37603000    55.144695   -6888.2362   -6746.3798   -6888.2362            0    2091.5602    23.172908    21.286072    21.617201    10662.904    2131.1486    2230.9144    1912.6174   -17.922148   -251.48002   -164.11787   -6421.1265 
37604000    54.880208   -6893.1912   -6752.0152   -6893.1912            0    2138.5519    23.202759    21.260353    21.624639    10667.409    2544.5766    2353.1946    1517.8845   -46.472233   -246.50724   -91.264995   -6419.3138 
37605000    54.175257   -6889.3263   -6749.9638   -6889.3263            0    2492.4806    23.184921    21.280178    21.602444    10658.198    2454.2647      2830.82    2192.3571   -499.83277   -292.40536     -299.552   -6362.5354 
37606000    51.913817   -6890.5464   -6757.0013   -6890.5464            0    2693.4559     23.17346    21.283116    21.583942    10645.274    2411.1957    2860.9705    2808.2015    313.13765    -2.095192    14.563361   -6338.8411 
37607000    53.590032    -6894.163   -6756.3059    -6894.163            0    2001.8917    23.192838     21.31023    21.589679    10670.584    1820.2287    2210.5131    1974.9334    259.90209    27.091273    408.43048   -6444.7724 
37608000    52.016312   -6889.1904   -6755.3816   -6889.1904            0    2024.6711     23.17179    21.297965    21.624893    10672.143    1870.2497    1920.9053    2282.8581    372.80995   -687.55836    300.57864   -6440.2572 
37609000      51.7689    -6891.087   -6757.9146    -6891.087            0     2341.808    23.220207    21.281325    21.566877    10657.418    2516.1972     2234.402    2274.8248    80.842006   -66.740146    55.617684   -6393.9332 
37610000    50.814876   -6889.2928   -6758.5746   -6889.2928            0    2109.7564    23.183374    21.261408     21.66832    10680.557    1876.1037    2758.5682    1694.5973   -235.21389   -169.30343   -217.72755   -6429.9484 
37611000      53.1482    -6889.313   -6752.5925    -6889.313            0    1869.5719     23.22344    21.306614    21.577248      10676.7    1609.9256    1756.3723     2242.418   -160.22057   -448.12214    497.45697   -6461.4838 
37612000    51.323319   -6884.2358   -6752.2097   -6884.2358            0    2262.5733    23.223424    21.208059    21.665696     10670.87    1940.5413    2880.8368    1966.3419    157.16426    289.83049    171.02013   -6400.0997 
37613000    54.190627   -6892.6559   -6753.2538   -6892.6559            0    2129.6621     23.24677    21.288097    21.564681    10671.919     1927.579    1760.8634    2700.5438    98.530166   -334.00363    72.014134   -6421.7954 
37614000    52.755076   -6887.2373   -6751.5281   -6887.2373            0    1824.8185    23.239971    21.292669    21.600585    10688.856    2050.2734    1345.2599    2078.9222   -318.99378   -339.32912    697.40253   -6467.0644 
37615000     52.31528   -6886.0423   -6751.4645   -6886.0423            0    1607.1862    23.231045    21.263256    21.679218    10708.832    1618.7328    1944.2923    1258.5335   -297.75463   -57.940488    39.443825   -6500.4584 
37616000     52.09303   -6897.2052   -6763.1991   -6897.2052            0    1662.4652    23.279632    21.270613    21.592088    10691.798    1483.1056    1300.0282    2204.2617   -211.36408   -212.66313     496.2786   -6503.9727 
37617000    49.309554   -6894.2937   -6767.4479   -6894.2937            0    2141.8738    23.251421    21.204076    21.647651    10672.831    1425.7888    2650.5295     2349.303    3.6485197   -812.78697    357.89503   -6434.0604 
37618000    51.965004   -6892.3441   -6758.6673   -6892.3441            0    2072.3894    23.285207    21.213436    21.625789    10682.259    1940.0542    2210.2603    2066.8538   -301.05761   -336.24972    91.356337   -6435.8102 
37619000    53.446102   -6893.7122   -6756.2254   -6893.7122            0    1952.3904    23.260697    21.243939    21.594199    10670.748    1196.7393    2007.5908     2652.841    167.32272   -65.102938    149.21866   -6452.3907 
37620000    52.658602   -6891.1919   -6755.7309   -6891.1919            0    2360.1206    23.278423    21.158848     21.64923    10663.211    1456.2998    3427.1275    2196.9346    137.43399     48.67301    -154.3936   -6388.7038 
37621000    50.454185   -6886.8571   -6757.0668   -6886.8571            0    2065.5289    23.245758     21.20785    21.647397    10672.006    1726.8465    2714.5378    1755.2025   -10.893686   -163.99289     222.7488   -6435.5873 
37622000    52.228454   -6880.5246   -6746.1701   -6880.5246            0    1547.7698    23.278203    21.237669    21.645704     10701.09    1824.5501    1502.4811    1316.2783   -390.82897   -823.44068    294.16286   -6504.6183 
37623000    50.564964    -6886.789   -6756.7137    -6886.789            0    1677.0797    23.316055    21.211902    21.601414    10683.582    1020.0525    2264.9774    1746.2093   -295.13136    62.098743     278.6771   -6495.4095 
37624000    52.514238   -6888.1546    -6753.065   -6888.1546            0    1801.1773    23.234052    21.227538     21.67915    10692.194     1586.124    2071.9926    1745.4151   -14.338003   -107.53442    184.11926    -6472.199 
37625000     53.71333   -6887.4908   -6749.3166   -6887.4908            0    2166.3831    23.320556    21.182838    21.596408     10668.53    1734.0539    2474.3211    2290.7743   -600.21969    352.94498    49.927412     -6412.25 
37626000     51.98863    -6889.872   -6756.1344    -6889.872            0    1741.5249    23.307493    21.178815    21.664392    10694.087    1726.2017    1691.6107    1806.7624   -193.77973   -255.64702    106.06836   -6484.5222 
37627000    52.633201   -6890.0831   -6754.6874   -6890.0831            0    1785.6228    23.249587    21.272521     21.58541    10675.655     1616.188    1376.3497    2364.3308   -913.89077     60.11926    512.67078   -6476.6776 
37628000    55.290722   -6895.5975   -6753.3655   -6895.5975            0    2004.0386    23.311934    21.160786    21.631013    10670.554    1450.6728    2561.1615    2000.2815    -207.4886   -323.46055   -78.545292   -6441.4988 
37629000    53.962427   -6882.4297   -6743.6147   -6882.4297            0    2306.9476    23.278893    21.163895    21.666366    10674.413    2011.6549    3097.7165    1811.4713   -671.51991    139.21224    180.96514   -6384.4797 
37630000    51.141265   -6895.2196   -6763.6618   -6895.2196            0    2455.8163    23.261338     21.23833    21.580997    10661.703    1846.6393    2467.3831    3053.4266    124.44896   -28.967385    197.79955   -6381.8069 
37631000    49.942587   -6890.7168   -6762.2426   -6890.7168            0    2310.9406    23.245017    21.221455    21.600101    10655.181    1883.9197     2131.407     2917.495    -9.878393    37.560708    243.89469   -6403.1342 
37632000    53.618421   -6886.2965   -6748.3664   -6886.2965            0    1435.4738     23.25478    21.235033    21.680111    10705.986    790.66791    1906.9282    1608.8252   -359.31265    392.61316   -8.3274382   -6524.2375 
37633000    52.490319   -6885.1849   -6750.1568   -6885.1849            0    2006.5994    23.270483    21.227056    21.597629    10668.448    1188.0832    2162.0161    2669.6989   -3.0796192    145.83555    710.00528   -6437.9533 
37634000    51.872626   -6894.6608   -6761.2216   -6894.6608            0    1822.5977     23.27009     21.24225    21.602373    10678.249    1304.7782    2481.1824    1681.8324   -172.94592    86.177868   -181.32329   -6477.3861 
37635000    52.568247    -6897.334   -6762.1054    -6897.334            0    2102.0287    23.232977    21.179714    21.680639    10668.345    1611.9915    2818.2908     1875.804    356.85791    101.60886   -138.64731   -6435.0573 
37636000    53.545458   -6886.2077   -6748.4653   -6886.2077            0    1672.4075    23.339669    21.250908    21.552884    10689.997    1227.2859    1570.7203    2219.2162   -396.06588   -114.03169   -54.483387   -6487.7325 
37637000    52.653962   -6891.7402    -6756.291   -6891.7402            0    1594.6419    23.221388    21.245452    21.680549    10696.075    1852.5806    1896.5851    1034.7601   -326.08842   -404.99124    260.16058   -6507.5408 
37638000    50.561395   -6889.9208   -6759.8547   -6889.9208            0    1370.9562    23.330108     21.22735    21.615766    10704.914     1201.315    1779.9658    1131.5879   -273.35139    51.033566   -188.54462   -6545.8208 
37639000    52.478964   -6891.6655   -6756.6666   -6891.6655            0    1630.8894    23.284285    21.236222    21.618932    10689.919    1194.9838    2281.5875    1416.0968    -186.4709    49.900901   -201.26656   -6502.4085 
37640000    53.336171   -6891.3264   -6754.1223   -6891.3264            0    1918.6186    23.251143    21.223703    21.661341    10689.338    1938.4305    2282.4149    1535.0103    -292.1388   -253.02851    18.883644   -6455.0231 
37641000    52.462743   -6892.1181   -6757.1609   -6892.1181            0    2609.1975    23.258582    21.186708    21.622527    10654.993    1980.1702    3420.5594    2426.8627    -49.25932   -126.89941    12.402438   -6351.7121 
37642000    53.952652    -6891.835   -6753.0451    -6891.835            0     2285.917    23.283103    21.235146    21.581269    10670.214    1922.2841    3041.2741    1894.1927    494.45467   -697.36249   -366.47785   -6397.3242 
37643000    51.187928   -6886.3949   -6754.7171   -6886.3949            0    2221.4985     23.25858    21.190989    21.665601    10678.375    2227.5237    2736.2871    1700.6847   -385.35245    51.574302    647.34605   -6408.7562 
37644000    52.110561   -6891.3019   -6757.2507   -6891.3019            0    1506.7908    23.297829    21.250779    21.607602    10697.859    1101.3502    2029.2273    1389.7948   -352.59303   -536.05993   -246.94484   -6522.1653 
37645000    52.656207    -6882.066   -6746.6111    -6882.066            0    1860.5972    23.250092     21.27131    21.597214    10681.116    1868.9692    2206.6405    1506.1819    -351.5231    207.29575     17.22246   -6456.7801 
37646000    51.747323   -6889.2928    -6756.176   -6889.2928            0    1806.4834    23.215935    21.235217    21.679193    10687.743    2204.6155    2138.6587     1076.176   -104.11901   -222.16853   -817.54943   -6474.5998 
37647000    51.457381   -6891.6469    -6759.276   -6891.6469            0    2031.0713    23.289398    21.203121    21.603586    10668.022    1511.0672    2169.7696    2412.3772    38.034984   -541.38138    384.67221   -6443.2775 
37648000    51.525113   -6892.3775   -6759.8323   -6892.3775            0    1888.8968    23.251952    21.222399    21.643422    10680.211    2155.8206    2390.2564    1120.6135   -483.99909   -648.98939   -243.77662   -6465.6179 
37649000    53.970468   -6885.1845   -6746.3487   -6885.1845            0    1877.7444    23.292006    21.191174    21.634655     10678.54    1729.2531    2151.2708    1752.7092    256.98752   -778.36217    656.17093   -6453.9172 
37650000    50.937966   -6888.2958    -6757.261   -6888.2958            0    1698.3839    23.287977    21.221106     21.63115    10690.041    1207.3587     2030.615    1857.1779    447.20653   -644.19574    176.92734   -6492.4774 
37651000    54.537094    -6888.565   -6748.2716    -6888.565            0     2245.291    23.233044    21.234485    21.605188    10658.741    1833.8329    2528.8499    2373.1901    41.184135   -146.18122    461.40084   -6399.2483 
37652000    49.436079     -6887.58   -6760.4087     -6887.58            0     2231.461    23.224665    21.250321    21.616825    10668.586    2173.1943    2346.3094    2174.8792    65.207575   -79.261548   -145.61574   -6413.2148 
37653000      53.0572   -6883.0831   -6746.5967   -6883.0831            0    2539.3616     23.22419    21.217699    21.613925    10650.561    2478.3779    3064.6832    2075.0237   -234.42354   -266.98622    280.97173    -6352.164 
37654000    53.056801   -6891.4068   -6754.9214   -6891.4068            0    1888.9606     23.22205    21.248072    21.643659    10679.496     2120.489    2062.4557    1483.9371    17.837811   -596.23742    105.91769   -6460.7167 
37655000    50.078119   -6889.5034   -6760.6805   -6889.5034            0    1586.8879    23.285539    21.226955    21.620174    10686.443    1471.4275    1999.6777    1289.5584   -296.18425   -370.77346    121.80718   -6513.3627 
37656000    49.920286   -6894.8854   -6766.4685   -6894.8854            0    1800.0442    23.233182    21.226284    21.663936    10683.659     1926.242    2278.7198    1195.1709   -380.94017   -473.49596   -521.18045   -6486.0033 
37657000    50.148949    -6887.057   -6758.0519    -6887.057            0    1853.8114     23.26537     21.22645    21.615181    10674.467    1641.6702    2722.9083    1196.8557    -383.0495    165.89937   -530.04647   -6469.4576 
37658000    52.487722   -6894.5521   -6759.5306   -6894.5521            0    1471.7538    23.257457    21.206528    21.679634     10692.61    1066.2112    2506.8037    842.24661    79.138931   -314.33679    -816.7097   -6530.0242 
37659000    54.214994    -6892.954   -6753.4892    -6892.954            0    2035.1807    23.238635    21.267575    21.577049    10664.012    2336.1642    2223.4903    1545.8876   -689.54336   -551.70388   -214.53209   -6436.9704 
37660000    51.436334   -6888.9009   -6756.5841   -6888.9009            0    2131.9363    23.220236    21.213533    21.671666      10675.1    2047.7293    3086.4283    1261.6512   -356.06638   -325.93553   -429.25641   -6424.6728 
37661000    49.524202   -6889.4906   -6762.0926   -6889.4906            0    1828.5367    23.288969     21.18917    21.636579    10677.087    1959.4136    2122.8055    1403.3911   -369.22413    83.723539   -291.13867   -6477.3632 
37662000    52.268242   -6888.5661   -6754.1092   -6888.5661            0    1888.0469    23.258593    21.262705    21.603309    10683.713    1940.3117    1756.2538    1967.5752   -106.95206   -136.31533   -259.34299   -6459.9308 
37663000    52.020143   -6888.9183   -6755.0996   -6888.9183            0    1655.7007    23.294982    21.181171    21.675144    10694.841    1110.1511    2365.6633    1491.2875   -159.28405   -235.50274    323.89534   -6496.8546 
37664000    51.063153   -6890.9658   -6759.6089   -6890.9658            0    1854.6849    23.294276     21.21684    21.611122    10680.885    1478.5921    2206.9982    1878.4643    364.51826   -172.45151   -37.442294   -6470.7051 
37665000    53.167472    -6892.189    -6755.419    -6892.189            0    1969.7863    23.249099    21.235169    21.625822    10676.637    2062.3194    1758.4891    2088.5505   -453.12134   -8.3757275     75.60283   -6448.7079 
37666000     52.78962    -6884.223   -6748.4249    -6884.223            0    2191.7859    23.287937    21.223249     21.60296     10677.17    1446.4656    3060.6658    2068.2264    -131.1531   -36.484348   -103.24013   -6407.1297 
37667000    50.210912   -6884.6271   -6755.4626   -6884.6271            0    1820.6352    23.270399    21.187848    21.688692    10693.603     2360.371    1647.0466    1454.4881   -206.16722   -476.53327    135.44871    -6471.525 
37668000    53.964383   -6885.2008   -6746.3807   -6885.2008            0    2135.3175    23.288806    21.274909    21.536439      10670.6    1298.4535    2438.0642    2669.4349   -643.72122   -242.66052   -33.118573   -6414.0832 
37669000    52.981158   -6879.2251   -6742.9343   -6879.2251            0     2481.379    23.223217    21.210519    21.671912    10675.074    2257.0355    3540.0476    1647.0539   -329.12903   -364.06945   -66.737394   -6356.6208 
37670000     51.44218   -6888.5921   -6756.2602   -6888.5921            0    2097.7234    23.306171    21.238676    21.562078    10673.061    2450.6136    1678.2148    2164.3419   -707.04425    36.368028   -76.766441   -6429.7377 
37671000      51.5367   -6887.3645   -6754.7895   -6887.3645            0    1546.1281    23.272209    21.203649    21.681189    10698.708    1413.5327    2678.9192    545.93236    -489.2927    83.512506   -620.96158   -6513.5476 
37672000    51.836578   -6888.1024   -6754.7559   -6888.1024            0    1739.3358    23.288414    21.219949    21.642666     10695.35    1244.7452    2545.1038    1428.1584     2.247119   -48.340719    14.622737   -6483.4531 
37673000    49.200055    -6885.496   -6758.9319    -6885.496            0    1793.4688    23.297927    21.242643      21.5966    10688.364    1617.3758    2030.8788    1732.1517   -606.74867   -366.61536    198.04571   -6479.3681 
37674000    50.765101   -6891.4696   -6760.8794   -6891.4696            0    1700.3948    23.248447    21.255545    21.651379    10699.211    2304.4287    1291.0656      1505.69   -41.513675   -345.19184   -586.72139   -6495.5549 
37675000    50.621223   -6884.6435   -6754.4235   -6884.6435            0    1686.2326    23.328725    21.211592    21.609401    10693.183    1387.0846    1834.8858    1836.7275    -982.8697    316.25497    170.86183    -6491.457 
37676000    51.610673   -6892.5585   -6759.7932   -6892.5585            0    1906.6839    23.268928    21.224087    21.636338     10685.36    1519.3512    2360.7469    1839.9535   -152.26137   -98.529063   -38.947762    -6462.665 
37677000    55.579416   -6889.4954   -6746.5207   -6889.4954            0     1753.827    23.304235    21.232796    21.598667    10687.325    1011.2301    2188.2102    2062.0407   -100.43223   -241.94981    281.98616   -6473.1628 
37678000    53.208641   -6890.0144   -6753.1384   -6890.0144            0     1311.161    23.234281    21.258117    21.692523    10714.307    1430.8568    1159.3564    1343.2698   -649.67889   -64.700127   -3.0112793   -6548.2601 
37679000    51.840658   -6889.0824   -6755.7255   -6889.0824            0    1419.3252    23.323427    21.255278    21.582722    10699.546    721.81001    2119.7692    1416.3965   -806.85317    381.15196    14.485454   -6534.2512 
37680000     53.60755   -6891.3226   -6753.4205   -6891.3226            0    1617.2824    23.221642    21.286268    21.633494    10693.482    1544.8673    1736.8992    1570.0809    20.597208   -96.178238   -83.717703   -6501.1996 
37681000    51.819295   -6890.0606   -6756.7587   -6890.0606            0    1938.4733    23.282337    21.231969    21.606953    10680.962    1562.0103     2396.987    1856.4226   -41.854009     67.26295    18.011378    -6454.801 
37682000    52.203822   -6885.4383   -6751.1472   -6885.4383            0    1681.8626    23.252505    21.272319    21.637959    10702.886     2227.693    1172.9281    1644.9666     386.2508   -319.05388   -117.29409   -6488.6242 
37683000    49.582229   -6888.5193    -6760.972   -6888.5193            0    1849.4061        23.21    21.276574    21.641082        10687     1679.372    2195.9928    1672.8534    187.12394   -154.70613    253.00277   -6472.7255 
37684000    51.301366   -6892.9769   -6761.0072   -6892.9769            0    1800.5976     23.25292    21.248699    21.640378    10692.387    1453.1227    2648.4035    1300.2665    44.533062   -370.71786    -215.0089   -6480.2266 
37685000    54.372177    -6891.861   -6751.9919    -6891.861            0    2002.7719    23.207205    21.255151    21.644725    10676.751    2088.4002     1767.208    2152.7076   -74.244211   -253.88442    436.90933   -6440.1413 
37686000    54.773645   -6891.1921   -6750.2902   -6891.1921            0    2114.0188    23.255558      21.2795    21.567001    10672.789     1489.366    2123.8323    2728.8583    123.84714   -161.09272   -175.60529   -6421.2396 
37687000    51.934602   -6898.0104   -6764.4118   -6898.0104            0    1746.6938    23.205178    21.279427    21.634928    10683.174    1834.4158    1868.3062    1537.3595   -122.81763    221.67033    430.00297   -6492.2714 
37688000    52.717244   -6884.0753   -6748.4634   -6884.0753            0    2094.4435    23.177756     21.30937    21.618028    10677.217     2440.651    1810.0911    2032.5883    -138.4978   -683.14985    340.22124   -6422.3245 
37689000    51.198025    -6895.004   -6763.3002    -6895.004            0    2376.8085    23.182887    21.283654    21.599423    10657.513    2276.7405    2605.3152    2248.3698   -450.63851    233.26988   -417.32631   -6393.8755 
37690000    54.569403   -6883.1539   -6742.7774   -6883.1539            0    1959.6082     23.22071    21.254498    21.639663    10680.138    1530.9943    2794.5311    1553.2992    74.293728    469.75036   -890.51366   -6437.5511 
37691000    54.822355   -6890.9482    -6749.921   -6890.9482            0    1558.8766    23.194817    21.280461    21.657383    10690.006    1626.5127    1600.6473    1449.4697   -620.65123   -23.644601    299.35911   -6506.8879 
37692000    51.950435   -6886.7023   -6753.0629   -6886.7023            0    2164.8729    23.220962     21.27524     21.60427    10673.191    2064.2739    2388.4246    2041.9201   -7.8879207   -633.06383   -518.99468   -6416.0841 
37693000    52.187012   -6891.7434   -6757.4955   -6891.7434            0    2247.2744    23.215658    21.247985     21.61674    10663.234    2562.7864    2346.6699    1832.3669   -205.97906   -163.51676   -20.125343   -6408.0166 
37694000    50.966982   -6884.5985   -6753.4891   -6884.5985            0    2182.8692    23.167773    21.310088    21.615421     10671.69    2761.8072    1479.2294    2307.5709   -491.30072   -61.902165    74.658339   -6413.7568 
37695000    53.007666     -6886.99    -6750.631     -6886.99            0     2373.204    23.193825    21.299553    21.584915    10663.339    2522.7687    2510.4645    2086.3787   -138.79709    67.422704   -548.87495   -6381.5649 
37696000    52.995891    -6893.938   -6757.6093    -6893.938            0    2497.8354    23.180318     21.22962    21.634745     10646.66    2570.5841     2722.303    2200.6191     344.2809   -261.31816   -169.80686   -6369.7688 
37697000    51.864925    -6887.137   -6753.7177    -6887.137            0    2298.8355    23.164748    21.288805    21.615266    10659.564    2812.4389    1920.1547    2163.9129   -625.99856   -48.173716   -97.470756   -6396.3434 
37698000    54.467032   -6890.2218   -6750.1087   -6890.2218            0     2362.308    23.206743    21.267297    21.585851    10653.582    1815.1879    2843.2025    2428.5335    236.61858    93.231807    -77.92919   -6383.0732 
37699000    52.156825   -6885.2168   -6751.0465   -6885.2168            0     1875.526    23.189441    21.282744    21.643334    10681.742     1735.515    2395.1148    1495.9482    206.51747   -216.04152   -244.37974   -6458.8729 
37700000      51.8245   -6890.1271   -6756.8117   -6890.1271            0    2543.6047    23.140743    21.325143     21.55302    10635.977    2817.2789    2512.3769    2301.1584   -171.16418   -356.00185   -120.08722    -6362.261 
37701000    53.667129   -6891.7581   -6753.7027   -6891.7581            0    2200.7262    23.150787    21.279478    21.638745    10660.039    2635.2937    2103.8244    1863.0606   -444.19721   -112.49384   -303.36539   -6411.5652 
37702000    52.526127   -6890.2283   -6755.1081   -6890.2283            0    2050.8527    23.203596    21.312004    21.561836    10662.654    1459.8322    2073.9544    2618.7716    237.42968   -111.52529     301.8973   -6436.1926 
37703000    49.772001   -6891.2122   -6763.1767   -6891.2122            0    2421.3549    23.149401    21.325857    21.578359    10652.822    2217.0941    1896.7081    3150.2626   -120.31242   -334.72805   -18.293316   -6386.9939 
37704000    51.815713   -6889.9319   -6756.6391   -6889.9319            0      2473.13    23.171443     21.26101    21.612127    10647.177    2391.8217    2432.6285    2594.9399   -258.32743    453.50925     276.5115    -6372.616 
37705000    53.412698   -6896.0411   -6758.6402   -6896.0411            0    2736.0385     23.16921    21.277939    21.576485    10637.057    2596.0977    2469.9056    3142.1121   -73.367798   -23.050045    345.35141    -6334.197 
37706000    52.987048   -6898.8699   -6762.5639   -6898.8699            0    2210.4526    23.186356    21.280322    21.595012    10655.262    2196.4345    2323.5208    2111.4024    67.639527   -244.88288    123.52947   -6419.0683 
37707000    50.335998   -6889.9586   -6760.4723   -6889.9586            0    2033.1263    23.169606    21.248562    21.669776    10668.482     2129.353    2539.8229    1430.2032   -180.92702    -351.7052   -155.32173   -6444.1405 
37708000    53.926009    -6891.702   -6752.9806    -6891.702            0    1878.9212    23.248636    21.310866    21.532078    10668.037    2005.5225    1083.9615    2547.2794   -601.95068   -313.36158    131.84255   -6460.6536 
37709000     52.50103   -6885.1813   -6750.1256   -6885.1813            0    2654.0304    23.184933    21.199607    21.672938    10652.498    2918.9372    2438.6253    2604.5287    15.107825   -38.574939    555.13057   -6337.8067 
37710000    51.946253    -6889.592   -6755.9634    -6889.592            0    2213.6194    23.218675    21.293606    21.564513    10661.696    1818.0595    2339.7213    2483.0775   -153.01264    -50.22162   -254.49867   -6411.7679 
37711000    51.564209   -6884.7312   -6752.0854   -6884.7312            0      890.529    23.234878    21.320367    21.647994    10723.899    984.55789    624.61025    1062.4188   -498.54097   -120.07671    371.31222   -6612.8093 
37712000    52.764907   -6894.3472   -6758.6127   -6894.3472            0    1276.8088    23.233557    21.260417    21.670192    10704.102    1164.6127    1784.7361    881.07755    173.80535   -67.910526   -312.24927   -6559.2922 
37713000    50.477293   -6886.3142   -6756.4645   -6886.3142            0    1487.0666    23.222326    21.303561    21.627896    10699.714    1654.9012    791.34374    2014.9549   -520.33842    213.58516     437.3059   -6524.4161 
37714000    51.301817   -6886.5096   -6754.5388   -6886.5096            0    2188.8241     23.23699    21.279684    21.574925    10668.278    2193.5726    2135.9505    2236.9491   -725.48657    52.480943   -21.396066   -6413.9887 
37715000    51.149611   -6895.6502    -6764.071   -6895.6502            0    1709.6644    23.247278    21.218521    21.668525    10688.495    1500.9642    1805.5817    1822.4472   -422.91222    352.25666    228.04859   -6497.5672 
37716000    51.843288   -6888.3349   -6754.9712   -6888.3349            0    2211.1546    23.294659    21.212405    21.597995    10672.341    1136.3671    2528.7249    2968.3718    129.43624    255.29809   -267.84087   -6410.8157 
37717000    53.370359   -6894.2262   -6756.9342   -6894.2262            0    1745.4437     23.24775    21.247276    21.643782    10690.976    1512.2846    2155.7915    1568.2551   -355.29052   -12.901026    374.16737     -6484.79 
37718000    51.374364   -6882.3322   -6750.1747   -6882.3322            0    1980.0376    23.248356     21.26546    21.624933    10691.085    1731.3271    2431.7784    1777.0073   -335.89954   -314.84313   -202.22685   -6441.4502 
37719000    50.895525   -6887.5788   -6756.6532   -6887.5788            0    2288.7704    23.252225    21.216209    21.614114    10662.763    1943.7542    2623.0198     2299.537   -424.39062    89.482009    221.78781   -6400.7369 
37720000     50.49921   -6893.5712    -6763.665   -6893.5712            0    1775.9576    23.228389    21.259884    21.633403    10683.285    2257.8029    1198.6334    1871.4365    775.85104    -734.8535   -122.02052   -6486.9624 
37721000    51.980267   -6892.7908   -6759.0747   -6892.7908            0    1503.6433    23.236296    21.290614    21.622046    10696.751    577.79898    1854.5484    2078.5826    272.57269    307.11503    413.66723   -6524.5046 
37722000    53.042221   -6895.6526   -6759.2047   -6895.6526            0    1388.5362      23.2353    21.314924    21.610095    10702.586    1232.4977    1405.1192    1527.9916   -327.02428   -229.86704   -290.42498   -6542.4733 
37723000    52.550755   -6894.0698   -6758.8861   -6894.0698            0    1631.8691    23.227884     21.26502    21.639424    10688.608    1063.6555    1653.5372    2178.4147      48.3444    704.01179    265.20641   -6504.5065 
37724000    52.673566   -6884.1579   -6748.6583   -6884.1579            0    2085.4364    23.224547    21.249852    21.640121    10679.794    1923.5782    2303.3768    2029.3543   -12.146086    279.84781   -441.31945   -6423.8436 
37725000    50.719763   -6888.8252   -6758.3517   -6888.8252            0     2327.973    23.236337     21.25025    21.595944    10663.601    2362.1386    2266.3562    2355.4242   -483.85354    389.77294    2.1308877   -6396.3107 
37726000    51.989661    -6890.356   -6756.6157    -6890.356            0    1998.9746     23.21185    21.256944      21.6522    10683.477    1685.1748    2108.4859    2203.2632    15.939276   -558.53319    198.03567   -6445.1604 
37727000    53.840459   -6882.8751   -6744.3738   -6882.8751            0    1713.9419    23.294068    21.257869    21.589838    10690.904    1052.9168    1842.5398    2246.3692    -67.45976    29.942394   -296.38174   -6477.1431 
37728000    54.001397    -6885.628   -6746.7127    -6885.628            0    1620.6668    23.231419    21.257968    21.675527    10704.519    1324.5271    1712.3327    1825.1406   -114.23133    236.11359    388.97807   -6493.7032 
37729000    51.576327   -6884.8217   -6752.1448   -6884.8217            0    1864.5742     23.24668    21.268369    21.594184    10676.574    1379.3309    1906.1176    2308.2741     392.1897    74.265511    385.73756   -6461.8178 
37730000    55.321141   -6890.0925   -6747.7822   -6890.0925            0    2125.7332     23.21681    21.296927    21.601875    10680.976    1871.4693    2172.2979    2333.4325   -306.79985     -539.543   -255.88033   -6416.6544 
37731000    52.424685   -6883.1792   -6748.3199   -6883.1792            0    1955.7095    23.222808    21.260724    21.638395    10683.605     2385.201    1742.4741    1739.4534     304.2703   -133.28488    449.16679   -6443.6019 
37732000    52.487092   -6887.0665   -6752.0467   -6887.0665            0    2571.6863    23.204379    21.260058    21.619534    10665.488    2006.9804    2958.0493     2750.029   -319.99972    147.67558   -23.788046   -6352.0332 
37733000     51.96207   -6892.0623   -6758.3931   -6892.0623            0    2350.7259    23.226324    21.270204    21.578026    10660.163    2115.4106    2871.7047    2065.0624    270.03832    600.36148   -175.70228   -6392.9315 
37734000    54.424822   -6894.6592   -6754.6546   -6894.6592            0    1944.5332     23.17905    21.235391     21.70626    10684.173    2182.4613    2287.3292     1363.809     -459.707     412.5511   -165.52006    -6451.662 
37735000    54.540023   -6896.2424   -6755.9415   -6896.2424            0    2326.3273    23.248004    21.253597    21.559552    10652.655    1515.9306    2714.2435    2748.8079     186.7428    32.536742   -83.806323   -6394.5279 
37736000    52.593491   -6892.3751   -6757.0816   -6892.3751            0    2247.9421    23.170403    21.261662    21.643894    10662.676    2645.6105    2274.5713    1823.6447   -261.84283   -418.27539   -39.377877   -6407.5172 
37737000    51.556136   -6891.0357   -6758.4107   -6891.0357            0    2176.7029    23.252625    21.240465    21.603412    10669.851    1306.6887    2914.0557    2309.3643   -300.78099    -399.1494    363.87576   -6419.6965 
37738000    55.116203   -6888.8775   -6747.0945   -6888.8775            0    2203.0984    23.276175    21.206965    21.607694    10665.926    2306.0071    1460.8719    2842.4163    3.0997865    100.47781    764.93467    -6404.399 
37739000    51.611909   -6888.4464   -6755.6779   -6888.4464            0    2089.3429    23.252523    21.239415     21.61151    10673.276    2176.5135    2344.7621    1746.7532   -121.46005    -344.9944   -442.88963   -6430.4533 
37740000    51.737062   -6885.2188   -6752.1284   -6885.2188            0    2464.6454    23.229708    21.191384    21.658055    10661.603    2154.7559    2990.2579    2248.9224    45.118535   -860.16317    710.83712   -6368.9043 
37741000    53.161429   -6893.7995   -6757.0449   -6893.7995            0     2472.201    23.217781    21.260813    21.591356    10658.118    2545.9862    2620.7241    2249.8926   -823.40852   -2.2278495   -104.46649   -6372.7717 
37742000     51.59685   -6890.6399   -6757.9101   -6890.6399            0    2169.3666    23.238551    21.159731    21.685515    10663.234    2732.4649    2340.0429    1435.5919    422.82463   -742.58036    12.215791   -6420.5469 
37743000    52.188462   -6886.0392   -6751.7876   -6886.0392            0     1879.835    23.225826    21.291234    21.612528    10687.535    2016.2129    2047.7445    1575.5474   -556.65678   -422.24128   -360.04099   -6458.7838 
37744000    52.896133   -6890.4284   -6754.3563   -6890.4284            0    1803.1162    23.267592    21.254956    21.598759    10681.702    1273.2309    2124.4496    2011.6683   -152.04658    217.60116    262.11945   -6473.4639 
37745000     53.49951    -6881.536   -6743.9118    -6881.536            0    2341.6048    23.257908    21.212554    21.649852    10681.163    2127.1252     2660.341    2237.3482    103.26358   -58.043596   -222.06718   -6379.1511 
37746000    51.643778   -6889.7901   -6756.9396   -6889.7901            0    2440.0309     23.22836     21.21846    21.617382     10654.56    1804.7413    2650.7425    2864.6089   -132.84792   -9.6134993    490.42441   -6377.7934 
37747000    52.542282     -6889.46   -6754.2981     -6889.46            0    2262.8532    23.235397    21.241118    21.624089    10672.478     1904.265    2367.8055     2516.489    87.017815     207.5253    42.396224   -6402.0915 
37748000    52.837307    -6888.739   -6752.8182    -6888.739            0    2116.9938    23.281278    21.204974    21.616178    10671.451    1290.1235    2728.8777    2331.9801    75.915034    869.89697    455.97871   -6423.3459 
37749000    51.682215   -6891.4749   -6758.5256   -6891.4749            0    2069.4898    23.262081    21.240326    21.618616    10681.632    1389.6639    2462.0693    2356.7363    672.92563   -567.26686   -268.47942   -6436.1391 
37750000    53.458267    -6879.376   -6741.8578    -6879.376            0    2086.6809     23.28994    21.201184    21.638913    10684.739    1767.1015    2410.3896    2082.5516   -536.74815   -337.43682    488.49041   -6416.6988 
Loop time of 482.607 on 64 procs for 250000 steps with 1296 atoms

Performance: 89.514 ns/day, 0.268 hours/ns, 518.020 timesteps/s
390.0% CPU use with 16 MPI tasks x 4 OpenMP threads

MPI task timing breakdown:
Section |  min time  |  avg time  |  max time  |%varavg| %total
---------------------------------------------------------------
Pair    | 38.15      | 48.815     | 58.505     |  77.1 | 10.11
Bond    | 1.5611     | 1.7324     | 1.9444     |   9.2 |  0.36
Kspace  | 236.01     | 246.88     | 256.31     |  34.6 | 51.16
Neigh   | 0.21375    | 0.22525    | 0.23633    |   1.5 |  0.05
Comm    | 48.679     | 52.664     | 56.513     |  30.0 | 10.91
Output  | 0.43832    | 0.43862    | 0.44005    |   0.1 |  0.09
Modify  | 118.5      | 121.1      | 122.74     |   9.9 | 25.09
Other   |            | 10.75      |            |       |  2.23

Nlocal:        81.0000 ave          99 max          62 min
Histogram: 2 0 1 1 3 5 0 2 0 2
Nghost:        3692.25 ave        3736 max        3663 min
Histogram: 1 3 2 2 3 3 1 0 0 1
Neighs:        26154.8 ave       31997 max       20027 min
Histogram: 2 0 1 1 3 5 0 2 0 2

Total # of neighbors = 418477
Ave neighs/atom = 322.89892
Ave special neighs/atom = 2.0000000
Neighbor list builds = 463
Dangerous builds = 0

unfix		3
unfix		2
unfix		1

write_data	data.final.${pid}
write_data	data.final.0
System init for write_data ...
PPPM initialization ...
  extracting TIP4P info from pair style
  using 12-bit tables for long-range coulomb (../kspace.cpp:340)
  G vector (1/distance) = 0.36757052
  grid = 30 40 32
  stencil order = 5
  estimated absolute RMS force accuracy = 0.0044949464
  estimated relative force accuracy = 1.3536397e-05
  using double precision FFTW3
  3d grid and FFT values/proc = 11832 2400
Last active /omp style is kspace_style pppm/tip4p/omp
WARNING: Not all mixed pair coeffs generated from mixing. Use write_data with 'pair ij' option to store all pair coeffs. (../write_data.cpp:312)

write_restart   restart.lmp.${pid}
write_restart   restart.lmp.0
System init for write_restart ...
PPPM initialization ...
  extracting TIP4P info from pair style
  using 12-bit tables for long-range coulomb (../kspace.cpp:340)
  G vector (1/distance) = 0.36757052
  grid = 30 40 32
  stencil order = 5
  estimated absolute RMS force accuracy = 0.0044949464
  estimated relative force accuracy = 1.3536397e-05
  using double precision FFTW3
  3d grid and FFT values/proc = 11832 2400
Last active /omp style is kspace_style pppm/tip4p/omp
Total wall time: 0:08:02
