LAMMPS (30 Jul 2021)
Processor partition = 1
  using 2 OpenMP thread(s) per MPI task
using multi-threaded neighbor list subroutines
variable        pid world 0 1
variable        phase world IceIh Liquid

shell cd ${phase}
shell cd Liquid
include Restart.lmp
echo both
log log.lammps
#include		in.partitions
include		in.temp
variable        temperature equal 247.00
variable	tempDamp equal 100.0
include		in.pressure
variable        pressure equal 1776.6
variable        pressureDamp equal 1000.0 # This is 1 ps
include		in.seed
variable        seed equal 745823

units		real
atom_style	full
read_restart	restart.lmp.${pid}
read_restart	restart.lmp.1
Reading restart file ...
  restart file = 30 Jul 2021, LAMMPS = 30 Jul 2021
  restoring atom style full from restart
  orthogonal box = (0.25493414 1.3918100 0.31101906) to (17.952638 22.237368 21.902177)
  2 by 4 by 4 MPI processor grid
  restoring pair style lj/cut/tip4p/long/omp from restart
  restoring bond style harmonic/omp from restart
  restoring angle style harmonic/omp from restart
  864 atoms
  576 bonds
  288 angles
Finding 1-2 1-3 1-4 neighbors ...
  special bond factors lj:    0        0        0       
  special bond factors coul:  0        0        0       
     2 = max # of 1-2 neighbors
     1 = max # of 1-3 neighbors
     1 = max # of 1-4 neighbors
     2 = max # of special neighbors
  special bonds CPU = 0.002 seconds
  read_restart CPU = 0.006 seconds
include 	in.setup
variable	out_freq equal 1000
variable	out_freq2 equal 10000
variable	out_freq3 equal 1000

timestep	2.0

neigh_modify    delay 7 every 1

include		in.tip4p
# This is TIP4P/Ice

# create groups ###
group ox type 2
288 atoms in group ox
group hy type 1
576 atoms in group hy

# set charges - beside manually ###
set group ox charge -1.1794
Setting atom values ...
  288 settings made for charge
set group hy charge 0.5897
Setting atom values ...
  576 settings made for charge

# ### TIP3P Potential Parameters ###
pair_style lj/cut/tip4p/long/omp 2 1 1 1 0.1577 8.5
pair_coeff 1 1*2 0.000 0.000
pair_coeff 2 2 0.21084 3.1668
bond_style  harmonic
bond_coeff  1 450 0.9572
angle_style harmonic
angle_coeff 1 55 104.52
kspace_style pppm/tip4p/omp 1.0e-5
pair_modify tail yes

thermo          ${out_freq}
thermo          1000
thermo_style    custom step temp pe etotal epair emol press lx ly lz vol pxx pyy pzz pxy pxz pyz enthalpy

restart 	${out_freq3} restart.lmp.${pid} restart2.lmp.${pid}
restart 	1000 restart.lmp.${pid} restart2.lmp.${pid}
restart 	1000 restart.lmp.1 restart2.lmp.${pid}
restart 	1000 restart.lmp.1 restart2.lmp.1


include         in.dump
dump            myDump all atom ${out_freq2} dump.water.${pid}
dump            myDump all atom 10000 dump.water.${pid}
dump            myDump all atom 10000 dump.water.1
dump            myDump2 all dcd ${out_freq2} dump.dcd
dump            myDump2 all dcd 10000 dump.dcd
dump_modify     myDump append yes
dump_modify     myDump2 append yes


variable natoms 	equal  "count(all)"                        # NUMBER ATOMS
variable H      	equal  "enthalpy/v_natoms"                 # ENTHALPY-per-atom
variable Vol      	equal  "vol/v_natoms"                 # volume-per-atom
fix AVG all 		ave/time ${out_freq} 1 ${out_freq} v_Vol v_H file vol_enthalpy.dat
fix AVG all 		ave/time 1000 1 ${out_freq} v_Vol v_H file vol_enthalpy.dat
fix AVG all 		ave/time 1000 1 1000 v_Vol v_H file vol_enthalpy.dat


timer           timeout 23:50:00 every 1000
New timer settings: style=normal  mode=nosync  timeout=23:50:00

fix 		1 all shake 1e-6 200 0 b 1 a 1
Finding SHAKE clusters ...
       0 = # of size 2 clusters
       0 = # of size 3 clusters
       0 = # of size 4 clusters
     288 = # of frozen angles
  find clusters CPU = 0.000 seconds
fix             2 all nph iso ${pressure} ${pressure} ${pressureDamp}
fix             2 all nph iso 1776.6 ${pressure} ${pressureDamp}
fix             2 all nph iso 1776.6 1776.6 ${pressureDamp}
fix             2 all nph iso 1776.6 1776.6 1000
fix             3 all temp/csvr ${temperature} ${temperature} ${tempDamp} ${seed}
fix             3 all temp/csvr 247 ${temperature} ${tempDamp} ${seed}
fix             3 all temp/csvr 247 247 ${tempDamp} ${seed}
fix             3 all temp/csvr 247 247 100 ${seed}
fix             3 all temp/csvr 247 247 100 745823

run             250000
PPPM initialization ...
  extracting TIP4P info from pair style
  using 12-bit tables for long-range coulomb (../kspace.cpp:340)
  G vector (1/distance) = 0.37238106
  grid = 24 24 25
  stencil order = 5
  estimated absolute RMS force accuracy = 0.0032869923
  estimated relative force accuracy = 9.8986796e-06
  using double precision FFTW3
  3d grid and FFT values/proc = 3822 576
Last active /omp style is kspace_style pppm/tip4p/omp
Neighbor list info ...
  update every 1 steps, delay 7 steps, check yes
  max neighbors/atom: 2000, page size: 100000
  master list distance cutoff = 10.8154
  ghost atom cutoff = 10.8154
  binsize = 5.4077, bins = 4 4 4
  1 neighbor lists, perpetual/occasional/extra = 1 0 0
  (1) pair lj/cut/tip4p/long/omp, perpetual
      attributes: half, newton on, omp
      pair build: half/bin/newton/omp
      stencil: half/bin/3d
      bin: standard
Setting up Verlet run ...
  Unit style    : real
  Current step  : 4750000
  Time step     : 2
  Walltime left : 23:49:59.96
Per MPI rank memory allocation (min/avg/max) = 10.19 | 10.20 | 10.21 Mbytes
Step Temp PotEng TotEng E_pair E_mol Press Lx Ly Lz Volume Pxx Pyy Pzz Pxy Pxz Pyz Enthalpy 
 4750000    263.33188   -3930.0503   -3478.7084   -3930.0503            0    2014.6119    17.697704    20.845558    21.591158    7965.3778     1615.768    2626.2901    1801.7777    581.15207    993.04786   -425.17659   -3244.6773 
 4751000    245.48038   -3949.2018   -3528.4568   -3949.2018            0    2613.6723     17.74274    20.898604    21.646102    8026.3423    4356.9695     1828.265    1655.7823    874.77329    1553.4005   -146.51135   -3222.5109 
 4752000    241.54378   -3923.6204   -3509.6226   -3923.6204            0     2912.783    17.687519    20.833561    21.578732    7951.6331    3934.3409    1814.9322     2989.076   -912.91455    604.57103    1217.5309   -3171.8376 
 4753000    242.60352   -3941.0655   -3525.2514   -3941.0655            0    1902.9568    17.752281    20.909842    21.657741    8039.2967    1868.7352    2444.2372    1395.8981   -139.40261   -113.35009    127.17686   -3302.1394 
 4754000    232.23772   -3959.8856   -3561.8381   -3959.8856            0    1451.8487     17.68932    20.835682    21.580929    7954.0626     2420.213    668.99912    1266.3339    300.09427   -36.593576    -543.0227   -3393.4209 
 4755000    247.02455   -3922.5667    -3499.175   -3922.5667            0    1512.3872     17.70944    20.859381    21.605476    7981.2348    3231.6221    1799.7419   -494.20257    835.86132   -723.74726     207.7475    -3323.136 
 4756000    241.82282    -3923.061   -3508.5849    -3923.061            0    2188.1099    17.766136    20.926162    21.674645    8058.1356    4006.1036      1606.93    951.29602    433.03471   -43.196069    950.17466    -3251.439 
 4757000    244.36445   -3926.9197   -3508.0874   -3926.9197            0     1446.094    17.857491    21.033765    21.786097    8183.0817    3072.8068    129.21093    1136.2642    892.24368    1147.6494    726.62882   -3335.5079 
 4758000    249.96535   -3910.7812   -3482.3492   -3910.7812            0    2225.7283    17.813319    20.981737    21.732208    8122.5082    1316.6088    1617.7371    3742.8389   -126.04553    506.16171   -185.65952   -3218.6929 
 4759000     260.7971   -3936.5336   -3489.5363   -3936.5336            0    2588.3484    17.788083    20.952012     21.70142    8088.0354    2320.6639    4102.6721    1341.7092     745.3008   -630.57173    889.15818   -3184.2258 
 4760000    245.63705   -3920.3269   -3499.3134   -3920.3269            0    1867.5295    17.779276    20.941639    21.690676    8076.0283    1603.0071    730.59506    3268.9865   -55.749298    599.28747   -63.471462   -3279.3547 
 4761000    240.06763   -3935.3902   -3523.9225   -3935.3902            0    1933.8057    17.711526    20.861838    21.608021    7984.0556    1726.4034    3009.7225    1065.2911    297.76463    1144.7604    149.13986   -3298.7516 
 4762000    255.74277   -3919.0366   -3480.7022   -3919.0366            0     1739.594    17.788853    20.952919    21.702359    8089.0858    2500.6237     1792.568    925.59031   -320.00812   -1710.6944    -1065.524   -3275.4805 
 4763000    256.91349   -3904.5069   -3464.1659   -3904.5069            0    2252.1135    17.773838    20.935233     21.68404    8068.6191    2847.6325     1076.288    2832.4198    264.67808    11.190351    443.02464    -3199.154 
 4764000    242.26027   -3944.3656   -3529.1398   -3944.3656            0    2075.1027    17.764442    20.924166    21.672578    8055.8302    2182.5286    1753.1404    2289.6392    262.04487    514.34332   -225.42836   -3285.3442 
 4765000    254.61563   -3933.1111   -3496.7086   -3933.1111            0    1911.3307    17.789622    20.953825    21.703298    8090.1349     1882.527    1444.7493    2406.7159    1046.5179   -595.73257    1143.4539   -3271.1977 
 4766000    253.57211   -3925.8876   -3491.2737   -3925.8876            0    921.61446    17.741448    20.897083    21.644526     8024.589    550.51571     1441.303     773.0247    359.46423   -119.52031    -557.0121   -3383.4168 
 4767000      248.823   -3900.6856   -3474.2115   -3900.6856            0    3118.0839    17.757336    20.915796    21.663909    8046.1669     4420.936    1559.1805    3374.1352    -234.8928   -974.49065    482.33129   -3108.3197 
 4768000    243.40447   -3921.3009    -3504.114   -3921.3009            0    791.97164    17.817953    20.987196    21.737862    8128.8488    2456.1379    -927.7689    847.54596   -840.57204    742.01245    341.75835    -3410.225 
 4769000     243.0146   -3910.5155   -3493.9968   -3910.5155            0    1066.0793    17.697073    20.844814    21.590388    7964.5255    3035.9606   -1154.3543    1316.6315    705.77341    996.74754     2362.804    -3370.167 
 4770000    257.51764   -3959.3323   -3517.9559   -3959.3323            0     2729.682    17.606482     20.73811    21.479867    7842.8399    200.94211    3986.2331    4001.8708   -909.44434    268.15329    114.55821   -3205.7355 
 4771000    246.56788   -3945.5442   -3522.9353   -3945.5442            0    807.00568    17.698077    20.845996    21.591612    7965.8807    729.65774    1223.8631    467.49615   -195.11311    -1204.451   -930.27295    -3429.182 
 4772000     250.1308   -3905.8819   -3477.1663   -3905.8819            0    907.09092    17.716125    20.867255    21.613631    7990.2767   -567.36591    1189.0484    2099.5903    889.09054    1185.0236    1581.3244    -3371.463 
 4773000    244.19848    -3929.731   -3511.1831    -3929.731            0    1274.8488    17.690887    20.837528     21.58284     7956.176    1881.9629    626.95097    1315.6325    466.43037    1120.5402    463.47331    -3363.259 
 4774000      268.681   -3887.2052   -3426.6952   -3887.2052            0    1543.5404    17.778869     20.94116    21.690179    8075.4738      209.724    2194.0599    2226.8373   -47.363408   -736.81517   -470.92743   -3244.9086 
 4775000    242.49772   -3910.4981   -3494.8653   -3910.4981            0   -297.63092    17.868323    21.046524    21.799312    8197.9824    196.84474     -1128.98    39.242513    1160.6181   -415.36205    1361.4639   -3530.4498 
 4776000    247.37962   -3894.2122   -3470.2119   -3894.2122            0    5.2792192    17.960102    21.154628    21.911283    8324.9572    2065.6624   -1092.9106   -956.91417   -176.83381    -415.2802   -1095.1214    -3469.571 
 4777000    261.87403   -3932.2249   -3483.3818   -3932.2249            0    1346.5452    17.816001    20.984895    21.735479    8126.1763    2606.1147    193.16217    1240.3588   -425.37533    946.62514   -230.97103   -3323.8001 
 4778000    246.05113   -3949.2737   -3527.5505   -3949.2737            0    1816.7919    17.769562    20.930197    21.678824    8062.7974    995.23954    2378.8765    2076.2597     918.9488    1014.9778     1202.371   -3313.9182 
 4779000    242.51953   -3963.0227   -3547.3525   -3963.0227            0    1911.7628    17.797228    20.962784    21.712576    8100.5157    1698.4816    2092.6643    1944.1425   -13.030759    775.89717   -113.12336   -3321.5012 
 4780000    242.73087   -3911.4183   -3495.3859   -3911.4183            0    1340.2784    17.794789    20.959911    21.709601    8097.1856    1581.5888    1561.9286    877.31772    828.26928   -860.05527   -76.970728   -3337.1136 
 4781000    251.46291    -3889.872   -3458.8731    -3889.872            0    3067.5177    17.857441    21.033707    21.786036    8183.0134     3076.346    3376.5149    2749.6923   -605.17645   -196.67963    410.48625    -3092.793 
 4782000    244.97148   -3930.2216   -3510.3489   -3930.2216            0    1486.2739    17.804496    20.971344    21.721443    8110.4436    1465.5366    2037.7788    955.50618   -197.24333   -1346.4973     -546.995   -3334.5487 
 4783000     257.3914   -3948.1644   -3507.0044   -3948.1644            0    2916.3886    17.784741    20.948076    21.697343    8083.4777    4737.9862    2229.8049    1781.3747    376.80948    120.87539    668.77246   -3163.1936 
 4784000    237.53225   -3951.3365   -3544.2144   -3951.3365            0    1278.9468    17.764387    20.924101     21.67251    8055.7549    596.86368     1922.597    1317.3796   -1035.2623    -460.4081     788.5423   -3393.9574 
 4785000    240.12067   -3966.1247   -3554.5661   -3966.1247            0    2605.5115      17.8195    20.989017    21.739748    8130.9656    1271.8792    3414.0112    3130.6441   -305.74693   -2.5070525   -975.08805   -3245.5998 
 4786000    247.80031   -3976.0147   -3551.2935   -3976.0147            0    122.50653    17.894281    21.077099    21.830981    8233.7628    -796.3461    973.36426    190.50142   -192.36144   -878.96379    833.25764   -3536.5828 
 4787000    255.87787   -3969.1146   -3530.5487   -3969.1146            0    2078.8242    17.785491     20.94896    21.698258    8084.5005    1303.1327     2311.471    2621.8689   -479.47383   -760.03924    26.264122   -3285.4467 
 4788000    243.57328   -3953.5256   -3536.0494   -3953.5256            0     1793.938    17.731089    20.884881    21.631887    8010.5404    2325.3127    1983.5843     1072.917    792.28993    226.39144   -513.29265   -3326.4716 
 4789000    250.35888    -3935.533   -3506.4264    -3935.533            0     2373.998    17.744355    20.900507    21.648072    8028.5341    547.74103    4190.3061     2383.947    429.97339   -716.46559    1676.9318   -3228.4599 
 4790000     239.1582   -3938.9565   -3529.0475   -3938.9565            0    1604.2628    17.839037    21.012029    21.763583    8157.7389    1442.1085    623.27907    2747.4009   -221.68105   -1587.7009    141.08477   -3338.1847 
 4791000    238.02757   -3933.2776   -3525.3065   -3933.2776            0    1279.8963    17.912554    21.098622    21.853274    8259.0122    525.12688     1815.797    1498.7649    573.71752   -565.96006    349.13737    -3371.144 
 4792000    234.73751   -3936.8594   -3534.5274   -3936.8594            0    2162.7659    17.930373    21.119611    21.875013    8283.6846    2975.9171    1057.9183    2454.4624    940.82812    -568.3754   -131.73955   -3273.2457 
 4793000    253.25967   -3945.8755   -3511.7971   -3945.8755            0     3162.154    17.792953    20.957749    21.707362    8094.6805    3133.4011    1978.9968    4374.0642    1586.4483   -107.57858    427.23758   -3138.4965 
 4794000    246.28904   -3939.9095   -3517.7785   -3939.9095            0    2222.8463    17.776444    20.938303     21.68722    8072.1691    2492.2408    2647.3032    1528.9948   -136.47695   -1540.7335   -58.236792   -3256.0954 
 4795000    232.64799   -3978.6413   -3579.8906   -3978.6413            0    1546.4194    17.835997    21.008448    21.759874    8153.5687    3208.2567    1299.9594    131.04192   -561.97519    138.83395   -776.58405   -3396.0037 
 4796000    248.23686   -3921.3541   -3495.8846   -3921.3541            0    2334.3446    17.773563     20.93491    21.683706    8068.2456     594.0595    3488.8106    2920.1637    605.01622   -739.13206   -420.83153   -3221.2091 
 4797000    251.62596   -3976.2108   -3544.9325   -3976.2108            0    1548.0716    17.885059    21.066237     21.81973    8221.0392    1485.2277    1675.2944    1483.6927     381.1907    359.51646   -487.29685   -3359.3258 
 4798000    253.39515   -3942.4298   -3508.1191   -3942.4298            0    1736.5996    17.711614    20.861942    21.608128    7984.1748    1284.6691    2961.8668    963.26296    619.32879    1560.7314   -632.87455   -3305.9077 
 4799000    255.17679   -3932.2253    -3494.861   -3932.2253            0    2581.8861    17.731479     20.88534    21.632363    8011.0691     3514.922    1766.4888    2464.2474   -331.69563    272.97219    289.76945   -3193.2109 
 4800000    247.93221   -3949.5995   -3524.6521   -3949.5995            0     891.9571    17.797662    20.963295    21.713106     8101.109    470.62744     1895.038    310.20582   -737.36178   -112.59128   -808.58796   -3419.2706 
 4801000    251.19631   -3912.7638   -3482.2219   -3912.7638            0    2577.4686    17.734612     20.88903    21.636185     8015.316    2409.4411    975.62316    4347.3416   -306.85751   -814.93375   -749.12614   -3180.9283 
 4802000    249.16885   -3940.0688   -3513.0019   -3940.0688            0    3038.3018    17.741651    20.897322    21.644773    8024.8643     4301.533    1768.9716    3044.4009   -433.02755    81.547264    -479.2529    -3157.416 
 4803000    244.29779   -3918.4502   -3499.7321   -3918.4502            0    1996.3746    17.731726    20.885631    21.632665    8011.4043     3573.772    1581.7761    833.57584    358.80138   -562.72302    -922.3474   -3266.4795 
 4804000    257.48601   -3910.9593   -3469.6371   -3910.9593            0      876.856    17.822148    20.992136    21.742979    8134.5908    2065.6875    1428.5801   -863.69963    37.523835   -771.19929    420.46143   -3365.6116 
 4805000    238.65256   -3893.4444   -3484.4021   -3893.4444            0    1060.8947    17.854999     21.03083    21.783057    8179.6568    2306.4602    874.81424    1.4098077    240.61616   -1466.6261   -853.59434    -3357.846 
 4806000    261.16992   -3891.5881   -3443.9518   -3891.5881            0    1455.9858    17.859333    21.035935    21.788344    8185.6141    2398.8726     548.4944    1420.5904    765.48618    132.90195    456.57695   -3270.1379 
 4807000    260.68705   -3931.5174   -3484.7087   -3931.5174            0    3666.9736    17.798234    20.963968    21.713804    8101.8893    2705.6934    4801.9726    3493.2548   -253.63332    330.25881   -752.00277   -3051.4274 
 4808000    236.43772   -3898.5685   -3493.3223   -3898.5685            0    2087.6376    17.794385    20.959435    21.709108    8096.6349    560.32949     3069.576    2633.0072   -66.640691   -584.92163    537.42363   -3246.8117 
 4809000    239.63025   -3883.5674   -3472.8493   -3883.5674            0    1195.3552    17.790708    20.955104    21.704622    8091.6164    35.524495    2065.2405    1485.3005    700.05951    1741.3363   -186.65516   -3331.7879 
 4810000    236.64508   -3928.2278   -3522.6262   -3928.2278            0    1577.0213     17.66466    20.806636    21.550844    7920.8439    1233.0225     449.3882    3048.6531   -892.40598   -217.11654    1195.7045   -3340.4529 
 4811000    246.91064   -3926.1479   -3502.9515   -3926.1479            0    1323.4307    17.692665    20.839623     21.58501    7958.5761    615.42224    1424.9143    1929.9557     978.2125    393.80158    1337.2416    -3349.344 
 4812000    239.92889   -3871.8682   -3460.6383   -3871.8682            0    952.12605    17.791236    20.955727    21.705267    8092.3375    1955.9508    994.43934   -94.012037   -146.90391   -100.67873   -480.05333   -3348.2699 
 4813000    254.06292   -3904.4097   -3468.9545   -3904.4097            0    1698.9474    17.742668    20.898519    21.646013    8026.2435    2766.4295   -391.54951    2721.9623    1560.6689    -523.0338   -790.41931    -3270.085 
 4814000    250.72345   -3925.9023   -3496.1709   -3925.9023            0     2342.782    17.751152    20.908512    21.656364     8037.763    1960.7323    3002.9143    2064.6996    -267.4425   -1290.5039   -51.594937    -3221.544 
 4815000    234.60103    -3923.627   -3521.5288    -3923.627            0    1319.5866    17.744224    20.900352    21.647912    8028.3557     1814.896    1548.1254    595.73854    232.79034   -722.55103   -435.30582   -3367.0246 
 4816000    247.67824   -3913.7276   -3489.2155   -3913.7276            0    1069.1342    17.788359    20.952337    21.701756    8088.4114    1941.1292    541.86051    724.41273   -1101.8316    163.25414   -592.49651   -3363.0992 
 4817000    242.32801    -3955.637   -3540.2951    -3955.637            0    3216.1865    17.622927     20.75748     21.49993     7864.837    1522.6958    3186.5346     4939.329   -200.48466    278.21121    1572.6114   -3171.3967 
 4818000     243.6324   -3951.1901   -3533.6125   -3951.1901            0    2323.8484    17.760388    20.919391    21.667631    8050.3157    1294.6742    1833.6528    3843.2182   -731.15654   -233.15403    -44.16741   -3260.7796 
 4819000    228.10145   -3957.7358   -3566.7777   -3957.7358            0    235.27438    17.817562    20.986735    21.737384    8128.3136    -197.9222    922.97378   -19.228429    601.80772    1063.2311   -389.87409   -3538.8875 
 4820000    249.03654   -3952.0586   -3525.2185   -3952.0586            0    928.51377    17.750843    20.908149    21.655987    8037.3438   -610.60274    1164.0953    2232.0487    965.02101    719.38835    989.80332   -3416.3815 
 4821000    238.27461   -3938.9693   -3530.5748   -3938.9693            0    851.07451    17.830358    21.001806    21.752995    8145.8378    1251.4743      1192.56    109.18919    366.17418   -571.22934   -318.47894   -3429.4683 
 4822000    259.44524   -3914.4431   -3469.7628   -3914.4431            0    1107.6309    17.833325    21.005301    21.756615    8149.9052    813.53162    698.37606    1810.9852   -1453.4456   -34.747533    524.94555    -3338.112 
 4823000    247.45826   -3964.3963   -3540.2613   -3964.3963            0    3256.7212    17.821581    20.991469    21.742288    8133.8151    2064.6853    4774.8546    2930.6238    1176.4126    716.49612    659.77234   -3153.9381 
 4824000    247.13863   -3933.9225   -3510.3354   -3933.9225            0    4103.2556    17.667055    20.809457    21.553766    7924.0656    5741.3013    4581.2139    1987.2517    588.34467    55.983336    2377.8443   -3036.1452 
 4825000    249.87956   -3938.5836   -3510.2986   -3938.5836            0    3147.0847     17.64446    20.782843      21.5262    7893.7017    4263.8806    2583.8985    2593.4749    447.93444   -1284.1374    1269.0191   -3148.0014 
 4826000    240.45176   -3911.1377   -3499.0117   -3911.1377            0    362.68904     17.80837    20.975908     21.72617    8115.7399    120.94327    1166.3318   -199.20793   -72.991793    890.60131   -142.16168   -3456.0839 
 4827000    238.71301   -3946.1422   -3536.9962   -3946.1422            0    1012.0038    17.800641    20.966804     21.71674    8105.1772     600.0371   -648.43996    3084.4142    257.56487    408.36484   -835.55744   -3417.3716 
 4828000    266.54948   -3906.4762   -3449.6196   -3906.4762            0     2972.027    17.708599    20.858391     21.60445    7980.0977    2322.0562    4628.3049    1965.7199   -1350.2791    -1112.108   -1768.2564   -3103.7305 
 4829000    255.68649   -3945.1297   -3506.8918   -3945.1297            0    2492.6219    17.703327    20.852181    21.598018    7972.9726     2381.631    2822.2979    2273.9369   -232.79995   -216.19936    467.63963   -3217.0556 
 4830000    251.03369   -3880.6828   -3450.4197   -3880.6828            0    1358.6277    17.761425    20.920612    21.668897    8051.7259    2292.8653    730.63731    1052.3804    436.92532    984.63521    852.33879   -3290.8812 
 4831000    254.25584   -3955.3821   -3519.5963   -3955.3821            0   -144.64038    17.833278    21.005246    21.756557    8149.8406    38.065302   -781.11054    309.12411     560.8044    1145.0631   -96.387037   -3536.7878 
 4832000    250.25733   -3974.0053   -3545.0728   -3974.0053            0    2886.0864    17.694296    20.841544       21.587    7960.7774    2781.0772    2669.1992    3207.9828   -113.30935    -498.6372   -1101.6703   -3209.9988 
 4833000    234.09073   -3944.3296   -3543.1061   -3944.3296            0    1897.4943    17.741505    20.897149    21.644595    8024.6659     1621.061    2423.7286    1647.6934    99.867722      996.858   -402.27478   -3321.0395 
 4834000    260.31293   -3917.8096   -3471.6421   -3917.8096            0    1606.1886    17.802859    20.969417    21.719447    8108.2079    2727.0407     1732.273    359.25217    -2049.192   -865.57532    -879.5471   -3281.7105 
 4835000    255.01908   -3970.8752   -3533.7812   -3970.8752            0    2006.4202    17.745839    20.902254    21.649882    8030.5481    1706.7438    2677.7814    1634.7354   -1499.7553    448.10179    460.26446   -3298.7947 
 4836000     248.8125   -3937.9989   -3511.5428   -3937.9989            0    1138.5176    17.761265    20.920424    21.668701    8051.5083     1893.325    1132.4161    389.81175    314.31907     392.6105   -36.836075   -3377.8546 
 4837000    256.36833    -3970.495   -3531.0885    -3970.495            0    3422.5326    17.671477    20.814665     21.55916    7930.0169    4705.2996    2581.0422    2981.2561    -297.5681    199.26958   -908.95194   -3135.2686 
 4838000    258.83072   -3932.2966   -3488.6696   -3932.2966            0    2641.0636    17.765328     20.92521    21.673659    8057.0354    3208.7836    2872.6754    1841.7317    110.71679   -527.98048    383.75187   -3178.3351 
 4839000    240.51592   -3976.7888   -3564.5527   -3976.7888            0    1815.1434    17.838376     21.01125    21.762777    8156.8318    969.71996    2958.9327    1516.7775    -87.34573   -99.095683    103.84022    -3348.625 
 4840000    248.37152   -3923.7797   -3498.0794   -3923.7797            0    2095.2514    17.765061    20.924896    21.673333    8056.6726    1776.4892     2627.894    1881.3711   -685.18103    -1108.614    -600.0908   -3251.8909 
 4841000    240.02799    -3952.829   -3541.4292    -3952.829            0    1468.7327    17.738636     20.89377    21.641094    8020.7734    1312.8763    1704.5534    1388.7684    50.850322     409.3819   -756.94492   -3369.6246 
 4842000    264.54219   -3957.0097   -3503.5935   -3957.0097            0    1977.1251    17.759913    20.918832    21.667052    8049.6702    2253.0292    1019.5676    2658.7786    881.74862   -160.54374    468.89725   -3271.4865 
 4843000    231.83367   -3916.0301   -3518.6751   -3916.0301            0    615.89023    17.773557    20.934902    21.683698    8068.2369   -39.312382    934.73851    952.24455    1398.6075   -134.40627    475.44568   -3446.2052 
 4844000    244.47184   -3935.9434   -3516.9271   -3935.9434            0    2179.0445    17.847107    21.021534    21.773428    8168.8148    2774.5948    1967.7662    1794.7724    -1036.828    4.3443146    1170.5999   -3257.3293 
 4845000    239.66129   -3933.8103   -3523.0391   -3933.8103            0    3268.3058    17.765609    20.925541    21.674002    8057.4185    2604.4631    3198.7487    4001.7055   -598.98128     760.6284   -83.985179   -3138.9831 
 4846000    246.62293    -3906.964   -3484.2607    -3906.964            0    1570.3247    17.793375    20.958245    21.707876     8095.256    1241.0006    1873.8577    1596.1158    937.79739    900.66393    482.47081   -3298.8666 
 4847000    261.03104   -3924.7671   -3477.3689   -3924.7671            0    804.51759    17.746018    20.902465      21.6501     8030.791    2426.6534   -613.41069    600.31004    19.686667   -273.58707    38.017465   -3383.1431 
 4848000    241.48435   -3932.6001   -3518.7042   -3932.6001            0    1295.1116    17.776548    20.938426    21.687347     8072.311    2258.1919    2301.8373    -674.6946   -419.91723   -815.99186    480.29603   -3366.2354 
 4849000     249.0528    -3915.473    -3488.605    -3915.473            0    1340.1939    17.794521    20.959595    21.709274    8096.8201    2579.2909    925.75798    515.53293    937.72865   -82.772754   -1002.1246   -3330.3498 
 4850000    244.88493   -3950.5648   -3530.8404   -3950.5648            0    2611.7414    17.725612    20.878429    21.625205     8003.119    987.47176    4060.1509    2787.6017   -797.52432   -483.24838    1208.6356   -3226.0051 
 4851000    237.70052    -3953.318   -3545.9075    -3953.318            0    2130.3742    17.755106     20.91317    21.661188    8043.1361      1009.62    3165.2208    2216.2818   -373.06183   -1523.4531    705.08103   -3296.0127 
 4852000    248.65391   -3930.4329   -3504.2487   -3930.4329            0    1474.4484    17.707966    20.857645    21.603677    7979.2414     1087.991    2324.0084    1011.3458   -307.52802     207.6342    1684.8991   -3332.6685 
 4853000    242.31501   -3915.8196   -3500.4999   -3915.8196            0    624.82208    17.785244    20.948668    21.697956    8084.1628    539.43335    1587.5629   -252.52999   -70.798782    17.073164   -756.22727   -3426.8339 
 4854000    243.50688   -3937.9884   -3520.6259   -3937.9884            0    1202.0443     17.71437    20.865188     21.61149    7987.9016    1099.3692    1758.9833     747.7804   -1087.3116   -1274.0818    -434.9233   -3380.5934 
 4855000    249.31442   -3909.6989   -3482.3826   -3909.6989            0    2208.8846    17.764782    20.924567    21.672993    8056.2933    3056.4063    1344.0705    2226.1769    1207.1694   -275.13599    228.36896   -3222.8546 
 4856000    239.35867   -3947.5633   -3537.3108   -3947.5633            0    2000.3102     17.74841    20.905282    21.653018    8034.0386     2894.639    1319.7379    1786.5538   -665.63613   -621.79251    1172.8279    -3302.938 
 4857000    241.72665   -3947.9217   -3533.6105   -3947.9217            0    1138.8244    17.703148     20.85197    21.597799    7972.7303    1671.9662    275.32065    1469.1864   -164.17329    134.56675   -451.00846   -3401.1948 
 4858000    239.41864   -3916.7076   -3506.3522   -3916.7076            0    1399.9276    17.764146    20.923817    21.672216     8055.427    1718.3155    751.92449    1729.5428   -509.78914    11.855436    74.837254   -3341.8885 
 4859000     246.3255   -3931.6294    -3509.436   -3931.6294            0    2041.0646    17.596389    20.726223    21.467554    7829.3605    2099.3686    2539.4248    1484.4004    186.18482    785.57594   -623.24265   -3276.3807 
 4860000    246.05566   -3946.6135   -3524.8825   -3946.6135            0    2273.1245     17.81974      20.9893    21.740042    8131.2948    1918.1686    2130.6326    2770.5723   -454.71107   -1181.8871    1209.6579   -3255.3204 
 4861000    250.25702   -3933.0243   -3504.0923   -3933.0243            0    1188.0412    17.780552    20.943142    21.692232    8077.7668    1483.0022    671.95593    1409.1656   -630.71919    1712.4493    142.43904    -3364.134 
 4862000    234.08243   -3919.2542   -3518.0449   -3919.2542            0   -92.688237    17.869997    21.048496    21.801354    8200.2859   -836.89174    197.57598    361.25105   -66.043846    -211.4652   -661.24677   -3529.1297 
 4863000    247.55552   -3953.1703   -3528.8686   -3953.1703            0    1050.0787    17.822289    20.992302     21.74315    8134.7836    1559.1441    832.19514     758.8969    478.53271   -530.34205   -909.77405   -3404.2899 
 4864000    251.98843   -3908.3152   -3476.4156   -3908.3152            0    2744.3212    17.676002    20.819995    21.564681      7936.11    2282.3112    4344.0436    1606.6088    119.22254   -1676.1768   -535.06776   -3158.7878 
 4865000    252.99628   -3933.0118   -3499.3848   -3933.0118            0     1751.582    17.749852    20.906982    21.654778    8035.9981    2005.4573    1956.4387    1292.8499     240.9675    614.81529   -636.37665   -3294.1051 
 4866000    245.02636   -3953.3664   -3533.3996   -3953.3664            0    1927.4481    17.650669    20.790156    21.533775    7902.0374    1546.9628    2222.5726    2012.8089    769.46502   -779.83505    657.78409   -3311.2745 
 4867000    233.17575   -3944.5886   -3544.9333   -3944.5886            0    2252.9976    17.615896    20.749199    21.491352    7855.4272    1020.3911     4025.526    1713.0758    190.11908    496.23272    358.02771   -3286.8223 
 4868000    249.60387   -3959.7992   -3531.9868   -3959.7992            0    2232.7892    17.677083    20.821268       21.566    7937.5664    2160.3888    2220.0299    2317.9487    429.51566   -656.02443    430.62901   -3273.5163 
 4869000    249.96873    -3938.534   -3510.0961    -3938.534            0    1618.1501    17.712824    20.863367    21.609603    7985.8102    1006.5247    2105.9107     1742.015    1178.0949   -980.89256    1152.3857   -3321.6385 
 4870000     244.0475   -3942.4272   -3524.1381   -3942.4272            0    2488.2467    17.713137    20.863735    21.609985    7986.2336    2361.9789    3014.7396    2088.0216   -655.45355     875.9203    542.41851   -3234.3294 
 4871000    249.67354   -3967.1887   -3539.2568   -3967.1887            0    3008.9802    17.724954    20.877655    21.624403    8002.2286    3340.7114    3190.5339    2495.6953    427.74701    1598.3747   -1069.1691   -3188.0959 
 4872000    258.21967    -3947.984   -3505.4043    -3947.984            0     1966.591    17.718987    20.870626    21.617123    7994.1491    2330.8256    2345.8925    1223.0548   -640.20281   -87.127155   -471.06709   -3276.1264 
 4873000    236.80452   -3948.3351   -3542.4602   -3948.3351            0    200.68607    17.773973    20.935393    21.684206    8068.8036   -303.92836    266.91071    639.07587    1188.5168   -367.04011   -1394.1516   -3518.8444 
 4874000    254.06571   -3918.5748   -3483.1149   -3918.5748            0    243.64732    17.807864    20.975311    21.725552    8115.0476   -396.31994    478.01483    649.24705    1144.7677   -479.42648    722.57602   -3454.2793 
 4875000    257.71811   -3916.1383   -3474.4183   -3916.1383            0    1610.1984    17.836272    21.008773    21.760211     8153.947    1648.7672    1569.0414    1612.7866    341.75236   -1619.3122   -402.89889   -3282.9384 
 4876000    253.09878   -3938.8458   -3505.0432   -3938.8458            0     1143.563     17.77978    20.942233    21.691291    8076.7151    2362.3605    1376.8152   -308.48681    452.15583    66.750057    24.819302   -3370.3422 
 4877000    241.12172   -3890.5926   -3477.3183   -3890.5926            0    3056.3819    17.785472    20.948936    21.698234    8084.4738    3859.5111    4167.3135    1142.3211     128.9217    107.33755    1005.4831   -3116.9594 
 4878000    250.62274   -3921.3968    -3491.838   -3921.3968            0    1917.6781    17.788868    20.952936    21.702377    8089.1054    1211.1818    2220.9968    2320.8559   -352.97226   -849.49661   -905.32435   -3265.6071 
 4879000    253.71338      -3902.6   -3467.7439      -3902.6            0    1373.2763    17.929215    21.118246      21.8736    8282.0792    2549.3776    1499.9363    70.514932    1144.3876   -363.51955    102.74714   -3301.8719 
 4880000    251.63625    -3938.168   -3506.8721    -3938.168            0     1518.354     17.77239    20.933528    21.682275    8066.6484    1619.4015    2252.0415    683.61905    212.36151    -554.0738    1279.2096   -3328.2472 
 4881000    238.22863   -3942.3438   -3534.0281   -3942.3438            0    1194.5903    17.784486    20.947775    21.697031    8083.1293    1364.2587    68.892335    2150.6198   -151.82377   -226.29105   -337.95457   -3393.2049 
 4882000    239.58127   -3880.6798   -3470.0457   -3880.6798            0    749.35367     17.77807    20.940218    21.689204    8074.3847    1611.1229    488.01689    148.92126    1152.3207    562.06308   -703.04057   -3381.8043 
 4883000    249.60776   -3936.9677   -3509.1485   -3936.9677            0    2322.0262    17.761266    20.920425    21.668703    8051.5098    2081.3749    3905.8384    978.86513    373.68596   -218.09619   -639.50945   -3236.4892 
 4884000     242.8724   -3955.9945   -3539.7195   -3955.9945            0    -668.3132    17.865834    21.043592    21.796275    8194.5563   -528.79084    328.92442   -1805.0732    954.09258    276.40484   -556.51358    -3619.589 
 4885000    230.91732   -3958.3275   -3562.5431   -3958.3275            0    717.08207    17.816843    20.985887    21.736507    8127.3288    1562.5063    329.72736    259.01255   -247.51275    -1153.971    -1017.669   -3477.5483 
 4886000     244.0975   -3941.0617    -3522.687   -3941.0617            0    556.24265    17.910112    21.095746    21.850295    8255.6351   -590.86961    265.99106    1993.6065    1048.4391   -297.63946   -1272.2635   -3455.7154 
 4887000     234.3655   -3918.2247   -3516.5303   -3918.2247            0    455.90585    17.801341    20.967628    21.717594    8106.1333    303.53157    1518.8579   -454.67194    -429.5783   -670.77822    94.858362   -3462.6332 
 4888000    249.49995   -3955.3487   -3527.7143   -3955.3487            0    2897.0104    17.751301    20.908687    21.656545    8037.9652    3598.2943    1769.8451    3322.8918    1216.6478    534.71352   -815.13807   -3188.1109 
 4889000    236.01538   -3976.2469   -3571.7246   -3976.2469            0    1024.6543    17.832499    21.004329    21.755607    8148.7731     1600.976    1728.7874   -255.80046    917.80594   -280.42668    525.21903   -3449.9532 
 4890000    255.30314   -3946.5274   -3508.9465   -3946.5274            0    666.96173    17.753945    20.911802    21.659771     8041.558     1367.834    863.40212   -230.35089   -786.47806   -219.42811   -501.07328   -3430.7266 
 4891000    235.40813   -3940.2939   -3536.8124   -3940.2939            0    1660.4204    17.713662    20.864354    21.610626    7986.9438    2167.3213    1085.8526    1728.0873    1119.1288   -870.62386   -16.663128   -3343.4044 
 4892000     240.8415   -3943.0577   -3530.2636   -3943.0577            0    624.25311    17.760415    20.919423    21.667665    8050.3534    795.56472    1091.9401   -14.745472   -870.61035   -1045.1947   -457.86779   -3456.9725 
 4893000    252.30554   -3949.8345   -3517.3915   -3949.8345            0    505.77143    17.828107    20.999155    21.750249    8142.7535    -720.4466    1405.3602    832.40066    811.33546   -180.66767    1443.8233   -3457.3292 
 4894000    246.16625   -3918.8784   -3496.9579   -3918.8784            0    1647.6006    17.754664    20.912649    21.660649    8042.5354    2056.8399    1197.8545    1688.1073   -824.89471    130.78243   -640.98402   -3303.7073 
 4895000    244.88043   -3887.7073   -3467.9906   -3887.7073            0     1630.213    17.762513    20.921895    21.670225    8053.2067     2977.741   -248.28803    2161.1858   -421.79646    443.15667    50.690295   -3276.5257 
 4896000     239.2009   -3936.6346   -3526.6525   -3936.6346            0    259.03093    17.898491    21.082058    21.836117     8239.575    726.13606    192.93983   -141.98309   -255.93988    688.62007    1469.0858   -3495.5258 
 4897000    232.44941   -3929.8682   -3531.4579   -3929.8682            0    79.767198    17.833076    21.005008    21.756311    8149.5635    571.77538   -219.06448   -113.40931   -956.43504    388.01399    479.26402   -3521.9773 
 4898000    238.86003   -3926.5434   -3517.1455   -3926.5434            0    2752.7152    17.689997     20.83648    21.581755    7954.9755    3781.3549    479.05704    3997.7335   -409.77226   -185.19103   -199.18667   -3197.7888 
 4899000    249.05044   -3883.6769   -3456.8129   -3883.6769            0    2189.8543    17.793744     20.95868    21.708326    8095.7598    3478.2547    827.69226    2263.6158    632.15168   -187.18837    122.33448   -3198.2605 
 4900000    240.51693   -3913.4509   -3501.2131   -3913.4509            0    2249.8302    17.762637    20.922041    21.670376    8053.3754    3591.6099    2372.0199    785.86076    440.92509    417.28571    -159.5677   -3236.9701 
 4901000    245.41877   -3908.3397   -3487.7003   -3908.3397            0    1592.4755    17.822663    20.992743    21.743608    8135.2966    1305.1549    2598.5567    873.71483     41.55782   -975.20549   -157.88205   -3298.7611 
 4902000    237.50382   -3926.7557   -3519.6822   -3926.7557            0    873.14976    17.778143    20.940304    21.689292    8074.4834    2072.4839   -283.21969    830.18502    1283.0795   -186.77894    1262.1015   -3416.8618 
 4903000    241.09193   -3940.0119   -3526.7886   -3940.0119            0    1747.5706     17.70812    20.857826    21.603865    7979.4502     2415.753    501.04431    2325.9144     294.2902   -138.42461    1020.3247   -3323.4202 
 4904000    239.15856   -3944.2327   -3534.3231   -3944.2327            0    3915.2104    17.702207    20.850862    21.596651    7971.4595    3560.6403    4675.9246    3509.0662    968.56301    -358.2447   -481.49254   -3079.1581 
 4905000    254.52909   -3940.6427   -3504.3886   -3940.6427            0    1502.4569    17.780382    20.942941    21.692024    8077.5347    2058.5986    1398.2859    1050.4862    1498.3268   -1531.4334    434.77696   -3327.3953 
 4906000    224.56156   -3938.5713   -3553.6805   -3938.5713            0    1990.0344    17.682053    20.827123    21.572063    7944.2637    2114.8182    1152.2974    2702.9876   -683.56967   -1371.5328   -833.26383   -3323.1172 
 4907000    234.19337   -3914.7399   -3513.3405   -3914.7399            0    841.86266    17.720266    20.872133    21.618683    7995.8806    911.68133    836.10067    777.80597   -819.83538    285.82708      -1532.1   -3415.1694 
 4908000    247.24041   -3940.6797   -3516.9181   -3940.6797            0    1509.3306    17.725467    20.878258    21.625028    8002.9226     354.8018     1225.669     2947.521    500.93431   -508.24866    857.56316   -3340.7574 
 4909000     250.5978   -3937.3023   -3507.7862   -3937.3023            0    1236.2746    17.765666    20.925608    21.674071    8057.4959    130.84509    1266.3017    2311.6769   -1459.5626     1030.552   -370.66323   -3362.5112 
 4910000    270.96948   -3918.6479   -3454.2155   -3918.6479            0    3712.7987    17.680818    20.825668    21.570556    7942.5986    3393.5714    3812.0827     3932.742      199.519   -1147.2889    1181.9819   -3024.1448 
 4911000    244.78775   -3927.4806   -3507.9228   -3927.4806            0    2675.6627    17.704384    20.853426    21.599307    7974.4005    4916.5487    1537.0864    1573.3532   -1001.1465   -364.68647    83.550732   -3196.7474 
 4912000    249.75507   -3926.4054   -3498.3337   -3926.4054            0    1694.5453    17.672333    20.815673    21.560204    7931.1692    2098.0151     1383.244    1602.3769    529.91774   -781.36727   -1543.1936   -3302.3291 
 4913000    252.74079   -3925.5114   -3492.3223   -3925.5114            0    1234.0693    17.761262    20.920421    21.668698    8051.5047    196.88835    1854.0281    1651.2916   -906.48493    584.51394    201.83567   -3347.4143 
 4914000    253.31871   -3952.7838   -3518.6042   -3952.7838            0    3028.8062    17.706259    20.855634    21.601594    7976.9343    2736.5479    3308.3158     3041.555    119.20901    528.36723    656.06278   -3166.2468 
 4915000     253.6279   -3943.2443   -3508.5348   -3943.2443            0    401.30626    17.797105    20.962639    21.712427     8100.348   -125.63872     1989.883   -660.32553    471.16908    836.27002    552.86262   -3461.1263 
 4916000    247.34076   -3924.8384   -3500.9048   -3924.8384            0    2103.4456    17.798852    20.964697    21.714558    8102.7336    3122.4818    804.83885    2383.0161   -113.54239   -126.10341   -302.98571   -3252.3405 
 4917000    234.12755   -3959.8712   -3558.5846   -3959.8712            0    1451.5019     17.73252    20.886566    21.633633    8012.4803    970.26761     1990.623     1393.615    566.20704    1041.5623   -720.57219   -3388.9711 
 4918000    256.44513   -3920.8499   -3481.3117   -3920.8499            0    832.30531    17.810604    20.978539    21.728896    8118.7948    779.95791    1267.8481    449.10987   -442.73918    764.28547    370.22223   -3382.7631 
 4919000    252.40259   -3908.0864    -3475.477   -3908.0864            0   -130.56177    17.731585    20.885465    21.632492    8011.2123   -515.85846   -674.06156    798.23471    1447.8264   -59.272878    204.75596   -3490.7313 
 4920000    259.02458   -3950.5672   -3506.6079   -3950.5672            0    542.74557    17.734733    20.889173    21.636333    8015.4804   -517.08656    392.28027     1753.043   -191.07839    45.944497    234.26584   -3443.1623 
 4921000    244.40497   -3938.9971   -3520.0954   -3938.9971            0    1465.4906    17.697243    20.845014    21.590595     7964.755    1091.7405    1890.3999    1414.3314    367.95025    736.90345   -1412.8618   -3349.8672 
 4922000    250.19643   -3936.5632    -3507.735   -3936.5632            0    3273.3753    17.663828    20.805656    21.549828    7919.7239    1982.6499    3703.3541     4134.122    1270.4731   -763.63087    599.97573   -3129.6568 
 4923000    247.70976   -3932.7515   -3508.1855   -3932.7515            0    2448.3678    17.748571    20.905472    21.653215    8034.2577    2079.9064     2053.463    3211.7342    142.99021   -531.16912    37.387298   -3221.3067 
 4924000    240.84304   -3936.5274   -3523.7307   -3936.5274            0    1046.5234    17.886798    21.068286    21.821852    8223.4378   -192.05045    3110.9686    220.65194   -11.221261    490.56142     660.5602   -3398.2207 
 4925000    258.31433   -3931.1088   -3488.3669   -3931.1088            0    951.78727    17.784231    20.947475     21.69672    8082.7816    935.61493    1486.8009    432.94594    662.93084   -42.915332    551.73204   -3376.1711 
 4926000    241.33708   -3923.8886   -3510.2451   -3923.8886            0    3349.0867    17.755776    20.913959    21.662005     8044.046    3191.4997    3236.9524     3618.808    116.69875   -1437.3981    649.24523   -3117.3498 
 4927000    247.61724   -3909.1285    -3484.721   -3909.1285            0     1331.711    17.735598    20.890192    21.637389    8016.6537    758.29438    1137.9001    2098.9384    533.38014    -312.9353    524.93582   -3329.0244 
 4928000    246.77375   -3912.0317     -3489.07   -3912.0317            0    1742.4059     17.70192    20.850524    21.596302    7971.0721    1472.7374    1243.5763     2510.904   -521.26107   -279.47071   -1245.8229   -3286.5154 
 4929000     240.7536   -3915.0213   -3502.3778   -3915.0213            0    1862.4548    17.742481    20.898299    21.645785    8025.9903    1508.7545    2320.2397      1758.37    167.22474    463.58959   -69.100371   -3284.3759 
 4930000    239.50645   -3916.5114   -3506.0055   -3916.5114            0     543.6062    17.710755     20.86093    21.607079    7983.0123   -258.17866    1462.8963    426.10092   -1134.0198    184.37072    1026.0816   -3442.7167 
 4931000    249.71675   -3913.1092   -3485.1033   -3913.1092            0    2406.8261    17.714726    20.865608    21.611925    7988.3842    2486.6166    3230.5848    1503.2767    276.17114   -506.40701    973.76155   -3204.7023 
 4932000    251.81861   -3879.5522   -3447.9438   -3879.5522            0     593.0873    17.723734    20.876218    21.622914    8000.5765    402.59666     401.0776    975.58765     168.1812   -709.71722   -596.66205   -3378.7422 
 4933000    242.52246    -3927.351   -3511.6758    -3927.351            0    1962.6183    17.646894     20.78571     21.52917    7896.9691   -439.44062    4334.3267     1992.969    536.25214     312.2018    584.59396   -3285.6427 
 4934000     243.2418   -3914.0382   -3497.1301   -3914.0382            0    1628.9165    17.727576    20.880743    21.627601    8005.7802    1597.3116      756.643    2532.7948   -462.65458    110.31344    350.42505   -3306.9442 
 4935000    257.61672   -3940.0317   -3498.4854   -3940.0317            0    2024.8189    17.683601    20.828946    21.573952    7946.3502    2802.4248    998.10268    2273.9293   -564.00217   -785.05928   -1333.4554   -3263.8304 
 4936000    249.42389   -3892.3774   -3464.8734   -3892.3774            0    1657.1957     17.63768    20.774858    21.517929    7884.6059    1511.0178    380.13499    3080.4343     1597.366    154.77557      472.609   -3274.3143 
 4937000    236.45559   -3919.7568     -3514.48   -3919.7568            0    1276.5077    17.641671    20.779559    21.522798    7889.9594     1698.013    892.57461    1238.9354    495.11319   -608.22762   -327.67727   -3367.5962 
 4938000    253.70381   -3919.6231   -3484.7834   -3919.6231            0    840.02808    17.656318    20.796811    21.540667    7909.6275    668.87425    1085.7224    765.48755    -539.9641     6.271068    954.26118    -3387.883 
 4939000    242.34036   -3962.5266   -3547.1635   -3962.5266            0    1486.0058    17.625128    20.760073    21.502615    7867.7839    1320.1518    1661.5773    1476.2885    146.71981    1540.3168    673.60574   -3376.6539 
 4940000    258.50861   -3933.0523   -3489.9774   -3933.0523            0    1096.5018    17.689643    20.836063    21.581323    7954.4981    667.76548     358.8215    2262.9184    25.213774   -216.64753    392.47289   -3362.7742 
 4941000    242.58134   -3928.2017   -3512.4255   -3928.2017            0    852.27019    17.732571    20.886626    21.633695     8012.549    1440.0193    75.361724    1041.4295   -258.78298    2642.9841   -437.84429   -3412.8337 
 4942000     249.7052   -3927.0777   -3499.0915   -3927.0777            0    1910.1467    17.607688    20.739531    21.481338    7844.4515    2930.7109    2181.4991    618.23024    354.22151    100.00781    748.94103   -3280.5645 
 4943000    255.27116   -3926.5963   -3489.0702   -3926.5963            0    2029.6481    17.620141    20.754198     21.49653    7861.1068    2925.6821    2031.9222    1131.3398    2490.9458    1453.0033    2146.1484   -3256.3788 
 4944000    258.83124   -3947.4446   -3503.8167   -3947.4446            0    1389.9364      17.6492    20.788427    21.531983    7900.0653    984.32558    2411.0008    774.48271    550.00554    566.34371    244.28083   -3343.6761 
 4945000    243.90339   -3948.4504   -3530.4083   -3948.4504            0    687.39665    17.634574    20.771199     21.51414    7880.4414    1093.7016    432.56213    535.92624   -23.424778    54.450238    200.92859   -3451.4071 
 4946000    238.56339   -3923.8998   -3515.0103   -3923.8998            0    523.03966    17.630042    20.765861    21.508611    7874.3672     622.7734   -108.93017    1055.2758    374.06302    338.80674   -618.26913   -3454.9446 
 4947000    246.74045   -3944.7752   -3521.8705   -3944.7752            0     1884.766    17.669814    20.812707    21.557132    7927.7787     1033.809     2506.956    2113.5329   -914.70441   -1425.9787    365.77809   -3303.9566 
 4948000    257.42737   -3936.8289   -3495.6072   -3936.8289            0    1612.7767    17.786693    20.950375    21.699724    8086.1399    841.62421    2577.7321    1418.9739     346.5368   -358.55529   -351.25972   -3305.4156 
 4949000    249.78196   -3925.8356   -3497.7179   -3925.8356            0    1661.9493    17.747102    20.903742    21.651423    8032.2632    1615.1776    1066.4291    2304.2413    428.88969   -22.852656   -1413.1808   -3303.0333 
 4950000      233.503    -3907.831   -3507.6148    -3907.831            0    1527.3769    17.749935    20.907079     21.65488    8036.1109    795.79307    1467.3186     2319.019     1093.302   -574.19487    108.43313   -3328.6086 
 4951000    239.00975   -3906.7323   -3497.0778   -3906.7323            0     1504.189    17.811092    20.979114    21.729491    8119.4622    704.42102    1987.0476    1821.0985    -303.4128    869.24688     815.4126   -3318.9607 
 4952000      251.011   -3919.0623    -3488.838   -3919.0623            0    2301.0829    17.695895    20.843427    21.588951    7962.9354     2596.081    2593.3448    1713.8228    635.01122   -79.997895   -546.25252   -3221.6104 
 4953000     239.0442   -3952.2481   -3542.5345   -3952.2481            0    1400.8542    17.828598    20.999733    21.750848    8143.4258    2789.1117    660.84398    752.60696    440.59023    329.54144    535.11371   -3376.1642 
 4954000    256.87372   -3979.3586   -3539.0859   -3979.3586            0    164.93467    17.860935    21.037822    21.790298     8187.817    -1179.909    118.20276    1556.5103    426.41867    438.08231   -1480.1398   -3519.3909 
 4955000    237.76186   -3959.4831   -3551.9674   -3959.4831            0    2349.0136    17.760589    20.919627    21.667877    8050.5888    647.14383    2843.7024    3556.1945    397.46521    563.25713   -1622.2027   -3276.1707 
 4956000    245.07008   -3958.5364   -3538.4947   -3958.5364            0    1483.0859    17.719216    20.870896    21.617403    7994.4598    1323.6453    577.55702    2548.0554   -418.53943    617.35148    129.73953   -3365.5802 
 4957000    239.76406   -3936.1512   -3525.2038   -3936.1512            0    823.09646    17.743067    20.898989      21.6465    8026.7854   -481.56539    690.65629    2260.1985   -939.71225     109.2541    989.18987   -3428.8502 
 4958000    244.06915   -3913.8865   -3495.5603   -3913.8865            0    1480.4126    17.762434    20.921801    21.670128    8053.0985     2850.138    1334.8124    256.28745    207.99563    1370.0317    800.26592   -3321.6915 
 4959000    243.45095   -3926.5419   -3509.2753   -3926.5419            0    1813.0669    17.733369    20.887566    21.634668    8013.6304    1452.0441    2224.0611    1763.0954    193.54444    91.623283    1615.9074   -3297.3811 
 4960000    253.07134   -3907.3935   -3473.6379   -3907.3935            0    490.52369    17.831771    21.003471    21.754719    8147.7754   -414.19848    1939.2852    -53.51559    577.73775    152.83823    697.40779   -3415.3504 
 4961000    243.89569   -3943.5327   -3525.5038   -3943.5327            0    2620.1664    17.695336    20.842768    21.588268    7962.1801    2692.9383    2957.8623    2209.6986   -461.90059    544.97799   -1344.2561   -3221.2495 
 4962000    266.32687   -3971.4549   -3514.9798   -3971.4549            0    2681.4745    17.653395    20.793368    21.537101    7905.6997    3188.7844    3385.6444    1469.9946    479.72178   -359.90203    105.70288   -3205.8151 
 4963000    256.30944    -3933.029   -3493.7234    -3933.029            0    782.55253    17.710276    20.860366    21.606495    7982.3646    230.07751   -306.07181    2423.6519     570.8843    1180.6231   -13.694428   -3402.6228 
 4964000    242.66108   -3939.0692   -3523.1564   -3939.0692            0    1995.3921    17.657387    20.798069     21.54197    7911.0635    1627.3694    3947.0004    411.80643    -1187.012    907.76013    418.06944   -3292.9386 
 4965000    225.23426   -3964.0663   -3578.0224   -3964.0663            0    3176.8436    17.686416    20.832262    21.577386     7950.146    3712.4605    3739.0235    2079.0469   -398.60711   -1461.0261      630.733   -3209.6842 
 4966000    245.59427   -3956.5152    -3535.575   -3956.5152            0    2405.9418     17.61266    20.745387    21.487404    7851.0985    3309.3172    3790.0151    118.49319    1954.3219    151.42046    547.58762   -3260.0942 
 4967000    234.46556   -3948.5747   -3546.7087   -3948.5747            0    1239.5329    17.724544    20.877172    21.623902    8001.6731     1754.257    687.90298    1276.4387   -645.28363    900.47481   -1137.2733     -3402.06 
 4968000    237.43073   -3924.6955   -3517.7474   -3924.6955            0     592.8187    17.811238    20.979286    21.729669    8119.6618    1586.1404    1006.8711   -814.55541    31.732859    715.18541    257.55307   -3447.5476 
 4969000    243.18681   -3918.5761   -3501.7622   -3918.5761            0    461.78068    17.826537    20.997306    21.748334    8140.6027   -395.63636    373.82179    1407.1566   -533.07184   -94.110434    1242.9273   -3446.9385 
 4970000    245.99673   -3965.7621   -3544.1321   -3965.7621            0    2000.3313    17.781424    20.944169    21.693296     8078.955    2323.0073    2551.8413    1126.1453    521.84933    1679.3343    609.94518   -3308.4465 
 4971000    255.54521   -3970.5873   -3532.5916   -3970.5873            0    2360.0234    17.703092    20.851904    21.597731    7972.6547    1428.5716    2683.3386    2968.1601    635.89041   -68.336851    1095.2306   -3258.1846 
 4972000    252.49608   -3981.4013   -3548.6317   -3981.4013            0    2093.5476    17.704573    20.853649    21.599538    7974.6565    2646.2569    1434.0626    2200.3232    1031.6168   -161.02172    473.60108   -3305.1475 
 4973000    252.28867    -3981.074   -3548.6599    -3981.074            0    253.95351    17.760473    20.919491    21.667735    8050.4315   -132.18423    205.82611    688.21864    1053.1388   -1716.4848    396.28148   -3518.8439 
 4974000    234.29698   -3929.6813   -3528.1043   -3929.6813            0    2747.2022    17.762611    20.922009    21.670344    8053.3391    3641.2212    3271.2464     1329.139    636.35613    749.46586    781.64115   -3205.4462 
 4975000    252.70262    -4001.356   -3568.2324    -4001.356            0    1616.2834    17.811298    20.979356    21.729742    8119.7428    1872.1164    1252.9308     1723.803   -470.18036     373.3858    842.23988   -3376.8351 
 4976000    246.61848     -3964.21   -3541.5144     -3964.21            0     437.8487    17.786831    20.950537    21.699892    8086.3271    445.78885     -109.512    977.26926   -600.06757   -1009.1132    167.02897   -3489.8785 
 4977000      256.222     -3923.53   -3484.3742     -3923.53            0    569.80549     17.86715    21.045143    21.797881    8196.3679    246.42936    1936.7311   -473.74398     976.2875    251.39424   -288.70315   -3416.2622 
 4978000    241.06635   -3917.5568   -3504.3774   -3917.5568            0     2808.174    17.777481    20.939524    21.688485    8073.5817    2151.2039     3167.488    3105.8301   -580.32156   -148.95778    35.393233   -3173.7292 
 4979000    237.39564   -3915.0369   -3508.1489   -3915.0369            0    1737.2515    17.775235    20.936879    21.685746    8070.5227    3069.0852     958.8808    1183.7885    486.24831   -576.66363   -312.27515   -3303.6739 
 4980000    248.36077   -3894.5879    -3468.906   -3894.5879            0   -404.64234    17.899698    21.083479    21.837589    8241.2422   -704.92052   -504.70564   -4.3008587    1074.6037    305.22846    142.37827     -3517.54 
 4981000    255.72123   -3933.9542   -3495.6568   -3933.9542            0     2048.413     17.78698    20.950714    21.700075    8086.5313    2242.4031    1788.3442    2114.4916    986.51357   -196.36783    1027.8938   -3254.0798 
 4982000    255.45025   -3963.3918   -3525.5589   -3963.3918            0    2918.9088    17.758954    20.917702    21.665882    8048.3657    2563.9839    4166.3442    2026.3984    1061.2078   -75.631796    932.05257   -3182.9456 
 4983000     247.6215   -3937.5805   -3513.1657   -3937.5805            0    4239.3629    17.661728    20.803183    21.547267    7916.9007    3431.4097    3877.3297    5409.3494    907.88114     -326.463    270.46478   -3023.6894 
 4984000    260.77281   -3930.4425   -3483.4869   -3930.4425            0      1208.66    17.742198    20.897966    21.645441    8025.6068    1887.3436    1423.9746    314.66181   -900.16581    1274.7553   -590.37331    -3342.019 
 4985000    252.22998   -3956.3311   -3524.0176   -3956.3311            0    1707.6848    17.721973    20.874143    21.620766    7998.1917    1870.1436    359.04897    2893.8618    1403.9675    126.19813   -292.02237   -3324.8239 
 4986000    250.67247   -3924.0605   -3494.4164   -3924.0605            0     2146.453    17.668503    20.811163    21.555533    7926.0145    1594.8095    2668.3026    2176.2469   -108.92112    365.57213   -409.97283   -3246.3019 
 4987000    243.87439   -3932.0128   -3514.0205   -3932.0128            0    1861.8383    17.800802    20.966994    21.716937    8105.3976    2794.4631    1154.8588     1636.193   -362.67767     221.3003    158.92419   -3293.9346 
 4988000    260.11184   -3946.8964   -3501.0736   -3946.8964            0    2651.5773    17.697951    20.845849    21.591459    7965.7117    3448.4562    3540.2112    966.06464     56.78565     90.89327    603.35344   -3193.0353 
 4989000    245.10859   -3941.4206   -3521.3129   -3941.4206            0    789.83818    17.853963    21.029611    21.781794    8178.2336    2475.3116    648.33942   -754.13649   -795.24851   -57.289483   -442.53397    -3427.108 
 4990000    245.42443   -3948.3367   -3527.6876   -3948.3367            0    1206.7698     17.86857    21.046816    21.799614    8198.3228    927.10925    2031.2359    661.96436    -548.4163   -1009.1149   -1017.9339   -3383.4012 
 4991000      236.716   -3958.9219   -3553.1988   -3958.9219            0    2907.0974    17.817944    20.987184     21.73785    8128.8354    4222.9308    2293.5851    2204.7764    304.41054   -403.33889    252.25662   -3208.5603 
 4992000    246.01351   -3929.3316   -3507.6728   -3929.3316            0    1730.0312    17.822859    20.992974    21.743847    8135.5652    1644.9815    1573.3494    1971.7626   -455.17795    1359.5872     561.8491   -3302.4066 
 4993000    254.49818   -3917.3904   -3481.1893   -3917.3904            0    2724.6555    17.754343    20.912271    21.660257    8042.0992    2212.8417    2604.0974    3357.0275      244.568   -1041.0189   -1281.8183   -3161.6259 
 4994000    245.96934   -3927.4505   -3505.8675   -3927.4505            0    3006.5356    17.769849    20.930535    21.679174    8063.1883     3098.635    2821.3449    3099.6267   -861.17257   -1527.4884   -1218.1294   -3152.3189 
 4995000     248.5551   -3918.2835   -3492.2686   -3918.2835            0    1303.1239    17.826799    20.997614    21.748653     8140.961    1755.7214    561.14917     1592.501    230.58373   -108.59321   -11.178639   -3337.5519 
 4996000    239.82209   -3927.1003   -3516.0535   -3927.1003            0    2423.6102    17.745949    20.902384    21.650017    8030.6979    2170.4443    2502.8145    2597.5717   -198.59502   -340.26157   -211.06487   -3232.2015 
 4997000    238.46322   -3909.4895   -3500.7717   -3909.4895            0     2443.236    17.763808     20.92342    21.671804    8054.9678     3162.598    2098.7455    2068.3645   -945.00506    108.02165    1266.2459   -3213.7563 
 4998000    257.26446   -3934.8073   -3493.8648   -3934.8073            0    1208.6084    17.791249    20.955741    21.705282    8092.3539    1443.9388    1810.1985    371.68787   -124.93717    -689.5022    11.606003   -3351.2265 
 4999000     238.3487   -3953.4305    -3544.909   -3953.4305            0    2980.9854    17.696728    20.844408    21.589967    7964.0598    3751.4661    2880.8241     2310.666    873.00934    183.82272   -228.19433   -3198.6746 
 5000000    247.38678   -3909.5335   -3485.5211   -3909.5335            0    1221.1983    17.807786     20.97522    21.725457    8114.9409    1306.6559    832.18809     1524.751   -1038.7566   -637.95343    1250.0691   -3340.9946 
Loop time of 358.524 on 64 procs for 250000 steps with 864 atoms

Performance: 120.494 ns/day, 0.199 hours/ns, 697.303 timesteps/s
194.5% CPU use with 32 MPI tasks x 2 OpenMP threads

MPI task timing breakdown:
Section |  min time  |  avg time  |  max time  |%varavg| %total
---------------------------------------------------------------
Pair    | 26.776     | 29.683     | 33.975     |  28.9 |  8.28
Bond    | 0.95892    | 1.098      | 1.3138     |   8.3 |  0.31
Kspace  | 169.82     | 175.54     | 180.69     |  19.6 | 48.96
Neigh   | 3.2636     | 3.4364     | 3.72       |   7.8 |  0.96
Comm    | 63.846     | 67.734     | 70.594     |  22.7 | 18.89
Output  | 0.82872    | 0.82902    | 0.83097    |   0.0 |  0.23
Modify  | 64.711     | 67.086     | 70.355     |  14.8 | 18.71
Other   |            | 13.12      |            |       |  3.66

Nlocal:        27.0000 ave          35 max          20 min
Histogram: 1 2 4 5 7 2 7 1 0 3
Nghost:        2347.72 ave        2372 max        2308 min
Histogram: 2 0 1 2 5 2 4 9 3 4
Neighs:        7614.22 ave       10233 max        5429 min
Histogram: 1 1 5 7 7 5 2 1 1 2

Total # of neighbors = 243655
Ave neighs/atom = 282.00810
Ave special neighs/atom = 2.0000000
Neighbor list builds = 12029
Dangerous builds = 0

unfix		3
unfix		2
unfix		1

write_data	data.final.${pid}
write_data	data.final.1
System init for write_data ...
PPPM initialization ...
  extracting TIP4P info from pair style
  using 12-bit tables for long-range coulomb (../kspace.cpp:340)
  G vector (1/distance) = 0.37186569
  grid = 24 24 25
  stencil order = 5
  estimated absolute RMS force accuracy = 0.0033482989
  estimated relative force accuracy = 1.0083303e-05
  using double precision FFTW3
  3d grid and FFT values/proc = 3822 576
Last active /omp style is kspace_style pppm/tip4p/omp
WARNING: Not all mixed pair coeffs generated from mixing. Use write_data with 'pair ij' option to store all pair coeffs. (../write_data.cpp:312)

write_restart   restart.lmp.${pid}
write_restart   restart.lmp.1
System init for write_restart ...
PPPM initialization ...
  extracting TIP4P info from pair style
  using 12-bit tables for long-range coulomb (../kspace.cpp:340)
  G vector (1/distance) = 0.37186569
  grid = 24 24 25
  stencil order = 5
  estimated absolute RMS force accuracy = 0.0033482989
  estimated relative force accuracy = 1.0083303e-05
  using double precision FFTW3
  3d grid and FFT values/proc = 3822 576
Last active /omp style is kspace_style pppm/tip4p/omp
Total wall time: 0:05:58
