LAMMPS (30 Jul 2021)
  using 1 OpenMP thread(s) per MPI task
package omp 0
using multi-threaded neighbor list subroutines
echo both

include		in.partitions
variable        pid world 0
include		in.temp
variable        temperature equal 227.74
variable	tempDamp equal 100.0
include		in.pressure
variable        pressure equal 2875.0
variable        pressureDamp equal 1000.0 # This is 1 ps
include		in.seed
variable        seed world 745823

units		real
atom_style	full
read_restart	restart.lmp.${pid}
read_restart	restart.lmp.0
Reading restart file ...
  restart file = 30 Jul 2021, LAMMPS = 30 Jul 2021
  restoring atom style full from restart
  orthogonal box = (0.33068273 1.4810318 0.40343216) to (17.876890 22.148146 21.809764)
  4 by 4 by 4 MPI processor grid
  restoring pair style lj/cut/tip4p/long/omp from restart
  restoring bond style harmonic/omp from restart
  restoring angle style harmonic/omp from restart
  864 atoms
  576 bonds
  288 angles
Finding 1-2 1-3 1-4 neighbors ...
  special bond factors lj:    0        0        0       
  special bond factors coul:  0        0        0       
     2 = max # of 1-2 neighbors
     1 = max # of 1-3 neighbors
     1 = max # of 1-4 neighbors
     2 = max # of special neighbors
  special bonds CPU = 0.222 seconds
  read_restart CPU = 0.440 seconds
include 	in.setup
variable	out_freq equal 1000
variable	out_freq2 equal 10000
variable	out_freq3 equal 1000

timestep	2.0

neigh_modify    delay 7 every 1

include		in.tip4p
# This is TIP4P/Ice

# create groups ###
group ox type 2
288 atoms in group ox
group hy type 1
576 atoms in group hy

# set charges - beside manually ###
set group ox charge -1.1794
Setting atom values ...
  288 settings made for charge
set group hy charge 0.5897
Setting atom values ...
  576 settings made for charge

# ### TIP3P Potential Parameters ###
pair_style lj/cut/tip4p/long/omp 2 1 1 1 0.1577 8.5
pair_coeff 1 1*2 0.000 0.000
pair_coeff 2 2 0.21084 3.1668
bond_style  harmonic
bond_coeff  1 450 0.9572
angle_style harmonic
angle_coeff 1 55 104.52
kspace_style pppm/tip4p/omp 1.0e-5
pair_modify tail yes

thermo          ${out_freq}
thermo          1000
thermo_style    custom step temp pe etotal epair emol press lx ly lz vol pxx pyy pzz pxy pxz pyz enthalpy

restart 	${out_freq3} restart.lmp.${pid} restart2.lmp.${pid}
restart 	1000 restart.lmp.${pid} restart2.lmp.${pid}
restart 	1000 restart.lmp.0 restart2.lmp.${pid}
restart 	1000 restart.lmp.0 restart2.lmp.0


include         in.dump
dump            myDump all atom ${out_freq2} dump.water.${pid}
dump            myDump all atom 10000 dump.water.${pid}
dump            myDump all atom 10000 dump.water.0
dump            myDump2 all dcd ${out_freq2} dump.dcd
dump            myDump2 all dcd 10000 dump.dcd
dump_modify     myDump append yes
dump_modify     myDump2 append yes


variable natoms 	equal  "count(all)"                        # NUMBER ATOMS
variable H      	equal  "enthalpy/v_natoms"                 # ENTHALPY-per-atom
variable Vol      	equal  "vol/v_natoms"                 # volume-per-atom
fix AVG all 		ave/time ${out_freq} 1 ${out_freq} v_Vol v_H file vol_enthalpy.dat
fix AVG all 		ave/time 1000 1 ${out_freq} v_Vol v_H file vol_enthalpy.dat
fix AVG all 		ave/time 1000 1 1000 v_Vol v_H file vol_enthalpy.dat


timer           timeout 23:50:00 every 1000
New timer settings: style=normal  mode=nosync  timeout=23:50:00

fix 		1 all shake 1e-6 200 0 b 1 a 1
       0 = # of size 2 clusters
       0 = # of size 3 clusters
       0 = # of size 4 clusters
     288 = # of frozen angles
  find clusters CPU = 0.076 seconds
fix             2 all nph iso ${pressure} ${pressure} ${pressureDamp}
fix             2 all nph iso 2875 ${pressure} ${pressureDamp}
fix             2 all nph iso 2875 2875 ${pressureDamp}
fix             2 all nph iso 2875 2875 1000
fix             3 all temp/csvr ${temperature} ${temperature} ${tempDamp} ${seed}
fix             3 all temp/csvr 227.74 ${temperature} ${tempDamp} ${seed}
fix             3 all temp/csvr 227.74 227.74 ${tempDamp} ${seed}
fix             3 all temp/csvr 227.74 227.74 100 ${seed}
fix             3 all temp/csvr 227.74 227.74 100 745823

run             250000
PPPM initialization ...
  extracting TIP4P info from pair style
  using 12-bit tables for long-range coulomb (../kspace.cpp:340)
  G vector (1/distance) = 0.37309361
  grid = 24 24 25
  stencil order = 5
  estimated absolute RMS force accuracy = 0.0032039209
  estimated relative force accuracy = 9.6485126e-06
  using double precision FFTW3
  3d grid and FFT values/proc = 2730 288
Last active /omp style is kspace_style pppm/tip4p/omp
Neighbor list info ...
  update every 1 steps, delay 7 steps, check yes
  max neighbors/atom: 2000, page size: 100000
  master list distance cutoff = 10.8154
  ghost atom cutoff = 10.8154
  binsize = 5.4077, bins = 4 4 4
  1 neighbor lists, perpetual/occasional/extra = 1 0 0
  (1) pair lj/cut/tip4p/long/omp, perpetual
      attributes: half, newton on, omp
      pair build: half/bin/newton/omp
      stencil: half/bin/3d
      bin: standard
Per MPI rank memory allocation (min/avg/max) = 9.237 | 9.241 | 9.246 Mbytes
Step Temp PotEng TotEng E_pair E_mol Press Lx Ly Lz Volume Pxx Pyy Pzz Pxy Pxz Pyz Enthalpy 
16500000    232.03555    -3951.185    -3553.484    -3951.185            0     1530.328    17.546207    20.667114    21.406331    7762.5664    2881.3185    2110.6198   -400.95414   -928.51647     623.5611    151.31105    -3380.237 
16501000      232.083   -3991.6469   -3593.8645   -3991.6469            0    2264.1596    17.588909    20.717411    21.458428    7819.3793    2342.2438    3748.7791    701.45606    365.24689   -1119.9924     257.5692   -3335.6651 
16502000     230.0154   -3998.4221   -3604.1836   -3998.4221            0    1809.7777    17.643691    20.781937    21.525262    7892.6695    1508.0816    2260.3838    1660.8677   -407.17588     50.14052    1214.1512   -3395.8664 
16503000    222.50502   -3986.7339   -3605.3679   -3986.7339            0    2304.6348     17.65993    20.801065    21.545074     7914.483    3356.1429    3122.8227    434.93871   -321.35617      938.139    169.71579   -3339.3563 
16504000    217.64047   -4012.5454   -3639.5171   -4012.5454            0    1728.6446    17.643617     20.78185    21.525171    7892.5696    3056.0786    2445.3341    -315.4789   -688.54169   -74.465989    354.47531   -3440.5414 
16505000    231.90862   -3975.3246   -3577.8412   -3975.3246            0     3302.967    17.453101    20.557448    21.292743    7639.6491    4123.2976    3990.8348    1794.7686      605.239   -1127.6059    491.19772   -3209.8363 
16506000    236.03666   -3981.4675   -3576.9087   -3981.4675            0    2419.6929    17.473421    20.581382    21.317533    7666.3633    881.91427    2320.0681    4057.0964   -371.06362    827.60315    1090.6361   -3306.3724 
16507000    230.35361   -3985.8493   -3591.0311   -3985.8493            0    2694.2585    17.411953    20.508981    21.242542    7585.7416    3688.6155    3572.3109     821.8491     1017.503   -378.96413   -1569.0054   -3292.9646 
16508000    231.88615   -3979.8841   -3582.4392   -3979.8841            0    3981.6296    17.454656    20.559279    21.294639    7641.6908    4439.0096     4691.078    2814.8012   -432.61024   -385.79236   -302.20617   -3138.7016 
16509000    232.81622   -3966.3559   -3567.3169   -3966.3559            0    4796.5916    17.415137    20.512731    21.246426    7589.9037    5269.5148    5460.6571    3659.6028   -1276.2845    579.91608    349.24949   -3036.3775 
16510000     234.1605   -3996.5773   -3595.2343   -3996.5773            0    1931.1395    17.453606    20.558043    21.293359    7640.3124    612.14888    2911.8749    2269.3945   -914.06366   -106.87569    72.595871   -3380.0549 
16511000    227.12444   -3975.1376   -3585.8541   -3975.1376            0    2125.7004    17.411902    20.508921     21.24248    7585.6752    2474.6442    2345.1899    1557.2672   -1326.1688   -921.82225   -1033.4665   -3350.6894 
16512000    245.08809   -3968.5914   -3548.5188   -3968.5914            0    1865.7739    17.467349     20.57423    21.310125    7658.3747    1652.7398    1539.8272    2404.7548    446.89153    2231.8656    -165.3455   -3340.1314 
16513000     235.1799   -3983.5497   -3580.4594   -3983.5497            0    2652.5424    17.381169    20.472722    21.204986    7545.5788    1879.7318    2546.6994    3531.1962    260.35383    827.70116     1227.041   -3288.5616 
16514000    227.03913   -3998.7353    -3609.598   -3998.7353            0    4458.0478    17.417865    20.515944    21.249754    7593.4708    5309.5777    4101.3849    3963.1807    441.61419    353.97766    743.35617   -3115.9005 
16515000    216.69297   -3958.9476   -3587.5433   -3958.9476            0    2166.3322    17.448106    20.551564    21.286649    7633.0914    2486.9828    2335.8652    1676.1485   -6.2440308     719.9896    476.33231   -3346.3854 
16516000    228.15722   -3971.3097   -3580.2561   -3971.3097            0    2905.9317    17.447097    20.550375    21.285417    7631.7669    3139.0562    4138.1235    1440.6153   -6.2446409    1158.6149    1384.7125   -3256.8215 
16517000    230.02027   -3983.9408    -3589.694   -3983.9408            0    2981.8589    17.498296    20.610681     21.34788    7699.1509    2369.2552     3138.458    3437.8637   -453.47383   -1203.7343    1904.6629   -3254.8782 
16518000    213.87644   -3987.6539   -3621.0771   -3987.6539            0    2418.9514    17.454924    20.559595    21.294966    7642.0428    3304.9941     2130.235     1821.625    421.65463    419.66938   -36.076742   -3351.4816 
16519000    229.50396   -3990.2468   -3596.8849   -3990.2468            0     2963.345    17.428226    20.528148    21.262395    7607.0299     4443.893    1267.4482    3178.6938    259.08762   -651.44074   -792.12877   -3268.1292 
16520000    213.34701   -3975.6747   -3610.0052   -3975.6747            0    1785.3023    17.520848    20.637245    21.375394    7728.9586    1431.8594    1786.0776      2137.97    337.16541   -584.38662   -471.34896   -3408.7678 
16521000    236.31337   -4016.5351   -3611.5021   -4016.5351            0     2022.107    17.437741    20.539356    21.274004    7619.4967    2359.9678    2277.4002    1428.9531    913.08157    599.82924   -690.32269   -3386.8004 
16522000     235.6782   -3984.1712   -3580.2268   -3984.1712            0    3894.4131    17.488943    20.599664    21.336469    7686.8119    4189.5954    3374.6706    4118.9733   -1058.6606   -1182.5059   -119.95466   -3143.6465 
16523000    220.28775   -4004.0598   -3626.4941   -4004.0598            0    2141.8058    17.500174    20.612893    21.350171    7701.6306    2217.1482    3956.0831    252.18618   -749.39829   -69.399961   -320.12078   -3385.9257 
16524000    240.46092   -3973.6408    -3561.499   -3973.6408            0    2171.2583    17.582968    20.710414     21.45118    7811.4585    4074.1167    3009.4711   -569.81302    290.39737    -1342.237   -207.28758   -3314.1447 
16525000    217.46751   -3974.9276   -3602.1957   -3974.9276            0    3085.6022     17.63122    20.767248    21.510047    7875.9445    4411.7419    2520.0985    2324.9661    604.88525    522.91679    1200.6906   -3247.7755 
16526000     233.7927   -3971.0853   -3570.3726   -3971.0853            0    3109.4569    17.579833    20.706721    21.447355    7807.2812    4169.1342    2588.5509    2570.6854    358.22643    336.34245    710.36048   -3216.3262 
16527000     227.6723   -3952.8033   -3562.5807   -3952.8033            0    3107.6973    17.564045    20.688125    21.428094    7786.2658    2413.4593    4058.9526      2850.68   -498.38656    163.20138   -31.147964   -3209.6871 
16528000    222.96879   -3982.6127   -3600.4518   -3982.6127            0    2845.2837    17.515097    20.630471    21.368377    7721.3497    3497.2114     2714.988    2323.6518   -688.20952    165.35318    758.38447   -3280.0502 
16529000    219.57449   -3989.9571   -3613.6139   -3989.9571            0    1440.6598    17.560953    20.684483    21.424321    7782.1539    2431.0848    865.35514    1025.5394   -1012.1514   -861.66022    2.8592397   -3450.1066 
16530000    238.52917   -4000.8485   -3592.0177   -4000.8485            0    2298.0112    17.611653    20.744201    21.486176    7849.7527    2156.0258    1497.6963    3240.3115     1496.399   -515.09266    1372.7167     -3328.94 
16531000    225.43858   -3960.5999   -3574.2059   -3960.5999            0    3351.1907    17.569969    20.695102    21.435321    7794.1464    3666.0848    2429.5475    3957.9397    468.40521    222.17482    736.15124   -3193.2773 
16532000    234.11197   -3997.0016   -3595.7417   -3997.0016            0    3753.3806    17.524765    20.641858    21.380172    7734.1424    3519.5535    4098.5354    3642.0529    1128.9326   -295.88604    248.83248   -3172.3809 
16533000    234.65957   -3998.2334    -3596.035   -3998.2334            0    2480.7762    17.471506    20.579126    21.315196    7663.8431    4594.0477    2514.8306    333.45039    744.68581   -469.61852   -1540.5152   -3318.7604 
16534000    224.10484   -3998.3519   -3614.2439   -3998.3519            0     3283.485    17.383002     20.47488    21.207222     7547.966    2496.7377    4197.0925    3156.6247    554.55188    9.5794781    80.639832      -3252.8 
16535000    219.39031   -4015.7943   -3639.7668   -4015.7943            0    5076.5821    17.417349    20.515337    21.249125    7592.7964    4386.2231    4949.9514    5893.5719    509.18981   -245.14726   -43.175403   -3077.6209 
16536000    224.20526   -4010.5548   -3626.2747   -4010.5548            0    2477.4308      17.4494    20.553089    21.288228    7634.7903    2767.7836    2831.2164    1833.2924   -716.54945    271.99291    746.77568   -3350.4237 
16537000    225.05458   -3989.9907   -3604.2548   -3989.9907            0    1771.1177     17.52795     20.64561    21.384059    7738.3612    1892.8229    1795.6707    1624.8595    474.10522   -1063.3121   -187.89534   -3404.3734 
16538000    233.30656   -3995.4033   -3595.5238   -3995.4033            0    3827.5408    17.417611    20.515645    21.249445    7593.1393    2225.6684    4483.7706    4773.1834   -559.77972    449.49335    -76.74612   -3171.6691 
16539000    233.27019   -4002.4766   -3602.6595   -4002.4766            0    2961.1567    17.451854    20.555979    21.291221    7638.0111    4391.1059    1934.4093    2557.9548   -101.84884    245.43575   -525.90343   -3272.8087 
16540000    226.90528   -3999.7029    -3610.795   -3999.7029            0    2293.4609    17.488697    20.599376     21.33617    7686.4886    2049.5787     1727.388    3103.4159    627.56602    591.65131    628.50373   -3353.6991 
16541000    228.40336   -3990.5919   -3599.1164   -3990.5919            0    3429.4827    17.478577    20.587455    21.323823    7673.1516    2813.3787    4182.6827    3292.3866   -540.96253    748.84334    600.34976     -3215.34 
16542000    229.09381   -3992.6465   -3599.9875   -3992.6465            0    3029.0885    17.487237    20.597655    21.334388    7684.5627    3220.0972    2981.9782    2885.1902    850.54898    1660.7846    481.07974   -3260.5131 
16543000    237.48902   -3968.7188   -3561.6707   -3968.7188            0    3670.3192    17.399246    20.494014     21.22704    7569.1461     6140.266    1183.8977    3686.7938    567.31053    7.4123783     1215.723   -3156.5107 
16544000    232.52677   -3968.4138   -3569.8709   -3968.4138            0    3184.6714    17.433624    20.534506     21.26898    7614.1004    2478.8498    3261.5336    3813.6307    1152.5529    1702.1255    868.56453   -3216.2327 
16545000    221.40388   -4007.0034   -3627.5247   -4007.0034            0    2123.8445    17.439406    20.541317    21.276035    7621.6796    960.48675    4245.8767    1165.1701    965.29382   -7.9531605   -120.62667   -3391.4501 
16546000    241.49895   -3995.9138   -3581.9929   -3995.9138            0     3136.568    17.496178    20.608186    21.345296    7696.3557    2644.9398    4147.0789    2617.6854   -707.87525   -996.70486    53.353935   -3229.9337 
16547000    232.19121   -4012.3233   -3614.3556   -4012.3233            0    2125.7596    17.469276      20.5765    21.312476    7660.9091    2860.3256   -187.22855    3704.1818   -260.96788   -310.35728   -995.60441   -3376.8519 
16548000    235.20203   -3998.1562    -3595.028   -3998.1562            0    3275.9517    17.478934    20.587875    21.324259    7673.6221    4861.6714    700.70981    4265.4739   -586.56663    25.955607    577.10489   -3228.4099 
16549000    226.02145    -3969.889    -3582.496    -3969.889            0    3115.6227    17.472301    20.580063    21.316166    7664.8894    4599.8233    1431.4553    3315.5894   -390.48615   -348.32064    164.87133   -3234.2175 
16550000    228.66921   -3994.6006   -3602.6694   -3994.6006            0    2025.9422    17.476377    20.584864     21.32114    7670.2555    3139.8871     2665.463    272.47649   -148.47937   -568.78099   -707.37741   -3376.0418 
16551000    221.68235   -3953.0969    -3573.141   -3953.0969            0    679.98447     17.53556    20.654573    21.393342    7748.4443    1099.3595    135.40476    805.18912   -20.969524   -724.78242   -128.26659   -3496.3006 
16552000    220.87695   -3986.3141   -3607.7385   -3986.3141            0    1812.1962    17.489468    20.600283     21.33711    7687.5043    933.32579    1765.0646    2738.1983    671.77342    688.48341   -35.749061   -3404.5653 
16553000    224.27817   -4007.9299   -3623.5248   -4007.9299            0    4337.5126    17.382682    20.474503    21.206831    7547.5485    4771.9034    4311.3581    3929.2763    440.84045    58.246016    1634.6162   -3146.0807 
16554000    235.96783   -3988.7618    -3584.321   -3988.7618            0    2071.4511    17.401612      20.4968    21.229925    7572.2335    3250.7511    684.91946    2278.6828    441.78913   -423.03575     510.8209   -3355.5639 
16555000     227.8788    -3997.029   -3606.4526    -3997.029            0    2814.4484    17.473445     20.58141    21.317562    7666.3951    3501.7078    3030.4962    1911.1412     1422.729    1171.5774    2588.2192   -3291.7789 
16556000    225.54958   -3977.9549   -3591.3706   -3977.9549            0    4105.6647    17.461161    20.566941    21.302575    7650.2374    3818.4146    5984.0047    2514.5749   -210.33413   -491.98605    333.37762   -3133.2981 
16557000    233.76678   -4011.2262   -3610.5579   -4011.2262            0    2900.3849    17.425256    20.524649    21.258771    7603.1413    2610.1535    2475.0879    3615.9134    324.92584    29.373463    106.64693   -3288.9516 
16558000    231.51572   -4015.4203   -3618.6103   -4015.4203            0    3745.3889    17.420437    20.518973    21.252892    7596.8349    5280.8738    3484.8508    2470.4423    82.104545    -514.7795   -723.12893    -3203.651 
16559000    233.46397   -3997.0259   -3596.8767   -3997.0259            0    1697.6008    17.471255     20.57883     21.31489    7663.5128    1862.8257     2381.249    848.72769     462.5848    153.69436    1062.2527   -3407.1452 
16560000    224.43736   -4022.6213   -3637.9433   -4022.6213            0    2747.0104    17.416342     20.51415    21.247896    7591.4793    2164.0775    2228.7104    3848.2432    546.29937   -810.57704    1095.9261    -3333.811 
16561000    219.99191    -3994.186   -3617.1274    -3994.186            0    1732.7387    17.449392    20.553079    21.288218    7634.7795     1339.244    2916.2217     942.7504   -1006.5379    102.72435    -269.7201   -3424.1949 
16562000    230.67395   -4002.5384   -3607.1711   -4002.5384            0    2133.1039    17.489859    20.600743    21.337587    7688.0197    2770.0687    3470.6862    158.55671    1045.4244   -886.50869    4.3902787   -3368.0035 
16563000    228.66808   -3972.7142   -3580.7849   -3972.7142            0    1457.9156    17.484948    20.594959    21.331595    7681.5452    2415.7173     875.0146     1083.015    103.45328    76.361476     466.2555   -3417.4583 
16564000     232.7311   -4014.7198   -3615.8267   -4014.7198            0    2863.0281    17.489401    20.600204    21.337028    7687.4162    1860.2794    3105.2888     3623.516    264.45328    407.85079    439.76961   -3294.8438 
16565000    215.47012    -4011.759   -3642.4506    -4011.759            0    1898.2523    17.521711    20.638261    21.376446       7730.1    2560.4322    2265.8886    868.43607   -929.72893    928.42472    323.74235     -3428.45 
16566000    236.78767   -3984.5352   -3578.6892   -3984.5352            0    3712.5291    17.439478    20.541402    21.276123    7621.7736    5494.0273    2039.3271    3604.2329    335.06532   -1124.0891    1679.7723   -3166.0203 
16567000    217.31508   -4012.7954   -3640.3248   -4012.7954            0    2812.2852      17.5082    20.622347    21.359963     7712.232    3441.0324    2967.7575    2028.0656   -94.423022   -326.96879    1248.7083    -3324.013 
16568000     236.6941   -4004.0494   -3598.3639   -4004.0494            0     3356.185    17.457708    20.562874    21.298363    7645.7004    3840.1083    2172.4292    4056.0176   -391.68256   -1886.2629    883.45043   -3224.1335 
16569000    220.26894   -4022.5075   -3644.9741   -4022.5075            0    4271.7912    17.465167     20.57166    21.307463    7655.5046    4234.7768    4609.1703    3971.4266     1020.485   -325.08033   -55.639617   -3168.0385 
16570000    231.58902   -3997.6079   -3600.6723   -3997.6079            0     2072.626    17.577855    20.704391    21.444942    7804.6463    2998.4976    1655.5326    1563.8478    454.94977    -386.3577   -1004.8095   -3364.7603 
16571000     231.4041   -4007.2669   -3610.6482   -4007.2669            0    2043.8747     17.49293    20.604361    21.341334    7692.0705    2584.6481    1772.9575    1774.0184   -555.86868   -615.86627   -1030.6573   -3381.3644 
16572000     240.1324   -3971.0931   -3559.5143   -3971.0931            0    2471.0056    17.491493    20.602669    21.339581    7690.1754    3214.1384    3630.6421    568.23622    958.82383   -1377.8124   -563.99313   -3282.3829 
16573000    218.31556    -4016.641   -3642.4556    -4016.641            0    3293.8584    17.498832    20.611312    21.348534    7699.8588     3470.945      3083.57    3327.0603    962.02334   -611.99476    200.62357   -3272.5733 
16574000    223.38461   -4001.7172   -3618.8436   -4001.7172            0    2680.4695    17.476697    20.585241     21.32153    7670.6764    3823.2022    1189.1898    3029.0166   -302.20369    344.33807    1197.3517   -3318.9823 
16575000    222.77957   -3993.9116   -3612.0751   -3993.9116            0    3816.8061     17.42264    20.521569     21.25558    7599.7182    5340.0802     1326.608    4783.7302   -835.64731   -1230.9402   -82.903039   -3189.0428 
16576000    217.19777   -3979.7649   -3607.4953   -3979.7649            0    2936.7595    17.514476    20.629739    21.367619     7720.528    3814.7904     2823.035     2172.453   -1291.0061   -933.20042   -421.83254    -3276.828 
16577000    223.49653   -4004.2235   -3621.1581   -4004.2235            0     2365.145    17.477079     20.58569    21.321995    7671.1791    2285.2373    1934.7417    2875.4561    -19.55118   0.31761713    291.91013   -3356.5544 
16578000    235.40498    -3956.722   -3553.2459    -3956.722            0    3328.4356     17.47375     20.58177    21.317935    7666.7971    3516.7383     3056.889    3411.6795   -1482.5721    559.81913    250.91368   -3181.0856 
16579000    225.64956   -3989.3667   -3602.6111   -3989.3667            0    4813.0006    17.399029    20.493758    21.226775    7568.8629    6540.8187    3800.1693    4098.0139   -390.06608    672.88033    1286.7321   -3071.3324 
16580000    240.42358    -3974.737   -3562.6592    -3974.737            0    3928.6785    17.479658    20.588728    21.325142    7674.5758    3041.1025    3306.2633    5438.6697    117.22677   -1172.2274   -71.318054   -3122.9387 
16581000    220.50801   -3973.7007   -3595.7575   -3973.7007            0    2892.5462    17.512663    20.627604    21.365408    7718.1312    2456.4492    1623.7347    4597.4545    1351.1391   -832.09157    1656.2813   -3270.1695 
16582000    224.15701   -4006.9838   -3622.7864   -4006.9838            0    2748.4054    17.528184    20.645885    21.384343    7738.6703    3810.5693    3541.1741    893.47274   -869.96181    1085.9812    1520.5718   -3312.5998 
16583000    219.16308   -3986.7438   -3611.1058   -3986.7438            0    2169.1687    17.520653    20.637015    21.375155    7728.6998    2241.6294    2405.9478    1859.9289   -600.96905     477.2256    1553.7935   -3366.6076 
16584000    240.71164   -3949.9324   -3537.3609   -3949.9324            0    1755.1746     17.55939    20.682642    21.422415    7780.0769    1534.2594    1003.4785    2727.7859    419.37803    723.21859   -260.96982    -3338.211 
16585000    235.38543   -4001.0593   -3597.6167   -4001.0593            0    623.80703    17.545518    20.666303    21.405491    7761.6523    2267.3763   -1159.2742    763.31895   -912.46297     81.38728   -114.38201   -3527.0044 
16586000    231.11241   -3975.5587   -3579.4399   -3975.5587            0    1588.6784    17.418122    20.516247    21.250068    7593.8075    636.76379    2720.0108    1409.2605   -194.26682    918.04303   -335.29439   -3403.4971 
16587000    224.49589   -3986.9801   -3602.2019   -3986.9801            0    2317.9088     17.44779    20.551192    21.286263    7632.6767    2307.4357    3219.9637    1426.3271   -770.21557    587.24403    795.85426   -3344.1844 
16588000    243.19843   -3975.9364   -3559.1026   -3975.9364            0    3878.1754    17.487664    20.598159     21.33491    7685.1264    2415.7238    4743.4406    4475.3619    37.241526   -150.84597    224.74796   -3124.4379 
16589000    216.86632   -3985.6109   -3613.9095   -3985.6109            0     3375.753    17.401209    20.496326    21.229435    7571.7082    3404.3865    2436.0767    4286.7959   -96.090064    962.79912    259.25952   -3241.1399 
16590000    224.45388   -3966.1709   -3581.4646   -3966.1709            0    3871.7567    17.452981    20.557306    21.292596     7639.491    4362.9541    3803.0586    3449.2573   -645.97739   -1014.7898    887.44796   -3150.0962 
16591000    214.91022   -3975.1402   -3606.7914   -3975.1402            0    3701.6797    17.444689     20.54754     21.28248    7628.6081    3326.8533    4083.8626    3694.3232    173.50901   -799.98394    26.427183   -3194.9595 
16592000    228.35937   -3947.6381   -3556.2379   -3947.6381            0    2419.7105    17.490089    20.601015    21.337868    7688.3238    1848.5663    1819.3642     3591.201    136.73906   -1444.6218    1356.5819   -3284.9247 
16593000    236.27321   -3993.6269   -3588.6627   -3993.6269            0    3929.4198    17.457818    20.563004    21.298498    7645.8453    4390.4259    1912.9722    5484.8612    -1597.023    470.88561   -917.73701   -3150.5056 
16594000    223.56673   -3966.8613   -3583.6756   -3966.8613            0    3590.8081    17.422008    20.520824    21.254809     7598.891      5289.49    3886.7549    1596.1795   -23.680182    -213.3812   -27.383665   -3185.7349 
16595000    224.45259   -3987.3375   -3602.6335   -3987.3375            0    3289.6715    17.538022    20.657474    21.396346    7751.7088    4047.8541    3631.3239    2189.8366    477.83232   -198.74931   -1035.6804   -3230.7337 
16596000    229.76089   -3957.1466   -3563.3443   -3957.1466            0    2407.7082    17.522805     20.63955    21.377781    7731.5482    1240.9908    3183.8627     2798.271     586.2924   -457.34142    5.4100932   -3291.8591 
16597000    223.76472   -3977.2633   -3593.7382   -3977.2633            0    3006.9922    17.479451    20.588485     21.32489    7674.3037    3159.0318    4483.8703    1378.0745    111.53331    185.31837    -689.5085   -3257.1901 
16598000    216.01116   -3991.0306   -3620.7949   -3991.0306            0    1673.6057    17.553416    20.675606    21.415127    7772.1388    1412.0575    1754.2839    1854.4758   -657.75092   -1049.8247   -868.00972   -3431.0939 
16599000    237.00418   -3996.8314   -3590.6144   -3996.8314            0     1429.196    17.526702     20.64414    21.382535    7736.7075    1148.2083    1546.6727    1592.7069    185.57206   -823.85096    905.37041   -3429.3554 
16600000    226.32286   -3998.0876    -3610.178   -3998.0876            0    3231.7767     17.56072    20.684209    21.424038    7781.8448    3413.8501    2531.3073    3750.1726   -605.61003   -152.21171    684.21265   -3243.4029 
16601000    228.14385   -4006.1697    -3615.139   -4006.1697            0    3384.3212    17.532534    20.651009     21.38965    7744.4333    3671.3907    2304.7232    4176.8498   -455.01861   -1285.7106   -1583.9858   -3232.8981 
16602000    221.47501   -3962.6416   -3583.0411   -3962.6416            0    2120.8141    17.578663    20.705343    21.445928    7805.7222    358.73533    2583.7897    3419.9172   -855.85909   -436.29013     1333.656   -3341.6109 
16603000    232.36029   -3984.4269   -3586.1693   -3984.4269            0    2773.9213    17.550301    20.671936    21.411326     7768.001    1292.5328    3102.1951    3927.0361   -1084.3211   -1168.8082   -804.69344   -3271.9164 
16604000     224.9037   -3994.7061   -3609.2289   -3994.7061            0    2602.2471    17.552473    20.674495    21.413976     7770.886    614.30826    4138.5491    3053.8838   -652.78437    1127.7523    1827.9675   -3314.3152 
16605000    236.53267   -4005.3808   -3599.9719   -4005.3808            0    2518.5981    17.507507    20.621531    21.359118    7711.3169     1673.414    1238.7237    4643.6567    440.50157    298.15246   -536.13741   -3316.7262 
16606000    208.23593   -3988.5228   -3631.6135   -3988.5228            0    2492.9454    17.550343    20.671986    21.411378    7768.0575    3557.7557     2874.043    1047.0376    609.65791   -1003.5777   -140.31428   -3349.1898 
16607000    222.89395   -4002.4511   -3620.4185   -4002.4511            0    2554.5779    17.571238    20.696598    21.436869    7795.8358    3483.6625    3530.2425    649.82869     297.4769      1825.23    572.52935   -3329.9776 
16608000    222.11887   -3966.5361   -3585.8319   -3966.5361            0    2388.0683    17.510848    20.625466    21.363194    7715.7324    2098.9829    2972.2843    2092.9379    113.08725   -46.275934   -760.93626   -3317.1121 
16609000     221.2057   -3973.1124   -3593.9734   -3973.1124            0      2719.56    17.460607    20.566288    21.301899    7649.5091     2639.138    3301.3305    2218.2116    1.7662181    -512.7184    -63.66309   -3290.5786 
16610000    237.52029   -4010.2885   -3603.1868   -4010.2885            0    1162.9258    17.522987    20.639764    21.378003    7731.7893    872.81682    1239.4027     1376.558   -1004.0934   -727.88274    289.47206    -3472.055 
16611000    227.16939   -3982.6276    -3593.267   -3982.6276            0    3147.2072    17.484108     20.59397    21.330571    7680.4391    1751.1353    4438.2101    3252.2762   -748.20507     438.7217     511.7658   -3240.7442 
16612000     235.0928    -3998.574    -3595.633    -3998.574            0     4017.455    17.511432    20.626153    21.363906    7716.5033    4326.2077    3185.6057    4540.5517   -372.55266    988.47496   -516.36235   -3143.5195 
16613000    231.67826   -4028.1045   -3631.0159   -4028.1045            0    2410.8658    17.579268    20.706056    21.446666     7806.529    3145.4832    2120.4848    1966.6293    59.345779   -1895.5268    141.01052   -3356.5383 
16614000    234.95475   -3982.7563   -3580.0519   -3982.7563            0    2780.3165    17.540688    20.660614    21.399599    7755.2443     3944.437    2883.2912    1513.2213    -68.75302     4.996483    19.487499   -3265.5917 
16615000    239.31981   -3996.9093   -3586.7234   -3996.9093            0    3446.3165    17.563677    20.687691    21.427644    7785.7755    5423.9077    936.91122    3978.1305   -383.31252    -762.4402   -182.85229   -3195.4026 
16616000    222.74141    -4001.244   -3619.4729    -4001.244            0     3086.975    17.605268     20.73668    21.478386    7841.2179    2999.4286    3482.9287    2778.5676    653.22646    967.30205   -428.44924   -3266.4584 
16617000    214.41782   -4017.5431   -3650.0382   -4017.5431            0    3272.0988    17.550239    20.671863     21.41125    7767.9187      1955.79    3897.8061    3962.7003    667.37244    484.54638   -16.426721   -3279.3516 
16618000    213.46884   -4001.1128   -3635.2345   -4001.1128            0    3205.9465    17.496697    20.608798    21.345929    7697.0407    4447.8462    1534.4869    3635.5065    265.83099    944.62242   -640.58896   -3275.3559 
16619000    227.50966   -3983.8441   -3593.9003   -3983.8441            0    3145.2594    17.586385    20.714439    21.455349    7816.0142    4924.4029    2852.6443    1658.7311    99.984161    933.52948    629.85426   -3235.3768 
16620000    218.98619   -4002.7443   -3627.4094   -4002.7443            0    3407.8682    17.571057    20.696384    21.436648    7795.5943    4313.3784    2313.5896    3596.6366    1440.7444    -564.4323   -470.59176   -3239.9663 
16621000    222.18539   -4000.7547   -3619.9365   -4000.7547            0    3007.6878    17.600383    20.730927    21.472426    7834.6927    2030.6902    3588.6531      3403.72    67.751104    99.006825      61.6786   -3276.2752 
16622000    234.22248   -3991.6849   -3590.2356   -3991.6849            0    3275.4024    17.576553    20.702858    21.443354     7802.912    2874.9232    3678.6334    3272.6507   -567.23051   -50.596551    -1061.657   -3217.5031 
16623000    213.25346   -4004.2491     -3638.74   -4004.2491            0    3519.1915     17.56457    20.688743    21.428734    7786.9636    3217.7238    4197.9185    3141.9322   -520.99237    -477.7432   -859.56948   -3239.0835 
16624000    230.97926   -3988.1407   -3592.2502   -3988.1407            0    3143.0358    17.570731       20.696    21.436251    7795.1608    3026.1929    1843.5429    4559.3715    1760.8182   -1294.3334    815.92167    -3234.936 
16625000    250.09228   -3993.0289   -3564.3793   -3993.0289            0    3531.4068    17.576924    20.703295    21.443807    7803.4068    2538.0785    4263.3023    3792.8396    117.89011    13.520175   -48.702492   -3162.4886 
16626000    229.21424   -4001.3141   -3608.4488   -4001.3141            0    3125.4122    17.591593    20.720572    21.461702    7822.9592    3534.5722    2593.1193    3248.5451    427.65186    707.34496    499.71638    -3251.871 
16627000    237.52651    -3999.184   -3592.0717    -3999.184            0    4846.0504     17.45111    20.555103    21.290314    7637.0351    4792.5027    4382.6674     5362.981    -471.4031     222.9366    1435.0994   -3052.3267 
16628000    232.01892   -4001.7095    -3604.037   -4001.7095            0    3017.7187    17.571372    20.696755    21.437033    7796.0142    3228.5252    2631.5844    3193.0465   -536.82086    748.85031    -216.4266   -3260.9318 
16629000    223.23215   -3961.0071   -3578.3948   -3961.0071            0     3247.469    17.608369    20.740333    21.482169    7845.3623    2488.4276     2423.419    4830.5603     1616.399     106.2307   -260.69214   -3206.8306 
16630000    234.04122   -4021.5575   -3620.4188   -4021.5575            0     3488.134    17.519223     20.63533    21.373411    7726.8075    3684.5762    3894.6947     2885.131    1267.2088   -92.464769    142.66115   -3227.3495 
16631000    213.13054   -3977.0149   -3611.7164   -3977.0149            0    3946.9278    17.541444    20.661505    21.400521    7756.2473    3461.9262    4221.2358    4157.6214   -1349.8327    785.27699    944.06692   -3165.2522 
16632000    228.30162   -3947.4275   -3556.1264   -3947.4275            0    385.49541    17.701407    20.849919    21.595675     7970.378   -667.74858    1204.7645    619.47033   -729.26305    -54.73787    1505.0625   -3511.3165 
16633000    226.29601   -3991.6766   -3603.8129   -3991.6766            0    2177.8484    17.676517    20.820602     21.56531    7936.8046    1166.3194    1946.5499     3420.676    538.79185    892.97053     493.1936   -3351.7267 
16634000    219.31916   -3989.5996   -3613.6941   -3989.5996            0    3299.6624    17.582128    20.709425    21.450156    7810.3399    2142.4018    4070.9524     3685.633    45.396344   -165.89038     1492.588   -3237.8434 
16635000    207.90777   -3995.6977   -3639.3509   -3995.6977            0    3322.6706    17.597918    20.728023    21.469419    7831.4006     2276.791    3886.2677    3804.9532    -823.0204   -507.79473    1463.4118   -3259.8589 
16636000    216.38962   -3969.9206   -3599.0361   -3969.9206            0    3353.0985    17.647928    20.786928    21.530431    7898.3569    847.43175    4158.9076    5052.9562    1234.5056   -770.36228   -146.30768   -3212.7946 
16637000    224.26875   -3999.3517   -3614.9628   -3999.3517            0    4085.1886    17.549866    20.671424    21.410796    7767.4239    2813.2546    5802.8446    3639.4667    129.99502    84.147243    18.087201    -3152.193 
16638000    226.80263   -3990.1441   -3601.4122   -3990.1441            0    4879.2712    17.523483    20.640349    21.378609    7732.4464     4176.025    4720.1707    5741.6178   -572.74792    1110.9573    220.43168   -3051.1777 
16639000    222.82473   -4040.9274   -3659.0134   -4040.9274            0    1669.7628    17.554137    20.676454    21.416006    7773.0957    2242.0946    850.01246    1917.1815    638.32478   -487.97114    458.96425   -3469.7247 
16640000    226.33979   -4009.2293   -3621.2907   -4009.2293            0    3326.4913    17.590044    20.718749    21.459813     7820.894    4368.1327     2879.138    2732.2032   -573.27756    291.08643     23.43588    -3241.872 
16641000    225.95498   -4026.9366   -3639.6575   -4026.9366            0    3179.8634    17.562637    20.686466    21.426376     7784.393    2897.9747    3331.3643    3310.2513    481.86373    599.62774     -747.532   -3278.6559 
16642000    219.25976    -4009.465   -3633.6612    -4009.465            0     1909.016    17.620317    20.754406    21.496746    7861.3433    1797.7434    2779.7211    1149.5836    20.287901    762.86672    749.33926   -3414.7933 
16643000    215.96422   -3988.3226   -3618.1674   -3988.3226            0    2917.6971    17.557626    20.680564    21.420263    7777.7318    2500.3378    4206.1092    2046.6444    287.28266   -424.12444    423.48355   -3287.2123 
16644000    226.64294   -4003.0572    -3614.599   -4003.0572            0    3042.4605    17.548517    20.669835     21.40915    7765.6333    2283.8615    3586.3415    3257.1786   -31.553474   -860.92937    160.16529   -3270.0288 
16645000    235.83437   -3985.5465   -3581.3345   -3985.5465            0    4125.7979    17.509882    20.624328    21.362015    7714.4551    3856.1766    4533.4378    3987.7791   -1021.4997   -576.91114   -124.99873   -3117.1516 
16646000    219.86222    -4008.585   -3631.7486    -4008.585            0    4228.9543    17.549136    20.670564    21.409905    7766.4545    4700.1341    3508.1761    4478.5526    433.08024    102.97504     468.6821   -3152.7529 
16647000    214.41505   -4011.1749   -3643.6748   -4011.1749            0    3618.6481    17.572683    20.698299    21.438632    7797.7584    3461.0398    4377.0476     3017.857    501.18624   -173.30901    346.49118   -3232.1538 
16648000    218.34311   -4023.7664   -3649.5338   -4023.7664            0    3113.9826    17.555565    20.678136    21.417748    7774.9929    2562.2892    3541.7322    3237.9265    367.11441   -1308.6104  -0.42926738   -3296.4384 
16649000    239.49564   -4001.2369   -3590.7496   -4001.2369            0    3126.0131    17.566299     20.69078    21.430844    7789.2641     2222.975    3088.4156    4066.6487   -1666.2395   -736.81991    154.25308   -3235.6394 
16650000    225.85449   -4023.7585   -3636.6517   -4023.7585            0    3466.1597    17.520185    20.636463    21.374584    7728.0801     3095.729    2806.6385    4496.1117   -264.52704   -308.15625   -278.56183   -3245.9942 
16651000    225.90031   -3985.6851   -3598.4997   -3985.6851            0     2615.014     17.49964    20.612265     21.34952    7700.9259     3305.008     2549.991     1990.043   -50.525304   -351.38386    686.14163   -3304.8072 
16652000    208.28776   -3993.1891    -3636.191   -3993.1891            0    2282.7496    17.435314    20.536497    21.271042     7616.315    2668.8135    1044.2453    3135.1899    400.61124   -564.77024   -675.08592    -3382.632 
16653000    219.90489   -3977.3581   -3600.4486   -3977.3581            0    2228.0538    17.564946    20.689187    21.429194    7787.4644    3448.6491   -432.44612    3667.9583   -683.67525   -1005.9036    335.96025   -3347.4037 
16654000     217.8208    -4002.175   -3628.8376    -4002.175            0    2426.3006    17.479107    20.588079    21.324469    7673.8496    3120.7267     757.1959    3400.9791    -300.6548    93.128742   -511.22373   -3357.2976 
16655000    220.47443   -3992.1068   -3614.2212   -3992.1068            0    2437.6837    17.521084    20.637522    21.375681    7729.2699    2932.3991    1916.7281    2463.9239   -80.942865   -393.66667   -933.15028    -3339.437 
16656000    218.30445   -4023.7733    -3649.607   -4023.7733            0    2398.8415     17.56127    20.684857    21.424709    7782.5763    1830.2468    3085.2783    2280.9993    789.61537    -134.0903   -79.336735   -3377.3363 
16657000    219.83057   -4000.4443   -3623.6622   -4000.4443            0    1787.6224    17.637106    20.774181    21.517228    7883.8359    399.65745    3328.6688    1634.5409   -241.99514    172.64333   -601.37385   -3418.1255 
16658000    231.35508   -4021.5586   -3625.0239   -4021.5586            0     4386.061    17.485587    20.595712    21.332376    7682.3886    6542.1016    2754.6667    3861.4149    726.73305    306.31658    -670.3884   -3133.6107 
16659000    222.55726   -4006.6558   -3625.2003   -4006.6558            0     2522.219    17.522119    20.638742    21.376944    7730.6401    2066.2515    1438.2188    4062.1866    157.22595   -354.44606   -863.70876   -3340.8366 
16660000    243.99239   -4011.7063   -3593.5117   -4011.7063            0    4347.2362    17.508071    20.622195    21.359806    7712.0618     4629.392    5656.2142    2756.1025    1311.5493   -449.04717   -848.76217   -3104.5671 
16661000    226.83612   -4038.7753   -3649.9859   -4038.7753            0    3608.9463    17.503046    20.616277    21.353676    7705.4236    4288.7216    2552.7451    3985.3723    886.79179    358.61558   -206.08551   -3244.4281 
16662000    221.39284   -4017.1756   -3637.7158   -4017.1756            0    3464.1977    17.563309    20.687258    21.427196    7785.2863    3938.8257    4145.7662    2308.0013   -1050.1681    389.82187   -1064.7968   -3244.3894 
16663000    233.44602    -4017.384   -3617.2655    -4017.384            0    5339.3943    17.463468    20.569659     21.30539    7653.2705    4442.6134    6185.2847    5390.2847     977.2692    -894.5647   -1324.3648   -3021.3085 
16664000    233.46264   -4035.7549    -3635.608   -4035.7549            0    2719.5496    17.557912    20.680902    21.420612    7778.1125    2197.3092    2667.8165    3293.5229   -242.62717   -1056.0205     500.2148   -3327.1137 
16665000    222.48783   -4007.3524   -3626.0159   -4007.3524            0    3532.9096    17.534245    20.653024    21.391738    7746.7011    4034.1951    3017.4593    3547.0743    2226.2043   -613.25384    231.64982   -3226.8759 
16666000    227.49963   -3994.0073   -3604.0807   -3994.0073            0    4550.7279    17.528475    20.646228    21.384699    7739.0562    3431.7797    4727.2662    5493.1377    491.08941   -440.65375    635.26962   -3090.4573 
16667000    218.00229   -4015.0322   -3641.3838   -4015.0322            0    2908.7581    17.559568    20.682852    21.422632    7780.3131    2096.1449    2477.3044     4152.825    1110.0961   -356.39099    182.82913   -3311.3331 
16668000      233.079   -3984.4946   -3585.0052   -3984.4946            0    3138.7093    17.602074    20.732918    21.474489     7836.951     2828.675    3077.3837    3510.0692   -294.82045   -373.05142   -850.63539   -3226.2699 
16669000    228.59879   -3976.2248   -3584.4143   -3976.2248            0     2708.849    17.534847    20.653733    21.392472    7747.4987       1874.2    846.74274    5405.6044   -983.16315    575.87844    566.31722   -3278.3433 
16670000    229.11205   -3994.9499   -3602.2596   -3994.9499            0    2663.9958    17.523294    20.640125    21.378377    7732.1951    1104.7478    2202.8874    4684.3523    539.45735   -941.73722   -552.41192   -3301.8511 
16671000    228.33805   -4004.3923   -3613.0286   -4004.3923            0    4525.3026     17.46572    20.572311    21.308137    7656.2313    3097.3631     5144.123    5334.4218   -230.16263   -2411.4555    483.35975   -3107.7411 
16672000    224.13069   -4023.5691   -3639.4167   -4023.5691            0    2634.6919    17.529763    20.647745    21.386269    7740.7616    2556.5967     2345.379    3002.1001   -1490.5272   -586.36721    393.83983   -3341.9836 
16673000    222.32499   -4017.8222   -3636.7648   -4017.8222            0    4632.6667    17.482043    20.591537    21.328051    7677.7173    5044.6405    2799.5598    6053.7997   -644.63613   -703.90296   -107.82799   -3118.0375 
16674000    214.48625   -4008.1547   -3640.5326   -4008.1547            0    2865.0043      17.5186    20.634597    21.372651    7725.9838    3841.8839    1657.9171     3095.212    530.94691   -949.06942   -310.57798   -3317.7166 
16675000    224.85737   -3989.3104   -3603.9126   -3989.3104            0    3064.8375    17.557738    20.680696    21.420399    7777.8805    4599.6485     1950.315     2644.549   -844.75387    631.05511   -242.34138   -3256.2607 
16676000    227.44021   -4009.2949   -3619.4702   -4009.2949            0    3011.3778    17.528532    20.646295    21.384768    7739.1309      2005.42    2638.2437    4390.4698    370.21551   -634.44832    377.97761   -3279.5841 
16677000    231.15085   -3984.5561   -3588.3714   -3984.5561            0    3252.8249    17.535548    20.654559    21.393327    7748.4276    3621.0443    3924.6312    2212.7992    148.52996   -1023.0261   -49.618104   -3220.7929 
16678000    228.56617   -3985.1802   -3593.4257   -3985.1802            0    1570.6761    17.577728    20.704242    21.444787    7804.4768    860.71542    105.96309    3745.3498    864.54671   -87.718293    595.33455   -3414.6508 
16679000    222.99442   -4005.2795   -3623.0747   -4005.2795            0    1689.1087    17.545801    20.666636    21.405836    7762.0273    3262.5827   -29.846988    1834.5904    1138.8519   -78.066757   -1599.1884   -3431.8655 
16680000    224.69451   -4008.8959   -3623.7772   -4008.8959            0    2836.0277    17.559461    20.682725    21.422501    7780.1704    4129.8178    1431.6664    2946.5988   -13.989464   -999.62353   -280.32753    -3301.985 
16681000    239.65486   -4010.3837   -3599.6234   -4010.3837            0    2123.6438    17.603386    20.734463     21.47609    7838.7032    2227.3745    2351.9648    1791.5921   -72.836017     736.7647   -1048.0733   -3356.8496 
16682000    232.07237   -3970.4151    -3572.651   -3970.4151            0    3817.2967    17.498735    20.611198    21.348416    7699.7307    4980.9444     3371.932    3099.0137   -1159.3653    614.63362   -1822.0329   -3143.9966 
16683000    221.80885    -3983.083   -3602.9103    -3983.083            0    3490.0141    17.504295    20.617747    21.355199    7707.0728    5256.8371    1783.6782    3429.5269   -267.66831   -732.88022    9.6418749   -3210.6335 
16684000    224.58699   -3992.0591   -3607.1247   -3992.0591            0    3695.7204    17.512469    20.627375    21.365171    7717.8747    4411.8797    3687.2649    2988.0166     1039.128    275.80042    1142.5452   -3191.1444 
16685000    226.51696   -3975.4347   -3587.1923   -3975.4347            0    2044.5407    17.558135    20.681164    21.420884    7778.4084    1691.6672    1929.1582    2512.7966   -195.41238   -837.00568    16.584669   -3355.2594 
16686000    235.80376   -3988.0118   -3583.8522   -3988.0118            0    3384.3036     17.51552     20.63097    21.368894    7721.9099    4418.5602    3167.9086    2566.4419   -598.00549   -411.27158    1609.4494    -3202.725 
16687000    223.49629   -4010.2565   -3627.1915   -4010.2565            0    3069.3644    17.515945     20.63147    21.369412    7722.4714    2795.6352    3624.2255    2788.2325    100.94407    1530.3556    1030.4479   -3281.5064 
16688000    247.06825   -4006.1049   -3582.6384   -4006.1049            0    4605.1355    17.458048    20.563275    21.298778     7646.147    4241.5603    5488.7696    4085.0767   -1499.6165      448.645    371.23092   -3069.1141 
16689000    217.35079   -4013.7734   -3641.2416   -4013.7734            0    2861.1171    17.492703    20.604094    21.341057    7691.7718    1525.8849    2860.3444    4197.1219    499.00373   -1380.3872     1048.323   -3320.2912 
16690000    228.28715   -3960.9907   -3569.7144   -3960.9907            0    3188.2784    17.529518    20.647457    21.385971    7740.4379    4131.3562     2675.159    2758.3199   -506.27629     723.5498    640.85046   -3209.8013 
16691000    226.20576   -3990.5414   -3602.8325   -3990.5414            0    2258.5912    17.517229    20.632983    21.370979    7724.1704    2788.8863    2418.8414    1568.0458    354.34412   -218.02854    1206.1499   -3348.4042 
16692000     226.5027   -3995.1922   -3606.9743   -3995.1922            0    2023.0503    17.494464    20.606168    21.343206     7694.095    1547.9149     1417.053    3104.1831    44.449591   -968.60193     628.8746   -3379.9669 
16693000    236.88787    -4001.959   -3595.9413    -4001.959            0    2510.9827    17.537801    20.657213    21.396076     7751.415    637.72566    3195.4916    3699.7309   -870.69071    95.937252    55.628976   -3312.0837 
16694000    228.18512   -3983.6082   -3592.5067   -3983.6082            0    3491.2316    17.428625    20.528618    21.262882    7607.5529    2152.1663    4644.6398    3676.8888    530.68906   -1355.6105    1315.9401   -3205.1603 
16695000    229.02626   -4014.8957   -3622.3525   -4014.8957            0    2780.8673    17.496317     20.60835    21.345465    7696.5391    3766.9857    1229.3534    3346.2627    558.58271   -278.62405     316.1382   -3310.2109 
16696000    229.44627   -3991.0723   -3597.8093   -3991.0723            0    917.46219    17.474442    20.582585    21.318779    7667.7077    1577.8561   -13.009101    1187.5396     264.2216    238.97023    1630.1915   -3495.2135 
16697000    229.75803   -3999.1856   -3605.3882   -3999.1856            0    1163.5202    17.527108    20.644618    21.383031    7737.2455    12.017685    1345.3877    2133.1553    855.88077    1130.7082   -1108.2559   -3474.0968 
16698000    232.86011   -3983.5724   -3584.4581   -3983.5724            0    3622.6174    17.497526    20.609774    21.346941     7698.135    3871.4338    3532.6872    3463.7313    1096.8393   -611.66419   -544.31139    -3177.749 
16699000    235.89205   -3975.6823   -3571.3714   -3975.6823            0    2035.1763    17.512142    20.626991    21.364773     7717.443    1048.2145     3212.684    1844.6303     1130.398   -205.76976   -654.97667   -3342.3103 
16700000    233.51877   -3983.0984   -3582.8552   -3983.0984            0    2902.5797    17.400949    20.496019    21.229117    7571.3681    3612.9431    3410.0554    1684.7404    1514.8142   -1261.0862   -726.47572   -3262.3505 
16701000     231.2485   -3978.6733   -3582.3213   -3978.6733            0    896.73824    17.522191    20.638827    21.377032     7730.736    259.52908     2283.286    147.39964    674.92538   -1144.6838    -1276.061   -3481.2186 
16702000    231.03178   -3983.6955    -3587.715   -3983.6955            0     2224.758    17.445109    20.548034    21.282992    7629.1581    2915.9198    532.96016    3225.3941    505.54032    1.8586021    46.217758   -3340.1807 
16703000    224.55475   -4019.2038   -3634.3246   -4019.2038            0    1816.0587    17.420836    20.519443    21.253379    7597.3573    2502.8661    878.01746    2067.2924   -1480.9139   -871.52622    936.46181   -3433.1059 
16704000    211.59752   -3995.7281   -3633.0571   -3995.7281            0    1715.9498    17.445499    20.548494    21.283469     7629.671    1694.7625    2470.0544    983.03238    28.914435   -1433.0892   -353.48172   -3442.1218 
16705000    218.42165   -4007.9634   -3633.5962   -4007.9634            0    3859.9562    17.382289     20.47404    21.206352    7547.0371    3957.6199    3530.2988    4091.9498   -719.54318   -154.09762    852.09972   -3208.7471 
16706000    219.97315   -4004.7604    -3627.734   -4004.7604            0    1655.6232    17.549947     20.67152    21.410895     7767.532    347.22676    3133.0194    1486.6234   -1541.1866    846.98797    -484.3622   -3440.1825 
16707000    231.97767   -4003.1115   -3605.5097   -4003.1115            0    2259.5443    17.466636     20.57339    21.309256    7657.4369    3087.8512    1930.3996    1760.3823   -41.449228   -696.84615   -1442.0375   -3353.1731 
16708000    228.11584   -3963.7847   -3572.8019   -3963.7847            0    3894.1523    17.386529    20.479034    21.211525    7552.5611     6499.064     2916.873    2266.5198   -50.923483   -261.00989   -1270.1905   -3143.8752 
16709000    217.61491   -3966.2107   -3593.2262   -3966.2107            0    3572.2431    17.479243    20.588239    21.324635    7674.0289     5420.033    2130.1073    3166.5889    590.48314    12.699738    828.26464   -3193.4285 
16710000    231.44019   -3968.3306     -3571.65   -3968.3306            0    2413.9221    17.476765    20.585321    21.321612    7670.7658    2631.8451    2063.6152    2546.3059   -467.42896   -883.96389    564.42042   -3301.6039 
16711000    224.91016   -3984.3427   -3598.8544   -3984.3427            0    3316.0965    17.396503    20.490782    21.223693    7565.5664    4029.9376    2713.0069    3205.3451   -437.11093    441.29472    592.64779   -3232.9695 
16712000    223.25329   -3969.7482   -3587.0997   -3969.7482            0    1849.4641    17.484666    20.594627    21.331251    7681.1737    1004.8929    2082.3666    2461.1328   -517.96087   -231.65568    1296.7385   -3379.9189 
16713000    232.92837   -3974.5727   -3575.3414   -3974.5727            0    4151.0266    17.372619     20.46265    21.194554    7534.4484    3995.4246      5896.52    2561.1351    152.88702    -532.4677    2506.0247   -3119.2175 
16714000    222.14707   -3994.7242   -3613.9717   -3994.7242            0    2512.0337    17.435957    20.537254    21.271827    7617.1576    3813.6955    1394.4976    2327.9078    733.03051    741.47927    38.680513   -3334.9138 
16715000     207.6058   -3996.8701   -3641.0409   -3996.8701            0      2855.18    17.487759     20.59827    21.335025    7685.2506    2662.8921    1673.0921    4229.5559   -438.05197    1170.5127   -537.40217    -3321.028 
16716000    227.55538   -3986.5736   -3596.5515   -3986.5736            0    2701.3607    17.437444    20.539006    21.273641    7619.1068    2192.2795     2894.147    3017.6558    1251.5282   -233.92138   -697.13793   -3296.3848 
16717000    223.97955    -4004.689   -3620.7957    -4004.689            0    1959.9131    17.438003    20.539665    21.274323    7619.8401    1347.3565    1926.5825    2605.8003    469.56671    362.00874   -295.79957   -3402.9953 
16718000    224.65299   -3982.8485   -3597.8009   -3982.8485            0    2533.4061     17.44869    20.552252    21.287361    7633.8577    3085.1839    624.09403    3890.9404    692.37342   -382.93505    31.049466   -3315.7518 
16719000    231.18128   -3985.2669   -3589.0301   -3985.2669            0    2947.9584    17.486385    20.596652    21.333349    7683.4403   -237.63605    3881.5481    5199.9632    716.96124     831.6299    1302.2919   -3258.6964 
16720000    219.74907   -4002.8606   -3626.2182   -4002.8606            0    3581.6079    17.468467    20.575547    21.311489    7659.8448    2119.8588    2399.4303    6225.5346   -198.69207    257.54041    1427.2327   -3226.1133 
16721000     222.4106   -3977.1863   -3595.9821   -3977.1863            0    2490.3652    17.509673    20.624082    21.361761    7714.1792    2781.8441    1162.6389    3526.6125   -419.19572    7.9870828   -71.508672   -3315.8076 
16722000    225.23544   -3996.8522   -3610.8064   -3996.8522            0    4102.8812    17.358635    20.446179    21.177494    7516.2687    6567.1501    2604.9965    3136.4969   -501.77685   -1548.1109     553.0413   -3161.0605 
16723000    224.51265   -3991.6474   -3606.8404   -3991.6474            0    3272.6903    17.438689    20.540473     21.27516    7620.7394     1808.354    5829.3415    2180.3755    406.76647    -1024.978    433.16845   -3243.1114 
16724000    222.20865   -3967.8829   -3587.0248   -3967.8829            0    2450.6246    17.458602    20.563927    21.299453    7646.8743    2809.3685    1999.2259    2543.2792    760.22248   -880.67298   -244.68025   -3313.7267 
16725000    233.06718    -4009.683   -3610.2138    -4009.683            0     4156.976    17.360603    20.448498    21.179896    7518.8261    4336.0098    4857.9087    3277.0095   -1007.0095    857.81163    -94.42315   -3154.3833 
16726000    231.03673   -3989.0531   -3593.0641   -3989.0531            0    2741.9892    17.442627     20.54511    21.279964    7625.9023    3301.6964    1610.5532    3313.7178    720.20869    943.56231    1430.0198   -3288.1111 
16727000    231.03665   -3958.3044   -3562.3154   -3958.3044            0    1339.8555    17.544775    20.665427    21.404584    7760.6655    923.11215    1182.4423    1914.0119    204.04815   -1172.4823    -133.4392   -3410.6688 
16728000    230.82924   -3992.6735   -3597.0401   -3992.6735            0    3222.7098    17.428667    20.528668    21.262933    7607.6076     3590.674    4436.7749    1640.6804   -601.34685    2154.9684   -651.03731   -3239.4832 
16729000    225.06545   -3987.7158   -3601.9613   -3987.7158            0    2928.1979    17.504897    20.618456    21.355933     7707.868    2698.6695    3541.2885    2544.6356    1009.5128   -4.7560208    986.12875   -3272.7987 
16730000    231.43401   -3977.5801   -3580.9101   -3977.5801            0    1349.7669    17.529989    20.648011    21.386545    7741.0609    1139.1376     142.6059    2767.5572    -340.5668   -368.92545    536.89883   -3428.5276 
16731000    236.91239   -4017.4232   -3611.3635   -4017.4232            0    2149.1137    17.499046    20.611564    21.348795    7700.1412    1958.5482    1394.4749     3094.318   -805.57935   -741.08325   -503.13107   -3370.0209 
16732000    220.97561    -3998.286   -3619.5414    -3998.286            0    2341.5812    17.499554    20.612163    21.349415     7700.812     2111.145    2229.6775    2683.9211    25.614681   -183.88837    667.65542   -3356.5621 
16733000    226.65277   -4024.9223   -3636.4472   -4024.9223            0    4292.3674    17.402025    20.497287     21.23043    7572.7736    4125.6238    3743.7728    5007.7057   -207.08968    127.73407    16.555466   -3162.3932 
16734000    235.76444   -4009.2107   -3605.1185   -4009.2107            0    2726.2171    17.427449    20.527233    21.261447    7606.0125     2724.011    2119.2293    3335.4111   -280.81378   -1631.6206    455.25562   -3302.7105 
16735000    220.71763   -4027.2131   -3648.9106   -4027.2131            0    2550.7279    17.492954     20.60439    21.341364    7692.1029    2238.6695    2997.7106    2415.8036   -315.19868   -657.24623    181.83893   -3362.7663 
16736000    224.08829    -4016.434   -3632.3544    -4016.434            0    1151.3474    17.546107    20.666996    21.406209    7762.4334    493.89412    990.61663    1969.5314   -514.54082     1020.989     458.8845   -3502.0136 
16737000    213.92201   -4003.7921   -3637.1371   -4003.7921            0    794.40369    17.560751    20.684245    21.424075    7781.8852    538.03885    783.42447    1061.7478    780.29658     474.1826    -110.6441   -3546.9796 
16738000    235.79986   -4032.5414   -3628.3885   -4032.5414            0    3986.8374    17.487264    20.597687    21.334421    7684.5984    2116.9641    5208.2579    4635.2902    40.434705   -1594.4623     -382.293   -3181.5758 
16739000    222.60275   -4003.6763   -3622.1428   -4003.6763            0    1870.7513    17.488473    20.599111    21.335896    7686.1927       1816.9    1930.2653    1865.0887    31.407492   -401.63357   -822.33807   -3412.4405 
16740000     232.7875   -4023.5218    -3624.532   -4023.5218            0    2829.5868    17.478482    20.587343    21.323707    7673.0263    2287.2992    4231.9588    1969.5025    8.7935556    496.30802   -820.70041   -3307.8921 
16741000    222.81412     -4025.77   -3643.8742     -4025.77            0    2776.0681    17.472772    20.580618    21.316741    7665.5095    975.75615    4765.5157    2586.9326    789.37315    1072.1814    49.943142   -3333.5276 
16742000    232.75413    -4017.274   -3618.3414    -4017.274            0    2398.7836    17.499745    20.612387    21.349647    7701.0637    323.29963    3096.6729    3776.3783   -310.24267    -157.3935    -125.9618   -3348.9289 
16743000    236.12125   -4005.4955   -3600.7918   -4005.4955            0    2779.5326     17.45002    20.553818    21.288983    7635.6033    2719.7098    1942.9859    3675.9021    298.32639    38.499613    323.16768   -3291.2701 
16744000    241.15807    -4017.991   -3604.6543    -4017.991            0    4501.7283    17.431875    20.532446    21.266846    7611.8087    5027.0168    3376.2648    5101.9033    390.30577   -458.12411   -36.877024   -3104.9155 
16745000    229.59663   -3990.9526   -3597.4318   -3990.9526            0    3008.2745    17.549031    20.670441    21.409777    7766.3158    2165.2256    3472.0497    3387.5483    837.01436    964.77205    1258.1987   -3256.7033 
16746000    229.90401   -4011.4926    -3617.445   -4011.4926            0    2720.5859     17.44462    20.547458    21.282396    7628.5176    2725.8991     3203.002    2232.8566   -434.93085    470.66754   -522.81692   -3314.7687 
16747000    219.69457   -4005.8637   -3629.3148   -4005.8637            0    2503.1449    17.462706    20.568761    21.304461     7652.269    1278.5776    4881.9499    1348.9071   -301.66457    -702.7839    124.07838   -3349.9626 
16748000     233.5496   -3999.4511   -3599.1551   -3999.4511            0    4175.0311    17.486358     20.59662    21.333316     7683.404    3401.7166    4506.1338    4617.2428   -170.31213   -524.22408    1604.7223   -3131.3238 
16749000    229.19653    -4031.103    -3638.268    -4031.103            0    3656.8688    17.491175    20.602294    21.339193    7689.7563    4857.3636    3956.4854    2156.7575       61.945   -581.29781   -230.34016   -3228.1603 
16750000    233.20603   -3983.4116   -3583.7045   -3983.4116            0    3399.3242    17.537335    20.656664    21.395507    7750.7971    2234.8598    3821.2576    4141.8553   -1237.7177    -442.3223     619.0783   -3199.4536 
Loop time of 560.934 on 64 procs for 250000 steps with 864 atoms

Performance: 77.014 ns/day, 0.312 hours/ns, 445.685 timesteps/s
99.1% CPU use with 64 MPI tasks x 1 OpenMP threads

MPI task timing breakdown:
Section |  min time  |  avg time  |  max time  |%varavg| %total
---------------------------------------------------------------
Pair    | 19.389     | 24.376     | 29.544     |  52.1 |  4.35
Bond    | 0.28648    | 0.29485    | 0.32174    |   1.1 |  0.05
Kspace  | 249.92     | 259.89     | 276.07     |  44.1 | 46.33
Neigh   | 3.8637     | 4.5425     | 5.6271     |  25.2 |  0.81
Comm    | 122.79     | 136.67     | 146.14     |  57.0 | 24.36
Output  | 1.2103     | 1.2128     | 1.2252     |   0.3 |  0.22
Modify  | 124.61     | 126.9      | 130.14     |  10.7 | 22.62
Other   |            | 7.044      |            |       |  1.26

Nlocal:        13.5000 ave          19 max          10 min
Histogram: 4 8 10 15 11 3 3 7 2 1
Nghost:        2086.81 ave        2142 max        2029 min
Histogram: 2 6 2 9 6 17 15 2 4 1
Neighs:        3986.70 ave        6009 max        2447 min
Histogram: 3 4 14 12 11 7 5 2 4 2

Total # of neighbors = 255149
Ave neighs/atom = 295.31134
Ave special neighs/atom = 2.0000000
Neighbor list builds = 10064
Dangerous builds = 0

unfix		3
unfix		2
unfix		1

write_data	data.final.${pid}
write_data	data.final.0
System init for write_data ...
PPPM initialization ...
  extracting TIP4P info from pair style
  using 12-bit tables for long-range coulomb (../kspace.cpp:340)
  G vector (1/distance) = 0.37313545
  grid = 24 24 25
  stencil order = 5
  estimated absolute RMS force accuracy = 0.0031991025
  estimated relative force accuracy = 9.634002e-06
  using double precision FFTW3
  3d grid and FFT values/proc = 2730 288
Last active /omp style is kspace_style pppm/tip4p/omp
WARNING: Not all mixed pair coeffs generated from mixing. Use write_data with 'pair ij' option to store all pair coeffs. (../write_data.cpp:312)

write_restart   restart.lmp.${pid}
write_restart   restart.lmp.0
System init for write_restart ...
PPPM initialization ...
  extracting TIP4P info from pair style
  using 12-bit tables for long-range coulomb (../kspace.cpp:340)
  G vector (1/distance) = 0.37313545
  grid = 24 24 25
  stencil order = 5
  estimated absolute RMS force accuracy = 0.0031991025
  estimated relative force accuracy = 9.634002e-06
  using double precision FFTW3
  3d grid and FFT values/proc = 2730 288
Last active /omp style is kspace_style pppm/tip4p/omp
Total wall time: 0:09:22
