LAMMPS (30 Jul 2021)
Processor partition = 1
  using 1 OpenMP thread(s) per MPI task
using multi-threaded neighbor list subroutines
variable        pid world 0 1
variable        phase world IceII IceIII

shell cd ${phase}
shell cd IceIII
include Restart.lmp
echo both
log log.lammps
#include		in.partitions
include		in.temp
variable        temperature equal 130.70
variable	tempDamp equal 100.0
include		in.pressure
variable        pressure equal 6793.8
variable        pressureDamp equal 1000.0 # This is 1 ps
include		in.seed
variable        seed equal 745823

units		real
atom_style	full

read_restart	restart.lmp.${pid}
read_restart	restart.lmp.1
Reading restart file ...
  restart file = 30 Jul 2021, LAMMPS = 30 Jul 2021
  restoring atom style full from restart
  orthogonal box = (0.11613120 0.12618620 0.064025907) to (19.883870 19.873815 20.635972)
  4 by 4 by 4 MPI processor grid
  restoring pair style lj/cut/tip4p/long/omp from restart
  restoring bond style harmonic/omp from restart
  restoring angle style harmonic/omp from restart
  972 atoms
  648 bonds
  324 angles
Finding 1-2 1-3 1-4 neighbors ...
  special bond factors lj:    0        0        0       
  special bond factors coul:  0        0        0       
     2 = max # of 1-2 neighbors
     1 = max # of 1-3 neighbors
     1 = max # of 1-4 neighbors
     2 = max # of special neighbors
  special bonds CPU = 0.008 seconds
  read_restart CPU = 0.021 seconds
include 	in.setup
variable	out_freq equal 1000
variable	out_freq2 equal 10000
variable	out_freq3 equal 1000

timestep	2.0

neigh_modify    delay 7 every 1

include		in.tip4p
# This is TIP4P/Ice

# create groups ###
group ox type 2
324 atoms in group ox
group hy type 1
648 atoms in group hy

# set charges - beside manually ###
set group ox charge -1.1794
Setting atom values ...
  324 settings made for charge
set group hy charge 0.5897
Setting atom values ...
  648 settings made for charge

# ### TIP3P Potential Parameters ###
pair_style lj/cut/tip4p/long/omp 2 1 1 1 0.1577 8.5
pair_coeff 1 1*2 0.000 0.000
pair_coeff 2 2 0.21084 3.1668
bond_style  harmonic
bond_coeff  1 450 0.9572
angle_style harmonic
angle_coeff 1 55 104.52
kspace_style pppm/tip4p/omp 1.0e-5
pair_modify tail yes

thermo          ${out_freq}
thermo          1000
thermo_style    custom step temp pe etotal epair emol press lx ly lz vol pxx pyy pzz pxy pxz pyz enthalpy

restart 	${out_freq3} restart.lmp.${pid} restart2.lmp.${pid}
restart 	1000 restart.lmp.${pid} restart2.lmp.${pid}
restart 	1000 restart.lmp.1 restart2.lmp.${pid}
restart 	1000 restart.lmp.1 restart2.lmp.1


include         in.dump
dump            myDump all atom ${out_freq2} dump.water.${pid}
dump            myDump all atom 10000 dump.water.${pid}
dump            myDump all atom 10000 dump.water.1
dump            myDump2 all dcd ${out_freq2} dump.dcd
dump            myDump2 all dcd 10000 dump.dcd
dump_modify     myDump append yes
dump_modify     myDump2 append yes


variable natoms 	equal  "count(all)"                        # NUMBER ATOMS
variable H      	equal  "enthalpy/v_natoms"                 # ENTHALPY-per-atom
variable Vol      	equal  "vol/v_natoms"                 # volume-per-atom
fix AVG all 		ave/time ${out_freq} 1 ${out_freq} v_Vol v_H file vol_enthalpy.dat
fix AVG all 		ave/time 1000 1 ${out_freq} v_Vol v_H file vol_enthalpy.dat
fix AVG all 		ave/time 1000 1 1000 v_Vol v_H file vol_enthalpy.dat


timer           timeout 02:55:00 every 1000
New timer settings: style=normal  mode=nosync  timeout=02:55:00

fix 		1 all shake 1e-6 200 0 b 1 a 1
Finding SHAKE clusters ...
       0 = # of size 2 clusters
       0 = # of size 3 clusters
       0 = # of size 4 clusters
     324 = # of frozen angles
  find clusters CPU = 0.002 seconds
fix             2 all nph aniso ${pressure} ${pressure} ${pressureDamp}
fix             2 all nph aniso 6793.8 ${pressure} ${pressureDamp}
fix             2 all nph aniso 6793.8 6793.8 ${pressureDamp}
fix             2 all nph aniso 6793.8 6793.8 1000
fix             3 all temp/csvr ${temperature} ${temperature} ${tempDamp} ${seed}
fix             3 all temp/csvr 130.7 ${temperature} ${tempDamp} ${seed}
fix             3 all temp/csvr 130.7 130.7 ${tempDamp} ${seed}
fix             3 all temp/csvr 130.7 130.7 100 ${seed}
fix             3 all temp/csvr 130.7 130.7 100 745823


run             250000
PPPM initialization ...
  extracting TIP4P info from pair style
  using 12-bit tables for long-range coulomb (../kspace.cpp:340)
  G vector (1/distance) = 0.37215405
  grid = 24 24 24
  stencil order = 5
  estimated absolute RMS force accuracy = 0.0035156014
  estimated relative force accuracy = 1.0587129e-05
  using double precision FFTW3
  3d grid and FFT values/proc = 2197 216
Last active /omp style is kspace_style pppm/tip4p/omp
Neighbor list info ...
  update every 1 steps, delay 7 steps, check yes
  max neighbors/atom: 2000, page size: 100000
  master list distance cutoff = 10.8154
  ghost atom cutoff = 10.8154
  binsize = 5.4077, bins = 4 4 4
  1 neighbor lists, perpetual/occasional/extra = 1 0 0
  (1) pair lj/cut/tip4p/long/omp, perpetual
      attributes: half, newton on, omp
      pair build: half/bin/newton/omp
      stencil: half/bin/3d
      bin: standard
Setting up Verlet run ...
  Unit style    : real
  Current step  : 19250000
  Time step     : 2
  Walltime left : 2:54:59.89
Per MPI rank memory allocation (min/avg/max) = 9.226 | 9.228 | 9.231 Mbytes
Step Temp PotEng TotEng E_pair E_mol Press Lx Ly Lz Volume Pxx Pyy Pzz Pxy Pxz Pyz Enthalpy 
19250000    139.22072   -4977.3695   -4708.8706   -4977.3695            0    6721.8032    19.767739    19.747629    20.571946    8030.5875    6162.0518    8310.2415    5693.1163    552.98726    503.08472    175.21946   -3921.6273 
19251000    125.16694   -4981.4282   -4740.0332   -4981.4282            0    5374.1705    19.747512    19.925723    20.600395    8105.9149    4575.2642    6233.6804     5313.567    132.85134    597.79544    970.89869   -4104.7178 
19252000    128.92588   -4978.6148   -4729.9704   -4978.6148            0    6630.9645    19.859498    19.823575    20.424354    8040.7873    7558.3222    5022.8585    7311.7129    410.58238    519.24537   -734.08597   -3952.3795 
19253000    131.92441   -4987.3237   -4732.8964   -4987.3237            0    6171.5275     19.85863    19.949079     20.29788    8041.2365    5278.9129    6103.9725    7131.6971   -542.72882    636.65576   -68.588548   -4009.1417 
19254000    126.91008   -4990.3835   -4745.6267   -4990.3835            0    5775.3366    19.876584    19.769879    20.432363    8029.0536    4134.3349     7390.101    5801.5738   -81.383904    140.22508    44.274518   -4069.3607 
19255000    127.13239   -4973.3853   -4728.1998   -4973.3853            0    5683.3578     19.62309    19.990277    20.527861    8052.4849    6501.1358    4305.6252    6243.3123   -464.52583    443.94772     202.1297    -4060.762 
19256000    140.65966   -4988.1027   -4716.8287   -4988.1027            0    7490.4413    19.762309    19.886942    20.410913    8021.7317    6065.3208     8226.328    8179.6753    398.46659    1111.4742    381.63446   -3840.5315 
19257000    129.42911   -4979.6347   -4730.0197   -4979.6347            0    5110.3866    19.691168    19.867543    20.575025    8049.2609    6489.5235    4826.9363       4014.7   -104.10926    480.26954    -311.8936   -4130.1104 
19258000    131.28301   -4975.2113    -4722.021   -4975.2113            0    7943.1157    19.663773    19.793224    20.552427     7999.199    8951.8507    7620.4955     7257.001   -489.75758    70.919747   -297.39256   -3795.3762 
19259000     137.3993   -4980.2979   -4715.3118   -4980.2979            0    6872.1178    19.755771    19.747964    20.645885    8054.7081    6337.4923    7542.7451    6736.1159    161.03696    233.13778    -141.2975   -3908.0465 
19260000    132.05959   -4977.7654   -4723.0774   -4977.7654            0    7119.7546    19.836321    19.897275    20.315625    8018.3484    6398.7111    7167.9175    7792.6353    33.896194    1012.7534    466.26777   -3890.4976 
19261000    131.98761   -4979.9759   -4725.4267   -4979.9759            0    5608.0145    19.706803    19.976006    20.311768    7995.9961     6165.562    3748.4827    6909.9987   -93.831308    618.26232    495.85275   -4071.4571 
19262000     134.8126   -4964.5087   -4704.5113   -4964.5087            0    6901.7602    19.839043     19.77841    20.475267    8034.1822    6618.3046    7144.0126    6942.9633     54.61578     295.9027   -37.178461   -3895.8299 
19263000    131.75694   -4961.5634   -4707.4591   -4961.5634            0    7733.8031    19.773575    19.943319    20.361955    8029.7515    8641.8622    5519.5319    9040.0153    146.62345   -1639.0522    942.54117   -3801.7867 
19264000    128.95989   -4980.1757   -4731.4657   -4980.1757            0    6019.6815    19.918539    19.683202    20.468408     8024.857    6357.2447      5550.84    6150.9597   -43.645357   -126.68051    138.89407   -4026.9564 
19265000    124.36373   -4971.3816   -4731.5357   -4971.3816            0    6215.5225    19.657264    19.769104    20.641572    8021.4489    5887.4247    7657.5987    5101.5442     410.9169      592.131    152.35896   -4004.4153 
19266000    129.73075   -4978.4432   -4728.2466   -4978.4432            0    6443.9405    19.708699    19.805788    20.555061    8023.5919    6492.8407    7066.2255    5772.7552   -333.52713   -489.23868   -653.01944   -3974.2034 
19267000    129.61829   -4981.6815   -4731.7017   -4981.6815            0    6173.4633     19.67825     19.84339    20.546728     8023.152    6459.9512    5464.8198    6595.6188    264.11468    49.733406   -106.73556   -4009.3483 
19268000    126.21829   -4984.4826     -4741.06   -4984.4826            0    6684.4652    19.771274    19.855641    20.437342    8023.1144    7111.1096    6614.6505    6327.6355   -127.09723   -250.30347   -1116.9673   -3958.9181 
19269000    129.19856   -4973.4985   -4724.3282   -4973.4985            0    6974.7707       19.856    19.892466    20.206497    7981.2591    6072.5412    6775.5231    8076.2476    189.95955    1308.4293   -306.97735   -3912.4755 
19270000    136.14519   -4990.3691   -4727.8016   -4990.3691            0    7515.2175    19.830327    19.816942    20.357836    8000.1497    6508.8842    8101.9628    7934.8055    314.66437    -161.0363   -94.875398   -3850.9713 
19271000    131.00082    -4989.637   -4736.9909    -4989.637            0     7920.332    19.624115    19.770928    20.590351    7988.7879    8941.0245    7062.5121    7757.4596   -219.35854   -727.43725     216.4117   -3814.2066 
19272000    128.20356   -4971.6901   -4724.4387   -4971.6901            0    8123.6256    19.713552    19.743951    20.562072    8003.2396     8262.555     8840.352    7267.9698    227.23108   -399.27719   -404.12366   -3776.2569 
19273000    124.34346   -4979.8488    -4740.042   -4979.8488            0    5988.3411     19.77167    19.860697    20.497206    8048.8257    5334.5885    6432.2387    6198.1961   -13.702612   -1406.4854   -646.12965   -4037.1074 
19274000    141.62758   -4980.5194   -4707.3787   -4980.5194            0     7157.177    19.763447    19.815015    20.490811    8024.4682    7467.5446    6784.5629    7219.4235   -94.845126   -655.44603    481.23632    -3869.784 
19275000    137.28762   -4978.8721   -4714.1014   -4978.8721            0    6762.6547    19.784674    19.768998    20.573696    8046.8494    8122.3771    6039.1052    6126.4818     503.7849   -490.23408   -152.89207   -3920.4697 
19276000    136.01893   -4977.0079   -4714.6839   -4977.0079            0    7168.8586    19.784681    19.910075    20.428387    8047.0378    6778.7676    6291.9214    8435.8868   -588.57966   -541.48966   -644.69406   -3873.3625 
19277000    137.17616   -4971.5256   -4706.9699   -4971.5256            0    7801.1621    19.845507    19.726488    20.419841    7994.0031    6709.9619    8786.4633    7907.0611     339.5104   -724.47839   -114.50478   -3797.4766 
19278000    130.99988   -4989.2141   -4736.5698   -4989.2141            0    7722.8098    19.887872    19.790231    20.362274    8014.2975    6664.4373    8679.6673    7824.3248   -40.071198   -826.91332    722.08536   -3833.9254 
19279000    133.70476   -4984.3049    -4726.444   -4984.3049            0      6407.52    19.770025    19.770193    20.620355    8059.6142    7327.2584    6748.3028    5146.9988   -230.77892    720.37947    428.36768   -3973.2963 
19280000    137.11503   -4986.9552   -4722.5173   -4986.9552            0    6532.4091    19.819924    19.702731     20.54113    8021.4473    5416.4854    7353.0964    6827.6455   -357.93918   -782.16957    949.43497   -3958.3262 
19281000    133.02734   -4971.0474   -4714.4929   -4971.0474            0    5820.7755    19.857011    19.827462    20.437251    8046.4348    4955.5834    5929.9878    6576.7552   -297.94427    434.57856   -322.38427   -4031.4308 
19282000    129.55958   -4978.0375   -4728.1709   -4978.0375            0    6732.5625    19.909322    19.948077    20.353635    8083.5004    4856.2196    7402.2446    7939.2232   -384.18663    1190.1099    691.66247   -3934.4721 
19283000    130.43497      -4974.3   -4722.7452      -4974.3            0    6409.0303    19.731773    19.786773    20.476316    7994.5297    5659.1267    6882.3483    6685.6158    119.37884   -61.235886    1338.0138   -3975.5035 
19284000    122.61164   -4973.8244   -4737.3576   -4973.8244            0     8239.942    19.603084     19.85936    20.601948    8020.4353    8778.7759    7932.1326    8008.9174    381.31426   -200.60521    -63.72325    -3773.533 
19285000     125.3867   -4996.2533   -4754.4345   -4996.2533            0    7577.2831    19.712877    19.847171    20.506178    8022.9364    7030.6122    7296.8487    8404.3884    161.60562    923.62066   -336.91583   -3867.8447 
19286000    123.20217    -4972.923   -4735.3172    -4972.923            0    8286.3092    19.732099    19.724301    20.520364    7986.5635    8899.1783      8168.77    7790.9793   -421.42585     59.17855    92.891486   -3770.1624 
19287000    125.77629   -4973.5208   -4730.9506   -4973.5208            0    6519.4464    19.733695    19.967494    20.417614    8045.2022    6861.8963    5713.5844    6982.8585    271.05321    6.3827737    1360.1983   -3966.0173 
19288000    132.80035   -4979.2872   -4723.1705   -4979.2872            0    5514.0676    19.638495    20.036616    20.519358    8074.1414    6344.8673     4342.235    5855.1005   -114.37858    1124.9129    1176.7776   -4073.8722 
19289000    120.16405   -4970.4207   -4738.6743   -4970.4207            0    5621.9544    19.676761    19.984598    20.366858    8008.9031    4602.7488     5959.997    6303.1174   -92.419245    110.56132    294.89043   -4082.0208 
19290000    132.65641   -4987.0828   -4731.2438   -4987.0828            0    5453.5638    19.871665    19.942851    20.334766    8058.6199    4555.4441    5260.4936    6544.7538    527.45413   -51.084825    1.9222333   -4090.3044 
19291000    129.19482   -4977.9144   -4728.7514   -4977.9144            0    6668.6395    19.870478    19.969659    20.345056    8073.0538    6425.5285    5912.5002    7667.8899   -480.72115    1791.7671    507.31106   -3943.6043 
19292000    129.89631    -4984.045   -4733.5291    -4984.045            0     6357.478    19.720356    19.920487    20.390843    8010.3205    7882.5695      5620.93    5568.9344   -362.71735    13.472673   -913.98737   -3990.8339 
19293000    129.99537   -4971.1965   -4720.4895   -4971.1965            0    6878.2894    19.694689    19.893659    20.536285    8046.1046    6525.1576    7695.0705      6414.64    131.19209    923.88975    286.52861   -3913.3622 
19294000    135.19656   -4998.1747   -4737.4368   -4998.1747            0    7309.8681    19.781712    19.831376    20.404836    8004.7881     6792.451    7688.4152    7448.7381    942.42203   -167.06714    52.785731   -3884.0709 
19295000    126.90874   -4989.3765   -4744.6223   -4989.3765            0     5913.079    19.796284    19.722387    20.529282    8015.2472    6310.7526    6802.5307    4625.9537    -286.8981   -108.44676   -71.319134    -4053.418 
19296000    127.37594      -4984.2   -4738.5448      -4984.2            0    7394.9782    19.716889     19.70586    20.686466    8037.4835    8198.9354    7008.7237    6977.2756    55.252538   -160.44616   -35.947764   -3871.7169 
19297000    126.96742   -4970.8933   -4726.0259   -4970.8933            0    8394.0986    19.618697     19.88222    20.462231     7981.564    9222.0221    7915.0524    8045.2213   -260.16172    145.51985   -575.59732   -3748.9283 
19298000    127.14192   -4991.8776   -4746.6738   -4991.8776            0    6080.3091    19.617079     19.86317    20.640107    8042.5698     8154.718    4641.7327    5444.4766   -444.23408    633.93749    182.69146   -4033.4983 
19299000    130.28767    -4973.414   -4722.1433    -4973.414            0     7798.604    19.643133    19.771968     20.59497    7998.7448    8465.9562    7885.7433    7044.1126   -35.994989    236.10625   -369.20735   -3812.4089 
19300000    124.75313   -4983.8108   -4743.2139   -4983.8108            0    6469.8449    19.766241    19.835978    20.520448    8045.7129    5923.5915     7489.683    5996.2603    600.82848     266.3314   -1244.3193   -3984.0522 
19301000    141.20442   -4969.8237   -4697.4991   -4969.8237            0    6586.2683    19.882809    19.882424    20.391986    8061.3277     6232.795    7126.9152    6399.0947   -734.11542    976.49861    30.596269   -3923.1765 
19302000    125.10754   -4977.9318   -4736.6514   -4977.9318            0    7880.0757    19.700593    19.839009    20.468474    7999.9032    8171.9227    6908.1229    8560.1817    68.720143   -211.64404    706.69746   -3817.2799 
19303000    126.74709    -4990.082   -4745.6396    -4990.082            0    6730.4671    19.798916    19.752338    20.456139    7999.8823    6501.6873    6602.6304    7087.0837   -51.605556    868.88336     721.2677   -3960.3955 
19304000    135.02506   -4978.2164   -4717.8092   -4978.2164            0    6280.2876    19.850627    19.678977    20.613942    8052.6309    5458.9058    7133.3897    6248.5674   -299.86353    695.20048   -214.62698   -3980.2562 
19305000    135.27961   -4987.7771    -4726.879   -4987.7771            0     6643.008    19.811435    19.863472    20.410572    8032.0473    5547.1747    7512.7165     6869.133   -314.25724   -22.271958    97.419225   -3948.7226 
19306000    133.55985   -4971.1805   -4713.5992   -4971.1805            0    5059.8138    19.909864    19.792299    20.563489    8103.2895    5842.1093    4067.9911    5269.3412   -168.76505   -596.63467    1074.8781   -4115.6396 
19307000    123.53084   -4987.7378   -4749.4982   -4987.7378            0    5328.9993    19.832789    19.989666     20.35558    8069.9869    4099.7367     5224.714    6662.5472   -58.512196    202.27008   -857.92958    -4122.315 
19308000    128.01902    -4975.354   -4728.4586    -4975.354            0    7232.2405    19.751805    19.975421    20.339535     8024.976     7270.723    6706.2774    7719.7212   -293.97045   -732.08053   -503.09081   -3882.0258 
19309000    132.30731   -4992.1073   -4736.9415   -4992.1073            0    6347.7734    19.789145    19.899015    20.543839    8089.8452    7910.7539    4798.2385    6334.3277    76.181854   -289.89845    -570.4038    -3988.018 
19310000    126.80316   -4973.9647   -4729.4142   -4973.9647            0    7149.4616    19.711677    19.858306    20.520028    8032.3702    8350.2503    7412.7612    5685.3734   -205.64233    176.75842   -271.44957   -3891.8985 
19311000    130.28354   -4970.7433   -4719.4805   -4970.7433            0    8036.8223    19.657381    19.836758    20.461254     7978.635    8007.4609    8322.9384    7780.0677    225.20016    413.18018    114.40274   -3784.3142 
19312000    128.32508   -4955.8632   -4708.3775   -4955.8632            0    5911.3015    19.989258    19.821307    20.356441    8065.4909    4900.5729    6150.8996    6682.4319    -276.9358    1053.4474   -229.20909   -4013.0493 
19313000    135.51842   -4975.7551   -4714.3964   -4975.7551            0    6352.1187    19.850163    19.854027    20.396256    8038.2801    6356.4654    6018.5105    6681.3803   -157.26761    883.90683   -357.26601   -3969.7371 
19314000     130.2368   -4981.1786   -4730.0059   -4981.1786            0    5879.1946    19.672074    19.864773     20.59471     8048.027    6565.9949    4939.1594    6132.4294    159.47828    94.793275   -245.00745   -4039.9518 
19315000      131.402   -4987.8341   -4734.4143   -4987.8341            0    5765.7249    19.771339    19.835838    20.562473    8064.2126     7216.289    4650.5141    5430.3716   -115.76706    -260.5827    768.13905   -4056.3173 
19316000    135.07245   -4976.4049   -4715.9064   -4976.4049            0    5825.9723    19.892958    19.737691    20.585685    8082.7852    5131.6909    7211.0261       5135.2    231.43452    597.18922    313.16837   -4029.1458 
19317000    125.90501   -4975.4108   -4732.5924   -4975.4108            0    6847.9308    19.759214     19.74057    20.514212    8001.7354    6789.6922    6770.1952     6983.905    811.91816    172.53247    594.80917   -3933.4587 
19318000     131.9048   -4981.3594   -4726.9699   -4981.3594            0    7948.9884    19.695898    19.766405    20.558135    8003.6331    8652.6217    8346.5264     6847.817   -313.41122    621.41123     984.4121    -3799.126 
19319000    121.90054   -4977.4052   -4742.3097   -4977.4052            0    7481.9546    19.774071    19.759619    20.463929    7995.8323    6729.1497    8108.3602    7608.3539   -226.41426   -1055.4923   -21.544915   -3869.8314 
19320000    137.22623   -4987.4047   -4722.7524   -4987.4047            0    6770.8158    19.858562    19.894591    20.312342    8024.9584    6389.6629    7381.5773    6541.2072   -498.50275   -487.60228   -648.42729   -3930.3247 
19321000    131.23774   -4980.7324   -4727.6294   -4980.7324            0    5983.2742    19.810029    19.860165    20.446004    8044.0803    5591.6597    6414.3344    5943.8285    581.34323   -74.875965    554.20658   -4025.7036 
19322000    138.93928   -4964.1112   -4696.1552   -4964.1112            0    7117.8109    19.823568    19.840696    20.354326    8005.6289    6775.1963    7220.1727    7358.0637   -78.820639     81.40108    738.47114   -3865.1231 
19323000    121.97163   -4980.9687   -4745.7361   -4980.9687            0    6479.3104    19.840809    19.771975    20.447428     8021.362    6578.0417    6591.8451    6268.0445     52.09619   -350.49662   -365.24212   -3987.7648 
19324000    128.31623   -4995.7531   -4748.2844   -4995.7531            0    4849.5304    19.799209     19.80372    20.660208    8100.8256    5635.7011    4709.4851     4203.405   -6.3714624    31.113407    242.78941   -4175.3501 
19325000    130.12402   -4985.5458   -4734.5907   -4985.5458            0    7279.1432    19.744049    19.815544    20.509843    8024.2517    7225.1624    7507.9382     7104.329   -406.02076    264.30392    175.83252   -3882.7455 
19326000    135.06908   -4996.3331    -4735.841   -4996.3331            0    6429.9276    19.810332     19.84957    20.460607    8045.6547    8111.0731    4524.0476     6654.662   -600.54493    1327.2576   -4.2099936   -3981.3686 
19327000     129.6429   -4996.8019   -4746.7747   -4996.8019            0    7147.9619      19.7194     19.76636    20.506722    7993.1256     8480.171    5909.5627    7054.1521   -170.72444    149.45539     639.2986   -3913.5257 
19328000    137.17861   -4975.8972   -4711.3367   -4975.8972            0    6233.1072    19.744379    19.862825    20.425538    8010.4701    6619.7837    6029.9338    6049.6042     163.0995   -67.849511    441.19301   -3983.1572 
19329000     130.5031   -4987.8766   -4736.1904   -4987.8766            0    7209.6757    19.820719    19.860352      20.3303    8002.9506    7896.4807    6508.3601    7224.1863   -211.28337    12.339431    301.89131   -3894.7144 
19330000    136.14653   -4972.4423   -4709.8723   -4972.4423            0    8049.9087    19.634572    19.874148    20.370949    7949.1596    6891.7102      8560.48    8697.5357   -434.11246    612.69791    377.51486   -3776.6436 
19331000    129.93576   -4979.9213   -4729.3292   -4979.9213            0    6674.0192    19.845546    19.799861    20.507152    8058.0608    6527.3274    6378.6895    7116.0406    286.50667    446.66835   -1533.4878   -3945.0082 
19332000    129.04075   -4993.1027   -4744.2368   -4993.1027            0    6178.6933    19.759922    19.947579    20.448241    8059.9322    6137.8256    5390.9409    7007.3133   -163.61417    1046.1818    239.86661   -4017.9571 
19333000    130.42069   -4973.3072   -4721.7799   -4973.3072            0    7154.7882    19.677243     19.87605    20.482647    8010.8831    6639.8546    7094.0252    7730.4847   -331.62688   -102.36425   -625.52778   -3885.8824 
19334000    134.60446   -4974.1984   -4714.6024   -4974.1984            0    6715.6627    19.846218    19.806494     20.48874    8053.7959    6898.9479    6597.1122     6650.928    579.27158   -57.749389   -490.70428   -3925.8051 
19335000    129.37499    -4986.756   -4737.2454    -4986.756            0    7039.3324    19.641882    19.700112     20.71697    8016.3749    7809.7461    7270.6619    6037.5894    249.42654    161.16909   -300.33057   -3914.2728 
19336000     132.3013   -4991.9585   -4736.8043   -4991.9585            0    7546.7009    19.674255    19.860969    20.586054    8043.9959    7590.3484    7805.9285    7243.8257    299.51126   -239.32088   -77.449398    -3851.475 
19337000    129.18022   -4984.1177   -4734.9828   -4984.1177            0    6730.7841    19.729996    19.843058    20.503614    8027.2354    6285.2805    6614.9376    7292.1341    31.726534    926.85243   -104.38095   -3947.0167 
19338000    132.32471   -4985.4655   -4730.2662   -4985.4655            0     5202.362    19.752614    19.824413    20.566169     8053.382    4307.4901    6633.1262    4666.4697    504.55643    48.407809     428.0284   -4119.2471 
19339000    122.22232   -4994.6649   -4758.9489   -4994.6649            0    6336.3864     19.76424    19.912487    20.496602    8066.5437    5489.2847    6869.3766     6650.498   -197.46986    537.46104    213.34911   -4013.5221 
19340000    130.61186   -4985.0883   -4733.1924   -4985.0883            0    6571.0154    19.761531    20.026669     20.30212     8034.719    8286.6964    3645.9658    7780.3839   -1115.1385   -478.92778     584.2006   -3963.2131 
19341000    125.32641   -4980.7507   -4739.0482   -4980.7507            0    7242.5411    20.006781    19.671019    20.420668    8036.6309    6753.1242    6774.6848    8199.8142   -5.4326035   -516.56601   -716.49773   -3890.1788 
19342000     138.4298   -4994.2182   -4727.2447   -4994.2182            0    8538.6571    19.716497    19.800424    20.457842    7986.6391    9008.4902    8335.1689    8272.3121   -438.13589   -87.950166   -279.18842   -3732.6881 
19343000    136.29642    -4983.542   -4720.6828    -4983.542            0    6891.3958    19.899561    19.754502    20.501024    8059.0735    5866.8464    7368.7439    7438.5971    198.38025    1613.5611   -434.89747   -3910.7142 
19344000     127.8446   -4977.4288   -4730.8697   -4977.4288            0    5838.0694    19.774906    19.723606     20.66425    8059.7283    7039.1687    5533.0553    4941.9843   -435.40613   -871.37774   -385.92006   -4044.6463 
19345000    123.10685   -4987.3098   -4749.8879   -4987.3098            0     7189.627    19.887398     19.68789     20.47375    8016.3107    6980.6058    7740.9771     6847.298    368.00722    221.10496    402.01962    -3909.351 
19346000     133.9859   -4982.4052   -4724.0021   -4982.4052            0    6836.4348    19.774453     19.87294    20.380268     8008.967    6286.8179    6785.4279    7437.0586   -354.60913   -324.35401     269.2135    -3925.489 
19347000      128.094    -4980.825    -4733.785    -4980.825            0     5718.957    19.887384    19.852673    20.475026    8083.9037    5698.9869    5153.8168    6304.0674   -76.800367    145.57034   -585.80378    -4059.546 
19348000     126.7537   -4977.2924   -4732.8372   -4977.2924            0    7071.6117    19.866648    19.744766    20.467303    8028.5518    5716.3477    8569.0125     6929.475    166.71129    84.245828    928.92228    -3904.835 
19349000    131.89199   -4982.4419   -4728.0772   -4982.4419            0    7483.5471    19.747227    19.834417    20.409576    7993.9152    7943.6847    6446.2394    8060.7173    341.65453   -140.73515   -741.15795   -3855.6224 
19350000    129.66223   -4979.3117   -4729.2472   -4979.3117            0    8221.3614    19.713162    19.812924    20.469953    7995.0596    7939.7937    8487.7987    8236.4918    159.28056   -340.24706    1052.7746   -3770.6386 
19351000     121.5042   -4985.2356   -4750.9045   -4985.2356            0    7257.3246     19.75296    19.791404    20.491002    8010.7282    7561.3071    7593.9917     6616.675   -143.42263   -654.86574   -499.45202    -3903.044 
19352000     129.7661   -4983.0974   -4732.8326   -4983.0974            0    6154.3686    19.886314    19.914514    20.412512     8083.891    4422.5754    7154.4415    6886.0889    39.679329    1038.6064    671.58249   -4007.2617 
19353000    135.97873    -4978.385   -4716.1386    -4978.385            0    6411.8345    19.664107    19.914463    20.404519    7990.4124    6569.6345    5786.6882    6879.1808   -434.00906    937.83643   -176.44676   -3968.9549 
19354000    138.63567   -4981.4431   -4714.0725   -4981.4431            0    7516.8493    19.959303    19.554071    20.429323    7973.2713    7730.7587    6805.4884    8014.3009    80.139631     685.2063    -679.6593   -3839.9984 
19355000    139.70476   -4978.5471   -4709.1147   -4978.5471            0    7625.9876    19.924547    19.825082    20.349417    8038.1378    7190.4487    7131.2092    8556.3051   -16.697344    522.34675   -1172.5875   -3815.1354 
19356000    126.44633   -4984.2092   -4740.3468   -4984.2092            0    6721.8726    19.976193    19.838964    20.266135    8031.6108    5379.1597    6970.2598    7816.1984    506.04396    801.25357    211.75182    -3952.995 
19357000    133.97964   -4985.6119   -4727.2209   -4985.6119            0    6331.8527    19.790206    19.823749    20.446715    8021.5749    6358.0969    6021.9862    6615.4749   -645.70952    24.655154     995.7749     -3986.48 
19358000    135.40943   -4983.2801   -4722.1317   -4983.2801            0    4732.7761    19.883893    19.818954    20.468713    8066.2688    3813.9182    5378.7552     5005.655   -306.05481    420.06483    335.79767   -4165.3761 
19359000    128.95136   -4977.8963   -4729.2027   -4977.8963            0    6525.0384    19.888786    19.658445    20.509471    8018.8462    6058.5197    8083.4175    5433.1779    235.15533    1325.1288    243.10642   -3966.1214 
19360000    138.21897   -4985.1549    -4718.588   -4985.1549            0    6318.6565    19.719781    19.943116    20.463627    8047.8098    5598.9323    5705.6084    7651.4288    195.98442   -232.40962    895.48141   -3976.9733 
19361000    130.76587   -4970.7555   -4718.5625   -4970.7555            0    5494.8019    19.835466    19.963964    20.445585    8096.3399    7307.4943    3900.7918    5276.1196    483.94681   -16.118193   -1772.6906   -4069.7538 
19362000    132.89806   -4980.4618   -4724.1568   -4980.4618            0    6384.4654    19.788206    19.809432    20.515836    8042.0662    7931.9859    5170.2835    6051.1267    173.94104   -1421.5258    258.81762   -3975.3529 
19363000    131.89277   -4993.9401   -4739.5738   -4993.9401            0    6343.9591    19.711021    19.898948    20.400632    8001.7108    5742.6298    7070.8499    6218.3976   -86.348276    684.56802    287.42159   -3999.2544 
19364000    130.64418   -4975.7084   -4723.7501   -4975.7084            0    6681.4922    19.699286    19.901242     20.45905    8020.7709    7425.0389    5510.8765    7108.5612   -449.04493   -798.18133   -432.21088   -3942.1845 
19365000    131.35293   -4984.7497   -4731.4245   -4984.7497            0    6238.7299    19.663724    20.058809    20.452244    8066.9969    6822.4983    5683.3025    6210.3887    121.95785    244.38108   -53.961858    -3997.445 
19366000    123.90791    -4977.503   -4738.5362    -4977.503            0    7491.0655    19.638706    19.858568    20.505426     7997.046     8613.712    7314.5438    6544.9406    -320.6591   -44.720771    624.49945   -3864.8629 
19367000    130.41827   -4998.5168   -4746.9942   -4998.5168            0    5589.8353    19.638244    19.844788    20.680892     8059.691    5227.6209    6254.0061    5287.8789   -287.15613    756.33807   -969.94091   -4089.9519 
19368000    129.69029   -4985.7105   -4735.5919   -4985.7105            0    7401.4532    19.726457    19.709598    20.604175    8010.9143     7924.814      7903.35    6376.1958   -959.35957    222.62777    542.36102    -3870.873 
19369000    126.27108    -4987.608   -4744.0836    -4987.608            0    6304.1296    19.817076    19.736367    20.558955    8040.9587    6285.9031    5898.9332    6727.5527    50.584397   -65.776502   -520.65092   -4004.8038 
19370000    128.91557   -4977.3469   -4728.7224   -4977.3469            0    6789.4795    19.852958    19.652497     20.62924    8048.7085    7491.5606    5938.7673    6938.1105   -213.08495    147.93716   -983.67001   -3931.7586 
19371000    123.76403   -4980.1981   -4741.5088   -4980.1981            0    7845.9019    19.655881    19.806439    20.451918    7962.1976    7330.0713    7934.5151    8273.1192   -528.26716    68.455026    434.55662   -3830.4388 
19372000    135.33102   -4978.9012    -4717.904   -4978.9012            0    6818.3146    19.909862    19.930643    20.302856    8056.5052     7258.655    5297.8498    7898.4391    223.37959    89.825172    583.78269   -3916.7802 
19373000    127.85532    -4978.646   -4732.0662    -4978.646            0    6551.3212    19.919015    19.877137    20.317307    8044.2918    5879.6574    5887.0286    7887.2776   -452.26913    -89.39717    507.99799     -3963.48 
19374000    133.94813   -4983.3728   -4725.0426   -4983.3728            0    7419.7362    19.959729     19.78694    20.316923    8024.0052    7392.6796    6665.9065    8200.6225    86.418395    124.64436   -479.92514    -3856.771 
19375000    133.27283   -4979.1958    -4722.168   -4979.1958            0    5323.9409    19.926199     19.89201    20.388897    8081.5909      4021.42    6544.7505    5405.6522    248.22891   -446.39164    316.25513   -4094.6791 
19376000    126.75464   -4986.7963   -4742.3394   -4986.7963            0    8420.1583    19.706673    19.739585     20.51273    7979.4838    8068.3523    8277.0093    8915.1134    66.483331   -517.51839   -167.64686   -3762.4638 
19377000    131.65957   -4987.2219   -4733.3053   -4987.2219            0     6906.052    19.621873    19.840838    20.689481    8054.7131    8421.2561    5948.3118    6348.5879    82.276238    156.50728    170.44826   -3922.0533 
19378000    131.68875   -4992.1727   -4738.1999   -4992.1727            0    6761.2107    19.746822    19.818138    20.524035    8031.9837    5971.7927    7398.4421    6913.3974   -320.77723     1317.168    679.30903   -3946.2035 
19379000    137.83401    -4971.979   -4706.1546    -4971.979            0    6475.9133    19.877199    19.819214     20.34847     8016.289    7014.2929    5726.4818    6686.9653    215.00546     34.23989   -842.42903   -3949.0597 
19380000    120.87515   -4979.6431   -4746.5252   -4979.6431            0    7578.9646    19.654995    19.772709    20.498959    7966.5617     8253.404    7638.2203    6845.2696   -722.42602    658.30337    782.59242   -3865.9698 
19381000    123.35135   -4982.7073   -4744.8139   -4982.7073            0    7236.9158    19.638198    19.727543    20.597877    7979.8932    7617.4536    7195.3837    6897.9102    595.94943   -1092.0539    798.77208   -3902.5921 
19382000    136.77776   -4972.8923   -4709.1049   -4972.8923            0    5670.1514    19.904031    19.719846    20.505891    8048.6531    6113.4077    5515.5962    5381.4503    188.26566    755.63159    41.334405   -4043.5349 
19383000     131.5055   -4970.6338   -4717.0144   -4970.6338            0    5860.7406    19.958118    19.789436    20.497283    8095.6047     5047.673    5772.4401    6762.1088      180.946    -554.5456    440.69253   -4025.0597 
19384000    128.36498    -4989.483   -4741.9203    -4989.483            0    6356.1127    19.797655    19.796499    20.520966    8042.6643    7665.4064    5544.8843    5858.0473   -429.03595     944.6924    1215.1218   -3996.3864 
19385000    132.93672   -4984.5477   -4728.1681   -4984.5477            0    8775.0429    19.670159    19.778835    20.465399    7962.1216    9160.4657     8433.637     8731.026    486.94065      597.858    242.07979   -3709.2155 
19386000    134.43838   -4979.9047    -4720.629   -4979.9047            0    6612.2924    19.717668    19.797469    20.487868    7997.6425    6013.9144    7069.1553    6753.8074   -279.61664    873.83947    691.79889   -3949.3883 
19387000    126.90536   -4983.2665   -4738.5189   -4983.2665            0    7459.5745    19.592839    19.918699    20.545761     8018.268    8222.8431    6948.0614    7207.8189    148.64497    459.46694   -633.77592   -3866.2096 
19388000    124.36711   -4973.8642   -4734.0118   -4973.8642            0    6369.8688    19.609489    19.941335     20.47554    8006.7426    7247.5301    5676.8447    6185.2315   -40.479373   -986.38912    51.349563   -3990.2014 
19389000      121.494   -4984.7656   -4750.4542   -4984.7656            0    7173.1061     19.65826     19.93333    20.463563    8018.7408    7033.9694    7585.1041    6900.2447    14.350567     822.6447    -147.3342   -3911.5945 
19390000    131.31556   -4977.5641    -4724.311   -4977.5641            0    6728.5269    19.769477    19.795172    20.565673    8048.1744    6867.8876    6442.7012     6874.992    319.25043   -317.78636    170.71989   -3934.5544 
19391000    126.62201   -4981.7286   -4737.5274   -4981.7286            0    5483.3867    19.871258     19.83439    20.507408    8082.6724    4152.0286    6434.3193    5863.8123   -182.06085   -185.73925    974.04691   -4091.1595 
19392000    124.81789   -4968.5075   -4727.7857   -4968.5075            0    7550.7708    19.648199     19.75419    20.559869    7979.9897    8944.7321    7531.8759    6175.7045   -658.33265   -106.62035   -382.66425   -3849.0272 
19393000     128.4012   -4987.8743   -4740.2418   -4987.8743            0    5827.3482    19.881699    19.896941    20.359464    8053.8983    4940.3935    5836.9873    6704.6638   -119.33143   -680.53519   -119.78253    -4055.774 
19394000    132.73333   -4987.3871   -4731.3997   -4987.3871            0    6630.7159    19.995141    19.800754    20.294117    8034.8238    6184.5455    5729.0857    7978.5164   -346.47825    -883.7231    457.14643   -3954.4146 
19395000    134.27514   -4984.3752   -4725.4143   -4984.3752            0    7250.2858    19.654053    19.809776    20.450587      7962.28    8002.0482    7345.3099    6403.4993   -140.97608    332.28487    51.602136   -3883.4989 
19396000    127.61184   -4991.8495   -4745.7394   -4991.8495            0    5081.7268    19.900589    19.728637    20.601322    8088.3158    4997.9663    5171.2366    5075.9776    338.13735    326.17256   -516.67061   -4146.2999 
19397000    123.90478   -4984.4524   -4745.4916   -4984.4524            0    7176.7042     19.78536     19.74409    20.524994    8017.9643    7909.0927    7183.6056    6437.4144    89.072989    385.55986   -198.81325   -3906.2924 
19398000    125.51097   -4977.9678   -4735.9093   -4977.9678            0    7299.2315     19.83809    19.752305    20.392326    7990.6922     7358.219    6572.5523    7966.9231    284.99558    1900.4275    388.97599   -3885.2857 
19399000    134.33143    -4972.364   -4713.2945    -4972.364            0    8198.3435    19.857085    19.814864    20.238623    7963.1987    7612.7467    8141.2181    8841.0657   -186.59818    958.50164    938.71687   -3761.1792 
19400000    128.26739   -4982.9126   -4735.5381   -4982.9126            0    7570.4323    19.719712    19.845127    20.519558    8030.1276     7840.537    7929.8024    6940.9576   -134.70709   -1037.0252    206.52933   -3848.9559 
19401000    133.49167   -4965.6698   -4708.2198   -4965.6698            0    7528.7209    19.724246    19.746476     20.55265    8004.9354    9046.3085    6156.4296    7383.4245    67.920568    60.613001      88.3181   -3829.2886 
19402000    131.74202   -4973.7382   -4719.6626   -4973.7382            0    6338.5872    19.843388    19.784802    20.440148    8024.7516      5236.98      6790.67    6988.1114   -361.72485     135.3819   -186.63509   -3977.8402 
19403000    130.28392   -4981.7721   -4730.5086   -4981.7721            0    5172.9314    19.742974    19.884504    20.422833    8017.5803    4131.1778    5742.9643    5644.6521   -177.68435    182.19133    -329.4444   -4125.6472 
19404000    132.71888   -4975.6158   -4719.6562   -4975.6158            0    7686.5727    19.757683    19.769748    20.315336    7935.2597    8607.1871    6802.9831    7649.5479   -1227.1885   -186.45328   -160.03284   -3830.1074 
19405000    126.03716   -4977.1782    -4734.105   -4977.1782            0    5733.3615    19.777605    19.881646    20.406113    8023.9151    6918.6908    4155.8751    6125.5186   -182.29274   -483.95763   -358.29681   -4063.1838 
19406000    123.31164   -4977.6418   -4739.8249   -4977.6418            0    7954.3947    19.838785    19.784545    20.437911    8021.9072    8324.4302    8222.6682    7316.0855    96.792435    -805.8195   -267.86801     -3809.23 
19407000    136.70484   -4990.4044   -4726.7577   -4990.4044            0    6283.0022    19.758756    19.768957    20.599947    8046.5451     6297.599    6737.0663    5814.3413     -613.688    859.87934   -156.35151   -3989.4435 
19408000    121.94405   -4982.9285   -4747.7491   -4982.9285            0    6616.9055    19.742365    19.688814    20.636418    8021.4532    6889.1607    7212.5353    5749.0204   -447.52739    998.26914   -584.07544   -3973.6726 
19409000    126.95644   -4990.5127   -4745.6665   -4990.5127            0    6083.8527    19.794233    19.934381     20.50525    8091.0801    7223.7706    5148.4539    5879.3336    196.00818   -56.098613    145.09001   -4027.7713 
19410000    129.91571   -4979.2419   -4728.6885   -4979.2419            0    8075.9554    19.816388    19.839006    20.327179    7991.3753    7391.5303    8715.1655    8121.1705   -202.73222    1709.4062    451.39725   -3787.4681 
19411000    128.61015   -4986.4518   -4738.4163   -4986.4518            0     6798.245    19.544712    19.960971    20.578161    8028.1876    7773.0895    5594.0214    7027.6242   -247.53503   -347.58983   -810.87005   -3942.4582 
19412000    129.86001   -4984.7169    -4734.271   -4984.7169            0    5935.7771    19.804385    19.918817    20.439219    8062.8617    6952.0769    5329.6627    5525.5916   -52.299096   -273.01618    771.49947   -4036.2915 
19413000    133.25484   -4986.2819   -4729.2887   -4986.2819            0    5096.6509    19.900028    19.889305    20.388092    8069.5602    5503.6746    5042.0315    4744.2467    105.98151    39.158867   -486.34815   -4129.4829 
19414000    129.51657   -4988.3129   -4738.5293   -4988.3129            0    7041.5647    19.801413    19.863452    20.367045    8010.8557    6666.6334    6688.3305    7769.7302   -159.76927    1491.3978   -383.80906   -3915.8625 
19415000    131.08578    -4989.101    -4736.291    -4989.101            0    6578.2593    19.876759    19.865745    20.390271    8051.4374    5743.1124    7189.7338    6801.9318   -150.77859   -798.86515    518.85073   -3963.8589 
19416000    135.25856    -4985.569   -4724.7115    -4985.569            0    5559.4381    19.669761    19.837159    20.633262    8050.9373    6029.8312    6021.9201     4626.563   -751.08038   -316.50138    351.80399    -4071.952 
19417000    134.35997   -4987.9675    -4728.843   -4987.9675            0    6982.6893    19.775774    19.785842    20.540865    8037.2365    8032.6662    6609.0989    6306.3029    172.94323    631.52781   -1206.4158   -3910.3682 
19418000    137.21092   -4973.7305   -4709.1077   -4973.7305            0    5669.4278    19.880391    19.872684    20.331819    8032.6286    4829.8619    5821.2282    6357.1933   -717.17558     242.2407   -491.17732   -4044.9476 
19419000    138.72732   -4984.5131   -4716.9658   -4984.5131            0    5889.4358     19.92507    19.699567    20.510425    8050.6547    6576.4869    5043.9879    6047.8326    163.82452   -34.117446    526.13175   -4025.4839 
19420000    129.99245   -4978.2089   -4727.5075   -4978.2089            0    5493.8418    19.772274    19.746844    20.620327    8051.0008    5369.4273    6540.1085    4571.9897    466.02231    995.64493   -630.14543   -4082.4448 
19421000    128.46521   -4969.3792   -4721.6233   -4969.3792            0    6948.7205      19.8805    19.773013    20.464737    8044.6347    6459.3047    8183.3547    6203.5022   -361.09259    98.934549   -689.80341   -3906.3803 
19422000    129.61397   -4989.4943   -4739.5229   -4989.4943            0    6046.4064    19.713237    19.788994    20.602952    8037.3172     6216.347    6236.3961    5686.4761   -335.46585    816.24785   -296.75989   -4030.7871 
19423000    124.18342   -4976.2604   -4736.7622   -4976.2604            0    8672.9133    19.818617    19.679535    20.402072    7957.2396    9463.6941    7138.9096    9416.1362     -171.579   -272.93912   -958.40881   -3730.2864 
19424000     135.7987   -4990.9508   -4729.0516   -4990.9508            0    7084.4631    19.780469    19.770764    20.432514    7990.6452    5335.0604    7534.4514    8383.8775   -314.17472   -121.54459    586.58645   -3903.4611 
19425000    129.23723   -4978.5036   -4729.2588   -4978.5036            0    7987.1671    19.750769    19.770328    20.453669     7986.732    8680.4501    8066.0216    7215.0297   -141.49225   -10.817934   -1544.9947   -3798.9272 
19426000    127.93266   -4988.8913   -4742.1624   -4988.8913            0    6514.9765    19.740713    19.869284    20.417271    8008.3442    6321.9228     6112.564    7110.4428    318.75977    103.24145    88.222558   -3981.2556 
19427000    134.40142   -4989.5852   -4730.3807   -4989.5852            0     6154.282    19.818657    19.791558    20.474039    8030.7802    5991.6993    6204.3389    6266.8077   -175.24878   -1144.3676    581.59178    -4009.587 
19428000    133.41173   -4989.2087    -4731.913   -4989.2087            0    6228.9276    19.888875    19.863385    20.325607    8029.8425    5570.9447    6964.4854    6151.3526   -824.43946    414.74969   -395.32815   -4002.4619 
19429000    134.35262   -4968.7516   -4709.6413   -4968.7516            0    7887.1095     19.76821    19.969734    20.244227    7991.7305    6639.0706    8427.4788    8594.7791    -386.4228     273.0803    1952.3902   -3790.3893 
19430000    133.38379   -4977.5676   -4720.3257   -4977.5676            0    6517.3702    19.856461    19.855973    20.403748    8044.5724    7189.1344    5420.3405    6942.6356   -901.03513   -289.15258    1066.0763   -3955.6959 
19431000    132.52118   -4986.9148   -4731.3366   -4986.9148            0    7421.1747      19.6535    19.819772    20.514262    7990.8772    7252.6847    7567.7387    7443.1006   -216.99612   -629.58128   -1152.4349   -3866.4822 
19432000      129.062   -4976.9407   -4728.0338   -4976.9407            0    6372.3292     19.75003    19.819751    20.446567    8003.6179    7001.8896    5317.6096    6797.4882    -250.9022    937.94127   -529.74042   -3984.2265 
19433000    124.64511    -4982.091   -4741.7024    -4982.091            0     7684.728    19.843812    19.821074    20.351291    8004.6851    7191.7575    7164.8113    8697.6151    361.79469    898.89912   -805.59251   -3844.5864 
19434000    129.72948   -4992.8288   -4742.6346   -4992.8288            0    6971.5242    19.701159    19.840588    20.492888    8010.3128    7081.7667    7728.5784    6104.2275     93.81048    229.33005    61.509365   -3928.2058 
19435000    129.98398   -4975.0952   -4724.4102   -4975.0952            0    5871.3183    19.905728    19.837991    20.550757     8115.281    5573.0903    6239.8168    5801.0478   -188.22491    343.93282   -1464.8643   -4029.5218 
19436000    132.38611   -4974.2286   -4718.9109   -4974.2286            0    6490.2474    19.750863    19.827399    20.488579    8023.4965    6155.2167    6834.6505     6480.875   -182.95126    1047.3321    439.45184    -3959.458 
19437000    133.86121   -4998.1904   -4740.0278   -4998.1904            0    6656.7064    19.833553    19.861988    20.362384    8021.4314    6083.1434    7010.7199    6876.2559    314.12334    178.08558    189.36078   -3961.2974 
19438000    133.06034   -4982.0544   -4725.4364   -4982.0544            0    6622.9382    19.927445    19.875922    20.300792    8040.6636    5672.0619    6694.1914    7502.5612    268.32674    660.13292    597.28725   -3948.7986 
19439000    127.69285   -4994.0919   -4747.8255   -4994.0919            0    6740.0674    20.005149    19.728966    20.394499    8049.3193    7233.4774    6922.5379     6064.187   -632.43453    57.930971    472.58105   -3956.6018 
19440000    135.88434   -4977.9889   -4715.9245   -4977.9889            0    6952.6184    19.903392    19.908852    20.384427    8077.4045    8150.3727    5671.3484     7036.134    -256.8129    1184.1017   -15.601132   -3896.9015 
19441000    127.49688   -4974.8065   -4728.9181   -4974.8065            0    6778.4943    19.878952    19.768668    20.472142    8045.1507    6819.6049    7600.8243    5915.0539   -545.97501    745.55293    875.31574   -3933.5955 
19442000    132.30206   -4978.4629   -4723.3072   -4978.4629            0    6569.9578    19.851349      19.6693    20.545516     8022.246    5683.5622    7629.4923     6396.819   -105.80323   -11.098245    262.41129   -3954.6469 
19443000    127.76355   -4976.7727     -4730.37   -4976.7727            0    6967.0359    19.758853    19.689841    20.665086    8039.7243    7202.1686    8305.2387    5393.7004    447.52067   -299.41281     306.0837   -3913.4771 
19444000    125.68534   -4961.9393   -4719.5446   -4961.9393            0    6506.0561    19.762808    19.787709    20.545866    8034.6808    6831.6621    6568.3168    6118.1894   -183.38245    379.57485     -45.7377   -3957.1807 
19445000     129.3427   -4974.6419   -4725.1936   -4974.6419            0    6996.5325    19.712341    19.828073    20.431419    7985.7782    6173.2503    6721.9982     8094.349   -909.24766    439.14922   -270.27543   -3910.3468 
19446000    136.12617   -4996.8158    -4734.285   -4996.8158            0    6243.7319    19.965742    19.626798    20.571939    8061.3938    6762.0502    6828.6118    5140.5336    231.03254    332.77505   -169.52576   -4000.2272 
19447000    128.40905   -4976.1269   -4728.4793   -4976.1269            0    7445.4508    19.768652    19.823769    20.460448    8018.2283    6786.2913     7777.747    7772.3142   -439.94101    870.78694   -1579.5588   -3857.8259 
19448000    131.37698   -4977.4414   -4724.0698   -4977.4414            0    7150.3962    19.762054    19.842929    20.404221    8001.2505    7378.9261    6418.8505     7653.412   -72.090565   -1744.4301   -139.45959   -3889.6899 
19449000    128.11015   -4961.2638   -4714.1926   -4961.2638            0    6909.6383    19.937034    19.789866    20.401418    8049.4044    7158.5247    6466.3473     7104.043   -46.042818    370.93877    643.51991   -3903.0542 
19450000    126.07702   -4976.4246   -4733.2745   -4976.4246            0    7190.5214    19.641476    19.828061    20.525948    7993.8793    7082.2014    6314.6893    8174.6735   -492.47967     419.1938    611.69735   -3894.9853 
19451000    131.46516   -4985.3443   -4731.8027   -4985.3443            0    7096.4047    19.666557    19.848116    20.485887    7996.5456    7775.4827     6873.541    6640.1904   -377.80838    185.76568   -772.95223     -3904.21 
19452000    136.81417   -4995.9361   -4732.0784   -4995.9361            0    6142.5954    19.714096    19.768156    20.684102    8060.8285    7446.5404    6123.0632    4858.1825    36.960208   -683.21891     1302.805   -4009.9616 
19453000    123.32158   -4975.3878   -4737.5518   -4975.3878            0     7763.182    19.792194    19.800901    20.356466    7977.7659    7976.8262    8037.9501    7274.7697    -524.7451    757.44873    1188.2561   -3834.3247 
19454000    126.29785   -4990.8391    -4747.263   -4990.8391            0    6777.2578    19.841081     19.82837    20.449806    8045.2869    5939.6427    7160.2108    7231.9199    119.79863    72.592729    228.06519   -3952.0721 
19455000    124.14846   -4984.0382   -4744.6075   -4984.0382            0    6676.2651     19.81905    19.735624    20.515855    8024.5984    6311.7412    7655.7202     6061.334    257.74454    -665.8361    683.54068   -3963.2806 
19456000    125.28426   -4986.4556   -4744.8344   -4986.4556            0    6590.3276    19.875424    19.600043    20.619232    8032.4105    6877.5016    6835.1438    6058.3374    -153.3403    24.195568   -1260.9517    -3972.814 
19457000    125.96349   -4967.9019   -4724.9707   -4967.9019            0    6950.2316    19.622371    19.701889    20.692881    7999.8216    7694.0939    6901.3678    6255.2329   -154.99142   -637.29418     1309.474   -3914.0928 
19458000    136.84062   -4987.6115   -4723.7029   -4987.6115            0    7067.3863    19.725574     19.77485    20.534242    8009.7971    7895.6344     6965.706    6340.8186    348.08283     147.3948   -575.68396   -3898.1284 
19459000    130.71276   -4984.3586    -4732.268   -4984.3586            0    6890.3875    19.607158    19.889156    20.570508    8021.8774    8436.6247    4860.9648    7373.5729   -243.99125    627.79005    92.031898   -3926.1557 
19460000    137.22452    -4977.754    -4713.105    -4977.754            0     7617.895    19.823222    19.871655    20.402655    8037.0184    7564.3896    7411.4446    7877.8508     -464.893   -185.54492    1095.9486   -3820.1988 
19461000    133.54904   -4986.6664   -4729.1058   -4986.6664            0     7248.853    19.862942    19.780539    20.350807    7995.8259    7164.7859    7206.1762    7375.5969    66.896794    551.31888   -257.81435   -3883.8104 
19462000    128.30201   -4973.7333   -4726.2921   -4973.7333            0    7918.7907    19.692338    19.846749    20.447773    7991.5803    8171.0184     7291.458    8293.8956   -14.948298    79.661102   -841.96007   -3803.3649 
19463000     134.5421   -4973.2245   -4713.7487   -4973.2245            0    7747.6545    19.665921    19.710277    20.574514    7975.1085    7449.6752    8160.2887    7632.9994   -743.91275    -229.9628   -221.98931   -3812.6285 
19464000    133.96542   -4977.1847   -4718.8212   -4977.1847            0    7676.3465    19.863013    19.665452    20.395326    7966.7231    8712.9745    6352.8637    7963.2014    123.08429    1811.7875   -1069.0744   -3826.9334 
19465000    123.71722   -4985.9285   -4747.3294   -4985.9285            0    8390.8979    19.855121    19.668659    20.433686    7979.8367      8164.33    9414.4501    7593.9137    101.01128   -310.08308    666.84241   -3770.8157 
19466000     130.1784   -4986.1313   -4735.0713   -4986.1313            0    7611.5431    19.830946    19.829762    20.315588     7988.961    7417.9016    7532.7537    7883.9739   -128.68318    541.42782    858.90738   -3848.2443 
19467000    123.29041   -4983.9372   -4746.1613   -4983.9372            0    6911.6468    19.794361    19.845934    20.406862    8016.5823    6690.0809    7389.6125    6655.2471    -662.9737    363.98489    247.89751   -3938.0956 
19468000    135.87176    -4977.387   -4715.3469    -4977.387            0    8281.6304    19.643832    19.899635    20.426823    7984.9492    8703.6249     7669.428    8471.8382   -89.692945    461.39927    74.812046    -3750.932 
19469000    131.64361   -4980.9307    -4727.045   -4980.9307            0    6319.1503    19.759589    19.730252    20.660159     8054.604    6101.6177    7149.1377    5706.6955    64.575908   -483.07246   -96.467703   -3984.7461 
19470000    121.66977   -4979.8244    -4745.174   -4979.8244            0    7942.0123    19.739239    19.756556    20.533272    8007.5529    8798.8134    7529.0368    7498.1866   -153.53895    715.23775     140.0417   -3817.6903 
19471000    135.11467   -4993.0767   -4732.4966   -4993.0767            0    7165.3238    19.537899    19.854489    20.621835    7999.5193    7610.1338    7823.2859    6062.5517   -104.26908    356.21264    233.25919   -3896.5557 
19472000    126.23907   -4989.8255   -4746.3629   -4989.8255            0    6491.4335    19.735082    19.909309    20.500968     8055.073    6697.0893    6998.8586    5778.3526   -135.74748    965.78505   -708.53012   -3983.7819 
19473000    128.33023   -4984.3076    -4736.812   -4984.3076            0    7887.2955    19.792377    19.781172    20.433967    8000.2336    9537.2066    6291.6475    7833.0323      164.061   -613.19007   -329.61794   -3816.5602 
19474000    133.87587   -4985.8463   -4727.6554   -4985.8463            0    6885.5163    19.812805    19.775634    20.439909    8008.5768    6895.5638    7179.4052    6581.5801   -198.99216   -356.52505    233.28289   -3923.4486 
19475000    124.44063   -4975.1135   -4735.1192   -4975.1135            0     7293.804    19.877753    19.619424    20.496377    7993.3833    8300.4994     6457.003    7123.9095   -681.94734    208.35848   -72.443899   -3884.8419 
19476000    129.66689   -4976.3287   -4726.2552   -4976.3287            0    6113.7257    19.635479    19.671217    20.670314    7983.9866    6351.2959    6896.0964     5093.785    -572.4391    213.18858   -354.92297   -4014.3836 
19477000      134.311   -4958.4626   -4699.4326   -4958.4626            0    6767.0886    19.778456    19.932723    20.411082    8046.8338    7397.9395     7163.893    5739.4333   -60.588372    976.88395   -96.439029   -3905.2821 
19478000    132.66465   -4974.0658   -4718.2109   -4974.0658            0    6311.1432    19.813225    19.801199    20.449762    8022.9654    6817.3297    5728.5399      6387.56    -84.17384    394.29978    330.45901   -3979.7647 
19479000    131.91023    -4974.321   -4719.9211    -4974.321            0    7443.2504    19.831985    19.617633    20.618214    8021.6526    7810.1576    8089.3329    6430.2606    140.25582      354.792    565.84445   -3849.1532 
19480000    138.31823   -4974.4642   -4707.7058   -4974.4642            0    9160.4029    19.769948    19.649653    20.562469    7987.9561    9674.9739    9318.2526    8487.9823   -980.90385   -408.14723    86.879616   -3640.5542 
19481000    134.61812   -4982.0996   -4722.4773   -4982.0996            0    6209.1517    19.808661    19.864662    20.493925    8064.2027    6458.8493    6342.8672    5825.7386   -362.32217    531.83534   -31.104636   -3992.2306 
19482000    134.16762   -4983.9617   -4725.2082   -4983.9617            0    6814.1858    19.950818    19.619116    20.436192    7999.0816    6213.1235    7971.3086    6258.1253    255.71394    302.53411   -1231.0681   -3930.2761 
19483000    132.43187   -4992.7669   -4737.3609   -4992.7669            0    6633.6676     19.82043    19.778041    20.419401    8004.5942    5922.2858    7705.5413    6273.1758    480.36597   -660.16764    619.37131   -3962.9545 
19484000    133.81952   -4984.7384   -4726.6562   -4984.7384            0    6175.5465    19.871061    19.712312    20.570012    8057.3673    6103.2295    6681.6743    5741.7356    -163.7831   -1502.0081    34.805157   -4000.9774 
19485000    127.95067   -4990.2187   -4743.4551   -4990.2187            0     7062.569       19.773    19.746675    20.590377    8039.5332    6273.9228    7878.6051    7035.1791   -434.24758    553.85716    1064.2687   -3915.3806 
19486000    127.05046   -4985.2828   -4740.2553   -4985.2828            0    6210.9737    19.737975    19.873002    20.457493    8024.5095    5782.2032    6665.2236    6185.4944   -151.52876    313.91501    432.45773   -4013.3898 
19487000    129.88199   -4983.4597   -4732.9713   -4983.4597            0    6884.0281     19.73987    19.703735    20.672047    8040.3753    4940.1449    8601.0421    7110.8973   -160.94363    313.31334    1760.7298   -3925.7459 
19488000    130.71739   -4975.6227   -4723.5232   -4975.6227            0    7612.5412    19.839253    19.772576    20.483124    8034.9791    8055.3727    7278.6483    7503.6028   -277.15063    -727.0467    185.15201    -3831.471 
19489000    128.00224   -4977.8113   -4730.9482   -4977.8113            0    6076.9206    19.954598    19.877313    20.273868     8041.504    5618.2823    6195.2458    6417.2337   -186.22127   -803.46829   -122.35516   -4018.2647 
19490000    133.17033    -4981.889   -4725.0588    -4981.889            0    6551.0213       19.921    19.830414    20.402546    8059.8558    7208.4579    4833.1292    7611.4767   -326.03343    895.43321     831.4314   -3955.0208 
19491000    128.33269    -4988.135   -4740.6347    -4988.135            0    6480.2818    19.965403    19.663013    20.432238    8021.2877     6656.435    6367.8166    6416.5937   -224.36902   -100.24312    517.71893   -3982.5567 
19492000    134.39007   -4984.7209   -4725.5383   -4984.7209            0     7655.962    19.741493    19.741429    20.484972    7983.5113    8865.6902    6489.6495    7612.5464   -186.03053    758.45072   -860.34129   -3834.1445 
19493000    133.52316   -4974.6866   -4717.1759   -4974.6866            0    7824.4222    19.746203    19.766409    20.421724    7970.8345    8007.4065    7616.1339    7849.7262   -73.335782     791.7642   -605.53182   -3807.6147 
19494000    127.25769   -4959.8785   -4714.4513   -4959.8785            0     6525.001    19.639806    19.931427    20.341388    7962.6234    5822.9826     6102.186    7649.8345    72.566105    917.38661    424.19901   -3956.7245 
19495000    131.42792   -4956.5949   -4703.1251   -4956.5949            0    8568.0258    19.614694    19.962226    20.409486    7991.3943    9388.1268    6953.3347    9362.6158    395.15681    209.60304    1040.4045   -3704.5535 
19496000    136.52776   -4986.1391   -4722.8339   -4986.1391            0    7312.5379    19.923077    19.756288    20.403411    8030.9061    6175.5482    8188.8725     7573.193    413.16056   -330.14333   -777.36533   -3866.3709 
19497000     134.7906   -4997.7794   -4737.8244   -4997.7794            0     6574.874    19.877096     19.73947    20.525083    8053.2902    6935.3855    6139.0413    6650.1951    195.17902   -341.63837   -520.99098   -3965.6121 
19498000    134.32965   -4977.9954   -4718.9294   -4977.9954            0    6136.7788    19.849452    19.887426    20.420919    8061.2495    5997.8473    5206.2067    7206.2825    194.74586    204.83253   -946.29881   -3997.4586 
19499000    125.57486   -4986.9312   -4744.7495   -4986.9312            0    6804.7461    19.870609    19.884782    20.355512    8042.9253    7369.0352    6025.6007    7019.6024    224.20544    855.72985    886.88228   -3946.5677 
19500000    134.07386   -4968.2128   -4709.6401   -4968.2128            0    6574.6716    19.894735    20.067943    20.225497    8074.9572    5456.5374    5898.1316    8369.3458   -195.88034    680.13156    58.878952   -3935.3741 
Loop time of 341.29 on 64 procs for 250000 steps with 972 atoms

Performance: 126.578 ns/day, 0.190 hours/ns, 732.514 timesteps/s
99.1% CPU use with 64 MPI tasks x 1 OpenMP threads

MPI task timing breakdown:
Section |  min time  |  avg time  |  max time  |%varavg| %total
---------------------------------------------------------------
Pair    | 19.382     | 28.522     | 39.08      |  86.9 |  8.36
Bond    | 0.26316    | 0.27538    | 0.28723    |   0.8 |  0.08
Kspace  | 130.24     | 141        | 150.04     |  39.7 | 41.31
Neigh   | 0.92337    | 0.93421    | 0.94321    |   0.5 |  0.27
Comm    | 81.916     | 82.639     | 83.871     |   5.9 | 24.21
Output  | 0.52962    | 0.53056    | 0.53177    |   0.0 |  0.16
Modify  | 81.638     | 82.52      | 83.023     |   4.2 | 24.18
Other   |            | 4.872      |            |       |  1.43

Nlocal:        15.1875 ave          19 max          11 min
Histogram: 1 5 10 10 0 9 12 6 7 4
Nghost:        2271.81 ave        2299 max        2241 min
Histogram: 2 6 6 5 10 8 7 11 8 1
Neighs:        4866.19 ave        6843 max        3321 min
Histogram: 5 6 7 8 16 7 4 6 4 1

Total # of neighbors = 311436
Ave neighs/atom = 320.40741
Ave special neighs/atom = 2.0000000
Neighbor list builds = 2822
Dangerous builds = 0

unfix		3
unfix		2
unfix		1

write_data	data.final.${pid}
write_data	data.final.1
System init for write_data ...
PPPM initialization ...
  extracting TIP4P info from pair style
  using 12-bit tables for long-range coulomb (../kspace.cpp:340)
  G vector (1/distance) = 0.37209496
  grid = 24 24 24
  stencil order = 5
  estimated absolute RMS force accuracy = 0.0035170865
  estimated relative force accuracy = 1.0591602e-05
  using double precision FFTW3
  3d grid and FFT values/proc = 2197 216
Last active /omp style is kspace_style pppm/tip4p/omp
WARNING: Not all mixed pair coeffs generated from mixing. Use write_data with 'pair ij' option to store all pair coeffs. (../write_data.cpp:312)

write_restart   restart.lmp.${pid}
write_restart   restart.lmp.1
System init for write_restart ...
PPPM initialization ...
  extracting TIP4P info from pair style
  using 12-bit tables for long-range coulomb (../kspace.cpp:340)
  G vector (1/distance) = 0.37209496
  grid = 24 24 24
  stencil order = 5
  estimated absolute RMS force accuracy = 0.0035170865
  estimated relative force accuracy = 1.0591602e-05
  using double precision FFTW3
  3d grid and FFT values/proc = 2197 216
Last active /omp style is kspace_style pppm/tip4p/omp
Total wall time: 0:05:41
