LAMMPS (30 Jul 2021)
Processor partition = 0
  using 1 OpenMP thread(s) per MPI task
using multi-threaded neighbor list subroutines
variable        pid world 0 1
variable        phase world IceII IceIII

shell cd ${phase}
shell cd IceII
include Restart.lmp
echo both
log log.lammps
#include		in.partitions
include		in.temp
variable        temperature equal 118.58
variable	tempDamp equal 100.0
include		in.pressure
variable        pressure equal 4418.8
variable        pressureDamp equal 1000.0 # This is 1 ps
include		in.seed
variable        seed equal 745823

units		real
atom_style	full
box tilt large
read_restart	restart.lmp.${pid}
read_restart	restart.lmp.0
Reading restart file ...
  restart file = 30 Jul 2021, LAMMPS = 30 Jul 2021
  restoring atom style full from restart
  triclinic box = (-10.661697 -9.1431543 0.12896021) to (12.641697 12.133152 21.731039) with tilt (-9.3663105 1.8503787 2.8139520)
  4 by 4 by 4 MPI processor grid
  restoring pair style lj/cut/tip4p/long/omp from restart
  restoring bond style harmonic/omp from restart
  restoring angle style harmonic/omp from restart
  1296 atoms
  864 bonds
  432 angles
Finding 1-2 1-3 1-4 neighbors ...
  special bond factors lj:    0        0        0       
  special bond factors coul:  0        0        0       
     2 = max # of 1-2 neighbors
     1 = max # of 1-3 neighbors
     1 = max # of 1-4 neighbors
     2 = max # of special neighbors
  special bonds CPU = 0.010 seconds
  read_restart CPU = 0.020 seconds
include 	in.setup
variable	out_freq equal 1000
variable	out_freq2 equal 10000
variable	out_freq3 equal 1000

timestep	2.0

neigh_modify    delay 7 every 1

include		in.tip4p
# This is TIP4P/Ice

# create groups ###
group ox type 2
432 atoms in group ox
group hy type 1
864 atoms in group hy

# set charges - beside manually ###
set group ox charge -1.1794
Setting atom values ...
  432 settings made for charge
set group hy charge 0.5897
Setting atom values ...
  864 settings made for charge

# ### TIP3P Potential Parameters ###
pair_style lj/cut/tip4p/long/omp 2 1 1 1 0.1577 8.5
pair_coeff 1 1*2 0.000 0.000
pair_coeff 2 2 0.21084 3.1668
bond_style  harmonic
bond_coeff  1 450 0.9572
angle_style harmonic
angle_coeff 1 55 104.52
kspace_style pppm/tip4p/omp 1.0e-5
pair_modify tail yes

thermo          ${out_freq}
thermo          1000
thermo_style    custom step temp pe etotal epair emol press lx ly lz vol pxx pyy pzz pxy pxz pyz enthalpy

restart 	${out_freq3} restart.lmp.${pid} restart2.lmp.${pid}
restart 	1000 restart.lmp.${pid} restart2.lmp.${pid}
restart 	1000 restart.lmp.0 restart2.lmp.${pid}
restart 	1000 restart.lmp.0 restart2.lmp.0


include         in.dump
dump            myDump all atom ${out_freq2} dump.water.${pid}
dump            myDump all atom 10000 dump.water.${pid}
dump            myDump all atom 10000 dump.water.0
dump            myDump2 all dcd ${out_freq2} dump.dcd
dump            myDump2 all dcd 10000 dump.dcd
dump_modify     myDump append yes
dump_modify     myDump2 append yes


variable natoms 	equal  "count(all)"                        # NUMBER ATOMS
variable H      	equal  "enthalpy/v_natoms"                 # ENTHALPY-per-atom
variable Vol      	equal  "vol/v_natoms"                 # volume-per-atom
fix AVG all 		ave/time ${out_freq} 1 ${out_freq} v_Vol v_H file vol_enthalpy.dat
fix AVG all 		ave/time 1000 1 ${out_freq} v_Vol v_H file vol_enthalpy.dat
fix AVG all 		ave/time 1000 1 1000 v_Vol v_H file vol_enthalpy.dat


timer           timeout 10:00:00 every 1000
New timer settings: style=normal  mode=nosync  timeout=10:00:00

fix 		1 all shake 1e-6 200 0 b 1 a 1
Finding SHAKE clusters ...
       0 = # of size 2 clusters
       0 = # of size 3 clusters
       0 = # of size 4 clusters
     432 = # of frozen angles
  find clusters CPU = 0.002 seconds
fix             2 all nph tri ${pressure} ${pressure} ${pressureDamp}
fix             2 all nph tri 4418.8 ${pressure} ${pressureDamp}
fix             2 all nph tri 4418.8 4418.8 ${pressureDamp}
fix             2 all nph tri 4418.8 4418.8 1000
fix             3 all temp/csvr ${temperature} ${temperature} ${tempDamp} ${seed}
fix             3 all temp/csvr 118.58 ${temperature} ${tempDamp} ${seed}
fix             3 all temp/csvr 118.58 118.58 ${tempDamp} ${seed}
fix             3 all temp/csvr 118.58 118.58 100 ${seed}
fix             3 all temp/csvr 118.58 118.58 100 745823


run             250000
PPPM initialization ...
  extracting TIP4P info from pair style
  using 12-bit tables for long-range coulomb (../kspace.cpp:340)
  G vector (1/distance) = 0.36808641
  grid = 30 40 32
  stencil order = 5
  estimated absolute RMS force accuracy = 0.004364844
  estimated relative force accuracy = 1.3144598e-05
  using double precision FFTW3
  3d grid and FFT values/proc = 5168 640
Last active /omp style is kspace_style pppm/tip4p/omp
Neighbor list info ...
  update every 1 steps, delay 7 steps, check yes
  max neighbors/atom: 2000, page size: 100000
  master list distance cutoff = 10.8154
  ghost atom cutoff = 10.8154
  binsize = 5.4077, bins = 7 5 4
  1 neighbor lists, perpetual/occasional/extra = 1 0 0
  (1) pair lj/cut/tip4p/long/omp, perpetual
      attributes: half, newton on, omp
      pair build: half/bin/newton/tri/omp
      stencil: half/bin/3d/tri
      bin: standard
Setting up Verlet run ...
  Unit style    : real
  Current step  : 9500000
  Time step     : 2
  Walltime left : 9:59:59.89
Per MPI rank memory allocation (min/avg/max) = 9.445 | 9.450 | 9.455 Mbytes
Step Temp PotEng TotEng E_pair E_mol Press Lx Ly Lz Volume Pxx Pyy Pzz Pxy Pxz Pyz Enthalpy 
 9500000    124.02515   -6708.8346   -6389.7874   -6708.8346            0    3937.2321    23.303394    21.276307    21.602079     10710.53    3314.8594    4691.7223    3805.1146    925.70835   -732.21175   -493.94647   -5774.7835 
 9501000    117.04162   -6702.9031   -6401.8207   -6702.9031            0    4878.3557     23.16935    21.292277    21.645281    10678.228     5542.798    5389.6958    3702.5733   -689.73248    142.69453   -184.22492   -5642.1095 
 9502000    122.27402   -6719.9728   -6405.4304   -6719.9728            0    3826.2608    23.282788    21.360314    21.542388    10713.626    4498.2206    3532.3231    3448.2388    132.69864    208.05027   -856.96543   -5807.5877 
 9503000    119.92394   -6712.6583   -6404.1612   -6712.6583            0    4180.4887    23.161677    21.302276    21.651082    10682.567    3830.7944    4481.6658    4229.0059    82.286638    589.73046   -400.53619    -5752.865 
 9504000    113.75994   -6709.2776   -6416.6371   -6709.2776            0     5633.238    23.112064    21.323834    21.547975    10619.657    5766.8873    5591.0545    5541.7723   -172.09232   -587.11668   -10.713284   -5544.1792 
 9505000    118.43578   -6712.0266   -6407.3578   -6712.0266            0    4058.1529     23.19984    21.360689    21.596334    10702.378    4078.6771     4175.689    3920.0927    728.31803    329.04119   -743.89286   -5773.9483 
 9506000    119.58231   -6706.8652    -6399.247   -6706.8652            0    3726.9324    23.168375    21.425575    21.611511    10727.862    4289.0594    3333.6425    3558.0955   -527.48077   -176.45154   -252.07348   -5816.1502 
 9507000    117.57111   -6708.9434   -6406.4989   -6708.9434            0    5707.6039    23.172581    21.291635    21.532276     10623.64    5600.4842    6417.1745    5105.1531   -625.44422    656.59631    212.59238   -5522.1919 
 9508000    123.77341   -6717.9296   -6399.5301   -6717.9296            0    4506.4423    23.210597    21.250004    21.666265     10686.35    4472.5336    5136.0303    3910.7628    376.61022   -4.9740275   -120.44096   -5697.2035 
 9509000    120.62246   -6694.2561   -6383.9622   -6694.2561            0    4060.6726    23.237576    21.383308     21.53746    10701.883    3851.9213    3409.0902    4921.0063   -639.04922   -336.71063     475.1762   -5750.1887 
 9510000    124.90079    -6724.519   -6403.2193    -6724.519            0    4247.8509    23.254748    21.355279    21.537948    10695.995    3292.0058     4611.449    4840.0979   -314.76135    1511.2722    95.830625   -5740.5965 
 9511000    119.28174   -6712.8683   -6406.0232   -6712.8683            0    3315.5483    23.243354    21.277698    21.683631    10723.967     3100.298    3458.7086    3387.6384   -764.56466    530.87758     271.8759   -5887.4779 
 9512000    120.77106   -6695.4629   -6384.7867   -6695.4629            0    4058.9963    23.240461    21.351593    21.586027    10711.437    3624.1495    4231.7951    4321.0441    314.24204    1.6307136     486.9486   -5750.7093 
 9513000    123.05304   -6705.8564     -6389.31   -6705.8564            0    5001.0569    23.221745    21.198656    21.666567    10665.796    5531.7918    5409.5744    4061.8045    369.54067    398.96334   -1539.1566   -5611.3971 
 9514000    118.28966   -6724.3766   -6420.0837   -6724.3766            0    4089.4758     23.25799     21.34822    21.553813    10701.828    4270.9352    3559.9894    4437.5029   -1159.8971    465.42388    484.41671    -5781.818 
 9515000    122.03857   -6716.0247   -6402.0879   -6716.0247            0    4375.4474    23.159241    21.284083    21.674987    10684.104    5000.0473    4745.2076    3381.0874   -488.56974   -534.18482 -0.098341902   -5720.3202 
 9516000    119.30232   -6710.2376   -6403.3396   -6710.2376            0     4950.781    23.215806    21.262725    21.583238    10654.162    4973.9912    5146.6892    4731.6628    -266.6109    353.77203   -325.76886   -5634.0871 
 9517000    115.86728   -6701.8839   -6403.8224   -6701.8839            0    4332.6555    23.204827    21.394446    21.563291    10705.191    4060.3495    4836.6961    4100.9209    -214.2604   -116.26692   -363.95196   -5727.3899 
 9518000     115.1595   -6719.2761   -6423.0353   -6719.2761            0    4130.0693    23.117739    21.427719    21.562877    10681.395    4629.5121    3502.4504    4258.2453    1035.9993   -177.94625   -309.92638   -5779.6647 
 9519000    115.59372   -6704.1498    -6406.792   -6704.1498            0    5122.0402    23.058895    21.397117    21.607323     10660.92    5634.7653    4683.3475    5048.0078   -141.36229    130.38157    1211.2047   -5610.4244 
 9520000    116.50108   -6711.8042   -6412.1122   -6711.8042            0    4352.4291    23.159612    21.391365     21.55132    10676.863    5565.6854      3121.85    4369.7519   -474.76322   -48.055541    849.60197   -5734.3907 
 9521000    118.08557   -6725.1544   -6421.3864   -6725.1544            0     3826.518    23.195564    21.425376    21.558853    10714.182    4047.3529    3802.8062    3629.3948    490.77459   -92.716772   -1096.1403   -5823.4725 
 9522000    119.79819   -6711.3031   -6403.1296   -6711.3031            0    3680.9314    23.255346     21.35295    21.573154    10712.586    2947.0758     3827.075    4268.6435   -358.96721    820.11657    278.10547     -5828.05 
 9523000    113.71158   -6704.1715   -6411.6554   -6704.1715            0    4647.4446    23.200033    21.243511    21.678207    10684.107    4795.8044    4826.7213    4319.8081    43.686922    604.63858    359.66391   -5687.5057 
 9524000    127.95649   -6701.2653   -6372.1051   -6701.2653            0    4400.5417    23.370594    21.310841    21.454629    10685.414    3220.8664    4856.4877    5124.2711   -399.10317    325.72562   -601.23085   -5686.3431 
 9525000      124.615   -6703.1809   -6382.6164   -6703.1809            0    4865.2123    23.311169    21.194894     21.61936    10681.645    3895.1177    5800.6842    4899.8349   -43.725342   -224.65642   -776.27761   -5624.7096 
 9526000    120.01031   -6695.5433   -6386.8241   -6695.5433            0    4963.4042     23.24664    21.223423    21.588943    10651.407     5116.247    5054.9206    4719.0451   -738.81242    368.92649    14.703696   -5615.8096 
 9527000    117.45333     -6696.26   -6394.1185     -6696.26            0     5040.355    23.286244    21.174834    21.667103    10683.666    4998.8403    5394.6129    4727.6119    403.68936   -84.889201    432.31753   -5608.7792 
 9528000    116.81091   -6718.0619    -6417.573   -6718.0619            0    4273.7753    23.251145    21.316086    21.555753    10683.536    4450.6209    4405.6909    3965.0143    211.30897   -610.72603   -1328.1431   -5751.6828 
 9529000    117.31653   -6719.9859   -6418.1963   -6719.9859            0    3342.5783    23.292553     21.31751    21.597885    10724.197    2563.6532    3365.8976     4098.184   -104.06443    796.40233    341.58694   -5895.4123 
 9530000    120.98079    -6695.926   -6384.7103    -6695.926            0    4943.9344    23.162554    21.307298    21.619334    10669.821    6117.3304    5137.0399    3577.4329    317.13111   -464.07895    918.60147   -5615.3925 
 9531000    123.83339   -6704.2283   -6385.6745   -6704.2283            0    5057.8465    23.168028    21.359134    21.482496    10630.592    5048.8048     5423.172    4701.5627    1877.4511    494.52612   -200.42843   -5601.5248 
 9532000    125.10169   -6720.8968   -6399.0803   -6720.8968            0    3507.1526    23.175822    21.375905    21.634904    10718.021    4281.2746    2734.0378    3506.1454    380.85921    25.305639    232.85432   -5850.8726 
 9533000    119.30289   -6712.8621   -6405.9626   -6712.8621            0    4266.2187    23.216297    21.412493    21.514136    10695.081     3384.356     3707.358    5706.9421   -379.98147    1074.9797     568.8514   -5740.5315 
 9534000    120.26106   -6721.9084   -6412.5442   -6721.9084            0     4259.818    23.190921    21.304027    21.657968    10700.336    4174.2117    4366.2747    4238.9675    725.65046   -150.36644    321.30567    -5747.785 
 9535000    119.92365   -6725.4694   -6416.9731   -6725.4694            0    4444.9423    23.163879    21.342361    21.588322    10672.659    4195.9762    4658.1583    4480.6925    450.71471   -482.74768    373.23468   -5725.1188 
 9536000    114.32461   -6705.1293   -6411.0361   -6705.1293            0    5258.6696    23.151895    21.288669    21.589778    10641.019    6072.0836    5176.8856    4527.0396    75.722903   -1.5949777   -440.47716   -5594.9519 
 9537000     118.3589   -6706.4914   -6402.0203   -6706.4914            0    4497.6048    23.179844    21.301409    21.615987    10673.182    4788.9494    3968.9021    4734.9629   -624.33211     386.5445    567.50626   -5701.9348 
 9538000     118.6162   -6708.7385   -6403.6056   -6708.7385            0    4886.4945    23.220221     21.27758     21.61056    10677.132    4352.8711    6495.0324    3811.5799   -77.636142   -374.27561   -82.869683    -5642.705 
 9539000    115.37741   -6701.9401   -6405.1388   -6701.9401            0    4575.2076    23.362493    21.253853    21.559586    10705.261    3699.5827    4765.8517    5260.1883    854.77802   -340.90271    15.761103   -5690.8333 
 9540000    118.00085   -6716.7821   -6413.2321   -6716.7821            0    3234.2202    23.325362    21.238822    21.662423    10731.634    3303.7706    3879.6805    2519.2093   -634.94604   -593.47303    3.1132697   -5907.0447 
 9541000    119.34506   -6716.2092   -6409.2014   -6716.2092            0    5459.8065    23.234452    21.203395    21.559905    10621.471    4791.3553    5813.9629    5774.1013     263.9239   -377.60122    854.75374   -5563.4595 
 9542000    117.21954   -6710.0856   -6408.5455   -6710.0856            0    4595.0913    23.212311    21.238776    21.648582    10672.774    4573.8992    5321.0173    3890.3573   -22.070196    105.05391    91.106982   -5693.3129 
 9543000    125.24263   -6720.1871   -6398.0081   -6720.1871            0    4416.5834    23.231199    21.326066    21.563629     10683.27    3344.7078     4904.861    5000.1815    443.64993    97.566262     146.9674   -5709.8844 
 9544000    119.72795   -6710.9883   -6402.9955   -6710.9883            0    4635.6447    23.212589    21.319625    21.606336    10692.623    4462.0916     5164.135    4280.7074   -755.63162    125.14747   -512.80018   -5680.1087 
 9545000    109.88376   -6714.3609   -6431.6916   -6714.3609            0    5316.8291    23.154977    21.335207    21.547466    10644.798    5347.3106    6117.7507    4485.4261    432.86841   -61.403787    512.98014   -5606.2887 
 9546000    118.11639    -6702.887   -6399.0398    -6702.887            0    3848.1779    23.132074    21.427609    21.621624    10717.083    4144.0759     3122.528    4277.9298   -689.09359   0.40025356    509.75511   -5797.5785 
 9547000    120.57571   -6726.1869   -6416.0132   -6726.1869            0    4368.4023    23.190652    21.375972    21.541189    10678.457    3809.6109    5010.6769    4284.9192     767.6227    347.71077   -467.34703   -5735.7029 
 9548000    118.59279   -6696.8923   -6391.8195   -6696.8923            0     5960.827    23.101427    21.378955    21.535298    10635.947    6907.7238    5037.8628    5936.8942    42.744816   -1083.5862    337.79775   -5467.2096 
 9549000    121.50622    -6706.492   -6393.9247    -6706.492            0    4033.4642    23.203508    21.380577    21.567131    10699.548    4569.6119    3921.1637     3609.617    916.14104   -70.154476   -54.333872   -5764.5351 
 9550000    121.30339   -6718.0006   -6405.9551   -6718.0006            0    3917.4203    23.179506    21.276973    21.695937    10700.213    3441.8909    4783.1369    3527.2333    535.07959    957.13902    844.38088   -5794.6352 
 9551000    120.73383    -6704.681   -6394.1005    -6704.681            0    4208.9785    23.291942     21.29218    21.570408    10697.547    4482.9072    4287.1785    3856.8499   -12.068824    324.70179    677.04192   -5737.4462 
 9552000    116.90016   -6716.8151   -6416.0965   -6716.8151            0    4913.8391    23.256687    21.244386    21.607371    10675.641    4740.0882    4898.5684    5102.8608    41.636352   -346.87204   -187.68656   -5651.0448 
 9553000    115.91962   -6708.6213   -6410.4252   -6708.6213            0    4940.6858    23.318583    21.279874    21.488695    10663.045    4849.9516    5380.0568    4592.0489   -556.61567   -1023.0762    -512.9577   -5642.1012 
 9554000    118.21134   -6700.0285    -6395.937   -6700.0285            0    4871.9767    23.250028    21.216166    21.612818    10661.094    4562.9327     4873.275    5179.7224    14.325082     673.6774    799.70591   -5638.4366 
 9555000    123.21895   -6715.2571   -6398.2838   -6715.2571            0    5058.8065    23.195834    21.217473    21.643929    10652.211    4924.1725    5811.0047    4441.2422    446.80001    430.41155   0.45523805   -5612.3903 
 9556000    123.26909   -6706.2611   -6389.1589   -6706.2611            0    3611.0987    23.263832    21.394917    21.546476    10724.279    3723.7006     3671.932    3437.6634   -688.23911   -190.30455    -700.6309   -5824.3736 
 9557000    116.09971   -6700.5996   -6401.9402   -6700.5996            0    5864.4044    23.111511    21.355628    21.568284     10645.26    6580.4854    5234.8021    5777.9258    511.07942   -531.68396   -648.94678   -5491.4902 
 9558000    116.87816   -6703.5072   -6402.8453   -6703.5072            0    4637.2937    23.181833    21.364484    21.541718    10668.921    4115.2306    4868.0122    4928.6384    -596.0991    669.89371    334.69872   -5681.3043 
 9559000    118.02689   -6706.1463   -6402.5293   -6706.1463            0    4139.9289    23.201747    21.320041    21.597395    10683.415    4604.4806    3521.5586    4293.7475    80.023234    121.18987    386.56474   -5757.5009 
 9560000    114.99571   -6715.5769   -6419.7574   -6715.5769            0    4674.9025    23.219669    21.338772    21.541599    10673.415    4279.1301    4729.7211    5015.8563   -453.76285    361.71581   -1061.6315   -5692.0583 
 9561000    118.72595   -6710.7063    -6405.291   -6710.7063            0    4188.2035    23.205692    21.355713    21.550804     10680.02    3340.9292    4689.6863    4533.9948   -911.26863    544.62714     67.05178   -5752.9484 
 9562000    120.49046   -6708.9386   -6398.9843   -6708.9386            0    4249.7444    23.183701    21.265388    21.722642    10709.488    4509.8275    4944.2373    3295.1684    194.96689    1117.4338   -90.415309   -5735.2299 
 9563000    123.15833   -6698.1462   -6381.3289   -6698.1462            0    5196.0373    23.169029    21.329231     21.54485    10646.981    5131.0166    5946.0251    4511.0702   -1124.7835   -77.416054    154.06309   -5574.5127 
 9564000    118.33602   -6714.8225   -6410.4103   -6714.8225            0         3704    23.143114    21.413182    21.613598    10711.001    4998.8226    2712.8203    3400.3572   -716.34349    899.47921   -1158.6242   -5831.8123 
 9565000     110.9341   -6711.7631   -6426.3919   -6711.7631            0    5282.4071    23.176369    21.342999    21.515155    10642.541    5143.1715    5336.2461    5367.8037   -295.76881   -42.257426   -281.48733   -5606.5066 
 9566000    121.41873   -6701.3157   -6388.9734   -6701.3157            0    4743.6879    23.106172    21.330517    21.667863    10679.366    5325.7954    4386.6576    4518.6107    385.13593   -826.10851    1134.5512   -5650.1554 
 9567000     113.4853   -6713.1931   -6421.2591   -6713.1931            0    5117.1408    23.193884    21.284133    21.524375     10625.76    4777.0354    5784.7337    4789.6533    429.28291     287.3117   -367.78614   -5628.2773 
 9568000    113.06102   -6713.2756   -6422.4331   -6713.2756            0    3893.5518    23.197046    21.309117    21.656235    10704.863    4112.9548    4300.9545    3266.7462    -806.5154   -497.32831   -525.78134   -5814.5739 
 9569000    112.56272   -6716.4282   -6426.8675   -6716.4282            0    4833.9354    23.265837    21.339312    21.469165    10658.946     4419.046     4557.138    5525.6223   -586.33824   -84.616058    131.83694   -5675.4333 
 9570000    114.99511   -6704.7281   -6408.9102   -6704.7281            0     4008.461    23.198996    21.251028    21.730582    10713.232     4088.525    4849.8653    3086.9926    115.74747     538.3448    500.36473   -5782.6222 
 9571000    118.78521   -6705.9379   -6400.3702   -6705.9379            0     4629.768    23.209974    21.259923    21.635177     10675.71    3822.4658    5208.1668    4858.6715    632.45776    295.07476    350.46937   -5679.5417 
 9572000    126.60518   -6703.1139   -6377.4298   -6703.1139            0    4595.7954    23.186935    21.315914    21.626059    10688.695    5467.2048    4386.3713    3933.8102    405.58867    217.62421    118.93063   -5661.0204 
 9573000    117.46131   -6719.1184   -6416.9563   -6719.1184            0    4598.6825    23.242908     21.34961    21.485649    10661.759    3727.6029    4670.4951    5397.9495   -383.07855    952.25102   -771.56134   -5701.9034 
 9574000    119.97124   -6719.1152   -6410.4965   -6719.1152            0    3632.0844     23.21433    21.335777    21.651166    10723.731     4389.287    3412.2669    3094.6991   -131.75907   -428.74759   -607.71942    -5842.458 
 9575000    119.94048    -6714.822   -6406.2824    -6714.822            0    4563.6162    23.235605    21.276433    21.602943    10679.864    3528.5747    5504.6613    4657.6125   -522.37383    1021.2467    205.04821    -5695.477 
 9576000    116.64161    -6705.159   -6405.1056    -6705.159            0    5362.2574    23.149245    21.260311    21.666282    10663.281    4984.2293    5648.6666    5453.8765    869.64114    77.093882    229.58175   -5571.2048 
 9577000    118.85705   -6719.4955    -6413.743   -6719.4955            0     3979.742    23.263678      21.4016    21.462896    10685.946    3329.3623    3700.3759     4909.488     353.3949   -177.59959     142.3816   -5793.5258 
 9578000     118.5671   -6692.1419   -6387.1352   -6692.1419            0    4169.3719    23.162013    21.345517    21.650023    10703.883    4907.8283    4119.8163     3480.471   -506.10458    453.78127    -834.1273   -5736.2748 
 9579000     112.6657   -6709.3663   -6419.5406   -6709.3663            0    4462.2339    23.182854    21.372385    21.552005    10678.434    4336.3367    4776.5502    4273.8148   -205.35818    1023.9789    68.296563   -5724.6191 
 9580000    119.60695   -6690.9226    -6383.241   -6690.9226            0    5612.6594    23.075463    21.249653    21.738682    10659.467    5861.3963    6176.7072    4799.8747    627.57409    393.16839   -311.52787   -5510.7117 
 9581000    117.07533   -6714.9271    -6413.758   -6714.9271            0    3902.8966    23.249893    21.387372    21.480274    10681.154    3878.9459    3467.3338    4362.4103    350.29149   -460.16501   -145.13112   -5805.7894 
 9582000    118.63105   -6716.8606   -6411.6894   -6716.8606            0    3805.5884    23.095695    21.387799    21.686577    10712.433    4468.6892    3398.6608    3549.4151     -145.988    523.75302    349.48994   -5817.1429 
 9583000    121.36481   -6719.3746    -6407.171   -6719.3746            0    4751.8291    23.200494    21.346976    21.514571    10655.315    5383.5644    4320.5508    4551.3722   -372.68322     108.6844    -123.5941   -5668.7518 
 9584000     123.3879   -6700.9572   -6383.5493   -6700.9572            0    4414.3902    23.138108    21.235015    21.761366    10692.188    4771.1496     4851.022    3620.9989    338.56459   -674.12276    -375.1504   -5695.1932 
 9585000    119.30049   -6716.9087   -6410.0155   -6716.9087            0    4204.0562    23.260237    21.318631    21.536225    10679.306    4138.8788    4032.7413    4440.5486   -11.099009    303.29636    150.54476   -5755.2475 
 9586000    116.68255    -6713.343   -6413.1843    -6713.343            0    5064.8608     23.14092    21.254645    21.670739    10658.797    5086.3823    5036.4205    5071.7797   -32.240732    110.31716     133.6072   -5625.8637 
 9587000    115.18596   -6714.7923   -6418.4834   -6714.7923            0    4090.7403    23.302526    21.273388    21.564372    10689.969    3434.3196    4534.4197    4303.4814    72.400545    -416.5733   -317.62668   -5780.7278 
 9588000    117.89823   -6704.6143   -6401.3283   -6704.6143            0    4437.7177    23.280287     21.20692    21.613647    10670.726    4337.0304    4623.2748    4352.8479   -84.995912   -227.22176   -894.75729   -5710.7236 
 9589000    113.25677   -6721.0884   -6429.7423   -6721.0884            0     4133.444    23.321747    21.227344    21.598071    10692.314    3928.9794    4218.8822    4252.4704   -57.476014    206.88942    9.5090044   -5785.1877 
 9590000    121.21759   -6724.2002   -6412.3753   -6724.2002            0    3664.2857    23.336479    21.245005    21.558776    10688.488    2826.1517    3967.3414    4199.3641    -260.8363    352.45068    140.44431   -5841.1841 
 9591000      118.005   -6723.3527   -6419.7921   -6723.3527            0    4240.9432    23.211126    21.265506    21.631634    10677.296    4231.7061    4306.6903    4184.4331   -259.15689   -260.61363    238.83293   -5759.4034 
 9592000    115.71462   -6703.2594   -6405.5906   -6703.2594            0    4042.6248     23.18129    21.391935    21.573769    10698.273      4120.74    3448.3296    4558.8049   -393.30709    487.62138    249.94262   -5774.8468 
 9593000    123.98759   -6727.1176    -6408.167   -6727.1176            0    3928.9536    23.072838    21.497803    21.554701    10691.462    4782.3139    3236.0632    3768.4837    678.52804   -384.20526   -799.37852   -5795.5488 
 9594000    119.37427   -6701.2101   -6394.1271   -6701.2101            0    5638.7008    22.986158    21.430847    21.583879    10632.496    6758.3261     5541.576    4616.2002    338.64177   -495.97755    65.472664   -5519.7673 
 9595000    116.37674   -6721.8427   -6422.4706   -6721.8427            0    5248.2643    23.081148    21.370208    21.548206    10628.629    5678.0936    4589.5694    5477.1297    319.16855   -397.34999   -208.66646   -5608.9495 
 9596000    120.46583   -6705.0404   -6395.1494   -6705.0404            0    3950.7323    23.056274      21.4646    21.634133    10706.596    4895.4767    4246.8266    2709.8938    377.83949    290.53482   -484.52743   -5778.2634 
 9597000     114.9157   -6706.4008   -6410.7871   -6706.4008            0    2917.3052    23.198403    21.419804    21.629624    10747.874    2915.6448    3385.4659    2450.8049   -362.38602    352.86685    489.87913   -5953.5091 
 9598000    116.73954   -6723.6069   -6423.3016   -6723.6069            0    5041.0146    23.266152    21.241994    21.560195    10655.468    4278.8501    4907.5655     5936.628    576.74043    67.950731    308.95345   -5639.9326 
 9599000    117.47474   -6709.7533   -6407.5567   -6709.7533            0    2929.0493    23.337486     21.24676    21.670024    10744.994    3282.7464    2561.0006    2943.4009    12.037818   -782.02718    645.97654   -5948.5608 
 9600000    116.43925    -6717.808   -6418.2751    -6717.808            0    4993.3294    23.235972    21.184231    21.640057     10652.02    4773.5727    5484.4454    4721.9702    184.58331    271.35971    12.016718   -5642.5674 
 9601000    117.65111   -6722.6065   -6419.9562   -6722.6065            0    5299.6682    23.253307    21.174776    21.589731    10630.429    5496.9267    5324.1969    5077.8811   -211.87629    705.31216    47.118149   -5598.3279 
 9602000    121.24443   -6719.7138   -6407.8199   -6719.7138            0    3911.3824    23.281302    21.321554    21.568009     10706.22    4105.4845    4036.0079    3592.6547   -803.02876    258.88922   -591.16227   -5797.0996 
 9603000    118.46497   -6699.3552   -6394.6113   -6699.3552            0    3915.6318    23.271647    21.340899    21.561683    10708.348    3900.4983    4255.3271    3591.0699   -924.76421    533.86957   -379.94738    -5783.106 
 9604000    118.91201   -6707.3708   -6401.4769   -6707.3708            0    4827.6692    23.073434    21.390109    21.615892    10668.378    6057.0574    4030.9878    4394.9622   -517.63715    199.45919    536.23447   -5650.3526 
 9605000    115.46502   -6698.2136   -6401.1869   -6698.2136            0    3895.5137    23.069165    21.502077    21.594675    10711.714    3984.5017    3169.9817    4532.0578   -234.76952   -151.00939   -138.27259   -5792.6322 
 9606000    117.66981   -6716.8638   -6414.1653   -6716.8638            0    5304.9916    23.105653    21.399383    21.519057    10640.027    6004.5805    4302.0837    5608.3105   -151.74223   -115.85375   -22.531061   -5590.9692 
 9607000    121.90646   -6724.8586   -6411.2616   -6724.8586            0    4632.8751    23.014988    21.500351    21.579706    10678.293    5631.5815    3564.6563    4702.3876   -262.91297   -663.03484   -206.01181    -5689.775 
 9608000      116.341   -6708.6018   -6409.3217   -6708.6018            0     4547.322    23.068103    21.446084    21.575818    10673.999    4861.0619    4230.3326    4550.5715     247.0724   -413.62117   -15.457707   -5701.4431 
 9609000    116.29373   -6719.4339   -6420.2754   -6719.4339            0    3392.7695    23.144706    21.411594    21.647507    10727.748    3168.2771    3771.8985    3238.1329   -140.22051    935.15355   -488.80124   -5889.4657 
 9610000     113.2209     -6703.79   -6412.5361     -6703.79            0    5298.1171    23.234097     21.40451    21.413125    10649.057    4944.1842    6090.1588    4860.0083   -164.43519     237.6558   -1072.4751    -5589.709 
 9611000       118.37   -6707.5412   -6403.0416   -6707.5412            0    4158.8101    23.208503    21.233724    21.703002    10695.303    4361.7311    4337.9683    3776.7308    550.07458    114.09797   -316.78508   -5754.3503 
 9612000    118.96389   -6711.3566   -6405.3293   -6711.3566            0     4522.384    23.247417    21.282197    21.573307    10673.525    4619.2504    3761.7644    5186.1371    -951.9945    471.47471    850.98944    -5701.364 
 9613000    121.60986   -6718.7179   -6405.8839   -6718.7179            0     3588.594    23.352376     21.14219    21.724446    10725.801    3029.4883    4650.0729    3086.2209   -587.95499    538.60521   -109.24956   -5844.5388 
 9614000    117.52648   -6699.5831   -6397.2534   -6699.5831            0    4833.6077    23.417648    21.143121    21.553888    10671.807    4175.9771    5259.5848    5065.2612   -220.76842    220.32029    51.215118   -5644.9634 
 9615000    118.26157   -6703.5704   -6399.3497   -6703.5704            0     4663.037    23.269519    21.182823    21.662136    10677.573    4493.1072    5344.3648    4151.6392    227.41833   -743.88629   -237.07657   -5673.2148 
 9616000    115.94854   -6724.1594   -6425.8888   -6724.1594            0    4207.6347    23.309168    21.239028    21.576918    10681.957    4010.9926    3624.2186    4987.6929   -273.55412    152.23038     1192.647   -5770.4008 
 9617000    112.66572   -6726.1683   -6436.3427   -6726.1683            0    4558.3906    23.158587    21.323644    21.604604    10668.904    5340.6138    4472.3868    3862.1712   -1236.7871   -526.57988   -354.12167   -5727.0798 
 9618000    111.21004   -6711.1116   -6425.0305   -6711.1116            0    3625.5267    23.210335    21.417844    21.547629    10711.657    3922.4035     2950.186    4003.9906   -758.97862   -329.65657     227.5577   -5858.6561 
 9619000    117.09866   -6710.5578   -6409.3287   -6710.5578            0    4769.1237    23.066311    21.419003    21.599757    10671.519     5264.013    3738.7505    5304.6076    976.40968     26.97098    440.10368   -5667.0948 
 9620000    120.23209   -6717.3732   -6408.0835   -6717.3732            0    3932.6613     23.05202     21.47817    21.577882    10683.538    3776.3242    3310.5479    4711.1117   -16.736872     685.6731    869.96281   -5795.3417 
 9621000    119.68043   -6718.4853   -6410.6147   -6718.4853            0    4648.8333    23.071944    21.429184    21.590889    10674.815     5659.416    4177.5325    4109.5514   -169.54375    -14.46485   -870.80287   -5686.8787 
 9622000    121.89206   -6701.1551   -6387.5952   -6701.1551            0     4439.185    23.097926    21.461608    21.521129    10668.425    4625.4735    3951.1256     4740.956     103.0037    -606.4127    88.482523   -5696.9111 
 9623000    113.48235   -6702.5754    -6410.649   -6702.5754            0    4959.3543    23.080736    21.387624    21.607525    10666.384    5650.9271    4921.9383    4305.1976    104.10175   -188.65227    3.9962107   -5639.1804 
 9624000    118.66894   -6706.2814   -6401.0127   -6706.2814            0    3910.2683    23.216377    21.364231    21.588534    10707.913    2814.8798    4349.1005    4566.8245    1401.2347    303.07598    62.658804   -5790.3699 
 9625000    120.94533   -6706.0204   -6394.8959   -6706.0204            0     4116.442    23.149751    21.333119    21.671688    10702.702    4933.1436    3817.7561    3598.4262   -438.54191   -424.24547    371.87695    -5752.369 
 9626000    116.96076   -6709.6161   -6408.7417   -6709.6161            0    4528.6801    23.345219    21.178148    21.595227    10676.864    2906.0859    5202.9782     5476.976    440.10092    79.185453     554.0488   -5703.5759 
 9627000    118.82489   -6715.8027    -6410.133   -6715.8027            0    4251.1776     23.31094    21.192732    21.634837    10688.096    3909.3245    4762.0621    4082.1462    454.26356   -89.337009   -474.80936    -5747.481 
 9628000    117.11945   -6710.5126     -6409.23   -6710.5126            0    5040.1787    23.270172    21.253088    21.563831    10664.673    4900.6852    5625.9662    4593.8846   -162.51753   -124.49029    42.683345   -5625.3143 
 9629000    118.29505   -6689.7126   -6385.4058   -6689.7126            0    4109.7644    23.328024    21.237624    21.603161    10702.893    3965.9143    4202.0134    4161.3654   -351.25941    201.65777    565.45737   -5743.9098 
 9630000    114.89972   -6725.2253   -6429.6528   -6725.2253            0    4233.9416    23.154527    21.243625    21.712824    10680.236    4132.2658    4603.3129     3966.246    295.99715    842.45842   -201.80417   -5770.1728 
 9631000    118.09711   -6727.2962   -6423.4986   -6727.2962            0    4755.9213    23.087731    21.456781    21.495085    10648.415    5014.4184    4163.5973    5089.7483    100.74911   -245.88527    357.63297   -5684.9221 
 9632000    121.27102   -6698.5077   -6386.5454   -6698.5077            0      5138.34    23.044725    21.429413    21.594671    10664.203    6157.2623    4531.3002    4726.4576    44.992263    129.39754    93.921696   -5587.3975 
 9633000    123.16532    -6715.731   -6398.8957    -6715.731            0    4064.5455    23.163976    21.507589    21.446649    10684.748    4111.1192    3733.8646    4348.6527    746.83548   -359.67233   -87.386968   -5765.5335 
 9634000    112.30379   -6715.0984   -6426.2037   -6715.0984            0    4951.6363    23.105763     21.34254     21.61771    10660.464    4883.0196    5023.1353    4948.7539   -200.40161    589.13536   -257.30176   -5656.3633 
 9635000    117.37682   -6724.3227    -6422.378   -6724.3227            0    3855.9339    23.181165    21.411903    21.571905    10707.277    4490.9736    2843.2588    4233.5693    504.86982   -281.42737    240.05892    -5820.256 
 9636000    120.82092   -6706.5358   -6395.7313   -6706.5358            0    3960.9557    23.171367    21.384588    21.574168    10690.219    3646.6352    4031.3499    4204.8821    -1644.483    724.22429    143.28686   -5778.1951 
 9637000    114.47212    -6705.809   -6411.3364    -6705.809            0    4829.2964    23.235089    21.307672    21.568336    10678.174    4608.4877    4751.2905     5128.111    58.798549   -572.16944   -105.42612   -5659.2691 
 9638000    119.33301   -6726.1914   -6419.2145   -6726.1914            0    4229.9826    23.166553    21.201684    21.728815    10672.541    5374.3937     4771.686    2543.8681   -1443.9849    -153.1812   -166.61816   -5760.8259 
 9639000    116.43564   -6713.9507   -6414.4271   -6713.9507            0    4061.3348    23.317132    21.274058    21.542739    10686.276    4342.2894    3591.3836    4250.3314    47.650099   -1192.6607    706.91208   -5781.4747 
 9640000    122.75654   -6723.6764   -6407.8926   -6723.6764            0    4594.8235    23.241881    21.232164    21.648346    10682.927    4240.3908    4877.9427    4666.1371   -717.62877    269.71233    11.291572   -5692.0213 
 9641000    117.59989    -6720.673   -6418.1544    -6720.673            0    4276.4715    23.325394    21.301594    21.520252    10692.726    4016.8354    4222.0519    4590.5273    616.66005   -669.40943    346.41956    -5751.271 
 9642000      118.928   -6710.1939   -6404.2588   -6710.1939            0    5170.0919    23.110096    21.252169    21.700057    10657.759    5182.7913    5592.2698    4735.2145   -507.27546   -221.24107    451.24163   -5600.6586 
 9643000    117.42867   -6707.4359   -6405.3578   -6707.4359            0    3681.1988    23.255733     21.40301    21.512795    10707.837    3891.8567    3136.2084    4015.5314    350.08083    111.24198    207.38208   -5830.4914 
 9644000    116.22651   -6710.3344   -6411.3487   -6710.3344            0    4664.4396    23.102155    21.368035     21.64763    10686.302    5014.6301    4196.2108    4782.4779   -870.19008    860.58923    108.28091   -5684.4017 
 9645000    120.02158   -6696.8744   -6388.1262   -6696.8744            0    5733.5083    23.131106    21.459198    21.431646    10638.133    5804.1321    5265.0541    6131.3386   -395.88018   0.66078072    687.56989   -5498.5939 
 9646000    117.12886    -6716.493   -6415.1861    -6716.493            0    3689.4088    23.189378    21.332063    21.683877    10726.521     3887.763     3189.367    3991.0965   -768.01898    700.31219    726.89378   -5838.0323 
 9647000    116.50547   -6717.0436   -6417.3404   -6717.0436            0     4694.909    23.233481    21.368012    21.469226    10658.468    3917.8774    4939.3675    5227.4822    505.38077    184.37196    519.24471   -5687.5504 
 9648000    118.52694   -6727.9575   -6423.0542   -6727.9575            0    4759.8019    23.130194    21.305712      21.6629     10675.59    4365.8585    5738.6069    4174.9403    494.46322    54.881744   -907.63633   -5681.9885 
 9649000    119.11693   -6699.0539   -6392.6329   -6699.0539            0    3535.2697    23.290606    21.359484    21.560968    10726.049    2547.7041    3737.3003    4320.8048    899.03399    111.57879    223.28385   -5839.6162 
 9650000    115.77995   -6709.8617   -6412.0249   -6709.8617            0    4612.3191    23.146763    21.273896    21.660071    10665.892    4164.1812     6071.568    3601.2082    424.67097   -163.11664    6.3283318   -5694.5736 
 9651000    122.54999   -6709.4932   -6394.2408   -6709.4932            0    4581.9435    23.368407    21.310711    21.435176    10674.661    3490.1525    4913.0068    5342.6711   -878.46641    879.51032   -390.89475   -5680.9285 
 9652000    114.80239   -6713.8814   -6418.5592   -6713.8814            0    4620.6258    23.186107    21.269935    21.648637    10676.393    4770.0507    4611.5113    4480.3156   -888.30485    35.759737   -455.88066   -5699.1082 
 9653000    120.35523   -6702.3931   -6392.7866   -6702.3931            0     4140.184     23.30662    21.292522    21.533551    10686.169    3809.4673     4302.725    4308.3597    180.93642   -509.07193    -625.2807   -5747.5521 
 9654000     115.8505   -6706.8415   -6408.8231   -6706.8415            0    4129.9694    23.202791    21.251949    21.712047    10706.309    4702.1037    3158.8747    4528.9297   -35.012885   -738.91454    1062.9617   -5763.9675 
 9655000    115.56986   -6717.4165   -6420.1201   -6717.4165            0    4797.5825    23.259114    21.292477     21.51102    10653.206    4219.8039    4981.9862    5190.9574   -547.49189   -476.83177    -313.3814   -5674.7385 
 9656000    113.36516   -6723.2382   -6431.6132   -6723.2382            0     5459.057    23.224206     21.27148    21.515148    10628.768    6025.6175    5129.4126    5222.1408   -959.32811   -850.82089   -271.49192   -5585.4065 
 9657000    117.21746   -6716.9612   -6415.4265   -6716.9612            0    3963.1924    23.170986    21.295122    21.664762    10690.021    4229.2068    3486.8102    4173.5601   -768.23775     652.7107    274.95014   -5797.5529 
 9658000    118.21995   -6721.5922   -6417.4786   -6721.5922            0    4844.0744    23.166724    21.299664    21.581504    10649.252    4955.6173    5852.0096    3724.5964   -145.09083   -363.05989   -423.89966    -5665.153 
 9659000     118.5708   -6715.5553   -6410.5392   -6715.5553            0    3255.8856    23.287133    21.344033    21.594827    10733.522    3517.4471    3775.7095    2474.5001   -66.676106    112.82638   -433.99442   -5900.8713 
 9660000    118.04011   -6710.0993   -6406.4484   -6710.0993            0    5059.2041    23.185117    21.245884    21.601381    10640.588    4620.5948    6437.6497    4119.3679   -327.12906   -331.52911   -316.52834   -5621.3506 
 9661000    114.77817   -6723.3391   -6428.0793   -6723.3391            0    3093.1188     23.24986    21.322566    21.653467    10734.635    3600.2412    3290.3931    2388.7221   -161.28901   -75.754973   -301.36175   -5943.8403 
 9662000    120.86165   -6711.9738   -6401.0646   -6711.9738            0    5183.8298    23.258967    21.291483    21.455837    10625.314    5133.2316    4982.5086    5435.7491    484.65383    558.35117    220.96295   -5597.7819 
 9663000    114.12741   -6704.4611   -6410.8753   -6704.4611            0    4233.4438    23.091598    21.388242    21.665187    10700.191    4665.1751     4061.268    3973.8883   -122.22418   -231.91706    248.69693   -5750.2409 
 9664000    116.55552   -6712.1089   -6412.2769   -6712.1089            0    5025.0449    23.219952    21.343203    21.508795    10659.504    4744.7857     5574.797     4755.552    564.75292     29.73745    -378.3063   -5631.0938 
 9665000    122.02069   -6722.3807   -6408.4899   -6722.3807            0     4099.462    23.054366    21.418309    21.663285    10697.017    4820.9984    3584.3598    3893.0278   -714.66349    535.89505   -228.34068   -5768.9533 
 9666000    121.79882   -6703.9828   -6390.6628   -6703.9828            0    4754.0826    23.193626    21.426763    21.445996    10657.895    5222.8931    3896.3789     5142.976    771.29206     152.0272    373.44213   -5651.7145 
 9667000    116.10733   -6710.7556   -6412.0766   -6710.7556            0    4603.8824    23.117775    21.368258    21.656481    10698.011    4830.2967    4294.1707    4687.1796    373.66743    542.40796   -44.392773    -5693.781 
 9668000    118.61612   -6699.0806   -6393.9478   -6699.0806            0    3783.3158    23.261887    21.380146    21.530011     10707.79     3379.824    3592.3931    4377.7303   -1219.3823   -207.44799   -34.441854   -5803.1371 
 9669000    124.15187   -6702.5123   -6383.1392   -6702.5123            0    4533.2945    23.268571    21.188294    21.692406    10694.819    4189.5599    4815.1893    4595.1344   -365.04255     791.5036    146.42242   -5676.0679 
 9670000    118.10873   -6713.7572   -6409.9297   -6713.7572            0     4926.744    23.288064    21.275797    21.507026    10656.132    4046.0997    4720.6238    6013.5086    62.638575   -573.62602     211.5762   -5644.2705 
 9671000    118.99072   -6717.6364     -6411.54   -6717.6364            0    4109.4385    23.287232    21.234745    21.649279    10705.534    4191.8346    4113.4201    4023.0608    266.05698   -339.39294    202.16043   -5769.9365 
 9672000    120.95661   -6714.9564   -6403.8029   -6714.9564            0    5391.5098    23.390683    21.170198    21.485165     10639.14     4934.215    5717.0855     5523.229   -150.17856    -618.0894   -196.58157   -5567.2511 
 9673000    120.98359   -6725.7824   -6414.5595   -6725.7824            0     4093.972    23.331583    21.138575    21.705818    10705.231    3447.2526    4262.2286    4572.4346    -1500.004   -211.44769    176.18983   -5775.3889 
 9674000    114.07334   -6715.0079   -6421.5612   -6715.0079            0    4270.2376     23.30603    21.230238    21.599317    10687.182    4469.6244    4341.4572    3999.6311    275.17119   -274.09435    860.22569   -5755.9952 
 9675000    117.66675   -6709.2823   -6406.5917   -6709.2823            0    3629.3222    23.257589    21.295336    21.619282    10707.559    3664.7661    3902.4155     3320.785    330.08876   -369.60839    274.54267   -5839.8413 
 9676000    114.75037   -6714.9329   -6419.7446   -6714.9329            0     4733.307    23.088358    21.354939    21.648677    10673.891    5391.5193    4514.8463    4293.5556   -332.58955    352.52191    226.99184   -5682.9213 
 9677000    119.62413   -6697.5147   -6389.7889   -6697.5147            0    3824.0854    23.191797    21.439129    21.537855    10708.879    3609.8716     3454.238    4408.1467    791.33921   -120.78623    230.02457   -5792.5509 
 9678000    116.56203   -6703.6479   -6403.7992   -6703.6479            0    3564.6701    23.120409    21.410123    21.674275        10729    3983.8747    2809.6379    3900.4979   -675.22358    460.19997    202.77271     -5846.03 
 9679000    118.01229   -6707.3065   -6403.7271   -6707.3065            0    4889.5756     23.11739    21.421215    21.512158    10652.876    4665.4683    4921.2926    5081.9661    86.786487    330.59075   -736.46392   -5644.0764 
 9680000    117.85348   -6705.3361   -6402.1652   -6705.3361            0    4891.1424    23.074819    21.379521    21.593882    10652.879     5422.313    4768.6719    4482.4424    472.25149   -834.81054   -100.45784   -5642.2708 
 9681000    119.33017   -6720.9346    -6413.965   -6720.9346            0    3927.4083     23.20779    21.305633       21.603    10681.747    3758.2378    3937.5798    4086.4073    659.55935    138.07715    444.96395   -5802.1442 
 9682000    120.88145   -6709.9088   -6398.9487   -6709.9088            0    4346.7854    23.279913    21.191139    21.652351    10681.709     3928.613    4686.8905    4424.8527   -425.21014    150.83645    264.47558   -5721.7988 
 9683000    116.83145   -6718.6274   -6418.0856   -6718.6274            0    4331.7247    23.298359    21.266406    21.579133    10691.864    4776.5331    4334.7665    3883.8745   -545.33045   -608.22164   -1059.3264   -5742.6403 
 9684000    114.56016   -6709.7102   -6415.0111   -6709.7102            0    4606.9266    23.373633    21.115666    21.608588    10664.915    3553.4385    6744.8802    3522.4612   -742.12459    710.31978   -957.98917   -5698.4643 
 9685000    118.93859   -6703.0722   -6397.1099   -6703.0722            0    4621.1011    23.335197     21.14334    21.633555    10673.649    3728.2194    5673.1384    4461.9455    446.13264   -439.62853    468.66219   -5677.7698 
 9686000    120.45499   -6705.3159   -6395.4528   -6705.3159            0    4406.3194    23.253146    21.270943    21.621462    10694.329    4014.5354    4835.5295    4368.8933   -248.88248   -80.969781   -174.73331   -5708.2175 
 9687000    117.72635   -6724.9471   -6422.1033   -6724.9471            0    5352.3619    23.124152     21.35992    21.544735    10641.592    6242.6565    5019.3706    4795.0585   -22.383265   -934.42469   -373.46365   -5591.4344 
 9688000    121.15525   -6706.9737   -6395.3092   -6706.9737            0    3315.1701    23.147511    21.388454     21.69278    10739.867    3901.3048    3295.3115    2748.8941   -476.97496    739.70946   -213.52604   -5876.0543 
 9689000    115.96187   -6722.3584   -6424.0535   -6722.3584            0    4505.4925    23.100703    21.429461    21.517232    10651.796    4216.9962    4785.9319    4513.5493    478.86957   -147.47929    -111.4662   -5724.1455 
 9690000    126.51571   -6706.2243   -6380.7703   -6706.2243            0    3475.9066    23.192834    21.434311    21.563442    10719.671    3039.6253    3494.5904    3893.5041     640.4565    248.31257    314.68669   -5837.3631 
 9691000    121.67705   -6706.4751   -6393.4682   -6706.4751            0    4263.0324    23.093704    21.471685    21.564293    10692.886     4882.361    2860.1497    5046.5865   -193.84443    39.836115   -18.445406   -5728.6706 
 9692000    120.27032   -6708.6308   -6399.2427   -6708.6308            0    5373.1636    23.122233    21.414573    21.487507    10639.598    4767.0071    5570.6973    5781.7864    410.97716     10.72236    -548.3328   -5565.5017 
 9693000    121.63595   -6727.0707   -6414.1696   -6727.0707            0    4085.0044    23.095277    21.347915    21.686202    10692.079    4253.0858    4003.6356    3998.2919   -99.052765    225.14292    833.22412   -5777.1826 
 9694000    114.46036   -6700.1345   -6405.6922   -6700.1345            0    3980.8958    23.338881    21.325545    21.470295    10686.074     3257.784    4438.5998    4246.3036    1240.0185    79.510909   -204.23155   -5785.2878 
 9695000    119.93114   -6706.7217   -6398.2062   -6706.7217            0    5372.4455    23.169285    21.280529    21.613142     10656.46    5732.8114    5192.6444    5191.8808   -713.90768    216.13176    455.01762   -5563.2554 
 9696000    116.86498   -6713.6731   -6413.0451   -6713.6731            0    4438.0706     23.27858    21.282859     21.55795    10680.558    4043.6975    4115.7553    5154.7591    16.276076   -548.14475     293.8138   -5721.7491 
 9697000    118.44847   -6710.1252   -6405.4237   -6710.1252            0    3842.7732    23.259041    21.202546    21.681824     10692.41    3721.7975     3740.742    4065.7801    879.81462   -279.11219    365.82569     -5806.19 
 9698000    117.88405   -6704.9027   -6401.6531   -6704.9027            0    4366.8095    23.228055    21.358804    21.550087    10691.504    5642.2659    3136.8856    4321.2771   -230.37403   -1579.2964    940.99052     -5720.76 
 9699000    123.86177   -6714.4971   -6395.8703   -6714.4971            0    4637.5513    23.187202    21.297827    21.609865    10671.752     4206.995    5240.1239     4465.535   -86.421684    137.21231   -74.803252   -5674.0978 
 9700000    115.49948   -6712.7407   -6415.6253   -6712.7407            0    4041.8785    23.187844    21.443648    21.505665    10693.304    3251.5702      3521.59    5352.4753    760.96741   -347.97792     483.5764   -5785.2908 
 9701000    122.84231   -6719.9219   -6403.9175   -6719.9219            0    4141.9866    23.049482    21.484353     21.60251    10697.633     4603.251    3032.4635    4790.2452   -239.01883    774.87604    1087.4565   -5757.7096 
 9702000    122.11847   -6723.4734   -6409.3311   -6723.4734            0     4039.058    23.130788    21.445714    21.533197    10681.677    3493.5655    3693.2566    4930.3518    1178.4602   -220.02363   -328.04415   -5780.1213 
 9703000    111.70351   -6717.9886   -6430.6381   -6717.9886            0    4845.9686    23.029753    21.419587    21.642736    10676.098    5052.1495    4533.4891    4952.2671    278.75426    170.79196     524.6835   -5676.1211 
 9704000    119.51382   -6716.9707   -6409.5287   -6716.9707            0    4813.0765     23.21067    21.351424    21.497314    10653.657    5503.4292    3963.6254    4972.1749    456.75488   -982.12978    252.59489   -5661.7082 
 9705000    115.60507   -6716.9025   -6419.5155   -6716.9025            0    4610.8163    23.221537    21.268907    21.611515    10673.856    4211.6255    5737.1192    3883.7041   -335.29233    327.80152    -993.5062   -5701.7624 
 9706000    113.49904   -6720.1963   -6428.2269   -6720.1963            0    3313.7164    23.321701    21.208054    21.652142     10709.32    3154.4083    3376.6226    3410.1182   -204.58598   -198.64875    483.36852   -5910.6759 
 9707000    116.07664   -6719.1974   -6420.5973   -6719.1974            0    4399.4213    23.389947    20.990177    21.726082    10666.618    4119.3541      5456.32    3622.5899   -306.08063    474.84715     56.41203   -5736.2159 
 9708000    113.69672   -6697.5848   -6405.1069   -6697.5848            0    4898.8337    23.364887    21.159435    21.599938    10678.746    4410.0297    5474.1432    4812.3281    409.45769   -332.30213   -133.38634   -5642.1696 
 9709000     123.2624   -6713.8406   -6396.7556   -6713.8406            0     4318.416     23.27552    21.226788    21.615713    10679.557    3700.3568    4948.6932    4306.1979   -483.22376     566.2564   -230.49541   -5724.1606 
 9710000    113.82955   -6705.8165    -6412.997   -6705.8165            0    4264.8728    23.290805    21.265714    21.584513    10690.715    4181.3248    4040.0137    4573.2799   -444.57344   -397.04946   -121.64218   -5748.0474 
 9711000    120.54028   -6713.8698   -6403.7873   -6713.8698            0    3780.3789    23.303618    21.307743    21.583221    10717.094    2447.2376    4832.7532    4061.1458   -350.49333    345.11149   -312.12573   -5812.9223 
 9712000    115.01885   -6714.4985   -6418.6196   -6714.4985            0    4374.9663    23.141688    21.377608    21.602469    10687.043     5380.874    3791.9597    3952.0651    92.528614   -305.85377   -348.97241   -5736.7392 
 9713000    117.43278    -6714.509   -6412.4204    -6714.509            0    4201.9685    23.080656    21.440254    21.617303    10697.434    5432.0038    3517.3376     3656.564    534.63158    -614.3055    13.612434   -5756.8667 
 9714000    118.09046   -6711.8786   -6408.0981   -6711.8786            0    4624.7726    23.077596     21.46557    21.532356    10666.565    5333.8259    4013.3527    4527.1393    18.020336    271.29081    406.52824   -5688.6643 
 9715000    112.58623   -6715.5335   -6425.9123   -6715.5335            0    4713.5823     22.98222    21.512354    21.565927     10662.23    5292.2037    4078.7691    4769.7742    489.16807   -73.710838    337.45914   -5692.9612 
 9716000    114.35178   -6703.8298   -6409.6668   -6703.8298            0    4145.9742    23.003329    21.481783    21.635157    10691.067    4464.1647    3996.0703    3977.6877   -133.28291     470.2475   -720.07299   -5763.2338 
 9717000    121.97559   -6722.9579   -6409.1831   -6722.9579            0    4334.1198    23.178949    21.420562    21.474644    10662.292    4155.4617     3794.581    5052.3167    171.41153    321.70731   -295.00785   -5735.2336 
 9718000    124.42839   -6719.3414   -6399.2569   -6719.3414            0    4509.6882    23.192361     21.29734    21.628499    10683.086    4597.7165    4694.0351    4237.3129    768.13019    187.66949   -383.23687   -5696.6392 
 9719000    116.00205   -6711.4712    -6413.063   -6711.4712            0    3590.8905    23.338669    21.269279    21.564028    10704.312    2871.4221    4301.2359    3600.0135    -109.5722   -381.74525     291.9346    -5852.484 
 9720000    115.73377   -6726.7701    -6429.052   -6726.7701            0     4305.482    23.250976    21.214114    21.641387    10674.589     4204.071    4341.7094    4370.6656   -488.48663    919.63845   -110.82437   -5758.7835 
 9721000    118.69376   -6722.2731   -6416.9407   -6722.2731            0    4693.9157    23.404107    21.222901    21.474246    10666.323    4342.7938    4786.0868    4952.8666      -546.39   -412.16334   -741.44197   -5686.7674 
 9722000    120.15906   -6727.2013   -6418.0995   -6727.2013            0     4569.238    23.313309    21.114326    21.693412     10678.47    3916.8615    5963.8236    3827.0288   -434.26088   -1081.8566    -393.5849   -5706.5114 
 9723000    119.29453   -6727.9015   -6421.0236   -6727.9015            0    3925.6106    23.306484    21.216428    21.613943     10687.67     4008.167     3811.988    3956.6769   -684.28858   -175.08878     332.2125   -5809.1438 
 9724000     120.1097   -6703.0936   -6394.1187   -6703.0936            0    4794.1955    23.273321    21.259251    21.589949    10682.132    4639.7886    5004.1507    4738.6471   -669.73564    225.31905   -234.61505   -5647.2409 
 9725000    119.26489   -6721.0931   -6414.2914   -6721.0931            0    4575.7132    23.183316    21.378314    21.527846    10669.635    4708.9147     3893.369    5124.8558    926.44965   -757.97128   -593.07011   -5702.2844 
 9726000    117.55139   -6714.0559   -6411.6622   -6714.0559            0    4544.2632     23.14513    21.410136     21.54064    10674.257    5056.8827    3088.3094    5487.5974    348.97887   -196.50191    867.72569   -5704.2427 
 9727000    128.82965   -6714.2923   -6382.8858   -6714.2923            0     4171.497     23.07448    21.424267     21.62798    10691.874    5412.1299    3364.2116    3738.1495   -327.14934    695.97308   -242.28458   -5732.4242 
 9728000    123.24398     -6705.54   -6388.5024     -6705.54            0     3889.948    23.157132    21.416173    21.567681    10696.214    4911.0739    3189.0201    3569.7499   -1036.7799    379.25096   -1064.2926   -5781.6965 
 9729000    115.76222   -6699.5866   -6401.7953   -6699.5866            0    6092.1429    23.105625    21.432618    21.495055    10644.653    6033.2395    5255.0028    6988.1864   -208.24266   -624.62647   -376.70294   -5456.0429 
 9730000    122.44697   -6707.2548   -6392.2674   -6707.2548            0    4394.9633    23.103452    21.469008    21.561361    10694.612    4491.3064    4331.0344     4362.549    374.38876   -452.19851     69.04167   -5706.7852 
 9731000    122.74436   -6708.1349   -6392.3825   -6708.1349            0    5135.3205    23.104172     21.34204    21.624644    10662.899    5321.0539    4728.6027    5356.3049      477.306    167.75799    1312.9832   -5593.8019 
 9732000    120.35853   -6711.1516   -6401.5366   -6711.1516            0    3366.8931    23.174375    21.421918    21.596893    10721.552    3702.9753    3594.8924    2802.8117    715.55091   -571.43898   -31.028292   -5875.0796 
 9733000    118.11662   -6720.8168    -6416.969   -6720.8168            0    4181.7106    23.056444     21.38859    21.672704    10687.782    4663.4044    3941.6312    3940.0962    1236.3946   -263.94166    356.46807   -5765.1643 
 9734000    117.41712   -6710.1893   -6408.1409   -6710.1893            0    3215.1879    23.223686    21.443939    21.532906    10723.545    3251.3714    3086.2981    3307.8943    322.08421   -208.10453    81.011382   -5905.3115 
 9735000    121.55808   -6721.9146   -6409.2138   -6721.9146            0      5648.92    23.123166    21.242963    21.648949    10634.063    6609.6396    4948.8568    5388.2636    117.73694    561.73073     465.2492   -5533.1404 
 9736000    114.67226   -6707.2411   -6412.2537   -6707.2411            0    4550.5004     23.24505    21.298716    21.600903    10694.385    4481.4699    4894.3999    4275.6315    206.76296     45.34985    606.33767   -5702.5275 
 9737000    116.74715   -6720.1922   -6419.8673   -6720.1922            0    4040.6495    23.224839    21.270792    21.664245    10702.369    4440.3977    4319.2802    3362.2704    282.03935   -642.97415    81.431573   -5789.1903 
 9738000    122.22028   -6706.3269   -6391.9227   -6706.3269            0     5148.225     23.24851    21.286399    21.528631    10654.026     4988.715    4573.3546    5882.6055   -54.047198   -392.37439    572.14785   -5592.0016 
 9739000    120.15965   -6723.5528   -6414.4494   -6723.5528            0    3624.8316    23.307406     21.21101    21.686021    10720.997    3730.0514    3799.5079    3344.9355   -232.58911   -119.97106    50.071358   -5847.6897 
 9740000    119.89125   -6709.9004   -6401.4875   -6709.9004            0    4823.8914    23.276221    21.177431    21.625397    10659.819    4351.0812    5235.8919     4884.701   -34.651823    -143.5369    404.31958   -5651.5532 
 9741000    113.95156   -6707.7449   -6414.6115   -6707.7449            0    4554.9159    23.285659    21.272432    21.563677    10681.408    3530.7236    4796.6457    5337.3786   -322.41317    299.05015    194.18749   -5705.0586 
 9742000    119.89736   -6721.0325   -6412.6039   -6721.0325            0    4768.0663    23.284334    21.301917       21.497    10662.533    3876.0001    5808.7437     4619.455    389.19519   -11.853624   -1061.1302   -5671.1596 
 9743000    118.31401   -6707.5699   -6403.2143   -6707.5699            0    4303.3065    23.177074    21.331623    21.665455    10711.501    5067.8184    4511.4936    3330.6074    271.02319    -817.2044   -92.899473   -5730.9679 
 9744000     117.4154   -6710.4688   -6408.4248   -6710.4688            0    4015.8444    23.203478    21.288089    21.620418    10679.572    3773.4571    3526.7848    4747.2913    836.14793    149.33561    1678.9614   -5782.9546 
 9745000    124.21899   -6701.3933   -6381.8475   -6701.3933            0    5992.4631    23.155688     21.31316    21.560868    10640.739    6589.1295    5289.2105    6099.0493   -882.94978   -322.08007   -407.59591   -5451.9115 
 9746000    117.67602   -6720.0372   -6417.3228   -6720.0372            0    3470.2283    23.182662    21.406315    21.587029    10712.679    3559.1213    2427.0508    4424.5127    2.6589933   -45.381393    281.01391   -5875.1572 
 9747000    121.85824   -6718.4506   -6404.9777   -6718.4506            0    5188.7595    23.117805    21.320614    21.580553    10636.748    5115.0366    5092.6895    5358.5524    494.75184    737.30262    826.33552   -5600.0659 
 9748000    112.81388   -6690.9199    -6400.713   -6690.9199            0    4880.7156    23.102475     21.37608    21.607891    10670.849    5671.9261     5330.206    3640.0147   -963.89567    1269.9008    -820.1401   -5641.1596 
 9749000     118.1013   -6716.8437   -6413.0353   -6716.8437            0    4641.3944    23.093783    21.485983    21.511588    10673.891     5823.746    3582.8011    4517.6362   -68.441889   -235.55352   -295.76194   -5690.5199 
 9750000    124.74284   -6700.3019   -6379.4086   -6700.3019            0    4877.2858    23.014368     21.55883    21.528471    10681.628    5695.1026    4182.7149    4754.0399   -858.21628    91.115985   -807.54577   -5619.6221 
Loop time of 523.906 on 64 procs for 250000 steps with 1296 atoms

Performance: 82.458 ns/day, 0.291 hours/ns, 477.185 timesteps/s
99.1% CPU use with 64 MPI tasks x 1 OpenMP threads

MPI task timing breakdown:
Section |  min time  |  avg time  |  max time  |%varavg| %total
---------------------------------------------------------------
Pair    | 29.666     | 41.01      | 52.874     | 112.8 |  7.83
Bond    | 0.27886    | 0.28829    | 0.29768    |   0.8 |  0.06
Kspace  | 263.21     | 275.39     | 286.94     |  43.9 | 52.56
Neigh   | 1.5287     | 1.5427     | 1.5612     |   0.7 |  0.29
Comm    | 89.29      | 91.68      | 95.261     |  19.0 | 17.50
Output  | 0.7105     | 0.71092    | 0.71234    |   0.0 |  0.14
Modify  | 100.66     | 103.39     | 106.86     |  15.3 | 19.74
Other   |            | 9.892      |            |       |  1.89

Nlocal:        20.2500 ave          27 max          14 min
Histogram: 3 11 8 7 1 5 13 12 3 1
Nghost:        2624.84 ave        2656 max        2599 min
Histogram: 4 2 13 8 12 11 2 5 6 1
Neighs:        6535.86 ave        8722 max        4480 min
Histogram: 3 11 10 4 2 5 12 13 3 1

Total # of neighbors = 418295
Ave neighs/atom = 322.75849
Ave special neighs/atom = 2.0000000
Neighbor list builds = 3004
Dangerous builds = 0

unfix		3
unfix		2
unfix		1

write_data	data.final.${pid}
write_data	data.final.0
System init for write_data ...
PPPM initialization ...
  extracting TIP4P info from pair style
  using 12-bit tables for long-range coulomb (../kspace.cpp:340)
  G vector (1/distance) = 0.36683234
  grid = 30 40 32
  stencil order = 5
  estimated absolute RMS force accuracy = 0.0046770733
  estimated relative force accuracy = 1.4084867e-05
  using double precision FFTW3
  3d grid and FFT values/proc = 5168 640
Last active /omp style is kspace_style pppm/tip4p/omp
WARNING: Not all mixed pair coeffs generated from mixing. Use write_data with 'pair ij' option to store all pair coeffs. (../write_data.cpp:312)

write_restart   restart.lmp.${pid}
write_restart   restart.lmp.0
System init for write_restart ...
PPPM initialization ...
  extracting TIP4P info from pair style
  using 12-bit tables for long-range coulomb (../kspace.cpp:340)
  G vector (1/distance) = 0.36683234
  grid = 30 40 32
  stencil order = 5
  estimated absolute RMS force accuracy = 0.0046770733
  estimated relative force accuracy = 1.4084867e-05
  using double precision FFTW3
  3d grid and FFT values/proc = 5168 640
Last active /omp style is kspace_style pppm/tip4p/omp
Total wall time: 0:08:44
