LAMMPS (30 Jul 2021)
Processor partition = 0
  using 2 OpenMP thread(s) per MPI task
using multi-threaded neighbor list subroutines
variable        pid world 0 1
variable        phase world IceII IceIh

shell cd ${phase}
shell cd IceII
include Restart.lmp
echo both
log log.lammps
#include		in.partitions
include		in.temp
variable        temperature equal 222.60
variable	tempDamp equal 100.0
include		in.pressure
variable        pressure equal 2137.2
variable        pressureDamp equal 1000.0 # This is 1 ps
include		in.seed
variable        seed equal 745823

units		real
atom_style	full
box tilt large
read_restart	restart.lmp.${pid}
read_restart	restart.lmp.0
Reading restart file ...
  restart file = 30 Jul 2021, LAMMPS = 30 Jul 2021
  restoring atom style full from restart
  triclinic box = (-10.907766 -9.2528106 0.065724987) to (12.887766 12.242809 21.794274) with tilt (-9.1110406 2.0241260 2.8457026)
  4 by 2 by 4 MPI processor grid
  restoring pair style lj/cut/tip4p/long/omp from restart
  restoring bond style harmonic/omp from restart
  restoring angle style harmonic/omp from restart
  1296 atoms
  864 bonds
  432 angles
Finding 1-2 1-3 1-4 neighbors ...
  special bond factors lj:    0        0        0       
  special bond factors coul:  0        0        0       
     2 = max # of 1-2 neighbors
     1 = max # of 1-3 neighbors
     1 = max # of 1-4 neighbors
     2 = max # of special neighbors
  special bonds CPU = 0.002 seconds
  read_restart CPU = 0.010 seconds
include 	in.setup
variable	out_freq equal 1000
variable	out_freq2 equal 10000
variable	out_freq3 equal 1000

timestep	2.0

neigh_modify    delay 7 every 1

include		in.tip4p
# This is TIP4P/Ice

# create groups ###
group ox type 2
432 atoms in group ox
group hy type 1
864 atoms in group hy

# set charges - beside manually ###
set group ox charge -1.1794
Setting atom values ...
  432 settings made for charge
set group hy charge 0.5897
Setting atom values ...
  864 settings made for charge

# ### TIP3P Potential Parameters ###
pair_style lj/cut/tip4p/long/omp 2 1 1 1 0.1577 8.5
pair_coeff 1 1*2 0.000 0.000
pair_coeff 2 2 0.21084 3.1668
bond_style  harmonic
bond_coeff  1 450 0.9572
angle_style harmonic
angle_coeff 1 55 104.52
kspace_style pppm/tip4p/omp 1.0e-5
pair_modify tail yes

thermo          ${out_freq}
thermo          1000
thermo_style    custom step temp pe etotal epair emol press lx ly lz vol pxx pyy pzz pxy pxz pyz enthalpy

restart 	${out_freq3} restart.lmp.${pid} restart2.lmp.${pid}
restart 	1000 restart.lmp.${pid} restart2.lmp.${pid}
restart 	1000 restart.lmp.0 restart2.lmp.${pid}
restart 	1000 restart.lmp.0 restart2.lmp.0


include         in.dump
dump            myDump all atom ${out_freq2} dump.water.${pid}
dump            myDump all atom 10000 dump.water.${pid}
dump            myDump all atom 10000 dump.water.0
dump            myDump2 all dcd ${out_freq2} dump.dcd
dump            myDump2 all dcd 10000 dump.dcd
dump_modify     myDump append yes
dump_modify     myDump2 append yes


variable natoms 	equal  "count(all)"                        # NUMBER ATOMS
variable H      	equal  "enthalpy/v_natoms"                 # ENTHALPY-per-atom
variable Vol      	equal  "vol/v_natoms"                 # volume-per-atom
fix AVG all 		ave/time ${out_freq} 1 ${out_freq} v_Vol v_H file vol_enthalpy.dat
fix AVG all 		ave/time 1000 1 ${out_freq} v_Vol v_H file vol_enthalpy.dat
fix AVG all 		ave/time 1000 1 1000 v_Vol v_H file vol_enthalpy.dat


timer           timeout 10:00:00 every 1000
New timer settings: style=normal  mode=nosync  timeout=10:00:00

fix 		1 all shake 1e-6 200 0 b 1 a 1
Finding SHAKE clusters ...
       0 = # of size 2 clusters
       0 = # of size 3 clusters
       0 = # of size 4 clusters
     432 = # of frozen angles
  find clusters CPU = 0.000 seconds
fix             2 all nph tri ${pressure} ${pressure} ${pressureDamp}
fix             2 all nph tri 2137.2 ${pressure} ${pressureDamp}
fix             2 all nph tri 2137.2 2137.2 ${pressureDamp}
fix             2 all nph tri 2137.2 2137.2 1000
fix             3 all temp/csvr ${temperature} ${temperature} ${tempDamp} ${seed}
fix             3 all temp/csvr 222.6 ${temperature} ${tempDamp} ${seed}
fix             3 all temp/csvr 222.6 222.6 ${tempDamp} ${seed}
fix             3 all temp/csvr 222.6 222.6 100 ${seed}
fix             3 all temp/csvr 222.6 222.6 100 745823


run             250000
PPPM initialization ...
  extracting TIP4P info from pair style
  using 12-bit tables for long-range coulomb (../kspace.cpp:340)
  G vector (1/distance) = 0.36705692
  grid = 30 40 32
  stencil order = 5
  estimated absolute RMS force accuracy = 0.0045296433
  estimated relative force accuracy = 1.3640886e-05
  using double precision FFTW3
  3d grid and FFT values/proc = 7888 1280
Last active /omp style is kspace_style pppm/tip4p/omp
Neighbor list info ...
  update every 1 steps, delay 7 steps, check yes
  max neighbors/atom: 2000, page size: 100000
  master list distance cutoff = 10.8154
  ghost atom cutoff = 10.8154
  binsize = 5.4077, bins = 7 5 5
  1 neighbor lists, perpetual/occasional/extra = 1 0 0
  (1) pair lj/cut/tip4p/long/omp, perpetual
      attributes: half, newton on, omp
      pair build: half/bin/newton/tri/omp
      stencil: half/bin/3d/tri
      bin: standard
Setting up Verlet run ...
  Unit style    : real
  Current step  : 3750000
  Time step     : 2
  Walltime left : 9:59:59.94
Per MPI rank memory allocation (min/avg/max) = 10.64 | 10.65 | 10.65 Mbytes
Step Temp PotEng TotEng E_pair E_mol Press Lx Ly Lz Volume Pxx Pyy Pzz Pxy Pxz Pyz Enthalpy 
 3750000    234.15789   -6381.8002   -5779.4433   -6381.8002            0    1158.0722    23.795532    21.495619    21.728549    11114.146    1104.3592    409.25027    1960.6072    -718.0651   -257.81829    791.82207   -5591.7332 
 3751000    224.05671   -6405.7508   -5829.3785   -6405.7508            0    942.74625    23.386005    21.740595    21.826151    11096.976    457.54997    1081.1381    1289.5507    316.10707   -483.34468    146.94262   -5676.8063 
 3752000    226.28362   -6396.4033   -5814.3025   -6396.4033            0    888.23092    23.542993    21.443591     22.00855    11110.935    1765.5282     1369.093   -469.92847    775.96554    566.33324   -239.41566   -5670.3721 
 3753000    223.70093   -6396.5461   -5821.0891   -6396.5461            0    2090.3319    23.305106    21.660805    21.893599     11052.05    3360.5344    716.60142      2193.86   -669.71461    413.03853    557.58741   -5484.1635 
 3754000    220.18144   -6424.4233   -5858.0199   -6424.4233            0    1459.3622    23.619578    21.491923    21.738673    11035.206    1759.3905    794.65144    1824.0445   -680.08166   -1528.3473    125.73807   -5623.1543 
 3755000    216.77922   -6386.3149   -5828.6636   -6386.3149            0    1241.9424    23.356157    21.698594    21.839184    11068.006    1523.9227    641.64252     1560.262    161.16337   -614.27325    629.23928   -5628.1948 
 3756000    227.30964   -6393.3038   -5808.5636   -6393.3038            0    1891.6587     23.56015    21.339211    22.024951    11073.154    1353.1469    3499.0668    822.76247    836.17743   -769.64404    -679.1718   -5503.0785 
 3757000     226.8958   -6417.8827   -5834.2071   -6417.8827            0    2325.4778      23.2464     21.64235    21.882255     11009.11      2689.27     1566.017    2721.1464    1327.0614    1314.4741   -315.12591   -5460.8364 
 3758000    220.35002   -6382.7125   -5815.8754   -6382.7125            0    2528.6062    23.594363    21.480916    21.815772    11056.856    1617.7861    2853.6669    3114.3657    309.93474    462.84916   -58.811373   -5408.1304 
 3759000    237.03771   -6394.2691    -5784.504   -6394.2691            0    2506.7529    23.305023    21.857995    21.628306    11017.483    2803.3497    1233.6732    3483.2358   -1701.4612   -394.41676   -306.81304   -5381.7222 
 3760000    220.84444   -6372.9556   -5804.8467   -6372.9556            0    2529.5651    23.563213    21.453633    21.785147    11012.752    2315.8278    1954.0347    3318.8327   -202.86956   -301.73564    1033.1755    -5398.574 
 3761000    229.51791   -6418.1889   -5827.7681   -6418.1889            0    2820.1771    23.241493    21.634216    21.817027    10969.852    3550.6631    2718.0968    2191.7715      714.448   -8.5100997   -201.75708   -5376.5848 
 3762000    227.20767    -6372.298   -5787.8201    -6372.298            0    2272.8473     23.51812    21.480365    21.848258    11037.255     517.5469    3567.6519    2733.3431    2394.0435   -645.43173   -575.01605   -5421.9666 
 3763000    221.94126   -6369.9188   -5798.9884   -6369.9188            0    2746.3035    23.398628    21.628492    21.793764    11029.323    3294.5973    2119.0513     2825.262   -506.15754    30.353692   -1092.4087   -5357.2417 
 3764000     220.4899   -6415.7759   -5848.5791   -6415.7759            0     2543.951    23.531373    21.358455    21.865022    10989.224    1269.8823    3567.3574    2794.6133    610.28172   -846.16022    91.649818   -5440.8688 
 3765000    230.12947    -6412.651   -5820.6569    -6412.651            0    2082.5251    23.224225    21.616524    21.907973    10998.394    2547.7303    2246.0685    1453.7765    -674.6445    -69.88594    451.75029   -5486.6193 
 3766000    225.25261   -6406.9026    -5827.454   -6406.9026            0    2271.1659    23.490298    21.422499    21.945059    11043.212     2421.792    2733.5537    1658.1518   -544.34541    424.70248   -36.197606   -5461.6738 
 3767000    224.88855   -6397.8333   -5819.3212   -6397.8333            0    2894.9306      23.3044     21.71959    21.759557    11013.861    3259.8357    1427.5436    3997.4124    1148.8437    189.46082   -43.796715   -5354.3205 
 3768000    214.88886   -6405.7672   -5852.9787   -6405.7672            0     1839.178     23.64078     21.43278    21.832243    11062.128    1002.8695    2282.4309    2232.2337    207.86755   -725.26105   -115.64547   -5556.2645 
 3769000    221.41578   -6395.1137   -5825.5351   -6395.1137            0    2502.4587     23.29832    21.670764    21.842544    11028.134    4021.2348    2081.7354    1404.4059    334.56416   -420.66195   -249.90588   -5423.0546 
 3770000    207.36386   -6369.8041   -5836.3732   -6369.8041            0    2441.8682    23.533401    21.415114    21.871463    11022.571    2205.4504    3533.9367    1586.2176   -359.66742   -179.15547    651.13607   -5443.8358 
 3771000    217.70466   -6417.7646   -5857.7327   -6417.7646            0    2628.3504    23.421521    21.620302    21.773304    11025.573    2982.1098    1858.4429    3044.4985   -293.58118    132.32156   -901.92332   -5435.1027 
 3772000    223.59597    -6390.664    -5815.477    -6390.664            0    2502.9361    23.536565    21.486708    21.825831    11037.831    2177.5113    3143.8011    2187.4957    941.93514    275.70103   -1219.6526   -5412.5658 
 3773000    218.62918   -6399.9903   -5837.5801   -6399.9903            0    1125.0448     23.41377    21.662066    21.884146    11099.434    648.55345    964.39806     1762.183   -49.541343    1391.2032   -177.50986   -5655.4647 
 3774000     232.0791   -6355.8352   -5758.8258   -6355.8352            0     875.4978    23.476844    21.547214    21.994666    11126.235    400.85201    1432.8755    792.76589    21.056574     249.0622    929.80755   -5616.7634 
 3775000    222.98288   -6363.0256   -5789.4157   -6363.0256            0    439.29673    23.455585    21.710206    21.836935    11119.926   -0.5032008    490.10809     828.2853   -619.30642    232.38818    63.801607   -5718.1738 
 3776000    221.13785   -6360.4326   -5791.5689   -6360.4326            0    2167.1465    23.483207    21.532801     21.91258    11080.298    796.37718    2920.2429    2784.8193    426.73296     128.6098    653.88708   -5441.3694 
 3777000    221.63243   -6374.6709    -5804.535   -6374.6709            0    871.34062    23.377562    21.584733    21.951373    11076.628    1458.2543    1058.4325     97.33501    6.8488185    213.07119    -300.1245   -5663.7775 
 3778000    214.67629    -6403.448   -5851.2063    -6403.448            0    1252.2482    23.581056    21.583127    21.732747    11060.945    1109.1616    396.95799    2250.6249   -18.391522    304.96818    175.26606    -5649.203 
 3779000    222.56989   -6420.9357   -5848.3882   -6420.9357            0    637.68103    23.527148    21.669093    21.689229    11057.428    31.878479   -456.27381    2337.4384   -627.16694    164.64216    39.752846    -5745.555 
 3780000    234.29272   -6388.2447   -5785.5409   -6388.2447            0    1900.5677    23.522844    21.500884    21.905294    11078.864    1507.9893    2680.1599    1513.5538   -223.30484   -937.74833     -237.418   -5478.4589 
 3781000    228.97731   -6382.7247   -5793.6945   -6382.7247            0    345.88215    23.260757    21.748195    22.069527    11164.521    2427.8309   -991.81387   -398.37059   -329.15396    -514.1004   -939.10186   -5737.3769 
 3782000    220.77298   -6383.0188   -5815.0938   -6383.0188            0    1136.8394    23.547498     21.56617     21.83912    11090.546    1298.7038    1135.2215    976.59292    378.14231   -932.63214    598.47857   -5631.2165 
 3783000    219.69214   -6393.0267    -5827.882   -6393.0267            0     2354.723    23.492128    21.614615     21.75896    11048.619    2501.4965    1922.8918    2639.7806    309.23322    143.63307    281.54116    -5448.459 
 3784000    225.36332   -6418.0872   -5838.3538   -6418.0872            0    1153.6397    23.512874    21.543874     21.80972    11047.897    1231.0173    901.75095    1328.1508      18.8489   -291.95039   -655.70269   -5652.4768 
 3785000    219.87633   -6414.0722   -5848.4537   -6414.0722            0    2220.6416    23.323223    21.486315    21.981418    11015.551    3159.4795    2086.7304    1415.7149    49.973291   -426.19568   -27.441916   -5491.7065 
 3786000    217.33824   -6404.3274    -5845.238   -6404.3274            0    2848.0857    23.307597     21.51541    21.941823     11003.22    3107.5491    3360.1232    2076.5849     421.0589   -133.42965     1480.621   -5388.2037 
 3787000    229.71676   -6409.3238   -5818.3915   -6409.3238            0    2958.0261    23.462669    21.531449    21.751106    10988.338    2626.1611    1561.8052    4686.1121     414.5962    624.61562    940.91397    -5344.357 
 3788000    223.43341   -6399.4563   -5824.6875   -6399.4563            0    2729.4944    23.416726    21.581478     21.80827    11021.192     3422.672    3176.4054    1589.4058    1240.3377   -753.65244    25.645036   -5385.9683 
 3789000    224.79218   -6406.5558   -5828.2916   -6406.5558            0    2607.6188    23.271408    21.522693    22.016194    11027.105    3123.2194    2644.2724    2055.3647    1157.0711   -150.54558    800.73361    -5408.937 
 3790000     224.5013   -6412.6484   -5835.1325   -6412.6484            0    2178.2099    23.372982    21.567504    21.797611    10988.108    1343.5769    3263.3003    1927.7527    587.22094    297.72181   -279.85032   -5486.0738 
 3791000     222.8975   -6411.5152    -5838.125   -6411.5152            0    2609.8764    23.506868    21.547392     21.73038    11006.691    2552.9643    2060.1461    3216.5187   -186.84449   -367.58233   -561.04256   -5419.1842 
 3792000    220.62424   -6399.0727   -5831.5303   -6399.0727            0    2102.0299    23.421075    21.585641    21.892167     11067.78    1937.3371     2560.069    1808.6837    582.94873    177.32664   -333.15734    -5492.237 
 3793000     231.0685   -6404.7635   -5810.3539   -6404.7635            0    3056.4177    23.226063    21.436974    22.065009    10986.091    4671.2102    3089.8498    1408.1929   -446.47347    -1090.196   -299.92228    -5320.652 
 3794000    221.37135   -6384.4546   -5814.9903   -6384.4546            0    3742.7891    23.414722    21.435508     21.81065    10946.906    3731.1451     2595.621    4901.6012    1893.6724    915.49822    678.96461   -5217.4562 
 3795000    218.15296   -6444.3355   -5883.1503   -6444.3355            0    2261.0394    23.399697    21.531056    21.792082    10979.291    2739.3815    1403.2958    2640.4408    896.29243   -182.44874    14.164494   -5521.1088 
 3796000    223.49235   -6388.6758   -5813.7554   -6388.6758            0    2385.0718     23.41788    21.441491    21.991479    11042.235    2980.7613    2174.8297    1999.6245    701.24769    481.10685    238.92336   -5429.6642 
 3797000    226.99641   -6429.1157   -5845.1812   -6429.1157            0    2722.8286    23.242767    21.517582    21.972671    10989.151    3393.5845    3476.0333    1298.8681   -570.37848    -649.1442   -721.55037   -5408.8058 
 3798000    221.88539   -6378.5559   -5807.7692   -6378.5559            0    3937.2835    23.528153    21.217926    21.969507    10967.587     3616.811    4758.5604    3436.4791   -65.330562    611.55191   -172.68409   -5177.9967 
 3799000    224.32666   -6382.6992   -5805.6325   -6382.6992            0    3066.8482    23.330049    21.558213    21.898357     11013.87     3067.849    3375.9755    2756.7201    1624.5582   -349.05926   -893.00484    -5313.017 
 3800000    226.08011   -6404.3726   -5822.7953   -6404.3726            0    3267.4811    23.499673    21.463815    21.759413    10975.287    2214.5163    3525.8838    4062.0431    1059.0544   -28.718331   -384.90438   -5299.7914 
 3801000    230.91449   -6384.6768   -5790.6633   -6384.6768            0     2335.125    23.375683    21.566763    21.860475    11020.692    2939.0806    2918.9624    1147.3319    778.31926   -467.24871    655.59346   -5415.3492 
 3802000    221.93113   -6417.9431   -5847.0388   -6417.9431            0    1739.7943    23.391092    21.480482     21.93994    11023.765    1978.0226    1968.4835    1272.8767    558.47172   -1565.0015    1485.4689   -5567.3315 
 3803000    215.91935   -6402.1275   -5846.6882   -6402.1275            0    2907.6019     23.42024    21.543258    21.783578    10990.867    2660.2694    2714.0316    3348.5047    -204.3345    -121.4678   -95.827458   -5380.6272 
 3804000    232.88542   -6404.9527   -5805.8691   -6404.9527            0    1785.0419    23.515616    21.563334    21.787518    11047.908    1248.4104    1404.4484    2702.2669    786.90242    325.01767    528.11916   -5518.2589 
 3805000    222.63993   -6381.9257   -5809.1981   -6381.9257            0    2384.3789    23.449228    21.503642     21.84871    11017.077    1944.1962    3452.6778    1756.2629    772.31248   -174.44045    479.30213   -5426.0933 
 3806000    235.56664   -6392.9706   -5786.9898   -6392.9706            0    1786.4121    23.458013    21.494742    21.941033    11063.194     1561.671    2720.2349    1077.3304    -165.1166   -1089.4549    386.08718   -5498.7605 
 3807000    227.38374   -6407.2061   -5822.2753   -6407.2061            0    2870.4341    23.418121      21.5873    21.776578    11008.801    2216.9711    3103.4463    3290.8849   -268.35036   -669.03937   -594.38688   -5361.4212 
 3808000    224.23572   -6403.0975   -5826.2648   -6403.0975            0    3013.0418    23.403152    21.561409    21.787006    10993.831    3352.9869    2833.8383    2852.3002    26.097434    212.23926    84.745672   -5343.1725 
 3809000    234.09484    -6416.633   -5814.4383    -6416.633            0    2353.0909    23.453294      21.4446    21.846722    10987.733    1091.4942    3332.0113    2635.7673    166.70292    332.13964   -852.54585   -5437.3677 
 3810000    218.86609   -6417.1477   -5854.1281   -6417.1477            0    2173.3665    23.251352    21.642944    21.845631    10993.327    2555.6916    1541.9688    2422.4392   -103.43163    394.29422    402.80424     -5505.68 
 3811000    214.39032   -6374.2422   -5822.7362   -6374.2422            0    1886.9709    23.511448    21.479062    21.896888    11058.012    1612.2202    2865.2957    1183.3969   -166.01697    237.24748   -294.40696   -5518.4248 
 3812000    225.96933    -6384.889   -5803.5967    -6384.889            0    1022.2075    23.404189    21.686958    21.874399    11102.694    476.22478    819.44483    1770.9528   -600.35818    493.12109    572.58709   -5638.0794 
 3813000    231.24054   -6369.2591   -5774.4069   -6369.2591            0    1757.9829    23.499495    21.523147     21.94869    11101.276    2798.6206    1617.3664    857.96182   -239.68005     102.1148    357.61492   -5489.7882 
 3814000    220.09734   -6392.3836   -5826.1966   -6392.3836            0    2387.0003     23.33969    21.592573    21.940226    11057.083    2692.6119    2441.8022    2026.5869    118.37461    390.54636 -0.068034073   -5441.2779 
 3815000    220.29505    -6430.957   -5864.2614    -6430.957            0    1807.1581    23.578756    21.550528    21.716783     11035.05    1184.3644    2250.9897    1986.1204    583.46016     84.72577   -682.53218   -5573.4266 
 3816000    233.55389   -6392.2335   -5791.4303   -6392.2335            0    1197.3779     23.46767    21.633579     21.86566     11100.97    894.03637     453.1188    2244.9784    20.662195   -726.41334   -10.284914   -5597.5793 
 3817000    210.17616   -6402.9873   -5862.3219   -6402.9873            0     2327.278    23.412515    21.493015    21.974243    11057.561    1911.9439    3204.2175    1865.6726   -516.07599    631.68329   -363.44594   -5487.0177 
 3818000    213.65068   -6400.0982   -5850.4948   -6400.0982            0    1212.5088    23.395874    21.570851    21.948312    11076.631    802.45349    1436.6601    1398.4127   -259.43085   -1548.6276   -713.54424   -5654.6246 
 3819000    212.57292   -6417.5097   -5870.6788   -6417.5097            0    1601.4056    23.538799    21.627225     21.69514    11044.538    965.99994    1804.4706    2033.7464    419.20344   -631.54519   -1218.0865   -5612.7352 
 3820000    225.20379    -6415.826   -5836.5029    -6415.826            0    1955.2135    23.477561    21.476055    21.873813    11028.895    1580.9107    2140.6287    2144.1013    1029.7812    837.50872   -411.00534   -5522.0164 
 3821000    222.56654   -6393.9096   -5821.3707   -6393.9096            0    1463.8921    23.358489    21.602867    21.957048    11079.753    1605.4454    1456.8279    1329.4031    23.878498    450.65528    181.27326    -5584.825 
 3822000    237.37044   -6382.0836   -5771.4626   -6382.0836            0    1881.3604    23.452444    21.517645    21.954844    11079.322     1743.682    1903.8059    1996.5933   -155.63156   -441.42602    469.61437   -5467.4714 
 3823000    216.89112   -6409.0341   -5851.0949   -6409.0341            0    1897.5486    23.311495     21.72391    21.785573     11032.58    3469.3223    441.67652    1781.6468   -394.98597   -662.52132    287.30069   -5545.7815 
 3824000    232.15072   -6428.7789   -5831.5853   -6428.7789            0    1602.4105    23.591079    21.333128    21.952427    11048.031    1253.0288    2314.4707     1239.732    112.96012     1139.058   -219.59725   -5573.3982 
 3825000    222.32325   -6396.0032   -5824.0902   -6396.0032            0    3177.2137    23.291933    21.602869    21.828792    10983.649    4072.3345    2167.1919    3292.1146   -280.02107    50.407453   -44.272558   -5315.1474 
 3826000    225.24528   -6413.7613   -5834.3315   -6413.7613            0    2534.3024    23.455564    21.465394    21.845332    10998.752    2754.3408    2295.4471    2553.1193    162.02085   -873.86623   -204.15274   -5427.8155 
 3827000    225.00406   -6423.6871   -5844.8779   -6423.6871            0    3001.7052    23.433516    21.605697    21.671705    10972.329    2096.2114    3387.3923     3521.512    387.37367   -138.21785    577.03167   -5364.5446 
 3828000    229.41013    -6380.909   -5790.7654    -6380.909            0    2121.6532    23.581423    21.560813    21.664449    11014.956    1495.6963    2560.9078    2308.3554    146.27671    154.37197    64.720957   -5449.9392 
 3829000    215.93238   -6398.6468   -5843.1739   -6398.6468            0     4117.569    23.292004     21.54151    21.767428    10921.697    4327.0732    4290.3569    3735.2768   -757.17227   -250.81714    226.31899   -5187.3203 
 3830000    231.61556   -6381.8196   -5786.0027   -6381.8196            0    2828.5203    23.418193    21.435918    22.005742    11046.672    2791.4906    3251.4513    2442.6189   -708.02412   -899.93412   -99.871898   -5330.3157 
 3831000     222.2661   -6409.4525   -5837.6865   -6409.4525            0    3039.2636    23.246569    21.624993    21.800247    10959.134    3183.6839    2599.9927     3334.114    516.37426     185.1748   -509.76322   -5351.9279 
 3832000    223.37919   -6411.2198   -5836.5904   -6411.2198            0    1959.6519    23.589422    21.516997    21.666613    10997.399    572.66381     2634.587    2671.7048    352.66611    1114.3331      620.522   -5522.2901 
 3833000    222.63464     -6400.24    -5827.526     -6400.24            0    2158.7075    23.380952    21.653189     21.76465    11018.836    2729.2753    1524.3214    2222.5257   -675.72705   -895.39634   -279.88945   -5480.6251 
 3834000     230.3457   -6368.7458   -5776.1955   -6368.7458            0    1060.5217    23.499858    21.533119    21.914335    11089.207    1089.7182    413.40043    1678.4466   -388.71099   -808.42041   -255.36512    -5604.683 
 3835000    226.17518   -6414.3457   -5832.5239   -6414.3457            0    1958.2869     23.24996    21.479756    22.108854    11041.239    3035.4199    2462.2698    377.17094   -217.47717    714.37916    635.83642   -5517.1904 
 3836000    224.45119   -6416.1896   -5838.8026   -6416.1896            0    536.96147    23.373727    21.545388    22.027998    11093.212    991.08184    290.63149     329.1711   -701.77707   -26.100052    718.61201   -5751.9313 
 3837000    221.31033   -6425.0424   -5855.7351   -6425.0424            0    1302.9684    23.539828    21.489792    21.823909    11039.974     911.3694    2750.1611    247.37474    190.42686    310.65368   -39.389031   -5645.9485 
 3838000    220.79663   -6384.0619    -5816.076   -6384.0619            0    1398.2476    23.556841    21.676232    21.674935    11067.733    1347.4366    367.14658    2480.1597     272.1565   -795.94122    132.89268   -5590.3827 
 3839000    213.80281   -6413.6221   -5863.6274   -6413.6221            0    2620.6349    23.394523    21.422719    21.945074    10998.306    3514.3322    2173.3584    2174.2143   -235.78193   -1271.7299   -40.101044   -5443.2802 
 3840000    211.31522   -6385.4664   -5841.8708   -6385.4664            0    3167.4673    23.151341    21.468479    22.133932    11001.097    4812.1799    3690.7154    999.50649    -914.0887    -420.3989     607.1085   -5333.6833 
 3841000    223.73793   -6434.9478   -5859.3956   -6434.9478            0    2844.5027    23.375611    21.496833    21.864826     10987.11    2859.1254    3114.7797    2559.6029   -126.04901     299.6723   -355.86343   -5403.6046 
 3842000    220.09194   -6388.9327   -5822.7596   -6388.9327            0    2925.1724    23.460404    21.616818    21.693708    11001.731    1070.7474     4023.775    3680.9947   -685.60132    1412.7137   -690.19111   -5353.4188 
 3843000    228.23325   -6407.2113   -5820.0952   -6407.2113            0    2274.8791    23.634837    21.432261    21.719634    11002.037    1075.4263    3042.9441    2706.2669   -397.64474    426.49016   -110.86403    -5455.083 
 3844000    217.28327   -6370.1482   -5811.2003   -6370.1482            0    2071.6265    23.226356    21.555993    22.093478    11061.479    2450.0742    2399.2935    1365.5117    1182.6702    978.46076     -88.7658   -5477.0048 
 3845000    216.01169   -6421.1254   -5865.4484   -6421.1254            0    2407.5291    23.295126    21.517408    21.947352    11001.126     2636.268    3266.4017    1319.9175   -901.34495  -0.94233739   -297.85006   -5479.1841 
 3846000    238.05909   -6415.0841   -5802.6916   -6415.0841            0    1550.5371    23.543555    21.542911    21.772817    11043.101    684.96819    2046.5474    1920.0956   -982.38275    557.23789   -30.163879    -5552.974 
 3847000     221.8354   -6406.7719   -5836.1138   -6406.7719            0    2664.7045    23.324369    21.605672    21.798171    10984.941    3502.9036    2073.1411    2418.0687   -727.56432    86.791144     200.4601   -5409.2172 
 3848000    215.00769   -6412.0681   -5858.9739   -6412.0681            0    2418.3624    23.423506    21.369461    22.011677    11017.894    2685.9837    2591.1444    1977.9592   -518.19746   -918.58426    494.36624   -5470.3801 
 3849000    214.46065   -6372.0838   -5820.3969   -6372.0838            0    1643.9477    23.395213    21.665623    21.964153    11133.011    1535.3925    225.01901    3171.4317   -302.82683    199.47531    1372.2868   -5553.4797 
 3850000    219.75868   -6410.1769   -5844.8611   -6410.1769            0    1421.8159    23.523526    21.544943    21.842971    11070.302     519.9241     2124.537    1620.9867    23.803708     467.9042   -686.96499   -5615.3104 
 3851000    225.42694   -6437.2684   -5857.3713   -6437.2684            0    1089.2437    23.353324    21.671514     21.87971    11073.363    1092.3866     763.0745    1412.2699   -537.88828   -526.24489    73.256311   -5681.4654 
 3852000    219.13619    -6393.521   -5829.8065    -6393.521            0    882.49313     23.50709    21.538703    21.975023    11126.223    541.41909    100.76743    2005.2929    779.48037   -268.74943    1478.1203   -5686.6091 
 3853000    221.80627   -6376.1388   -5805.5557   -6376.1388            0    896.95632    23.546562     21.62091    21.797233     11096.93    -195.9384     402.4276    2484.3798    462.21554    370.00088    990.67783   -5660.3946 
 3854000    228.90103   -6412.6186   -5823.7846   -6412.6186            0    1229.6838    23.578846     21.64388    21.730189    11089.735    126.42907    1574.0244     1988.598    64.541719   -56.212083   -380.26836   -5624.9049 
 3855000     220.2576     -6379.13   -5812.5307     -6379.13            0     2206.681    23.329027    21.581225    21.951378    11051.838    2616.9451    1801.7306    2201.3673   -685.76206    854.75865   -882.55052   -5456.8585 
 3856000    219.39338   -6407.5375   -5843.1614   -6407.5375            0    2085.8951    23.323477    21.427756    22.054017    11021.931    2342.2444    3551.5623    363.87855    729.05237    715.58757   -956.81476   -5507.8671 
 3857000    221.10043   -6409.0801   -5840.3127   -6409.0801            0    2477.4776    23.405516    21.494313    21.925779    11030.542    2579.7214    2313.6608    2539.0504   -665.02185    1055.8107    126.65978    -5441.763 
 3858000    232.98995   -6427.8561   -5828.5036   -6427.8561            0     2033.361    23.471889    21.537924    21.786322    11013.765    1588.9412    1837.4077    2673.7339   -336.17178   -519.71302   -388.85088   -5501.8961 
 3859000     211.9971   -6387.3432   -5841.9936   -6387.3432            0    778.22556     23.62172    21.614084    21.707651    11083.098    112.56169    1505.0476    717.06735   -287.79587    -84.51036   -161.26019   -5716.2046 
 3860000    219.61483   -6407.1691   -5842.2234   -6407.1691            0     1613.321    23.482153    21.554118    21.810159    11038.931    1091.3278    1669.9727    2078.6624    236.36175    620.18991    680.18326   -5582.4924 
 3861000    226.13454   -6404.2829   -5822.5656   -6404.2829            0    1755.2825     23.43141    21.510011    21.931862    11053.875    913.04048    2602.5754    1750.2316     1.143483    86.129767    -743.8476   -5539.5975 
 3862000    222.15467   -6394.2483    -5822.769   -6394.2483            0     1421.585    23.480899    21.606539    21.877554    11099.379   -294.35308    2897.9671    1661.1411   -9.8833429    383.38047   -294.86112   -5592.6527 
 3863000    216.76656   -6383.4369   -5825.8181   -6383.4369            0    2170.7625    23.425464    21.550083    21.926562    11068.982    1940.5777    2631.9975    1939.7123   -918.27082   -833.53538    830.51955   -5475.3925 
 3864000    218.79536   -6377.5907   -5814.7529   -6377.5907            0    2139.1636    23.463911    21.584497    21.836526    11059.256    1592.8795    2003.0792    2821.5321   -18.135941   -168.96372    793.29977   -5469.7317 
 3865000    226.79988   -6402.2765   -5818.8477   -6402.2765            0     931.0272    23.439031     21.62138    21.865859    11081.271   -99.182784    1652.1335    1240.1308   -524.80574   -111.03323    -140.4668   -5668.3853 
 3866000    216.75998   -6426.4249    -5868.823   -6426.4249            0    2351.5065    23.368292    21.481347    21.867779     10977.24    3096.5545    3073.8071    884.15794   -1051.6062    384.37787   -1011.1732   -5492.3662 
 3867000    212.86456    -6433.035   -5885.4539    -6433.035            0    1686.0603    23.329519      21.4853    22.036903    11045.815    3131.9223    1524.9433    401.31511   -681.41229    52.969952   -280.80933   -5613.8433 
 3868000    218.33957   -6418.1366   -5856.4713   -6418.1366            0    2111.4287    23.405588    21.471449    21.905045    11008.422    2141.5263    3238.1315    954.62834   -827.61177    595.71297    490.04897   -5517.4888 
 3869000    229.17901   -6421.0301    -5831.481   -6421.0301            0    2417.1672     23.53452    21.596244    21.627337     10992.25    1125.1463    2343.0968    3783.2584    945.80365   -390.37405   -225.43453   -5443.9833 
 3870000    221.37563    -6400.325   -5830.8497    -6400.325            0    2007.2248    23.563646    21.604551    21.681791     11037.81    1619.2212    2672.5974    1729.8559    288.39282   -1498.1536    19.096542   -5507.7364 
 3871000    222.89612   -6408.8715   -5835.4848   -6408.8715            0    2042.4667    23.436173    21.523006    21.883328     11038.32    949.47762    3070.2763    2107.6463    462.70936    1093.6936   -316.28073   -5506.6833 
 3872000    234.66447   -6392.9583   -5789.2982   -6392.9583            0    866.82638     23.35922    21.557545    22.011007    11084.027    626.54507    1366.1736    607.76045    486.55092   -120.67257    742.77681   -5649.1765 
 3873000    219.61273   -6409.4089   -5844.4685   -6409.4089            0    309.82612    23.506762    21.571743    21.905904    11108.086    921.86319   -736.92301    744.53817   -105.56563    1090.1745    257.05453   -5794.2767 
 3874000    220.49323   -6390.2545   -5823.0491   -6390.2545            0    343.01454    23.613747    21.664267    21.752822     11128.19   -489.16197    236.12894    1282.0766    -420.5623    1515.4444   -1212.1181   -5767.3801 
 3875000    221.65506   -6370.7718   -5800.5777   -6370.7718            0    2486.3439    23.409595    21.495647    21.943405    11042.018    2291.7775    3092.2601    2074.9942   -521.46867    54.544545   -242.96375   -5400.1856 
 3876000    225.86563   -6413.2178   -5832.1922   -6413.2178            0    2346.2146    23.279638    21.502169    21.964449    10994.584    2546.0094    3060.2414    1432.3929   -355.56247    361.31016    406.54431    -5455.989 
 3877000    221.36895   -6397.0355   -5827.5773   -6397.0355            0    1885.0508    23.489226    21.537064     21.77428    11015.368    457.18144    2318.2007    2879.7702    111.29169    637.48011    248.65895    -5524.748 
 3878000    222.06729   -6401.5364   -5830.2818   -6401.5364            0    1815.3736    23.528578    21.610017    21.734336    11050.888    2560.0396    793.28513    2092.7961    100.76254   -542.06101   -1152.8467   -5537.7055 
 3879000    226.58011   -6372.4298   -5789.5663   -6372.4298            0     2719.182    23.484629    21.559682    21.836094    11056.076     2210.143    3800.7059     2146.697    2599.5599   -292.70884   -630.13679   -5351.1212 
 3880000    211.37428   -6416.5182   -5872.7708   -6416.5182            0    2716.1283    23.369159    21.536567     21.92149    11032.899    4009.9901    1752.9608     2385.434    1039.0133   -1321.2506    1224.3581   -5435.7362 
 3881000    217.47722   -6420.8723   -5861.4254   -6420.8723            0     2339.951    23.437324    21.452457    21.920677    11021.458    3228.2052    2935.9961    855.65177    755.34766   -961.53084    584.06087   -5485.3095 
 3882000    226.07375   -6377.1634   -5795.6025   -6377.1634            0    1806.1097    23.324169    21.654165    21.943273    11082.788    3768.0032    1317.9973    332.32853   -256.45852   -905.63804    -837.7051    -5503.679 
 3883000    224.88563   -6390.3679   -5811.8633   -6390.3679            0    2644.4801    23.629933      21.4236    21.759868    11015.677    967.63662    2976.4778    3989.3258   -332.91319    336.56916    654.53973   -5387.0213 
 3884000     210.8155    -6406.367   -5864.0569    -6406.367            0    1660.5861     23.22762    21.752177    21.854007    11041.766     2300.023    771.23849    1910.4969    -674.7225    176.01524    451.02029   -5596.6481 
 3885000    225.12922   -6442.2323   -5863.1011   -6442.2323            0     2804.548     23.39082    21.318022    21.967688      10954.1    2825.3164    3235.9178    2352.4097   -1014.5855    158.47793   -106.21988   -5415.0625 
 3886000    226.32502   -6387.6523    -5805.445   -6387.6523            0    2642.2778    23.122553    21.680014     21.93882     10997.87     4551.948     1062.464    2312.4213   -386.57534    214.22401    21.848664    -5381.643 
 3887000    219.64711    -6402.389   -5837.3602    -6402.389            0    3379.1525    23.565943    21.368202    21.780004    10967.579    3467.2909    3788.4772    2881.6896   -1215.8269   -210.18188    347.72063   -5296.8618 
 3888000    216.72888   -6411.1613   -5853.6395   -6411.1613            0     2838.959    23.249666    21.776646    21.707657    10990.581    2908.3559    2481.3911    3127.1298    999.38513    173.55608   -279.28055   -5398.5931 
 3889000    225.48732   -6420.5626   -5840.5103   -6420.5626            0    2836.9499    23.537439    21.327244    21.921564    11004.377     1892.547    4164.9695    2453.3332   -863.42696    37.648132   -881.75734   -5385.2151 
 3890000    224.15924   -6402.4392   -5825.8032   -6402.4392            0     1088.412    23.324651    21.759009    21.780546    11054.091    1872.5138    613.72528    778.99687    647.79673    114.14457    -571.4561   -5650.3375 
 3891000    215.60944   -6399.3573   -5844.7151   -6399.3573            0    464.63231    23.728529     21.38414    21.896659    11110.676   -483.08731    1328.2546    548.72967    404.70683   -352.76774     855.9724   -5769.4271 
 3892000    226.94923   -6414.4242   -5830.6111   -6414.4242            0    1913.2531    23.254127    21.661323    21.879607     11021.09    2485.1642    730.71748    2523.8776   -1194.6252   -388.43598    88.862018   -5523.0915 
 3893000      219.205   -6394.1147   -5830.2232   -6394.1147            0    2064.0529    23.623368    21.295751    21.939173    11037.101    2056.4014     2915.439    1220.3183   -1109.8267   -435.58358    467.19687   -5497.9833 
 3894000    215.65027   -6391.9721   -5837.2249   -6391.9721            0    2588.9341    23.350134    21.671316    21.745744    11003.958    2318.1845    2052.1332    3396.4845    -1076.522    220.77317    1616.6588    -5421.749 
 3895000    224.78911   -6371.3597   -5793.1034   -6371.3597            0    1670.4494    23.483537    21.418263    22.007778    11069.397    1777.1129    2089.9114    1144.3239   -258.92054    270.47795    307.41834   -5523.4331 
 3896000    220.89001   -6408.7938   -5840.5678   -6408.7938            0    1817.6946    23.161767     21.70163    21.949581    11032.915    3125.6715    1609.1114     718.3008   -448.95237    443.67662   -1476.6947   -5548.0939 
 3897000    218.13808   -6417.5547   -5856.4077   -6417.5547            0    1689.0803    23.493642    21.392817    22.027675    11071.003     2301.718    1622.2915    1143.2314   -1496.4254    217.18149   -464.09999   -5583.6901 
 3898000     215.7956   -6411.1059   -5855.9849   -6411.1059            0    1822.6094    23.273122    21.568142    21.958426    11022.208    2241.7566    3042.1379    183.93358    60.304819    83.716424    229.75312   -5563.0048 
 3899000     232.6595   -6392.6626   -5794.1602   -6392.6626            0    1409.6171    23.589165    21.492624    21.834711    11070.047   -211.67835    2311.4408     2129.089   -422.09387    118.74953    69.990481   -5566.5841 
 3900000    222.38946   -6412.2251   -5840.1417   -6412.2251            0    2233.3917    23.479743     21.67609    21.684672    11036.393     1272.427    2203.1356    3224.6124     270.2021     570.4392    -961.8213   -5480.6674 
 3901000    232.15304   -6392.0344   -5794.8349   -6392.0344            0    2400.0057    23.545071    21.506256    21.808329    11043.004    1884.9481    2414.4551    2900.6138    982.74983    -368.0022    75.793687   -5408.3118 
 3902000    226.03191   -6435.9716   -5854.5182   -6435.9716            0    1058.2688    23.262146    21.574585      22.0196    11051.002    1756.6859    890.97923    527.14132    564.54184    601.89593    527.51444   -5683.9597 
 3903000      224.995   -6379.5493   -5800.7633   -6379.5493            0    1408.1614    23.436393     21.55663    21.995332    11112.254    1151.1923     2373.873    699.41905    446.37219   -941.67662    393.89939   -5572.5555 
 3904000    218.24931   -6392.5578   -5831.1248   -6392.5578            0    1529.3453    23.434339    21.597949    21.872537    11070.428    2338.9238    923.11939    1325.9925   -897.09562   -430.30366   -54.068963   -5584.2107 
 3905000    218.22667   -6416.5651   -5855.1903   -6416.5651            0    2269.8952    23.540931    21.502858    21.736709    11003.063    661.17557    2859.8372    3288.6727    441.31963    74.149332    474.65262   -5490.9438 
 3906000    224.96112   -6456.1238   -5877.4251   -6456.1238            0     2874.288    23.405864    21.509388    21.756024    10952.979    2639.9907    2829.7518    3153.1216   -153.59574   -64.750961    30.259653   -5418.2921 
 3907000    219.09667   -6407.9488    -5844.336   -6407.9488            0    1925.4029     23.42343     21.46949      22.0166    11071.908    2137.0543    2696.1251    943.02914   -549.04955    708.13274    -308.5226   -5533.4365 
 3908000    215.65443   -6406.2916   -5851.5337   -6406.2916            0     1405.096    23.340871    21.561671    22.048563     11096.34     1696.352    1905.1194    613.81658   -1634.0239     953.7892    134.19638   -5624.1488 
 3909000    222.07377   -6400.2008   -5828.9296   -6400.2008            0    1888.9248    23.437332    21.568736    21.874271    11057.742    2013.0628    2349.7544    1303.9571   -1144.7312    1028.5375   -341.33164   -5524.3106 
 3910000    225.02315   -6416.5962   -5837.7378   -6416.5962            0    865.56589    23.599978     21.57897    21.750477    11076.718    563.47464    536.93774    1496.2853   -101.11708    30.189754    442.55495   -5697.9121 
 3911000    221.86037   -6430.3389   -5859.6166   -6430.3389            0     1895.537    23.474515    21.578832    21.795681    11040.659    1742.7117    1480.0622    2463.8372    622.02456   -52.937239    65.139506   -5554.4035 
 3912000    218.92536   -6384.4703   -5821.2982   -6384.4703            0     2118.345    23.415789     21.54768    21.933169    11066.511    2552.2265    1872.9008    1929.9077    741.89619   -1191.6565    374.23411   -5479.4106 
 3913000    224.90222   -6407.3147   -5828.7675   -6407.3147            0    1802.0913    23.353381    21.576921    21.901843    11036.208    1641.0366    1926.9222     1838.315    1379.8758       1362.6    1050.5669   -5538.7177 
 3914000     218.6512   -6413.8729   -5851.4061   -6413.8729            0    1900.8432    23.576259    21.583744    21.682009    11033.192    794.35845    1887.5013    3020.6698   -170.01313    -130.4863    671.31377   -5545.5456 
 3915000    226.47877   -6409.4628   -5826.8599   -6409.4628            0     2661.759    23.448811    21.562257    21.747688    10995.833    3177.7102    1775.9501    3031.6166    -997.4924   -1211.3682   -171.31444   -5400.0124 
 3916000     230.1534   -6389.2805   -5797.2249   -6389.2805            0    2182.6108    23.402394    21.559338    21.919812    11059.424    2308.8497    1255.5489    2983.4339   -151.70286     486.3513   -1058.8139   -5445.1908 
 3917000    218.44556   -6404.8369    -5842.899   -6404.8369            0    1621.4778    23.363109     21.52929    21.994605    11063.091    1081.0059    2859.5663    923.86121    257.37671    783.95043   -681.39739   -5581.2835 
 3918000    224.72472   -6378.5508   -5800.4602   -6378.5508            0    1506.5477    23.488637    21.588541    21.821387    11065.307    1703.6027    1431.2215    1384.8189    56.266841    950.16677    595.25992   -5557.3393 
 3919000    232.49185   -6374.6352    -5776.564   -6374.6352            0    2023.4183    23.501259      21.6046    21.807942    11072.662    1784.2639    992.46837    3293.5227    56.775953    720.76689    751.22779   -5449.8155 
 3920000    229.56783   -6418.5521   -5828.0028   -6418.5521            0    1907.7778    23.402426    21.509403    21.963477    11055.804    1879.6289    2620.0477    1223.6567     -575.687   -490.93338   -99.581625   -5520.3974 
 3921000    214.78108   -6381.8533    -5829.342   -6381.8533            0    2740.2034      23.3544    21.625367    21.875281    11048.055    3247.2779    2570.4941    2402.8383   -684.20292   -4.3324148   -408.60858    -5387.828 
 3922000    214.32824    -6377.319   -5825.9727    -6377.319            0    2049.9938    23.529645    21.536148    21.774889    11034.162    1856.0948    3059.8903    1233.9963    393.46927    337.09758   -558.03579   -5496.0837 
 3923000     213.6111   -6389.7003   -5840.1987   -6389.7003            0    2344.1472    23.452861      21.5027    21.808571    10998.058    2535.8816    2701.6461     1794.914    473.76888   -631.27996   -533.43574   -5464.2083 
 3924000    221.84003   -6419.7373   -5849.0674   -6419.7373            0    2195.9165    23.350096    21.520931    21.927646    11018.989    3509.4987    636.86766    2441.3833   -8.4793032    -990.9126    241.77064   -5496.1822 
 3925000    221.92639   -6396.2022   -5825.3101   -6396.2022            0    1812.3237    23.399133    21.528713    21.856718    11010.392     2448.934    1318.5242     1669.513     434.0625   -953.61279   -157.93154   -5534.2957 
 3926000    210.25064   -6394.6029   -5853.7459   -6394.6029            0     4108.677    23.326351    21.524736    21.807467    10949.388    4978.0724    4246.8275    3101.1311     74.45212    217.63416   -171.01038   -5197.6494 
 3927000    222.34459   -6368.8413   -5796.8734   -6368.8413            0    2065.5245    23.416997    21.413776    21.958058    11010.787    2079.9018    2726.4695    1390.2023   -291.82373    496.68391   -406.09267   -5465.1894 
 3928000     225.9315   -6399.5137   -5818.3186   -6399.5137            0    1327.6838    23.391175    21.663915    21.883851    11089.519    2206.4235    1219.7859    556.84202   -107.81334    404.08621   -772.98199   -5603.5933 
 3929000    226.35996   -6409.0641   -5826.7669   -6409.0641            0    602.23667    23.649871    21.480893    21.878659    11114.804    861.33743    748.72442    196.64817   -945.12714    1127.3782    528.94198   -5729.1455 
 3930000    228.25009   -6406.9619   -5819.8024   -6406.9619            0    2155.1857    23.279963    21.646994    21.884173    11028.337    1584.9804    2160.5949    2719.9818    737.23422      1554.79    739.58216   -5473.1689 
 3931000     219.5438   -6404.1073   -5839.3442   -6404.1073            0    1875.0377    23.536558    21.484089    21.858665    11053.086    2083.8744    1005.9631    2535.2755    137.55464    630.69323    575.97859   -5537.0921 
 3932000     217.6653   -6371.1643   -5811.2336   -6371.1643            0    3712.7498    23.363279    21.603653    21.741053    10973.409     3779.055     3066.946    4292.2485   -179.41912   -116.14417   -834.42552   -5217.0603 
 3933000    223.18352   -6424.0146   -5849.8886   -6424.0146            0    2568.6027    23.417345    21.435515    21.885271    10985.593    2945.9361     2163.472    2596.3999    295.09726   -861.60675    67.771732   -5438.3635 
 3934000    218.89455    -6406.928   -5843.8351    -6406.928            0    2516.6862    23.313815    21.561115     21.92553    11021.347    3157.6321    1497.6701    2894.7562   -245.30088     187.8522    354.55433   -5439.3154 
 3935000    225.83584   -6384.4616   -5803.5126   -6384.4616            0    3160.4258    23.510866    21.469674    21.808212    11008.145    2832.0934    3533.0265    3116.1575   -39.156438    432.86481   -768.50383     -5296.13 
 3936000    227.45409   -6388.6026   -5803.4908   -6388.6026            0    1515.0188    23.524885    21.697468    21.669626    11060.837    1120.6392    608.37006    2816.0471   -179.90963    1703.7533    150.04811   -5559.1016 
 3937000    216.81113   -6422.4219   -5864.6885   -6422.4219            0    832.19885    23.528424    21.500468    21.880874    11068.924    423.36562    1774.2527     298.9782   -128.73421    351.77686   -145.78224   -5730.3475 
 3938000    224.06283   -6383.4597   -5807.0717   -6383.4597            0    2027.0425    23.374621    21.576376    21.915237    11052.722    1825.7198    2539.6338    1715.7739   -244.69954    449.13232    446.59898   -5480.3275 
 3939000    210.59091   -6411.6168   -5869.8845   -6411.6168            0    2534.1541     23.42213    21.414416    21.911039    10989.947    2958.0695    3156.8482    1487.5445   -1148.9555    370.74025    765.51789   -5463.7176 
 3940000    232.09539   -6369.7424   -5772.6911   -6369.7424            0    2838.2715    23.275089    21.654701    21.909489    11042.713    3355.5263    2711.4049    2447.8834    1474.5407    45.802463   -618.31089    -5315.597 
 3941000    228.33333   -6393.7667   -5806.3931   -6393.7667            0    2361.0747    23.528548    21.515445    21.782682    11026.986    2909.1109    1285.6297    2888.4835    807.27319    -199.7856   -525.21166   -5426.6915 
 3942000    218.75645   -6380.9248   -5818.1872   -6380.9248            0    2111.4222    23.472357    21.628318    21.768493    11051.158    1364.7001    2176.9447    2792.6219    446.07076   -599.28305    275.38604   -5477.8896 
 3943000    219.74396   -6406.2424   -5840.9645   -6406.2424            0    2247.3003    23.418151    21.543445    21.885941    11041.625    1956.4241    2607.3876    2178.0893   -610.61343   -922.69006    533.16362     -5479.08 
 3944000    216.99262   -6383.6272   -5825.4269   -6383.6272            0    2192.0384    23.318139     21.61454    21.964813    11070.504    3212.3946    2002.5181    1361.2025   -621.90013   -1229.0837   -138.57248    -5471.518 
 3945000    231.38287   -6409.9186   -5814.7003   -6409.9186            0     1481.012    23.373561    21.578883    21.928045    11059.965    2207.1753    1973.2702    262.59057   -478.49904   -359.55667    -367.5788   -5575.8156 
 3946000    217.87432   -6401.9605   -5841.4921   -6401.9605            0    1968.8379    23.464867     21.53717    21.827818    11031.055    1965.2395    1503.6997    2437.5745    630.63256    403.96523    321.34878   -5524.7521 
 3947000    212.10243   -6368.5156    -5822.895   -6368.5156            0    1229.4989    23.601762    21.602998    21.743993    11086.584    1314.1344    549.38904    1824.9732   -641.14398   -719.32094    310.89132   -5624.1017 
 3948000    222.33575   -6382.3154   -5810.3702   -6382.3154            0    1890.5265    23.386851    21.627386    21.893436    11073.623    1911.8068    1629.3487    2130.4239    251.15894    69.582035   -271.20998    -5505.055 
 3949000    227.46615   -6395.8647   -5810.7219   -6395.8647            0    1707.7649    23.407983    21.518282    22.002376    11082.588     2241.859    2275.6222    605.81342   -653.36801   -376.22582    49.227449    -5534.699 
 3950000    222.66678   -6419.8917    -5847.095   -6419.8917            0    1897.8369    23.419428    21.513167    21.891677    11029.598    1275.5067    2350.2335    2067.7705    1013.4587   -405.75398    1222.3323   -5541.8178 
 3951000    228.29787   -6407.0835   -5819.8011   -6407.0835            0    3853.8468    23.315763    21.601344    21.721974    10940.312    4278.4586    3477.2538     3805.828    1097.9858   -1534.1944    497.70085   -5204.9074 
 3952000    225.13666   -6411.2242   -5832.0739   -6411.2242            0    3547.7054     23.43494    21.433841    21.821781    10961.098    3982.2764    3233.5863    3427.2533   -137.16296   -729.98096   -546.56408   -5264.9506 
 3953000    209.55533   -6412.0646   -5872.9963   -6412.0646            0    2855.6975     23.40151    21.539457    21.830391    11003.736    2336.6195    2821.9195    3408.5535    1099.5934   -417.04066   -688.28322   -5414.7191 
 3954000    225.90788   -6419.3922   -5838.2579   -6419.3922            0    1444.3561    23.406769    21.581393    21.906466    11066.066    1264.4572    1373.8418    1694.7692    491.21501    92.246413     948.5882   -5605.1573 
 3955000     216.1768   -6409.1825   -5853.0809   -6409.1825            0    1601.9949    23.444953    21.520444    21.874288     11036.58    576.04636    1807.8033     2422.135   -416.35073   -94.094107    875.82039   -5595.2283 
 3956000    214.96556   -6412.6075   -5859.6218   -6412.6075            0    3202.6198    23.471913    21.591864    21.712458    11003.924    3415.9529    3176.5522    3015.3542   -416.08381   -516.94829   -1078.9109   -5345.6623 
 3957000    215.61174    -6406.703   -5852.0549    -6406.703            0    2323.5001    23.367519    21.569576    21.884427    11030.353    1947.3015    2282.4514    2740.7474    465.89685    212.87379   -81.267104   -5478.2819 
 3958000    225.26018    -6398.828   -5819.3599    -6398.828            0    2739.3504      23.3435    21.376804    22.096146    11026.185    3219.3381    3694.9451     1303.768    1076.2414    395.00117    177.18834    -5378.857 
 3959000     230.8419   -6406.9996   -5813.1729   -6406.9996            0    2003.6423    23.467059    21.504857    21.882589    11043.174    1039.3563    3061.0869    1910.4836   -147.11373    9.0241726    297.77859   -5490.4796 
 3960000    227.47253   -6415.7922    -5830.633   -6415.7922            0    1919.8773    23.509014    21.607278    21.778753    11062.862    1136.5115    2402.3835    2220.7368   -49.900443    1557.3376     418.0474    -5520.879 
 3961000    222.09013   -6384.4722   -5813.1589   -6384.4722            0    1318.1014    23.707839    21.498713    21.805773    11114.142   -764.78453    2622.1903    2096.8985     297.3804   -299.32764   -419.07401     -5599.51 
 3962000    220.31064   -6413.6295   -5846.8938   -6413.6295            0    1482.7403    23.370019    21.621066    21.846408    11038.656    1314.8699    1687.0732    1446.2778    485.82913   -33.800173    -657.0086   -5608.1912 
 3963000    218.68711   -6397.1004   -5834.5412   -6397.1004            0     2031.021    23.475752    21.458822    21.917891      11041.4    1103.9799    3332.5632    1656.5199    724.30464    1240.5914    -488.9398   -5507.4909 
 3964000     221.3344    -6395.026   -5825.6568    -6395.026            0    2052.2106    23.290129    21.634197    21.905691    11037.473    2584.7597    1627.5015    1944.3705   -374.03159   -168.50193   -1582.8416    -5495.312 
 3965000    215.28162   -6422.2859   -5868.4871   -6422.2859            0     1874.499     23.35884    21.503893    21.976566    11038.961    1898.1424    2596.6693    1128.6853   -838.70863   -297.81794   -3.5708649   -5566.7079 
 3966000    220.81976   -6407.8271   -5839.7817   -6407.8271            0    2016.2829     23.50152    21.475756    21.853576    11029.782    1814.6153     2072.396    2161.8374    942.27107    913.58231    1640.1183   -5515.4463 
 3967000    224.91403   -6411.0622   -5832.4846   -6411.0622            0     2036.505    23.441149    21.545451    21.812257    11016.283    1876.8647    1447.7656    2784.8846    860.06811    155.02757    494.50577   -5505.2973 
 3968000    225.01619   -6384.9361   -5806.0956   -6384.9361            0     2051.381    23.420505    21.427928    21.994204    11037.855    1898.5215    2266.5903    1989.0312    112.94171    393.25084   -1815.6744   -5475.8729 
 3969000    217.91052   -6393.1446    -5832.583   -6393.1446            0    2374.2635    23.281626    21.605611    21.974065    11053.257    2663.5669    3362.0423    1097.1811    178.43092    214.81156   -489.81963   -5449.8508 
 3970000    214.92607   -6422.5436   -5869.6593   -6422.5436            0    1817.4838    23.475724     21.43662    21.913995    11028.003    1365.4575    2168.2834    1918.7107    265.84803   -143.94737    1024.2001   -5577.3496 
 3971000     220.5338   -6408.0223   -5840.7125   -6408.0223            0    2607.1857    23.432576    21.558211    21.791052    11008.064    2490.2285    2547.7425    2783.5859    -242.4521    88.671251    231.01119   -5422.1515 
 3972000    221.08938   -6411.7358   -5842.9969   -6411.7358            0    2153.3643    23.444296    21.574521    21.806235    11029.582    2393.0563     1287.381    2779.6555   -543.83064    1304.0511   -1044.8058   -5496.6172 
 3973000    224.65235   -6423.7602   -5845.8557   -6423.7602            0    1511.7371    23.348856     21.54689    21.975752    11055.896    2475.3662    2211.4165   -151.57127    800.18535    459.80765   -749.62948   -5602.1049 
 3974000    226.06735   -6376.4498   -5794.9053   -6376.4498            0    2448.4376     23.41704     21.43316     21.97267    11028.109    3446.0018    1450.5881    2448.7228    941.58462    -168.2836    215.65495   -5401.1142 
 3975000    225.94043   -6425.2592   -5844.0412   -6425.2592            0    2314.6717    23.376879    21.578393    21.865082    11029.523    2328.2497    2081.1515     2534.614    165.50479    217.37117    145.63602   -5471.7163 
 3976000    222.66632   -6409.6626   -5836.8671   -6409.6626            0    1646.1291    23.636405    21.451005    21.810104    11058.261    1032.3021    996.22483    2909.8603   -348.82821   -221.45562    413.88165   -5571.3903 
 3977000    229.37199    -6373.185   -5783.1396    -6373.185            0     1978.265    23.411922    21.659639    21.808026    11058.715    2084.9957    1370.4273     2479.372    -133.9145   -162.77367    709.00014    -5464.085 
 3978000    237.37945   -6404.6802   -5794.0361   -6404.6802            0    1185.0243    23.544794    21.454964    21.938223    11082.153    873.00551    1348.8409    1333.2266   -8.6048404    210.87858     367.5555   -5602.5103 
 3979000     224.9758   -6392.7321   -5813.9956   -6392.7321            0    2434.1789    23.353674    21.603772    21.853144    11025.511    3805.3135    1903.3775    1593.8458    902.06964   -881.28684   -267.78496   -5422.5899 
 3980000     222.5017   -6365.2097   -5792.8377   -6365.2097            0    2535.8151    23.558801    21.436049    21.842951    11030.856    1913.4541    3907.9905    1786.0007   -369.97974   -1.1895091   -121.14597   -5384.8916 
 3981000    233.29946   -6397.8807   -5797.7321   -6397.8807            0    2946.8819    23.194498    21.597493    21.956915    10999.163    3157.9262    2264.1232    3418.5963     388.5117    126.13543     116.0307   -5325.0183 
 3982000     226.2621   -6400.1208   -5818.0754   -6400.1208            0    2703.2996    23.418515    21.448928    21.891611    10996.201    3007.1456    3520.0285    1582.7248    443.11982    433.16415    447.65796   -5384.5518 
 3983000    212.48808   -6385.3787    -5838.766   -6385.3787            0    3350.5483    23.395884    21.550801    21.800151    10991.637    3087.5136    3874.2351    3089.8962    404.11594   -530.67319   -89.978762   -5301.6673 
 3984000    221.66608   -6395.0178   -5824.7954   -6395.0178            0    3192.5724    23.506518    21.473514    21.794187    11000.998    3477.1414    4017.3217    2083.2541    136.92935   -1190.9627   -294.48361   -5312.5845 
 3985000    217.90831    -6397.318   -5836.7622    -6397.318            0    3302.1818     23.39457    21.597691    21.761956    10995.635    3839.7422    2279.1255    3787.6777      1629.53   -1524.7278    29.687033   -5307.2241 
 3986000    218.78798   -6395.9221   -5833.1033   -6395.9221            0    2538.9641    23.469303    21.488959    21.839707    11014.439    2243.1344    2886.2873    2487.4707    2105.5065   -635.43859   -604.77925   -5425.2586 
 3987000    214.52533   -6399.8605   -5848.0072   -6399.8605            0    2286.8892    23.344441    21.525932    21.977857    11044.111    2837.8941    3114.1273    908.64616   -313.30586    -183.8718   -539.25843   -5479.6647 
 3988000     233.4399    -6398.739   -5798.2291    -6398.739            0     1737.858    23.364694    21.582534    21.930661    11058.959    2406.9908    2749.4755    57.107906   -840.78652     394.5565   -772.01902   -5517.9411 
 3989000    219.14449   -6405.5804   -5841.8445   -6405.5804            0    2580.1487    23.476836    21.391761     21.90266    10999.754    2841.6633    3239.2181    1659.5648   -280.88149    470.86222   -482.30483   -5427.9367 
 3990000    214.46942   -6368.0366   -5816.3271   -6368.0366            0    3550.2454    23.242272    21.646934    21.835701    10986.064    3614.8575    3400.4447    3635.4339    319.55154    597.75725    1157.9119   -5247.5051 
 3991000     214.5223   -6395.0841   -5843.2386   -6395.0841            0    3219.0068    23.580215    21.461058    21.740664    11002.001    2225.3751    3145.5339    4286.1113    516.87924   -255.02265   -616.37525   -5326.7396 
 3992000    219.79169   -6410.6919   -5845.2912   -6410.6919            0    1104.0802    23.359643    21.709567    21.855808    11083.686    1716.6399   -289.31889    1884.9196    54.274353   -984.60764    222.46967    -5666.823 
 3993000    222.18512    -6386.457   -5814.8994    -6386.457            0    1937.8739    23.569265    21.389002     21.90514    11042.886    570.62485    3433.8876    1809.1092    541.44851    605.09733   -845.00262   -5502.8064 
 3994000    217.62117   -6398.8551   -5839.0379   -6398.8551            0    1712.2068    23.371515    21.641344    21.835669    11044.284    2184.2553    1461.1223    1491.2428   -122.43226   -181.31939   -128.91491   -5563.2535 
 3995000    229.70793   -6380.8667    -5789.957   -6380.8667            0    1487.8181    23.567669    21.596916    21.792191    11091.985    1214.5091    620.16421     2628.781    406.86233   -295.31194   -99.533311   -5549.2798 
 3996000    218.00531   -6407.8062   -5847.0008   -6407.8062            0    663.37854    23.400903    21.642906    21.984287     11134.24    440.55454    714.85799    834.72311   -22.359578    687.91768    1064.5505   -5739.2804 
 3997000     217.9211   -6386.0312   -5825.4425   -6386.0312            0    1417.6412     23.46372    21.563518    21.920761    11091.036    1645.2297    2192.7664    414.92759   -1068.0166    219.65782    760.50622   -5596.1371 
 3998000    217.99233   -6384.3705   -5823.5985   -6384.3705            0    1000.8509    23.455307    21.665313    21.868653    11112.918    463.20313    1046.2577    1493.0918    185.34907   -122.38097   -36.455894   -5661.3901 
 3999000    219.36957   -6409.5809   -5845.2661   -6409.5809            0     1232.711    23.537114    21.423256      21.9788    11082.626    1701.0038    1960.0607    37.068396   -773.13277    429.18601    -462.5458   -5646.0246 
 4000000    224.86687   -6360.1018   -5781.6455   -6360.1018            0    1339.3239    23.336877    21.740891    21.871549    11096.848    797.31717    1151.0367    2069.6178    148.45749    2016.1073    285.32171   -5564.8945 
Loop time of 522.875 on 64 procs for 250000 steps with 1296 atoms

Performance: 82.620 ns/day, 0.290 hours/ns, 478.126 timesteps/s
196.5% CPU use with 32 MPI tasks x 2 OpenMP threads

MPI task timing breakdown:
Section |  min time  |  avg time  |  max time  |%varavg| %total
---------------------------------------------------------------
Pair    | 37.956     | 47.601     | 58.74      |  85.1 |  9.10
Bond    | 0.71693    | 1.0068     | 1.4199     |  15.1 |  0.19
Kspace  | 270.98     | 281.83     | 293.14     |  34.3 | 53.90
Neigh   | 3.1783     | 3.3056     | 3.4538     |   3.9 |  0.63
Comm    | 71.739     | 75.148     | 79.434     |  21.6 | 14.37
Output  | 0.50082    | 0.50111    | 0.50269    |   0.0 |  0.10
Modify  | 99.797     | 102.05     | 104.08     |   8.4 | 19.52
Other   |            | 11.43      |            |       |  2.19

Nlocal:        40.5000 ave          52 max          32 min
Histogram: 3 8 1 4 1 2 6 3 2 2
Nghost:        3007.75 ave        3036 max        2969 min
Histogram: 1 3 4 2 1 3 5 6 3 4
Neighs:        12576.6 ave       16177 max        9824 min
Histogram: 3 8 1 4 1 3 6 2 2 2

Total # of neighbors = 402451
Ave neighs/atom = 310.53318
Ave special neighs/atom = 2.0000000
Neighbor list builds = 7484
Dangerous builds = 0

unfix		3
unfix		2
unfix		1

write_data	data.final.${pid}
write_data	data.final.0
System init for write_data ...
PPPM initialization ...
  extracting TIP4P info from pair style
  using 12-bit tables for long-range coulomb (../kspace.cpp:340)
  G vector (1/distance) = 0.36889668
  grid = 30 40 32
  stencil order = 5
  estimated absolute RMS force accuracy = 0.0041118845
  estimated relative force accuracy = 1.2382818e-05
  using double precision FFTW3
  3d grid and FFT values/proc = 7888 1280
Last active /omp style is kspace_style pppm/tip4p/omp
WARNING: Not all mixed pair coeffs generated from mixing. Use write_data with 'pair ij' option to store all pair coeffs. (../write_data.cpp:312)

write_restart   restart.lmp.${pid}
write_restart   restart.lmp.0
System init for write_restart ...
PPPM initialization ...
  extracting TIP4P info from pair style
  using 12-bit tables for long-range coulomb (../kspace.cpp:340)
  G vector (1/distance) = 0.36889668
  grid = 30 40 32
  stencil order = 5
  estimated absolute RMS force accuracy = 0.0041118845
  estimated relative force accuracy = 1.2382818e-05
  using double precision FFTW3
  3d grid and FFT values/proc = 7888 1280
Last active /omp style is kspace_style pppm/tip4p/omp
Total wall time: 0:08:43
