#include		in.partitions
include		in.temp
variable        temperature equal 136.42
variable	tempDamp equal 100.0
include		in.pressure
variable        pressure equal 9043.8
variable        pressureDamp equal 1000.0 # This is 1 ps
include		in.seed
variable        seed equal 745823

units		real
atom_style	full

read_restart	restart.lmp.${pid}
read_restart	restart.lmp.1
Reading restart file ...
  restart file = 30 Jul 2021, LAMMPS = 30 Jul 2021
  restoring atom style full from restart
  orthogonal box = (0.18281550 0.19521346 0.11287237) to (19.817186 19.804788 20.587126)
  4 by 4 by 4 MPI processor grid
  restoring pair style lj/cut/tip4p/long/omp from restart
  restoring bond style harmonic/omp from restart
  restoring angle style harmonic/omp from restart
  972 atoms
  648 bonds
  324 angles
Finding 1-2 1-3 1-4 neighbors ...
  special bond factors lj:    0        0        0       
  special bond factors coul:  0        0        0       
     2 = max # of 1-2 neighbors
     1 = max # of 1-3 neighbors
     1 = max # of 1-4 neighbors
     2 = max # of special neighbors
  special bonds CPU = 0.006 seconds
  read_restart CPU = 0.016 seconds
include 	in.setup
variable	out_freq equal 1000
variable	out_freq2 equal 10000
variable	out_freq3 equal 1000

timestep	2.0

neigh_modify    delay 7 every 1

include		in.tip4p
# This is TIP4P/Ice

# create groups ###
group ox type 2
324 atoms in group ox
group hy type 1
648 atoms in group hy

# set charges - beside manually ###
set group ox charge -1.1794
Setting atom values ...
  324 settings made for charge
set group hy charge 0.5897
Setting atom values ...
  648 settings made for charge

# ### TIP3P Potential Parameters ###
pair_style lj/cut/tip4p/long/omp 2 1 1 1 0.1577 8.5
pair_coeff 1 1*2 0.000 0.000
pair_coeff 2 2 0.21084 3.1668
bond_style  harmonic
bond_coeff  1 450 0.9572
angle_style harmonic
angle_coeff 1 55 104.52
kspace_style pppm/tip4p/omp 1.0e-5
pair_modify tail yes

thermo          ${out_freq}
thermo          1000
thermo_style    custom step temp pe etotal epair emol press lx ly lz vol pxx pyy pzz pxy pxz pyz enthalpy

restart 	${out_freq3} restart.lmp.${pid} restart2.lmp.${pid}
restart 	1000 restart.lmp.${pid} restart2.lmp.${pid}
restart 	1000 restart.lmp.1 restart2.lmp.${pid}
restart 	1000 restart.lmp.1 restart2.lmp.1


include         in.dump
dump            myDump all atom ${out_freq2} dump.water.${pid}
dump            myDump all atom 10000 dump.water.${pid}
dump            myDump all atom 10000 dump.water.1
dump            myDump2 all dcd ${out_freq2} dump.dcd
dump            myDump2 all dcd 10000 dump.dcd
dump_modify     myDump append yes
dump_modify     myDump2 append yes


variable natoms 	equal  "count(all)"                        # NUMBER ATOMS
variable H      	equal  "enthalpy/v_natoms"                 # ENTHALPY-per-atom
variable Vol      	equal  "vol/v_natoms"                 # volume-per-atom
fix AVG all 		ave/time ${out_freq} 1 ${out_freq} v_Vol v_H file vol_enthalpy.dat
fix AVG all 		ave/time 1000 1 ${out_freq} v_Vol v_H file vol_enthalpy.dat
fix AVG all 		ave/time 1000 1 1000 v_Vol v_H file vol_enthalpy.dat


timer           timeout 02:55:00 every 1000
New timer settings: style=normal  mode=nosync  timeout=02:55:00

fix 		1 all shake 1e-6 200 0 b 1 a 1
       0 = # of size 2 clusters
       0 = # of size 3 clusters
       0 = # of size 4 clusters
     324 = # of frozen angles
  find clusters CPU = 0.002 seconds
fix             2 all nph aniso ${pressure} ${pressure} ${pressureDamp}
fix             2 all nph aniso 9043.8 ${pressure} ${pressureDamp}
fix             2 all nph aniso 9043.8 9043.8 ${pressureDamp}
fix             2 all nph aniso 9043.8 9043.8 1000
fix             3 all temp/csvr ${temperature} ${temperature} ${tempDamp} ${seed}
fix             3 all temp/csvr 136.42 ${temperature} ${tempDamp} ${seed}
fix             3 all temp/csvr 136.42 136.42 ${tempDamp} ${seed}
fix             3 all temp/csvr 136.42 136.42 100 ${seed}
fix             3 all temp/csvr 136.42 136.42 100 745823


run             250000
PPPM initialization ...
  extracting TIP4P info from pair style
  using 12-bit tables for long-range coulomb (../kspace.cpp:340)
  G vector (1/distance) = 0.37265456
  grid = 24 24 24
  stencil order = 5
  estimated absolute RMS force accuracy = 0.0034539208
  estimated relative force accuracy = 1.040138e-05
  using double precision FFTW3
  3d grid and FFT values/proc = 2197 216
Last active /omp style is kspace_style pppm/tip4p/omp
Neighbor list info ...
  update every 1 steps, delay 7 steps, check yes
  max neighbors/atom: 2000, page size: 100000
  master list distance cutoff = 10.8154
  ghost atom cutoff = 10.8154
  binsize = 5.4077, bins = 4 4 4
  1 neighbor lists, perpetual/occasional/extra = 1 0 0
  (1) pair lj/cut/tip4p/long/omp, perpetual
      attributes: half, newton on, omp
      pair build: half/bin/newton/omp
      stencil: half/bin/3d
      bin: standard
Per MPI rank memory allocation (min/avg/max) = 9.228 | 9.230 | 9.232 Mbytes
Step Temp PotEng TotEng E_pair E_mol Press Lx Ly Lz Volume Pxx Pyy Pzz Pxy Pxz Pyz Enthalpy 
28250000    134.43373   -4930.0622   -4670.7955   -4930.0622            0    10282.914     19.63437    19.609574    20.474253    7883.0304    9734.4679    12770.041    8344.2336    23.716906   -187.17736   -691.70274   -3488.6109 
28251000    136.22907   -4962.5736   -4699.8444   -4962.5736            0    9113.5712    19.504253    19.884271    20.380396    7904.0854    11324.978    6891.9933    9123.7426   -438.38837   -656.69996    685.07419   -3649.2959 
28252000    139.34634   -4964.1228   -4695.3817   -4964.1228            0    8661.3702    19.632999    19.783404    20.370865    7912.1981    8396.2878    9756.5051    7831.3179   -478.61698    646.67451    1250.1999   -3695.9349 
28253000     140.7712   -4966.3673   -4694.8782   -4966.3673            0    8962.3439    19.396486    19.852176    20.491671    7890.5731    9336.7372    7983.4152    9566.8792   -207.76664    14.212995    699.67565   -3663.5283 
28254000    131.18722   -4972.8166    -4719.811   -4972.8166            0    8493.6109     19.59997    19.804489    20.382435    7911.7967    8302.5261    8272.3967    8905.9101   -363.51578    1112.5792    583.15427    -3739.772 
28255000    137.08258   -4954.0913    -4689.716   -4954.0913            0    9159.0439    19.529309    19.815839    20.357378    7878.0945    9187.6839    9189.2504    9100.1974   -542.16688    1099.5383    588.11987   -3637.3975 
28256000     136.2917   -4956.0262   -4693.1762   -4956.0262            0    7946.4218    19.728391     19.72436    20.454345    7959.3968    6332.8295    9443.1863    8063.2496    125.32648   -639.11022   -889.69573   -3770.7584 
28257000    136.06818   -4962.7455   -4700.3266   -4962.7455            0      7246.68    19.928161    19.573155    20.421015    7965.3593    6736.6427    8701.1168    6302.2804    233.80825   -314.26365    1334.8612   -3858.5045 
28258000    133.08309   -4948.3998   -4691.7379   -4948.3998            0    10137.121    19.613635    19.732186    20.341527    7872.5755    9603.7738    10691.623    10115.967   -1207.1906    264.68257      29.5226   -3527.8601 
28259000    141.27838   -4955.7969   -4683.3297   -4955.7969            0    8677.4026    19.596733     19.83316    20.343811    7906.9298    9020.3278    7803.3769     9208.503     533.4771   -63.257092    384.85164   -3682.6997 
28260000    141.90816   -4961.1163   -4687.4345   -4961.1163            0    8116.4564    19.728821    19.717697    20.386883    7930.6385    8721.7546    7895.1734    7732.4411    523.83085    808.22147    779.11291   -3748.6833 
28261000    135.59965   -4964.4272   -4702.9118   -4964.4272            0    8569.0034    19.826594    19.726933    20.307825    7942.7533    5820.3196    10955.516    8931.1745   -208.01067    585.53877      472.441    -3710.305 
28262000    141.02568   -4944.1401   -4672.1603   -4944.1401            0     9649.161    19.622116    19.692179    20.451269    7902.4159    9857.3637    9861.1199    9228.9993    557.22608    542.62295    291.67702   -3560.1077 
28263000    146.15057   -4960.4483   -4678.5846   -4960.4483            0     8489.273    19.527756    19.809914    20.459828    7914.7447    8566.0503    8495.7617     8406.007   -7.3314596   -25.733069    -380.8644   -3698.6812 
28264000    135.76278   -4956.1352   -4694.3053   -4956.1352            0    10646.755    19.573368     19.69593    20.395446    7862.7641    9260.0995    13228.943    9451.2237   -318.13814    289.78652   -107.42383   -3473.4381 
28265000    133.73187   -4960.6226   -4702.7095   -4960.6226            0     9376.383    19.744245    19.572334    20.506496    7924.5495    8915.0736    10814.372    8399.7035   -540.60833    297.67695   -856.25136   -3619.0675 
28266000    135.29433   -4952.8608   -4691.9344   -4952.8608            0    9922.8148    19.524306    19.576136    20.584307    7867.5375     10587.08    9787.8732    9393.4909   -197.06818   -637.77805   -289.82826   -3553.3909 
28267000    140.26824   -4974.3431    -4703.824   -4974.3431            0    9265.5907    19.677896    19.672564    20.525516    7945.7288    10252.169    9700.3671    7844.2363   -240.94824   -328.07458    739.55949   -3630.1245 
28268000    136.16672   -4973.4301   -4710.8211   -4973.4301            0    8681.8776    19.630525    19.747364    20.425877    7918.1145    9351.6079    8339.6664    8354.3585   -20.948822   -205.45107   -317.47671   -3708.2589 
28269000    133.20563   -4957.3976   -4700.4993   -4957.3976            0    8032.9593    19.729032    19.784423    20.322716    7932.5155    7108.3967     8308.328    8682.1531   -111.61671    1012.5021    204.92906   -3771.1855 
28270000     136.7754   -4962.2375   -4698.4546   -4962.2375            0    8233.7662     19.85272    19.679547    20.238431    7907.0041    7086.2135    7645.8034    9969.2818   -747.94738    429.86771    154.87651   -3748.9734 
28271000     134.5172   -4964.9697    -4705.542   -4964.9697            0    9618.0054    19.617231    19.660177    20.392324    7864.8754     9608.558    8492.4454    10753.013   -665.33353    -1818.278    1365.4879   -3602.3458 
28272000    137.35803   -4954.2377   -4689.3312   -4954.2377            0    9565.5225     19.64946    19.621558    20.392577      7862.42     9670.687    9220.8073    9805.0733   -161.35098   -922.83884   -1501.4991   -3592.4974 
28273000    135.44217   -4966.0282   -4704.8166   -4966.0282            0    9449.3135    19.741175    19.714894    20.240773    7877.6107    8805.3519    9604.2843    9938.3043   -286.95766    343.78883   -786.29019   -3619.2145 
28274000    138.88647   -4932.4861   -4664.6318   -4932.4861            0     10320.37    19.501388    19.689891    20.480777     7864.213    11238.916     9908.841    9813.3537   -275.53955    1107.3425     1087.773   -3480.9733 
28275000    139.89658   -4946.4386   -4676.6362   -4946.4386            0    9180.7035    19.641936    19.687269    20.395025    7886.6762    8535.9847     9253.212    9752.9137   -866.78399    1362.5889    1600.9142   -3620.6801 
28276000    142.45265    -4957.328   -4682.5961    -4957.328            0    7511.9342     19.75862    19.695484    20.376044    7929.4514    5094.8738    9703.5138    7737.4149   -198.50732    1170.9558    574.53798   -3813.8942 
28277000    142.46237   -4959.6423   -4684.8917   -4959.6423            0    9287.3835    19.773761    19.730086    20.365548    7945.3743    10017.192    9301.1983    8543.7598    23.198134     -114.541    318.92654   -3608.7149 
28278000    136.79267   -4962.1774   -4698.3613   -4962.1774            0    10669.026    19.729661    19.688024    20.271102    7874.0673    10425.124    10747.868    10834.087    459.31072   -1582.2052   -123.02646   -3473.1816 
28279000    135.56181   -4959.9745   -4698.5322   -4959.9745            0    6751.9273    19.735735    19.823122    20.358857    7964.8709    6975.3207    6998.8077    6281.6534   -349.10523    1887.2812     334.3323   -3914.2319 
28280000    136.24464   -4949.5085   -4686.7492   -4949.5085            0    9121.1197    19.564784    19.836919    20.363613    7903.2205    8549.7044    8955.6357    9858.0191    578.27724    625.58519    278.69189   -3635.4456 
28281000     146.4317   -4962.0431   -4679.6373   -4962.0431            0    9075.5391    19.628599    19.840407    20.305806    7907.8809    10879.249    7473.1569    8874.2112    -46.24996   -384.19625    68.381659   -3632.9705 
28282000    140.47499    -4956.859   -4685.9412    -4956.859            0    8691.7899    19.654282    19.725749    20.400033    7908.9997    8444.3254    9886.7018    7744.3426   -127.44167    294.72048   -117.19193   -3683.3898 
28283000    139.64723   -4969.6086   -4700.2871   -4969.6086            0    8043.6092    19.791818     19.71127    20.446505    7976.6288    8126.5031    8934.6174    7069.7072    321.97727    736.14127    674.95764   -3764.5665 
28284000     137.9052   -4969.2726   -4703.3108   -4969.2726            0    10449.243    19.757017     19.51373    20.433882    7877.9379    9789.3178    11860.824    9697.5863   -530.69497    -946.7009    80.890305   -3502.7801 
28285000    130.66548   -4968.8079   -4716.8085   -4968.8079            0    9431.1221    19.627961    19.632972    20.434599    7874.5793    10447.646    9257.3974    8588.3232   -210.73491   -253.27307    757.27376   -3633.7134 
28286000    136.89746   -4971.2946   -4707.2764   -4971.2946            0     9276.471     19.41318    19.701207    20.600108    7878.7805    9416.1671    9412.6278    9000.6182   -328.31392   -877.44865    106.87873   -3641.3734 
28287000    137.52967   -4962.6031   -4697.3656   -4962.6031            0    9073.2221    19.510917    19.810703    20.457009    7907.1451    9808.1132     8285.556    9125.9971   -54.706942    531.09292   -1429.4987   -3651.0634 
28288000    138.92743   -4954.8417   -4686.9085   -4954.8417            0    8816.9374    19.519412    19.710501    20.559878    7910.1541    10408.735    7581.8344    8460.2433    245.35701    293.15912   -73.226153   -3669.7735 
28289000    135.25536   -4970.6561   -4709.8047   -4970.6561            0    9379.2022    19.707547    19.669515    20.444103    7924.9092    8496.0857    10014.567    9626.9536   -2.2275701   -589.29647   -51.216834   -3625.7878 
28290000     131.0819   -4947.1133   -4694.3109   -4947.1133            0    8457.9273    19.603267    19.591804    20.562283    7897.2198    8248.3378    9704.6465    7420.7974     119.5528    1055.0609   -2.4554525   -3720.1873 
28291000    138.98392   -4952.3332    -4684.291   -4952.3332            0    10359.417    19.415672    19.655708    20.551753    7843.1402    11242.591    10020.357    9815.3039    192.79706    539.94069   -466.95567   -3499.3378 
28292000     136.6905   -4971.8808   -4708.2617   -4971.8808            0    9360.7601    19.902381    19.595616    20.407673    7958.9807     8853.659    8933.3272    10295.294    215.88534    309.32516    393.58552   -3621.7248 
28293000     140.8192   -4957.5986   -4686.0169   -4957.5986            0    10061.131    19.787482     19.54194    20.435006    7901.9261    10319.946    9627.6965     10235.75   -163.13911   -1288.7125    504.91172   -3526.5572 
28294000    130.47171   -4960.5627   -4708.9371   -4960.5627            0    8204.7103    19.929584    19.491606    20.329136    7897.0479     7852.714    8073.1311    8688.2859    184.38328    1519.6468   -518.02272   -3763.9978 
28295000    135.08361   -4965.4453   -4704.9252   -4965.4453            0    10929.425    19.774851    19.440493    20.362808    7828.1326    11185.289     10240.77    11362.215     516.0303   -186.15069   -323.86357   -3457.1643 
28296000    133.00287   -4961.4811   -4704.9738   -4961.4811            0     8638.478    19.891502    19.601217    20.293732    7912.4783    7569.0507     8366.827    9979.5564    99.801184    150.38921   -284.42932   -3708.1334 
28297000    134.42807   -4953.4031   -4694.1473   -4953.4031            0    10165.923    19.804746    19.586599    20.365739    7900.0251    10876.038    9183.7094    10438.021    289.60278    677.93748    -57.34718   -3522.8931 
28298000    131.13105    -4967.314   -4714.4167    -4967.314            0    8703.9868    19.732913    19.543433    20.457521    7889.4199     8159.311    9031.4698    8921.1797   -17.146351    1187.7062    167.88532   -3712.9438 
28299000    138.52651    -4966.976    -4699.816    -4966.976            0    8558.0201    19.897733     19.51698    20.537692    7975.6826     7927.494    9886.7445    7859.8217   -229.73493    1114.0061   -185.30871   -3704.3715 
28300000    133.02663   -4970.9511    -4714.398   -4970.9511            0    8069.5822    19.826694    19.657931    20.430912    7962.9843     8892.123    7533.9459    7782.6777   -280.11916    409.71651    1057.6854   -3777.2616 
28301000    150.59904   -4953.9962   -4663.5533   -4953.9962            0    9066.3799    19.720193    19.716374     20.42287    7940.6303    8900.1792    9499.9176    8799.0429   -814.69238     391.6491    257.32745   -3613.6125 
28302000    137.81397    -4972.587   -4706.8011    -4972.587            0    9504.7307    19.639293    19.696175    20.384703    7885.1894    9385.5247    9459.7778    9668.8896    856.51457    1145.6073   -333.14389   -3613.7818 
28303000    129.61814   -4960.6162   -4710.6368   -4960.6162            0    9301.2013    19.607616    19.659885    20.437966    7878.4982    8880.0162    9189.1801    9834.4075   -333.32485    680.53337    185.08214   -3641.9305 
28304000    139.51191   -4958.1957   -4689.1353   -4958.1957            0    7533.1049    19.739405    19.758539    20.376481    7947.2721    6999.9021    7509.9706     8089.442    510.53565   -433.62965    514.33636   -3816.0272 
28305000    135.22886   -4958.5527   -4697.7525   -4958.5527            0    7242.3191    19.829601    19.863578    20.197702    7955.6088     6485.872    7523.0321    7718.0531   -194.94469   -407.88898    -84.65577   -3857.4668 
28306000    139.50547   -4939.4483   -4670.4003   -4939.4483            0    10740.264    19.724208    19.741712    20.217927    7872.6511     11654.17    10610.643    9955.9802   -34.350196    916.80695   -352.68615   -3437.2618 
28307000    131.07642   -4963.0481   -4710.2562   -4963.0481            0     9967.708    19.638802     19.67276    20.325898    7852.8994    11341.283     8788.417    9773.4235   -106.16618    465.92145      394.984   -3568.6896 
28308000    139.66473     -4963.43   -4694.0748     -4963.43            0    9366.0289    19.622995     19.70942    20.416989     7896.431    9142.5239    10049.241     8906.322   -257.93811    419.49354   -414.41066   -3615.4703 
28309000    134.95353   -4964.7386   -4704.4693   -4964.7386            0    9466.4076    19.570716    19.886115    20.385911    7933.9012    10640.329    7784.7829    9974.1112    340.56417   -1071.7449    106.84094    -3609.132 
28310000    137.53926    -4964.554   -4699.2979    -4964.554            0    8401.4236    19.897131    19.688917    20.228157    7924.4402    7725.5658    8788.0925    8690.6126     80.26524    717.86249   -86.801556   -3728.3468 
28311000    141.26176   -4962.9527   -4690.5175   -4962.9527            0    9046.1028    19.723052    19.690202    20.356581    7905.4962    9998.6941    7908.9779    9230.6365   -345.47728   -31.714147   -173.06089   -3647.5601 
28312000    144.70678   -4950.1348   -4671.0556   -4950.1348            0    9351.5026    19.634735    19.776485    20.342354     7899.059    9283.8019    8635.5884    10135.117   -577.08495   -136.24148    1317.6667   -3593.7655 
28313000    138.03758   -4947.9161    -4681.699   -4947.9161            0    8364.8991    19.640863    19.896246    20.223362     7902.874    8876.9042    7156.4561     9061.337    283.56305    133.48346    70.926353      -3717.6 
28314000    140.77341   -4965.0226   -4693.5292   -4965.0226            0    8836.9085    19.651942    19.757481    20.297417    7880.9366    9291.5358     8236.711    8982.4785    292.48642    342.68704    176.83151   -3677.8558 
28315000    135.54495   -4966.1402   -4704.7304   -4966.1402            0    9236.2537    19.714797    19.701866     20.40781    7926.7662    8689.9307    9705.8523    9312.9781    206.07311    442.97126    318.19634   -3636.9848 
28316000    134.08225   -4933.7796   -4675.1907   -4933.7796            0    10348.167    19.635681    19.687658    20.456596     7908.123    10547.399    9824.4116     10672.69    280.95256    168.63998    624.82434   -3481.7173 
28317000    134.04708   -4961.2702   -4702.7492   -4961.2702            0     9137.093    19.545716    19.736828    20.486173    7902.9596    8813.4686    10141.429    8456.3817    138.86601    376.85382   -148.04552   -3649.6393 
28318000    138.63253   -4960.5141   -4693.1497   -4960.5141            0     9145.051    19.653961    19.738341    20.337441    7889.6374    9184.3395    10141.923    8108.8911   -586.65153    404.77866    1431.9169   -3640.8993 
28319000     135.8865    -4975.037   -4712.9684    -4975.037            0    7932.7292    19.535172    19.816873    20.370919    7886.1131    9209.1885    7711.7275    6877.2716    102.84377    1367.5852    601.49138   -3800.6183 
28320000    133.69426   -4954.6768   -4696.8362   -4954.6768            0     7360.825    19.732841    19.773165    20.371537    7948.5808    8400.6523    5909.8645    7771.9584   -378.00805    403.88136   -287.01179   -3843.5553 
28321000    139.26802   -4963.2067   -4694.6167   -4963.2067            0    9828.9927    19.812557    19.692942    20.300467    7920.5829    9528.7971    10181.512    9776.6692   -412.07035    984.24266   -409.22695   -3559.2345 
28322000    143.60445   -4946.3102    -4669.357   -4946.3102            0    9799.3888    19.718348    19.695123    20.432813     7935.191    9507.2272    9415.1046    10475.835   -768.29262    184.38319    735.87526   -3535.3068 
28323000    129.92092   -4971.7943   -4721.2309   -4971.7943            0    7695.0841    19.670804    19.847565     20.38406    7958.2953    8526.3462     8075.498     6483.408   -381.85422   -135.88255   -507.14525   -3828.1119 
28324000    137.79234   -4973.2049   -4707.4608   -4973.2049            0    10511.824    19.483943    19.640159    20.575309    7873.5072     10451.06    11885.415    9198.9972    -575.0162    437.95182      812.999   -3500.4193 
28325000      126.352   -4941.9219   -4698.2415   -4941.9219            0    9708.0838    19.551418    19.671201    20.460723    7869.1917    9618.4153    10198.887    9306.9487    35.250045     231.9746   -64.083937   -3584.1021 
28326000    138.49634   -4961.0413   -4693.9395   -4961.0413            0    10514.156     19.66321    19.623548    20.389052    7867.3593    10718.966    10169.753     10653.75    76.011586    158.24342    746.27719   -3487.5729 
28327000    129.86551   -4963.1971   -4712.7406   -4963.1971            0    9335.5344    19.599997    19.658098    20.385411    7854.4714    9102.5757    8937.6332    9966.3943   -518.36924    460.54819   -976.12042   -3643.3606 
28328000    142.83001   -4951.5312   -4676.0715   -4951.5312            0    9208.3369    19.588034    19.675044    20.491967    7897.5105    9182.7744    9317.0134    9125.2228   -96.416162    571.52989   -1285.5152   -3615.4821 
28329000    137.87313   -4965.9487   -4700.0488   -4965.9487            0     9619.752    19.515131    19.711092    20.420906    7855.1983    10328.965     8817.878     9712.413    -200.4272    243.56191   -745.27704   -3598.0099 
28330000    137.32054   -4953.9577   -4689.1235   -4953.9577            0    7996.0544    19.699015    19.750056    20.416491    7943.1719    7353.7958    7828.1451    8806.2223   -823.77751    266.79427    156.62472   -3762.8364 
28331000    142.76549   -4965.7843   -4690.4491   -4965.7843            0    9134.8833    19.780738    19.764595    20.234578    7910.8756    8016.3523    10384.978    9003.3197   -307.22397    547.77658    111.84428   -3636.5393 
28332000    134.81375   -4970.0307    -4710.031   -4970.0307            0    8205.9078    19.620562    19.690816    20.459183    7904.3009    9909.3386    6825.2955    7883.0891   -66.272244   -467.79013   -124.20203   -3764.0858 
28333000    135.09708   -4954.6491    -4694.103   -4954.6491            0    8618.6983    19.712754    19.656017    20.416058    7910.6964    8460.2041    9267.3026    8128.5883    292.67447    1267.2976    1052.9127    -3699.769 
28334000    148.85689   -4960.2623   -4673.1793   -4960.2623            0    9617.0175    19.902565    19.667638     20.19314    7904.3311    6920.6794    10896.586    11033.787    41.206307     419.6594   -1063.9549   -3564.5626 
28335000    132.03966   -4972.0832   -4717.4336   -4972.0832            0    7798.3052    19.864036    19.696435     20.37895    7973.2781    6719.8947    7889.9364    8785.0845   -36.744802    419.76123    869.35037   -3810.6304 
28336000    134.13787   -4963.1024   -4704.4062   -4963.1024            0     9061.864    19.521046    19.808391    20.428733    7899.3929    9871.3223    9073.7237    8240.5461    47.062222    1305.1576    1031.5547   -3660.4383 
28337000    133.76836   -4960.1231   -4702.1396   -4960.1231            0    9270.4449    19.593335    19.700997    20.498202    7912.4744    7879.8623    10935.152    8996.3206   -218.76312     953.0017   -137.12105   -3632.3736 
28338000    138.23221   -4957.2838   -4690.6914   -4957.2838            0     9061.737    19.550726    19.766088    20.391455     7880.102    8283.0294    9351.9541    9550.2276   -538.48754    722.63843    377.27401   -3649.2875 
28339000    137.27709   -4984.1116   -4719.3612   -4984.1116            0    8965.7784    19.462365    19.793169    20.462145    7882.4658     7934.759    9964.8771    8997.6991   -104.20626    128.63624    577.32498   -3688.6761 
28340000     135.1816   -4960.5526   -4699.8435   -4960.5526            0     8709.221    19.551735    19.715148    20.473286    7891.7425    8775.1209    8863.0165    8489.5255     25.97593    131.55376     1103.025   -3697.4734 
28341000    135.41588    -4967.763   -4706.6021    -4967.763            0    7866.7497     19.62627    19.914519    20.300761    7934.5064    7377.3569    7757.3695    8465.5227    47.321586   0.62089348    187.38067   -3796.2883 
28342000    142.71331   -4981.3212   -4706.0866   -4981.3212            0    8575.8039    19.778976    19.710493    20.315842    7920.1995    8525.6129    9511.3193    7690.4796   -2.5301772     839.9279    579.96575   -3715.5127 
28343000    140.38417    -4961.932   -4691.1893    -4961.932            0    7820.0729    19.703167    19.806276    20.434375    7974.4402    8667.1515    7450.2067    7342.8604    -512.3369    462.77683    22.992872   -3781.7225 
28344000    137.74288   -4960.2136   -4694.5649   -4960.2136            0     9917.319    19.786632    19.836264    20.172404    7917.5246    8273.5425    10665.127    10813.288   -40.768713    118.32486    182.13724   -3549.4223 
28345000     134.4825    -4973.442   -4714.0812    -4973.442            0    8514.7464    19.597423    19.788593    20.281072    7865.1095    7458.6917    9118.1281    8967.4193   -418.28901   -926.91577   -629.75137    -3737.401 
28346000    138.65435    -4958.896   -4691.4894    -4958.896            0    8732.9676    19.693935    19.850021    20.246353    7914.8059    9016.3981    7661.9936    9520.5112    437.68224    214.67188   -178.53434   -3683.4488 
28347000    140.87746   -4971.8435   -4700.1494   -4971.8435            0    9352.1404    19.782362     19.70506    20.304312    7914.8773    8328.2221    10001.247    9726.9522   -35.385444    266.66125   -576.21643   -3620.6284 
28348000    130.59777   -4949.2588     -4697.39   -4949.2588            0    9710.4796    19.425629    19.865147    20.488211    7906.2567     10114.17    9250.2594    9767.0093   -311.62089   -711.39806   -533.03204   -3577.7266 
28349000    135.58245   -4963.0429   -4701.5607   -4963.0429            0    8892.1611    19.658007    19.868072    20.294129    7926.2109    9249.7545    7548.6378     9878.091   -701.02375    -156.1627    766.01111   -3673.6655 
28350000    137.20863   -4970.3431   -4705.7247   -4970.3431            0    8900.0598    19.793258    19.752251    20.324894    7946.2494    7383.9122     10470.22    8846.0475   -294.85953    243.84452     1018.067   -3674.3155 
28351000    131.35771   -4974.1169   -4720.7826   -4974.1169            0    8375.5617    19.547603    19.854762    20.412417    7922.3243    9223.3535    7038.5387    8864.7929   -569.20024    76.129759    586.51534   -3753.0788 
28352000    134.07256   -4954.9097   -4696.3395   -4954.9097            0    9562.2531    19.658568    19.819663    20.308578    7912.7536    8509.9082    10074.833    10102.018   -1052.2135    812.06688   -1152.5876   -3592.8613 
28353000    139.96518   -4968.6451   -4698.7105   -4968.6451            0    7086.4655    19.857581    19.770051    20.372407    7997.9092    6409.9914    7450.9301    7398.4751    138.33543    483.89497   -639.12411   -3872.1359 
28354000    137.05209   -4959.0026   -4694.6861   -4959.0026            0    8177.3942    19.605085    19.740621    20.522448    7942.5271    7303.1556    8061.7152    9167.3119    281.70923    788.44593    545.82776    -3747.469 
28355000    136.96788   -4937.3846   -4673.2305   -4937.3846            0    10103.401    19.783074    19.879525    20.165723    7930.7373     10198.47    10171.792    9939.9405    127.09875   -455.74196   -1158.8871   -3504.6543 
28356000    133.65635   -4969.2411   -4711.4736   -4969.2411            0    7903.5995    19.742119    19.820097    20.261337    7928.0732    8490.1207    6977.1234    8243.5546   -53.164929    754.89181    294.78063   -3797.6371 
28357000    139.96538   -4966.6508   -4696.7158   -4966.6508            0      8257.09     19.52574    19.657886    20.581646    7899.9513    8050.1433    8724.3618    7996.7648   -192.89901    71.904813    -794.2538   -3745.3942 
28358000    138.64221   -4961.2616   -4693.8784   -4961.2616            0    9341.9607     19.55594    19.778007    20.569772    7955.9251    8830.5826    11203.549     7991.751   -80.736988    905.51113    -8.891455     -3609.94 
28359000     138.8581   -4953.0152   -4685.2157   -4953.0152            0    10428.826    19.462142    19.717179    20.433801    7841.2368    11733.303    10197.143    9356.0322   -759.16641   -509.12451    416.33247   -3492.6128 
28360000    146.26433   -4957.5247   -4675.4416   -4957.5247            0    9799.2234    19.690804    19.659624    20.321393    7866.6915    9554.1986    10074.519    9768.9525     303.1515   -641.25123   -825.29458      -3551.2 
28361000    139.82154    -4958.764   -4689.1064    -4958.764            0    7939.8058    19.621546    19.712773    20.562377    7953.4263    7665.2672     8897.915    7256.2353   -388.65456    239.49565    706.74397   -3768.1479 
28362000    131.06106   -4943.0528   -4690.2906   -4943.0528            0    8741.5194    19.625911    19.748726    20.455485    7928.2748    9576.2818    7906.3974     8741.879   -464.31231     138.1266    464.34797   -3679.5458 
28363000    133.72877   -4977.7229   -4719.8158   -4977.7229            0    9195.5233    19.816571    19.826167     20.29806     7974.837     9510.874    8385.5986    9690.0975     -145.669    997.42718    1318.0282   -3650.3321 
28364000    136.72458   -4954.6657   -4690.9808   -4954.6657            0    7847.1989    19.678492    19.860575    20.239036    7909.9448    7663.5941    7887.7079    7990.2946   -530.37604    1289.1758     469.9305   -3785.7403 
28365000    133.90801   -4952.0859    -4693.833   -4952.0859            0    9384.1841    19.636837    19.705365    20.373805    7883.6652    8878.9855    9988.3069    9285.2599    205.49009    181.31557   -651.10201   -3614.8849 
28366000    136.96235   -4977.1435   -4713.0001   -4977.1435            0    9261.5822     19.63199    19.748754    20.380591    7901.7045     9971.412    8709.9451    9103.3895   -656.98496    1836.4267    984.08604   -3645.7115 
28367000    130.73853   -4970.9945   -4718.8543   -4970.9945            0     8063.544    19.766565    19.807887    20.329672    7959.7556    8262.6639     7482.404     8445.564    325.46073     659.4773    994.58032   -3782.7988 
28368000    131.02699   -4961.7749   -4709.0783   -4961.7749            0     7918.518    19.672869     19.74513    20.424572    7933.7892    9104.7755    6959.4358    7691.3426   -431.64039   -577.12678    133.16846   -3792.8569 
28369000    133.03268   -4970.0792   -4713.5145   -4970.0792            0    7741.9808    19.575809    19.751212    20.520922    7934.3318    9432.2121    6535.3669    7258.3635    393.61156   -1138.2101   -310.83737   -3817.6582 
28370000    135.45688   -4958.8632   -4697.6232   -4958.8632            0    9123.4552    19.624235    19.737301    20.461012    7925.1521     9829.554    8024.8292    9515.9822   -303.81568    132.07271    1415.5274   -3643.1323 
28371000     135.4883   -4976.3006        -4715   -4976.3006            0    8306.0159    19.524272    19.871665    20.393955     7912.442    9877.0627    7216.7102    7824.2749   -628.94437    52.169699   -263.16657   -3756.5286 
28372000    136.46301   -4949.2364    -4686.056   -4949.2364            0    8719.7948    19.644473    19.852165    20.337398    7931.2864    8893.0215    7871.3676    9394.9953   -59.531329   -287.29873    279.64839   -3677.4402 
28373000    136.33731   -4965.4848   -4702.5468   -4965.4848            0    8931.8232    19.724828    19.720023    20.417615    7941.9224     7950.351    9641.2408    9203.8777   -617.69946    496.44203     256.5933   -3668.0203 
28374000     134.3423   -4948.5508   -4689.4603   -4948.5508            0    9093.6625    19.653641    19.713674     20.35361    7885.9142    8504.5955    10077.543    8698.8494     738.6115      1152.88   -1005.9001   -3643.6167 
28375000    141.98304   -4950.0325   -4676.2063   -4950.0325            0    8923.9432    19.402408      19.7816     20.47168    7857.2495    9325.1437    7750.1376    9696.5482    322.11206   -809.47306    353.27444   -3653.6123 
28376000    130.48126    -4965.911   -4714.2669    -4965.911            0    9380.9799    19.596604    19.801647    20.357265    7899.5355    8681.9176     10328.65    9132.3721   -640.98191    1327.2122   -1574.7163   -3633.5159 
28377000     139.8586   -4974.1238   -4704.3948   -4974.1238            0    8591.5897    19.803435    19.764759    20.218916    7913.8884    7446.7707    8907.6315    9420.3669   -371.44448   -78.060532   -320.33762   -3712.7883 
28378000     130.9149   -4961.4276   -4708.9472   -4961.4276            0    8483.4108    19.631984    19.834147    20.336715    7918.7846    8333.4964    8309.5831     8807.153    319.91971   -276.28447   -7.1480588   -3729.2206 
28379000    141.73224   -4952.6735   -4679.3309   -4952.6735            0    8744.8934      19.7374    19.690335    20.412156    7932.8989    8716.9148    8340.1328    9177.6327    322.23909    61.321429    415.76965   -3667.6063 
28380000    128.95552   -4964.0657   -4715.3641   -4964.0657            0    7982.7012    19.527536     19.64919    20.509475    7869.4912    7356.7524    8336.4057    8254.9456   -871.10247    747.34281   -241.52017   -3799.2018 
28381000    130.16436    -4966.636   -4715.6031    -4966.636            0    9462.6601    19.702307    19.724803    20.296488    7887.7046    7248.0483    10869.048    10270.884    233.07141    920.92386    692.94269   -3627.0747 
28382000    142.86144   -4952.8439   -4677.3236   -4952.8439            0    8466.2611    19.628393    19.738025    20.359023    7887.6092    8397.0701    8948.5664    8053.1468   -226.40908   -125.23684   -566.16175   -3703.4268 
28383000      145.436   -4967.9565   -4687.4709   -4967.9565            0    8058.3732    19.635135    19.701635    20.571661    7958.0289    7955.2947    9308.5998    6911.2253    203.54986    181.23788   -66.812872   -3752.2187 
28384000    135.54783     -4968.43   -4707.0146     -4968.43            0    9781.5151    19.645168    19.652573    20.482944    7908.0161    8590.3895    10716.099    10038.057    318.48616    448.49049    277.92467   -3578.9095 
28385000    133.60856    -4954.261   -4696.5856    -4954.261            0    8872.4951    19.553113    19.703788    20.445974    7877.2285    8504.0541    8963.4964    9149.9346   -393.67549   -55.144402   -113.92411   -3677.3019 
28386000    141.43201   -4963.9767   -4691.2131   -4963.9767            0    9255.1881    19.649778    19.715382     20.41742    7909.7674    9887.8666     9164.969    8712.7287   -580.80908      475.537    476.10627   -3623.5731 
28387000    137.99306   -4974.2785   -4708.1473   -4974.2785            0    8691.9709    19.640432    19.662841    20.517885    7923.7339    9947.2749    8791.4816    7337.1564   -914.13287   -543.33698    -236.6827   -3703.7072 
28388000    132.03406   -4963.8469   -4709.2081   -4963.8469            0    7732.0717     19.71049    19.758871    20.356652    7928.0412    6247.6882    9631.0847    7317.4423    165.11083   -184.76758    509.10516   -3815.2078 
28389000    127.78436   -4962.4526   -4716.0097   -4962.4526            0    9599.5951    19.604801    19.682028    20.422765     7880.374    10542.308    8793.5445    9462.9324    501.55367   -935.60631    -529.1609   -3612.7554 
28390000    138.87754   -4957.2415   -4689.4045   -4957.2415            0    8127.2581    19.637614    19.583095    20.505716    7885.7857    7360.3666    9688.4773    7332.9305   -20.891673   -33.731737    862.18906   -3754.7202 
28391000    136.57794   -4963.7871   -4700.3851   -4963.7871            0    9669.3303    19.577628    19.681777    20.485309    7893.4509    9687.0563    10771.746    8549.1891   -386.65687    1267.0271   -522.26979   -3587.2722 
28392000     135.2991   -4962.2815   -4701.3458   -4962.2815            0    8267.4652    19.619403    19.679995     20.51709    7921.8487    8563.3586    9154.1844    7084.8525    334.28875    155.63125   -553.29964   -3746.1887 
28393000    135.90022   -4965.9321   -4703.8371   -4965.9321            0    9526.5126    19.641693    19.822585     20.31429    7909.3508    9013.8059    9522.0143    10043.717   -578.12819   -249.18245    1112.4793   -3604.9561 
28394000     140.1633   -4965.6081   -4695.2914   -4965.6081            0    8386.4517    19.673312    19.743837     20.31085    7889.2759    7448.7281    8777.9539    8932.6729   -546.07251   -413.84548   -1202.2655   -3730.3715 
28395000     131.4915   -4950.6886   -4697.0962   -4950.6886            0    8359.5887    19.462851    19.828964    20.418385    7880.0298    9606.5214    7393.3635    8078.8813    6.6991353    1871.1622   -135.72364   -3736.3943 
28396000     133.4217   -4966.0893   -4708.7743   -4966.0893            0    8275.1797    19.597349    19.781686    20.434306     7921.739    9173.2528    8609.1949    7043.0914    320.18939   -42.742756    1019.6621   -3752.7392 
28397000    129.16442   -4964.4317   -4715.3272   -4964.4317            0    9134.5852    19.548377     19.77005    20.388021    7879.4075    9555.6426    8551.9876    9296.1253   -366.11247    377.27097   -1188.7535    -3665.644 
28398000    132.20765    -4964.379   -4709.4054    -4964.379            0    9592.0922    19.653499    19.857708    20.252503    7904.0136    10888.207    8246.0992      9641.97    435.05499    -203.8072   -171.70673   -3603.7064 
28399000    151.54565   -4970.0892   -4677.8207   -4970.0892            0    10208.041    19.751356    19.759983    20.102623    7845.7815    9190.5591     9123.732     12309.83    553.62915    215.36216    40.308929   -3509.7894 
28400000    133.64468   -4960.3626   -4702.6176   -4960.3626            0    9105.0069    19.722104    19.714112     20.26562    7879.3493    9353.6809     9150.296    8811.0437    -387.5481   -417.82796    -682.1929    -3656.341 
28401000    136.91383   -4932.2862   -4668.2363   -4932.2862            0    9806.0839    19.500229     19.72397    20.399324    7846.0274    9301.8777    11828.433    8287.9407   -815.14747   -162.56767    1371.5754   -3546.1628 
28402000    140.54908   -4959.3441   -4688.2834   -4959.3441            0    8528.0141     19.63713    19.809355    20.291135    7893.2286    9121.0605     7890.407    8572.5747   -125.43408   -871.40168    730.34137   -3706.5841 
28403000    135.41886   -4967.5192   -4706.3525   -4967.5192            0    7735.9106    19.836582     19.78628    20.262675    7952.9408     6710.817    7597.2726    8899.6422   -1159.9746    -566.4026    389.08447   -3809.0992 
28404000    132.33437   -4958.9278   -4703.7099   -4958.9278            0      8973.77    19.751816    19.677797    20.407155    7931.6941     9808.825    9225.6951    7886.7899    134.50136    1130.1653    10.963779   -3665.6634 
28405000    134.62144   -4953.4367   -4693.8079   -4953.4367            0    8816.0178    19.604915    19.517004    20.501576    7844.5018    9211.5439    8867.1745     8369.335    510.20935    884.38889   -694.09955   -3685.2201 
28406000    132.61252   -4965.3275   -4709.5731   -4965.3275            0    8569.9835    19.760519    19.511628    20.483676    7897.6843    7337.2108    10403.466    7969.2737   -307.26559    882.14828   -519.12153   -3722.4857 
28407000    143.83243   -4968.1881   -4690.7951   -4968.1881            0    9232.6988    19.655089    19.697197    20.287744    7854.4033    10414.678    8268.8011    9014.6172   -594.84043   -187.49089    35.640063   -3633.2041 
28408000    130.31603   -4966.4078   -4715.0824   -4966.4078            0    9481.4001    19.694989    19.641062    20.382358    7884.5177    7762.3894    10783.754    9898.0567   -856.41378    442.93036    245.98579    -3624.839 
28409000    136.63948    -4972.204   -4708.6833    -4972.204            0    9740.8735    19.636821    19.630147    20.488999    7897.9699    10886.817    9007.0129    9328.7904    333.32796    114.06743     88.34359   -3586.6925 
28410000    145.50575   -4973.9495   -4693.3294   -4973.9495            0    10165.039    19.488543    19.733202    20.434953    7858.6976    8951.9928    11649.233    9893.8921   -86.922514    24.150718    619.24158   -3528.3036 
28411000    136.05866   -4971.6234   -4709.2228   -4971.6234            0    8418.1382    19.481322    19.880037    20.451207    7920.5356     10129.31    7171.0423    7954.0625   -424.23622     222.0354   -452.48571   -3736.8194 
28412000    138.56814   -4958.1219   -4690.8816   -4958.1219            0    10160.136    19.656952    19.741296    20.329034    7888.7569    10488.394    9922.1751     10069.84   -21.745572    987.94963   -4.7531657   -3521.9637 
28413000    140.64881   -4959.5994   -4688.3463   -4959.5994            0    8717.2113    19.581383    19.736699    20.356366    7867.1632    7179.1246    8748.8368    10223.672    499.39633    -834.5258    668.30077   -3688.1814 
28414000    130.78819   -4958.1272   -4705.8912   -4958.1272            0    9748.2415     19.71555    19.573889    20.453875    7893.3545    10477.075    9561.6468    9206.0026   -478.64607   -56.484004    175.22218    -3583.708 
28415000       138.73   -4967.7992   -4700.2467   -4967.7992            0     9969.665    19.566024    19.809204    20.394212    7904.5388    11992.111    9087.5888    8829.2954    419.91925   -486.05277   -457.26174   -3550.9478 
28416000    141.33291   -4963.4281   -4690.8557   -4963.4281            0     9660.734    19.782316    19.677706    20.363138    7926.7704    9459.8266    9567.4884    9954.8871   -623.64681    921.06987    687.13868   -3574.0379 
28417000    137.04152   -4966.3606   -4702.0645   -4966.3606            0    9224.5732    19.787597    19.667457    20.412843     7944.101    10527.229    8373.7683     8772.722   -493.15758    754.01515   -1283.6583   -3633.3371 
28418000    145.56687   -4964.8009    -4684.063   -4964.8009            0    8158.9937    19.762809    19.602799    20.544419     7959.039    9122.0736    6797.8694     8557.038    105.22764    1174.8743   -501.07683   -3737.0125 
28419000    143.58221   -4961.6661   -4684.7557   -4961.6661            0    7511.1174    19.877975    19.494161    20.475358    7934.2919    5336.0383     9383.027    7814.2869   -856.66857    51.167572    622.28324   -3815.6179 
28420000    135.67683   -4956.3925   -4694.7283   -4956.3925            0    9605.2541    19.841331    19.500505    20.427681    7903.7957    9377.3978     9514.278    9924.0865   -427.92325    675.41368   -1745.3754   -3587.5427 
28421000    137.81252   -4952.2808   -4686.4977   -4952.2808            0    8010.2013    19.960225    19.394679    20.398139    7896.5716    6404.4654    9406.3126    8219.8259    -238.9397   -23.580104   -181.55609   -3764.0157 
28422000    135.70052   -4962.3208    -4700.611   -4962.3208            0    9192.1093    19.839792     19.52625    20.319616     7871.753    9306.1437    9106.9185    9163.2657    31.533709    469.73735    -10.62363   -3645.3436 
28423000     129.2873   -4960.3777   -4711.0363   -4960.3777            0    8461.9754    19.781194    19.696022    20.324177    7918.5193    8876.1227    8463.9312    8045.8721   -101.93013    275.02242   -998.72397   -3733.8179 
28424000    141.01458    -4973.513   -4701.5545    -4973.513            0    8353.7214    19.576376    19.741078    20.530846    7934.3254    8076.9758    9209.4084      7774.78   -170.48896    2.0589943    86.963847    -3734.912 
28425000    136.06304   -4961.0807   -4698.6716   -4961.0807            0    10000.909    19.612573    19.623829    20.467784    7877.5137    9356.3529    11301.755    9344.6177     163.2721    649.26053   -197.40424   -3549.7127 
28426000     136.4384   -4974.4579    -4711.325   -4974.4579            0     7309.404    19.563576    19.666626    20.528869    7898.4725    7571.7866    7276.9167    7079.5088    -34.41221   -452.84509    226.39161   -3869.3466 
28427000    140.56417   -4968.1718    -4697.082   -4968.1718            0    9093.9317      19.6349    19.709448    20.446909    7912.8115    8453.9366    10645.896    8181.9627   -347.03905    1057.8451    422.33381   -3647.6401 
28428000    137.62932    -4966.023   -4700.5933    -4966.023            0    8339.9142    19.762908     19.73109    20.330179    7927.6257    8971.2043    7603.3661    8445.1721   -79.203199    4.9760503   -595.87019   -3736.3633 
28429000     141.9096   -4958.7761   -4685.0915   -4958.7761            0    8972.3915    19.738029    19.641037    20.410288    7912.5653    9837.8837    8549.4495    8529.8412   -174.83157     1281.882    678.60221   -3649.7076 
28430000    136.20314   -4949.2096   -4686.5303   -4949.2096            0    9261.4352     19.69164    19.671906    20.369389    7890.5328    9355.4221    8625.9124    9802.9712   -114.23932    -983.6858    632.25495   -3620.7676 
28431000     134.4761   -4956.9194   -4697.5709   -4956.9194            0    8622.6646    19.480318    19.760725    20.453739     7873.569    8895.0019    7755.4829    9217.5091   -460.08291   -678.57297    178.85748   -3707.4482 
28432000    135.45104   -4959.0622   -4697.8335   -4959.0622            0    8901.8471    19.601795    19.810287    20.355978    7904.5763    9655.3952    7629.6446    9420.5015   -271.42254   -295.26698   -333.59293   -3671.6273 
28433000    127.92768   -4961.0234   -4714.3041   -4961.0234            0    9638.2411    19.705498      19.6899    20.397575    7914.2444    8710.4234    9711.6979    10492.602   -74.740755    929.20934    254.11796   -3601.8473 
28434000    133.79982   -4966.3525   -4708.3083   -4966.3525            0     10166.93    19.630817    19.703203    20.319151    7859.2439    9230.8447    10734.843    10535.103   -310.21019    -639.4444    453.30313   -3542.9848 
28435000    137.65794    -4948.273   -4682.7881    -4948.273            0    9813.0476    19.695808    19.786228      20.2656    7897.6209    10343.766    8857.6021    10237.775     337.1324    83.814661   -1521.8078    -3552.534 
28436000    137.55812   -4950.8067   -4685.5143   -4950.8067            0    9146.4376    19.799227     19.77453    20.262957    7933.3608    9643.0476    7738.9271    10057.338    122.68025   -296.63741    -542.4705   -3627.2721 
28437000    127.39306   -4951.9341   -4706.2458   -4951.9341            0    10235.437     19.76368    19.771561    20.217746     7900.262    9128.4183    10947.293    10630.601   -292.04836   -268.37646    899.84184   -3526.9472 
28438000    139.80053   -4960.8024   -4691.1853   -4960.8024            0     9011.352    19.667212    19.687736    20.461122    7922.6053    8065.6844    10147.843    8820.5289   -60.836026    783.65057   -598.59513    -3649.986 
28439000    129.02533   -4966.4195   -4717.5833   -4966.4195            0    7352.4643    19.697195    19.841814    20.293509    7931.2735    6427.9191    7786.3029     7843.171    -426.5333   -637.25759    421.17916   -3867.1275 
28440000    144.45786   -4956.2197   -4677.6206   -4956.2197            0    8877.8187    19.656863     19.70654    20.408386    7905.5707    8875.5498    9834.2568    7923.6496    163.58157    956.39052   -115.76326   -3654.0556 
28441000     139.8803   -4969.3981   -4699.6271   -4969.3981            0    9799.7801    19.572732    19.767958    20.441043     7908.904    9886.7564    10684.392    8828.1919    90.611693     183.1421   -456.17022   -3569.2886 
28442000    139.61448   -4958.7055   -4689.4472   -4958.7055            0    8760.5203    19.514505    19.722696    20.489733    7886.0607    9710.4591    8253.2815    8317.8204    587.49661    -415.6101   -326.63199   -3681.8988 
28443000    138.20495   -4962.4047   -4695.8648   -4962.4047            0    9188.2055    19.613899    19.670282    20.515334    7915.0402    10213.114     8440.865    8910.6375     384.4144   -497.62257    477.13857   -3635.2451 
28444000    141.31539   -4964.3602   -4691.8215   -4964.3602            0    8599.3547    19.739329    19.712921    20.431027    7950.1179    6634.0948    10135.861    9028.1086     289.1679   -374.49378   -388.02287   -3694.7753 
28445000    138.38688   -4961.0843   -4694.1935   -4961.0843            0     9749.791    19.713322    19.661777    20.361187    7891.9744     9397.914    10059.575    9791.8843   -216.58723    141.38363    -246.1497   -3572.0282 
28446000    139.06813   -4964.1423   -4695.9377   -4964.1423            0    10057.777    19.634106    19.653945     20.41863    7879.2971    9931.5325    11054.294    9187.5041   -342.19233   -319.01021    52.292443   -3540.1838 
28447000    135.99753   -4963.5987   -4701.3161   -4963.5987            0    8136.7659    19.754403    19.704114    20.371741    7929.5579    7508.7535    9071.5574    7829.9869   -113.08974    -817.2876   -692.76721   -3760.3441 
28448000    129.73556   -4952.1886   -4701.9827   -4952.1886            0    8564.1687    19.759973    19.704991    20.380428     7935.529    8528.9973    8635.2101    8528.2988    174.29902     -767.246   -497.13867   -3710.8381 
28449000    139.28639   -4944.2633   -4675.6378   -4944.2633            0    10112.808    19.494326    19.706316    20.431562    7849.0164     9846.211    9585.1492    10907.062    -432.9053    1635.8166    368.27763   -3518.0262 
28450000    137.07905   -4969.7095    -4705.341   -4969.7095            0    8162.9987    19.620724    19.653079    20.490619    7901.3392    8789.7012    8553.6433    7145.6515   -35.680316    780.31871    72.623379   -3764.6948 
28451000    134.87617   -4964.2909   -4704.1708   -4964.2909            0    9142.2389    19.857809     19.65248    20.365534    7947.7551    8992.1922    9587.2053    8847.3192   -838.02102    680.63918   -425.01949   -3644.4952 
28452000    131.24664   -4942.1704   -4689.0503   -4942.1704            0    10007.045    19.493372    19.711147    20.430114    7850.0001     10139.29     9996.006    9885.8401   -267.10487   -653.68881   -330.16279   -3543.4017 
28453000     133.6326     -4961.73   -4704.0083     -4961.73            0    9840.7184    19.582162    19.764572    20.344754    7874.0922    10578.304    9739.6792    9204.1716    130.61146    260.09667   -488.99793   -3573.9439 
28454000    128.68015   -4964.5845    -4716.414   -4964.5845            0     8211.903    19.509461     19.91209    20.468835    7951.6136    9681.3713    7447.3245    7507.0133   -288.08461    1368.6244   -489.47825   -3764.1114 
28455000    127.59381   -4961.2683    -4715.193   -4961.2683            0    8720.5253    19.679667    19.698051    20.435135     7921.702    9312.4293    8256.5552    8592.5915   -309.42705    410.47385    1110.8487   -3707.7116 
28456000    137.92854   -4982.5341   -4716.5273   -4982.5341            0    10467.478    19.591323    19.864073    20.333874    7913.2009    10964.426    10174.954    10263.055   -544.10492   -358.89853    237.03278   -3508.5183 
28457000    132.16742   -4955.7421   -4700.8461   -4955.7421            0    8265.3233    19.637234    19.693429    20.529229    7939.1553    8704.2945    8619.4109    7472.2645    466.88883   -417.13821    69.812521   -3743.8503 
28458000     137.1361   -4953.8439   -4689.3654   -4953.8439            0    9329.3194    19.607348    19.670999    20.455827    7889.7328     9116.785    8703.7658    10167.407    93.863634    582.43272    380.68966   -3615.8998 
28459000    134.60476    -4959.072   -4699.4755    -4959.072            0    9780.1684    19.586331    19.760675    20.404154     7897.206    10165.747    9318.2477    9856.5105   -98.744631   -312.05366    587.24107   -3573.0676 
28460000    143.86325   -4959.7059   -4682.2535   -4959.7059            0    9289.3542    19.592602    19.820746    20.323484    7892.4213    9527.3847    8781.7463    9558.9314    59.246502    490.71302    292.74621   -3613.0222 
28461000    138.78063   -4967.6174   -4699.9672   -4967.6174            0    8469.9083     19.75541     19.73863    20.341423    7932.0309    6122.9412    10208.466     9078.318    246.69552    579.97322    1140.7578   -3720.1637 
28462000     141.5662   -4972.7726   -4699.7503   -4972.7726            0    8990.9189    19.778819     19.69983    20.301774    7910.3704    7277.0882    10696.816    8998.8528    -12.53778    428.27286    811.35732   -3662.5162 
28463000     141.6395   -4954.2029   -4681.0392   -4954.2029            0    10169.755    19.497613    19.696231    20.467204    7860.0098    9311.0834    11521.906    9676.2741   -500.32615    41.137742   -189.59991   -3515.2784 
28464000    138.49031   -4956.5263   -4689.4361   -4956.5263            0    9903.7661    19.686263    19.750696    20.252918     7874.687    8364.9906    10384.154    10962.154    -779.8426    109.33814   -34.135444   -3552.0456 
28465000    126.90062   -4975.5514   -4730.8129   -4975.5514            0    7832.0773    19.715552    19.729225    20.431615    7947.3375    8771.2438    6846.5008    7878.4874   -382.65168   -80.433555   -1075.6368   -3823.0456 
28466000    132.57233   -4969.2051   -4713.5282   -4969.2051            0    9023.6363    19.840998    19.650335    20.346007    7932.5472    9364.0358    9294.7143    8412.1588   -189.23013     947.8804    477.37483   -3669.6011 
28467000    136.20841   -4979.8233   -4717.1339   -4979.8233            0    8757.4331    19.489704    19.699059    20.541363    7886.4215    7734.1644    10678.274    7859.8605   -9.5393603    484.57916    911.92417   -3709.8945 
28468000    138.15806   -4959.9978   -4693.5484   -4959.9978            0    8177.8125    19.781618     19.81952    20.288494    7954.3513    9371.1954    6210.2979    8951.9441    241.37453   -401.29882    1100.1411   -3744.8727 
28469000    133.89115   -4955.6132   -4697.3928   -4955.6132            0    9065.0397    19.643948    19.723909    20.550185    7962.2811    8652.8386    10406.508    8135.7719   -256.87209    420.82189    998.66665    -3644.745 
28470000    128.71143   -4956.4615   -4708.2307   -4956.4615            0    9369.2309    19.565118    19.736795     20.39515    7875.6427    8263.3057    10566.311    9278.0761   -385.71831    576.65729   -79.434908    -3632.098 
28471000    132.81611   -4947.9733   -4691.8263   -4947.9733            0    10237.388    19.556173    19.664156    20.359136    7829.2207    10525.108    11218.585    8968.4726    19.258213    1096.3797    91.419886   -3522.9095 
28472000     135.4906   -4979.5425   -4718.2374   -4979.5425            0    8581.6075    19.671389     19.84901    20.366041    7952.0756    8495.8284    8604.4779    8644.5161   -362.60508   -437.87197    260.52893   -3723.0038 
28473000    132.91475   -4965.4782   -4709.1409   -4965.4782            0    9078.8168    19.600653    19.845962    20.319192    7904.0399    9235.5319    7789.8206    10211.098   -711.98271   -111.80141    427.22758   -3662.6047 
28474000    135.82887   -4951.2692   -4689.3118   -4951.2692            0      10446.5    19.561148    19.712046    20.281618     7820.394    9250.8384    11571.474    10517.189   -216.31211   -143.94889   -124.00795   -3497.8631 
28475000    135.32243    -4965.027   -4704.0463    -4965.027            0    8923.5902    19.710205    19.580345    20.340316    7849.9913    7730.4794    10540.733    8499.5581   -165.60997    11.590245    433.96915   -3682.4374 
28476000    134.95575    -4960.491   -4700.2175    -4960.491            0     9029.428    19.693214    19.866243     20.23789    7917.6735    7799.1486    9343.8218    9945.3135   -450.20871     174.3709   -192.46034   -3657.5791 
28477000    150.41469   -4954.0143   -4663.9269   -4954.0143            0    9337.2912    19.833263     19.81133    20.097284    7896.6913     7101.232    10299.446    10611.195    320.24476   -162.74581   -365.02874   -3588.5964 
28478000     144.0895   -4966.6965   -4688.8078   -4966.6965            0    8326.4631    19.689619    19.709604    20.388052    7912.0851    8354.2066    8673.1624    7952.0204    -580.9931   -112.69469    697.34031   -3728.0201 
28479000    137.75918    -4960.269   -4694.5888    -4960.269            0    7848.0667    19.672727    19.795245    20.354889    7926.7317    6752.0851    7812.4436    8979.6715    584.54494   -661.22963    1046.0764   -3787.3268 
28480000    140.86812   -4942.2519   -4670.5759   -4942.2519            0     9204.324    19.618472    19.890459    20.147294    7861.8854    8071.5166    9127.2896    10414.166     300.9574    849.16188   -692.87711   -3615.2308 
28481000    138.29229   -4953.8488   -4687.1405   -4953.8488            0    9092.5511    19.673184    19.741061    20.386136    7917.3539    8908.6466    9610.9313    8758.0754   -132.77534    927.74486     887.2581   -3637.2556 
28482000    132.66577   -4952.1316   -4696.2745   -4952.1316            0    8194.3381    19.620609     19.79053    20.395482    7919.6117    7169.8881    9647.3626    7765.7636   -602.38342    327.85179    354.41119   -3749.8333 
28483000    138.72058   -4969.8436   -4702.3093   -4969.8436            0    9703.2616    19.585032    19.814632    20.284271    7871.7208     9899.984    8585.0431    10624.758   -186.46973    67.562301     547.1987   -3588.3654 
28484000    140.71762   -4957.8449   -4686.4591   -4957.8449            0    9433.1468    19.628402    19.765001     20.34659    7893.5692    9915.0479    8103.2955    10281.097   -241.82233   -48.379934   -27.066795   -3600.5189 
28485000    128.38579   -4957.4715   -4709.8687   -4957.4715            0    9323.2025    19.725877    19.664144    20.336935    7888.5441    8984.8891    9568.9587    9415.7596   -252.09263   -988.14282    172.40834   -3637.2685 
28486000    134.27039   -4963.8336   -4704.8818   -4963.8336            0    10624.938    19.724957    19.753376    20.202327    7871.5233    9089.4175    11477.177     11308.22    196.82513   -99.989506    718.32201   -3485.1592 
28487000    132.21752   -4951.0785   -4696.0859   -4951.0785            0    8961.7251    19.598187    19.668121     20.49507    7900.0193    8413.0589    9265.6766    9206.4397   -197.09188    1379.3509     270.2908   -3663.5726 
28488000    141.16966   -4962.0167   -4689.7591   -4962.0167            0    9069.1676    19.595502    19.690868    20.447785    7889.8279    9015.1785    9583.6272    8608.6972   -669.49702    665.74072   -313.28654   -3646.2149 
28489000    139.32572   -4964.5638   -4695.8624   -4964.5638            0    8974.7139    19.667453    19.720704    20.346724    7891.5992    9006.3624    8417.4437    9500.3356    426.10315    436.75088    248.96106   -3662.9547 
28490000    134.09164   -4950.8615   -4692.2545   -4950.8615            0     9372.231    19.666106    19.579953    20.535631    7907.4798    8773.6178    10828.218    8514.8577   -222.61078   -106.62901   -135.58868   -3611.4255 
28491000    130.16897   -4963.2013   -4712.1595   -4963.2013            0    9172.7274    19.685547    19.732776    20.384734    7918.4598    9587.1927    8559.3965    9371.5928   -507.05918   -870.97456    32.591336    -3652.869 
28492000    136.27533     -4966.99   -4704.1715     -4966.99            0    9304.4301    19.563199    19.790595    20.547188    7955.2004    7878.7907    10281.853    9752.6469   -329.55488    78.566788   -609.18628   -3624.6861 
28493000    138.53816   -4950.6077   -4683.4252   -4950.6077            0    8743.1834    19.554937    19.635963    20.507093    7874.3135    9942.6935    8429.3489    7857.5077   -658.58898    4.7726619     1283.975   -3679.3687 
28494000    141.19352   -4964.3449   -4692.0413   -4964.3449            0    7893.1344    19.681669    19.714096    20.418186    7922.3848    7698.3609    8612.3599    7368.6823   -257.27057    -506.9841    307.55616   -3780.0697 
28495000    146.42545   -4960.0553   -4677.6615   -4960.0553            0    9239.2599    19.611643    19.775305    20.401536    7912.2503    9560.0593    8325.8306    9831.8897   -141.70953    -1141.006    152.50295   -3611.5243 
28496000    142.18812   -4964.8501   -4690.6284   -4964.8501            0    8686.4742    19.445171    19.744103    20.604482    7910.6267    9029.9283    8855.4409    8174.0533   -280.79947    478.74723   -600.60524   -3688.4839 
28497000    135.50285   -4954.5502   -4693.2216   -4954.5502            0    9274.8082    19.448187    19.676935    20.545282    7862.2828    10948.918    8487.0803    8388.4265    345.88262   -1323.2314   -157.88054   -3629.7412 
28498000    141.18618   -4955.8105   -4683.5211   -4955.8105            0    8403.4444    19.528501    19.748586    20.507933    7909.0951    8849.7563    9666.1391    6694.4378  -0.49200089    887.56342   -506.77864   -3714.2171 
28499000    132.66818   -4963.2226   -4707.3609   -4963.2226            0    9058.6587    19.667119    19.650562    20.469977    7911.0309    9602.8159    9488.1663    8084.9938   -512.21103   -561.36438    794.19587   -3662.2247 
28500000    138.80207   -4945.6401   -4677.9487   -4945.6401            0    8948.8829    19.562957    19.743968    20.518682    7925.3487    10305.439     7651.188    8890.0217   -288.77806   -1239.0452   -44.570876   -3643.6092 
Loop time of 348.827 on 64 procs for 250000 steps with 972 atoms

Performance: 123.843 ns/day, 0.194 hours/ns, 716.687 timesteps/s
99.1% CPU use with 64 MPI tasks x 1 OpenMP threads

MPI task timing breakdown:
Section |  min time  |  avg time  |  max time  |%varavg| %total
---------------------------------------------------------------
Pair    | 19.618     | 28.723     | 39.36      |  85.4 |  8.23
Bond    | 0.26559    | 0.27586    | 0.28657    |   0.8 |  0.08
Kspace  | 133.68     | 144.3      | 153.49     |  38.4 | 41.37
Neigh   | 1.0384     | 1.0651     | 1.0863     |   1.2 |  0.31
Comm    | 83.232     | 84.249     | 85.657     |   6.6 | 24.15
Output  | 0.55999    | 0.56157    | 0.56291    |   0.1 |  0.16
Modify  | 83.657     | 84.678     | 85.277     |   4.6 | 24.28
Other   |            | 4.971      |            |       |  1.42

Nlocal:        15.1875 ave          19 max          11 min
Histogram: 3 3 9 12 0 9 8 7 11 2
Nghost:        2354.72 ave        2380 max        2325 min
Histogram: 1 1 10 8 9 5 15 5 6 4
Neighs:        4948.45 ave        6721 max        3062 min
Histogram: 2 3 5 7 13 14 9 4 3 4

Total # of neighbors = 316701
Ave neighs/atom = 325.82407
Ave special neighs/atom = 2.0000000
Neighbor list builds = 2922
Dangerous builds = 0

unfix		3
unfix		2
unfix		1

write_data	data.final.${pid}
write_data	data.final.1
System init for write_data ...
PPPM initialization ...
  extracting TIP4P info from pair style
  using 12-bit tables for long-range coulomb (../kspace.cpp:340)
  G vector (1/distance) = 0.37250021
  grid = 24 24 24
  stencil order = 5
  estimated absolute RMS force accuracy = 0.003473477
  estimated relative force accuracy = 1.0460273e-05
  using double precision FFTW3
  3d grid and FFT values/proc = 2197 216
Last active /omp style is kspace_style pppm/tip4p/omp
WARNING: Not all mixed pair coeffs generated from mixing. Use write_data with 'pair ij' option to store all pair coeffs. (../write_data.cpp:312)

write_restart   restart.lmp.${pid}
write_restart   restart.lmp.1
System init for write_restart ...
PPPM initialization ...
  extracting TIP4P info from pair style
  using 12-bit tables for long-range coulomb (../kspace.cpp:340)
  G vector (1/distance) = 0.37250021
  grid = 24 24 24
  stencil order = 5
  estimated absolute RMS force accuracy = 0.003473477
  estimated relative force accuracy = 1.0460273e-05
  using double precision FFTW3
  3d grid and FFT values/proc = 2197 216
Last active /omp style is kspace_style pppm/tip4p/omp
Total wall time: 0:05:49
