LAMMPS (30 Jul 2021)
Processor partition = 1
  using 2 OpenMP thread(s) per MPI task
using multi-threaded neighbor list subroutines
variable        pid world 0 1
variable        phase world IceV IceIII

shell cd ${phase}
shell cd IceIII
include Restart.lmp
echo both
log log.lammps
#include		in.partitions
include		in.temp
variable        temperature equal 198.97
variable	tempDamp equal 100.0
include		in.pressure
variable        pressure equal 7486.7
variable        pressureDamp equal 1000.0 # This is 1 ps
include		in.seed
variable        seed equal 745823

units		real
atom_style	full

read_restart	restart.lmp.${pid}
read_restart	restart.lmp.1
Reading restart file ...
  restart file = 30 Jul 2021, LAMMPS = 30 Jul 2021
  restoring atom style full from restart
  orthogonal box = (0.065220507 0.037560740 0.15264227) to (19.934780 19.962440 20.547356)
  2 by 4 by 4 MPI processor grid
  restoring pair style lj/cut/tip4p/long/omp from restart
  restoring bond style harmonic/omp from restart
  restoring angle style harmonic/omp from restart
  972 atoms
  648 bonds
  324 angles
Finding 1-2 1-3 1-4 neighbors ...
  special bond factors lj:    0        0        0       
  special bond factors coul:  0        0        0       
     2 = max # of 1-2 neighbors
     1 = max # of 1-3 neighbors
     1 = max # of 1-4 neighbors
     2 = max # of special neighbors
  special bonds CPU = 0.002 seconds
  read_restart CPU = 0.014 seconds
include 	in.setup
variable	out_freq equal 1000
variable	out_freq2 equal 10000
variable	out_freq3 equal 1000

timestep	2.0

neigh_modify    delay 7 every 1

include		in.tip4p
# This is TIP4P/Ice

# create groups ###
group ox type 2
324 atoms in group ox
group hy type 1
648 atoms in group hy

# set charges - beside manually ###
set group ox charge -1.1794
Setting atom values ...
  324 settings made for charge
set group hy charge 0.5897
Setting atom values ...
  648 settings made for charge

# ### TIP3P Potential Parameters ###
pair_style lj/cut/tip4p/long/omp 2 1 1 1 0.1577 8.5
pair_coeff 1 1*2 0.000 0.000
pair_coeff 2 2 0.21084 3.1668
bond_style  harmonic
bond_coeff  1 450 0.9572
angle_style harmonic
angle_coeff 1 55 104.52
kspace_style pppm/tip4p/omp 1.0e-5
pair_modify tail yes

thermo          ${out_freq}
thermo          1000
thermo_style    custom step temp pe etotal epair emol press lx ly lz vol pxx pyy pzz pxy pxz pyz enthalpy

restart 	${out_freq3} restart.lmp.${pid} restart2.lmp.${pid}
restart 	1000 restart.lmp.${pid} restart2.lmp.${pid}
restart 	1000 restart.lmp.1 restart2.lmp.${pid}
restart 	1000 restart.lmp.1 restart2.lmp.1


include         in.dump
dump            myDump all atom ${out_freq2} dump.water.${pid}
dump            myDump all atom 10000 dump.water.${pid}
dump            myDump all atom 10000 dump.water.1
dump            myDump2 all dcd ${out_freq2} dump.dcd
dump            myDump2 all dcd 10000 dump.dcd
dump_modify     myDump append yes
dump_modify     myDump2 append yes


variable natoms 	equal  "count(all)"                        # NUMBER ATOMS
variable H      	equal  "enthalpy/v_natoms"                 # ENTHALPY-per-atom
variable Vol      	equal  "vol/v_natoms"                 # volume-per-atom
fix AVG all 		ave/time ${out_freq} 1 ${out_freq} v_Vol v_H file vol_enthalpy.dat
fix AVG all 		ave/time 1000 1 ${out_freq} v_Vol v_H file vol_enthalpy.dat
fix AVG all 		ave/time 1000 1 1000 v_Vol v_H file vol_enthalpy.dat


timer           timeout 02:55:00 every 1000
New timer settings: style=normal  mode=nosync  timeout=02:55:00

fix 		1 all shake 1e-6 200 0 b 1 a 1
Finding SHAKE clusters ...
       0 = # of size 2 clusters
       0 = # of size 3 clusters
       0 = # of size 4 clusters
     324 = # of frozen angles
  find clusters CPU = 0.001 seconds
fix             2 all nph aniso ${pressure} ${pressure} ${pressureDamp}
fix             2 all nph aniso 7486.7 ${pressure} ${pressureDamp}
fix             2 all nph aniso 7486.7 7486.7 ${pressureDamp}
fix             2 all nph aniso 7486.7 7486.7 1000
fix             3 all temp/csvr ${temperature} ${temperature} ${tempDamp} ${seed}
fix             3 all temp/csvr 198.97 ${temperature} ${tempDamp} ${seed}
fix             3 all temp/csvr 198.97 198.97 ${tempDamp} ${seed}
fix             3 all temp/csvr 198.97 198.97 100 ${seed}
fix             3 all temp/csvr 198.97 198.97 100 745823


run             250000
PPPM initialization ...
  extracting TIP4P info from pair style
  using 12-bit tables for long-range coulomb (../kspace.cpp:340)
  G vector (1/distance) = 0.37207074
  grid = 24 24 24
  stencil order = 5
  estimated absolute RMS force accuracy = 0.0035218362
  estimated relative force accuracy = 1.0605905e-05
  using double precision FFTW3
  3d grid and FFT values/proc = 3211 432
Last active /omp style is kspace_style pppm/tip4p/omp
Neighbor list info ...
  update every 1 steps, delay 7 steps, check yes
  max neighbors/atom: 2000, page size: 100000
  master list distance cutoff = 10.8154
  ghost atom cutoff = 10.8154
  binsize = 5.4077, bins = 4 4 4
  1 neighbor lists, perpetual/occasional/extra = 1 0 0
  (1) pair lj/cut/tip4p/long/omp, perpetual
      attributes: half, newton on, omp
      pair build: half/bin/newton/omp
      stencil: half/bin/3d
      bin: standard
Setting up Verlet run ...
  Unit style    : real
  Current step  : 12750000
  Time step     : 2
  Walltime left : 2:54:59.91
Per MPI rank memory allocation (min/avg/max) = 10.18 | 10.19 | 10.19 Mbytes
Step Temp PotEng TotEng E_pair E_mol Press Lx Ly Lz Volume Pxx Pyy Pzz Pxy Pxz Pyz Enthalpy 
12750000    204.42053   -4811.5766   -4417.3344   -4811.5766            0    7164.7526     19.86956     19.92488    20.394713    8074.2383    7035.7984    7318.9779    7139.4815    -169.9669   -54.387656   -136.45292   -3573.6527 
12751000    197.83225   -4839.5085   -4457.9723   -4839.5085            0    6688.9953    19.799516    19.670973    20.741516    8078.3176    8195.9998    6088.8485    5782.1375    75.094256     390.6127    556.65941   -3669.9152 
12752000    195.15407   -4831.2692   -4454.8981   -4831.2692            0    5744.0326    19.911858     19.95267    20.508101    8147.7603    7647.6375    3040.7781    6543.6822   -427.55314   -71.796856    248.70923   -3772.3536 
12753000    200.89192   -4847.0458   -4459.6088   -4847.0458            0    6212.5338    19.917913    19.896813    20.421059     8092.927    4733.8966    7513.1846    6390.5202    115.43464   -593.09241    535.98288   -3726.3619 
12754000    189.37778   -4839.8657   -4474.6347   -4839.8657            0    7406.3325    19.824054    19.626565    20.716541    8060.3517    8702.8596    7261.4054    6254.7326    248.86337    445.83077   -500.47781   -3604.0058 
12755000    191.98583   -4813.3386   -4443.0778   -4813.3386            0    8302.9461    19.874408    19.855469    20.331933    8023.3001    7390.6159    9337.3521    8180.8702   -34.194118   -997.83713    1403.3001   -3471.5368 
12756000    211.16679   -4849.6771   -4442.4242   -4849.6771            0    5255.3208    19.886773    19.738886     20.65305    8107.2048    5054.7923    6719.0219    3992.1483    113.89951    858.40235   -159.92249   -3821.0599 
12757000     194.5814   -4819.4724   -4444.2058   -4819.4724            0    7669.9845    19.701931    20.018037    20.410424    8049.7481    8014.0208    6888.1457     8107.787    112.68705   -298.63024   -1378.5948   -3543.7702 
12758000    201.97096   -4840.3633   -4450.8454   -4840.3633            0    8650.5795    19.789321    19.799918    20.640386    8087.4591     9013.719    8392.3337    8545.6859   -612.15127    262.35013   -352.25618   -3430.5329 
12759000    211.93612   -4826.7938   -4418.0572   -4826.7938            0    7952.5851    20.032834    19.765338    20.282912    8031.1355    6372.5694    8320.6857    9164.5001   -1.8345481    952.87468   -1332.8266   -3486.6037 
12760000    196.36362    -4814.707   -4436.0032    -4814.707            0    7450.9078    19.708861    19.864316    20.617639    8071.8683    8432.0869    7088.4417    6832.1948   -234.97654    676.78114   -211.28161    -3558.883 
12761000    199.90924   -4837.6828   -4452.1411   -4837.6828            0     6327.184    19.947158    19.726258    20.583652    8099.3128    6543.2358    6132.6018    6305.7142    636.72902    359.42164    382.50157    -3704.773 
12762000    202.73795   -4804.5152   -4413.5181   -4804.5152            0    8032.6463    19.903455    19.840244    20.430305    8067.7112    9545.8203    6055.3652    8496.7535    75.932236   -248.53192    -549.4113   -3468.4026 
12763000    203.63152   -4812.5115    -4419.791   -4812.5115            0    6732.1032    19.778042    20.000049    20.479458    8100.8916    6949.6441    6321.9653    6924.7003    52.807962   -754.05886   -1778.1545   -3624.4388 
12764000    197.44893   -4839.1625   -4458.3657   -4839.1625            0    6736.1059    19.898928    19.823399    20.514061    8092.0664    4989.6109     7977.055     7241.652   -432.48019   -1151.0969   -835.13102   -3663.4076 
12765000    200.22709   -4842.2358    -4456.081   -4842.2358            0    5700.7228    20.038893    19.761184    20.521555    8126.3768    6917.2571    5801.6582     4383.253   -1022.9359    34.537482   -668.76033   -3780.4606 
12766000    197.51476   -4828.1599   -4447.2361   -4828.1599            0    7427.7419    19.790217    19.883254    20.494355     8064.404    7621.7465    7271.9884    7389.4908   -357.52412    1071.6824   -1034.6663   -3573.6515 
12767000    202.38536   -4837.9022    -4447.585   -4837.9022            0     7569.607    19.887443     19.55643    20.675632    8041.3194     7843.076    7198.5613    7667.1838    737.20754    968.85241   -725.20584   -3559.8639 
12768000    188.21924   -4829.8098   -4466.8131   -4829.8098            0    7647.0148    19.796399    20.027238    20.316727    8054.9159    7826.3079    6636.7775    8477.9591   -838.71555   -83.629605   -457.46689   -3568.4978 
12769000    188.26132   -4814.1627   -4451.0849   -4814.1627            0    7225.3592    19.865229    19.602932    20.681796    8053.8378     8469.943    5658.5096    7547.6249   -583.13313    4.3937695   -122.97448   -3602.4161 
12770000    201.73739   -4845.5018   -4456.4343   -4845.5018            0    7005.2299    19.718812    19.914707    20.580954    8082.0249    7942.6571    5545.6209    7527.4119   -582.04715    923.50869   -798.43618   -3630.7416 
12771000    204.54206   -4855.8419   -4461.3654   -4855.8419            0    9074.2846    19.702015    19.961897    20.355396    8005.5656    9163.6479    9137.3481    8921.8576    634.09506    606.98104    832.42812   -3401.9158 
12772000    189.59791   -4824.1376   -4458.4821   -4824.1376            0    5300.1295    19.921052    19.806882    20.720941    8175.9431    4877.1237    5933.9464    5089.3183    -189.2026    1365.9497    685.34841   -3826.5066 
12773000    200.72955   -4857.4421   -4470.3183   -4857.4421            0    6628.0104    19.838852    19.839405    20.498533    8068.0382    8455.6948    5707.4318    5720.9044   -707.31173    1779.7705   -366.48367   -3690.4397 
12774000    201.97027    -4807.548   -4418.0313    -4807.548            0    7025.9993    19.636837    20.122092      20.5686    8127.3584    7184.2373    6794.5089    7099.2519   -80.959799   -516.49141   -252.55973   -3585.2454 
12775000    195.60098   -4818.3319    -4441.099   -4818.3319            0     6867.525    19.961241    19.861042    20.646596    8185.3649     6030.402    8628.5853    5943.5878    866.80063    186.14166    462.04964   -3621.2871 
12776000    209.05968   -4838.0158   -4434.8266   -4838.0158            0    5146.1269    20.140465    19.731333     20.53698    8161.3592    4781.5728    6055.5788    4601.2291    612.37694    901.22484   -383.50805   -3822.3086 
12777000    204.18588   -4823.0861   -4429.2965   -4823.0861            0    6859.3656    19.781274    19.777122    20.711684    8102.7562    8014.3214    6383.5566    6180.2187    61.612225    1361.8052     290.8667   -3618.7226 
12778000    188.88182   -4821.1564    -4456.882   -4821.1564            0    9027.8993     19.77048     19.91836    20.417513    8040.3255    8075.7154     8730.142    10277.841   -275.43798    1305.2092    734.49001   -3398.2714 
12779000     205.5893   -4833.5869   -4437.0907   -4833.5869            0    8177.0927    19.827681    19.730359    20.486831    8014.5969    7992.9032    9304.3146    7234.0602    56.309026    159.89731    40.935956   -3481.3138 
12780000    202.66871   -4828.5462   -4437.6825   -4828.5462            0    7289.1165    19.967572    19.701109    20.591361    8100.2979    6891.7853    7823.1379    7152.4264    599.10873   -758.88496   -21.263925   -3576.5861 
12781000    194.83371   -4806.3886   -4430.6354   -4806.3886            0    8406.5532    19.740707    19.834922    20.589748    8062.0264    9114.9198    9225.7154    6879.0245   -189.34978    1039.7236    538.59158   -3442.2233 
12782000    200.29616   -4819.5791   -4433.2911   -4819.5791            0    6779.9468    19.713532    19.853004    20.651342    8082.3742    8479.6262    5550.6536    6309.5606   -133.14032   -415.41587   -64.267533   -3634.1175 
12783000    193.71263   -4818.5823   -4444.9912   -4818.5823            0    7665.4194    19.921976    19.727481    20.513306    8061.9427     6876.912    8673.5714    7445.7747   -436.24216   -431.88061    286.16773   -3543.7283 
12784000    192.59293   -4827.3769   -4455.9452   -4827.3769            0    9572.4771    19.611144    19.922431     20.51542    8015.4083    12078.453    7697.9676    8941.0109   -75.679453    2226.4766    819.82455   -3336.9561 
12785000    197.63662   -4863.5341   -4482.3753   -4863.5341            0    8859.1749    19.816625    19.844347    20.405819    8024.5473    8753.9512    8946.3793    8877.1942   -151.01242   -589.12679    416.56015   -3445.5879 
12786000     184.7069   -4830.6901   -4474.4673   -4830.6901            0    6047.7532    20.079189    19.782307    20.431143    8115.5091    4753.1904    7015.7713     6374.298   -224.60366    1482.9614   -26.925663   -3758.6772 
12787000    204.56861   -4843.6376   -4449.1098   -4843.6376            0    8259.0327    19.904172    19.762297    20.489273    8059.4996    7600.1968    8128.9656    9047.9357    87.275613    671.22015   -450.30942   -3478.3469 
12788000    199.30056   -4814.4837   -4430.1158   -4814.4837            0    8332.0023    19.797099    19.840941    20.521497    8060.7021    8587.8455    7234.4029    9173.7583   -144.99445   -493.29684    307.54461     -3450.63 
12789000     195.3304   -4841.0334   -4464.3223   -4841.0334            0    7503.8484    19.778605    19.753237    20.627937     8059.159     8228.285    6934.9132     7348.347    759.74459    -582.8487   -685.11147   -3582.3608 
12790000    195.28325   -4819.5852    -4442.965   -4819.5852            0     8497.644    19.930558    19.703316    20.470254    8038.6295    6353.6585    10006.293    9132.9811    86.754088     1655.222    771.45464   -3446.7423 
12791000    186.43778   -4804.1568   -4444.5959   -4804.1568            0    7154.7284    19.693992    19.910007    20.644754    8094.9632     7605.628    7278.4837    6580.0735   -607.77579    523.99252    76.938925    -3599.932 
12792000    198.31959   -4844.8962   -4462.4202   -4844.8962            0    7152.0616    19.861128    20.014772    20.437017    8124.0404    8655.7814    5699.4187    7100.9849   -33.363327    1069.3338   -304.42538   -3615.0383 
12793000    203.68459   -4831.1734   -4438.3505   -4831.1734            0    6634.4212    19.975835     19.69072    20.579188    8094.5882    5973.2292    7112.9128    6817.1216   -89.620773   -1299.7881   -454.71562   -3655.1487 
12794000    192.30747   -4836.8112   -4465.9301   -4836.8112            0    8389.1184    19.913523    19.776298    20.414171    8039.4225    8024.6974    8326.5696    8816.0883    267.86908    1360.2879     -849.684   -3482.3334 
12795000    199.47954   -4867.1658   -4482.4528   -4867.1658            0    6622.4245    20.099298    19.849823    20.322374    8107.9671    5060.5798    6982.9603    7823.7335    55.059011   -417.54144    5.4187033    -3699.375 
12796000    194.58566   -4836.0607   -4460.7859   -4836.0607            0    6578.4254    19.630855    19.881164    20.661806    8063.9775    6333.3154    7099.9678    6301.9929    151.97461    553.17409    704.31093   -3687.1312 
12797000    198.32067   -4834.8175   -4452.3394   -4834.8175            0     8417.708    19.772982    19.823122     20.59493    8072.4349    8886.3539    8780.4156    7586.3546    169.64372   -848.45007    1224.8287    -3461.338 
12798000     194.8607   -4844.2851   -4468.4799   -4844.2851            0    8082.6331    19.762719    19.872945    20.456502    8034.1564    8525.6779    7315.6776    8406.5439   -126.60856    910.69113    1166.1839   -3521.4383 
12799000    202.28953   -4833.8643    -4443.732   -4833.8643            0    6652.5617    19.819401    19.743513    20.740355    8115.7961    4930.4025    8499.1713    6528.1113   -622.75965    98.573474    407.59706    -3656.331 
12800000    189.02339   -4834.2453   -4469.6978   -4834.2453            0    7444.0976    19.836529    19.867217    20.577504     8109.525    7996.0387    6903.5983    7432.6559   -118.98433    -797.9408    637.01048    -3589.291 
12801000     204.0596   -4794.1168   -4400.5707   -4794.1168            0    6712.8322    19.819514    19.958646    20.587943    8143.9867    6452.4054     7460.024    6226.0672   -147.48309   -35.776705    615.05824   -3603.2762 
12802000    186.85663   -4827.4962   -4467.1274   -4827.4962            0    8820.4792    19.910141    19.818855    20.452373    8070.4284    8529.4493    8388.0636    9543.9247   -515.35061    958.98103   -225.42978   -3428.9666 
12803000    200.15185   -4861.3474   -4475.3377   -4861.3474            0    8308.2049    19.633646     19.80005     20.74889    8066.0724     9419.738    8929.2431    6575.6336    497.88353   -165.40818   -498.38593   -3497.9988 
12804000    211.82188   -4842.5422   -4434.0259   -4842.5422            0    7636.9186    19.796708    20.007609    20.419624    8087.9025    9673.7744    6130.0788    7106.9025    127.55022   -563.27134   -93.267866   -3533.2226 
12805000    194.94602   -4824.6751   -4448.7053   -4824.6751            0     6118.253    19.910294    19.734595    20.647777    8112.9572    6736.0955    5770.4222    5848.2412   -228.58346   -732.91597     177.2223   -3724.7988 
12806000    198.31656   -4798.8436   -4416.3734   -4798.8436            0    7412.5297    19.904875    19.876043    20.418741    8078.2694    7224.2264    7910.3225    7103.0404    203.72738    572.29299   -274.43647   -3543.0791 
12807000     188.2014   -4841.5164   -4478.5542   -4841.5164            0    6699.3303    19.949003    19.648961    20.684701    8107.9306    7715.5236      6013.94    6368.5275    692.08846     1269.875   -1945.3639   -3686.3862 
12808000    206.52394   -4847.9554   -4449.6566   -4847.9554            0    6667.6802    19.880745    19.901185    20.504443    8112.5911      7279.53    5720.0149    7003.4958    414.78482   -727.89832    304.00314   -3660.7779 
12809000    196.75779   -4834.4653   -4455.0013   -4834.4653            0    8162.9317    19.602458    20.041705    20.632559    8105.8454    9936.6531    6073.4857    8478.6564     24.10427    918.88699    934.46747   -3490.0167 
12810000     200.4758   -4828.6677   -4442.0332   -4828.6677            0    8127.4338    20.095436    19.664805    20.281677    8014.7675    9647.3496    7040.8337    7694.1182   -749.01112    1781.0734    908.47029   -3492.0405 
12811000    198.62507   -4826.4487   -4443.3835   -4826.4487            0    7312.3382    19.887497    19.738728    20.577038    8077.5966    6633.9762    7685.9892    7617.0491    982.61629    786.25926    641.47919   -3581.9648 
12812000    212.64035   -4819.3548     -4409.26   -4819.3548            0    9827.1951    19.732027    19.983174    20.461276    8068.0558     11610.36    7236.3508    10634.875    612.95982    35.007622   -260.47071   -3252.9498 
12813000    206.63006   -4823.6571   -4425.1537   -4823.6571            0    8092.4735    19.845554    19.946871      20.4167    8082.0875    8777.9302    7139.5653    8359.9249    218.51411    242.51667    742.68282   -3471.3023 
12814000    197.13642   -4840.2097   -4460.0156   -4840.2097            0    6744.7574    19.884769    19.839997    20.627324    8137.7634     6570.101    7380.5181    6283.6531   -123.58127    262.09146    1817.4684   -3659.5415 
12815000    193.35394   -4824.9303   -4452.0309   -4824.9303            0    9342.7232    20.032936    19.541825    20.552096    8045.7375     7511.408    11282.696    9234.0657   -583.61809    840.10324    62.565344   -3355.7668 
12816000     198.9223   -4805.0647   -4421.4263   -4805.0647            0    7492.7538     19.83334    19.903635    20.464344    8078.4138    7587.1823    6860.1602     8030.919   -647.87238    1057.4665   -3.5988722   -3538.6647 
12817000    197.38367   -4845.5886   -4464.9175   -4845.5886            0    6876.2785    19.896362    19.803689    20.549543    8096.9589    5707.8722    8235.3534      6685.61   -614.60704     -429.405    1216.1872   -3652.9264 
12818000    193.33229   -4821.2263   -4448.3687   -4821.2263            0    8174.7414    20.023289    19.645508    20.443028    8041.6265    7816.6894    8246.3163    8461.2185     836.0608    81.831959    970.64825   -3489.6442 
12819000    189.69069   -4838.0715    -4472.237   -4838.0715            0    8039.1811    19.760419     19.80911    20.559128    8047.5896     5563.468    10982.553    7571.5224   -65.332616    1476.6098   -940.83452   -3528.7118 
12820000     200.7288    -4834.743   -4447.6206    -4834.743            0    6099.1358    19.888857     19.96131    20.532206    8151.4423    5905.9557    5310.3487    7081.1029    197.50032    584.07925    1045.3852   -3722.5528 
12821000    191.84953   -4819.1585   -4449.1605   -4819.1585            0    7257.0164    19.745508    19.974142    20.613179    8129.8288    8534.2855    5957.6196     7279.144    168.94575   -515.82293   -44.616873   -3588.7308 
12822000    218.85114   -4820.8656   -4398.7928   -4820.8656            0    8047.7197    19.734033    19.880344    20.571524    8070.6075    8531.2085    7816.0604    7795.8902    907.92466    1448.0006   -266.26806   -3451.5638 
12823000    193.31741   -4840.7017   -4467.8729   -4840.7017            0    8463.9148    19.913457    19.752389    20.433472    8037.2681    9505.8075     8838.971    7046.9658   -110.90364   -84.924765    935.01201   -3475.7724 
12824000     190.6847   -4840.3003   -4472.5488   -4840.3003            0    6247.1731    19.745493    19.801007    20.702697     8094.354    7540.1051    5626.8851    5574.5292   -83.013103   -309.10536    864.41536   -3735.0834 
12825000    196.59745   -4833.8535   -4454.6988   -4833.8535            0      9194.99    19.908146    19.830807    20.407632    8056.8227    9081.1348     8620.314    9883.5213   -304.11457    592.31012    1136.2917   -3374.2829 
12826000    200.45301   -4841.1932   -4454.6027   -4841.1932            0    6877.2099    19.867349    19.766322     20.67238     8118.135    7629.9734    5400.1698    7601.4864    286.47738    117.79462    207.09374   -3640.3777 
12827000    188.11051   -4840.3093   -4477.5224   -4840.3093            0      9511.93    20.045883     19.75858    20.251477    8021.1681    8131.8632    10435.186    9968.7412    429.89377     22.66721    764.07789    -3364.812 
12828000    201.14994   -4807.2116    -4419.277   -4807.2116            0    8998.7623    19.932595    19.700366    20.607192    8092.0203    10448.014    7724.9697    8823.3028    5.6355196   -1193.5099    645.43738   -3357.2988 
12829000    198.35917   -4848.5918   -4466.0395   -4848.5918            0    6082.7148     19.97106    19.928292    20.393308    8116.3148    6266.8512    5090.0978    6891.1953    371.26217   -24.126175    1148.4994   -3746.0399 
12830000    193.28563   -4806.1238   -4433.3562   -4806.1238            0      7840.56     19.93612    19.742692    20.526445     8079.058    7336.6731    6835.9234    9349.0835     -1251.41   -777.98999    52.741897    -3509.544 
12831000    206.84989   -4848.8214   -4449.8939   -4848.8214            0    6058.8916    19.759443    19.833328    20.675196    8102.5164    6006.6211    6643.5158     5526.538   -51.158226    684.78987   -159.90956   -3733.9336 
12832000    195.87163   -4844.6035   -4466.8486   -4844.6035            0    8442.0587    20.029981    19.820306    20.242144    8036.1382    9194.0608    7455.4541    8676.6613   -85.974258   -522.77411    988.79328   -3477.4492 
12833000    208.76662   -4839.7203   -4437.0963   -4839.7203            0    7202.0021     19.59849    19.901459    20.681243    8066.4818    6938.7549    6944.3723    7722.8791   -666.26109    228.19918   -70.923767   -3589.8429 
12834000    219.26351   -4843.4508   -4420.5827   -4843.4508            0    6813.4832     19.97179    19.861996    20.465615     8118.292    6985.0748    7158.3175    6297.0572     94.61483    769.53178   -121.34268    -3613.887 
12835000    198.03728   -4852.4801   -4470.5486   -4852.4801            0    7618.4498    19.857588    19.904369    20.503997    8104.2613    7170.0639    7996.0652    7689.2203   -111.75945     236.0359    837.63118   -3570.1062 
12836000    193.81503   -4837.2156   -4463.4271   -4837.2156            0    7614.7276    19.931422    19.777818    20.540681    8097.1376    9524.5877    7286.5585    6033.0364    523.64158     155.3724   -469.67909   -3564.2157 
12837000    197.71716   -4835.4684   -4454.1542   -4835.4684            0    8039.9124    19.929573    19.759741    20.478346     8064.438    6368.4657    9743.1719    8008.0998    37.923333    362.67028    132.63455   -3508.5676 
12838000    195.73948    -4831.427    -4453.927    -4831.427            0    6980.9394    19.804904    19.835091    20.632326    8105.0395    7900.7655    7006.7217    6035.3311    622.94448   -592.57764   -380.49054   -3628.7542 
12839000     188.5867   -4841.6864   -4477.9811   -4841.6864            0    7794.4757    19.579017    20.086986    20.233169    7957.3706    6988.2822    7007.1997    9387.9451   -371.64902   -214.15879   -414.73422   -3573.4315 
12840000    198.52867    -4840.888   -4458.0088    -4840.888            0    7861.2316     19.93262    19.641632    20.647513    8083.6907    7937.4446    8955.1124    6691.1378    79.601917    155.52536    338.78385   -3531.2298 
12841000    199.93394    -4840.485   -4454.8956    -4840.485            0    7802.3056    19.756867    19.623782    20.652105    8006.9127    7452.6474     8995.637    6958.6325    57.432562    1192.2673    43.189226   -3543.8001 
12842000    198.97393   -4841.2775   -4457.5396   -4841.2775            0    8278.8707    19.858704    19.969702    20.335916     8064.663     8399.303    6967.2049    9470.1042    205.87633    919.31042     684.4344   -3483.8216 
12843000    195.43633   -4818.8853   -4441.9699   -4818.8853            0    6594.9242    19.834012    19.849435    20.753919     8170.692    6680.6334     6641.159    6462.9802   -444.56726   -469.79537   -1908.7709    -3656.111 
12844000    204.59917    -4846.039   -4451.4523    -4846.039            0      6441.73    19.836661    20.007952    20.382986    8089.8229    5330.4615    6121.1297    7873.5987    8.7003951    -1131.255   -137.15421   -3691.4456 
12845000    185.59566   -4838.7598    -4480.823   -4838.7598            0    7323.3058    19.858551    19.976241    20.353412    8074.1825    5631.9359    7742.9483    8595.0333   -351.27423    135.16226    375.84895   -3618.4768 
12846000    203.07464   -4832.9079   -4441.2614   -4832.9079            0    6823.1038    19.916112    19.724216    20.598125    8091.5552    6552.5271    7762.0722    6154.7121    473.68318    725.83582    424.86897   -3636.0871 
12847000    197.84426   -4840.6805   -4459.1212   -4840.6805            0    6899.7032      19.8917    20.028722    20.399194    8127.1476    6087.6717    7257.7923    7353.6456   -618.11157    129.71077    408.94311   -3641.3262 
12848000    197.29271   -4840.7772   -4460.2816   -4840.7772            0    6151.8212    19.659611      19.9692    20.826904    8176.3653    7087.7862    5549.2765    5818.4008   -509.17778    464.86666   -359.54121   -3726.7145 
12849000    193.96145   -4819.9248   -4445.8538   -4819.9248            0    9262.2265    19.686474    19.786283    20.506887    7987.8867    9096.8799    9626.2742    9063.5254   -114.93527    -12.88296    1029.1692   -3366.8495 
12850000    203.98227   -4840.7702   -4447.3733   -4840.7702            0    8191.8519    19.945337    19.543227    20.614225    8035.3476    9082.4579    8247.7116    7245.3863   -287.23539   -340.38306    676.54137   -3487.3922 
12851000    198.09629   -4860.5202   -4478.4748   -4860.5202            0      8289.98    20.034755    19.953697    20.142659    8052.3788    7164.9964    8453.5053    9251.4383    462.55251   -1265.6906   -638.10657   -3504.9353 
12852000    198.93196   -4831.2342   -4447.5772   -4831.2342            0    8550.9884     19.62321    19.846385    20.647928    8041.3314    9032.7585    8360.3604    8259.8462    128.38676    230.42911    1513.2487   -3444.7637 
12853000     206.3644   -4836.3547   -4438.3636   -4836.3547            0    6037.0099    19.822419    20.018516    20.465584    8121.0593    5909.3603    5693.1201    6508.5491    180.76813    1198.5707    1437.0607   -3723.3563 
12854000    203.41114   -4820.7421   -4428.4467   -4820.7421            0    8240.3409    19.948231    19.574553    20.489575    8000.7224    7816.8605    7881.0275    9023.1347   -124.80625    1327.1034   -1458.5044   -3466.9445 
12855000     203.1081   -4808.1186   -4416.4075   -4808.1186            0    6953.7605    19.933766    19.888225    20.480265    8119.3442    5974.4001    6226.0153     8660.866    163.66048    462.17987   -422.44507   -3592.9967 
12856000    190.41433   -4836.3423   -4469.1123   -4836.3423            0    5849.0039    20.083956    19.679175    20.499901     8102.292    6034.6878    7045.7755    4466.5484     88.96109    748.41952   -1327.4761   -3777.9728 
12857000    194.67783   -4821.6742   -4446.2216   -4821.6742            0    6688.9839    19.811155    19.784301    20.672729    8102.6729    5568.9611    7871.8543    6626.1363   -379.84973   -749.35823   -276.16946   -3655.7899 
12858000    200.04298   -4822.9715   -4437.1718   -4822.9715            0    6946.4206    19.910905    19.915919    20.370901    8077.9579    7623.5157    6188.7487    7026.9972   -1178.5892    -662.7084    708.21415   -3618.8228 
12859000    203.28288    -4845.249   -4453.2009    -4845.249            0    7199.6281    19.787903    19.936804    20.514536    8093.1393    7716.4097    7046.1288    6836.3459    682.91218   -789.39735    1308.9879   -3603.4278 
12860000    205.35852   -4824.8231   -4428.7719   -4824.8231            0    7910.0969    19.531314    19.942782    20.744884    8080.3138    10451.831    6329.1848    6949.2748   -687.40654   -216.39012    1146.1523   -3496.6217 
12861000    202.98842   -4818.8802   -4427.3999   -4818.8802            0    6700.6833    19.846322    19.965971    20.381757    8076.2933    7026.7019    5796.7984    7278.5496    9.9119263   -278.54441   -646.97414   -3638.1636 
12862000    207.30636   -4840.6507    -4440.843   -4840.6507            0    6833.3856    19.846774    19.778733    20.655344    8108.1325    6723.8832    7212.4372    6563.8364    36.671642    471.50942   -870.17532   -3632.8034 
12863000    194.49636   -4846.0778   -4470.9752   -4846.0778            0     7735.638    19.810656    19.985134    20.323447    8046.4311    8116.4154    7611.7835    7478.7152    210.79472    1360.3933    509.75375   -3563.2062 
12864000    203.83357     -4836.69   -4443.5798     -4836.69            0    6493.3604    19.802417    19.841131     20.62852     8104.994    7610.3015    6509.1866    5360.5932    415.37024    1109.8034     130.6819    -3676.045 
12865000    196.29624   -4828.0782   -4449.5044   -4828.0782            0    6821.8414     19.91241    19.932642    20.349502    8076.8585    6454.9153    8180.7942    5829.8148    -92.32439   -716.93195    1008.9549   -3645.9413 
12866000    193.09402   -4844.9571    -4472.559   -4844.9571            0    8234.4949    19.859107    19.825531    20.472294    8060.2972    8586.2108    7195.3918     8921.882    853.01209   -1095.7614    1335.5211   -3504.5845 
12867000    194.46284   -4848.0851   -4473.0471   -4848.0851            0    7846.4918    19.738945    19.693936    20.669093    8034.8517    7668.6454    8546.9799    7323.8501    341.07663   -183.28354    2166.4358   -3553.5947 
12868000    194.35147   -4838.5772    -4463.754   -4838.5772            0    7064.1603    19.896023    19.854839     20.33003    8031.0188    9023.1584    4534.9353    7634.3872    66.592552   -831.36952    -823.1045   -3636.3701 
12869000    192.69125   -4837.6062   -4465.9849   -4837.6062            0    7741.7899    20.070015     19.43359    20.655809    8056.4353     6164.948    8850.8817    8209.5401   -206.10971   -674.73734       128.96   -3556.3645 
12870000    196.52771   -4829.0381   -4450.0179   -4829.0381            0    4708.7286     19.85931    19.792861    20.656559    8119.5267    4634.7522    5640.0287    3851.4048   -444.43773    178.78739    62.060606    -3892.434 
12871000     190.3203   -4834.2814   -4467.2327   -4834.2814            0    8391.2508     19.76036    19.876845    20.417909    8019.6157    9985.9773    7477.1297    7710.6454   -206.95279    551.26333    28.000218   -3485.8099 
12872000     204.5088   -4821.7097   -4427.2973   -4821.7097            0    7073.2805    19.976425    19.875462    20.343513    8077.2016    6586.5516    6076.0225    8557.2676    164.84708    1241.1952     637.7044   -3594.0811 
12873000    199.47655   -4835.0794   -4450.3721   -4835.0794            0    6603.4239    20.022529    19.599706    20.657567    8106.7665    5074.7349    7603.4182    7132.1187   -11.283231    724.24283    603.19455   -3669.6567 
12874000    199.80206   -4833.3424   -4448.0073   -4833.3424            0      7419.31     19.92135     19.85514    20.413208    8074.2648    6102.7596    8173.8363    7981.3341    866.71781   -264.30082    30.942908   -3574.3474 
12875000    203.72312   -4823.0893   -4430.1922   -4823.0893            0    6708.3932    19.989624    19.744305    20.523301    8100.1616    3956.9175     8196.052    7972.2101    -112.4097    1420.3388   -796.91116   -3637.7126 
12876000    189.09877   -4841.8705   -4477.1776   -4841.8705            0    5324.9133    19.998525    19.999342    20.390553    8155.3513    3699.7066    6073.8303    6201.2031   -289.51806    -755.2445   -1071.3599   -3843.8461 
12877000    198.06715   -4842.1202   -4460.1311   -4842.1202            0    6234.6413     19.80382    19.817576    20.630499     8096.722    6949.7648    5904.8385    5849.3206    49.902274    1553.0686   -159.86349   -3723.9298 
12878000    193.08393   -4827.0726    -4454.694   -4827.0726            0    8469.8157    19.901233    19.582435    20.567901    8015.6114    9996.5045    7894.2259    7518.7166    525.47391    1041.3513   -392.49317   -3464.5771 
12879000    205.72951   -4813.5116    -4416.745   -4813.5116            0    7204.6689    20.041623    19.798127    20.468596    8121.6645    8460.6664    6032.8144     7120.526   -231.00409   -556.51657   -56.734841   -3563.3797 
12880000    187.07334   -4842.5236   -4481.7369   -4842.5236            0    7673.9274    19.747441    19.775067    20.591462    8041.1091    8433.5465    7003.7927    7584.4431    176.24065    1474.5823   -413.36961   -3581.8053 
12881000    196.45211   -4867.4918   -4488.6174   -4867.4918            0    7113.0508    20.023377    19.736648    20.545692    8119.5411    6478.9898    8332.0382    6528.1244    64.181927    2051.0432    1027.5075   -3646.3242 
12882000    205.12782   -4814.5496   -4418.9433   -4814.5496            0    8922.1024     19.76237    19.810592    20.521212    8034.1418    9788.0247     8093.721    8884.5616   -68.260849    931.52735    470.73953   -3373.5431 
12883000    196.45712   -4806.7236   -4427.8395   -4806.7236            0    8407.5144    19.800722    19.911836    20.639398    8137.4692    8265.4205    9381.5152    7575.6075   -1263.8828     1053.962    816.95536    -3430.064 
12884000    189.83251   -4832.6032   -4466.4953   -4832.6032            0    6760.5522    19.771313    19.949499    20.478061    8077.1161    7320.6086    6984.1283    5976.9199     34.93774    453.84707   -622.82348   -3670.1262 
12885000    203.51044    -4847.981    -4455.494    -4847.981            0    6841.2427    20.024778    19.922308    20.269134    8086.1639    5254.2875    7466.3441    7803.0965    1218.0823    82.049762    217.55326   -3648.7171 
12886000    207.67993   -4837.6545   -4437.1263   -4837.6545            0    8973.7637    19.902325    19.631723    20.535626    8023.6169    7753.1787    10508.051    8660.0609     421.4715   -440.24916    246.57609   -3387.0503 
12887000    192.53004   -4833.6366   -4462.3262   -4833.6366            0     6938.186     19.70247    20.005692    20.428178    8052.0023    8543.8939    4658.7589    7611.9051   -168.09461    1813.5823    31.051942   -3647.5737 
12888000     193.1881   -4829.2312   -4456.6517   -4829.2312            0    7824.0787    19.748907    19.737091    20.547291    8009.0457    8993.3299    8292.7138    6186.1925    108.07781   -800.58359    173.23491   -3542.7702 
12889000    192.28548   -4856.9142   -4486.0755   -4856.9142            0    7921.1517     20.00311     19.74733    20.314067    8024.2194    9276.3469    6810.0643    7677.0439    441.34649   -481.52625   -220.29794   -3559.1026 
12890000    196.35307   -4821.0022   -4442.3188   -4821.0022            0    6914.3383    19.726244    19.863819     20.66838    8098.6678    7809.0438    5423.5205    7510.4507   -220.99555   -540.67635    458.49309    -3625.661 
12891000    203.76483   -4852.0408   -4459.0632   -4852.0408            0    6494.5587     19.91529    19.851967    20.481033    8097.3335    7557.1172    5127.2976    6799.2613   -1143.1291   -765.65242    704.75213   -3692.1123 
12892000      198.559   -4833.8585   -4450.9207   -4833.8585            0    8177.5979    19.808324    19.815526     20.50661     8049.098    8262.8576    8585.9241    7684.0118    187.74331    382.79171    417.50333   -3490.9702 
12893000    192.71669   -4836.0569   -4464.3865   -4836.0569            0    7039.0659    19.666976    20.053911    20.525223    8095.1437    6772.9469    7339.8729     7004.378   -559.47492    87.772353    -676.5218   -3633.3588 
12894000    205.84461   -4844.4382   -4447.4496   -4844.4382            0    7258.6095    19.687354     19.76081    20.763915    8077.9533    7855.2816    8369.2328    5551.3142   -525.13139    -416.1663   -848.00302   -3592.3225 
12895000    194.01778   -4834.7814   -4460.6018   -4834.7814            0    7453.8401    19.938799    19.741433    20.526925    8079.8179    6308.4232    7857.6721    8195.4249    306.22542   -583.25359    1402.6521   -3582.2722 
12896000    193.39794    -4841.768   -4468.7838    -4841.768            0    6227.1999    19.954521    19.935049    20.369444    8102.8495    5667.4839    5845.7982    7168.3175   -169.69238    1405.8056   -602.04706   -3732.9047 
12897000    191.56736   -4845.6825   -4476.2287   -4845.6825            0    7265.1111    19.780296     19.80035    20.631193    8080.3469    7469.1304    7391.9929    6934.2101    243.47114   -1833.3556     1094.154   -3620.0821 
12898000    201.35526   -4852.8615   -4464.5309   -4852.8615            0     5487.585    19.949938    19.878461    20.378348    8081.5244     5603.162    4587.9129    6271.6803     242.6358    958.57361    1210.7091   -3817.7601 
12899000    205.58283   -4829.7943   -4433.3105   -4829.7943            0    8043.0233    19.826302    19.861541    20.477651    8063.7079    7698.3512    8513.6378    7917.0808   -812.14177    1794.5632   -528.42409   -3487.4436 
12900000    197.74834   -4844.7604   -4463.3861   -4844.7604            0    6927.0742     19.77448    20.092563    20.472798    8134.2518     8257.138    5249.8928    7274.1917    -194.6929   -18.593935    1297.3212   -3641.6292 
12901000    209.00657   -4829.0275   -4425.9408   -4829.0275            0    6036.0194    19.779351    19.890962    20.629702    8116.3505    4951.7407    6503.6625    6652.6549    221.34321    2183.5117   -532.15279   -3711.4653 
12902000    205.33774   -4834.6588   -4438.6477   -4834.6588            0    6531.2738    19.782567    19.912451    20.546938    8093.8371    8697.6544    5392.1212     5504.046    379.27582   -173.93433   -736.94887   -3667.6941 
12903000    196.71889   -4838.4596   -4459.0707   -4838.4596            0    5917.5586    19.869599    19.894557    20.623164    8152.2722     6598.014    5294.3033    5860.3586    290.01417   -11.370167    327.14253   -3755.5172 
12904000    201.82539   -4845.7831   -4456.5458   -4845.7831            0    6288.8403    19.887262    19.845756     20.51936    8098.5348    5961.9397    7515.0923    5389.4888   -162.64404   -21.032305    1156.0379   -3713.7783 
12905000    192.72068   -4827.2213   -4455.5432   -4827.2213            0    8251.2491    19.770017    19.850329    20.513258    8050.2506    10022.198    6992.3262    7739.2234    426.19462    1177.5805   -742.20689   -3486.8082 
12906000    192.35679   -4842.8267   -4471.8504   -4842.8267            0    6550.0686    19.773751    19.897078    20.532581    8078.3358    6244.0451    6591.9144    6814.2465    28.859805    114.00711   -720.17887   -3700.1591 
12907000    202.93084   -4833.2014   -4441.8322   -4833.2014            0    8728.9139    19.843721      19.8193    20.513587    8067.7613    7273.0215    9863.5161    9050.2039    976.18236    48.736428    779.05147    -3414.788 
12908000    187.46344   -4845.6085   -4484.0695   -4845.6085            0    5590.6786    19.675811    19.827902    20.750511    8095.3977    7214.5944    5210.2728    4347.1685   -529.33207    169.45442    92.989797   -3824.0168 
12909000    197.32333   -4839.4908   -4458.9362   -4839.4908            0    7519.4841    19.686182      20.0044    20.380736    8026.1429    9927.4035    5127.4784    7503.5705   -928.99522    604.32325   -634.17171   -3578.7575 
12910000    204.11771   -4838.7289   -4445.0707   -4838.7289            0     7523.329    19.683726    19.810228    20.624274    8042.2107    8152.6637    7740.4168    6676.9066   -655.23644   -184.84965    858.08188   -3562.6791 
12911000    197.12635   -4843.8916   -4463.7169   -4843.8916            0     8490.832    19.970123    19.765997     20.45494    8074.1662    9691.3606    6650.9036    9130.2318   -625.70404    464.99676   -336.01822   -3463.8923 
12912000    192.25352   -4825.5352   -4454.7581   -4825.5352            0    7044.9358    19.955325    19.959272     20.46774     8152.173    8209.1567    4300.4565    8625.1942   -296.94452    480.71467   -169.10971   -3617.1781 
12913000    202.33052   -4824.2606   -4434.0492   -4824.2606            0    8823.6693    19.847476    19.611861    20.524353     7989.021    9852.5335    8953.1228    7665.3517   -5.8707081    594.94034    304.74416   -3405.9887 
12914000    189.52953   -4831.2098   -4465.6861   -4831.2098            0    7249.9543    19.745957    19.976051    20.445294    8064.5692    6136.5527    7379.3857    8233.9245   -409.41927    220.84858   -593.40993   -3612.9938 
12915000    198.66288   -4834.1686   -4451.0305   -4834.1686            0    7832.2908    19.811554    19.839596    20.528793    8068.9082    8016.4848    8137.2249    7343.1626    370.92913   -1151.9438    1705.8191    -3529.352 
12916000    200.53171   -4831.0892    -4444.347   -4831.0892            0    7513.8701    20.086434    19.802506    20.380225    8106.4736    5109.4571    9139.2082    8292.9449    266.91322    366.98695   -419.32855   -3556.0227 
12917000    199.25771   -4836.7795   -4452.4942   -4836.7795            0    6612.6969    19.895132    19.749325    20.631913    8106.5971    6820.1399    6194.8285    6823.1224    545.74851    1647.4041   -270.38407   -3670.6989 
12918000    209.96103   -4826.1218   -4421.1943   -4826.1218            0    8592.7809     19.67927     19.98046    20.501896    8061.3637    8901.1446    8018.9062     8858.292    10.914158    360.31088   -829.31672   -3410.9692 
12919000    205.86397   -4819.2648   -4422.2388   -4819.2648            0    7365.6272    19.864932    19.823708    20.457973    8056.2804    7132.7412    7666.0842    7298.0562   -593.10989   -165.69678   -19.136959   -3556.8322 
12920000    204.00774   -4834.5206   -4441.0745   -4834.5206            0    7385.8871    19.890852    19.475848    20.748017    8037.5993    6504.0127    8419.0116     7234.637   -490.16497    1581.6865   -115.27202   -3575.2997 
12921000    198.64972   -4822.1655   -4439.0528   -4822.1655            0    7783.6564    19.671013    19.951184    20.518828    8052.8194    8200.9922    5893.0685    9256.9085    88.586572   -1228.6221   -957.75385   -3524.9238 
12922000     189.1256   -4825.9149   -4461.1702   -4825.9149            0    6034.3447    19.992686    19.641128    20.714603    8134.1877    5510.2258    7545.9743     5046.834   -163.07305    1024.0608    293.66488   -3745.3233 
12923000    196.27743   -4841.4685    -4462.931   -4841.4685            0    7433.7022    19.762202    19.798552     20.50004    8020.9066     5469.386    8550.4017    8281.3189   -755.57656    62.774114    202.36449   -3593.3611 
12924000    193.59782   -4819.1823   -4445.8126   -4819.1823            0    7854.5089    19.743833    19.793838    20.580109    8042.8347    8242.0612    8075.2692    7246.1963   -394.15646     1073.097   -6.0241525   -3524.5062 
12925000    195.30875   -4831.4672   -4454.7978   -4831.4672            0    7383.2492    19.776247    19.921826    20.477145    8067.5644    7019.2935    8391.7423     6738.712   -97.230641     1717.033   -170.80668   -3586.1058 
12926000    184.13737   -4831.4974    -4476.373   -4831.4974            0    7912.5644    19.934567    19.743272    20.561153    8092.3264       8286.2    7788.8781    7662.6151   -757.47028    1408.4108    210.93621   -3542.5457 
12927000    198.66376   -4829.2596   -4446.1199   -4829.2596            0    7138.0957    20.010111    19.724138    20.402518    8052.5109    5622.1914     7373.186    8418.9098    338.91825    552.94681    114.02558    -3607.839 
12928000    200.58864   -4840.4961    -4453.644   -4840.4961            0    6074.2712    19.792565    19.874016    20.630565    8115.1926    5990.9277    6742.9865    5488.8994   -393.30901   -249.05706   -397.29126   -3734.7433 
12929000    195.22929   -4808.7787   -4432.2626   -4808.7787            0    6774.2997    19.920371    19.820341    20.522556    8102.8908    7539.0285    6268.9932    6514.8774   -180.65956    916.03963    2675.6374   -3631.7277 
12930000    204.84143    -4837.435   -4442.3811    -4837.435            0    6042.2099    19.808392    19.828632    20.785744     8164.086    5772.1254    5458.2053    6896.2991    340.84602   -177.74848   -488.89073   -3722.9665 
12931000    197.95121   -4838.0977   -4456.3322   -4838.0977            0     7529.913    19.935141    19.778433    20.520585    8090.9764     5802.486    9198.3618    7588.8912    356.10618   -229.66595    822.54678    -3567.813 
12932000    196.20122   -4835.5801   -4457.1896   -4835.5801            0    6817.5076    19.790008    19.974248    20.445067    8081.7412    6608.7389    7072.3595    6771.4243   -430.18094   -843.93382    1300.5325   -3653.6515 
12933000    193.14934   -4846.5767    -4474.072   -4846.5767            0    6623.1445    19.690374    20.005672    20.592161    8111.6471    7501.3723    5886.3585    6481.7027   -548.08552    505.70067    253.21269   -3690.5536 
12934000    199.56723   -4858.0242    -4473.142   -4858.0242            0    7551.0274    19.616054    20.013071    20.534397    8061.3416    6575.6661    7866.3027    8211.1135   -40.787535    11.612539   -593.03385   -3585.3949 
12935000    209.09185   -4832.7452    -4429.494   -4832.7452            0    7925.9606    19.913478     19.71399    20.531095    8059.9765    7146.8825    8277.6261    8353.3731   -868.85024    1013.2966   -479.39434   -3497.8251 
12936000    207.68395   -4824.3237   -4423.7877   -4824.3237            0    10059.081    19.823467    19.700682    20.400954    7967.3034    8744.6977    10885.555     10546.99   -300.50808   -456.43373    60.567323   -3254.9734 
12937000    193.25895   -4834.2855   -4461.5693   -4834.2855            0    7473.8984    19.804059    19.918696    20.502775    8087.7505    7658.2177    7764.9383    6998.5393   -745.69407   -369.61422   -773.96767   -3580.0115 
12938000    200.09168   -4816.3857   -4430.4921   -4816.3857            0     8363.336    19.868018    19.723305    20.547428    8051.7765     8476.385     7788.443    8825.1799   -306.78909    446.91723    426.39889   -3448.4114 
12939000    189.51364   -4848.0991   -4482.6061   -4848.0991            0    6697.3018    19.891164     19.86462    20.559104    8123.5272    5573.4683    7791.6307    6726.8062    449.70416    761.33454      1615.07   -3689.1545 
12940000    201.82255    -4813.266   -4424.0342    -4813.266            0    7730.9135    19.928732    19.818913    20.501201    8097.2733    8194.0425    8051.8157    6946.8824   -550.13901    550.06639   -278.94593   -3511.0874 
12941000    205.81631   -4843.5057   -4446.5716   -4843.5057            0    7802.7045    19.898317    19.879264    20.367869    8056.7937    8118.5494     7898.814    7390.7501   -269.94162   -1028.1982   -395.37926   -3529.7533 
12942000    205.07482   -4840.4602   -4444.9562   -4840.4602            0     6770.455    19.813647    19.944558    20.479772    8093.0822    6784.9531    6903.5118       6622.9    253.91089    955.04909   -811.47896   -3645.8441 
12943000    193.46613   -4823.6542   -4450.5385   -4823.6542            0    6978.4018    19.880611     19.82028    20.588565    8112.7034    4443.4056    9579.4517    6912.3481    -359.3895    444.31789    1591.7352   -3624.8857 
12944000    203.06105   -4820.2182   -4428.5979   -4820.2182            0    7368.2678     19.86539    19.937915    20.366725    8066.7391    6993.3042    6119.2085    8992.2906    332.23179    398.47236    -181.6082   -3561.7571 
12945000    195.83141   -4823.3341   -4445.6568   -4823.3341            0    7760.5712    19.920592    19.679308    20.558091    8059.2543    9063.5243    7919.4564    6298.7328   -22.295189   -1751.0806    48.715735   -3533.5106 
12946000    193.75104   -4837.0537   -4463.3885   -4837.0537            0    5769.3154    19.923351    19.872771    20.618134    8163.3832    5927.4183    5356.0011    6024.5268    34.209227    914.37836    116.67955   -3776.5251 
12947000    199.01036   -4826.7423   -4442.9341   -4826.7423            0    8746.3306    19.892333     19.76366    20.462713    8044.8197    7796.9318    9136.4991     9305.561   -1508.1721    1094.3928    491.95722    -3416.767 
12948000    202.32961    -4835.195   -4444.9854    -4835.195            0    8559.2045    19.616099    19.857546    20.603592    8025.6674    7178.5836    10600.314     7898.716   -246.15839    254.09655   -428.24445   -3443.1636 
12949000    200.43181   -4823.0965   -4436.5469   -4823.0965            0    5998.1838    19.739747    19.958661      20.6523    8136.5708    5627.0405    6408.3603    5959.1507    418.97377    426.08079   -416.16456   -3724.7811 
12950000     196.5967   -4845.8717   -4466.7184   -4845.8717            0    7049.4288    19.687477    20.098509    20.437405    8086.8549    7658.5925    5992.7787    7496.9151   -681.64935     1344.722   -1590.3345   -3635.3194 
12951000    192.28987   -4827.2359   -4456.3888   -4827.2359            0    8269.2509    19.639489    19.839439    20.651135    8046.4346    8625.8741    8698.8799    7482.9986   -300.32853   -308.77797   -2041.5136   -3486.0005 
12952000    193.42692   -4816.6654   -4443.6253   -4816.6654            0    8550.5462    19.900049    19.752217    20.467683    8045.2341    7137.5833     9642.481    8871.5743    79.910217    32.868002    -30.07707    -3440.377 
12953000    193.19091   -4839.4834   -4466.8985   -4839.4834            0    8304.0042    19.993333    19.691016    20.433053    8044.2692    7047.6948    8621.9944    9242.3236   -127.06658   -285.27315    -123.3274   -3492.6942 
12954000    197.07384   -4851.6809   -4471.6074   -4851.6809            0    8372.4308    19.916126    19.789268    20.490457    8075.8127    8038.3537    7626.6725    9452.2663   -987.15901    276.58117   -1280.4666   -3485.5239 
12955000    192.27988   -4852.1142   -4481.2863   -4852.1142            0    7191.9529       19.958    19.786594    20.520583    8103.5959    6501.2077    8148.9753    6925.6756   -336.35525    345.46069   -25.272587   -3631.3223 
12956000    197.61992   -4850.3106   -4469.1839   -4850.3106            0    7230.6982    19.763141    19.864771    20.563596    8073.0676     8808.941    5189.3953    7693.7582    24.898039   -814.55213    926.64759   -3617.8603 
12957000    197.28446   -4834.4441   -4453.9644   -4834.4441            0    7449.3968     19.66531    19.856754    20.683306    8076.6082    6720.2878    8568.7791    7059.1236   -351.73565    762.36347    1044.3678   -3576.5071 
12958000    189.87632   -4812.0815   -4445.8891   -4812.0815            0    5837.9409    19.968977    19.741577    20.546035    8099.6398    6480.2767    5084.9361    5948.6099   -924.58703    521.31701   -318.77157   -3756.2827 
12959000    192.60068   -4824.1374   -4452.6908   -4824.1374            0    7346.6459    19.779216    19.972468    20.462122    8083.3519    7598.6062    7631.5204     6809.811    447.11858   -473.64736    696.27099   -3586.6138 
12960000    205.28966   -4828.4748   -4432.5565   -4828.4748            0    5977.5193    19.900021    19.659785    20.727851    8109.3599    6786.6167    4827.3844    6318.5566      79.1774    1304.0675   -1153.8782    -3725.615 
12961000    203.52148   -4843.7472   -4451.2389   -4843.7472            0    7979.4462    19.846705    19.932434    20.510271    8113.7227    9475.0111    6797.4713     7665.856   -136.72963   -164.80038   -49.834465   -3507.0285 
12962000    199.55398   -4836.9564   -4452.0998   -4836.9564            0    7573.4462    19.779688    19.823541    20.549729    8057.6193    8864.0501    7160.3165    6695.9719   -131.47654   -442.20624   -99.788536   -3562.1281 
12963000     208.4908   -4833.9395   -4431.8475   -4833.9395            0    5665.7297    20.022468    19.685561    20.581684    8112.3433    4741.5768    6914.8684    5340.7438    228.80613   -1472.6337   -645.58972   -3761.5338 
12964000    204.07292   -4839.6539   -4446.0821   -4839.6539            0    7988.5252    19.791531      19.7987    20.553519    8053.8264    7510.4098    8682.4553    7772.7105   -411.46833    682.06376    705.30535   -3507.7755 
12965000    195.68242   -4863.7817   -4486.3917   -4863.7817            0    7840.1884    19.868936    19.964071    20.353772    8073.6259    7026.6034    8150.7959    8343.1661    5.4513835   -25.884794    208.07295   -3563.2444 
12966000    193.82094    -4839.381    -4465.581    -4839.381            0    7851.5363    19.729956    19.817971    20.624153    8064.2026    8391.6251     7437.648    7725.3359    508.57264    54.270307    537.98069   -3542.1765 
12967000     188.5589   -4844.5317     -4480.88   -4844.5317            0    7325.0455    20.072081    19.759123    20.391048    8087.2264    6023.3657    8228.5887    7723.1822   -12.260896    608.62434   -82.851844   -3616.9355 
12968000    200.91668   -4823.1514   -4435.6667   -4823.1514            0    8265.3709    20.038788    19.801824    20.321851     8063.803    6877.6812     8943.843    8974.5886   -74.912722    1222.5862   -453.11423   -3463.6402 
12969000     198.0442   -4824.0848   -4442.1399   -4824.0848            0    7373.8728    19.741224    19.829857    20.635372    8078.0392    7764.9662      7073.64    7283.0122    32.842209   -232.49221   -48.164783   -3573.4246 
12970000    194.51233   -4842.9878   -4467.8545   -4842.9878            0    8020.3381    19.694508    19.839336    20.524296    8019.3754    8009.5232    7977.8847    8073.6064    -119.5646    299.21024    2440.0497   -3529.8409 
12971000    196.02641   -4831.1806   -4453.1272   -4831.1806            0    7729.6283     19.95656    19.845482    20.330338    8051.7808    6127.3582    8177.1954    8884.3312   -40.540088   -424.17527    927.64826   -3545.4604 
12972000    190.97761   -4832.6196   -4464.3033   -4832.6196            0    9596.7268    19.823209    19.742759    20.508414    8026.2719     9094.997    10765.414    8929.7698    91.748438   -892.71591    203.76709   -3340.9589 
12973000    187.37645   -4830.3002   -4468.9289   -4830.3002            0    7057.4345    20.062461    19.726698    20.370106    8061.7975    6628.7617    6126.9964    8416.5455     572.0136    1398.8525     1107.919   -3639.1648 
12974000    196.44992   -4823.9885   -4445.1184   -4823.9885            0    8012.7192    19.785563    19.685837    20.630629    8035.5348    9555.3967    6478.0026    8004.7582    765.59829   -240.00789    -162.6557   -3506.1075 
12975000      191.598   -4832.9674   -4463.4546   -4832.9674            0    8331.0143    19.835702     19.83456    20.408012    8029.1736    8761.6475    7642.6652    8588.7303   -651.03726     1084.401   -360.00258   -3487.9156 
12976000     196.1415   -4828.9418   -4450.6664   -4828.9418            0    7912.7879     19.73171    19.755463    20.638079    8044.9101    10636.685    6248.5485    6853.1302   -587.84175    510.37832   -26.196004   -3522.2846 
12977000    209.81929   -4809.9347   -4405.2806   -4809.9347            0     7788.336    20.011262    19.860603    20.378473     8099.133    10184.617    4595.8382    8584.5531   -332.33419     1113.762   -1410.9878   -3485.3414 
12978000    210.31596   -4834.2834   -4428.6713   -4834.2834            0    10002.316    19.849591    19.725903    20.513071    8031.9157    8891.7599    11579.348    9535.8407    398.35122    104.82906    484.47152   -3257.0275 
12979000    201.59666   -4827.9428   -4439.1467   -4827.9428            0    9653.9114    19.856644    19.799165    20.488802    8055.0695    9418.7298    9148.6079    10394.396   -369.37043    1794.8267   -989.13458   -3305.0541 
12980000    204.08086   -4820.3973   -4426.8102   -4820.3973            0    5413.7307    19.828306    20.001741    20.525489    8140.4223    6863.4218    4147.8692    5229.9011   -1113.9305   -24.126363   -936.91041   -3784.0936 
12981000    209.90249   -4838.5112   -4433.6966   -4838.5112            0    7258.9693    19.772058    20.008044    20.414117    8075.8289    6502.2543     6905.407    8369.2467   -124.27099   -25.383815   -1165.1818   -3578.7521 
12982000    199.19842   -4837.2998   -4453.1289   -4837.2998            0    6396.8446    19.920678     19.72389    20.666977    8120.3297    6996.7075    7100.4911    5093.3353    977.82845   -60.246225    -620.0457   -3695.5719 
12983000    201.82082   -4849.7021   -4460.4737   -4849.7021            0    8214.7886    19.973158     19.60195    20.534725    8039.6088    8106.8241    8106.6739     8430.868   -120.70426    484.97213   -757.10745   -3497.2942 
12984000     200.5367   -4826.1432   -4439.3913   -4826.1432            0    6524.8848    19.790124    19.914395    20.543472    8096.3537    6127.8896    7045.2138    6401.5509    365.57802    492.78059    1384.9812   -3668.9524 
12985000    192.42184   -4838.7503   -4467.6486   -4838.7503            0    7937.2347    19.748779    19.872562    20.445713     8024.101    8934.2464    7213.1326    7664.3251    19.097134     599.8204    330.59687   -3538.8074 
12986000    195.14546   -4838.5407   -4462.1863   -4838.5407            0    6421.3323    19.862261    19.710191    20.672379    8093.0079     5035.067    8815.3838     5413.546     589.6818    417.65181    518.51688   -3704.2879 
12987000    199.01565    -4841.258   -4457.4396    -4841.258            0    7601.3113    19.667644    19.946638    20.571105    8070.1137    6987.0103    8483.8351    7333.0886   -52.963503    85.503978    807.62757   -3562.8084 
12988000    198.85476   -4822.1908   -4438.6827   -4822.1908            0    7396.8654    19.720034     19.92876    20.519865    8064.2212     7809.579    7390.6577    6990.3597   -334.06844     208.9994    159.25605   -3568.7492 
12989000    196.91686   -4836.3733   -4456.6026   -4836.3733            0     7799.406    19.922543    19.864767    20.468016    8100.3543    7442.6209    8341.1856    7614.4114   -879.74853    837.18566    1476.5532    -3535.217 
12990000    195.88475    -4827.809   -4450.0288    -4827.809            0    6484.8423    19.963263    19.701672    20.713717    8146.9052    5182.3657     8110.236    6161.9253   -195.95713    1550.4135   -1186.7056   -3679.5371 
12991000    196.93643   -4834.8665    -4455.058   -4834.8665            0    10444.916    19.907703    19.765139    20.292216    7984.5509     11086.18    10418.519    9830.0482    1020.5445   -191.25466    751.36909   -3238.7843 
12992000    204.32386   -4851.6928   -4457.6371   -4851.6928            0    6925.3486     19.85399     19.76205    20.637926    8097.4044    7731.4509    6738.2028     6306.392   -363.43518    264.02568    600.13898   -3639.8065 
12993000    204.08101   -4831.3142   -4437.7268   -4831.3142            0    7650.3587    19.846002    19.945755    20.375885    8065.6613    7755.9571    7291.4422    7903.6767   -864.72292    -410.9832   -635.59903   -3537.8197 
12994000    205.78652   -4827.3767   -4430.5001   -4827.3767            0    8205.0995    19.743695    19.790512    20.481387    8002.8531     7372.268    9209.9041    8033.1262   -281.37831   -47.824948    352.81947   -3472.8551 
12995000    199.43071   -4802.4681   -4417.8492   -4802.4681            0    8096.7743    19.822503    19.915479    20.402472     8054.379    9449.1625    5156.5482     9684.612   -140.30761    382.49451    879.46633   -3466.7628 
12996000    205.09343   -4834.1667   -4438.6268   -4834.1667            0    7297.8701    19.946922    19.722609    20.525549    8074.8605    7056.8087    7770.8102    7065.9913   -339.89082    716.32758   -171.10148   -3579.2037 
12997000    192.60502   -4831.1117   -4459.6567   -4831.1117            0     8181.352    19.683065    19.855824    20.651579    8071.1216    8241.5685    8696.9777    7605.5097    585.12099   -879.16397    1411.2537   -3496.6377 
12998000    198.75819   -4821.8529    -4438.531   -4821.8529            0    5716.0412    19.878253    19.994183    20.468628    8135.2441    5454.1623    5294.4731    6399.4881   -414.90122    671.33479    48.771047   -3760.3559 
12999000    194.82508   -4845.7771   -4470.0405   -4845.7771            0    7612.2856    20.025915    19.647885    20.587984    8100.6897    7151.3026    7906.0291    7779.5251   -217.08228   -7.2357961   -660.26157   -3570.7232 
13000000    201.91247   -4805.6091   -4416.2039   -4805.6091            0     7589.372    20.062057    19.739793    20.385496    8073.0813    6140.4091    9526.7078    7100.9993    176.51805    403.75184    1723.8367   -3522.6493 
Loop time of 425.518 on 64 procs for 250000 steps with 972 atoms

Performance: 101.523 ns/day, 0.236 hours/ns, 587.519 timesteps/s
194.9% CPU use with 32 MPI tasks x 2 OpenMP threads

MPI task timing breakdown:
Section |  min time  |  avg time  |  max time  |%varavg| %total
---------------------------------------------------------------
Pair    | 29.414     | 36.775     | 48.57      |  68.0 |  8.64
Bond    | 0.97288    | 1.2779     | 2.1435     |  21.6 |  0.30
Kspace  | 182        | 194.08     | 201.93     |  34.3 | 45.61
Neigh   | 1.5391     | 1.7751     | 1.9857     |  10.1 |  0.42
Comm    | 83.801     | 89.173     | 96.053     |  31.3 | 20.96
Output  | 0.5289     | 0.52927    | 0.53108    |   0.0 |  0.12
Modify  | 83.39      | 86.92      | 90.999     |  18.5 | 20.43
Other   |            | 14.99      |            |       |  3.52

Nlocal:        30.3750 ave          34 max          26 min
Histogram: 1 3 3 4 0 6 3 6 4 2
Nghost:        2682.78 ave        2707 max        2646 min
Histogram: 2 0 2 2 3 4 8 2 6 3
Neighs:        9738.59 ave       11745 max        7813 min
Histogram: 1 1 7 5 4 3 3 4 2 2

Total # of neighbors = 311635
Ave neighs/atom = 320.61214
Ave special neighs/atom = 2.0000000
Neighbor list builds = 4835
Dangerous builds = 0

unfix		3
unfix		2
unfix		1

write_data	data.final.${pid}
write_data	data.final.1
System init for write_data ...
PPPM initialization ...
  extracting TIP4P info from pair style
  using 12-bit tables for long-range coulomb (../kspace.cpp:340)
  G vector (1/distance) = 0.37206562
  grid = 24 24 24
  stencil order = 5
  estimated absolute RMS force accuracy = 0.0035230619
  estimated relative force accuracy = 1.0609596e-05
  using double precision FFTW3
  3d grid and FFT values/proc = 3211 432
Last active /omp style is kspace_style pppm/tip4p/omp
WARNING: Not all mixed pair coeffs generated from mixing. Use write_data with 'pair ij' option to store all pair coeffs. (../write_data.cpp:312)

write_restart   restart.lmp.${pid}
write_restart   restart.lmp.1
System init for write_restart ...
PPPM initialization ...
  extracting TIP4P info from pair style
  using 12-bit tables for long-range coulomb (../kspace.cpp:340)
  G vector (1/distance) = 0.37206562
  grid = 24 24 24
  stencil order = 5
  estimated absolute RMS force accuracy = 0.0035230619
  estimated relative force accuracy = 1.0609596e-05
  using double precision FFTW3
  3d grid and FFT values/proc = 3211 432
Last active /omp style is kspace_style pppm/tip4p/omp
Total wall time: 0:07:05
