LAMMPS (30 Jul 2021)
Processor partition = 1
  using 2 OpenMP thread(s) per MPI task
using multi-threaded neighbor list subroutines
variable        pid world 0 1
variable        phase world IceIh Liquid

shell cd ${phase}
shell cd Liquid
include Restart.lmp
echo both
log log.lammps
#include		in.partitions
include		in.temp
variable        temperature equal 204.50
variable	tempDamp equal 100.0
include		in.pressure
variable        pressure equal 3481.2
variable        pressureDamp equal 1000.0 # This is 1 ps
include		in.seed
variable        seed equal 745823

units		real
atom_style	full
read_restart	restart.lmp.${pid}
read_restart	restart.lmp.1
Reading restart file ...
  restart file = 30 Jul 2021, LAMMPS = 30 Jul 2021
  restoring atom style full from restart
  orthogonal box = (0.40501830 1.5685893 0.49412138) to (17.802554 22.060588 21.719074)
  2 by 4 by 4 MPI processor grid
  restoring pair style lj/cut/tip4p/long/omp from restart
  restoring bond style harmonic/omp from restart
  restoring angle style harmonic/omp from restart
  864 atoms
  576 bonds
  288 angles
Finding 1-2 1-3 1-4 neighbors ...
  special bond factors lj:    0        0        0       
  special bond factors coul:  0        0        0       
     2 = max # of 1-2 neighbors
     1 = max # of 1-3 neighbors
     1 = max # of 1-4 neighbors
     2 = max # of special neighbors
  special bonds CPU = 0.002 seconds
  read_restart CPU = 0.013 seconds
include 	in.setup
variable	out_freq equal 1000
variable	out_freq2 equal 10000
variable	out_freq3 equal 1000

timestep	2.0

neigh_modify    delay 7 every 1

include		in.tip4p
# This is TIP4P/Ice

# create groups ###
group ox type 2
288 atoms in group ox
group hy type 1
576 atoms in group hy

# set charges - beside manually ###
set group ox charge -1.1794
Setting atom values ...
  288 settings made for charge
set group hy charge 0.5897
Setting atom values ...
  576 settings made for charge

# ### TIP3P Potential Parameters ###
pair_style lj/cut/tip4p/long/omp 2 1 1 1 0.1577 8.5
pair_coeff 1 1*2 0.000 0.000
pair_coeff 2 2 0.21084 3.1668
bond_style  harmonic
bond_coeff  1 450 0.9572
angle_style harmonic
angle_coeff 1 55 104.52
kspace_style pppm/tip4p/omp 1.0e-5
pair_modify tail yes

thermo          ${out_freq}
thermo          1000
thermo_style    custom step temp pe etotal epair emol press lx ly lz vol pxx pyy pzz pxy pxz pyz enthalpy

restart 	${out_freq3} restart.lmp.${pid} restart2.lmp.${pid}
restart 	1000 restart.lmp.${pid} restart2.lmp.${pid}
restart 	1000 restart.lmp.1 restart2.lmp.${pid}
restart 	1000 restart.lmp.1 restart2.lmp.1


include         in.dump
dump            myDump all atom ${out_freq2} dump.water.${pid}
dump            myDump all atom 10000 dump.water.${pid}
dump            myDump all atom 10000 dump.water.1
dump            myDump2 all dcd ${out_freq2} dump.dcd
dump            myDump2 all dcd 10000 dump.dcd
dump_modify     myDump append yes
dump_modify     myDump2 append yes


variable natoms 	equal  "count(all)"                        # NUMBER ATOMS
variable H      	equal  "enthalpy/v_natoms"                 # ENTHALPY-per-atom
variable Vol      	equal  "vol/v_natoms"                 # volume-per-atom
fix AVG all 		ave/time ${out_freq} 1 ${out_freq} v_Vol v_H file vol_enthalpy.dat
fix AVG all 		ave/time 1000 1 ${out_freq} v_Vol v_H file vol_enthalpy.dat
fix AVG all 		ave/time 1000 1 1000 v_Vol v_H file vol_enthalpy.dat


timer           timeout 23:50:00 every 1000
New timer settings: style=normal  mode=nosync  timeout=23:50:00

fix 		1 all shake 1e-6 200 0 b 1 a 1
Finding SHAKE clusters ...
       0 = # of size 2 clusters
       0 = # of size 3 clusters
       0 = # of size 4 clusters
     288 = # of frozen angles
  find clusters CPU = 0.000 seconds
fix             2 all nph iso ${pressure} ${pressure} ${pressureDamp}
fix             2 all nph iso 3481.2 ${pressure} ${pressureDamp}
fix             2 all nph iso 3481.2 3481.2 ${pressureDamp}
fix             2 all nph iso 3481.2 3481.2 1000
fix             3 all temp/csvr ${temperature} ${temperature} ${tempDamp} ${seed}
fix             3 all temp/csvr 204.5 ${temperature} ${tempDamp} ${seed}
fix             3 all temp/csvr 204.5 204.5 ${tempDamp} ${seed}
fix             3 all temp/csvr 204.5 204.5 100 ${seed}
fix             3 all temp/csvr 204.5 204.5 100 745823

run             250000
PPPM initialization ...
  extracting TIP4P info from pair style
  using 12-bit tables for long-range coulomb (../kspace.cpp:340)
  G vector (1/distance) = 0.37379651
  grid = 24 24 25
  stencil order = 5
  estimated absolute RMS force accuracy = 0.0031238549
  estimated relative force accuracy = 9.4073961e-06
  using double precision FFTW3
  3d grid and FFT values/proc = 3822 576
Last active /omp style is kspace_style pppm/tip4p/omp
Neighbor list info ...
  update every 1 steps, delay 7 steps, check yes
  max neighbors/atom: 2000, page size: 100000
  master list distance cutoff = 10.8154
  ghost atom cutoff = 10.8154
  binsize = 5.4077, bins = 4 4 4
  1 neighbor lists, perpetual/occasional/extra = 1 0 0
  (1) pair lj/cut/tip4p/long/omp, perpetual
      attributes: half, newton on, omp
      pair build: half/bin/newton/omp
      stencil: half/bin/3d
      bin: standard
Setting up Verlet run ...
  Unit style    : real
  Current step  : 13000000
  Time step     : 2
  Walltime left : 23:49:59.92
Per MPI rank memory allocation (min/avg/max) = 10.20 | 10.20 | 10.22 Mbytes
Step Temp PotEng TotEng E_pair E_mol Press Lx Ly Lz Volume Pxx Pyy Pzz Pxy Pxz Pyz Enthalpy 
13000000    215.83997    -4078.614   -3708.6717    -4078.614            0    2653.6125    17.397536    20.491999    21.224953    7566.9141    3579.3516    2298.2213    2083.2646    3.3123197   -268.55273    -318.4197   -3415.8305 
13001000    204.81705   -4085.7512   -3734.7018   -4085.7512            0    3714.2512    17.336599    20.420223     21.15061    7487.6801    3544.5048    3642.1361    3956.1127    -704.4727   -202.79646   -777.94188   -3329.1051 
13002000    200.67935   -4081.6138   -3737.6563   -4081.6138            0    5161.8994    17.315445    20.395307    21.124802    7460.3045    5080.1017    4357.4808    6048.1156   -60.768592    1587.2758   -1476.5843   -3176.0371 
13003000      203.486   -4096.2685   -3747.5004   -4096.2685            0    1962.1194    17.383395    20.475343    21.207701    7548.4776     2830.785    1383.9939    1671.5794   -603.96886   -150.51401    642.01479    -3531.497 
13004000    187.53363    -4094.735   -3773.3087    -4094.735            0    3825.1355    17.313247    20.392718    21.122121    7457.4636    4785.6221    3790.3088    2899.4757    249.10485    998.91991   -387.12916   -3357.2891 
13005000    215.65104   -4090.7162   -3721.0977   -4090.7162            0    4422.4678    17.320105    20.400796    21.130488    7466.3296    3743.7087    5720.3194    3803.3751   -951.54825    137.58311   -72.375879   -3239.5407 
13006000    214.12501   -4092.5458   -3725.5428   -4092.5458            0    2101.3559    17.380983    20.472502    21.204759    7545.3362    1349.8633    1995.2608    2958.9435    923.38508    1568.0905    500.38252   -3494.3076 
13007000    202.94902   -4089.9031   -3742.0554   -4089.9031            0     4240.035    17.302322     20.37985    21.108793    7443.3556    5171.0636    3391.4955     4157.546    935.66805   -534.92581    671.55183   -3281.7839 
13008000    209.37421   -4088.5562   -3729.6959   -4088.5562            0    3494.4714    17.354435    20.441232     21.17237    7510.8144    3763.3117    3667.3433    3052.7593     477.0679    885.92926   -1712.0096   -3346.9202 
13009000    213.41055   -4075.5537   -3709.7753   -4075.5537            0    3749.3211    17.298955    20.375884    21.104685    7439.0113    4064.3127    3991.4551    3192.1954   -644.50657    1507.2176   -155.47352   -3303.0102 
13010000    206.43181   -4081.3738   -3727.5567   -4081.3738            0    1784.2758    17.386567    20.479079    21.211571    7552.6107    2313.1693    2636.9559    402.70219   -520.40341    317.38972    610.69301    -3531.024 
13011000    211.62566   -4097.3363   -3734.6172   -4097.3363            0    3288.6883     17.33306    20.416055    21.146293    7483.0958    2561.0147    3400.9068    3904.1434     87.50598    569.47055    5.3912374   -3375.7119 
13012000    213.83528   -4071.1944    -3704.688   -4071.1944            0    3818.0657    17.359833    20.447591    21.178956    7517.8254    6492.1257    2829.5193    2132.5521   -58.354169    833.89955   -875.00101   -3286.0761 
13013000    210.69349   -4078.2358   -3717.1144   -4078.2358            0    3825.0836    17.332366    20.415237    21.145446    7482.1966    5233.2069    2636.2079     3605.836   -1023.4716   -142.77625    509.89783   -3299.7206 
13014000    196.41304   -4100.4703    -3763.825   -4100.4703            0    2681.2034    17.351712    20.438024    21.169048    7507.2791    3155.3178      3099.62    1788.6724   -628.58169   -1214.5649    509.41874   -3470.2709 
13015000    204.76513     -4095.92   -3744.9596     -4095.92            0    3226.9767    17.334464    20.417709    21.148006    7484.9147    2414.3747    5538.7069    1727.8486   -588.63393   -478.24555     424.9227   -3392.7035 
13016000    209.55997   -4100.6319   -3741.4533   -4100.6319            0    2391.1328    17.342977    20.427736    21.158391    7495.9474    2185.6951    2204.3747    2783.3287   -172.05294   -44.824494      642.816   -3480.0529 
13017000    203.96951   -4096.9065   -3747.3097   -4096.9065            0    2066.5961    17.342759    20.427479    21.158125    7495.6646    2474.2715     1475.332     2250.185    1082.2272    321.52212    251.29645   -3521.3965 
13018000     208.0851   -4120.4572   -3763.8065   -4120.4572            0    2701.1388    17.296825    20.373375    21.102086    7436.2629    1796.6117    3872.0278    2434.7768   -713.57813   -305.38772    917.51213   -3470.8672 
13019000    203.67393   -4092.1788   -3743.0887   -4092.1788            0    4252.6288    17.277548    20.350669    21.078568    7411.4281    2893.8876    5295.2614    4568.7373   -1167.1559   -114.40355    1217.1291   -3283.4302 
13020000    192.68628   -4087.5879   -3757.3302   -4087.5879            0    3975.2606    17.320656    20.401445     21.13116     7467.042    3282.6359    4576.4933    4066.6527    1033.9611   -101.22076   -824.98567   -3324.4277 
13021000    213.88518   -4128.4178    -3761.826   -4128.4178            0    3359.9525    17.307656    20.386133      21.1153    7450.2421    2925.0032    3258.5329    3896.3215     538.3337    721.49746    326.46698   -3396.7532 
13022000    210.64296   -4083.8739   -3722.8391   -4083.8739            0    4402.8693    17.336787    20.420445     21.15084    7487.9241    3601.9435    5140.5956    4466.0689   -1677.5074   -68.319865    1806.6391   -3242.0295 
13023000    209.09363   -4121.5489   -3763.1695   -4121.5489            0    3367.2387    17.307768    20.386264    21.115436    7450.3858    2539.2391     4287.405     3275.072   -624.56566   -873.61449   -420.78526   -3397.2981 
13024000    219.97223   -4082.1118   -3705.0869   -4082.1118            0    4380.5466    17.339292    20.423396    21.153896    7491.1706    4157.6197    4106.6675    4877.3527    699.59395    200.53859   -166.72544   -3226.5076 
13025000    204.48306   -4087.6899   -3737.2129   -4087.6899            0    5703.3358    17.274771    20.347398     21.07518    7407.8549    4694.1597    6845.4678    5570.3801   -950.43524   -1303.5745   -132.74351   -3121.0475 
13026000    218.50259   -4088.8484   -3714.3424   -4088.8484            0    3548.9256    17.343995    20.428935    21.159633    7497.2673    2124.0539    4822.7104    3700.0125   -450.51383   -531.22572   -667.70877   -3326.3031 
13027000    207.66876     -4080.37   -3724.4328     -4080.37            0     4221.565    17.286898    20.361683    21.089976    7423.4679    3131.5894    5307.1582    4225.9474   -134.03643   -466.18289    39.029469   -3267.3907 
13028000    204.36987   -4118.2401   -3767.9572   -4118.2401            0    2863.3127    17.332073    20.414893    21.145089    7481.8181    2092.3905    3543.7037    2953.8438   -344.65069   -1419.2087   -757.60193   -3455.5278 
13029000      196.857   -4115.3923   -3777.9861   -4115.3923            0    1789.5386    17.386136    20.478572    21.211045    7552.0493     1844.253    1522.4294    2001.9335   -561.23145    312.56765   -464.06231   -3580.8883 
13030000    204.55788   -4075.8842    -3725.279   -4075.8842            0    2962.9277    17.333542    20.416623    21.146881      7483.72    3154.4548    2854.0709    2880.2574    255.49992   -1091.8037   -253.29598    -3401.898 
13031000    207.38593   -4076.3977   -3720.9453   -4076.3977            0    2934.0922    17.337776     20.42161    21.152047    7489.2061    2677.4038    4031.9814    2092.8914    413.43368    826.06122   -79.818457   -3400.4768 
13032000    215.58245   -4098.9905   -3729.4896   -4098.9905            0    2623.9317    17.316153    20.396141    21.125667    7461.2201    2105.1678    3856.7937    1909.8336    306.78902    480.86365    157.09138   -3443.9684 
13033000    210.79934   -4098.9039   -3737.6011   -4098.9039            0    3049.8703    17.342695    20.427404    21.158048    7495.5821    3756.1454    3513.2245    1880.2408    221.54853    78.778722   -330.50471   -3404.2033 
13034000    207.91618   -4123.0443   -3766.6831   -4123.0443            0    4159.1083    17.303462    20.381193    21.110184    7444.8272    4451.2395    5971.3112    2054.7741   -781.68511    1047.1746    428.17374   -3315.1072 
13035000    193.60886   -4107.8884   -3776.0495   -4107.8884            0     3562.878    17.327128    20.409068    21.139056    7475.4159    4445.6609    3581.4518    2661.5213    238.84968   -227.02245   -163.53706     -3387.62 
13036000    196.32615   -4101.9959   -3765.4996   -4101.9959            0     2184.725    17.317733    20.398002    21.127594    7463.2622    1281.1294    3487.4324    1785.6132   -126.01301   -1058.8311   -1251.3296   -3527.7053 
13037000    208.15897   -4096.1657   -3739.3884   -4096.1657            0    3070.2722    17.329267    20.411587    21.141665    7478.1841    1702.0124    2997.0605    4511.7437   -143.74696   -166.80601   -985.94799   -3404.5395 
13038000    197.99584   -4082.8455   -3743.4874   -4082.8455            0    4359.0232    17.312387    20.391705    21.121072     7456.353    4127.1549    5752.5421    3197.3725   -87.653465    598.30326   -1278.0434    -3269.473 
13039000    209.34839   -4101.3844   -3742.5685   -4101.3844            0    3439.2603    17.324202    20.405622    21.135486    7471.6295    1773.1534    3979.2373    4565.3903    230.87215    599.86405    510.82069   -3367.8058 
13040000    198.51341   -4083.8563   -3743.6111   -4083.8563            0     1933.234    17.343017    20.427784    21.158441    7495.9997    1974.5957    3155.1018    670.00446   -723.30849    528.11645    117.73228   -3532.2672 
13041000    193.53775   -4081.2481    -3749.531   -4081.2481            0    3932.0371    17.286833    20.361606    21.089896    7423.3837    4826.5156    4018.6321    2950.9637   -323.92034   -245.91425   -713.58344   -3323.8391 
13042000    200.90782   -4098.4926   -3754.1435   -4098.4926            0    3779.2537     17.31747    20.397693    21.127274    7462.9229    3301.4574    3490.5628     4545.741   -1028.2863    376.89349   -696.86276    -3342.813 
13043000    208.27866   -4098.0757   -3741.0932   -4098.0757            0    2506.8945    17.358901    20.446492    21.177819    7516.6143    3114.9936     1511.376     2894.314    517.72434    304.04588   -87.490333   -3466.2821 
13044000    206.55311   -4093.3829   -3739.3579   -4093.3829            0    2822.9256    17.343707    20.428596    21.159282    7496.8937    1597.0873    3803.9018    3067.7878    472.21761   -1521.8839     719.9043   -3430.7148 
13045000    193.43361   -4108.9005   -3777.3619   -4108.9005            0    2592.3745    17.294391    20.370508    21.099116    7433.1244    1515.3796    2902.2805    3359.4634    537.91486   -146.30713   -842.79991   -3496.3369 
13046000    213.18496    -4098.414   -3733.0223    -4098.414            0     3911.266    17.327453    20.409451    21.139452    7475.8359    3431.1275    4637.9866     3664.684    490.60032    3.7199047   -1469.3078   -3306.5871 
13047000    202.95339   -4098.1033   -3750.2482   -4098.1033            0    4439.4803     17.28732     20.36218     21.09049    7424.0113    2536.6996    6398.0857    4383.6556   -61.955634   -890.36965   -1013.8855   -3269.5786 
13048000    214.87509   -4109.4261   -3741.1375   -4109.4261            0    1881.8636    17.313533    20.393054    21.122469     7457.833    1426.6555    3770.9221    448.01311    1212.9502   -226.62976   -297.65226   -3536.4569 
13049000    205.92624   -4093.2219   -3740.2713   -4093.2219            0     2717.842     17.36571    20.454513    21.186126    7525.4634    474.87513    4519.9134    3158.7373    1096.7694    890.47618     -238.397    -3441.985 
13050000    210.68193   -4114.1774   -3753.0757   -4114.1774            0    4384.2352    17.254657    20.323706    21.050641    7382.0086     4331.215    4744.3935    4077.0972    580.26403    -783.9984    -644.4434   -3281.0733 
13051000    216.00178   -4090.8282   -3720.6086   -4090.8282            0    5613.7473    17.227615    20.291854     21.01765    7347.3551    5034.5106    7416.1447    4390.5866    51.982735    1103.0993   -239.02508   -3119.0751 
13052000     206.9298   -4098.9013   -3744.2307   -4098.9013            0    2417.2807    17.325746     20.40744     21.13737    7473.6272    2524.0109    2930.6692    1797.1621    528.02908    482.48798    180.18433   -3480.7588 
13053000    189.13918   -4079.2604   -3755.0824   -4079.2604            0    2705.2682     17.33252    20.415419    21.145634    7482.3966    2137.6317    2658.4082    3319.7648    117.97248   -598.96459    -1154.432   -3459.8752 
13054000    199.16853   -4065.1171   -3723.7491   -4065.1171            0    4742.1084    17.248716    20.316709    21.043393    7374.3863    4600.3847    4130.3319    5495.6086   -780.15989   -275.38416    486.99392   -3213.7455 
13055000    210.48721   -4097.2636   -3736.4957   -4097.2636            0    1343.4174    17.323969    20.405347    21.135201    7471.3274    263.66434    1955.0356    1811.5522   -670.09127   -1495.8365    1073.5026   -3590.1147 
13056000    209.16579   -4070.0114   -3711.5084   -4070.0114            0    3236.9649     17.31735    20.397551    21.127127    7462.7677    3072.0937     2637.309     4001.492     979.5872   -706.34617   -889.92011   -3359.2074 
13057000     195.1696    -4085.231    -3750.717    -4085.231            0    3825.8826    17.328862     20.41111    21.141171    7477.6599    2353.6694    5205.1573    3918.8211    968.18986   -733.90089   -833.40195   -3333.4892 
13058000    204.70717   -4090.9566   -3740.0955   -4090.9566            0    3746.8923    17.321758    20.402743    21.132505     7468.468    3391.5265    3406.5494    4442.6009    1105.7415   -249.25087     726.4584   -3331.9842 
13059000    208.19665   -4087.0411   -3730.1991   -4087.0411            0    4951.7992    17.242987    20.309961    21.036403    7367.0407    4001.6956     5451.161    5402.5411   -391.62025   -706.36088   -490.53406   -3198.1742 
13060000    203.03184   -4114.6766    -3766.687   -4114.6766            0    3776.6007    17.277072    20.350109    21.077988    7410.8163    3485.9107    2597.4115    5246.4799    462.33429    33.534915   -671.16893   -3358.5152 
13061000    195.89944    -4089.644    -3753.879    -4089.644            0    3599.8986    17.307058    20.385428     21.11457    7449.4691    4372.8005    2075.9697    4350.9257    1164.3576   -551.20378     57.76462   -3362.7757 
13062000    203.48716   -4078.8638   -3730.0938   -4078.8638            0    2296.5694    17.332378    20.415252    21.145461    7482.2127    1968.3472    2523.4453    2397.9157   -356.83272   -519.80293   -315.18103   -3479.4912 
13063000    208.07381   -4072.3999   -3715.7685   -4072.3999            0    2881.8078    17.352668    20.439151    21.170215    7508.5209    2556.8956    2597.4742    3491.0535    264.49314   -541.91015    422.30962   -3400.1988 
13064000    209.32912   -4105.7618   -3746.9789   -4105.7618            0    3901.8979    17.274333    20.346883    21.074646     7407.292    3764.6772    3400.8668    4540.1499    1233.3394   -665.12103   -335.89649   -3325.4656 
13065000    193.38322   -4103.8879   -3772.4356   -4103.8879            0    2762.0212    17.337027    20.420728    21.151132    7488.2348    2465.5335    3684.8894    2135.6406    610.68074     638.3745   -321.21955   -3470.8002 
13066000    202.04022   -4075.0169   -3728.7269   -4075.0169            0    1684.5402    17.397416    20.491858    21.224806    7566.7574    257.24701    3380.5796    1415.7938   -898.11644   -661.10635    768.07774   -3542.8321 
13067000    192.09495   -4110.3644   -3781.1203   -4110.3644            0    1110.7862    17.385016    20.477253    21.209679    7550.5901    1040.8362    2076.5397    214.98276    1526.5165   -243.39762   -72.367308   -3658.8031 
13068000    199.55316   -4092.7123    -3750.685   -4092.7123            0    3771.1882    17.318374    20.398757    21.128376    7464.0912    1589.1681    5881.3762    3843.0203    311.13243   -747.07131    672.90186   -3340.1681 
13069000    195.80038   -4112.0003   -3776.4052   -4112.0003            0    4158.3094    17.267411    20.338729    21.066201    7398.3909    4477.0739    2638.0718    5359.7826     557.9542   -462.76186    243.15384   -3327.7321 
13070000    203.34122   -4085.5726   -3737.0527   -4085.5726            0    3200.6625    17.307249    20.385653    21.114803    7449.7156    3155.9705    2627.7588    3818.2582    531.96752   -380.92691   -302.10343   -3389.3121 
13071000     207.7393   -4104.1916   -3748.1336   -4104.1916            0    2237.7012    17.369973    20.459534    21.191326    7531.0063     1874.656    2332.2491    2506.1986    531.09966   -756.54652    596.16026   -3502.3624 
13072000    224.03271   -4071.3713   -3687.3869   -4071.3713            0    5754.9631    17.292908    20.368761    21.097307    7431.2124     5912.694    5591.7842    5760.4112   -828.35729   -746.77003    797.95391   -3063.6835 
13073000    192.94882    -4102.338   -3771.6303    -4102.338            0     3155.543    17.341359    20.425831    21.156418    7493.8499    4233.2504    3308.5252    1924.8535   -139.81403     192.0946   -157.09737   -3426.7606 
13074000    210.13353   -4115.5255   -3755.3638   -4115.5255            0    3629.9663     17.30454    20.382462    21.111498    7446.2179     4075.044    2900.7787    3914.0761    784.06295   -48.903669     1452.585    -3361.166 
13075000    202.09093   -4098.1373   -3751.7604   -4098.1373            0    3828.1526    17.289564    20.364823    21.093228    7426.9028    4089.7482    2734.9167    4659.7928    421.31993   -51.680353   -588.03692   -3337.1188 
13076000    194.25923   -4087.4236     -3754.47   -4087.4236            0    4206.8877    17.307275    20.385684    21.114835    7449.7493    4342.2733    4206.7082    4071.6817   -936.10018   -1221.2401    380.06024   -3297.4044 
13077000    201.13495   -4109.4052   -3764.6668   -4109.4052            0    2870.0837    17.286094    20.360735    21.088994    7422.4311    3004.0589    2332.4662     3273.726   -1120.5165   -154.07126     93.61984   -3453.9844 
13078000    218.46293   -4079.9432   -3705.5052   -4079.9432            0    3547.7269    17.341357    20.425827    21.156415    7493.8465    4009.2302    4952.8824    1681.0682    173.17713   -693.44768   -552.65624   -3317.7739 
13079000    211.27764   -4107.6451   -3745.5225   -4107.6451            0    4840.2762    17.223251    20.286714    21.012325    7341.7729    6128.1914    4102.9689    4289.6682    -1142.367    -656.2918    1025.4395   -3227.2633 
13080000    215.51555   -4076.8688   -3707.4825   -4076.8688            0    4986.3963    17.255645     20.32487    21.051846     7383.277    6283.5665    5405.6423    3269.9801   -451.11995   -1162.1423     -823.657   -3170.5597 
13081000    196.78377   -4084.4341   -3747.1535   -4084.4341            0    3607.4625     17.30695    20.385301    21.114439    7449.3301     5014.877    3310.0876     2497.423    958.43563   -897.03345    134.44829   -3355.2357 
13082000    204.50571   -4112.6239   -3762.1081   -4112.6239            0    3580.2035    17.305103    20.383125    21.112185     7446.945    3979.2691    4346.0652    2415.2763   -899.59098      39.8729    309.30007   -3373.2763 
13083000    200.66845   -4098.8354   -3754.8966   -4098.8354            0    3263.0647    17.310566     20.38956     21.11885    7453.9998    3556.2583    4692.9686    1539.9672   -931.18916    931.63861    28.940891   -3400.1722 
13084000    209.87272   -4069.8122   -3710.0976   -4069.8122            0    3079.9069    17.326062    20.407812    21.137755    7474.0354    2838.0636    3775.2028    2626.4542   -878.41215   -64.039974    1938.1501   -3374.3842 
13085000    202.16436    -4093.997   -3747.4943    -4093.997            0    3036.4096    17.325118    20.406701    21.136604    7472.8146     2707.352    2568.3439    3833.5328    219.58231   -818.45771   -201.88527   -3416.5762 
13086000     208.2751    -4098.438   -3741.4616    -4098.438            0    1782.0859    17.371323    20.461124    21.192974    7532.7631    1636.6226    2986.3804    723.25473    769.69984   -255.88074   -241.56319   -3545.6858 
13087000    195.15155   -4085.3125   -3750.8294   -4085.3125            0    4202.6279    17.271149    20.343132    21.070762    7403.1967    4270.1838    5687.9792    2649.7206   -497.79986   -777.65062   -570.26416     -3297.08 
13088000    205.34271   -4064.3042   -3712.3539   -4064.3042            0     3266.791    17.319251    20.399789    21.129445    7465.2245    3723.5495    2886.8169    3190.0065    62.018612    195.88925    560.76236   -3356.6897 
13089000    191.94951    -4108.962   -3779.9671    -4108.962            0    3202.8957    17.328152    20.410274    21.140305    7476.7408    2692.3177    2756.4667    4159.9029    1022.3075     -297.519   -218.60966   -3430.7215 
13090000    206.54049   -4089.1371   -3735.1338   -4089.1371            0    2505.6689    17.380629    20.472085    21.204326    7544.8746    2129.8616    2552.2013    2834.9437    648.09355    251.91548   -295.41851   -3459.4244 
13091000    190.25265   -4082.9669   -3756.8803   -4082.9669            0       3217.9     17.29154    20.367151    21.095639    7429.4497    3278.5121    2551.5785    3823.6096   -220.45367    612.17863   -171.60641    -3408.218 
13092000    201.88499   -4069.2914   -3723.2674   -4069.2914            0    3141.8243    17.298513    20.375364    21.104146    7438.4412    2355.1611    4045.3745    3024.9373   -280.61246    654.68999    -380.1859   -3382.4359 
13093000    199.65711   -4098.1103   -3755.9049   -4098.1103            0    3363.1266    17.320016    20.400691    21.130379    7466.2146    2848.8868    3993.9032    3246.5899    252.64805    583.59191    738.00038   -3389.7039 
13094000    194.72513   -4079.4548   -3745.7026   -4079.4548            0    2528.0271     17.33171    20.414465    21.144645    7481.3471    2832.5365    2930.8396    1820.7054    1245.5868    714.34393    271.32294   -3469.8752 
13095000    205.78392   -4108.2346    -3755.528   -4108.2346            0    4056.1844    17.288888    20.364027    21.092404    7426.0318    3479.3838     5016.475    3672.6943     627.8411   -2.0142445    -278.2199   -3316.2389 
13096000      210.903    -4089.901   -3728.4205    -4089.901            0    2516.1339    17.351736    20.438053    21.169078     7507.311    2520.0417    1650.7054    3377.6546    231.31342     1477.321   -104.86125   -3452.9379 
13097000    210.09103   -4108.9951   -3748.9063   -4108.9951            0    3054.1215    17.333772    20.416894    21.147161    7484.0178    2413.0525    4224.6355    2524.6764    1461.1265   -734.24177     -723.119   -3415.5589 
13098000    203.91411   -4113.8489   -3764.3471   -4113.8489            0    2418.5678    17.321399    20.402319    21.132066    7468.0024    2149.0496     2156.354    2950.2996    445.44466   -594.20621    325.11584   -3500.9333 
13099000    208.93616   -4093.7932   -3735.6838   -4093.7932            0    3318.8451    17.300805    20.378063    21.106942    7441.3976    2907.0754    3305.6087    3743.8514   -376.36079   -1299.4262    187.70607   -3375.5056 
13100000    198.12494   -4096.3352   -3756.7558   -4096.3352            0    3365.1839    17.307034      20.3854    21.114541    7449.4385    3430.5273    4163.9463    2501.0781    780.22799    557.37258    209.37835   -3391.1541 
13101000     199.4606   -4109.4821   -3767.6135   -4109.4821            0     3698.525    17.237576    20.303588    21.029803    7360.1082    3799.7477    3934.4865    3361.3408   -350.23566   -150.94197    1196.9517   -3370.6152 
13102000    213.24846    -4098.114   -3732.6134    -4098.114            0    3399.4182    17.360448    20.448314    21.179706    7518.6238    4491.4348    3330.0794    2376.7405    258.07742    387.92549    797.27452   -3359.8624 
13103000    208.55471   -4088.4207    -3730.965   -4088.4207            0    3692.7866    17.303299       20.381    21.109984    7444.6158    2461.7578     6524.539    2092.0628   -2.0180515   -296.10845   -345.47542   -3330.0315 
13104000    203.13546   -4082.4684   -3734.3012   -4082.4684            0    4444.2587    17.242199    20.309033    21.035443    7366.0315    5801.8723    3992.5518    3538.3521  -0.59234385   -554.89855    -933.5271   -3256.8722 
13105000    205.85839    -4074.677   -3721.8428    -4074.677            0    3584.9104    17.325402    20.407035     21.13695    7473.1822    3827.7389    2667.8691    4259.1231   -599.21617   -850.60542   -985.22522    -3331.128 
13106000    189.80833   -4081.8989   -3756.5739   -4081.8989            0    2382.8739    17.346997    20.432471    21.163295    7501.1608    2212.5944    1482.8736    3453.1536   -635.96928   -311.00745   -373.27823   -3495.8953 
13107000    195.57666   -4088.0197    -3752.808   -4088.0197            0    2235.4529    17.328461    20.410638    21.140682    7477.1409    2203.5421    2384.1036    2118.7131    614.36977    699.61413   -112.99142   -3509.0399 
13108000    195.41583   -4067.6174   -3732.6813   -4067.6174            0    3204.5334    17.335396    20.418807    21.149143    7486.1224    3691.8553     3838.738    2083.0069   -147.80394    -727.8254   -106.46484   -3382.8187 
13109000    207.28608    -4100.481   -3745.1998    -4100.481            0     4828.821    17.240511    20.307045    21.033384    7363.8685     5306.948    5022.1639    4157.3513    53.203354    -1655.966   -10.474212   -3226.6111 
13110000    199.02279   -4094.0491   -3752.9309   -4094.0491            0    2827.7326    17.361263    20.449274      21.1807    7519.6828    3453.4403    3565.0651    1464.6923   -515.21414   -347.74114   -519.36571   -3442.8223 
13111000    209.38908   -4099.7593   -3740.8735   -4099.7593            0    1898.7432    17.329276    20.411598    21.141676    7478.1956    570.81137    2732.5785    2392.8396    1513.2917     1147.253   -1090.1934   -3533.7932 
13112000     208.2044   -4099.1223   -3742.2671   -4099.1223            0    3317.5311    17.255745    20.324989    21.051969    7383.4061    4386.0703    2774.0328    2792.4902    859.80438   -776.27384   -1913.5636   -3385.0373 
13113000    202.40179   -4094.4825   -3747.5727   -4094.4825            0    3130.7157    17.292977    20.368842    21.097391    7431.3009    2389.9694    5014.0854    1988.0923    45.468768   -1131.0909   -88.148329   -3408.2723 
13114000    211.80484   -4077.7078   -3714.6815   -4077.7078            0    3157.8202    17.289377    20.364602    21.092999    7426.6612    3435.3431    3209.7727    2828.3448   -695.78335   -363.16258    311.06983   -3372.6573 
13115000    205.00509   -4076.8132   -3725.4415   -4076.8132            0    5043.0724    17.263358    20.333955    21.061256    7393.1822     4893.381    4255.3295    5980.5068    1544.8152   -462.87512   -769.38906   -3181.6874 
13116000    196.92804    -4095.806    -3758.278    -4095.806            0    4282.2261    17.261002    20.331181    21.058383    7390.1563    3479.3992    5857.8901    3509.3889    691.51793    1140.8091   -770.50674   -3296.7489 
13117000    201.91998   -4117.0149    -3770.931   -4117.0149            0    2805.8746    17.242508    20.309397    21.035819     7366.427    2789.9883    3567.0363    2060.5992   -496.17487   -1131.8482    1117.8589   -3469.4909 
13118000    198.07398   -4104.4752   -3764.9832   -4104.4752            0    4675.9593    17.251532    20.320026    21.046829    7377.9992    3187.7771    6695.7449    4144.3559    68.792686   -1486.2075    413.64725   -3261.8474 
13119000    212.62738   -4099.2176   -3734.7815   -4099.2176            0    2728.4347      17.3203    20.401026    21.130726    7466.5819    1357.3582    3646.9901    3180.9558    460.20317   -404.07075    327.48833   -3437.6756 
13120000    210.06677   -4117.0109   -3756.9636   -4117.0109            0    3082.5762    17.306339    20.384582    21.113693    7448.5412    2398.1826    2681.6676    4167.8784   0.63026185    1022.3096   -722.29287   -3422.1054 
13121000    197.21708   -4095.7868   -3757.7635   -4095.7868            0    2406.9089    17.328157     20.41028    21.140311    7476.7477    351.25164    3982.9912    2886.4838   -637.09565   -707.28163   -593.75163   -3495.3125 
13122000    217.88876   -4089.7812   -3716.3273   -4089.7812            0    4680.2566    17.289902    20.365221     21.09364    7427.3383    3654.6005    6096.5408    4289.6285    125.62721   -87.774217    1914.6681   -3209.3614 
13123000    202.88526   -4117.0883     -3769.35   -4117.0883            0    2371.7551    17.317973    20.398285    21.127887    7463.5728    1795.1565    4120.5097    1199.5992   -692.80588   -629.57984   -626.97051   -3511.1878 
13124000    206.46883   -4071.2398   -3717.3593   -4071.2398            0    4607.3558    17.284009     20.35828    21.086451    7419.7463    6440.3985    4387.4023    2994.2666    295.72919    335.76792   -522.97085   -3218.8001 
13125000    213.11741   -4069.4816   -3704.2056   -4069.4816            0     5315.416    17.245234    20.312608    21.039145    7369.9216    4820.5116    6202.3462    4923.3901   -493.53792   -256.54526   -7.1968524   -3132.8901 
13126000    212.83468   -4098.0883   -3733.2969   -4098.0883            0    2824.0942    17.307593    20.386058    21.115223      7450.16    2792.2936    3455.7146    2224.2743    110.54647   -258.83739    -1299.547   -3426.4508 
13127000    216.46504   -4103.5548   -3732.5412   -4103.5548            0    3162.7217    17.357365    20.444683    21.175945    7514.6192    2626.1843    3989.2137    2872.7671    1230.2245   -89.311527    751.71624    -3385.929 
13128000    205.17502   -4085.6414   -3733.9785   -4085.6414            0    3414.9808    17.331307     20.41399    21.144154    7480.8253    4401.9065    2728.8589    3114.1769    1722.4226   -912.67618   -711.97372   -3361.4035 
13129000    218.26636   -4084.3875   -3710.2864   -4084.3875            0    2776.5863    17.362523    20.450759    21.182238    7521.3209    3190.3165    2211.5474    2927.8949    553.18532     283.6068   -547.64235   -3405.7206 
13130000    208.23148   -4108.8838   -3751.9822   -4108.8838            0     5259.032     17.27951     20.35298    21.080961     7413.953    4808.3229    5789.4348    5179.3384    38.812031   -285.30674   -228.13306   -3183.3498 
13131000    199.95087   -4104.3122   -3761.6032   -4104.3122            0    3926.2698     17.23079    20.295595    21.021524     7351.419    3765.6756    3740.9842    4272.1497     167.7559   -299.66484    138.81939   -3340.6564 
13132000    207.16421   -4071.9749   -3716.9025   -4071.9749            0    2765.6753    17.300486    20.377687    21.106552    7440.9861    1978.9608    2907.9302    3410.1349   -147.20308   -755.92073   -309.70665   -3416.7738 
13133000    197.56729   -4093.4085   -3754.7849   -4093.4085            0    3276.4747    17.338369    20.422309     21.15277    7489.9742    3292.2275    4192.0594    2345.1372   -88.779796     211.8243    779.42223   -3396.8838 
13134000    193.01854   -4105.4923   -3774.6651   -4105.4923            0    2152.5472    17.389481    20.482512    21.215126    7556.4091    1417.6692    3126.3731    1913.5994    507.10342   -378.09956    -422.4754   -3537.4491 
13135000     195.1025   -4106.1915   -3771.7925   -4106.1915            0    3561.5138    17.319874    20.400524    21.130206    7466.0309    3135.1617    3114.0742    4435.3056   -86.959958   -62.019493    454.05643   -3383.9992 
13136000     198.8587   -4087.3313   -3746.4943   -4087.3313            0    3368.6047     17.38681    20.479366    21.211868    7552.9279    3970.1312    3657.7412    2477.9416   -207.77744    31.836709   -541.36336   -3375.4367 
13137000    202.25148   -4100.7101    -3754.058   -4100.7101            0    3854.0996    17.363165    20.451515     21.18302    7522.1545    2870.6873      4437.02    4254.5916    258.15232   -69.510012    1114.0197   -3331.2521 
13138000    209.59798    -4102.622   -3743.3783    -4102.622            0    3381.8017    17.309977    20.388866    21.118131    7453.2387    2533.5238    3835.8918    3775.9894   -125.26906   -168.31931   -1693.1691   -3375.7837 
13139000    188.80236   -4106.0797   -3782.4789   -4106.0797            0    4038.8445     17.32322    20.404465    21.134288    7470.3587    4469.9447    3681.7856    3964.8033    1028.1948   -551.62992    -36.00064   -3342.4568 
13140000    200.23693   -4080.4436   -3737.2444   -4080.4436            0    3451.7586    17.360604    20.448498    21.179896    7518.8267    3966.9509     2482.801     3905.524   -705.20345   -2697.7113   -515.43862   -3358.7439 
13141000    196.69514   -4095.5737   -3758.4449   -4095.5737            0    3381.0878    17.373005    20.463105    21.195026    7534.9509    3461.0892     3868.214    2813.9603   -743.88075    551.48171    638.01378   -3386.8988 
13142000    201.27607   -4087.2122   -3742.2319   -4087.2122            0     3201.746    17.298506    20.375355    21.104137     7438.432    3825.6683    1779.3627    4000.2068   -874.54374   -534.64163    765.28467   -3394.9004 
13143000    205.96229   -4095.5247   -3742.5124   -4095.5247            0    2912.9269     17.32542    20.407056    21.136971    7473.2045    3596.5086    2678.3158    2463.9564   -207.96012    50.578119    669.22725   -3425.0354 
13144000    197.40247   -4078.8815   -3740.5404   -4078.8815            0    3127.4992    17.329978    20.412424    21.142532    7479.1043     3705.073    2390.0201    3287.4045    485.63732    274.25147    164.76559   -3399.4082 
13145000    200.81871   -4056.2796   -3712.0832   -4056.2796            0    2345.6049    17.379731    20.471027    21.203231    7543.7055    3118.5452    1744.2596    2174.0098    326.66086    546.86322    739.78593   -3454.0263 
13146000    206.32985    -4104.258   -3750.6157    -4104.258            0    4972.8778     17.35993    20.447704    21.179074     7517.951    6173.9542    3283.9758    5460.7033    310.91421   -899.04957    626.71314   -3205.3814 
13147000    197.91051   -4096.6761   -3757.4643   -4096.6761            0     4282.503    17.323626    20.404944    21.134784    7470.8843    5640.3614    2765.4368    4441.7107    151.82702    544.84694   -290.63971   -3290.8634 
13148000    192.34965   -4087.3713   -3757.6905   -4087.3713            0    3445.6578    17.288368    20.363414    21.091769    7425.3612    3705.6429    2588.6936     4042.637    1036.4517    1329.2029    339.82444   -3384.5558 
13149000    206.65719   -4061.7293   -3707.5259   -4061.7293            0     2864.102    17.342554    20.427238    21.157876    7495.3991    1907.1868    3517.6812    3167.4381     473.6423    821.75449   -274.06455   -3394.4432 
13150000    201.39724    -4096.364    -3751.176    -4096.364            0    4194.6988    17.351035    20.437227    21.168222    7506.4008    4742.6663     3294.801    4546.6292    1586.0294   -135.07321    458.66781   -3291.9691 
13151000    214.68985   -4089.6722   -3721.7012   -4089.6722            0    4158.2767    17.340568    20.424899    21.155453    7492.8247    4529.4295    3438.1861    4507.2144    1239.1874   -329.84232   -47.727398   -3267.3048 
13152000    193.86648   -4099.8101   -3767.5295   -4099.8101            0    2178.4579    17.348473     20.43421    21.165097    7503.0763     2347.651    1725.0553    2462.6674   -103.81504   -279.60241     1336.563   -3529.1525 
13153000     206.0501   -4075.3537   -3722.1909   -4075.3537            0    2797.9487    17.355661    20.442676    21.173865    7512.4057    2458.7067     3174.933    2760.2064    694.68102    1169.8889    1008.5216   -3415.6456 
13154000    199.89383    -4098.134   -3755.5228    -4098.134            0    4226.1924    17.260402    20.330474     21.05765    7389.3853    3918.0353    4672.8109    4087.7311     580.8661   -458.73292    116.84742   -3300.0804 
13155000    207.78828    -4094.835    -3738.693    -4094.835            0    3862.9466    17.288602     20.36369    21.092055    7425.6633    3858.9044    4709.4333    3020.5022    415.65139   -305.50627    440.35919   -3320.3525 
13156000     188.6078   -4094.1438   -3770.8765   -4094.1438            0    2627.4006    17.362384    20.450596    21.182068    7521.1404     4228.332    2205.0859     1448.784    807.07011    503.82521   -790.48093   -3482.6819 
13157000    196.59696    -4093.941   -3756.9806    -4093.941            0    2611.6143    17.347696    20.433295    21.164149    7502.0685    1863.0877     1920.975    4050.7801    -344.6497    656.13356   -12.277599   -3471.2439 
13158000    208.81467    -4112.186   -3754.2848    -4112.186            0    4254.4043    17.323412    20.404691    21.134522    7470.6071    2910.9097    5859.3189    3992.9844   -933.88514   -871.44421   -479.45863   -3290.7626 
13159000    202.99008   -4101.7847   -3753.8666   -4101.7847            0    3689.0377    17.356799    20.444017    21.175255    7513.8845    4459.2992    5226.5385    1381.2756     351.0455   -276.15786    738.77554   -3349.6134 
13160000    214.58616    -4089.405   -3721.6116    -4089.405            0    3511.5781     17.35445     20.44125    21.172389    7510.8343    5179.7239    2995.0548    2359.9556   -321.07702    872.90596    14.640714   -3336.9611 
13161000    199.89646   -4117.0514   -3774.4357   -4117.0514            0    3279.2622    17.388258    20.481071    21.213634    7554.8146    3687.1545    3364.3322    2786.2999   -359.93886    511.09826    796.51757   -3413.1291 
13162000    192.24114   -4089.6835   -3760.1887   -4089.6835            0    5542.2197    17.347416    20.432965    21.163808    7501.7054    7374.9005    5122.3892    4129.3695    245.11423    64.328503   -507.08907    -3153.844 
13163000    212.36262   -4107.5692    -3743.587   -4107.5692            0    3117.0873    17.387621    20.480321    21.212857    7553.9846       4627.3    2525.8535    2198.1082    866.15754   -335.40909    1081.7004   -3400.1864 
13164000    195.63448   -4088.2292   -3752.9184   -4088.2292            0    4619.3802     17.38138     20.47297    21.205243    7545.8537    5386.2506    3446.5612    5025.3287    934.55451   -284.45758    1365.4148   -3244.5623 
13165000    203.08281    -4095.295    -3747.218    -4095.295            0     3766.966    17.350786    20.436934    21.167918    7506.0776     4441.772    3172.1414    3686.9846    190.07815   -899.03106     291.3445   -3334.8541 
13166000    209.85439    -4089.721   -3730.0378    -4089.721            0    3809.5123    17.375022     20.46548    21.197486    7537.5752    3282.9105    2227.4808    5918.1456    1469.9783   -537.22822    206.89996   -3311.2665 
13167000    193.79375   -4101.0366   -3768.8808   -4101.0366            0    3198.5475    17.382819    20.474665    21.206999    7547.7276    2364.6894    4478.0305    2752.9225   -1129.2301   -1068.9954    1671.8895   -3416.7979 
13168000    209.16347   -4060.8216   -3702.3226   -4060.8216            0    4414.4396    17.268917    20.340503    21.068038    7400.3264     5507.245    3918.5429    3817.5309   -655.19914    137.16952    1879.3578    -3225.889 
13169000    201.01872   -4067.7599   -3723.2207   -4067.7599            0    3889.5104    17.388462    20.481311    21.213882      7555.08    4312.1208     4974.983    2381.4274    548.09409   -1198.8232    -32.13673   -3294.6624 
13170000    210.90728   -4104.9897   -3743.5019   -4104.9897            0    5334.7745    17.319944    20.400607    21.130292    7466.1218    5636.4807    5013.7625    5354.0804    1038.4941    891.70359    956.68308   -3162.6211 
13171000    203.91344   -4089.5408   -3740.0401   -4089.5408            0    4522.0755    17.311732    20.390934    21.120273    7455.5068    4604.8784    3327.5173    5633.8308    177.09338   -157.96556    982.57732   -3248.3507 
13172000    206.13078   -4118.4005   -3765.0994   -4118.4005            0    3537.1103     17.39176    20.485197    21.217907    7559.3809     4057.395     2946.069    3607.8668   -415.53286    683.17301    144.99913   -3375.1478 
13173000    201.61345   -4110.8569   -3765.2983   -4110.8569            0    4183.7378     17.35525    20.442192    21.173364    7511.8721    3550.6893    4828.8761    4171.6481   -178.79819   -361.05986    368.64216   -3306.9575 
13174000    204.48191   -4118.0576   -3767.5826   -4118.0576            0    4379.5988     17.34603    20.431332    21.162116    7499.9069    4938.8761    3830.7775    4369.1428    -1080.494    206.47108    392.85587   -3288.5489 
13175000    209.56994   -4092.4719   -3733.2762   -4092.4719            0    3827.8726    17.319876    20.400526    21.130208    7466.0334    3276.9138    3361.3945    4845.3095    321.23953   -690.00069    55.973836   -3316.4804 
13176000    211.70891   -4123.9461   -3761.0843   -4123.9461            0    3553.2993    17.300965    20.378251    21.107137    7441.6041    3877.8722    2736.6924    4045.3333    1209.6666    640.49273   -209.74789   -3375.4513 
13177000    214.52332   -4095.1997   -3727.5141   -4095.1997            0     4245.876    17.281411    20.355219    21.083281    7416.4004    3528.1105    4576.4344     4633.083    11.647009    841.76596    575.89463   -3268.2776 
13178000    208.51991   -4099.0866   -3741.6906   -4099.0866            0    1822.6546    17.381548    20.473168    21.205448    7546.0719    886.45959    3129.3554    1452.1489   -1080.3083    753.28425   -429.85424   -3541.1043 
13179000     191.1755   -4085.1874   -3757.5191   -4085.1874            0    3133.5682    17.366832    20.455834    21.187495    7526.9219    2850.7381    3954.9842    2594.9824    988.62612   -357.79094    135.03723   -3413.5397 
13180000    208.17239   -4112.9461   -3756.1457   -4112.9461            0    3893.0419    17.296057     20.37247    21.101149    7435.2728    4044.4112     4111.767    3522.9476      543.296    263.46943   -770.26582   -3334.0005 
13181000    205.68495   -4080.0352   -3727.4982   -4080.0352            0     4479.736    17.304598    20.382531     21.11157    7446.2937      5537.45    3470.3563    4431.4016    396.99542   -745.01549   -604.21276   -3241.0143 
13182000    209.69947   -4084.0966   -3724.6789   -4084.0966            0    4325.5017    17.320332    20.401063    21.130765    7466.6232    4259.4555    5671.7599    3045.2898   -883.33785   -1254.5138    181.36207   -3253.6619 
13183000    208.96607   -4129.4732   -3771.3125   -4129.4732            0    4272.7889    17.300475    20.377675    21.106539    7440.9723    4440.3953    3789.7079    4588.2635   -280.85631   -208.75342   -474.20375    -3307.634 
13184000    196.60562   -4100.8699   -3763.8946   -4100.8699            0    3844.8529    17.313355    20.392845    21.122252     7457.603    4118.2602    4752.6356    2663.6628   -1150.9062   -541.98727    716.97546   -3345.7227 
13185000    211.31684   -4098.9313   -3736.7414   -4098.9313            0    2705.8225    17.375768     20.46636    21.198397    7538.5471    3226.4772    2165.4073    2725.5831   -344.44703   -687.66334      295.506   -3439.2579 
13186000    211.73374   -4086.8494    -3723.945   -4086.8494            0    5060.4616      17.3129    20.392309    21.121697     7457.015    3375.1212    4861.2004    6945.0633    3.0673735    127.20731   -99.520159   -3173.6051 
13187000    202.11495   -4102.0118   -3755.5937   -4102.0118            0    2216.4907    17.367219     20.45629    21.187967    7527.4254    1824.3161     1795.662     3029.494   -54.251808   -382.86815   -651.34344   -3512.2678 
13188000     212.7521   -4086.8255   -3722.1757   -4086.8255            0    2960.5636    17.308842     20.38753    21.116747    7451.7735    2953.2379    2505.0713    3423.3815    90.781084   -596.07168   -198.47918   -3400.4321 
13189000    199.95137   -4109.7115   -3767.0017   -4109.7115            0    3466.3497    17.304297    20.382176    21.111202    7445.9047    3589.8435    3934.6053    2874.6002   -35.747005   -530.15261    370.70806   -3390.5878 
13190000    201.98914    -4056.549   -3710.3465    -4056.549            0    3602.6897    17.317295    20.397486     21.12706    7462.6962    3198.9582     5352.265    2256.8459   -276.67063   -308.81848    783.76203    -3318.245 
13191000    211.45045   -4097.2153   -3734.7965   -4097.2153            0    4096.5222    17.296296    20.372753    21.101441    7435.5817    4344.9162    4034.2392    3910.4113   -1391.4034   -1085.8396   -304.00034   -3290.5683 
13192000     208.0213   -4091.1668   -3734.6254   -4091.1668            0    3773.8176    17.338102    20.421994    21.152444    7489.6285    3332.4948    3980.4146    4008.5434   -308.97801   -1296.9142    45.307582   -3322.4168 
13193000    201.24433   -4085.7524   -3740.8265   -4085.7524            0    2632.4802    17.333113    20.416118    21.146358     7483.165     1200.841    4207.4705     2489.129   -407.16705   -862.49517   -94.848835   -3453.5327 
13194000    212.57488   -4079.3485   -3715.0024   -4079.3485            0     4566.565    17.275109    20.347796    21.075592    7408.2896     3247.198    6380.6288    4071.8683    18.292759   -2101.4388   -1098.6338   -3221.6202 
13195000    207.04576   -4113.7695   -3758.9002   -4113.7695            0    2173.3747    17.337892    20.421746    21.152187    7489.3555    1770.1236    1630.8963    3119.1043   -910.02863    -869.6368    353.82665   -3521.5143 
13196000    199.63859   -4092.0728   -3749.8991   -4092.0728            0    4090.0383    17.276351     20.34926    21.077108    7409.8884    4392.8723    2878.1098     4999.133   -278.95668   -794.26551   -141.93163   -3307.9065 
13197000    199.05137   -4090.9849   -3749.8176   -4090.9849            0    3887.0071    17.288401    20.363453    21.091809    7425.4043    3937.6342    4819.0911    2904.2961   -1967.6246   -687.23531   -29.209587   -3328.8862 
13198000    215.04954   -4107.4105   -3738.8229   -4107.4105            0    3700.3934    17.280521    20.354171    21.082195    7415.2548    2880.6457    4912.7835    3307.7511   -988.77182    249.29206   -851.45475    -3338.648 
13199000     218.5741   -4118.3671   -3743.7386   -4118.3671            0    2834.2841     17.34927    20.435148    21.166069      7504.11    1304.9642    3304.7122    3893.1759    159.90576   -355.83578    290.88982   -3433.5553 
13200000    203.16718   -4104.5655   -3756.3439   -4104.5655            0     3144.335    17.306089    20.384287    21.113388    7448.2183    2002.7385    4351.5252    3078.7413    1708.6088    997.16412   -1099.4026   -3414.7917 
13201000    203.16335   -4098.1727   -3749.9576   -4098.1727            0    3543.9072    17.327397    20.409385    21.139384    7475.7633    2376.8583    4247.9264     4006.937   -350.28863   -302.24489    246.19071   -3363.5784 
13202000    208.00471   -4109.0966   -3752.5837   -4109.0966            0    4403.3785    17.332216    20.415061    21.145263    7482.0029    3517.4235    4992.5076    4700.2043    957.65129   -1234.3142   -1328.8551   -3272.0987 
13203000    201.70722    -4115.858   -3770.1387    -4115.858            0    2315.6288     17.33823    20.422144      21.1526    7489.7934    1050.5062    2914.6915    2981.6888    -1123.508    1341.1559    -215.7833   -3517.2004 
13204000    196.08437   -4097.3627   -3761.2808   -4097.3627            0    4281.3063    17.295374    20.371666    21.100316     7434.392    5685.0636    3914.5345    3244.3207   -917.37677    1629.3384   -600.54409   -3297.0888 
13205000    199.36867   -4111.1318   -3769.4207   -4111.1318            0    4532.1114    17.280259    20.353862    21.081875    7414.9173     4590.309    5604.6843    3401.3409     508.7755   -515.14325   -724.86523   -3279.3229 
13206000    196.80478   -4104.7039   -3767.3872   -4104.7039            0    2752.7646    17.267364    20.338674    21.066143      7398.33    2594.1882    1908.8755    3755.2302   -567.62648    -110.6846     463.5592    -3470.372 
13207000    201.75658   -4102.4888   -3756.6849   -4102.4888            0    4016.0291    17.314845    20.394601    21.124071    7459.5296    3045.2917    5691.7091    3311.0864   -594.92446    473.34023   -364.25071   -3319.7828 
13208000     207.5756   -4095.5473   -3739.7698   -4095.5473            0    4211.9207        17.28    20.353558     21.08156    7414.5845    3074.9196    5688.2959    3872.5465   -426.70753    1049.7972   -1374.5148   -3284.3175 
13209000    196.91605   -4096.2712   -3758.7638   -4096.2712            0    2361.2378     17.34963    20.435573    21.166508    7504.5777    585.36796    3576.7269    2921.6186    311.90209   -578.47926   -901.01263   -3500.3344 
13210000    208.98643   -4094.3807   -3736.1852   -4094.3807            0    4110.5971    17.308174    20.386743    21.115932    7450.9108     1995.373    7537.5101    2798.9081   -639.70291    447.90485   -1028.3851   -3289.5117 
13211000    204.56273   -4120.1151   -3769.5016   -4120.1151            0    4345.2273    17.317458    20.397678    21.127259    7462.9071    3198.9248    6223.9481    3612.8091   -638.91528    197.38032    87.207581    -3296.572 
13212000    202.24997    -4110.342   -3763.6925    -4110.342            0    4264.2006    17.333864    20.417002    21.147273    7484.1372    3651.6467    3197.7457    5943.2092   -1031.1913    1092.6568    464.32272   -3298.2616 
13213000    214.53941   -4106.2989   -3738.5857   -4106.2989            0    3999.4887    17.288365     20.36341    21.091765    7425.3574    4487.3274    4409.6062    3101.5325     185.4006   -1012.3313  -0.33766345   -3305.4762 
13214000    202.17334   -4111.8108   -3765.2926   -4111.8108            0    2815.2545    17.322662    20.403808    21.133607    7469.6367    5264.3143    1718.6532    1462.7961     -913.459    356.74414    1019.9923   -3458.6072 
13215000     197.7861    -4148.739   -3809.7404    -4148.739            0    2335.3178    17.328339    20.410494    21.140533    7476.9828    1367.6569    3005.9251    2632.3715    128.70526   -31.376829    89.418785   -3555.0877 
13216000    197.22505   -4094.7492   -3756.7122   -4094.7492            0    3387.5618    17.326092    20.407847    21.137791    7474.0744    3686.6824    4062.8065    2413.1964   -335.19384   -243.48717    618.41215   -3387.4621 
13217000    191.84556   -4096.2583   -3767.4416   -4096.2583            0     4441.216    17.265983    20.337047    21.064459    7396.5551    3896.9558     5361.267    4065.4252   -674.19895   -1574.5995   -967.09827   -3288.3625 
13218000    206.63096   -4091.8321   -3737.6737   -4091.8321            0    5550.7897    17.291427    20.367017      21.0955    7429.3032     4652.996    6871.0034    5128.3697    -13.47647   -623.50092   -1678.9074   -3136.2525 
13219000     213.8829    -4103.116   -3736.5281    -4103.116            0     4785.964    17.344012    20.428956    21.159655      7497.29    4809.2161    4954.9158    4593.7602     936.6806   -104.77288   -1087.2403   -3213.2294 
13220000     187.0686   -4094.6811   -3774.0519   -4094.6811            0    2549.6251    17.362559    20.450801    21.182282    7521.3673    2809.9237    4146.9938    691.95781    662.02866     136.8072   -556.09541   -3494.3799 
13221000    202.75219   -4101.5134   -3754.0031   -4101.5134            0    2134.9135    17.363616    20.452046    21.183571    7522.7413    2607.0733    3180.6984    616.96871    656.29253    -613.5976    36.628621   -3519.7786 
13222000    205.97165   -4119.0939   -3766.0655   -4119.0939            0    4852.7134      17.2715    20.343545    21.071189    7403.6474    3940.5069    5694.1603    4923.4728   -151.00361   -889.00139   -611.28656   -3242.0957 
13223000     199.9253   -4102.8041   -3760.1389   -4102.8041            0    2096.2477    17.376785    20.467557    21.199637      7539.87    3077.2277    887.25879    2324.2566    71.199829   -533.79044    27.935299   -3529.6329 
13224000    202.30956   -4090.8356   -3744.0839   -4090.8356            0     3948.125    17.279024    20.352408    21.080369     7413.328    4543.7482    4637.9502    2662.6766    118.77739   -519.96819    515.44623   -3317.2293 
13225000     202.0737   -4112.7401   -3766.3927   -4112.7401            0    3099.4909    17.316665    20.396744    21.126291    7461.8821    2785.9635    4063.1431     2449.366   -1179.9131   -234.29906    381.76148    -3429.094 
13226000    204.00132   -4095.1629   -3745.5116   -4095.1629            0    1322.5037    17.402855    20.498265    21.231443    7573.8574    1685.5575    1526.6855    755.26813    74.898991    147.47152    294.62067   -3599.4319 
13227000    216.49195   -4080.5473   -3709.4875   -4080.5473            0    4592.0708     17.35472    20.441568    21.172718    7511.1841    3844.0649    5183.9682    4748.1792    805.35088    142.87547    525.53429   -3206.4586 
13228000    206.45089   -4087.1196   -3733.2699   -4087.1196            0    2527.2273    17.375854    20.466461    21.198501    7538.6583    1411.2718    2211.3046    3959.1053   -682.99773   -163.00418    1.4412769   -3455.4174 
13229000    204.29472   -4088.7028   -3738.5486   -4088.7028            0    4555.4938    17.275951    20.348789     21.07662    7409.3736    3228.6556    6559.6128    3878.2129   -844.63692   -537.32212    -243.8385   -3246.2905 
13230000    207.54333   -4090.8295   -3735.1074   -4090.8295            0    3020.8405    17.377753    20.468698    21.200818    7541.1307    3948.5072    1576.1034    3537.9109    998.34547    25.624522   -604.23376   -3402.8764 
13231000    204.12292   -4089.2229   -3739.3632   -4089.2229            0    3712.6014     17.34508    20.430213    21.160957    7498.6743    2462.6042    3175.2678    5499.9322    50.512053    1541.4973     1563.788   -3333.3514 
13232000    205.03479    -4117.835   -3766.4123    -4117.835            0    2475.9912    17.391121    20.484443    21.217127    7558.5467    1764.5733    2292.2768    3371.1235   -463.31426    95.558037   -405.33672   -3493.4748 
13233000    196.97932   -4106.1857   -3768.5699   -4106.1857            0    4354.2824     17.30955    20.388363     21.11761     7452.687     2609.461    4875.9666    5577.4197    245.46899     1423.893   -1513.7687   -3295.3038 
13234000    204.68354   -4099.2899   -3748.4694   -4099.2899            0    3892.1014     17.35612    20.443217    21.174426    7513.0027    4310.9081    5228.0078    2137.3882   -877.32036   -397.48544   -189.49467    -3322.014 
13235000    203.67133    -4135.642   -3786.5563    -4135.642            0    3725.2169    17.348437    20.434168    21.165053    7503.0298    3508.2547     3934.299    3733.0971    284.41031    -895.0111   -818.92233   -3378.9282 
13236000     207.4571   -4121.8743   -3766.2999   -4121.8743            0    4423.7219    17.294906    20.371114    21.099744     7433.788    3652.1927    4461.4457    5157.5275    404.26723    971.74287    219.50162   -3286.7057 
13237000    207.99076   -4122.9378   -3766.4488   -4122.9378            0    4130.0234    17.323272    20.404526    21.134351    7470.4256    3840.1329    3687.6435    4862.2938    40.074018     1708.642    410.78393   -3316.4889 
13238000    206.50229   -4109.1412   -3755.2033   -4109.1412            0    3792.9275    17.345152    20.430297    21.161044    7498.7674    4793.6483    4802.9119    1782.2224    1870.5428    324.25408   -241.32897   -3340.4018 
13239000    201.82312   -4121.5359    -3775.618   -4121.5359            0    2331.6962     17.40198    20.497234    21.230375    7572.7144    1631.0726    2437.1479    2926.8681   -27.611305    477.47742    644.24747   -3518.1048 
13240000    205.40725   -4118.1856   -3766.1246   -4118.1856            0    5126.0803    17.298105    20.374882    21.103647    7437.9138    4640.5745    5825.6692    4911.9972   -365.43441    843.04283   -400.88767   -3210.0764 
13241000    192.31185    -4125.667    -3796.051    -4125.667            0    2098.0233    17.395917    20.490092    21.222978    7564.8016    1235.9345    3005.0633    2053.0721   -1330.4994    1145.5397    809.48774   -3564.5869 
13242000    203.75909   -4122.1265   -3772.8904   -4122.1265            0    3185.9061    17.392761    20.486375    21.219128    7560.6854    3040.2668    2815.0024    3702.4492   -446.02199    1008.4279   -476.41426    -3421.597 
13243000    216.66062   -4118.2994   -3746.9506   -4118.2994            0    2484.8622    17.351915    20.438264    21.169295    7507.5425    2735.8004    2213.6432    2505.1432   -382.27133    606.74376    506.44668   -3474.8835 
13244000    202.90513   -4107.3864    -3759.614   -4107.3864            0    4899.0871    17.358417    20.445922    21.177228    7515.9851    5128.9659    6299.3328    3268.9625    195.44478     668.8955   -462.88785   -3222.6107 
13245000    205.29772   -4093.1896   -3741.3163   -4093.1896            0    4626.3388    17.339733    20.423915    21.154434     7491.742    5486.0588    4673.1504    3719.8071    1342.4256    892.04081   -355.42288   -3235.8454 
13246000    200.86234   -4113.0787   -3768.8076   -4113.0787            0    3947.7206     17.32583    20.407539    21.137472     7473.736     5136.715    4318.1651    2388.2817   -362.83734    745.09767    666.51791   -3338.5188 
13247000    196.37059   -4103.6335   -3767.0611   -4103.6335            0    3461.9194    17.355689    20.442709      21.1739    7512.4429     3102.136    2491.7341    4791.8882    144.10507   -965.43263    -301.4837   -3387.7688 
13248000    208.08603   -4105.5196   -3748.8673   -4105.5196            0    1974.7268    17.386563    20.479075    21.211567    7552.6059    2651.7008    2260.0709    1012.4087   -306.83961    1136.4845   -592.34497   -3531.3571 
13249000    202.60827   -4126.9086    -3779.645   -4126.9086            0    3340.3253    17.274122    20.346634    21.074388    7407.0203    3856.4036    3490.0381    2674.5341   -1153.0482    317.35039   -214.80441   -3418.8103 
13250000    215.81624   -4096.1644   -3726.2627   -4096.1644            0     588.9991    17.364723     20.45335    21.184921    7524.1795   -63.280673   -122.42606     1952.704    341.91972    588.47602    413.05238   -3661.6304 
Loop time of 404.946 on 64 procs for 250000 steps with 864 atoms

Performance: 106.681 ns/day, 0.225 hours/ns, 617.366 timesteps/s
191.6% CPU use with 32 MPI tasks x 2 OpenMP threads

MPI task timing breakdown:
Section |  min time  |  avg time  |  max time  |%varavg| %total
---------------------------------------------------------------
Pair    | 23.488     | 32.335     | 39.071     |  59.6 |  7.98
Bond    | 0.93394    | 1.0855     | 1.767      |  14.6 |  0.27
Kspace  | 189.4      | 194.58     | 202.05     |  25.0 | 48.05
Neigh   | 2.1671     | 2.2919     | 2.4124     |   5.9 |  0.57
Comm    | 71.358     | 76.805     | 80.793     |  28.1 | 18.97
Output  | 0.52924    | 0.52953    | 0.53109    |   0.1 |  0.13
Modify  | 74.039     | 76.114     | 79.39      |  16.7 | 18.80
Other   |            | 21.2       |            |       |  5.24

Nlocal:        27.0000 ave          33 max          23 min
Histogram: 2 3 9 4 1 2 3 5 1 2
Nghost:        2475.91 ave        2520 max        2427 min
Histogram: 1 1 2 6 7 2 3 6 3 1
Neighs:        8218.34 ave       10350 max        6436 min
Histogram: 5 2 3 5 3 3 4 1 3 3

Total # of neighbors = 262987
Ave neighs/atom = 304.38310
Ave special neighs/atom = 2.0000000
Neighbor list builds = 7147
Dangerous builds = 0

unfix		3
unfix		2
unfix		1

write_data	data.final.${pid}
write_data	data.final.1
System init for write_data ...
PPPM initialization ...
  extracting TIP4P info from pair style
  using 12-bit tables for long-range coulomb (../kspace.cpp:340)
  G vector (1/distance) = 0.37395213
  grid = 24 24 25
  stencil order = 5
  estimated absolute RMS force accuracy = 0.0031063769
  estimated relative force accuracy = 9.3547618e-06
  using double precision FFTW3
  3d grid and FFT values/proc = 3822 576
Last active /omp style is kspace_style pppm/tip4p/omp
WARNING: Not all mixed pair coeffs generated from mixing. Use write_data with 'pair ij' option to store all pair coeffs. (../write_data.cpp:312)

write_restart   restart.lmp.${pid}
write_restart   restart.lmp.1
System init for write_restart ...
PPPM initialization ...
  extracting TIP4P info from pair style
  using 12-bit tables for long-range coulomb (../kspace.cpp:340)
  G vector (1/distance) = 0.37395213
  grid = 24 24 25
  stencil order = 5
  estimated absolute RMS force accuracy = 0.0031063769
  estimated relative force accuracy = 9.3547618e-06
  using double precision FFTW3
  3d grid and FFT values/proc = 3822 576
Last active /omp style is kspace_style pppm/tip4p/omp
Total wall time: 0:06:45
