LAMMPS (30 Jul 2021)
Processor partition = 1
  using 2 OpenMP thread(s) per MPI task
using multi-threaded neighbor list subroutines
variable        pid world 0 1
variable        phase world IceIh Liquid

shell cd ${phase}
shell cd Liquid
include Restart.lmp
echo both
log log.lammps
#include		in.partitions
include		in.temp
variable        temperature equal 262.00
variable	tempDamp equal 100.0
include		in.pressure
variable        pressure equal 729.0
variable        pressureDamp equal 1000.0 # This is 1 ps
include		in.seed
variable        seed equal 745823

units		real
atom_style	full
read_restart	restart.lmp.${pid}
read_restart	restart.lmp.1
Reading restart file ...
  restart file = 30 Jul 2021, LAMMPS = 30 Jul 2021
  restoring atom style full from restart
  orthogonal box = (0.074869925 1.1797182 0.091341134) to (18.132702 22.449460 22.121855)
  2 by 4 by 4 MPI processor grid
  restoring pair style lj/cut/tip4p/long/omp from restart
  restoring bond style harmonic/omp from restart
  restoring angle style harmonic/omp from restart
  864 atoms
  576 bonds
  288 angles
Finding 1-2 1-3 1-4 neighbors ...
  special bond factors lj:    0        0        0       
  special bond factors coul:  0        0        0       
     2 = max # of 1-2 neighbors
     1 = max # of 1-3 neighbors
     1 = max # of 1-4 neighbors
     2 = max # of special neighbors
  special bonds CPU = 0.002 seconds
  read_restart CPU = 0.007 seconds
include 	in.setup
variable	out_freq equal 1000
variable	out_freq2 equal 10000
variable	out_freq3 equal 1000

timestep	2.0

neigh_modify    delay 7 every 1

include		in.tip4p
# This is TIP4P/Ice

# create groups ###
group ox type 2
288 atoms in group ox
group hy type 1
576 atoms in group hy

# set charges - beside manually ###
set group ox charge -1.1794
Setting atom values ...
  288 settings made for charge
set group hy charge 0.5897
Setting atom values ...
  576 settings made for charge

# ### TIP3P Potential Parameters ###
pair_style lj/cut/tip4p/long/omp 2 1 1 1 0.1577 8.5
pair_coeff 1 1*2 0.000 0.000
pair_coeff 2 2 0.21084 3.1668
bond_style  harmonic
bond_coeff  1 450 0.9572
angle_style harmonic
angle_coeff 1 55 104.52
kspace_style pppm/tip4p/omp 1.0e-5
pair_modify tail yes

thermo          ${out_freq}
thermo          1000
thermo_style    custom step temp pe etotal epair emol press lx ly lz vol pxx pyy pzz pxy pxz pyz enthalpy

restart 	${out_freq3} restart.lmp.${pid} restart2.lmp.${pid}
restart 	1000 restart.lmp.${pid} restart2.lmp.${pid}
restart 	1000 restart.lmp.1 restart2.lmp.${pid}
restart 	1000 restart.lmp.1 restart2.lmp.1


include         in.dump
dump            myDump all atom ${out_freq2} dump.water.${pid}
dump            myDump all atom 10000 dump.water.${pid}
dump            myDump all atom 10000 dump.water.1
dump            myDump2 all dcd ${out_freq2} dump.dcd
dump            myDump2 all dcd 10000 dump.dcd
dump_modify     myDump append yes
dump_modify     myDump2 append yes


variable natoms 	equal  "count(all)"                        # NUMBER ATOMS
variable H      	equal  "enthalpy/v_natoms"                 # ENTHALPY-per-atom
variable Vol      	equal  "vol/v_natoms"                 # volume-per-atom
fix AVG all 		ave/time ${out_freq} 1 ${out_freq} v_Vol v_H file vol_enthalpy.dat
fix AVG all 		ave/time 1000 1 ${out_freq} v_Vol v_H file vol_enthalpy.dat
fix AVG all 		ave/time 1000 1 1000 v_Vol v_H file vol_enthalpy.dat


timer           timeout 23:50:00 every 1000
New timer settings: style=normal  mode=nosync  timeout=23:50:00

fix 		1 all shake 1e-6 200 0 b 1 a 1
Finding SHAKE clusters ...
       0 = # of size 2 clusters
       0 = # of size 3 clusters
       0 = # of size 4 clusters
     288 = # of frozen angles
  find clusters CPU = 0.000 seconds
fix             2 all nph iso ${pressure} ${pressure} ${pressureDamp}
fix             2 all nph iso 729 ${pressure} ${pressureDamp}
fix             2 all nph iso 729 729 ${pressureDamp}
fix             2 all nph iso 729 729 1000
fix             3 all temp/csvr ${temperature} ${temperature} ${tempDamp} ${seed}
fix             3 all temp/csvr 262 ${temperature} ${tempDamp} ${seed}
fix             3 all temp/csvr 262 262 ${tempDamp} ${seed}
fix             3 all temp/csvr 262 262 100 ${seed}
fix             3 all temp/csvr 262 262 100 745823

run             250000
PPPM initialization ...
  extracting TIP4P info from pair style
  using 12-bit tables for long-range coulomb (../kspace.cpp:340)
  G vector (1/distance) = 0.37213493
  grid = 24 25 25
  stencil order = 5
  estimated absolute RMS force accuracy = 0.0032314019
  estimated relative force accuracy = 9.731271e-06
  using double precision FFTW3
  3d grid and FFT values/proc = 4116 672
Last active /omp style is kspace_style pppm/tip4p/omp
Neighbor list info ...
  update every 1 steps, delay 7 steps, check yes
  max neighbors/atom: 2000, page size: 100000
  master list distance cutoff = 10.8154
  ghost atom cutoff = 10.8154
  binsize = 5.4077, bins = 4 4 5
  1 neighbor lists, perpetual/occasional/extra = 1 0 0
  (1) pair lj/cut/tip4p/long/omp, perpetual
      attributes: half, newton on, omp
      pair build: half/bin/newton/omp
      stencil: half/bin/3d
      bin: standard
Setting up Verlet run ...
  Unit style    : real
  Current step  : 1500000
  Time step     : 2
  Walltime left : 23:49:59.95
Per MPI rank memory allocation (min/avg/max) = 10.19 | 10.20 | 10.22 Mbytes
Step Temp PotEng TotEng E_pair E_mol Press Lx Ly Lz Volume Pxx Pyy Pzz Pxy Pxz Pyz Enthalpy 
 1500000    268.59461   -3827.4451   -3367.0831   -3827.4451            0    1676.7405    18.057833    21.269741    22.030514    8461.5993    2485.6547    2101.4961    443.07092    1312.5263   -509.09622   -329.09293   -3160.1671 
 1501000    261.77542   -3855.7984   -3407.1243   -3855.7984            0     292.7491    18.050422    21.261012    22.021472    8451.1855     147.4784    580.48868    150.28024    155.58988    129.21941   -470.12321   -3371.0424 
 1502000    267.71234   -3853.9149   -3395.0651   -3853.9149            0    717.85549    17.995431    21.196241    21.954384    8374.1815    212.80361    1292.4037    648.35919   -554.32402    337.82937   -674.76367   -3307.3942 
 1503000    252.84401   -3858.1579    -3424.792   -3858.1579            0   -1537.1224    18.192576    21.428451      22.1949    8652.4313    -1286.666   -2111.4963   -1213.2049   -867.12593    605.97026    946.90202   -3618.7566 
 1504000    248.01397   -3900.7976   -3475.7102   -3900.7976            0   -1686.6466    18.102806    21.322714     22.08538    8524.9776    -2023.627    -1872.087    -1164.226    -732.3863     87.22082   -476.25605   -3685.4077 
 1505000    260.10562    -3858.123   -3412.3109    -3858.123            0    196.68663    18.132296    21.357449    22.121358     8566.708    1138.6549   -45.602807   -502.99224    1591.5384    50.364752    1374.9144   -3387.7375 
 1506000    282.59152   -3888.3963   -3404.0441   -3888.3963            0   -393.53853    18.042868    21.252115    22.012257      8440.58     890.7724   -2162.5384    91.150373     19.53075    -452.8455   -136.75713   -3452.4876 
 1507000    267.47832   -3879.9889   -3421.5402   -3879.9889            0    1345.6523    17.969903    21.166172     21.92324    8338.5932    1709.8423    774.40914    1552.7055   -1765.4984   -420.74755   -425.33554   -3257.8956 
 1508000    262.26928   -3883.0281   -3433.5075   -3883.0281            0     876.1759    17.944106    21.135786    21.891767    8302.7323     2650.098   -171.48068    149.91041   -1452.7884    5.9123109   -1251.3733   -3327.4141 
 1509000    271.67857   -3865.6606   -3400.0128   -3865.6606            0    784.73936    17.997151    21.198267    21.956482    8376.5828    275.86412    1230.1445    848.20945   -758.24894    17.531938   -334.34248    -3304.146 
 1510000    255.71067   -3875.2244    -3436.945   -3875.2244            0     185.5197     18.01841    21.223307    21.982418    8406.3023    304.44354    1002.6093   -750.49378    1099.0347   -337.41719   -71.888975   -3414.2008 
 1511000    269.86868   -3905.4229   -3442.8772   -3905.4229            0     1658.368    18.003006    21.205163    21.963625    8384.7608    2533.8563    669.80481    1771.4428    700.67468   -478.25706   0.25691423   -3240.0868 
 1512000    268.99638   -3875.5469   -3414.4963   -3875.5469            0    209.35409    18.110355    21.331606    22.094591    8535.6478    252.67495   -347.10218     722.4895   -379.34118    607.65273    145.46996   -3388.4352 
 1513000    272.32415   -3878.1826   -3411.4283   -3878.1826            0    2148.3898    17.949506    21.142148    21.898356    8310.2316    1370.6945    2041.1111    3033.3637   -68.836776     -501.039   -1884.0721   -3151.0516 
 1514000    252.03686   -3890.9347   -3458.9521   -3890.9347            0    1116.1189    17.987207    21.186554     21.94435     8362.705   -635.76364    1658.8655    2325.2547   -1533.7599   -1704.8886    44.416628   -3322.8286 
 1515000    270.38038   -3902.2137    -3438.791   -3902.2137            0    -79.70536    18.049278    21.259665    22.020076    8449.5787     499.7066   -517.47311   -221.34958    351.29955   -308.04888   -805.79672    -3448.613 
 1516000    268.44206   -3876.6893   -3416.5888   -3876.6893            0    306.20519     18.08657    21.303591    22.065573    8502.0614    1529.6929    560.07515   -1171.1525   -675.90606   -897.14262   -320.70311   -3378.6212 
 1517000    259.35678   -3876.8916   -3432.3629   -3876.8916            0    1304.7872    17.953404    21.146739    21.903111    8315.6464    651.34781    2099.4457     1163.568    124.36993   -1047.3606   -969.45316   -3274.1246 
 1518000    253.09468   -3903.1633   -3469.3676   -3903.1633            0    213.86838    18.072428    21.286933     22.04832    8482.1334    8.9836172    518.97714    113.64438    141.35751   -1151.1618    868.33127   -3442.9114 
 1519000    261.68053   -3868.8162   -3420.3047   -3868.8162            0    1437.2386    18.051237    21.261973    22.022467    8452.3306    1261.7091   -143.13129    3193.1381   -1011.8991    460.99215    315.61629   -3243.1383 
 1520000     264.6072   -3907.8716   -3454.3439   -3907.8716            0    180.35751    17.965362    21.160823    21.917699    8332.2728    525.00354   -1535.7276    1551.7966    286.42903    445.53568    494.69343   -3432.4273 
 1521000    253.34438   -3881.6859   -3447.4623   -3881.6859            0    564.10963    18.099209    21.318478    22.080993    8519.8982    838.26596     128.3253    725.73761   -1655.8428   -924.79957    1471.8402   -3377.3694 
 1522000    271.13267   -3875.8684   -3411.1563   -3875.8684            0    914.14915    17.870802    21.049444    21.802336    8201.3944    707.85419    775.69895    1258.8943   -920.54029   -1224.8235    262.35675   -3301.8159 
 1523000    253.04098   -3874.1452   -3440.4416   -3874.1452            0    228.34709    17.892826    21.075386    21.829206    8231.7548    746.75771   -477.97615     416.2597   -885.28642   -254.63751   -145.46702   -3413.0282 
 1524000    272.26947   -3807.8097   -3341.1492   -3807.8097            0    1799.7374    17.892943    21.075523    21.829348    8231.9156     2212.542    3248.3892   -61.718912   -339.87383   -366.29075    585.10011   -3125.0834 
 1525000     268.1147   -3875.5469   -3416.0075   -3875.5469            0    888.10158     17.88254     21.06327    21.816657    8217.5657     2260.037     25.05796    379.20982   -165.55969   -416.35098    923.86516   -3309.5731 
 1526000    258.41557   -3808.3714    -3365.456   -3808.3714            0    2026.0741    18.001665    21.203584     21.96199    8382.8875    2266.1266    2242.7473    1569.3483   -924.76564    1389.5006   -299.31381   -3117.7566 
 1527000    263.93398   -3816.5936   -3364.2198   -3816.5936            0    1195.3545    17.999044    21.200497    21.958792    8379.2264    1374.5142    1432.4819    779.06747    449.33381   -460.79395    145.34512   -3218.1445 
 1528000    258.70886   -3857.5085   -3414.0904   -3857.5085            0    1783.7765    17.962108    21.156991     21.91373    8327.7469    2569.5405    2259.5961    522.19304   -692.39313    971.01362    1858.6848   -3197.4478 
 1529000    258.95031   -3895.6368   -3451.8049   -3895.6368            0     2388.064    17.953356    21.146682    21.903052    8315.5793    1349.5613      2988.65    2825.9808   -1082.0906   -527.23281    76.696377   -3162.1943 
 1530000    266.55826   -3843.8592   -3386.9875   -3843.8592            0    485.86786    18.033066     21.24057    22.000299    8426.8317    2615.3382   -148.13804   -1009.5965    752.42048   -861.14316    1200.8407   -3327.2759 
 1531000    269.59043   -3826.2635   -3364.1948   -3826.2635            0     760.6973    17.994012    21.194569    21.952652    8372.1996    951.68952    1755.4964   -425.09402   -178.11281    1327.4313   -811.71978   -3271.3137 
 1532000    253.68374   -3837.0376   -3402.2323   -3837.0376            0    873.00435    17.936565    21.126904    21.882567    8292.2697    1684.5379    405.49803    528.97717   -274.33555   -268.99825    1159.1856   -3296.6562 
 1533000    262.49664   -3853.2489   -3403.3387   -3853.2489            0    72.968792    18.033208    21.240737    22.000472    8427.0308   -692.14826    792.40176    118.65288    1299.9005    964.31737    714.84167   -3394.3708 
 1534000    253.79113   -3887.4942   -3452.5049   -3887.4942            0    1430.1674    17.912479    21.098534    21.853182    8258.9082    2283.7174    15.211449    1991.5732     1230.202   -760.60905   -157.39631   -3280.2445 
 1535000    247.97041   -3896.8266   -3471.8138   -3896.8266            0    636.04475    17.991715    21.191864     21.94985    8368.9946   -509.56098    2018.6989    398.99634   -834.84656   -404.83143    184.81995   -3394.1825 
 1536000    256.25459   -3883.7319   -3444.5203   -3883.7319            0    491.10588    17.937542    21.128055    21.883759    8293.6249   -706.41468    1383.0352     796.6971    351.30552    -962.3365    1166.8185   -3385.1191 
 1537000    261.15156   -3869.5684   -3421.9635   -3869.5684            0    435.46709    17.948127    21.140523    21.896673    8308.3157    361.19498    1640.0983   -694.89204   -524.33372    1053.7146    197.84293   -3369.1987 
 1538000    256.65533   -3868.3689   -3428.4704   -3868.3689            0    1230.3098    17.944692    21.136477    21.892483    8303.5467     1409.228   -229.44027    2511.1417   -1292.4755    -427.3951   -121.53595   -3279.4815 
 1539000     271.4974   -3902.1223   -3436.7851   -3902.1223            0    1748.6572    17.907013    21.092096    21.846514    8251.3503    446.59907    2999.6891    1799.6835    81.151796   -254.95934    1004.7941   -3226.3561 
 1540000    263.96065   -3884.1408   -3431.7213   -3884.1408            0    667.60671    17.877653    21.057514    21.810695    8210.8309     284.8722    1004.1588    713.78917   -101.40048   -416.43312   -145.52434   -3351.7777 
 1541000    264.48151   -3892.2621   -3438.9499   -3892.2621            0    1654.9739    17.848139     21.02275    21.774688     8170.232    2441.4206    2170.0686    353.43259    870.30667    310.05054    451.65066   -3241.7524 
 1542000    260.12134   -3896.8367   -3450.9976   -3896.8367            0    1624.1853    17.898109    21.081608    21.835651    8239.0479    3195.2268    733.99596    943.33327   -1038.0955   -332.91296   -24.170376   -3255.8386 
 1543000    275.03807   -3882.1738    -3410.768   -3882.1738            0    374.02951    17.919193    21.106443    21.861374    8268.1993    465.21288   -536.50489    1193.3805    749.20876   -624.60254    -19.52703   -3365.6663 
 1544000    264.43134    -3867.932   -3414.7057    -3867.932            0    1308.7876    17.996816    21.197872    21.956073    8376.1144    1254.4402     1122.198    1549.7245    161.67914   -204.10365    394.21016   -3254.8281 
 1545000    255.18471   -3932.6603   -3495.2824   -3932.6603            0      429.823    18.052624    21.263607     22.02416    8454.2799    1330.3412    848.81277     -889.685   -244.44161   -22.764077    739.34108   -3442.2866 
 1546000    270.98636   -3895.4737   -3431.0123   -3895.4737            0   -1108.1133    18.190807    21.426367    22.192741    8649.9073   -1404.5165    409.66592   -2329.4894    359.12997   -824.16535    403.13678   -3570.8008 
 1547000    257.68133   -3882.2207   -3440.5637   -3882.2207            0    1163.6686    18.000237    21.201901    21.960247    8380.8917    934.62739    1647.0547    909.32367    1050.5703    791.19599    1569.8761   -3298.3324 
 1548000    261.49587   -3873.8914   -3425.6964   -3873.8914            0    772.90629    18.090597    21.308333    22.070486    8507.7409    893.59232    263.54596    1161.5806   -259.00704    1087.7869   -308.63207   -3329.7968 
 1549000    270.93811   -3879.6082   -3415.2295   -3879.6082            0    258.03009    17.973924    21.170909    21.928146    8344.1927    1580.5633    -1.483395   -804.98966    367.57741   -799.42556   -492.10674   -3383.8295 
 1550000     272.1849   -3897.7796    -3431.264   -3897.7796            0    902.85271    18.072362    21.286855    22.048239    8482.0403    1304.5299    851.80225    552.22601    -740.0776    642.50756    943.04771   -3319.5795 
 1551000    264.20407    -3859.655   -3406.8183    -3859.655            0   -329.72531    18.123104    21.346623    22.110145    8553.6869    343.10261   -826.01311   -506.26544   -1661.5045    1036.1547   -987.80466   -3447.9504 
 1552000    271.25355   -3909.9664   -3445.0471   -3909.9664            0    195.93883    18.155909    21.385262    22.150166    8600.2198    6.5927122    945.36783   -364.14404   -1059.7377    955.09956     323.5329   -3420.4714 
 1553000    261.42284   -3904.0709   -3456.0011   -3904.0709            0    1694.1456    17.963123    21.158186    21.914968    8329.1582    2454.7856    1264.1801    1363.4711     453.0671    308.86323    133.09389   -3250.2095 
 1554000    257.07231   -3845.9004   -3405.2873   -3845.9004            0    202.74517    18.024463    21.230437    21.989803    8414.7773    204.12746     168.0996    236.00844    667.97435   -304.00198   -390.63333   -3380.4062 
 1555000    253.31136   -3857.3402   -3423.1732   -3857.3402            0    727.24219    17.991078    21.191114    21.949073    8368.1056   -202.77775    630.89495    1753.6094   -86.583113    -287.0651   -96.560178   -3334.4204 
 1556000    260.87417   -3851.9136   -3404.7842   -3851.9136            0    538.54333    17.975278    21.172503    21.929797    8346.0779    446.37194    195.32272    973.93533    66.438317    585.56808    101.93417   -3339.2333 
 1557000     268.8158   -3889.7466   -3429.0055   -3889.7466            0    434.55926    18.045109    21.254755    22.014991    8443.7259   -358.98934    555.35568    1107.3115    507.66755   -94.043556    298.18283   -3375.4925 
 1558000    265.89075    -3875.393   -3419.6653    -3875.393            0    492.18699    18.006741    21.209562    21.968182    8389.9804   -564.67684    513.07336    1528.1645    256.86303    759.41433    411.56498   -3359.4417 
 1559000    279.35287   -3892.9798   -3414.1785   -3892.9798            0    1345.5717    17.902971    21.087336    21.841583    8245.7648     1419.076    2012.4882    605.15095   -530.82066    612.50605    19.495096   -3252.3654 
 1560000    262.48043   -3944.3768   -3494.4944   -3944.3768            0    188.28051    18.066502    21.279953     22.04109    8473.7923    924.69429   -1335.6563     975.8035     -1086.45    761.59207   -692.69556   -3471.2264 
 1561000    249.93115    -3894.655   -3466.2816    -3894.655            0     425.1401    18.032399    21.239785    21.999485     8425.897   -704.98115    1816.8141    163.58737   -433.25023    158.65881    4.3080244   -3414.0391 
 1562000    270.86799   -3885.9621   -3421.7036   -3885.9621            0    1526.6607    17.961369     21.15612    21.912828    8326.7183    2450.1929    2005.7041    124.08521   -555.56638    469.67058    -1365.897   -3236.3111 
 1563000    264.10298   -3843.3602   -3390.6967   -3843.3602            0    773.75996    18.100309    21.319773    22.082335    8521.4515    654.94655    1354.1671    312.16628    179.15476    1139.8972    24.597543   -3294.5365 
 1564000    263.43743   -3887.3378    -3435.815   -3887.3378            0     969.1713    18.079831    21.295652    22.057351    8492.5608    1489.9387     1339.115    78.460146    149.25992   -350.48992    6.6349282    -3315.778 
 1565000    263.03275   -3907.3115   -3456.4823   -3907.3115            0   -453.56752    18.023069    21.228794    21.988102    8412.8242   -350.11528   -214.29856   -796.28871   -153.96609   -667.03748    848.82454   -3512.1316 
 1566000    273.42545   -3875.8595   -3407.2176   -3875.8595            0   -65.136629     18.10939    21.330469    22.093414    8534.2834    1805.9585    226.43996   -2227.8083   -610.42512    178.60797   -10.712286   -3415.3247 
 1567000    259.84722     -3924.27   -3478.9008     -3924.27            0     544.7981    17.938508    21.129193    21.884938    8294.9648    1828.3809   -1846.9729    1652.9863    31.551089   -1500.3443   -42.402373   -3412.9946 
 1568000    260.61945   -3906.8377   -3460.1449   -3906.8377            0    1042.5418     18.01004    21.213448    21.972206    8394.5921    1697.2014    797.98813    632.43586   -15.302013    357.41464    122.38966   -3332.5101 
 1569000    248.52829   -3906.6809   -3480.7119   -3906.6809            0    485.07489    18.018134    21.222982    21.982082    8405.9161    511.28095    683.80831    260.13541   -182.15782   -770.25317   -899.19858   -3421.2458 
 1570000    259.47165   -3868.3491   -3423.6235   -3868.3491            0    101.00806    18.034147    21.241843    22.001617    8428.3473    891.69554    85.633466   -674.30482   -487.84897     238.5557   -435.53576   -3411.2078 
 1571000    267.65062   -3883.3016   -3424.5576   -3883.3016            0    804.97678    17.864924     21.04252    21.795165    8193.3041    1754.3381   -943.87894    1604.4712   -827.89407   -216.74237   -204.63921   -3328.3701 
 1572000    274.39484   -3821.5674    -3351.264   -3821.5674            0    284.42006    18.111028    21.332399    22.095412    8536.5993    783.33052    90.100768   -20.171122    567.81414    315.77418   -1057.1643   -3315.8544 
 1573000    249.26701   -3867.2653   -3440.0302   -3867.2653            0   -4.8176463    18.052029    21.262906    22.023434    8453.4439    726.58678   -608.17974   -132.85998    224.30435    1173.7083    1215.2401   -3440.6241 
 1574000    260.86602   -3887.9864    -3440.871   -3887.9864            0    1977.4839    17.893812    21.076547    21.830409     8233.115    1676.0861    2810.0097    1446.3559   -181.72856    509.19989   -154.38668   -3203.4315 
 1575000     271.9429   -3909.8831   -3443.7823   -3909.8831            0    665.19142     18.10639    21.326936    22.089753    8530.0425    1623.2453   -1171.2239    1543.5529    -1307.248    349.70457    931.24417   -3361.0312 
 1576000    241.83279   -3852.5494   -3438.0562   -3852.5494            0   -831.97666    18.040299     21.24909    22.009123    8436.9757    560.93896   -1702.5265   -1354.3424   -164.76679   -591.36353   -425.59301   -3540.4265 
 1577000    247.23197   -3867.8632   -3444.1161   -3867.8632            0    2619.4323    17.977285    21.174867    21.932246    8348.8737    3696.5373    1267.0609    2894.6987    575.47921     157.9328    312.76448   -3125.1746 
 1578000    274.42447   -3852.7232    -3382.369   -3852.7232            0    1414.0587    17.943449    21.135012    21.890965    8301.8203    290.53978    2288.0357    1663.6005    1278.8187   -460.59406    318.71412   -3211.1639 
 1579000    259.60067   -3872.9739   -3428.0273   -3872.9739            0    929.00497    17.946857    21.139027    21.895124    8306.5523    579.25448    487.89918    1719.8613   -122.69859    567.58455   -361.88898   -3315.4852 
 1580000    276.01086   -3855.4807   -3382.4075   -3855.4807            0    465.52594    17.959824    21.154301    21.910944    8324.5705    985.95024    1027.4393   -616.81168    660.76483   -1799.3293   -1244.9153   -3325.8902 
 1581000    264.24741   -3884.4098   -3431.4988   -3884.4098            0    534.34133    18.007921    21.210952    21.969621    8391.6292    242.87365    1251.8406    108.30978    361.73724    29.663506   -971.23451   -3366.1043 
 1582000    258.37211    -3900.388    -3457.547    -3900.388            0   -815.26625     18.01388    21.217971    21.976892    8399.9634   -1074.5801   -371.42357   -999.79511   -528.68806   -656.08735    73.430119   -3557.4211 
 1583000    248.51204    -3892.174   -3466.2329    -3892.174            0    496.69024    17.996979    21.198064    21.956272    8376.3423    874.65515    95.459725    519.95585   -706.64931    445.61521   -957.17622   -3405.5571 
 1584000    278.42451   -3876.2301     -3399.02   -3876.2301            0   -300.71824    18.045251    21.254923    22.015165    8443.9256     260.9875   -590.25379   -572.88842    376.10081   -278.02648    171.67719   -3436.0523 
 1585000    257.62274    -3878.218   -3436.6614    -3878.218            0    613.37783    17.991818    21.191985    21.949976    8369.1379   -997.30155    1834.7849    1002.6502    1141.7541   -246.18379    124.75059   -3361.7954 
 1586000    262.46901   -3886.5773   -3436.7144   -3886.5773            0   -39.367965    17.946949    21.139136    21.895236    8306.6805   -925.27901   -888.92926    1696.1044    1690.8375   -169.32742    825.89285   -3441.4836 
 1587000    267.20393   -3903.3802   -3445.4018   -3903.3802            0    2837.0096    18.014566    21.218779    21.977728    8400.9227     3045.116    3217.0074    2248.9053    -21.34467    194.54722   -488.30357   -3097.8147 
 1588000    264.33408   -3847.5777   -3394.5181   -3847.5777            0    2250.4101    18.018027    21.222856    21.981951    8405.7662    1888.3579    1024.5699    3838.3024   -474.58211   -437.32428    1559.9952   -3118.6415 
 1589000    251.83511    -3923.341   -3491.7043    -3923.341            0   -618.42479    18.203384    21.441182    22.208086    8667.8624   -1510.4609    207.05463   -551.86813    893.57573   -945.52741   -319.41866   -3569.8805 
 1590000    253.66538   -3879.0519   -3444.2782   -3879.0519            0    7.3022058    18.101426    21.321089    22.083698    8523.0295    1689.0681   -1340.1897   -326.97171   -341.59344    583.79706   -167.18637   -3443.3705 
 1591000    254.45124   -3883.9939   -3447.8732   -3883.9939            0    870.60291     18.22004    21.460801    22.228406    8691.6769    1438.0047    789.70312    384.10089    47.084622   -180.71557   -140.88889   -3337.5162 
 1592000     271.6105   -3878.7451    -3413.214   -3878.7451            0    1584.7926    18.213025    21.452537    22.219847    8681.6407    538.05286    960.20341    3256.1216    424.43093    -560.5217   -964.30745    -3212.559 
 1593000    257.81443   -3905.6868   -3463.8017   -3905.6868            0   -366.61433    18.225562    21.467305    22.235143    8699.5822   -2584.5122   -290.46653    1775.1357   -1141.6416    241.84926   -369.40579   -3510.3157 
 1594000    267.87579   -3901.2891   -3442.1592   -3901.2891            0    381.07783    18.131248    21.356216    22.120081    8565.2236   -566.14211    404.46308    1304.9125   -170.94623    131.13736   -837.51824   -3394.5568 
 1595000    251.72101   -3897.7919   -3466.3508   -3897.7919            0   -434.60484    18.171476    21.403598    22.169158    8622.3606   -1710.7359   -1030.7879    1437.7092    78.602946    92.597404   -397.25284   -3521.0016 
 1596000    269.33374   -3893.7382   -3432.1093   -3893.7382            0    184.85235    18.209383    21.448248    22.215405    8676.4344    250.61862   -89.082807    393.02122   -372.13246    562.69716     241.2811   -3408.7187 
 1597000    260.87267   -3902.9341   -3455.8073   -3902.9341            0    1248.2038    18.224252    21.465762    22.233545    8697.7062    2800.7465    1332.0365   -388.17163    688.44214   -502.85266    644.38315   -3297.4763 
 1598000     270.8244   -3960.0819   -3495.8981   -3960.0819            0   -1049.3064    18.216609    21.456759     22.22422    8686.7675     82.89236   -1799.5191   -1431.2925   -210.22492   -758.51342   -23.526233   -3628.8322 
 1599000    263.15489   -3874.1454    -3423.107   -3874.1454            0    1381.2316    18.148321    21.376325    22.140909    8589.4414    1731.6068    1600.4716    811.61646    -153.2457    110.44348   -986.76503   -3250.0826 
 1600000    256.41239   -3874.1184   -3434.6363   -3874.1184            0    1878.7629    18.100782    21.320331    22.082912    8522.1198    1068.2287    1187.0514    3381.0086   -6.4106195    757.93515   -185.22044   -3201.1317 
 1601000    265.44346   -3904.3643   -3449.4032   -3904.3643            0    1934.2667    18.078415    21.293985    22.055624    8490.5663    1669.2159    1116.0857    3017.4984   -52.118243    1118.6197    721.99387   -3209.8904 
 1602000    280.27793   -3879.4777   -3399.0909   -3879.4777            0    294.89631    18.089886    21.307496    22.069619    8506.7386   -130.60145    422.64407    592.64632    977.93793    92.005826    819.28458   -3362.5055 
 1603000    261.53848   -3855.7006   -3407.4326   -3855.7006            0     1235.774    17.971661    21.168243    21.925385     8341.041    2580.7726    209.59666    916.95284   -952.98693    395.43171    18.007774   -3257.1062 
 1604000    255.50324   -3862.7161   -3424.7923   -3862.7161            0    125.75684    18.102324    21.322147    22.084793    8524.2973    1699.6308   -852.13959   -470.22071    278.12641   -88.493265   -362.63185   -3409.1584 
 1605000    263.95808   -3866.6897   -3414.2746   -3866.6897            0    669.84226    18.020819    21.226145    21.985357    8409.6742    778.06533    2681.2803   -1449.8189   -426.17325   -358.36044    653.39556   -3332.1208 
 1606000     242.4307   -3883.4435   -3467.9256   -3883.4435            0     903.9363    18.066024     21.27939    22.040508    8473.1202    275.32355    193.52675    2242.9586    -702.3587    707.20514   -304.43222   -3356.2246 
 1607000    251.82515    -3884.888   -3453.2683    -3884.888            0    1259.3972    18.020813    21.226137    21.985349     8409.665    1726.4303    2091.1564   -39.395076    721.54182    116.27187     935.1626   -3298.8079 
 1608000    258.09275   -3844.1314   -3401.7693   -3844.1314            0   -493.68613    18.071818    21.286215    22.047576    8481.2746    538.18643   -1630.6609   -388.58389   -172.41385   -172.47587    123.51216   -3462.8336 
 1609000    268.37189   -3878.7842   -3418.8039   -3878.7842            0    1111.7409    17.973193    21.170048    21.927254    8343.1746   -87.487622    2186.5711    1236.1393    -1083.627    1000.4578   -94.009546    -3283.531 
 1610000    254.31677   -3849.4791   -3413.5888   -3849.4791            0   -600.69715    17.981631    21.179986    21.937548    8354.9305   -3096.6925    826.75904    467.84204    -642.0327    136.80727   -518.30087   -3486.7827 
 1611000    261.91474   -3857.5135   -3408.6006   -3857.5135            0    272.85526    18.020597    21.225883    21.985086     8409.363    509.97636    838.89149   -530.30205    638.79744   -351.47541   -430.96467   -3375.1371 
 1612000    271.00464   -3890.5173   -3426.0246   -3890.5173            0    1359.8747    18.023024    21.228741    21.988047    8412.7609    799.78537    2580.7173    699.12154    1198.4709    1463.4121    64.973256   -3259.1795 
 1613000    259.55841   -3889.2869   -3444.4126   -3889.2869            0     68.89297    17.954895    21.148495     21.90493    8317.7181    1268.6861   -289.00559   -773.00159    107.02408    286.88246   -868.01964   -3436.0555 
 1614000    262.57401   -3847.8205   -3397.7776   -3847.8205            0     984.2509    18.076614    21.291864    22.053427     8488.029    603.13198    589.31705    1760.3037    314.59278    -187.4952    18.305429    -3275.938 
 1615000    265.71354   -3859.4224   -3403.9985   -3859.4224            0    522.86217    18.008217    21.211301    21.969983    8392.0441     1548.847    1038.6199   -1018.8804    147.90689   -960.43083   -1578.3349   -3340.0057 
 1616000    255.79075   -3884.0933   -3445.6768   -3884.0933            0    1937.9425    17.925159     21.11347    21.868653    8276.4609    798.35394    1602.3843    3413.0891    133.50522    -1373.728   -285.77176   -3211.7599 
 1617000    246.70518   -3901.6295   -3478.7853   -3901.6295            0    1021.6157    17.989322    21.189045    21.946931    8365.6556    1121.7658    472.34658    1470.7347   -484.35577   -45.496975    26.118257   -3354.1435 
 1618000    262.90667   -3922.4301   -3471.8171   -3922.4301            0     1268.324    17.988707    21.188321    21.946181    8364.7977    726.55982    745.42009     2332.992   -9.4283124    101.57488    558.95753   -3317.0917 
 1619000    256.46845   -3861.4412   -3421.8631   -3861.4412            0    2467.2834    17.990783    21.190766    21.948713    8367.6941    2971.6501    2572.3454    1857.8548    693.20381    763.07491    -1272.929     -3120.77 
 1620000    265.91114   -3877.6403   -3421.8777   -3877.6403            0    840.41103    18.015054    21.219354    21.978324     8401.606    1002.3653    1498.4014    20.466386    381.38343   -12.800733   -237.44496   -3318.9032 
 1621000    255.07959   -3876.9209   -3439.7232   -3876.9209            0   -683.88633    17.985592    21.184652     21.94238    8360.4531   -848.47279    -617.1512     -586.035   -54.533063   -83.567782    377.26434   -3523.1086 
 1622000    273.97359   -3862.2237   -3392.6424   -3862.2237            0   -267.27888     18.10618    21.326688    22.089497    8529.7454    111.98482   -834.02626   -79.795195   -185.93757    392.70358    1533.8606   -3425.8912 
 1623000     250.8201   -3921.4158   -3491.5187   -3921.4158            0   -597.69886    18.069032    21.282933    22.044177    8477.3528     833.3732   -1145.8131   -1480.6567    -245.2303    321.66127   -256.56504   -3565.4143 
 1624000    263.58443   -3866.0502   -3414.2755   -3866.0502            0    263.51775    18.069505     21.28349    22.044754    8478.0187    559.07433    206.57173    24.907178    440.47098   -861.35033   -175.56891   -3381.6933 
 1625000    285.49674   -3890.2134   -3400.8818   -3890.2134            0    385.58115    18.099957    21.319359    22.081905    8520.9539   -311.49795    1253.4206    214.82084    568.79321     350.5383   -1382.1169   -3352.9659 
 1626000    274.24949   -3908.4023    -3438.348   -3908.4023            0    920.74591    18.090624    21.308366     22.07052    8507.7802    1110.2496    1098.5946    553.39348    817.95301    -453.3507    763.40195   -3324.1044 
 1627000    272.11744   -3895.0893   -3428.6894   -3895.0893            0    102.09053    18.041774    21.250826    22.010922    8439.0445    1525.1527   -117.84909    -1101.032    272.23969     864.2633    787.17589   -3416.1246 
 1628000    274.59178   -3901.2165   -3430.5756   -3901.2165            0    1465.3664    18.140763    21.367423    22.131689    8578.7152    859.59408     1337.728    2198.7772    268.00964    479.15768    178.73306    -3247.241 
 1629000    265.42705   -3854.2924   -3399.3595   -3854.2924            0     1091.035    18.066653     21.28013    22.041274    8474.0042    1119.2212    2225.1002    -71.21627    -968.9894   -34.129009   -719.39456   -3264.5243 
 1630000     262.0641   -3899.8007   -3450.6318   -3899.8007            0     435.1606      17.9928    21.193142    21.951174    8370.5087    1157.7509    1030.1947   -882.46374    1632.2487   -1318.5079    1789.6592   -3397.5094 
 1631000    255.73156   -3907.5203   -3469.2051   -3907.5203            0    1060.3504    18.048621    21.258892    22.019275    8448.6567    3498.3331    1088.0607   -1405.3426    -1165.234     2067.283    -924.1643    -3338.554 
 1632000    281.76233   -3886.7041   -3403.7731   -3886.7041            0    1460.5142    18.055396    21.266872    22.027541    8458.1751    1111.6482    2613.4325    656.46194    214.22183    1142.9993    73.699366   -3223.6131 
 1633000    257.47361   -3887.6006   -3446.2996   -3887.6006            0     681.4891    18.121494    21.344726     22.10818     8551.407     2627.043   -291.79924   -290.77642    596.39026    119.87016    1171.3689   -3361.3088 
 1634000    256.16669   -3887.4335   -3448.3725   -3887.4335            0    1466.9572    18.037118    21.245343    22.005242    8432.5135    520.51767    3285.8988    594.45514    805.69606   -1432.5009   -1770.0872   -3267.9668 
 1635000    253.69108   -3911.0255   -3476.2077   -3911.0255            0   -525.03175    18.024085    21.229992    21.989342    8414.2476   -1688.5439   -385.16923    498.61793   -348.69064   -814.85689   -1772.6178    -3540.636 
 1636000    252.87715   -3851.2427   -3417.8199   -3851.2427            0    2350.8707    18.074634    21.289531    22.051011      8485.24    1241.1071    3840.6886    1970.8164    -1621.667    957.97979   -204.91795   -3126.9031 
 1637000    252.13834   -3909.1259   -3476.9694   -3909.1259            0    910.26209    17.963303    21.158398    21.915188     8329.409    21.053042    709.92972    1999.8035    451.66217   -1027.7895    -1547.719   -3366.3945 
 1638000    254.94119   -3873.4551   -3436.4946   -3873.4551            0   -848.22418    18.069697    21.283716    22.044988    8478.2884    -1209.785   -794.68434    -540.2032    480.06079    315.21455   -177.16542   -3541.3751 
 1639000    243.58378   -3906.0847   -3488.5904   -3906.0847            0   -404.96024    17.953165    21.146457     21.90282    8315.3145   -87.626586   -235.12523   -892.12892   -442.62367     524.6098    395.98457   -3537.7001 
 1640000    260.45568   -3868.0582   -3421.6461   -3868.0582            0   -741.17552    18.021589    21.227051    21.986296    8410.7518   -620.46147   -954.99777   -648.06733    -802.9373    674.04016   -2.2398568   -3512.5603 
 1641000     235.9754   -3884.0549   -3479.6012   -3884.0549            0   -333.76044    17.971975    21.168613    21.925768     8341.478   -1180.1578   -591.85823    770.73474   -279.44613    169.67466    2285.0837   -3520.2038 
 1642000    249.20038   -3893.4344   -3466.3135   -3893.4344            0    851.22919    18.117482    21.340001    22.103286    8545.7287    993.83486   -144.22917    1704.0819   -178.77317    899.64566   -1272.3398   -3360.2242 
 1643000    263.43439   -3915.4011   -3463.8836   -3915.4011            0    1692.2657    18.071449     21.28578    22.047126    8480.7557     1644.292    3426.4607    6.0443126    389.50911    649.30035   -415.89391   -3254.5789 
 1644000    244.98353   -3865.3933      -3445.5   -3865.3933            0    561.51269    18.013066    21.217013    21.975899     8398.825    10.581741    1251.3324    422.62397    668.00987   -333.97133   -488.46662   -3376.7213 
 1645000    253.61241   -3819.1514   -3384.4684   -3819.1514            0    385.56171    17.966062    21.161648    21.918554    8333.2476   -442.95643    1536.7668    62.874726    -984.1202    296.84363   -1511.3521   -3337.6103 
 1646000    254.39103    -3873.963   -3437.9454    -3873.963            0    1220.9083    18.004728    21.207191    21.965726    8387.1665    2420.3129    1390.1506   -147.73866   -1653.2847    435.34872   -1340.8047   -3288.6061 
 1647000    252.31421    -3876.369    -3443.911    -3876.369            0    1766.7806    17.959557    21.153986    21.910618    8324.1993    1641.9231    2518.6397     1139.779   -695.23052   -389.63756   -1385.1592    -3229.424 
 1648000    249.25342   -3871.3099   -3444.0981   -3871.3099            0    60.823554    18.067661    21.281318    22.042504    8475.4227     436.0771    258.04456     -511.651    134.71631    472.19405   -1383.3776     -3436.58 
 1649000    259.46383   -3834.1258   -3389.4137   -3834.1258            0    1979.2351     18.09676    21.315593    22.078005    8516.4393    3116.2472    1644.9458    1176.5123   -612.11563   -480.01405   -426.19278   -3143.5857 
 1650000    257.03313   -3898.6211   -3458.0751   -3898.6211            0    1446.8626    18.047317    21.257355    22.017684    8446.8255    141.10649     2334.796    1864.6853    1241.3972   -61.246396   -245.25433   -3279.8386 
 1651000    263.30899   -3868.2741   -3416.9715   -3868.2741            0    1288.2654    17.980871    21.179091     21.93662    8353.8706    730.17635    1739.9948    1394.6251   -190.30173    11.829595   -342.47784   -3260.0187 
 1652000    261.28168   -3914.8817   -3467.0538   -3914.8817            0   -980.32472    18.084273    21.300884     22.06277    8498.8219   -1551.7862    -544.1137   -845.07429    899.11994    713.77462    618.33403   -3588.5618 
 1653000    264.06311   -3856.2102   -3403.6151   -3856.2102            0     1392.127    17.957627    21.151713    21.908263    8321.5157    1095.5358    2345.3856    735.45973    292.30444    788.04041   -546.95603   -3234.6654 
 1654000    263.56328   -3886.3225    -3434.584   -3886.3225            0    270.21135    18.003369    21.205591    21.964068    8385.2679     60.78468   -586.29237    1336.1417   -942.22548   -1360.6139    119.86281   -3401.5397 
 1655000    260.74916   -3907.2014   -3460.2863   -3907.2014            0    1008.9172    17.963649    21.158805    21.915609    8329.8896   -351.45713    2093.0306    1285.1783    298.97044   -555.70587   -590.32621   -3337.7201 
 1656000    241.34195   -3926.2351   -3512.5833   -3926.2351            0    1872.7067    17.999527    21.201065    21.959381    8379.9002    3191.6692    416.13335    2010.3175   -992.82129   -109.30273    442.60019   -3283.7156 
 1657000    247.53443   -3887.5979   -3463.3323   -3887.5979            0    685.12495    17.962179    21.157074    21.913816    8327.8451    1593.8516   -1577.4388     2038.962    1014.8065   -309.06329    16.902717   -3380.1218 
 1658000    261.96576   -3890.7556   -3441.7552   -3890.7556            0    2507.9968    17.870091    21.048606    21.801469    8200.4155    5098.4847    1760.7944    664.71141   -462.09822   -1020.6341    540.16597   -3141.8122 
 1659000    261.91461    -3879.869   -3430.9563    -3879.869            0    277.12108    17.953765    21.147164    21.903551    8316.1479   -433.33802   -140.97075     1405.672    420.88951   -526.88535    563.99194   -3397.3464 
 1660000    266.11738   -3852.3436   -3396.2275   -3852.3436            0    1407.1994    17.983806    21.182548    21.940201    8357.9621    2173.9101    877.64249    1170.0458   -1181.3926   -83.169788    95.137521   -3224.7007 
 1661000    271.76651   -3920.8137   -3455.0152   -3920.8137            0   -144.56341    17.867521    21.045579    21.798334     8196.878   -1843.4097    1891.7505   -482.03112    441.43925   -309.93869   -1393.7541   -3472.2967 
 1662000    242.18954   -3847.2246     -3432.12   -3847.2246            0   -642.91987    17.955971    21.149762    21.906242    8319.2133   -114.44138    563.65714   -2377.9754   -1550.6764    551.64842   -14.912565   -3510.1237 
 1663000    263.88613   -3866.1152   -3413.8234   -3866.1152            0    2559.1798    17.806897    20.974173    21.724373    8113.7262    3745.9688    1980.9405    1950.6303   -1676.5522   -1155.6893    754.08076   -3110.9947 
 1664000    264.32599   -3894.0829   -3441.0372   -3894.0829            0    1723.7307    18.010737    21.214269    21.973057    8395.5667    1575.8633    1545.1021    2050.2268    1521.9397   -1429.2792   -393.23274   -3229.9823 
 1665000    259.13767   -3884.6009   -3440.4478   -3884.6009            0    1015.6972    17.984842    21.183769    21.941466    8359.4075    1149.3285    995.52838    902.23469    291.98019   -1771.0837   -308.84557   -3316.6207 
 1666000    264.82115   -3877.3076   -3423.4132   -3877.3076            0    2373.5296     17.89366    21.076368    21.830224    8232.9061    3112.9665    1983.0299    2024.5924    1463.5476   -893.40545     535.1398   -3138.4271 
 1667000    254.84645   -3897.6992   -3460.9011   -3897.6992            0    809.04441    17.869643    21.048079    21.800922    8199.7989    1672.6918      153.343    601.09843   -41.883473   -614.25818   -313.92854    -3364.151 
 1668000    279.02425   -3870.3639   -3392.1259   -3870.3639            0    808.72908    17.913139    21.099312    21.853988     8259.822    1537.5598    816.26095    72.366457   -492.29622   -61.942263    -200.9928   -3294.7056 
 1669000     270.9905   -3882.1176   -3417.6491   -3882.1176            0    32.293253    17.938306    21.128955    21.884691    8294.6843    1049.8704   -528.75101   -424.23959   -632.14805   -283.60277   -3.7151068   -3413.7426 
 1670000    247.38177   -3835.3078   -3411.3039   -3835.3078            0    2921.1961    17.826657    20.997448     21.74848    8140.7674    3016.4111    1347.6101    4399.5672   -876.23747     726.6667    1063.4537   -3064.4857 
 1671000      256.363    -3871.758   -3432.3606    -3871.758            0     1434.256    17.857165    21.033382      21.7857    8182.6345    3490.2442    445.91956    366.60423    422.68106   -828.30481   -532.39789   -3261.2032 
 1672000    258.33337   -3879.8062   -3437.0317   -3879.8062            0    845.50528     17.94625    21.138313    21.894384      8305.71    1560.5921    1454.7195   -478.79568    928.90406   -533.51006    730.56109   -3334.6154 
 1673000    253.42391   -3862.8645   -3428.5046   -3862.8645            0      237.041    17.969999    21.166286    21.923357    8338.7275    1547.1383   -961.87094    125.85561   -1019.3992   -323.18078    564.49216   -3399.6776 
 1674000    252.53111    -3882.501   -3449.6713    -3882.501            0    107.63603    17.977572    21.175205    21.932596    8349.2737   -305.35701    1165.1937   -536.92859    219.05683    1090.9491    531.51511   -3436.5649 
 1675000    265.37409   -3864.8868   -3410.0447   -3864.8868            0     3332.145    17.908149    21.093434      21.8479    8252.9211    4324.0499    2632.5345    3039.8505    911.42539   -656.07361   -1168.3453   -3008.9864 
 1676000    264.70202    -3877.222   -3423.5318    -3877.222            0     935.3149    17.964101    21.159338    21.916161    8330.5184    923.38859     71.40587    1811.1502   -1203.9822    419.53263   -121.58437   -3309.8984 
 1677000    283.56049    -3888.116    -3402.103    -3888.116            0    1562.1727    18.007056    21.209934    21.968567    8390.4211    2779.6039    1082.2028    824.71143   -828.04735   -80.982197   -1094.0611   -3210.9467 
 1678000    261.13336   -3829.9111   -3382.3375   -3829.9111            0    382.19655    17.970792    21.167219    21.924325    8339.8312    1090.8571    747.39904   -691.66652   -531.97849   -925.06958   -34.623929   -3335.8517 
 1679000    265.74062   -3885.8614    -3430.391   -3885.8614            0    556.23239    18.054258    21.265531    22.026152     8456.575     1928.588   -592.12375    332.23292   -913.21381   -208.08822     628.2647   -3361.7906 
 1680000    249.18579   -3854.4823   -3427.3864   -3854.4823            0    1792.5198    18.029888    21.236827    21.996422    8422.3776    3440.3916    826.57793      1110.59    -583.7392    1213.0077   -169.10995   -3207.2081 
 1681000    250.61323   -3847.2576   -3417.7151   -3847.2576            0     1081.825    18.036775    21.244938    22.004823    8432.0318    902.37649    634.63197    1708.4664   -1198.2151     488.1604    1012.4372   -3284.6803 
 1682000    272.35992   -3864.8432   -3398.0276   -3864.8432            0    715.94505    18.027236    21.233703    21.993186    8418.6615    1072.0108    620.65928    455.16502   -107.32991    163.24689   -713.78073   -3310.1256 
 1683000    253.76561    -3908.361   -3473.4155    -3908.361            0    2821.7258    18.060502    21.272885     22.03377    8465.3518    5161.1733    1422.2428    1881.7613    580.36351    357.12486   -239.56362   -3125.0495 
 1684000    256.45371   -3934.0758   -3494.5229   -3934.0758            0    812.75793    17.965193    21.160625    21.917494    8332.0388     1025.265    833.41756    579.59124   -373.75032     669.3266    131.52203   -3395.7613 
 1685000    272.42414   -3920.2166   -3453.2909   -3920.2166            0   -487.74573    17.973933    21.170919    21.928156    8344.2046    500.24882   -1146.1337   -817.35233   -40.030192   -1125.0677   -163.40645   -3512.6455 
 1686000    266.36948   -3912.2021   -3455.6539   -3912.2021            0    394.46554    18.015256    21.219592     21.97857    8401.8883   -342.39258   -170.85721    1696.6464    377.36687   -435.73908    194.50938   -3407.3189 
 1687000     261.8692   -3929.4338    -3480.599   -3929.4338            0   -820.52483    17.933775    21.123618    21.879163    8288.4005    419.90269   -1917.5451   -963.93209    483.32385    -482.9221   -564.82305   -3579.7822 
 1688000    267.43153   -3881.8774   -3423.5089   -3881.8774            0    252.24186    17.980088    21.178169    21.935666      8352.78    922.86392    -1851.892    1685.7537   -1101.0432   -93.908386   -1425.0731   -3392.7817 
 1689000    246.58003   -3884.2585   -3461.6287   -3884.2585            0    262.65147    18.020007    21.225188    21.984367    8408.5379   -2013.6071    2433.2216    368.33992    453.09736    590.38972   -606.98023   -3429.4198 
 1690000    265.04475   -3856.8385   -3402.5609   -3856.8385            0   -566.29583    17.946248    21.138309     21.89438     8305.706   -1769.9872    138.90567   -67.805944     480.1806    94.930443   -1405.8188   -3471.1564 
 1691000    257.58832   -3901.1679   -3459.6704   -3901.1679            0   -27.806851    17.897248    21.080595    21.834601    8237.8596    1125.8371   -1208.4576  -0.80000985   -177.00077    146.80629    225.29382   -3463.0111 
 1692000    263.24601   -3878.1519   -3426.9573   -3878.1519            0    1584.6516    17.944238    21.135942    21.891928    8302.9159    1350.0196    376.32776    3027.6074      688.117     164.9797   -318.55624   -3235.0726 
 1693000    258.99302    -3855.497   -3411.5918    -3855.497            0    2082.9564    17.897396    21.080769    21.834782     8238.064    2411.9284    2327.6894    1509.2514   -123.41605   -40.197434   -1249.0752   -3161.3377 
 1694000    272.94249   -3879.6774   -3411.8633   -3879.6774            0    750.64059    17.978298     21.17606    21.933482    8350.2855   -552.62784    607.44576    2197.1039   -1570.7043    1151.2195    31.273453     -3320.45 
 1695000    256.80396   -3880.2307   -3440.0775   -3880.2307            0   -110.78165    17.972034    21.168682    21.925839    8341.5599   -906.55476    1042.9976   -468.78774   -1179.6871    940.34812    956.07843   -3453.5545 
 1696000    266.40148   -3879.1163   -3422.5132   -3879.1163            0    1321.7171    17.924527    21.112725    21.867881    8275.5851    2572.9206    1373.8182    18.412429   -5.5171358   -278.03227   -838.75419    -3262.994 
 1697000    257.11746   -3850.1148   -3409.4243   -3850.1148            0    1868.7357    17.909423    21.094935    21.849454    8254.6825    1259.5728    1839.2274    2507.4069   -370.67458    34.321779   -616.66378   -3184.4545 
 1698000    263.60362   -3854.3173   -3402.5097   -3854.3173            0    131.86368    18.070763    21.284972    22.046288    8479.7889   -364.03039    1758.5214   -998.90002    272.71233    1737.1843   -728.02998   -3386.2023 
 1699000    272.63322    -3870.044   -3402.7599    -3870.044            0    506.79232    17.929281    21.118325    21.873681    8282.1719   -1267.9173    1466.5853    1321.7089   -1037.9939    634.10729   -1696.6373    -3341.546 
 1700000    253.00704   -3854.6089   -3420.9635   -3854.6089            0    877.23573    18.023592     21.22941     21.98874    8413.5564    442.16417    1335.7905     853.7525   -167.62215    164.16552   -70.876662   -3313.3239 
 1701000    269.50028   -3883.1734   -3421.2592   -3883.1734            0    513.47715    18.172751      21.4051    22.170713    8624.1757    241.23988    -18.63461    1317.8262   -81.872913    126.72242   -1021.9647   -3356.6767 
 1702000    259.33476   -3854.9077   -3410.4168   -3854.9077            0    35.199022    18.025109    21.231198    21.990591    8415.6815   -92.335675   -251.50352    449.43627    1299.9523    415.77509   -374.95908   -3406.0967 
 1703000    250.41074   -3873.3939   -3444.1984   -3873.3939            0    368.58668    18.083454     21.29992    22.061771    8497.6672    1409.3352    941.87511   -1245.4502   -646.07254   -941.86728    -392.8506   -3398.5196 
 1704000    254.14882   -3890.5346   -3454.9322   -3890.5346            0     352.3233    18.137025    21.363019    22.127128    8573.4126    917.16053    516.58752   -376.77815    437.80579    470.66621    29.040498   -3410.8796 
 1705000    248.88128   -3876.8038   -3450.2298   -3876.8038            0    993.97808    18.084599    21.301269    22.063169    8499.2824    491.29167     2345.075    145.56757    410.28497    653.49357   -133.67972   -3327.0229 
 1706000    265.63827   -3903.8955   -3448.6006   -3903.8955            0    324.60401     18.03117    21.238336    21.997985    8424.1733     1614.199     745.4239   -1385.8109   -239.84245   -634.14521   -916.15299   -3408.7204 
 1707000     252.2746   -3859.5202   -3427.1302   -3859.5202            0    513.17246    18.034627    21.242408    22.002202    8429.0195    392.19479   -427.67287    1574.9955    504.40922    342.23624    474.39282   -3364.0466 
 1708000    265.33907   -3865.8552   -3411.0731   -3865.8552            0    1718.9635    17.984928     21.18387    21.941571    8359.5274    1643.2683    2231.1636    1282.4587   -10.468435    231.90532   -625.87591   -3201.5055 
 1709000    264.93204   -3903.3409   -3449.2564   -3903.3409            0   -381.56169    18.013387    21.217391    21.976291    8399.2741     501.4317   -1431.3997   -214.71705    814.48244   -329.02295    469.39786   -3495.9957 
 1710000    273.05472   -3847.1003   -3379.0939   -3847.1003            0    1506.0007    17.942583    21.133993     21.88991    8300.6193    2253.8714    1461.5042    802.62669     -439.951    169.56416   -98.289005   -3196.7835 
 1711000    272.22916   -3877.9775    -3411.386   -3877.9775            0    132.82968    17.973835    21.170803    21.928037    8344.0681    1487.8861   -122.34148   -967.05554    159.35191   -888.85698    19.666168    -3395.222 
 1712000    267.71736   -3900.4933   -3441.6349   -3900.4933            0    700.83516    17.944897    21.136718    21.892732    8303.8303    1182.8339    1140.1853   -220.51373    -1004.972   -1686.7191    518.09224   -3356.7618 
 1713000    267.43933   -3874.5206   -3416.1387   -3874.5206            0    972.19315    17.916227    21.102948    21.857755    8264.0935    1557.8756    685.25729    673.44656   -1614.3121   -1667.7824    580.44591   -3298.9668 
 1714000    267.51276   -3882.3967    -3423.889   -3882.3967            0    437.32786    17.998878    21.200301    21.958589    8378.9939     905.6715    860.62272   -454.31064    15.517997   -802.45716   -215.97844    -3370.448 
 1715000    255.22373   -3939.9352   -3502.4905   -3939.9352            0    941.62052    17.978888    21.176756    21.934202    8351.1079    298.95608    1682.5179    843.38757   -126.80823   -336.82029   -469.04735   -3387.8083 
 1716000    271.32927   -3905.5851    -3440.536   -3905.5851            0   -242.97899    17.963242    21.158327    21.915114    8329.3246   -926.13663    1421.3746   -1224.1749    -48.24689    1063.5185   -1409.7338   -3470.0518 
 1717000    247.91207   -3869.1758    -3444.263   -3869.1758            0   -177.73364    18.036013    21.244041    22.003894    8430.9637    1322.4717   -621.22673   -1234.4458    432.61103    -83.19012   -1019.1243   -3466.1166 
 1718000    262.07178    -3877.518   -3428.3359    -3877.518            0   -692.44483     18.13312     21.35842    22.122364    8567.8766    237.27922   -1137.7077    -1176.906   -816.54215    230.38817   -48.944818   -3514.8595 
 1719000    267.73884   -3853.5844   -3394.6892   -3853.5844            0    1043.0078    18.061175    21.273679    22.034591     8466.299    143.30129    361.41744    2624.3046    234.53416    480.19278   -5.0244094   -3265.9066 
 1720000    243.86417    -3877.692   -3459.7171    -3877.692            0    1252.9414    18.005494    21.208094    21.966661    8388.2377    2276.4818    1238.3722    243.97025    139.50166   -619.71264    611.68941     -3306.44 
 1721000    261.32503   -3903.0928   -3455.1906   -3903.0928            0    362.16304    17.998621    21.199998    21.958275    8378.6346    1301.2665   -373.83709    159.05975   -778.70054   -490.18812   -190.96796   -3410.9365 
 1722000    260.46919   -3914.7544   -3468.3192   -3914.7544            0    1118.2001    18.063979    21.276981    22.038012    8470.2423    1674.4655    843.99309    836.14168    740.68574    1327.4206     648.9555   -3330.1881 
 1723000    264.71014   -3903.9514   -3450.2473   -3903.9514            0    2442.9781    17.889077     21.07097    21.824632    8226.5812    3440.6926    2816.2089    1072.0327    1097.4474     977.3725   -321.10479    -3157.148 
 1724000    264.61601   -3888.5235   -3434.9807   -3888.5235            0    126.86761    17.994106    21.194679    21.952767    8372.3308    70.334596   -380.33398     690.6022    403.95686   -366.66637   -485.02569     -3419.49 
 1725000    265.07281   -3902.9548   -3448.6291   -3902.9548            0    1883.1101    18.003677    21.205953    21.964443    8385.6976    1918.4589    756.77694    2974.0944    790.22052    261.34038    148.05433   -3218.3308 
 1726000    258.21735   -3861.6173   -3419.0416   -3861.6173            0   -1498.5427    18.083125    21.299532     22.06137    8497.2037   -1412.8543   -776.77959   -2305.9941    152.22125   -79.719778    450.24468   -3604.7455 
 1727000    267.01333   -3829.1054   -3371.4537   -3829.1054            0    -138.7508    18.076408    21.291621    22.053176     8487.739   -570.55278    203.16905   -48.868676   -62.667179   -620.29792    1167.7728    -3388.629 
 1728000    270.27176   -3864.9944   -3401.7579   -3864.9944            0    844.57844    18.016547    21.221112    21.980145    8403.6943    1975.2811    1024.1583   -465.70407    547.88765    652.57155    1320.9955    -3298.247 
 1729000     273.2083   -3887.2168   -3418.9471   -3887.2168            0    363.84383    17.948704    21.141203    21.897377    8309.1174     1580.046   -189.64108   -298.87341    637.31427   -1010.7756   -841.10327   -3374.8565 
 1730000    267.00727   -3834.8325   -3377.1912   -3834.8325            0    -26.77638    17.973225    21.170085    21.927293    8343.2191    1648.8166   -298.58758   -1430.5581   -739.42968    980.50323    127.41143   -3380.4493 
 1731000    275.28554   -3868.2006   -3396.3706   -3868.2006            0    1200.7867    17.884139    21.065154    21.818608    8219.7713    2312.4079    704.48303    585.46918    472.45239    1064.7181    120.49291    -3252.424 
 1732000    274.04022   -3872.7631   -3403.0676   -3872.7631            0     1510.551    17.940505    21.131545    21.887374    8297.7351    1699.7084    1921.8586     910.0859   -574.87481   -1313.6514   -58.543858   -3220.2698 
 1733000    253.03992   -3862.0843   -3428.3826   -3862.0843            0    869.72317    17.983132    21.181754    21.939379    8357.0232    988.59058    482.93502    1137.6439   -802.10328   -1993.5089   -160.60883   -3322.3819 
 1734000     272.4461   -3862.5249   -3395.5616   -3862.5249            0   -30.371307    18.043907    21.253339    22.013525     8442.039   -10.014962   -920.77779    839.67883     -44.9573   -1321.0094    1330.9985   -3399.3009 
 1735000    257.67887   -3892.2867    -3450.634   -3892.2867            0    727.05756    17.969303    21.165465    21.922507    8337.7576    829.82655    439.46505    911.88108   -1066.8363   -22.338862    574.00289   -3362.2255 
 1736000    264.96831   -3885.3121   -3431.1655   -3885.3121            0    1803.9812     17.92423    21.112376    21.867519    8275.1742    2625.8631    122.80519    2663.2754    1299.8031     1384.531    273.49674   -3213.4522 
 1737000    257.97577   -3862.2452   -3420.0836   -3862.2452            0    225.55277    17.958317    21.152525    21.909104    8322.4744   -164.72189    421.72115    419.65905   -309.01231   -1539.3344   -573.77257   -3392.7072 
 1738000    247.81659   -3819.5228   -3394.7736   -3819.5228            0    763.83387    18.019273    21.224324    21.983471    8407.5101    670.33855    403.20162    1217.9614   -1071.5166   -279.71936    672.81461   -3301.1162 
 1739000    262.53446   -3883.8128   -3433.8377   -3883.8128            0    617.68637     17.97397    21.170962    21.928201    8344.2555    241.56554    1287.3088    324.18478   -294.79625    253.40246   -11.900966     -3358.67 
 1740000    261.20848   -3885.0557   -3437.3533   -3885.0557            0    1802.6449     17.94108    21.132222    21.888075    8298.5325    1169.7145    899.53328    3338.6869   -278.55871   -348.11926     103.9914   -3219.1871 
 1741000    253.64817   -3884.8001   -3450.0558   -3884.8001            0    1087.3364    17.971758    21.168357    21.925503    8341.1762    917.51286   -143.96527    2488.4616    -677.6454    94.733825    248.38764    -3317.784 
 1742000    270.65002   -3888.8872   -3425.0023   -3888.8872            0   -469.11172    18.016868    21.221491    21.980537    8404.1439   -1022.0813    -1210.792    825.53817   -788.10612   -301.96486   -43.684353   -3482.4994 
 1743000     283.2029   -3867.4029   -3382.0029   -3867.4029            0     428.6366     18.05667    21.268372    22.029095    8459.9648    1938.6523    -920.9704    268.22794   -995.30324    119.30888    1263.3553   -3329.1177 
 1744000     266.8442    -3876.784   -3419.4222    -3876.784            0     1329.902    18.161801    21.392202    22.157355    8608.5959    2263.0147     2695.375   -968.68374    205.03283    603.11741   -139.51777   -3252.4563 
 1745000    275.37692   -3858.6433   -3386.6567   -3858.6433            0    815.45356    18.158796    21.388663    22.153689    8604.3236   -770.03498    2050.6478    1165.7478   -506.91593     1554.848    1117.6148   -3284.3293 
 1746000    258.33896   -3853.8352    -3411.051   -3853.8352            0    561.05712    18.028352    21.235017    21.994547    8420.2246   -663.72461    667.73708    1679.1589    470.63345    1462.5986   -215.21686    -3342.153 
 1747000    257.48577   -3849.4977   -3408.1759   -3849.4977            0    553.15233    18.112268    21.333859    22.096924    8538.3523   -1012.8333    1642.2991    1029.9912    982.02489   -1029.7652    1329.6384   -3339.2957 
 1748000    267.28639    -3818.099   -3359.9793    -3818.099            0   -153.53806    18.141756    21.368592      22.1329    8580.1236    254.15215    109.40893   -824.17527    1046.3706    126.22925   -573.83253   -3379.1919 
 1749000    259.28028   -3870.7359   -3426.3384   -3870.7359            0    1403.5109    17.936279    21.126567    21.882218    8291.8727    879.24516    1181.1508    2150.1367    1038.8516   -235.77686    730.41734    -3256.614 
 1750000      273.425   -3815.2242   -3346.5831   -3815.2242            0   -699.83419    18.013724    21.217787    21.976701    8399.7446    112.22416   -1046.4348   -1165.2919    362.70283   -41.736058   -900.87162    -3432.314 
Loop time of 344.199 on 64 procs for 250000 steps with 864 atoms

Performance: 125.509 ns/day, 0.191 hours/ns, 726.324 timesteps/s
193.2% CPU use with 32 MPI tasks x 2 OpenMP threads

MPI task timing breakdown:
Section |  min time  |  avg time  |  max time  |%varavg| %total
---------------------------------------------------------------
Pair    | 25.31      | 28.143     | 32.925     |  29.4 |  8.18
Bond    | 0.87857    | 1.0331     | 1.6165     |  13.9 |  0.30
Kspace  | 164.49     | 170.51     | 174.62     |  14.7 | 49.54
Neigh   | 3.3865     | 3.6187     | 3.7844     |   5.4 |  1.05
Comm    | 62.322     | 65.098     | 67.642     |  15.4 | 18.91
Output  | 0.6594     | 0.65981    | 0.66143    |   0.0 |  0.19
Modify  | 60.352     | 62.513     | 65.468     |  17.7 | 18.16
Other   |            | 12.62      |            |       |  3.67

Nlocal:        27.0000 ave          33 max          21 min
Histogram: 2 0 2 5 8 6 3 2 2 2
Nghost:        2277.91 ave        2318 max        2244 min
Histogram: 3 1 3 4 6 7 4 3 0 1
Neighs:        7352.03 ave        9206 max        5947 min
Histogram: 3 2 7 6 1 4 4 3 1 1

Total # of neighbors = 235265
Ave neighs/atom = 272.29745
Ave special neighs/atom = 2.0000000
Neighbor list builds = 13702
Dangerous builds = 0

unfix		3
unfix		2
unfix		1

write_data	data.final.${pid}
write_data	data.final.1
System init for write_data ...
PPPM initialization ...
  extracting TIP4P info from pair style
  using 12-bit tables for long-range coulomb (../kspace.cpp:340)
  G vector (1/distance) = 0.37233781
  grid = 24 25 25
  stencil order = 5
  estimated absolute RMS force accuracy = 0.0032079664
  estimated relative force accuracy = 9.6606955e-06
  using double precision FFTW3
  3d grid and FFT values/proc = 4116 672
Last active /omp style is kspace_style pppm/tip4p/omp
WARNING: Not all mixed pair coeffs generated from mixing. Use write_data with 'pair ij' option to store all pair coeffs. (../write_data.cpp:312)

write_restart   restart.lmp.${pid}
write_restart   restart.lmp.1
System init for write_restart ...
PPPM initialization ...
  extracting TIP4P info from pair style
  using 12-bit tables for long-range coulomb (../kspace.cpp:340)
  G vector (1/distance) = 0.37233781
  grid = 24 25 25
  stencil order = 5
  estimated absolute RMS force accuracy = 0.0032079664
  estimated relative force accuracy = 9.6606955e-06
  using double precision FFTW3
  3d grid and FFT values/proc = 4116 672
Last active /omp style is kspace_style pppm/tip4p/omp
Total wall time: 0:05:44
