LAMMPS (30 Jul 2021)
Processor partition = 0
  using 2 OpenMP thread(s) per MPI task
using multi-threaded neighbor list subroutines
variable        pid world 0 1
variable        phase world IceIh Liquid

shell cd ${phase}
shell cd IceIh
include Restart.lmp
echo both
log log.lammps
#include		in.partitions
include		in.temp
variable        temperature equal 262.00
variable	tempDamp equal 100.0
include		in.pressure
variable        pressure equal 729.0
variable        pressureDamp equal 1000.0 # This is 1 ps
include		in.seed
variable        seed equal 745823

units		real
atom_style	full
#include		in.box
read_restart	restart.lmp.${pid}
read_restart	restart.lmp.0
Reading restart file ...
  restart file = 30 Jul 2021, LAMMPS = 30 Jul 2021
  restoring atom style full from restart
  orthogonal box = (0.17019351 0.087953594 -0.064185790) to (18.037379 23.541224 22.277382)
  2 by 4 by 4 MPI processor grid
  restoring pair style lj/cut/tip4p/long/omp from restart
  restoring bond style harmonic/omp from restart
  restoring angle style harmonic/omp from restart
  864 atoms
  576 bonds
  288 angles
Finding 1-2 1-3 1-4 neighbors ...
  special bond factors lj:    0        0        0       
  special bond factors coul:  0        0        0       
     2 = max # of 1-2 neighbors
     1 = max # of 1-3 neighbors
     1 = max # of 1-4 neighbors
     2 = max # of special neighbors
  special bonds CPU = 0.002 seconds
  read_restart CPU = 0.006 seconds
include 	in.setup
variable	out_freq equal 1000
variable	out_freq2 equal 10000
variable	out_freq3 equal 1000

timestep	2.0

neigh_modify    delay 7 every 1

include		in.tip4p
# This is TIP4P/Ice

# create groups ###
group ox type 2
288 atoms in group ox
group hy type 1
576 atoms in group hy

# set charges - beside manually ###
set group ox charge -1.1794
Setting atom values ...
  288 settings made for charge
set group hy charge 0.5897
Setting atom values ...
  576 settings made for charge

# ### TIP3P Potential Parameters ###
pair_style lj/cut/tip4p/long/omp 2 1 1 1 0.1577 8.5
pair_coeff 1 1*2 0.000 0.000
pair_coeff 2 2 0.21084 3.1668
bond_style  harmonic
bond_coeff  1 450 0.9572
angle_style harmonic
angle_coeff 1 55 104.52
kspace_style pppm/tip4p/omp 1.0e-5
pair_modify tail yes

thermo          ${out_freq}
thermo          1000
thermo_style    custom step temp pe etotal epair emol press lx ly lz vol pxx pyy pzz pxy pxz pyz enthalpy

restart 	${out_freq3} restart.lmp.${pid} restart2.lmp.${pid}
restart 	1000 restart.lmp.${pid} restart2.lmp.${pid}
restart 	1000 restart.lmp.0 restart2.lmp.${pid}
restart 	1000 restart.lmp.0 restart2.lmp.0


include         in.dump
dump            myDump all atom ${out_freq2} dump.water.${pid}
dump            myDump all atom 10000 dump.water.${pid}
dump            myDump all atom 10000 dump.water.0
dump            myDump2 all dcd ${out_freq2} dump.dcd
dump            myDump2 all dcd 10000 dump.dcd
dump_modify     myDump append yes
dump_modify     myDump2 append yes


variable natoms 	equal  "count(all)"                        # NUMBER ATOMS
variable H      	equal  "enthalpy/v_natoms"                 # ENTHALPY-per-atom
variable Vol      	equal  "vol/v_natoms"                 # volume-per-atom
fix AVG all 		ave/time ${out_freq} 1 ${out_freq} v_Vol v_H file vol_enthalpy.dat
fix AVG all 		ave/time 1000 1 ${out_freq} v_Vol v_H file vol_enthalpy.dat
fix AVG all 		ave/time 1000 1 1000 v_Vol v_H file vol_enthalpy.dat


timer           timeout 23:50:00 every 1000
New timer settings: style=normal  mode=nosync  timeout=23:50:00

fix 		1 all shake 1e-6 200 0 b 1 a 1
Finding SHAKE clusters ...
       0 = # of size 2 clusters
       0 = # of size 3 clusters
       0 = # of size 4 clusters
     288 = # of frozen angles
  find clusters CPU = 0.000 seconds
fix             2 all nph aniso ${pressure} ${pressure} ${pressureDamp}
fix             2 all nph aniso 729 ${pressure} ${pressureDamp}
fix             2 all nph aniso 729 729 ${pressureDamp}
fix             2 all nph aniso 729 729 1000
fix             3 all temp/csvr ${temperature} ${temperature} ${tempDamp} ${seed}
fix             3 all temp/csvr 262 ${temperature} ${tempDamp} ${seed}
fix             3 all temp/csvr 262 262 ${tempDamp} ${seed}
fix             3 all temp/csvr 262 262 100 ${seed}
fix             3 all temp/csvr 262 262 100 745823


run             250000
PPPM initialization ...
  extracting TIP4P info from pair style
  using 12-bit tables for long-range coulomb (../kspace.cpp:340)
  G vector (1/distance) = 0.37116273
  grid = 24 27 25
  stencil order = 5
  estimated absolute RMS force accuracy = 0.0032367283
  estimated relative force accuracy = 9.747311e-06
  using double precision FFTW3
  3d grid and FFT values/proc = 4410 672
Last active /omp style is kspace_style pppm/tip4p/omp
Neighbor list info ...
  update every 1 steps, delay 7 steps, check yes
  max neighbors/atom: 2000, page size: 100000
  master list distance cutoff = 10.8154
  ghost atom cutoff = 10.8154
  binsize = 5.4077, bins = 4 5 5
  1 neighbor lists, perpetual/occasional/extra = 1 0 0
  (1) pair lj/cut/tip4p/long/omp, perpetual
      attributes: half, newton on, omp
      pair build: half/bin/newton/omp
      stencil: half/bin/3d
      bin: standard
Setting up Verlet run ...
  Unit style    : real
  Current step  : 1500000
  Time step     : 2
  Walltime left : 23:49:59.95
Per MPI rank memory allocation (min/avg/max) = 10.19 | 10.21 | 10.23 Mbytes
Step Temp PotEng TotEng E_pair E_mol Press Lx Ly Lz Volume Pxx Pyy Pzz Pxy Pxz Pyz Enthalpy 
 1500000    270.31186   -4188.5381   -3725.2328   -4188.5381            0    1034.4547    17.867185    23.453271    22.341567    9362.0983    2689.7003     673.9185   -260.25478     60.01369   -777.65731    343.19434   -3583.9919 
 1501000    264.17979   -4226.7011    -3773.906   -4226.7011            0    732.22303    18.198212    23.579015    22.110276    9487.4287   -972.66241    754.53087    2414.8006   -983.21562   -278.54384     432.3932   -3672.5924 
 1502000    265.41509   -4228.6683   -3773.7559   -4228.6683            0   -47.889915    18.153923    23.675435    22.072848    9486.9551   -1181.5707   -667.44511    1705.3461   -1236.4202    278.28341   -340.00584   -3780.3819 
 1503000    258.00906   -4220.6398   -3778.4211   -4220.6398            0   -58.033388    18.034158     23.42048     22.47731     9493.711    269.94104    1131.7612   -1575.8024   -1783.7562   -773.01322    362.66685   -3786.4562 
 1504000    248.39107    -4250.217   -3824.4832    -4250.217            0   -841.70061    18.196733    23.688679    22.057236    9507.9164   -2052.3609   -774.20677    301.46582    377.99183    158.03209    229.21242   -3941.1961 
 1505000    268.98234   -4220.7711   -3759.7446   -4220.7711            0    975.85643     18.07913     23.51734    22.036173    9369.1869    346.09006   -25.550896    2607.0301   -765.31523    816.72931   -531.10335   -3626.4036 
 1506000    258.07607   -4197.9043   -3755.5707   -4197.9043            0    1573.8377    18.197611    23.135959    22.215395    9353.1076    267.63665    2629.2648    1824.6118    368.33119   -131.46403    623.10263   -3540.8906 
 1507000    264.53113   -4225.2298   -3771.8325   -4225.2298            0    996.49758    18.171082    23.609594    21.987167    9432.7556    590.18873   -952.77022    3352.0742    754.27154    -891.6496    733.82895   -3634.7472 
 1508000    279.30523   -4230.5138   -3751.7942   -4230.5138            0     1455.959    17.835553    23.696143    22.236905    9398.0681    2537.9969    558.51109     1271.369    -141.9149   -139.09036    218.23076   -3552.2387 
 1509000     283.2482   -4232.0973   -3746.6196   -4232.0973            0    1270.2229    18.028159    23.695485    22.102823    9442.0163   -674.30438    2234.9787    2249.9945    492.12621    410.85526    342.92007   -3571.7072 
 1510000    259.26185   -4207.0954   -3762.7294   -4207.0954            0    858.24406    18.166728    23.581164    22.080198    9458.9933   -1365.3911    2453.1101    1487.0132   -996.52852    49.352527    185.50656   -3644.3349 
 1511000    260.55617   -4224.4454   -3777.8611   -4224.4454            0    277.77534    18.153457    23.320182    22.377247    9473.2268    2165.5172   -1286.4856    -45.70565    891.24037    413.02695    145.95086   -3739.4844 
 1512000    281.03122   -4209.9815   -3728.3036   -4209.9815            0    864.37699    18.325469    23.478411    21.918194    9430.3664    1018.6503   -1102.0831    2676.5638    250.90325     62.78546   -6.3979296   -3609.4239 
 1513000    262.83513    -4196.184   -3745.6936    -4196.184            0    1532.4321    18.055451    23.438005     22.22105    9403.5867    629.26183    2963.2738    1004.7607   -424.33658    211.24122    54.205394   -3535.5333 
 1514000    262.27732   -4246.2791   -3796.7447   -4246.2791            0    558.88688    18.051123    23.518487    22.137288    9398.0561    685.29774   -599.58057    1590.9435   -565.84538    176.12733   -256.10939   -3720.1431 
 1515000    268.84039   -4237.9012   -3777.1179   -4237.9012            0    -509.9863    18.228499    23.675786    22.091925    9534.3013    361.76187    438.93827    -2330.659   -512.43096    317.07495   -521.40515   -3848.0305 
 1516000    275.34922   -4241.2489   -3769.3098   -4241.2489            0    1106.3052    18.136704    23.300557    22.261477    9407.5955    575.75812    1920.3973    822.76002    6.5695913    72.337473   -99.036313   -3617.5246 
 1517000    265.17598   -4223.6505    -3769.148   -4223.6505            0    2050.8473    18.212083    23.494636    21.953508    9393.6045    3268.9964    1786.0114    1097.5341   -851.86364    41.085181    967.91937   -3488.1899 
 1518000    246.63464   -4223.9235   -3801.2002   -4223.9235            0    1005.3204     18.09282    23.628585     22.14245    9466.0685    3434.8153    274.95104   -693.80521   -694.90942   -524.16995   -441.39177   -3662.4128 
 1519000    265.77441   -4230.0666   -3774.5384   -4230.0666            0    461.91472     18.14714    23.581933    22.205226    9502.6075    92.819213    1163.1875    129.73748   -1525.4396   -64.292544    85.692494   -3710.5236 
 1520000    245.72132   -4219.7479   -3798.5899   -4219.7479            0    385.95645    18.155014    23.467116    22.205389    9460.5129    2102.7126   -305.77009    -639.0732    702.39443    683.78849    371.20823   -3745.3388 
 1521000    248.78884    -4224.543   -3798.1275    -4224.543            0     1024.465    18.146626    23.461116    22.074233    9397.8865    837.68007     142.2701    2093.4448   -696.13379    71.740789   -494.57504   -3657.7158 
 1522000    282.79623   -4232.0627   -3747.3596   -4232.0627            0    467.28387    18.139293    23.732539    21.859889    9410.4961   -194.05962   -260.89342    1856.8046    -1092.521    544.58418    342.93392   -3683.2284 
 1523000    250.42664   -4229.4205   -3800.1978   -4229.4205            0    1210.8432    17.834983    23.563995    22.260769    9355.3878    1723.4878    675.60483     1233.437     412.8245    335.85004    1064.6564   -3634.9919 
 1524000    276.82593   -4189.4652   -3714.9951   -4189.4652            0    1127.6069    18.139644     23.59099    22.094051    9454.7548    1191.3553     2389.569   -198.10352   -1231.0491      191.999    1098.7637   -3559.5117 
 1525000    263.73468   -4219.6193    -3767.587   -4219.6193            0   -812.23313    18.171075    23.598709    22.158557    9501.8976   -614.77682   -1819.9036   -2.0189334    69.902857    -246.4018    249.81767   -3880.1426 
 1526000    267.61905   -4196.1253   -3737.4355   -4196.1253            0    1378.2615    18.123209    23.343402    22.207264    9394.9463   -95.869142     3770.278    460.37556    322.34924   -52.763163    265.96089   -3548.5921 
 1527000    277.91339   -4225.4458   -3749.1118   -4225.4458            0    886.87042      18.2845    23.478001    21.924322    9411.7498    468.12534    756.93059    1435.5553    422.85194   -456.24886    579.65939   -3627.3793 
 1528000    258.78116   -4239.9693   -3796.4273   -4239.9693            0    677.99256     18.00801     23.46248    22.243132    9398.0026    772.33454    1757.3879   -495.74475   -790.90054    452.00978    36.272159   -3703.5014 
 1529000    253.23973   -4248.1209   -3814.0766   -4248.1209            0    297.06542    17.998505    23.848692    21.987061    9437.7435    1928.1046   -872.79219   -164.11614   -375.55911   -113.96679    365.74651   -3773.1886 
 1530000    278.70907   -4226.6877   -3748.9899   -4226.6877            0     1220.066    18.181826    23.425688      22.1122    9418.0675     2280.138    835.45597    544.60406    439.04551   -143.52189    37.232032   -3581.4104 
 1531000     267.9755   -4199.5745   -3740.2736   -4199.5745            0    951.16149    18.349667      22.9315    22.420809    9434.3486    915.78507    1937.1212   0.57817716    477.68904    -203.3715   -1289.1654    -3609.403 
 1532000    264.34851   -4207.1783    -3754.094   -4207.1783            0   -529.36435    18.240808    23.599537     22.16765    9542.6106   -1648.5832   -1717.5146    1778.0047    59.700929    158.33919      34.6653   -3827.7652 
 1533000    268.07865   -4222.5333   -3763.0557   -4222.5333            0    1844.0258    18.016708    23.702789    21.909873    9356.5288    1113.7481    1970.3285    2448.0008     -430.101   -6.5182999   -121.91132   -3511.4284 
 1534000    259.04092   -4238.4185   -3794.4312   -4238.4185            0    808.29473    17.682647     23.74232     22.33597    9377.2447     223.8686    1092.9823    1108.0333   -157.56718      620.863    125.66026   -3683.8908 
 1535000    247.74332   -4239.7711   -3815.1476   -4239.7711            0    361.21791    18.173214    23.571331    22.032013     9437.784    1346.0648    -1702.037     1439.626   -272.19518   -313.88166   -153.53112   -3765.4294 
 1536000    253.14497   -4234.6204   -3800.7386   -4234.6204            0    1920.6984    18.168227    23.027862     22.31974     9338.031    1503.6008    4057.2442     201.2503  -0.98320108    8.3013275   -1198.3195   -3539.1672 
 1537000    278.85328   -4244.7227   -3766.7777   -4244.7227            0    1345.9591    18.254215    23.415628    22.123629    9456.3893    845.08614    2006.5056    1186.2856   -540.61895   -129.94415    145.79819   -3581.1542 
 1538000    257.57314   -4218.4468   -3776.9752   -4218.4468            0    460.67202    18.162898    23.705877    21.982986    9465.1579     337.7455   -817.95378    1862.2243     528.8996    185.34085   -560.02988   -3713.3843 
 1539000    254.38182   -4207.1986   -3771.1969   -4207.1986            0    943.43607     17.99558    23.652758    22.154658    9430.0216    1377.5549    1090.9668    361.78646    762.32707   -602.16854   -978.18373   -3641.4488 
 1540000    254.67548   -4220.0453   -3783.5402   -4220.0453            0   -1034.0274     17.97752    23.789234    22.309685     9541.215   -747.08946   -1201.9338   -1153.0588    551.19533   -484.08851   -196.42752   -3927.4239 
 1541000    256.09885   -4211.0223   -3772.0776   -4211.0223            0    774.15759    18.182459    23.424189     22.09218    9409.2657   -813.63293    1283.7356    1852.3701   -289.80929    -747.1835   -585.16894   -3665.8443 
 1542000    264.81274   -4233.1363   -3779.2564   -4233.1363            0    2560.5706    18.081236    23.213401    22.114779    9282.1698    2977.0597      3399.94    1304.7121    1339.8468    297.07918    354.54186   -3432.6296 
 1543000    270.37111   -4228.7379    -3765.331   -4228.7379            0    72.695021    18.112275    23.468679    22.067308    9380.1764    1065.6477   -640.95938   -206.60327    -212.5344    626.08532   -571.40245   -3755.3863 
 1544000     275.5395   -4243.3819   -3771.1166   -4243.3819            0    603.38718    17.996801    23.900176    21.934897     9434.785    504.70901    220.98369    1084.4689     -874.667    389.64798     461.1631   -3688.0926 
 1545000    248.92486   -4251.9071   -3825.2584   -4251.9071            0    537.22054    17.888082    23.690287    22.084107    9358.6661    488.23392    626.12425    497.30345    287.09896   -2.3966459    1072.0904    -3751.935 
 1546000    277.84291   -4235.8158   -3759.6026   -4235.8158            0    1419.9906    18.223386    23.249617    22.162639    9390.0161    808.52065    1417.9592    2033.4921    164.35661    -107.8917   -330.07002   -3565.1437 
 1547000    252.68364   -4228.8345   -3795.7434   -4228.8345            0    755.07122    18.186066    23.386996    22.108715    9403.2226   -159.85211    1761.3416    663.72419   -232.32769    776.00031    120.00039   -3692.1957 
 1548000    267.40819   -4226.9079   -3768.5795   -4226.9079            0    1226.7341     18.14024    23.660126    21.940115    9416.7055    -381.6375    1212.1268    2849.7128   -435.02409    251.12103    196.24371   -3600.1084 
 1549000    277.03422   -4231.8443   -3757.0171   -4231.8443            0    1085.0935    17.861238    23.687136    22.055761     9331.386    903.47963    1101.9395    1249.8613    500.42071   -605.82404    37.461801   -3609.3482 
 1550000    257.42325   -4226.0519   -3784.8372   -4226.0519            0    3244.0112    17.739649    23.889938    21.845527    9258.1152    4347.0545    1746.4173    3638.5618    135.38551    245.67569    2.1875983   -3346.8305 
 1551000    264.51934    -4204.944   -3751.5669    -4204.944            0    371.16374    18.128533    23.558446    22.147604    9458.8001   -144.47261    433.07155    824.89227   -626.46831   -247.61954    202.25346   -3700.3661 
 1552000    265.25897   -4233.3016   -3778.6568   -4233.3016            0    444.88769    18.317945    23.143726    22.288067    9448.9257    198.54754    708.78015    427.33538    1085.3072   -807.46473    531.55556   -3717.3499 
 1553000    269.92202   -4256.5354   -3793.8983   -4256.5354            0    349.59476    18.171496    23.555608    22.034976    9431.8653    957.54314   -1880.8967    1972.1378    699.16904    98.518814   -370.41145   -3745.8101 
 1554000    278.51884   -4230.4955   -3753.1237   -4230.4955            0    743.89007    17.982962    23.790787    22.123658    9465.1385    188.76888   -193.61527    2236.5166    1270.6052    18.607992   -247.31904   -3650.4376 
 1555000    264.21431   -4232.1839   -3779.3296   -4232.1839            0     193.9154    17.876483    23.856149     22.14827    9445.4405    1004.0875    -1109.027    686.68576    1175.8738    1026.0814    247.80498   -3752.6173 
 1556000    276.83689   -4210.0401   -3735.5511   -4210.0401            0    1505.9277    18.141634    23.503102    22.091163    9419.3334    1772.9497    1975.2232    769.61015    276.21647   -40.746405    463.88853   -3528.6799 
 1557000    274.17369   -4238.4874   -3768.5631   -4238.4874            0    2801.8978    18.306608    23.050936    22.093178    9322.9771    1994.0102    3560.4406    2851.2426   -582.49128    148.12512    393.01315   -3387.6001 
 1558000    260.93571   -4218.9984   -3771.7635   -4218.9984            0     1138.012     18.11411    23.455179    22.173413    9420.8113     2207.654    1904.9951   -698.61304   -46.577878   -440.34524    207.65755   -3615.4088 
 1559000    266.70485   -4225.2315   -3768.1085   -4225.2315            0    315.87529    18.097755    23.711015    22.184511    9519.7319   -264.45755   -84.339531     1296.423    405.31942   -75.017917   -15.684094   -3724.2538 
 1560000    255.35276   -4252.4687   -3814.8028   -4252.4687            0    332.01987    17.952857    23.758702    22.180375    9460.7414    88.371956    1097.7418   -190.05411   -824.99936    195.93074   -36.192012   -3768.9923 
 1561000    237.14618   -4182.2356   -3775.7752   -4182.2356            0   -187.68521    18.348137    23.445177    22.140037    9524.0971   -168.73589    672.39494   -1066.7147   -758.30898   -618.01802   -112.25231   -3801.8445 
 1562000    257.45194   -4204.0851   -3762.8213   -4204.0851            0    1020.3527    18.131743    23.489922     22.15259     9435.081    575.60711    1056.0452    1429.4059   -1052.4915   -497.41746    595.19905   -3622.4198 
 1563000    249.34833   -4163.8247   -3736.4502   -4163.8247            0    183.43942    18.148503     23.50122    22.346041    9530.8538   -547.85561    665.36884    432.80503   -321.53605   -1143.4559    459.83809   -3710.9526 
 1564000     268.7611   -4232.7693    -3772.122   -4232.7693            0    1140.8132    18.340365    23.449177    22.040901    9479.0524    2004.4596    1464.1565    -46.17635    780.70982   -364.12896    363.66252   -3614.4134 
 1565000    249.19309   -4240.5677   -3813.4593   -4240.5677            0    620.39473    18.096058    23.410443    22.313739    9452.9196    1355.3955    36.834959    468.95371   -285.69807     41.06721   -812.07678   -3727.9309 
 1566000    270.50797   -4211.1246   -3747.4832   -4211.1246            0    273.19214    18.067662    23.762054    22.092188    9484.7233    324.70077    80.427755     414.4479    451.18597   -337.03257   -297.60302   -3709.6939 
 1567000    251.79956   -4246.4574   -3814.8816   -4246.4574            0    1090.5116     18.00725     23.85593        21.95    9429.2745    1564.3898   -1118.1877    2825.3327   -585.57292   -476.23285    388.74228   -3664.9185 
 1568000    263.96003   -4237.9373   -3785.5189   -4237.9373            0    566.51513    18.129782    23.314562    22.306863    9428.8416     75.09102    1184.1664    440.28792     515.4249   -5.7936213   -227.29494   -3707.6174 
 1569000    245.08405   -4241.8912   -3821.8255   -4241.8912            0     1167.426      18.3609    23.393777    21.887398    9401.3115    1826.3517    1004.0305    671.89585   -120.81249   -439.72003   -586.03644   -3661.7615 
 1570000    269.70448   -4233.9187   -3771.6545   -4233.9187            0    434.79476    18.142508    23.526407    22.054624    9413.5319   -452.04168    171.99097     1584.435    813.97023    79.841167   -540.40311   -3711.9629 
 1571000    254.46742   -4215.6108   -3779.4623   -4215.6108            0    139.85522    18.183523    23.571818    22.118952    9480.5966    372.81754   -271.38702    318.13514    414.01929    238.49458    333.45347   -3760.1253 
 1572000    273.27878   -4177.6412   -3709.2507   -4177.6412            0    661.96264    17.899923    23.892915    22.204093    9496.2761    705.40486    562.57054    717.91253   -13.036465    588.58822    303.05811   -3617.5733 
 1573000    249.99865   -4249.6002    -3821.111   -4249.6002            0    1358.2314    17.965809    23.697657    22.070282    9396.3689    1477.3524      168.493    2428.8488    1176.1376    352.19862   -6.3120268   -3634.9839 
 1574000    269.53283   -4253.1419   -3791.1719   -4253.1419            0    598.20158    18.215128    23.489167    22.072256     9443.795   -278.01725   -93.508774    2166.1308   -892.98451    273.11034    76.698714   -3708.7828 
 1575000    261.25632   -4233.1089   -3785.3245   -4233.1089            0    1703.8214    18.211671     23.01866    22.443199    9408.3746    2743.7348    1983.9969    383.73252   -14.652241    934.07038    232.21812   -3551.5406 
 1576000    251.47267   -4211.6052   -3780.5896   -4211.6052            0   -184.48799    18.192452    23.549472    22.150985    9489.9834    1547.3088   -617.57051   -1483.2022    983.44282    -461.7685    187.06498   -3806.1231 
 1577000    269.16027   -4258.5125    -3797.181   -4258.5125            0   -145.69764    18.105172    23.762949    22.037987    9481.4532   -1626.7974     428.2149    761.48961   -479.21783   -248.24812    305.23388   -3817.3276 
 1578000     283.7901   -4205.7739   -3719.3673   -4205.7739            0    920.07285    17.652471    23.732224    22.316903    9349.2735    2538.1757    42.881871    179.16093    334.78568    269.75292   -65.746381   -3593.9158 
 1579000    261.14315   -4241.3033   -3793.7129   -4241.3033            0    1085.7319    18.023634    23.712758    21.982054    9394.9115    2177.2021    323.01266    756.98106    842.73447   -875.43414   -53.111683   -3644.9511 
 1580000    272.46876   -4203.4065   -3736.4044   -4203.4065            0    104.21504    18.164123      23.4978    22.190617    9471.3307   -168.31455    141.97304    338.98662    388.71257    130.01827    275.72294   -3722.0092 
 1581000    267.33748   -4222.9782   -3764.7709   -4222.9782            0    653.16077    18.171736    23.204218    22.171918    9349.0314      210.653      660.737    1088.0923    64.351079     375.7138     434.0177    -3675.715 
 1582000    256.71613   -4235.2656   -3795.2629   -4235.2656            0    2101.3908    18.192643    23.524334    21.930862    9385.7469    1959.0231    2329.7792    2015.3702   -424.01501   -483.45279   -968.86086   -3507.6214 
 1583000    261.18588   -4245.5773   -3797.9137   -4245.5773            0    1195.7836    17.955785    23.700314    22.039253    9378.9748    2137.1008    227.34619    1222.9039     180.3862    -262.6792      -893.91   -3634.3511 
 1584000     270.2346     -4193.46   -3730.2872     -4193.46            0    962.01263    17.937273    23.589419    22.393076    9475.1789    1917.4965   -85.833241    1054.3746    -105.2293    140.92436    277.84349   -3597.3507 
 1585000    265.36107   -4230.0997   -3775.2799   -4230.0997            0     907.2313    18.269167     23.65743    21.698806    9378.2573     617.5522    120.11341    1984.0283    923.83364    342.22741    220.95877   -3651.1958 
 1586000     260.2322   -4224.1641    -3778.135   -4224.1641            0     815.2611    18.156414    23.368826    22.261342    9445.3556    1024.5892    1031.0523     390.1418    -1338.818   -46.086116    24.357059   -3665.8322 
 1587000    260.74152   -4243.4393   -3796.5373   -4243.4393            0   -96.474193    18.136379    23.419467     22.22082     9438.167    38.792475   -687.45327    359.23822    742.56717    300.05517    365.05597   -3809.8166 
 1588000    265.41612   -4193.7084   -3738.7943   -4193.7084            0    942.31258    18.149133    23.661792    21.971224    9435.3451     1876.901   -113.17777    1063.2145   -992.87124    29.246368    268.58808   -3609.1275 
 1589000    243.06158   -4231.2428   -3814.6435   -4231.2428            0   -267.32641    17.884678    23.958778    22.217246    9519.9794   -333.62236   -2013.2901    1544.9332   -124.71354    42.390075    25.138481   -3851.7589 
 1590000    263.04925   -4224.5304    -3773.673   -4224.5304            0    1185.9924    18.128406    23.546081    22.067189    9419.4439    947.14983    2037.8594    572.96795    354.11294     251.4355   -699.82898   -3610.7498 
 1591000    246.36598   -4228.7126   -3806.4497   -4228.7126            0    769.37268    18.439706    23.182543    22.095424    9445.3359    340.29386    3107.2528   -1139.4287   -782.72038    1291.5081    825.05432   -3700.4682 
 1592000     288.5997   -4253.4428   -3758.7928   -4253.4428            0    926.41771    18.177323    23.410496    22.149914    9425.6773    1068.3574    1229.2237    481.67204   -9.2433279    281.64602   -469.61295   -3631.4438 
 1593000     260.4908   -4250.2174   -3803.7451   -4250.2174            0    1129.5142    17.836089    23.830219    22.073245     9381.966    135.25835   -145.77122    3399.0555   -114.86148   -124.19238    111.33658   -3649.1978 
 1594000    258.85927   -4232.4499    -3788.774   -4232.4499            0    1269.2632    17.964674    23.538304    22.264694    9414.8029    2414.6172    2247.3271    -854.1546    26.576967    215.16426   -484.66208   -3614.4975 
 1595000    262.07665   -4247.9667   -3798.7763   -4247.9667            0   -743.05048    18.386883    23.428723    22.018684    9485.2348   -306.99452   -784.75105   -1137.4059    1296.3011    -187.4744    285.44587   -3901.5643 
 1596000    256.50325   -4204.6815   -3765.0437   -4204.6815            0    884.13507    18.158639    23.431058    22.174609    9434.7668    1256.0078    1698.1774   -301.77993    662.47282    181.28001   -181.53765   -3643.3899 
 1597000    269.67878   -4235.4244   -3773.2042   -4235.4244            0    423.95692    18.026861     23.46201      22.3656    9459.4504    2437.4712    386.50699   -1552.1075    741.73219    258.79889    806.73954   -3714.7167 
 1598000    259.94822   -4255.4523   -3809.9099   -4255.4523            0   -596.35547    18.153851    23.832802     21.98546    9512.1664    -567.9501   -2407.2883     1186.172    468.87226    923.75069   -448.00654   -3892.6395 
 1599000    253.35369    -4204.211   -3769.9715    -4204.211            0    1319.7248    17.907783     23.64233    22.156789    9380.7791    2520.1903    551.66054     887.3235   -318.61189   -82.030456   -504.02969   -3589.4212 
 1600000    264.96701   -4254.9191   -3800.7747   -4254.9191            0      1953.47    18.037669    23.482355    22.205186    9405.3829    1860.5246     2487.814    1512.0715   -1630.1244     499.2083    -32.60728   -3532.8214 
 1601000    251.09328   -4241.0832   -3810.7179   -4241.0832            0    620.59186    18.263298     23.48291    22.018867    9443.3505    279.71117    571.39266    1010.6718   -412.59254    255.88383   -393.21434    -3725.249 
 1602000    269.31343   -4221.0093   -3759.4153   -4221.0093            0   -34.927117    18.270388    23.162092    22.369115    9466.1714    205.01028   -46.511728    -263.2799    -863.9407    96.490153    33.062336   -3764.2372 
 1603000    273.35602    -4228.584   -3760.0611    -4228.584            0    1221.8927    18.072935    23.568923    22.044727    9390.1631    1682.7824    2274.5471    -291.6513    688.40844    592.73359   -129.24555   -3592.7279 
 1604000    262.98586   -4226.2182   -3775.4694   -4226.2182            0   -218.48296    18.012545    23.755649    22.151591    9478.6589    206.36101   -107.67142   -754.13848    130.01242    107.95794    491.21677   -3805.6718 
 1605000    279.26268   -4234.7353   -3756.0886   -4234.7353            0    1325.5085    17.931959    23.736834    22.080273    9398.4226     1620.112     654.4175    1701.9962    64.879669    171.54976   -163.30073    -3574.406 
 1606000    251.36081   -4238.6976   -3807.8738   -4238.6976            0    428.29111    18.161946    23.410485    22.325276    9492.2603   -494.69779    1008.5615    771.00966    263.30221    466.28207   -872.09705   -3748.5833 
 1607000    241.81723    -4210.933   -3796.4666    -4210.933            0    359.54403    18.346689    23.218956    22.152974    9436.9667    1094.0253   -794.63536    779.24213   -965.24016    180.90736    396.05023   -3746.9831 
 1608000    269.30408   -4236.0797   -3774.5017   -4236.0797            0    1791.4202    18.253903    23.381999    22.045742    9409.4036    1040.4503    2431.5103    1902.3001    273.91847    302.34568    318.92992   -3528.6714 
 1609000    265.35617   -4238.3501   -3783.5387   -4238.3501            0    134.41938    18.019484    23.531561     22.39967    9498.0556   -65.687626   -96.050841     564.9966    -148.9724    730.15761     958.9497    -3764.919 
 1610000    266.89365   -4246.9191   -3789.4725   -4246.9191            0    448.39069    18.069212    23.675845    22.130138    9467.3582    340.86132    -198.3143    1202.6251   -1287.5636   -122.40862    940.02717   -3727.5624 
 1611000    268.44731   -4228.4049   -3768.2954   -4228.4049            0    25.124593    17.940088    23.525006    22.471362    9483.8286    1295.0182     40.56242   -1260.2069    403.85207    312.65144   -228.24701   -3764.8204 
 1612000    270.14688   -4238.2063   -3775.1838   -4238.2063            0     373.7388    18.228394     23.43218    21.994436    9394.5052    -292.9866     -29.1254    1443.3284   -133.72539    836.58085    602.31191   -3723.9781 
 1613000    251.21151   -4219.8112   -3789.2433   -4219.8112            0    538.76548    18.205225    23.530819    22.068933    9453.9745    200.94024   -950.42364    2365.7798    576.11981   -1462.8403   -148.75189   -3714.9602 
 1614000    277.91965   -4212.6839   -3736.3391   -4212.6839            0    997.11702    18.023189    23.366184    22.413055    9438.8805    1454.2217    718.47157    818.65782    119.50064   -208.37739    160.61115   -3599.0796 
 1615000    251.98313   -4187.1197   -3755.2293   -4187.1197            0    796.82889    18.199483    23.698736    21.976544    9478.5879    295.37248    426.15168    1668.9625    -699.6214   -323.48749    743.50248   -3645.0792 
 1616000    254.90073    -4236.003   -3799.1118    -4236.003            0     767.0811    18.066578    23.623444    22.140784    9449.5712    1883.8456    346.27268    71.125036   -501.26486   -45.018257   -222.42381   -3693.3986 
 1617000    252.74369   -4249.9747   -3816.7806   -4249.9747            0    597.95643    18.079762    23.527433      22.1215     9409.831   -47.448498     1502.339     338.9788     231.9649   -1011.4787   -200.82781   -3734.7214 
 1618000    255.14316   -4237.9096   -3800.6029   -4237.9096            0    819.25717    18.157695    23.629427    21.893219    9393.4152    999.18926    1925.7102   -467.12799   -55.068486   -323.24993    190.35127   -3688.3702 
 1619000     262.9722   -4217.1124   -3766.3871   -4217.1124            0    755.67629    18.024424    23.337356     22.46332    9449.0252   -606.83383    1611.8815    1261.9812    255.32793    211.35117    417.31778   -3662.2516 
 1620000    264.11069   -4245.6058   -3792.9291   -4245.6058            0    715.63331    18.174936    23.516299    22.005655    9405.3761    615.97428    1311.1789    219.74677    174.81558    445.68855   -239.87499   -3694.7673 
 1621000    255.16972   -4230.5532   -3793.2011   -4230.5532            0   -396.42828    18.060668    23.580644    22.195345    9452.6017    872.03838   -884.30617   -1177.0171   -274.35729   -736.74422    711.12124   -3847.8513 
 1622000    279.44866   -4229.8807   -3750.9153   -4229.8807            0   -118.10718     18.03147    23.557256    22.305082    9474.5735    369.80808   -528.31324   -195.81639   -64.714667     657.5346    569.47063   -3767.2349 
 1623000    248.59573    -4239.699   -3813.6144    -4239.699            0    872.88296    18.219685    23.605157    21.824575    9386.2811    112.09531   -675.65261    3182.2062    12.159532   -203.66759   -27.855012   -3694.1261 
 1624000    266.44221   -4212.9671   -3756.2942   -4212.9671            0    1358.7296    18.073181    23.362082    22.313059    9421.1792    616.48957    1799.4165    1660.2828     915.4326    371.94424   -267.77352   -3569.6072 
 1625000    275.08486    -4209.179    -3737.693    -4209.179            0     716.8895    18.242479    23.447012    22.171249    9483.3441    645.94628    593.87107    910.85114   -64.078151   -206.76108   -66.509181   -3638.5437 
 1626000     266.0813   -4228.8779   -3772.8237   -4228.8779            0    2105.7969    18.102538     23.43715    22.220634     9427.591    1480.9875     2023.027    2813.3762    223.12686   -614.40541     1337.654    -3483.294 
 1627000    265.25747   -4224.4379   -3769.7957   -4224.4379            0     501.5271    18.051423    23.471565    22.334678    9463.0946    525.23494    1302.9028    -323.5564   -152.38913    163.77631    136.61841   -3700.5802 
 1628000    257.37581   -4221.7283   -3780.5949   -4221.7283            0   -492.57458    18.169878    23.672894    22.066468    9491.5289    83.076517   -1422.5173   -138.28294   -1141.1183   -225.26544    99.063175   -3848.7792 
 1629000    255.45473   -4184.8521   -3747.0114   -4184.8521            0    1266.5918    18.052833    23.339215    22.383686    9431.1184    1296.4821    1869.0395    634.25386   -200.59909   -148.85939    747.96111   -3572.8004 
 1630000    256.74739    -4247.056   -3806.9997    -4247.056            0    1246.6979    18.194576    23.505563    22.098608    9450.9949    815.68902    1127.6418    1796.7628    312.27181   -311.75256    642.83962   -3635.1636 
 1631000    245.02001   -4237.8284   -3817.8725   -4237.8284            0   -1078.8947    18.285657    23.717921    22.002085    9542.2553   -2130.5824   -2041.8339    935.73224   -508.58568    900.92216   -575.27193   -3968.0158 
 1632000    269.82616   -4208.5321   -3746.0593   -4208.5321            0    1123.1314     18.03427    23.421189    22.363293    9445.8982    1605.0698    2149.6188   -385.29447      475.814   -305.45268   -57.439486   -3591.3381 
 1633000    252.34111   -4226.6864   -3794.1824   -4226.6864            0   -732.33886    18.276705    23.735304     21.96208    9527.2194   -1367.8743   -486.43095   -342.71132   -527.09282    145.44633    895.15793    -3895.937 
 1634000      254.048   -4251.3146    -3815.885   -4251.3146            0    236.39717    18.114918    23.534391    22.130032    9434.5537    323.01628    1096.6432   -710.46792    91.403302    151.59582   -130.94237   -3783.3584 
 1635000    248.21005   -4244.2254   -3818.8018   -4244.2254            0    41.642167    18.020307    23.526094    22.346767    9473.8545    564.26774    359.85226    -799.1935   -866.59031    104.10407    736.95198   -3813.0483 
 1636000    249.92241   -4199.9838   -3771.6253   -4199.9838            0     780.3943    18.117701    23.729665    22.036637    9474.1444   -241.17197    1492.8336    1089.5213    122.22029   -499.52876    461.50086   -3663.7977 
 1637000     264.1296   -4251.5849   -3798.8758   -4251.5849            0    568.59723    17.945751    23.514577    22.361617     9436.306    1832.2693     847.1798   -973.65746    449.08424   -68.304443   -382.14395   -3720.6261 
 1638000    268.96705   -4241.0014   -3780.0011   -4241.0014            0     416.6701    18.270726    23.371903    22.207302    9482.9986   -18.540511    137.56172    1130.9891    27.561132   -415.79748    148.01561   -3722.3757 
 1639000    255.53897   -4269.0866   -3831.1016   -4269.0866            0    756.90457    18.238401    23.579723    21.875204    9407.5722    595.94441    1502.2729    172.49636   -433.20698   -182.35145    17.765863   -3727.2544 
 1640000    264.87175   -4235.1627   -3781.1816   -4235.1627            0     1081.756    18.103264    23.541619     22.26694     9489.728    2180.0372    875.04752    190.18328   -140.23007    483.59216   -557.80567   -3631.4687 
 1641000    261.08521   -4255.7949   -3808.3038   -4255.7949            0    882.03872    17.990126    23.584059    22.053521    9356.8722    6.2523306     825.1917    1814.6721   -1169.0777   -84.183844    675.86574   -3687.9404 
 1642000    260.44623   -4251.2489   -3804.8529   -4251.2489            0    408.77437     18.19958    23.670533    21.939753    9451.5087   -851.55869    1745.3487     332.5331   -1198.9186   -1099.3516    40.135848   -3748.5073 
 1643000    260.58652   -4243.2952   -3796.6588   -4243.2952            0    1460.2367    18.086596    23.444499    22.320388    9464.5406    1475.0964     1282.888    1622.7258   -1199.0088   -233.43349    19.248288   -3595.1014 
 1644000    263.74484   -4241.4711   -3789.4215   -4241.4711            0    977.30843    18.238938    23.405023    22.077047    9424.3111     436.5911    2123.4699    371.86423   -830.54579   -112.39565    668.91357   -3655.0964 
 1645000    266.91054   -4209.6714   -3752.1958   -4209.6714            0    1704.4058    18.146709    23.497148    21.988472    9375.7944    3380.8084     2529.608   -797.19888    1.4654117    729.05109    -327.0711   -3519.1416 
 1646000     259.7886   -4240.2347   -3794.9659   -4240.2347            0    861.23849     17.82227    23.501048    22.420157    9390.5038    794.72814    1574.8973    214.09002    1099.2556   -44.681383    29.349871   -3677.0186 
 1647000    247.69624   -4239.5912   -3815.0483   -4239.5912            0    783.62448    18.139158    23.585757    22.104252    9456.7692    532.88567    1327.2664    490.72142    593.03102   -484.52799   -429.11785   -3706.9729 
 1648000    252.76751    -4248.447   -3815.2121    -4248.447            0    2624.9998    18.094653    23.350705     22.01734    9302.8305    2881.5846    3036.4168     1956.998    80.591237    345.58165    393.37164   -3459.0725 
 1649000     277.4902   -4227.2778   -3751.6691   -4227.2778            0    825.48525    18.147464    23.486284    22.230625     9475.059   -648.41833    1891.5046    1233.3694    231.82238   -236.49035    233.31656   -3637.6002 
 1650000    258.92752   -4237.9932   -3794.2003   -4237.9932            0    767.03117     18.14444    23.412055    22.227728    9442.3081    677.28847     922.6931    701.11194   -1140.5405   -64.516847    596.97938   -3688.5752 
 1651000    264.80868   -4207.6189   -3753.7459   -4207.6189            0    1453.1858     18.36018    23.585512    21.741318    9414.7355    968.80908    685.99647    2704.7517    425.58835   -409.59973    502.07317   -3554.2173 
 1652000    251.16686   -4243.2539   -3812.7626   -4243.2539            0    141.91399    18.109279    23.704438    22.148542    9507.7106    231.57493   -64.814471    258.98152   -1722.0023   -212.85197    924.12049   -3793.0847 
 1653000    267.42012   -4225.1444   -3766.7954   -4225.1444            0    1325.8805     17.80271    23.690926    22.387434    9442.1843     2420.473     1736.832   -179.66363    712.88646    275.14751   -69.266582   -3584.2156 
 1654000    260.93356   -4252.5371   -3805.3059   -4252.5371            0    566.15639    18.258002    23.483485    21.989227    9428.1341    -331.9387    1487.3898    543.01809    11.387509   -560.09509     137.3482   -3727.4596 
 1655000     260.5465   -4237.9906   -3791.4228   -4237.9906            0    711.73792    18.414326     23.12948    22.125914    9423.7319   -985.18572     1270.603    1849.7965   -248.29643    172.94587    748.72308   -3693.6048 
 1656000    242.91248    -4246.729   -3830.3853    -4246.729            0   -164.57213    18.146082    23.487876    22.308964    9508.3689    130.40669    1158.8352   -1782.9583   -358.89003   -40.209843   -16.976917   -3853.2065 
 1657000    254.67213   -4234.8742   -3798.3749   -4234.8742            0     925.5845    18.071853    23.845439    21.879668    9428.6333    1721.2152   -49.571704    1105.1101    1077.3007    695.72381   -1063.8282   -3671.1006 
 1658000    266.77829   -4250.5121   -3793.2632   -4250.5121            0    1034.3709    17.913536    23.491887    22.291204    9380.6464    1787.2704    471.18923    844.65312   -96.948226    364.83927   -152.73127   -3651.7539 
 1659000    256.83377   -4230.6695   -3790.4652   -4230.6695            0   -129.91127     18.24638    23.525696     22.11072    9491.2206    -626.0509    787.10106   -550.78397    660.93424   -279.30692    -464.2134   -3808.4474 
 1660000    281.85545   -4231.6415   -3748.5509   -4231.6415            0    2045.7782    18.258969    23.407545    22.010486    9407.2295    559.53341    2940.4554    2637.3457   -1301.4989   -644.74887    205.14676   -3467.8808 
 1661000    243.06759   -4231.3201   -3814.7106   -4231.3201            0    329.93165    18.294914    23.247313    22.165301    9427.0711    441.53298     1201.907   -653.64499   -680.14648      256.601    674.34319   -3769.3502 
 1662000    256.93594   -4233.8268   -3793.4474   -4233.8268            0    473.58581    18.054626    23.693512    22.090695    9449.9021    -737.1025   -17.367542    2175.2275    -175.8441   -285.67135    381.12589   -3728.1791 
 1663000    259.08652   -4217.9474   -3773.8819   -4217.9474            0    1776.7732    17.774996    23.777115    22.222899    9392.2444    3476.9658    713.51224    1139.8416   -517.86988   -529.23038   -176.76314   -3530.5062 
 1664000    250.80538   -4228.1432   -3798.2714   -4228.1432            0    802.45441    18.115217    23.570646    22.139758    9453.3967    1813.6504    427.97876    165.73408    437.54755   -632.93133    378.84004   -3687.6385 
 1665000    239.77299   -4195.9385   -3784.9758   -4195.9385            0    1081.9769    18.439146    23.249958    22.067955     9460.739   -1120.5659     954.7691    3411.7274    131.19183    933.90239    403.26085   -3635.6898 
 1666000     256.4372   -4204.9851   -3765.4605   -4204.9851            0    -817.6489    18.215863    23.429292    22.278044    9507.9303   -905.34561    88.924203   -1636.5253   -458.97348    32.068415    864.14604   -3878.8385 
 1667000    261.02231   -4264.8753    -3817.492   -4264.8753            0    806.31462    18.096461    23.568337    22.078806    9416.6877   -179.22275    306.48685    2291.6798   -111.64698    399.18549   -299.01249   -3706.7586 
 1668000    274.54944   -4211.8728   -3741.3045   -4211.8728            0    1066.0307    18.006794    23.678381    22.131447    9436.2236   -62.022894     1789.342    1470.7729    182.93846   -160.26534   -7.7276854   -3594.5999 
 1669000    273.91413   -4216.8963   -3747.4168   -4216.8963            0    2346.8375    17.833578    23.625615    22.256245    9377.2071     3705.981    2608.5064    726.02499   -910.11977    499.75296     8.744151   -3426.4705 
 1670000    262.41832   -4232.5452   -3782.7691   -4232.5452            0    445.55745    18.215666    23.551818     22.14696    9501.3126    466.16194   -126.62745    997.13786      220.548    -60.90215    502.39188   -3721.0296 
 1671000    257.75393   -4222.3016   -3780.5202   -4222.3016            0    729.77198    18.313412    23.236022    22.168117    9433.2175   -687.31007     1415.966      1460.66    253.60753    532.63267    -361.6862   -3680.1227 
 1672000    269.94223   -4251.9416   -3789.2699   -4251.9416            0    237.97267    18.142126    23.383947    22.302339    9461.4219     322.2855    703.31826   -311.68575    113.67277   -667.06264    993.70662   -3756.4332 
 1673000    269.05519   -4255.4173   -3794.2659   -4255.4173            0    585.14211    18.135532    23.542463    22.078163     9426.384    893.53731    233.43008    628.45894   -1081.5167    461.94241   -231.73457    -3713.824 
 1674000      253.527   -4238.3825    -3803.846   -4238.3825            0   -261.88523    17.954774    23.759304    22.261654    9496.6643   -242.64423    881.05353    -1424.065   -592.36033   -224.00818    38.953101   -3840.1168 
 1675000    269.18678   -4229.8915   -3768.5146   -4229.8915            0    1213.3315    17.964861    23.757878    22.031281    9403.1047    1455.1284   -244.33455    2429.2007    249.51908    64.136736   -605.13267   -3602.1248 
 1676000    247.30508   -4218.2816   -3794.4092   -4218.2816            0    874.52268    18.077184    23.451258    22.176152    9401.1965    28.063279    2231.3653    364.13943    240.26698    168.72328    754.01588   -3674.5062 
 1677000    268.45757   -4216.2866   -3756.1595   -4216.2866            0    1664.5379    18.210442    23.409053    22.121037    9429.9591    2500.9644    478.80459    2013.8446   -864.75074    706.48791    86.598707   -3527.2418 
 1678000    275.14304    -4229.391   -3757.8053    -4229.391            0   -472.96596    18.491232    23.234731    22.296002    9579.2273   -198.10014    9.9970897   -1230.7948   -512.22255    7.3090495    888.65816   -3823.8801 
 1679000    241.09792   -4195.4829   -3782.2494   -4195.4829            0    630.38487    18.093763    23.595417    22.211838    9482.8973     1231.031   -747.80284    1407.9264     460.9941   -287.42676    844.89112   -3695.0682 
 1680000    256.13034   -4224.5234   -3785.5247   -4224.5234            0     238.4154    17.916103    23.938423    21.947621    9412.9674     794.3174   -786.97316    707.90197    848.04282    328.60737    167.35598   -3752.7954 
 1681000    275.18971    -4245.087   -3773.4212    -4245.087            0    1788.1301    18.004255    23.550951    22.117615     9378.252    1977.8762    1611.0422    1775.4717     441.4916    60.908015    270.25359   -3528.8548 
 1682000    271.13308   -4207.8855   -3743.1727   -4207.8855            0    1073.7232    18.222941    23.400477    22.085029    9417.6199    1293.2055    435.22524     1492.739   -363.59254    -274.2386    190.30123   -3595.7007 
 1683000    250.41469   -4225.3667   -3796.1644   -4225.3667            0    709.59738    18.350915    23.401585    21.972799    9436.0093   -233.13127    1639.8953    722.02814    12.586298   -351.40843    201.66581   -3698.5135 
 1684000    259.40911   -4247.1178   -3802.4995   -4247.1178            0    2282.1328    18.034438    23.350041    22.200667    9348.8092    2532.4229    3176.2673    1137.7081   -148.03189    -709.0712   -50.758949   -3491.3471 
 1685000     264.1704   -4205.6141   -3752.8351   -4205.6141            0    1460.9953    18.037414    23.531525    22.174691    9412.0002    1825.0823    1090.5757     1467.328   -556.79709    531.70397   -88.368677   -3552.2925 
 1686000    263.36942   -4211.6049   -3760.1988   -4211.6049            0   -417.84104     18.15181     23.80463    22.059601    9531.8904   -611.09283   -924.02908    281.59879    806.97159    265.95091    438.64008    -3818.284 
 1687000      261.426   -4239.8195   -3791.7443   -4239.8195            0    1006.4003    17.945821    23.553566    22.290987    9422.1341    998.84216   -645.06032    2665.4191    155.41575    163.26777   -135.82041   -3653.4527 
 1688000    288.24979   -4244.6923    -3750.642   -4244.6923            0   -84.033047    18.150464    23.386299    22.276438    9455.7281    -966.3476    320.96265     393.2858    317.05711   -120.08473   -1306.2911   -3762.2303 
 1689000    261.97099   -4259.0197   -3810.0104   -4259.0197            0    1092.0861    18.348089    23.327562    21.944196    9392.4712   -1215.9976    1693.0593    2799.1966   -6.6135193   -297.24878   -600.60848   -3660.4169 
 1690000    262.13372   -4187.9488   -3738.6605   -4187.9488            0    999.09664    18.206791    23.457266     22.25411    9504.3197    975.77981    1609.4379    412.07216   -393.72553    368.74326    773.67675    -3600.175 
 1691000      264.193   -4217.3955   -3764.5777   -4217.3955            0   -532.70967    17.999958    23.827472    22.208485    9525.0746   -1387.5158   -692.58324    481.97006    1334.7029   -626.62247    818.22183   -3838.5783 
 1692000    264.23448   -4221.1555   -3768.2666   -4221.1555            0    918.66053    18.026283    23.630374     22.15509    9437.3551     1215.319    476.97775    1063.6848       1126.7    361.39151    904.09363   -3641.8276 
 1693000    258.39523   -4215.1246   -3772.2441   -4215.1246            0    483.73537    17.918249    23.589805      22.2316    9397.0301    1037.5876    33.144078    380.47447   -897.31887    369.60553    77.360873     -3705.95 
 1694000    266.58626   -4206.9711   -3750.0514   -4206.9711            0    -455.4942    18.231986    23.487724    22.092922    9460.8046     1253.351   -1261.9107   -1357.9229   -1270.1781    446.80317       105.46   -3812.8987 
 1695000    258.90854   -4221.3124    -3777.552   -4221.3124            0    1003.1376    18.462992    23.165225    21.999182    9409.0361   -2662.1145     3162.702    2508.8251   -654.27834    196.32447    415.84361   -3639.9003 
 1696000    258.10715    -4219.729   -3777.3422    -4219.729            0   -105.46586    18.140899    23.480455    22.178298    9446.9914   -799.68954    -135.5268    618.81878   -611.08131   -328.48655    602.90877   -3791.8727 
 1697000    254.07099   -4217.1607   -3781.6917   -4217.1607            0    666.03248    17.922584    23.657521    22.260052    9438.3488    2303.6662    127.45276   -433.02152   -33.623427     211.6231    696.02963   -3690.0132 
 1698000    258.19308   -4209.2525   -3766.7184   -4209.2525            0    2400.7405    17.939548    23.591897    22.137055     9369.021    2575.1529    1135.7271    3491.3414    104.76779    258.92587    -289.9024   -3438.6871 
 1699000    269.42636   -4218.8546    -3757.067   -4218.8546            0     874.3633     18.27853    23.606957     21.79103    9402.8394   -1172.2725    445.55237      3349.81    1013.2527    641.23023   -57.508536   -3637.1649 
 1700000     252.3344   -4209.0567   -3776.5642   -4209.0567            0    225.82262    18.112279     23.38693    22.202149    9404.6214    626.90618     788.9692   -738.40753    1157.3302     70.28438   -509.36954   -3745.5911 
 1701000    252.03892   -4207.0082   -3775.0221   -4207.0082            0   -657.01029    18.190902    23.451232    22.339329    9529.9367    -351.8549   -602.47278   -1016.7032    626.84477   -1162.4844    883.04606   -3866.3362 
 1702000    256.81004    -4206.703   -3766.5394    -4206.703            0   -1380.5061    18.427363    23.515739    21.988596    9528.3859   -1269.2006   -1309.4761   -1562.8415    1222.7297    -548.0219   -490.99531   -3958.3769 
 1703000    262.54386   -4253.5958   -3803.6046   -4253.5958            0    272.13484    18.009511    23.612488    22.191564    9436.9484    1035.5178   -781.22792    562.11466     228.6176   -220.73808    948.49407   -3766.1512 
 1704000    248.33619   -4225.5148   -3799.8751   -4225.5148            0    1649.5277     17.96807    23.794182    21.951553    9385.0686    1489.7609    2018.3865    1440.4357   -297.96855    539.79868    141.57862   -3574.1016 
 1705000    259.67082   -4257.7973   -3812.7304   -4257.7973            0   -630.94432    18.247854      23.6203    22.058427    9507.6182   -989.00604   -299.64916   -604.17777   -268.88184    138.80928    1051.2661   -3900.2164 
 1706000    250.37417   -4232.7124   -3803.5797   -4232.7124            0    217.90035    18.151451     23.47384    22.257589    9483.6081    259.75539    352.79373    41.151934    298.10642   -368.03755   -50.555707   -3773.4421 
 1707000    259.06718   -4229.3297   -3785.2975   -4229.3297            0    773.65729    18.185059    23.626657     21.99116    9448.5488    1139.8433    258.50003    922.62854   -647.42824   -138.56335   -459.34579   -3678.6895 
 1708000    263.49699   -4212.4325   -3760.8077   -4212.4325            0    401.31736    17.869082    24.018458    21.976133    9431.8885    1140.6765   -420.69946    483.97502   -59.655661    1022.6361   -25.870714   -3705.6047 
 1709000    253.32044   -4219.6798   -3785.4973   -4219.6798            0    1057.0059    18.085007    23.568714    22.234901    9477.4122    751.56372    1517.9437    901.51027    383.95188    300.23243   -687.39063   -3639.3997 
 1710000    267.98989   -4212.3776   -3753.0521   -4212.3776            0     559.2818    18.425872    23.570835      21.7652    9452.9132    624.39341   -1464.7367    2518.1887   -261.23919   -441.90362      579.362    -3675.949 
 1711000    263.02633   -4242.4199   -3791.6018   -4242.4199            0    838.38877    18.242155    23.308701    22.142369     9414.956    576.77391    2046.2842   -107.89182   -76.192886   -267.25094    113.93821   -3676.4847 
 1712000    262.98046   -4230.1088   -3779.3693   -4230.1088            0    1617.8781    18.002031    23.493592    22.259351    9414.2002    2036.5917    3125.4129   -308.37044   -740.90152   -270.85076    -127.1304   -3557.2404 
 1713000      255.065   -4200.5795   -3763.4068   -4200.5795            0    886.93551    17.971651    23.872995    22.056676    9463.1332    700.92957    411.09798     1548.779   -1206.5504    469.75403   -436.58003   -3641.0008 
 1714000    257.11712   -4231.1758   -3790.4859   -4231.1758            0    1108.5897    17.984337    23.608144    22.162252    9409.5781    1004.8106    1861.1018    459.85649    475.32727    299.61995    402.51507   -3638.3552 
 1715000    243.35876   -4258.6164   -3841.5079   -4258.6164            0   -40.428164    18.206813    23.397713    22.116905    9421.7523   -575.75174    833.83868   -379.37143    -737.5869   -376.66823    1342.9764    -3847.063 
 1716000    253.26719     -4230.15   -3796.0587     -4230.15            0    2072.6246    18.360377    23.231548    22.085792     9420.473    1069.9344    3890.5966    1257.3427    510.77923    -986.6791   -1603.8852   -3511.3051 
 1717000    259.45567   -4256.2887   -3811.5906   -4256.2887            0    509.22739    18.062042     23.59827    22.201358    9462.9502    681.85224    1125.0526   -279.22267    98.886146      -409.62     225.1692   -3741.3134 
 1718000    263.83887   -4220.8701   -3768.6593   -4220.8701            0   -6.9507466    18.028037    23.623782    22.249524    9475.8591    641.72016   -15.428135   -647.14426    5.6421659    515.35158   -338.45357   -3769.6199 
 1719000    267.49931   -4221.3929   -3762.9083   -4221.3929            0    2005.1372    18.159605     23.51137    22.058286    9417.9443    2293.8377    866.39289    2855.1812    1168.0694   -15.786343    114.99433   -3487.5005 
 1720000    253.78073   -4241.1408   -3806.1693   -4241.1408            0    2370.5002    18.099344    23.400294    22.093848    9357.4071     2049.296    3460.4391    1601.7654   -723.95457   -395.58044    627.33828   -3482.6714 
 1721000    248.60953   -4209.6447   -3783.5364   -4209.6447            0    944.14287    18.027356    23.600336    22.205964    9447.5641    1086.8784   -417.28634    2162.8365     1035.196    129.35867    454.15414   -3653.4496 
 1722000    264.68479   -4259.9459   -3806.2853   -4259.9459            0    1431.3132     17.95194    23.660401    22.122313    9396.4549    3295.3868    74.944944    923.60788   -221.12122    363.89764    662.77504   -3610.1414 
 1723000     261.3762    -4237.589   -3789.5991    -4237.589            0     687.2571     18.14335    23.586748    22.081974     9449.818   -930.39126    1174.8119    1817.3506   -16.922419   -17.201275    123.44435   -3694.8841 
 1724000    257.37308   -4225.8084   -3784.6797   -4225.8084            0    598.79444    18.335368    23.330357    22.083718    9446.7671   -891.69121    1074.9415     1613.133    30.187999    -37.27105    880.49304    -3702.183 
 1725000    242.88271   -4217.9726   -3801.6799   -4217.9726            0    250.29869    18.288469    23.289471    22.208445     9459.216   -225.19712    1382.7647   -406.67153   -476.16493   -531.49344   -313.74536   -3767.1505 
 1726000    263.64007   -4227.4088   -3775.5387   -4227.4088            0     606.6139    18.076454    23.574611    22.045638    9394.6463    857.85114    -165.4896    1127.4801    142.45476    54.032073    1049.3404   -3692.4258 
 1727000    281.21724   -4196.5297    -3714.533   -4196.5297            0   -364.54222    18.064779    23.822381    22.222828    9563.5061    872.23219   -896.17956   -1069.6793   -240.20922   -301.31971    1055.7037   -3765.3772 
 1728000    267.72017   -4218.0575   -3759.1943   -4218.0575            0    998.30134    18.044772    23.537348     22.30633      9474.08    495.54272    1409.5114    1089.8499   -94.115676    539.70889    430.75512   -3621.2592 
 1729000    276.55806   -4243.6102   -3769.5991   -4243.6102            0    1281.1814    18.234362    23.384388    22.094322    9421.0056    917.53825    1173.6662    1752.3397   -1025.9821   -982.30537    118.67226   -3593.5703 
 1730000    276.34295   -4219.5598   -3745.9174   -4219.5598            0   -581.51344       18.345    23.573975    21.956618    9495.4598   -748.40647   -580.51304   -415.62082    997.45928   -700.37818   -532.94443   -3826.4463 
 1731000     264.8498   -4213.4603   -3759.5168   -4213.4603            0   -122.64445    18.020907    23.615284    22.359657    9515.5729    192.57554    372.80066   -933.30957    928.08694    665.67759    815.52276   -3776.5368 
 1732000    256.06264   -4217.7227   -3778.8401   -4217.7227            0    1107.4429     18.01954    23.713215    22.011635    9405.5981    1820.8115    673.45876    828.05845    977.34804   -146.14818   -364.95112    -3626.931 
 1733000     253.7245   -4225.2702    -3790.395   -4225.2702            0    1099.5597    18.199709    23.508798    22.050615     9434.428    1047.9077    2275.3323   -24.560938   -1543.0778   -384.41374   -39.006408    -3639.105 
 1734000    259.15783   -4199.7787    -3755.591   -4199.7787            0    2016.2399    18.057416     23.02437    22.535914    9369.5456    950.14499    3521.2427    1577.3319   -438.04258    1095.5979   -330.40428   -3480.0815 
 1735000    267.20927   -4258.1725   -3800.1849   -4258.1725            0      493.779    18.215926    23.568899     21.96558     9430.468   -284.98844    1292.1217    474.20377   -117.58209   -477.56334    84.135239   -3732.2737 
 1736000      259.582    -4226.909   -3781.9943    -4226.909            0    228.39962    18.160854     23.63042    22.033187    9455.5118    44.832642    893.79383   -253.42759    216.75791    583.55426    490.08116   -3750.4983 
 1737000    270.00204   -4246.6898   -3783.9155   -4246.6898            0    834.25061    17.999353    23.515312     22.18241    9388.9363    393.68954    57.005724    2052.0566   -1412.1128   -2.9039491    107.47817   -3669.6832 
 1738000    282.04314   -4250.5168   -3767.1045   -4250.5168            0    73.742229    18.115497    23.613001    22.172244    9484.4265   -32.080242    -162.1667    415.47363   -434.97068    279.88813   -8.3592237   -3756.9044 
 1739000    263.44706   -4222.7768   -3771.2376   -4222.7768            0   -581.66153    18.322383    23.464371    22.058927    9483.6443   -1194.2541   -263.14729   -287.58326    433.36327    144.82644   -614.07281   -3851.6868 
 1740000    258.34005   -4219.0719   -3776.2859   -4219.0719            0    980.18632    18.242599     23.17374    22.117481    9350.1487    935.07967   -154.01146    2159.4907    323.73029    454.30805   -387.79985   -3642.6254 
 1741000     240.9927   -4218.1361   -3805.0829   -4218.1361            0    645.38013     17.99901     23.53005    22.188236    9397.1087    924.09332    875.80565    136.24143     633.1932   -517.33286    76.038091   -3716.6354 
 1742000    258.09879   -4223.3602   -3780.9877   -4223.3602            0    553.08299    17.874234     23.95395    22.028568    9431.7193    1573.9859    528.23173   -442.96867   -488.93545   -49.180334   -374.02154   -3704.9101 
 1743000    266.30234    -4213.617   -3757.1839    -4213.617            0    1462.1675    18.091925    23.545521    22.181012    9448.7519    846.14873    1972.0269    1568.3268     191.3776    61.651551    224.28164   -3555.6967 
 1744000    269.83603   -4234.4669   -3771.9772   -4234.4669            0    277.00727    18.147142    23.573553    22.129157    9466.6898     559.9005   -864.68541    1135.8067   -943.91898    30.182942   -363.34887    -3733.733 
 1745000    274.04406    -4207.859   -3738.1568    -4207.859            0    2239.1775    18.100844    23.276011    22.160831    9336.7008    2452.1675    1598.1786    2667.1865   -900.44275    -235.1956   -278.46455   -3433.2565 
 1746000    262.61555    -4233.624     -3783.51    -4233.624            0    470.16112    18.194419    23.376824    22.166248      9427.92   -860.54255    2996.1083   -725.08234   -528.76411   -761.86168    -958.1588   -3718.8645 
 1747000    251.65696   -4219.6811   -3788.3497   -4219.6811            0    301.68218    18.365402    23.562918    22.036325    9536.0539    198.70915    439.30097    267.03641   -86.512027   -522.25108    439.15624   -3746.3937 
 1748000    262.22924   -4198.0854   -3748.6334   -4198.0854            0    242.66812    17.998494      23.8779    22.143272     9516.431    936.27472   -1583.8496    1375.5793   -525.11445   -37.466494    499.24314   -3714.9542 
 1749000    261.74837   -4245.7027    -3797.075   -4245.7027            0    445.42224    18.104745    23.714345    22.196375    9529.8396    381.62788    666.68819    287.95066    375.85239    487.96195    685.83289   -3735.1689 
 1750000    269.54276   -4201.6766   -3739.6896   -4201.6766            0   -205.85494    18.126043    23.624028    22.062625      9447.44   -795.46464   -622.07642    799.97623    707.34324    713.78135    535.36352   -3768.0525 
Loop time of 448.3 on 64 procs for 250000 steps with 864 atoms

Performance: 96.364 ns/day, 0.249 hours/ns, 557.662 timesteps/s
188.1% CPU use with 32 MPI tasks x 2 OpenMP threads

MPI task timing breakdown:
Section |  min time  |  avg time  |  max time  |%varavg| %total
---------------------------------------------------------------
Pair    | 16.753     | 24.507     | 33.52      |  99.1 |  5.47
Bond    | 0.69649    | 1.0228     | 1.5053     |  19.8 |  0.23
Kspace  | 217.12     | 226.97     | 233.67     |  35.2 | 50.63
Neigh   | 1.9632     | 2.0288     | 2.1203     |   3.1 |  0.45
Comm    | 72.889     | 78.185     | 81.68      |  24.7 | 17.44
Output  | 0.65767    | 0.65796    | 0.65955    |   0.0 |  0.15
Modify  | 80.136     | 83.155     | 87.445     |  21.3 | 18.55
Other   |            | 31.77      |            |       |  7.09

Nlocal:        27.0000 ave          39 max          17 min
Histogram: 4 5 3 2 4 5 1 1 3 4
Nghost:        2086.03 ave        2167 max        2008 min
Histogram: 16 0 0 0 0 0 0 0 2 14
Neighs:        6450.28 ave        9168 max        4135 min
Histogram: 5 4 3 1 5 2 4 1 3 4

Total # of neighbors = 206409
Ave neighs/atom = 238.89931
Ave special neighs/atom = 2.0000000
Neighbor list builds = 6470
Dangerous builds = 0

unfix		3
unfix		2
unfix		1

write_data	data.final.${pid} nocoeff
write_data	data.final.0 nocoeff
System init for write_data ...
PPPM initialization ...
  extracting TIP4P info from pair style
  using 12-bit tables for long-range coulomb (../kspace.cpp:340)
  G vector (1/distance) = 0.37123456
  grid = 24 27 25
  stencil order = 5
  estimated absolute RMS force accuracy = 0.0032095527
  estimated relative force accuracy = 9.6654725e-06
  using double precision FFTW3
  3d grid and FFT values/proc = 4410 672
Last active /omp style is kspace_style pppm/tip4p/omp

write_restart   restart.lmp.${pid}
write_restart   restart.lmp.0
System init for write_restart ...
PPPM initialization ...
  extracting TIP4P info from pair style
  using 12-bit tables for long-range coulomb (../kspace.cpp:340)
  G vector (1/distance) = 0.37123456
  grid = 24 27 25
  stencil order = 5
  estimated absolute RMS force accuracy = 0.0032095527
  estimated relative force accuracy = 9.6654725e-06
  using double precision FFTW3
  3d grid and FFT values/proc = 4410 672
Last active /omp style is kspace_style pppm/tip4p/omp
Total wall time: 0:07:28
