LAMMPS (30 Jul 2021)
Processor partition = 0
  using 2 OpenMP thread(s) per MPI task
using multi-threaded neighbor list subroutines
variable        pid world 0 1
variable        phase world IceIII Liquid

shell cd ${phase}
shell cd IceIII
include Restart.lmp
echo both
log log.lammps
#include		in.partitions
include		in.temp
variable        temperature equal 260.21
variable	tempDamp equal 100.0
include		in.pressure
variable        pressure equal 2750.0
variable        pressureDamp equal 1000.0 # This is 1 ps
include		in.seed
variable        seed equal 745823

units		real
atom_style	full

read_restart	restart.lmp.${pid}
read_restart	restart.lmp.0
Reading restart file ...
  restart file = 30 Jul 2021, LAMMPS = 30 Jul 2021
  restoring atom style full from restart
  orthogonal box = (-0.070700167 -0.031295546 -0.14784041) to (20.070701 20.031297 20.847838)
  4 by 2 by 4 MPI processor grid
  restoring pair style lj/cut/tip4p/long/omp from restart
  restoring bond style harmonic/omp from restart
  restoring angle style harmonic/omp from restart
  972 atoms
  648 bonds
  324 angles
Finding 1-2 1-3 1-4 neighbors ...
  special bond factors lj:    0        0        0       
  special bond factors coul:  0        0        0       
     2 = max # of 1-2 neighbors
     1 = max # of 1-3 neighbors
     1 = max # of 1-4 neighbors
     2 = max # of special neighbors
  special bonds CPU = 0.002 seconds
  read_restart CPU = 0.009 seconds
include 	in.setup
variable	out_freq equal 1000
variable	out_freq2 equal 10000
variable	out_freq3 equal 1000

timestep	2.0

neigh_modify    delay 7 every 1

include		in.tip4p
# This is TIP4P/Ice

# create groups ###
group ox type 2
324 atoms in group ox
group hy type 1
648 atoms in group hy

# set charges - beside manually ###
set group ox charge -1.1794
Setting atom values ...
  324 settings made for charge
set group hy charge 0.5897
Setting atom values ...
  648 settings made for charge

# ### TIP3P Potential Parameters ###
pair_style lj/cut/tip4p/long/omp 2 1 1 1 0.1577 8.5
pair_coeff 1 1*2 0.000 0.000
pair_coeff 2 2 0.21084 3.1668
bond_style  harmonic
bond_coeff  1 450 0.9572
angle_style harmonic
angle_coeff 1 55 104.52
kspace_style pppm/tip4p/omp 1.0e-5
pair_modify tail yes

thermo          ${out_freq}
thermo          1000
thermo_style    custom step temp pe etotal epair emol press lx ly lz vol pxx pyy pzz pxy pxz pyz enthalpy

restart 	${out_freq3} restart.lmp.${pid} restart2.lmp.${pid}
restart 	1000 restart.lmp.${pid} restart2.lmp.${pid}
restart 	1000 restart.lmp.0 restart2.lmp.${pid}
restart 	1000 restart.lmp.0 restart2.lmp.0


include         in.dump
dump            myDump all atom ${out_freq2} dump.water.${pid}
dump            myDump all atom 10000 dump.water.${pid}
dump            myDump all atom 10000 dump.water.0
dump            myDump2 all dcd ${out_freq2} dump.dcd
dump            myDump2 all dcd 10000 dump.dcd
dump_modify     myDump append yes
dump_modify     myDump2 append yes


variable natoms 	equal  "count(all)"                        # NUMBER ATOMS
variable H      	equal  "enthalpy/v_natoms"                 # ENTHALPY-per-atom
variable Vol      	equal  "vol/v_natoms"                 # volume-per-atom
fix AVG all 		ave/time ${out_freq} 1 ${out_freq} v_Vol v_H file vol_enthalpy.dat
fix AVG all 		ave/time 1000 1 ${out_freq} v_Vol v_H file vol_enthalpy.dat
fix AVG all 		ave/time 1000 1 1000 v_Vol v_H file vol_enthalpy.dat


timer           timeout 02:55:00 every 1000
New timer settings: style=normal  mode=nosync  timeout=02:55:00

fix 		1 all shake 1e-6 200 0 b 1 a 1
Finding SHAKE clusters ...
       0 = # of size 2 clusters
       0 = # of size 3 clusters
       0 = # of size 4 clusters
     324 = # of frozen angles
  find clusters CPU = 0.000 seconds
fix             2 all nph aniso ${pressure} ${pressure} ${pressureDamp}
fix             2 all nph aniso 2750 ${pressure} ${pressureDamp}
fix             2 all nph aniso 2750 2750 ${pressureDamp}
fix             2 all nph aniso 2750 2750 1000
fix             3 all temp/csvr ${temperature} ${temperature} ${tempDamp} ${seed}
fix             3 all temp/csvr 260.21 ${temperature} ${tempDamp} ${seed}
fix             3 all temp/csvr 260.21 260.21 ${tempDamp} ${seed}
fix             3 all temp/csvr 260.21 260.21 100 ${seed}
fix             3 all temp/csvr 260.21 260.21 100 745823


run             250000
PPPM initialization ...
  extracting TIP4P info from pair style
  using 12-bit tables for long-range coulomb (../kspace.cpp:340)
  G vector (1/distance) = 0.37186011
  grid = 24 24 25
  stencil order = 5
  estimated absolute RMS force accuracy = 0.0034747115
  estimated relative force accuracy = 1.0463991e-05
  using double precision FFTW3
  3d grid and FFT values/proc = 3458 576
Last active /omp style is kspace_style pppm/tip4p/omp
Neighbor list info ...
  update every 1 steps, delay 7 steps, check yes
  max neighbors/atom: 2000, page size: 100000
  master list distance cutoff = 10.8154
  ghost atom cutoff = 10.8154
  binsize = 5.4077, bins = 4 4 4
  1 neighbor lists, perpetual/occasional/extra = 1 0 0
  (1) pair lj/cut/tip4p/long/omp, perpetual
      attributes: half, newton on, omp
      pair build: half/bin/newton/omp
      stencil: half/bin/3d
      bin: standard
Setting up Verlet run ...
  Unit style    : real
  Current step  : 3000000
  Time step     : 2
  Walltime left : 2:54:59.96
Per MPI rank memory allocation (min/avg/max) = 10.19 | 10.19 | 10.21 Mbytes
Step Temp PotEng TotEng E_pair E_mol Press Lx Ly Lz Volume Pxx Pyy Pzz Pxy Pxz Pyz Enthalpy 
 3000000    277.18285   -4682.2022   -4147.6318   -4682.2022            0    3072.5196    20.141401    20.062592    20.995679     8484.117    2655.2058    2806.6196    3755.7333   -360.27657    278.54057   -413.12899   -3767.4623 
 3001000    258.01336   -4680.4608   -4182.8604   -4680.4608            0    3074.6578    20.024393    20.241633    20.913476    8476.7841    3560.6093    2948.8059    2714.5581   -786.15672    740.40301   -198.82514   -3802.7552 
 3002000    274.96768   -4708.1114   -4177.8131   -4708.1114            0    3739.1595     20.21264    19.977802    20.819716    8407.0872    2478.2654    5569.4646    3169.7484    196.54222   -621.48409    999.01254   -3719.3595 
 3003000    253.25171    -4672.267   -4183.8498    -4672.267            0    3143.5823    20.237075    20.078287    21.003798     8534.385    4393.6049    2366.5489    2670.5931    30.436958   -7.3160341   -622.68046    -3792.583 
 3004000    244.90464   -4698.2701   -4225.9509   -4698.2701            0    3579.4358     19.97333    20.012427    21.213579    8479.3815    3259.3596    4287.9969    3190.9509    47.482647    239.01714   -308.51644   -3783.3068 
 3005000    248.57502   -4671.6975   -4192.2997   -4671.6975            0    409.41599    19.951064    20.254617    21.425168    8657.9352       2609.9   -1346.1642   -35.487774    346.82955     489.5161   -35.011804   -4140.6039 
 3006000    271.03933   -4689.2746   -4166.5524   -4689.2746            0    2952.6929    19.911453    20.115439    20.999629    8410.9312    2771.6309    2739.0375    3347.4104    115.66649   -640.25859    -264.6905   -3804.3609 
 3007000    264.82365   -4692.5951   -4181.8604   -4692.5951            0    3063.5498    20.147407    20.037241    20.913763    8442.8536    1896.9523    3966.4338    3327.2632    741.31953    462.55253   -919.31411   -3804.6444 
 3008000    274.73693   -4709.3543   -4179.5011   -4709.3543            0    920.82019    20.188112    20.208468    20.910991     8531.074   -302.74661    540.28051    2524.9267   -21.373206    608.05657   -269.86563   -4064.9354 
 3009000     270.2264   -4679.3586   -4158.2043   -4679.3586            0    4171.5776    19.978057    20.143377    20.963684    8436.3216    4132.2947    4136.7824    4245.6559    515.55695   -958.32752   -311.97722   -3644.9538 
 3010000    269.10902    -4682.739   -4163.7396    -4682.739            0    2736.0174    20.247173    20.148526    21.071215    8596.0166    769.22511    4198.5322     3240.295   -75.827996    1582.7812   -520.58613   -3820.7413 
 3011000    266.74374   -4706.1957    -4191.758   -4706.1957            0    3076.9727    20.150682    20.022863    20.981518    8465.5044    4222.8854    3074.7899     1933.243    456.63053    505.26373     925.4804   -3811.8728 
 3012000    269.58269   -4651.9052   -4131.9923   -4651.9052            0    3163.9248    20.308113    20.034914    20.712513     8427.327    1533.1879    3638.5709    4320.0157   -761.90058   -372.33899    258.17298   -3743.1336 
 3013000    257.76277   -4635.7764   -4138.6592   -4635.7764            0    2701.0901    19.936258    20.214112    20.990165    8458.9052    4037.0452    2433.5176    1632.7075   -368.44752   -113.07554   -1253.9385   -3805.4407 
 3014000    254.99337   -4690.3556   -4198.5794   -4690.3556            0    1321.4032    20.102727    19.952375    21.217765    8510.3851    1659.7085     1100.629    1203.8721    279.36695    652.64387    -211.9523   -4034.5731 
 3015000    260.79463   -4686.3034    -4183.339   -4686.3034            0    4082.3701    19.962837    20.127893     21.06767    8465.1972    3547.9651    5084.9486    3614.1966   -212.25859   -171.16351    1113.2097   -3679.3451 
 3016000    265.28634   -4687.8018   -4176.1748   -4687.8018            0    1071.5767    20.265603    20.253673    20.754625    8518.7957    1398.2923   -259.94839    2076.3863   -208.94145   -782.14426    79.896034   -4043.0443 
 3017000    261.33729   -4693.8942   -4189.8833   -4693.8942            0    3296.0758    20.174195    20.103332    21.024244    8526.7718    2526.8581    2772.7262     4588.643   -52.048382   -89.711979   -796.17942   -3780.0024 
 3018000    253.20799   -4697.9897   -4209.6568   -4697.9897            0    2991.2527     20.18848    19.782721    21.205115    8468.9637    1987.1395      4541.07    2445.5484   -483.04603     498.7639     316.1174   -3840.2038 
 3019000    254.82456   -4680.8602   -4189.4096   -4680.8602            0    4007.5509    20.016755    20.128553    21.016017    8467.5279    4092.7426    3134.3276    4795.5825    359.91221   -377.80817     1253.788   -3694.5163 
 3020000    254.27361   -4682.5789   -4192.1909   -4682.5789            0    2774.2574    20.256643    20.078111    20.782154    8452.4161     1481.671    3538.9436    3302.1576   -570.18559   -830.96596   -1192.6442   -3850.2087 
 3021000    261.28025   -4713.1924   -4209.2915   -4713.1924            0    2005.6357     20.23745    20.257551    20.834839    8541.4749    805.38073    3081.5991    2129.9271   -24.991663    414.93159   -676.78922   -3959.4521 
 3022000     265.6681    -4694.883   -4182.5197    -4694.883            0    552.14675    20.305904    20.205679    20.752004    8514.4352     397.9903   -565.57969    1824.0296   -547.58209   -636.60839     156.1621   -4113.9573 
 3023000    255.34828   -4708.7168   -4216.2562   -4708.7168            0     2773.788    20.122014    20.135109      20.9454    8486.2164    1918.2577    2428.6712    3974.4349   -569.37779    797.17379   -909.93757   -3872.9645 
 3024000     263.7176   -4644.9386    -4136.337   -4644.9386            0    2006.7229    20.272163    20.009394    21.058198    8541.9148   -1083.9944    4773.8138    2330.3493    81.283198    194.66747   -484.23037   -3886.3494 
 3025000    270.54111   -4669.3939   -4147.6326   -4669.3939            0    3743.4884    20.305048    19.690502    20.963215    8381.4411    3198.8934    3828.1535    4203.4184    369.86618   -1642.2862   -1429.2645   -3690.0483 
 3026000    268.82064   -4669.7996   -4151.3564   -4669.7996            0    2855.6645    20.154141    19.910705    21.090695    8463.3405    5038.7852    1750.4197    1777.7885   -408.28109    764.29443   -1149.5749   -3798.8842 
 3027000    264.18098   -4651.7704   -4142.2752   -4651.7704            0    5533.1467     20.28399    19.761419    20.939751    8393.4989    6189.9215    4829.9293    5579.5894    214.04121   -693.43188    1281.3433   -3464.9595 
 3028000    260.51307   -4702.1368   -4199.7154   -4702.1368            0    3060.1301    20.133662    20.011575    20.945086    8438.9069    1644.8771    5045.8766    2489.6367    -714.8956    892.55567    45.308482   -3823.0966 
 3029000    262.61648     -4687.07    -4180.592     -4687.07            0    3999.9342    20.239637    19.910023    20.881255    8414.5534    3502.9011    4946.6763    3550.2253   -117.81559   -112.02598    1996.1078   -3689.7296 
 3030000    269.27296   -4679.2285    -4159.913   -4679.2285            0    1845.2333    20.177319    19.995469    21.313143     8598.893    2051.0348    2564.9728    919.69247   -184.93462   -169.95032    1441.6533   -3928.5096 
 3031000    260.50446   -4655.1262   -4152.7214   -4655.1262            0    2687.3452    20.193672     19.96026    21.105429    8506.9852    2165.1831    4051.6016    1845.2508   -170.14987    1480.3381   -222.78747   -3819.3142 
 3032000    262.51993   -4677.1106   -4170.8189   -4677.1106            0    2816.5318    20.060868    20.118535    21.049019    8495.2848    3233.6203    2437.3306    2778.6444   -310.65172   -24.541689   -1931.4171   -3821.8646 
 3033000    254.35551    -4673.745    -4183.199    -4673.745            0    1199.8154    20.207691    20.270329     20.92103    8569.6003    1643.7699    882.15707    1073.5191   -978.45052    404.38587   -39.371383   -4033.2475 
 3034000    253.27409   -4693.5207   -4205.0604   -4693.5207            0    2319.5707     20.19671    19.816171    21.313308    8530.0432   -299.24902    5607.0019    1650.9594    204.20611   -637.30307   -904.79077   -3916.5013 
 3035000    253.46276   -4720.2539   -4231.4296   -4720.2539            0    2674.2943    20.042965    20.183443    21.108874    8539.3002    911.44134     5324.355    1787.0865   -254.55712   -601.75015   -510.79376   -3898.3812 
 3036000    252.10476   -4698.6388   -4212.4335   -4698.6388            0      4236.01    20.136987    19.951792    20.909596    8400.8269    3793.2606    4807.5568    4107.2124   -364.02927    539.52468   -196.01794   -3693.4484 
 3037000    250.60151   -4668.2671   -4184.9611   -4668.2671            0    722.98008    20.417029    20.097759    20.857444    8558.5715   -445.22725    1041.5441    1572.6234    686.67574    1333.8894    394.42169   -4094.7201 
 3038000    273.62606   -4694.7094   -4166.9986   -4694.7094            0    2399.7573      20.0388    20.065141    21.208885    8527.6971    3230.2902    1245.7894    2723.1922   -335.22461   -19.658552    1197.1137   -3868.5462 
 3039000    256.67239   -4705.0758   -4210.0615   -4705.0758            0    825.46744    20.174438    19.964228    21.204069     8540.301    838.23954    1471.4809    166.68182    570.58665    -1256.509     669.1773   -4107.2483 
 3040000    263.34573   -4697.7953   -4189.9109   -4697.7953            0    2084.8191    20.135341    20.209075     20.83603    8478.5265    801.06604    3286.0533    2167.3379   -40.852847   -375.82435    201.05786   -3932.1217 
 3041000    256.15152   -4666.9861   -4172.9764   -4666.9861            0    2831.1443    20.064246     20.35219    20.747807    8472.3951     3695.144    262.11791    4536.1708   -124.27665   -192.28975    734.18945   -3823.1568 
 3042000     263.3398   -4703.7814   -4195.9085   -4703.7814            0    3145.8416    20.316712    20.019091    20.923715    8510.1376    3454.5967     2541.041     3441.887    561.31704    897.29972    482.96122   -3805.4729 
 3043000    259.53811   -4666.2171    -4165.676   -4666.2171            0    3203.7298    20.116861    20.090551    20.917427    8453.9627    3172.3185    3754.4419     2684.429   -177.09754   -627.66914    85.833884   -3770.6806 
 3044000    249.62139   -4696.9005   -4215.4846   -4696.9005            0    3795.0435    20.155312    20.286678    20.592402    8419.9105    3294.3205    3318.9964    4771.8137    160.20566    2389.3213   -507.87099   -3749.4694 
 3045000    255.00263   -4707.9078   -4216.1138   -4707.9078            0     1511.188    20.112578    20.103782    20.998576    8490.5407    1408.6681    2693.7829    431.11291   -630.47009   -631.60579    678.22176   -4028.9897 
 3046000    261.45055   -4713.9693     -4209.74   -4713.9693            0    3223.7349    20.278974    19.862697    20.994392    8456.4384    3214.6415    3922.2136    2534.3494    274.47001    378.00624    905.53813   -3812.1616 
 3047000    264.96662   -4693.6476   -4182.6372   -4693.6476            0    3299.5595    19.937651    20.024119    21.183616    8457.2175    4353.2155    3808.6442    1736.8188   -233.03256    1174.5698    482.79913   -3775.6701 
 3048000    246.99979   -4688.7738   -4212.4139   -4688.7738            0     3546.683    20.003898    19.864883    21.003086    8346.1035    3307.0884    3427.2597    3905.7007   -494.66787    946.96878   -284.44163   -3780.7139 
 3049000    262.70908    -4671.007   -4164.3505    -4671.007            0    3835.4492    20.258771    20.027327    20.964441    8505.8821    2056.4389    5025.7867     4424.122   -893.69688    25.696436    569.42784   -3688.5646 
 3050000    256.87792   -4702.9577    -4207.547   -4702.9577            0    1888.5116    20.070128    20.398987    20.769585    8503.2816    1619.6606    2440.3114    1605.5628    311.97719     796.9805    1896.0743   -3973.3496 
 3051000    268.59098   -4630.7674   -4112.7671   -4630.7674            0    3287.3933    20.220054    20.069065    20.804385    8442.3693    1279.9246    3881.6918    4700.5637   -396.79936    669.63881    937.53151   -3708.0124 
 3052000    252.21059   -4702.4591   -4216.0498   -4702.4591            0    2812.5523    20.174457    20.078947     20.89212    8463.0185    3712.3709    644.57226    4080.7139     462.9559    1104.6465    238.81007    -3868.912 
 3053000    244.59331   -4690.6179   -4218.8991   -4690.6179            0    1419.6583    20.005556    20.156284    21.061939    8492.9677    2505.4108    327.87766    1425.6863   -342.15086    869.10031   -75.028133   -4043.0585 
 3054000    270.52723   -4682.6108   -4160.8763   -4682.6108            0    1465.8803     20.09214    20.104262    21.295465    8602.0401    1051.9804    2999.9499    345.71064    375.86983    398.64456    208.95932   -3976.9788 
 3055000    268.60146   -4685.1483   -4167.1278   -4685.1483            0    2420.9579    20.359822    19.944104    20.887404    8481.5061    1401.6166    1975.5895    3885.6676    823.10801   -757.85319    641.22886   -3867.6696 
 3056000    265.59376   -4642.5134   -4130.2935   -4642.5134            0    5464.0638    20.074441    20.335591    20.625805     8419.982    6310.6445    3944.1533    6137.3936    20.535817   -212.01993   -1036.8058    -3459.324 
 3057000     252.4047    -4708.144   -4221.3603    -4708.144            0    1851.1524    20.267141    20.127655    20.844217    8502.9818    1157.2837    1974.1953    2421.9781    287.33914    205.00628   -33.144643    -3991.804 
 3058000    268.70572   -4689.6051   -4171.3835   -4689.6051            0    3175.8238    20.111091    20.062564    20.842526    8409.5435    1888.5042    2188.6704    5450.2968   -715.14513    1574.5084    168.34762    -3781.886 
 3059000    255.74737   -4685.4573    -4192.227   -4685.4573            0     3363.067    20.248725    19.950125    20.975794    8473.4783    2340.5078    4862.5948    2886.0985    -1284.867    421.08232   -469.54427   -3776.6293 
 3060000    270.14138   -4708.6628   -4187.6724   -4708.6628            0    2011.0731    20.023944    20.238129    20.994761    8508.0674    1382.3107    2649.6944    2001.2142    234.40956     794.3472   -771.45904   -3938.1356 
 3061000    254.86258   -4661.5259    -4170.002   -4661.5259            0    3139.1795    20.302609     19.98092    20.834102    8451.6618    3727.9268    2585.4042    3104.2073   -176.04163   -514.58968   -766.52613   -3783.0705 
 3062000    275.81188   -4671.6678   -4139.7414   -4671.6678            0    3187.4084    20.221277    19.977459    21.037425    8498.4832    3467.7931    3377.0124    2717.4196   -327.37764   -552.34863    402.48098   -3744.6887 
 3063000     274.5435   -4674.1604   -4144.6801   -4674.1604            0    1742.7877    19.904662    20.242465    20.978726    8452.7364    1839.2536    1880.7293    1508.3802    485.57763    807.26457   -432.76412   -3929.8389 
 3064000    256.46152   -4669.3339   -4174.7263   -4669.3339            0    3314.5119    20.293706      19.9747    20.838102    8446.9475    3847.3524    2633.6261    3462.5572    179.13477   -789.02853    478.97678   -3766.4114 
 3065000    258.98939   -4693.7724   -4194.2896   -4693.7724            0    3330.1053     20.26806    20.005451    20.708515    8396.7163    2262.1891    4139.9982    3588.1287    360.80628   -642.64721   -403.09292   -3786.4932 
 3066000    281.94773    -4683.203   -4139.4431    -4683.203            0    3058.8637    20.124146     20.08184    21.058474    8510.3582    3714.6096    1859.9312    3602.0503    180.08456    416.61834    637.46358   -3759.7927 
 3067000    255.92625   -4695.7837   -4202.2084   -4695.7837            0    1040.9857    20.145588    19.846601    21.146475    8454.8141    1635.7587     494.1635    993.03496    -670.7274    225.98487      1328.67   -4073.8499 
 3068000    249.00309   -4669.4487   -4189.2253   -4669.4487            0    2312.5765    20.225862    20.192355    20.838069    8510.4294    2000.4823    1373.9804    3563.2668    94.466693    1671.4161   -375.78602   -3902.1978 
 3069000    250.10246   -4705.4201   -4223.0765   -4705.4201            0    2654.2686    20.307488    20.202816     20.57142    8439.8046    4364.1218    528.05194    3070.6319     463.6016   -32.932532      -148.91   -3896.3735 
 3070000    264.41046   -4687.8265   -4177.8887   -4687.8265            0    1909.7194     20.22876     20.06195    20.942282     8498.972    961.96831    3463.7929    1303.3968    -272.6266    828.04852   -1093.3265   -3941.1813 
 3071000    255.08818   -4668.6462   -4176.6872   -4668.6462            0    3241.4617    20.033378    20.155713    21.040416     8495.847     3734.844    3642.6946    2346.8465   -32.631908   -181.09854   -542.25947   -3775.0597 
 3072000    284.89663     -4673.11   -4123.6629     -4673.11            0    3410.2161    20.203013    19.945173     21.07309    8491.4559    4092.5106     3841.894    2296.2438   -864.35615    516.18677   -1259.4412   -3701.3446 
 3073000    249.67036   -4691.4483    -4209.938   -4691.4483            0    2546.9429    20.115626    20.094772    20.890399    8444.2947    972.39825    5148.7764     1519.654    16.801573    1409.4176   -864.65494   -3896.2785 
 3074000    259.39732   -4707.1604   -4206.8909   -4707.1604            0    3427.6588    19.845489    20.261054    20.862478    8388.6046    4013.0401    2928.3941    3341.5422   -533.43152    13.988855   -47.086252   -3787.5539 
 3075000    263.64031   -4703.0082   -4194.5556   -4703.0082            0    1607.6472    20.018415     20.17603    20.985778    8475.9911    995.63745    2030.1373     1797.167    97.379841    820.01884   -1639.5715   -3995.8285 
 3076000    260.68853   -4690.8477   -4188.0879   -4690.8477            0    812.47933    20.039935    20.253753     21.09655    8562.7498    1359.0499    1664.7166   -586.32857    637.91502    556.39124    697.31377   -4086.6264 
 3077000    244.54523   -4695.7069   -4224.0809   -4695.7069            0    2055.4896    20.214041     20.23025    20.718193    8472.3961    467.41296    2411.3921    3287.6637   -196.20379    727.76072   -917.95381   -3970.1021 
 3078000    269.80099   -4669.9562   -4149.6223   -4669.9562            0     2609.248    20.152092    20.259678    20.760852     8476.135    3687.5278    984.91874    3155.2975   -583.09325    885.25547   -625.69401   -3827.0782 
 3079000    271.14377   -4734.8729   -4211.9493   -4734.8729            0    1612.1076     20.16717    20.025808    21.032258    8494.1691    36.208765    2289.0093    2511.1046   -98.790378    610.08438   -634.46258   -4012.2435 
 3080000    267.15208   -4679.2507   -4164.0255   -4679.2507            0     2277.318    20.025133    20.056613    21.191816    8511.4031    2602.7618     2209.148    2020.0443   -32.901489   -1195.7575   -566.72847   -3881.3418 
 3081000    252.45398   -4664.7713   -4177.8926   -4664.7713            0    3127.6824    20.192886     20.08896    20.910435    8482.4034    4808.0372    166.23057    4408.7796   -185.15681    521.44532    -560.2692   -3790.9759 
 3082000    251.86193   -4691.8221   -4206.0852   -4691.8221            0    3768.6884     20.44612    20.051769    20.586546    8440.0906    4253.3498     3277.797    3774.9184    321.58866    729.54442    546.32778   -3742.1971 
 3083000    261.01583   -4671.7565   -4168.3655   -4671.7565            0    288.00598    20.275501    20.179156    21.090264    8628.9231   -191.15115    557.09854    498.07054   -323.11001    307.48657    2053.4706   -4132.1217 
 3084000    275.74948   -4677.4984   -4145.6923   -4677.4984            0    3925.0736    20.070199    19.988238    21.011794    8429.2579     2333.135    4841.0486    4601.0371   -605.99492    233.02213   -1074.2116   -3663.1748 
 3085000    252.45455   -4689.5524   -4202.6725   -4689.5524            0    1737.3965    19.890354    20.154539    21.280065    8530.7719    1987.2287     2516.034    708.92694   -2.3268875    329.83427    1580.8794   -3986.5186 
 3086000    264.24069   -4713.6965   -4204.0861   -4713.6965            0    1227.4113    20.075137    20.285522    20.836613     8485.391   -705.00263    2728.9789    1658.2576    55.138566    1218.7881    127.20461   -4052.1931 
 3087000    263.65372   -4707.4586   -4198.9803   -4707.4586            0    4212.5651    20.044314    20.162473    20.899985    8446.5814    4542.1058    4986.9211    3108.6685    478.24576   -2046.3343   -285.67845   -3680.0566 
 3088000    254.47579   -4683.3943   -4192.6164   -4683.3943            0    1072.2243    20.211938    20.276069    20.880935    8557.3967    1219.8107    370.99485    1625.8673   -663.88114   -165.34951   -277.16674   -4058.8019 
 3089000    244.54482   -4704.2234   -4232.5982   -4704.2234            0    1107.8879    20.221363    20.222655    20.885587    8540.7355   -60.885731    1903.6817    1480.8677    196.96992   -335.68402    1015.0186    -4094.602 
 3090000    261.70871    -4708.107   -4203.3797    -4708.107            0    2800.0924     20.08501     20.18019    20.859457    8454.7409    4867.4334    543.90378    2988.9399   -786.17737    285.57024   -862.32582   -3858.1179 
 3091000    247.59771   -4668.2269   -4190.7139   -4668.2269            0    2181.0747    20.134557    19.904052    21.121713    8464.7227    3646.6746     2019.553    876.99652   -318.02715    856.54058    1541.2508   -3921.4618 
 3092000    254.70201   -4686.4757   -4195.2615   -4686.4757            0    898.53441    20.175324    20.150644    21.082679    8571.0739     631.4649     1024.466    1039.6723   -442.94786   -602.49131    -784.2583   -4082.9444 
 3093000    273.79955   -4693.1279   -4165.0824   -4693.1279            0    1030.9256    20.039565    20.097695    21.251754     8559.124     1104.053    595.18184    1393.5421    434.12953   -107.74475    -167.7141    -4036.396 
 3094000     259.6839   -4697.4896   -4196.6674   -4697.4896            0    2795.7592    19.934901    20.215599    21.039612    8478.8785    2389.8094    3747.0215    2250.4466   -30.721169   -778.97188   -595.58528   -3850.9557 
 3095000    255.03377   -4717.1867   -4225.3326   -4717.1867            0    3528.4776    20.141498     19.99041    20.926134    8425.6316    2261.3351    4708.1116     3615.986    435.35255    1268.1573    996.75226   -3791.7561 
 3096000    262.31208   -4671.0636   -4165.1727   -4671.0636            0    4123.6723    20.126124    20.031276    20.910282    8430.0206    3678.3105    3815.1087    4877.5977   -733.37443   -1589.1978   -217.69434   -3658.1952 
 3097000    262.74223   -4693.0821   -4186.3617   -4693.0821            0    2359.7966    20.063358    20.075872    21.042806    8475.8192    1829.8111    2636.0691    2613.5096   -219.20133   -807.85358    596.23766   -3894.6645 
 3098000      265.692   -4698.1259   -4185.7165   -4698.1259            0    3942.4785    20.055593    19.825765    20.996852    8348.7153    4836.7782    3398.2661    3592.3913   -235.42748    1069.0738    1175.6405   -3705.6904 
 3099000    248.16079    -4674.876    -4196.277    -4674.876            0    2440.7516    20.049062    20.178642    21.186486    8571.2648    533.80242    4114.4523    2674.0001   -58.118516    634.06489    1675.2628   -3891.1755 
 3100000    249.73105   -4674.5096   -4192.8822   -4674.5096            0    3351.9999    20.309838    19.805691    21.040057    8463.3708    1459.8948    5004.3875    3591.7173   -698.60246    2185.9523   -317.18668   -3779.1463 
 3101000    248.01699   -4698.0376    -4219.716   -4698.0376            0    2269.6673    20.196673    20.030984    20.962191    8480.4477    2670.4656    3329.3025    809.23384   -259.78951   -559.02697    1160.0207   -3939.0067 
 3102000     251.6917   -4667.7036    -4182.295   -4667.7036            0    3782.9189     19.80382     20.31804     20.92173    8418.3768    4340.9615    2711.3523    4296.4428   -817.71048   -1263.5208    783.03709   -3717.8532 
 3103000     276.1617   -4698.0679   -4165.4669   -4698.0679            0    1342.5332    20.272589    20.003131    20.999041    8515.4312    2184.3195    1414.7435    428.53656   -656.00539   -558.83915   -461.32122   -3998.7392 
 3104000    258.69613   -4662.6906   -4163.7734   -4662.6906            0    3456.2082    19.960602    20.117511    20.771913    8341.1204     3744.353    3707.9082    2916.3634   -1018.8356   -1764.2603    117.00965   -3743.3371 
 3105000    279.68608   -4683.0296   -4143.6315   -4683.0296            0    2905.2162     20.06722    20.146756     21.00866    8493.5778    3627.1753    1624.4969    3463.9763    69.749903   -991.82928    303.78722    -3783.762 
 3106000    252.47525   -4701.4806   -4214.5609   -4701.4806            0    3285.6885    20.025944     19.92003     21.22995    8468.9968      2738.07     4611.602    2507.3936   -376.50359    979.09204    821.07225   -3808.7401 
 3107000    261.17279    -4677.058   -4173.3643    -4677.058            0      3129.09    19.989886      20.1664    21.026357    8476.2299     3212.709     2783.278     3391.283    287.57487    630.54807   -274.42564   -3786.5552 
 3108000     261.7635    -4657.579    -4152.746    -4657.579            0    2133.0505    20.194811    20.220518    20.745832    8471.5509    1432.2326    2701.2032    2265.7156    1015.2204    605.79924   -22.555026     -3889.21 
 3109000    256.35898   -4675.3636   -4180.9538   -4675.3636            0     4154.832    20.244814    20.242519    20.577895    8432.9455    5337.9065    2052.9917    5073.5979    987.34276    433.46167   -1524.5872   -3669.9682 
 3110000    255.45614   -4648.9201   -4156.2515   -4648.9201            0    2021.4089    20.232901    20.070448    21.013284    8533.1454    948.29876    2680.8428    2435.0851   -134.90445   -187.70743    456.61456   -3904.6929 
 3111000    269.91048   -4676.8299   -4156.2849   -4676.8299            0    1769.5533    19.899984    20.188292    21.260023    8541.1438    1901.3948    3233.8497    173.41525    266.08204   -1004.8632   -67.610104   -3935.8626 
 3112000    264.64821   -4686.1709   -4175.7746   -4686.1709            0    3054.7425    20.107071    20.062207    20.967485    8458.1206    3693.5198    2304.1839    3166.5238    224.29858     160.5389    1243.4337   -3798.9629 
 3113000    257.89621   -4719.1557   -4221.7812   -4719.1557            0    3157.1435    19.995687    20.327857    20.774639    8444.2566    3649.5202    2026.8004    3795.1099   -839.58017   -252.22763   -547.49462   -3832.9763 
 3114000    262.74121    -4684.592   -4177.8734    -4684.592            0    1983.2516    20.178376    20.147282    20.730099     8427.603    3097.0641    1995.0328    857.65782     609.7488     436.3228   -479.71227   -3934.1161 
 3115000    265.94069   -4699.6086   -4186.7196   -4699.6086            0    1471.8327    20.274121    20.032332    20.872182    8476.9844    448.45961    1868.1962    2098.8422   -301.93419    615.38147   -225.02168   -4004.7597 
 3116000    244.97028   -4688.6807   -4216.2349   -4688.6807            0    3337.6979    20.140348    19.960244    21.173062    8511.7035    3530.9433    3817.0528    2665.0977    98.692549   -54.145125    584.44235   -3801.9115 
 3117000    260.31645   -4724.8635   -4222.8213   -4724.8635            0    2147.1001    20.236182    19.899386    21.286603    8571.8514    1608.6646    3877.4928    955.14289    468.41909    784.34706    216.97119   -3954.4088 
 3118000    263.18525   -4713.0026   -4205.4277   -4713.0026            0    989.24352    20.139819    20.149799    20.975474    8512.1264    1310.2333   -973.05466     2630.552   -64.110426    1043.1276    636.90937   -4082.6224 
 3119000    255.88965   -4702.2819   -4208.7772   -4702.2819            0    2912.2696     20.11491    20.261779    20.757991    8460.2068      3202.06    1946.1773    3588.5716   -467.83084    472.40141      331.491   -3849.4514 
 3120000    254.12954    -4667.527   -4177.4168    -4667.527            0    592.54345    20.158363    20.173214    20.946004    8517.8802   -656.56812    2528.0829   -93.884426   -126.35649    513.98019    203.59012   -4103.8083 
 3121000    260.33729    -4717.161   -4215.0787    -4717.161            0    2644.6485    20.056846    20.005915    21.001859    8427.1128    2559.3136    3061.2798    2313.3522   -1119.1124    730.02174   -149.78957   -3890.0493 
 3122000    272.46973   -4691.4018    -4165.921   -4691.4018            0     3509.054    20.050186    20.025441    21.206442    8514.6797    3460.8545    4105.5377    2960.7697    221.88822    470.77693   -309.49416   -3730.1742 
 3123000    264.12137   -4693.6657   -4184.2854   -4693.6657            0    2011.5539    20.023983    20.098749    21.120812    8500.2193    1777.8368    2569.1291    1687.6959   -128.37103    264.53463   -837.41672   -3934.9191 
 3124000    254.93881   -4676.1526   -4184.4816   -4676.1526            0    1922.4639    20.371941    20.068369    20.865365    8530.4212    2051.8703    992.85873    2722.6626   -556.06538    810.85308    97.984386   -3945.3128 
 3125000    257.25208   -4643.0463    -4146.914   -4643.0463            0    1562.5705    20.294284    20.169525    20.916983    8561.8661   -82.179223    2108.1585    2661.7324    -506.0826    441.04126    80.232052    -3951.802 
 3126000    238.02217   -4679.4848    -4220.439   -4679.4848            0    3810.2133    20.153832    19.978771     21.13569    8510.2604    974.85307    6472.3479    3983.4389    127.29199   -593.95528   -57.863381   -3747.5404 
 3127000    254.83836   -4692.5655   -4201.0883   -4692.5655            0    3180.5423    19.940201    20.116654    21.217209    8510.8615    4797.5021    2427.6541    2316.4706    90.683467   -416.18491    191.00404   -3806.3124 
 3128000    257.64393   -4697.8038   -4200.9158   -4697.8038            0    2824.3741    20.089535    20.158202    20.818786    8430.9608    2232.9654    2432.9172    3807.2396   -494.41413    1090.7854   -570.64606   -3853.6395 
 3129000     265.3745   -4651.8186   -4140.0216   -4651.8186            0    1261.2033     20.21619    20.289781    20.764248    8517.1223    1433.6526    892.57825    1457.3792   -416.73305    384.47866   -317.74435   -3983.3631 
 3130000    247.36379   -4708.0104   -4230.9485   -4708.0104            0    2167.7733     20.10333    20.073567    20.849439     8413.698    2701.5113    1931.2064    1870.6023   -260.52957   -169.20513   -350.12673   -3964.9516 
 3131000    242.40472   -4695.6109    -4228.113   -4695.6109            0    2817.7594    20.053398    20.201721    20.935923    8481.4177    3397.3938    2697.4392    2358.4453    -485.5397    339.48965   -166.37043   -3879.5765 
 3132000    265.48947   -4665.1088     -4153.09   -4665.1088            0    3764.8278    19.976181    20.024568    20.956738     8382.997    4878.1049    3194.6179    3221.7605    226.98864   -806.10575   -1791.6168   -3692.8119 
 3133000    256.48111   -4648.6516   -4154.0062   -4648.6516            0    3462.6389     20.25897    20.142851    20.976615    8559.9986    4257.9872    2527.5614    3602.3681   -616.09629   -874.44882   -153.59403   -3721.7345 
 3134000    249.94125   -4694.6212   -4212.5885   -4694.6212            0    3108.9509    20.131987    20.312419     20.61073    8428.3326    3506.0058    2604.9881    3215.8588    244.76523    694.53689      683.555   -3830.4406 
 3135000    269.47874   -4716.5074   -4196.7949   -4716.5074            0    3358.5626     20.17582    20.017075    20.811482    8404.9435    3317.3827    2608.7116    4149.5934    163.13136    213.66039   -1535.8758   -3785.1108 
 3136000    269.68271   -4703.9347   -4183.8289   -4703.9347            0    4014.1047    19.891178    20.043217    21.170302    8440.2437    4008.2794    4688.4209    3345.6138   -813.00858     146.3112   -178.81775   -3689.7236 
 3137000    250.02209   -4688.9289   -4206.7403   -4688.9289            0    1228.5464    20.083789    20.150288    21.122468    8548.1388     650.2005    1584.4339    1451.0047   -463.18165    328.73079   -4.8480457   -4053.5825 
 3138000    253.64869    -4688.853   -4199.6702    -4688.853            0    2630.7948     20.02238    20.039741    21.225956    8516.7728    4035.4395    3467.1933    389.75148   -202.65198   -407.23201    973.23889   -3872.9034 
 3139000    247.23483   -4709.2688   -4232.4556   -4709.2688            0    1837.7471    20.317985    20.041257     20.90983    8514.4403    1116.6525    1858.5542    2538.0347   -366.28896   -1342.3058   -91.264548   -4004.2545 
 3140000    257.35316   -4678.7546   -4182.4274   -4678.7546            0    856.35821    20.164852    20.245632    20.805724    8493.9404    1515.0864   -445.76185    1499.7501   -148.03532   -497.24782    201.74968   -4076.3457 
 3141000    267.83128   -4713.7944   -4197.2593   -4713.7944            0    2961.5928    20.203319    19.973789    20.896644    8432.5654    2251.8869    3357.4301    3275.4615   -602.50078     6.686371      -318.79   -3833.0416 
 3142000    263.42991   -4693.0592   -4185.0124   -4693.0592            0     3396.305    19.975387    20.393886    20.682326    8425.4782    3146.8271    3676.8316    3365.2563   -32.393199   -372.88227   -68.724385   -3767.6848 
 3143000    257.53313   -4697.3417   -4200.6674   -4697.3417            0    1758.4619    20.205473    20.075703    20.941732    8494.7846    4079.9702    162.43928    1032.9762   -1128.4997   -727.90328   -527.62478   -3982.8155 
 3144000    261.04365   -4683.2579   -4179.8133   -4683.2579            0    894.78499    20.192747    20.092712    21.052436    8541.5427   -1285.2829     2455.816    1513.8219   -382.36255   -71.895478    554.68104   -4068.3503 
 3145000    265.23426   -4694.3591   -4182.8326   -4694.3591            0    2723.5052    20.165297    19.996275    21.013147    8473.1484    3061.0985    3076.5618    2032.8553   -29.113469   -569.44117    422.33799   -3846.2831 
 3146000    252.19783   -4696.6908   -4210.3061   -4696.6908            0    3697.6062    20.193402    20.037283    20.920347    8464.8098    2754.4785    4539.2445    3799.0956   -63.397307   -580.70312    142.91123   -3753.8345 
 3147000    254.25025   -4704.1395   -4213.7965   -4704.1395            0    2870.5973    20.091108    20.088985    20.837464    8410.2079    2530.9634    3213.5851    2867.2434    543.35691    -851.1629    1437.4191   -3861.7056 
 3148000    255.23693   -4694.0938   -4201.8479   -4694.0938            0    1581.0643    20.216713    20.311598    20.782453    8533.9766    525.69992    578.30364    3639.1894    77.938952    180.18653   -1369.5525   -4005.0697 
 3149000     261.1805   -4670.5838   -4166.8752   -4670.5838            0     1782.884    20.014616    20.183025    21.027409    8494.1371    3096.2584   -39.206422    2291.5999   -205.14056    19.331566    679.17704   -3946.0147 
 3150000    271.13953   -4718.1495   -4195.2341   -4718.1495            0    2260.5559    20.044541    20.091109    21.029062    8468.7617    2664.4154    1375.5216    2741.7307   -467.93368     329.4632    162.45966   -3916.0369 
 3151000    266.42204   -4661.9293    -4148.112   -4661.9293            0    2786.2677    20.383706    20.150942    20.656194    8484.5499    3166.5257    2362.2449    2830.0326   -111.17185     245.2095   -400.77037   -3803.3435 
 3152000    264.32824   -4674.4085   -4164.6293   -4674.4085            0    903.96643     20.18283    20.238612    20.849226    8516.3342    658.02089    1131.6278    922.25062   -341.64075   -507.34589   -251.13045   -4052.3548 
 3153000    261.20072   -4702.6233   -4198.8757   -4702.6233            0    2345.0784    20.130496    20.091618    20.988484    8488.8813    1280.8155    3699.3973    2055.0223    340.49177   -420.73753    834.45459   -3908.5512 
 3154000    260.04512   -4692.5494   -4191.0305   -4692.5494            0    2374.0013    20.095153    20.014754    21.128914    8498.0397    2307.0653    2241.0286      2573.91    110.54509    1124.9387    463.99314   -3896.8082 
 3155000     265.9097   -4707.2229   -4194.3937   -4707.2229            0    806.58346    20.004779     20.12531    21.331412    8588.0767    2724.5736   -588.45733    283.63413    613.74383   -947.46435    1339.1311   -4093.3705 
 3156000    257.59165   -4700.4754   -4203.6883   -4700.4754            0     2616.296    20.134135    20.070079    20.853882    8426.9216   -220.31574    4233.4718     3835.732   -251.82097   -474.04011    -292.5212   -3882.1507 
 3157000    266.57307   -4697.5467   -4183.4381   -4697.5467            0    343.72751     20.20186    20.161947    20.900255    8512.8582   -387.53636    258.29728    1160.4216    146.40532    413.96508   -335.57407   -4140.7639 
 3158000    249.56281   -4701.3122   -4220.0093   -4701.3122            0    1953.2225    19.915143    20.291338    21.094726     8524.482    578.93707    2598.4964    2682.2341    99.403587    381.13159   -170.35968   -3977.1831 
 3159000    263.71763   -4715.2686    -4206.667   -4715.2686            0    3215.3655    20.173291    20.034031    20.887882    8441.8865    3191.3519    2203.4117    4251.3328    259.20512    1149.2813   -645.11461   -3810.8033 
 3160000    261.53926   -4688.3981   -4183.9977   -4688.3981            0    2217.8347    20.029065    20.361807    20.873951    8512.9806    3284.9394    1440.9095    1927.6553    455.39026   -75.184959    180.99878   -3908.6466 
 3161000     247.8458   -4678.1239   -4200.1325   -4678.1239            0    2609.7686    20.059337    20.121531     20.98251    8469.0563    3723.7714    3545.0154    560.51908   -269.14147   -699.96321   -124.42527   -3877.7934 
 3162000    248.65949   -4658.6464   -4179.0856   -4658.6464            0    2104.1304    20.198583    19.984214    21.228509    8568.9471    2232.7495     2115.659    1963.9828   -177.52969    1253.3115    713.62971   -3916.1339 
 3163000    251.37805   -4658.0196   -4173.2159   -4658.0196            0    3983.2106    19.925648    20.110407    21.113988    8460.6476    5307.2526    2695.3793    3946.9999    240.30256    239.59057    436.89289    -3681.728 
 3164000    256.79472   -4701.1338   -4205.8835   -4701.1338            0    2559.8996    20.277303     19.97923    21.015866    8514.0507    1243.9486    3540.8746    2894.8756   -26.960006   -950.53116   -155.30203   -3888.0242 
 3165000    256.31768    -4676.594   -4182.2638    -4676.594            0    2516.6586     20.17984    20.126154    20.897512    8487.3687    1318.6571    2785.3638    3445.9549   -480.31317    95.732219    -293.7043   -3870.7529 
 3166000    264.42278   -4678.9679   -4169.0063   -4678.9679            0    2246.1822    19.911401    20.389916    20.891107    8481.6176    1880.8865    1897.7119    2959.9483     35.21996     94.04969    510.48539   -3891.1633 
 3167000    250.58005    -4668.727   -4185.4623    -4668.727            0    2050.1129    20.256303    20.099749    20.922645    8518.5839    3040.4239     1969.866    1140.0487   -623.58246    998.16612   -153.15559   -3930.7669 
 3168000    278.03233   -4690.7744   -4154.5657   -4690.7744            0    4203.4933    20.063422    20.116144    20.861385    8419.6276    5136.8807    3849.9524    3623.6469    106.48798    459.48325    584.36115   -3638.4119 
 3169000    278.71392   -4687.6968   -4150.1735   -4687.6968            0    3008.0001    20.032476    20.097453    20.962898    8439.6991    4483.7699    2089.7019    2450.5286    329.99294   -276.72746   -499.41603   -3779.9358 
 3170000    257.87856   -4666.0335   -4168.6931   -4666.0335            0    3631.5037    20.264987    19.965522    20.802681    8416.7863    3652.9185    3077.3825    4164.2101    507.27341    1209.2219    176.77588   -3722.9253 
 3171000    265.35239   -4683.8387   -4172.0843   -4683.8387            0    1929.2112    20.174618    20.284502     20.91375    8558.5777     2394.653    790.21907    2602.7617   -161.39979   -978.36743    -242.2288   -3931.2838 
 3172000    265.81719    -4711.153   -4198.5022    -4711.153            0    2870.7642    20.202411    19.956041    20.832954    8399.0165    3094.9488    2696.0305    2821.3135    123.21609   -973.48466    185.25416   -3846.8593 
 3173000    258.45001    -4711.544   -4213.1014    -4711.544            0    1869.0016    20.161092     20.05823    20.947473    8471.0707    941.09281    2539.3198    2126.5921    207.86555   -1086.0688    340.00851   -3982.2015 
 3174000    255.13526   -4680.0663   -4188.0165   -4680.0663            0    2093.5045    20.110652    20.078771    21.105342    8522.2773     2379.737    2794.0861    1106.6906    1167.1355    90.043627   -154.56415   -3927.8176 
 3175000     266.8058   -4710.5951   -4196.0377   -4710.5951            0     4466.429    19.932433     20.05824    20.906675    8358.6881    3137.8835    4928.7084    5332.6951   -29.230672    766.16157   -1609.0314   -3651.5671 
 3176000    257.96169    -4713.743   -4216.2422    -4713.743            0     3603.001     20.36476    19.937824    20.695348    8402.9114    2852.0739    3905.9299    4050.9991    465.03577    686.86956    609.45715   -3774.7022 
 3177000     254.9391   -4668.8223   -4177.1509   -4668.8223            0    2929.0399    20.113567    20.140183    20.836813    8440.8037    2341.9013    2547.7345    3897.4839   -819.56071   -997.69962    292.24533   -3816.5847 
 3178000    258.18904   -4680.5277   -4182.5884   -4680.5277            0    2853.4992    20.135363    19.887986    21.087453    8444.5089   -323.89605    5656.5897    3227.8039    68.614714    1152.1396   -538.50087   -3831.1671 
 3179000    270.06312   -4677.4005    -4156.561   -4677.4005            0    2729.0061    19.939858    20.207486    21.065422    8487.9828    4182.8167    2029.0346    1975.1671    267.40642     936.6616   -26.674523   -3818.7414 
 3180000    267.50745   -4683.2835   -4167.3729   -4683.2835            0    3470.1255    20.120929    20.028491    20.843756    8399.8637    3041.1285    4201.3594    3167.8888   -472.89075   -557.64986     -144.172   -3742.2707 
 3181000    252.75062   -4685.2213   -4197.7705   -4685.2213            0    3706.7334    19.979785    20.125027    21.182567    8517.3768    4854.2262      3136.72    3129.2538   -509.39233    452.68482   -192.35383   -3737.3304 
 3182000    259.70587   -4690.6847     -4189.82   -4690.6847            0    1959.2298    20.155922    20.208843    20.970412     8541.833    1862.5858    1608.6612    2406.4425     253.0673   -12.396296    385.63522   -3945.7512 
 3183000    254.87555   -4700.5131   -4208.9641   -4700.5131            0    2447.4049    20.231994    20.184259    20.752131    8474.5023     2851.753    2294.6173    2195.8444   -760.80935    682.44379   -383.58684   -3906.4846 
 3184000    249.60349   -4693.2509   -4211.8696   -4693.2509            0    2320.4735    20.348211    20.192366    20.513361    8428.4997    2713.1488    1483.8586    2764.4132   -471.62427   -164.01979    402.11528   -3926.6346 
 3185000     265.6575   -4672.3416   -4159.9988   -4672.3416            0     3257.556    20.061108    20.225867    20.886977    8474.9602    5375.8686    1743.0255    2653.7739    94.707913   -1393.5144    892.00751   -3757.3694 
 3186000    269.09467   -4675.3656   -4156.3939   -4675.3656            0    1727.7264    20.235103    19.987571    21.074688    8523.6693    1670.5207    2203.0312    1309.6272   -598.20374    -227.6922   -21.115519    -3941.622 
 3187000    263.88429   -4703.5576   -4194.6346   -4703.5576            0    2674.7033    19.978233    20.116543    21.024123    8449.4471    2446.6146    3232.0645    2345.4306    574.62814   -507.89909   -166.25556   -3865.0402 
 3188000    250.30623   -4645.3876   -4162.6509   -4645.3876            0    3864.2602    20.289652    20.031422    20.882133    8487.1378    5137.5302    3368.0906    3087.1598    149.87248   -558.88569    517.42619   -3684.3475 
 3189000    244.85434   -4688.3573   -4216.1351   -4688.3573            0    2181.0712    20.135153    19.964518     21.18306     8515.349    2599.7791    2417.5963    1525.8381   -293.69397   -532.15384    375.68613   -3945.2731 
 3190000    269.69124   -4658.6767   -4138.5545   -4658.6767            0    3980.5402    20.103393    20.095231    21.062384    8508.8308    3766.7152    3549.8716    4625.0337    211.01607   -282.86266   -372.35356    -3644.599 
 3191000    254.61677   -4670.5313   -4179.4814   -4670.5313            0    1950.5744    20.240453    20.168258    20.944217    8549.7366    2487.8559    534.53106    2829.3363   -49.937269    563.86147    352.71953    -3936.266 
 3192000    266.37981   -4676.1669    -4162.431   -4676.1669            0    4430.1941    19.955958    20.055073    20.973101    8393.8162    6706.0126    4688.8247    1895.7451   -91.715447   -393.50106    141.90919   -3620.1079 
 3193000    267.33765   -4694.4624   -4178.8792   -4694.4624            0    2712.6739    19.983256    20.406755    20.860607    8506.8179    4491.8058    1134.7315    2511.4844    210.57425    1626.7028   -30.939747   -3842.3362 
 3194000    271.26065   -4675.8458   -4152.6969   -4675.8458            0    3431.4833    20.305067    20.016696    20.700729    8413.6118    2131.3726    3258.8475    4904.2299   -109.63059   -2010.7829    1436.4585   -3731.6405 
 3195000    250.88466   -4665.6697   -4181.8175   -4665.6697            0    4812.4343    19.933448    20.230455    20.972072    8457.2548    5003.3047     4835.808    4598.1902    108.12028   -406.39684   -913.06397     -3588.25 
 3196000    265.82878    -4706.539   -4193.8658    -4706.539            0    1848.9786    20.200354    20.040212    21.004881    8503.1831    2062.1932    649.33213    2835.4103   -377.97879     866.6778   -708.67971   -3964.5736 
 3197000    248.66404    -4662.055   -4182.4855    -4662.055            0     3402.385    19.981352     20.02471    20.955072    8384.5595    4426.0937    2303.7728    3477.2887   -531.91485   -233.03515   -1326.1563   -3766.4411 
 3198000    248.87317   -4657.7638    -4177.791   -4657.7638            0    4456.1085    20.262179    19.992407    20.795431    8424.0155     5374.666    3074.8323    4918.8273   -596.11973    375.86051   -1500.2933    -3630.333 
 3199000     266.3414   -4676.1147   -4162.4529   -4676.1147            0    2585.2697    20.020534    20.337685    20.945925    8528.5799    5034.6346    163.95785    2557.2166   -583.90653    165.99037    319.15394   -3840.8956 
 3200000     250.4826    -4685.059   -4201.9822    -4685.059            0    3788.1752    20.220048    19.908656    21.086237    8488.3488    2268.8451    4850.6264    4245.0541   -156.89789    149.30353    -228.2818   -3733.0294 
 3201000    253.87563   -4674.4759   -4184.8554   -4674.4759            0    283.17834     20.22606    20.173178    20.776956    8477.4948   -272.10787   -1039.2475    2160.8904   -362.16787   -527.27647   -219.50944   -4149.8445 
 3202000    264.43647   -4696.9689    -4186.981   -4696.9689            0    1631.5021    20.272118    20.067609    20.865253    8488.2548    872.46772    1608.5098    2413.5289    -347.3862   -123.47601    213.69714   -3985.0132 
 3203000    255.68211   -4714.6152   -4221.5108   -4714.6152            0    1080.1276    20.125513    20.178473    21.030931    8540.7055    2076.1766    188.23563    975.97046    132.63866    212.46273    610.88705   -4086.9729 
 3204000    252.63108   -4703.7432   -4216.5229   -4703.7432            0    2104.8838    19.991258    20.124567    21.004873    8450.5841    1604.6569    3668.4141    1041.5802   -834.34658    393.05876   -323.76605   -3957.1105 
 3205000    249.65709   -4708.3329   -4226.8482   -4708.3329            0    352.69995    19.871821    20.354446    21.149833    8554.6827    1695.2285    103.96926   -741.09788   -863.62339   -435.32001   -693.22259   -4182.8449 
 3206000    245.80822        -4688   -4213.9381        -4688            0    4276.9979    19.940678    20.150353     20.82321    8367.0092    3893.9814    4291.4887    4645.5235    277.29461   -164.70129    395.06864   -3692.0407 
 3207000    264.38337     -4698.01   -4188.1244     -4698.01            0    3286.9964    20.149824    19.907624    21.045677      8442.16     2007.012    4077.2109    3776.7664    -506.3958    1954.2613     173.0771   -3783.4286 
 3208000    257.32147   -4677.3305   -4181.0644   -4677.3305            0    3786.7233      20.0954    20.139334    20.837308    8433.0246    3252.8585    4396.9187    3710.3928    80.808562    1090.8949      257.268   -3715.3466 
 3209000    260.03527   -4696.5995   -4195.0996   -4696.5995            0    1937.3721    20.295349    20.295829    20.610329    8489.6197   -504.76012    3060.6105    3256.2659   -251.82468    1096.4616    999.59422    -3955.229 
 3210000    263.68139   -4659.1579   -4150.6261   -4659.1579            0    2638.9604    20.056482    20.074567    21.022618    8464.2355    3475.3182    2317.5945    2123.9685    33.819852    315.34097   -979.24481   -3824.8671 
 3211000    265.03064   -4695.3153   -4184.1814   -4695.3153            0    2448.0848    20.149918    20.190469    20.989828    8539.4235    2584.6472    2125.1112    2634.4962     620.0786    1569.8004     1367.471      -3879.3 
 3212000    264.19157   -4694.6224   -4185.1068   -4694.6224            0    2932.2552    20.160236     20.03669     20.95271    8463.7303    3545.7728    2163.8793    3087.1134     347.9488   -1081.9843    692.23054   -3823.1644 
 3213000    277.83432   -4703.7414   -4167.9145   -4703.7414            0    3363.4214    19.947981    19.968373    21.215546    8450.7611    5468.7246    3754.5285    867.01113   -292.25124   -1073.9752   -651.39629   -3753.3873 
 3214000    265.94874   -4683.7038   -4170.7993   -4683.7038            0    1793.2213    20.174385    20.086723    21.044228    8527.9059    341.81044    2943.3211    2094.5322    46.059196     215.0891    -524.9497    -3947.775 
 3215000    252.56287   -4722.3171   -4235.2284   -4722.3171            0    2207.3548    20.318836    20.155834    20.650412    8457.2332    1246.8805    3044.7413    2330.4426    312.34361    1261.8514   -932.44251   -3962.9731 
 3216000    240.74112   -4661.5138   -4197.2243   -4661.5138            0    3449.9379    20.266911    20.167215    20.650949    8440.6037    4317.3048    1148.0813    4884.4276   -169.50077   -202.77396    -295.7467   -3772.5454 
 3217000    248.53823   -4704.2931   -4224.9663   -4704.2931            0    2819.3804    20.019731     20.15779    20.878824    8425.7233    3395.1206    1920.3081    3142.7126   -502.41848   -728.32603   -1385.5457   -3878.5193 
 3218000    275.56547   -4704.9385   -4173.4874   -4704.9385            0    3408.4049     20.23045     19.84836    21.219176    8520.3743    3241.7076     4589.913    2393.5941   -1178.0623    1447.1203   -508.85405   -3749.9558 
 3219000    264.78707   -4686.7179   -4176.0537   -4686.7179            0    3070.7948    20.051801    19.975948    21.091761    8448.3839    2250.6154    4722.9019     2238.867    670.09403    384.76127   -344.56538    -3797.698 
 3220000    257.59393   -4717.9297   -4221.1381   -4717.9297            0    1691.4623    20.054778    20.262017    20.816481    8458.7822    2600.0432   -422.54113    2896.8849   -244.99379    349.66815   -823.26184   -4012.4748 
 3221000    258.43007   -4694.3826   -4195.9784   -4694.3826            0    2402.9976    20.233891    20.178146    20.741693     8468.468    886.09193    3945.1449    2377.7561   -673.42915   -177.34236   -1060.1063   -3899.1988 
 3222000    267.47655   -4725.9036   -4210.0526   -4725.9036            0    2799.2658    20.026504    20.130814    20.954247    8447.7007    3728.3348     1799.281    2870.1817   -674.99489   -87.653462   -1851.6554   -3865.1801 
 3223000    256.03459   -4706.4971   -4212.7129   -4706.4971            0    2786.6852    19.862384    20.158696    21.364106     8554.183    4653.1654    3451.0937    255.79646   -378.53591    666.65261    1283.7573   -3865.0628 
 3224000    258.15977   -4682.0175   -4184.1346   -4682.0175            0    2359.9059    20.061861    19.980005    21.079872    8449.5736    2141.4754    2773.4282    2164.8142    825.94999    220.57313   -358.21834   -3893.3273 
 3225000    260.12591   -4708.4582   -4206.7835   -4708.4582            0    3257.2938     19.99666    20.164161    20.863779    8412.6066    3129.6833    3455.2223    3186.9757   -199.67282    508.98271   -403.53008   -3807.1486 
 3226000    266.05222   -4704.1341     -4191.03   -4704.1341            0    3142.3778    20.223565    20.080274    20.823077    8456.1416    1140.1489    4281.4343    4005.5501    253.11054    750.29155    174.50145   -3803.4989 
 3227000    276.39054    -4655.041   -4121.9986    -4655.041            0    418.34984    20.230256     20.36362    20.926834    8621.0445   -1035.0291    533.59988    1756.4788   -573.17231    5.4283616   -398.80969   -4069.3998 
 3228000    273.09289   -4688.7519   -4162.0692   -4688.7519            0    3417.2795    20.252113     20.08978    20.624249    8391.1922    2425.8934    3267.7145    4558.2304   -164.51389   -866.96223    -1249.961   -3743.8731 
 3229000    262.52383   -4687.7509   -4181.4516   -4687.7509            0    4379.3376    20.101981    20.140671     20.97622    8492.5875    5345.7452    2397.2701    5394.9977    21.638758    175.70494   -498.02757   -3639.0458 
 3230000    263.26223   -4657.1072   -4149.3839   -4657.1072            0    3819.6597    20.024225    19.868891    21.225934    8444.9317    3425.8924    5151.8569    2881.2299    192.53652    1140.7653   -1087.4015   -3678.9521 
 3231000    283.33656   -4696.3663   -4149.9279   -4696.3663            0    2779.6768    20.149583    20.012337    20.890146    8423.7474    2721.0592     3190.565    2427.4061    280.39453    488.46266    1153.1966   -3808.4399 
 3232000    258.65539   -4669.7013   -4170.8626   -4669.7013            0    2158.6011    20.200347    20.224245    20.751985    8477.9488    2612.6477     1426.237    2436.9186   -437.05262    113.39327    880.12135   -3903.9684 
 3233000    270.42125    -4728.263   -4206.7329    -4728.263            0    2318.2452    20.174165    20.208171    20.882542    8513.4571    3453.0227    813.69856    2688.0145   -294.58385   -782.06502    1233.7654   -3918.8995 
 3234000    260.48695   -4668.5932   -4166.2222   -4668.5932            0    4484.7209    20.058578    20.173072    20.886902    8451.7415    4001.7417    4449.8381    5002.5829    69.614142   -201.13178    717.41616   -3613.4356 
 3235000    245.15282   -4688.2212   -4215.4233   -4688.2212            0    1676.0282    20.138456    20.069388    21.145433    8546.2755    956.32774    2604.2631    1467.4939    353.32228    446.10829    1548.0396   -4006.5254 
 3236000    261.30607   -4702.2996   -4198.3488   -4702.2996            0     3260.547      20.0734    19.981337    21.066488    8449.6284    2995.6877     3185.865    3600.0882    -691.1382   -285.53121    434.73571   -3796.5544 
 3237000    257.00442   -4682.9825   -4187.3279   -4682.9825            0    2131.8711    20.085037    20.203954    20.930607    8493.5812     2543.168    1143.1168    2709.3284    271.07281    300.68301   -443.13331   -3923.2526 
 3238000    258.54699   -4670.4842   -4171.8546   -4670.4842            0    2741.5339    20.260289    20.120898    20.801796    8479.9603    2525.2834    2526.3168    3173.0013    439.59086    195.64586   -4.4386811   -3832.8049 
 3239000    260.86699   -4695.2009    -4192.097   -4695.2009            0    3307.4925    20.004051    20.137286    20.917723    8426.2295    3204.1486    3237.5603    3480.7687   -409.98181   -687.43154    1448.9171   -3785.6461 
 3240000    258.33955   -4674.8396     -4176.61   -4674.8396            0    1480.5088    20.160176     19.99842     21.19125    8543.7113    2306.1548     1230.926     904.4454   -11.376574    187.42093    6.3082877   -3992.1367 
 3241000     256.4805    -4702.994   -4208.3498    -4702.994            0    3088.4391    20.118134    20.088782    20.959808     8470.881    3344.3708    2545.5918    3375.3547   -488.61695    570.55238    462.01592   -3826.8068 
 3242000    273.75576   -4713.3439   -4185.3829   -4713.3439            0    1548.7083    20.141396    20.163806    20.857707     8470.882    2354.0401     999.1434    1292.9414    114.52631    61.101249   -960.89353   -3994.0569 
 3243000    258.96907   -4669.0757   -4169.6321   -4669.0757            0    2055.7842    20.270862     20.08044    21.096325    8587.2136    1529.9015    2670.2803    1967.1709   -348.83749    435.67598   -662.68064   -3912.1745 
 3244000    258.91756   -4673.4968   -4174.1525   -4673.4968            0    1627.8881    20.025642    19.986763    21.148304    8464.5616    3435.1683    2085.0974   -636.60155    -50.76344   -873.81351    1240.7684   -3973.1947 
 3245000     271.2355   -4654.8446   -4131.7442   -4654.8446            0     3166.333     19.94565     20.33241    20.871999    8464.4959    4375.7888    2132.1112     2991.099    -414.3703    657.27901    921.42418    -3740.873 
 3246000    255.19377    -4656.948   -4164.7853    -4656.948            0    2868.1943    20.242781     19.96581    20.815878    8413.0186    2821.5304    3009.7029    2773.3498   -38.428376    641.41486   -597.34961   -3812.8715 
 3247000    264.73764   -4709.5539   -4198.9851   -4709.5539            0    2338.6341    20.192041    20.235989    20.759838    8482.5926    2485.3119    1069.2365    3461.3538   -390.71238   -291.70181    216.94448   -3909.6729 
 3248000      271.237   -4662.4578   -4139.3545   -4662.4578            0    2087.5599    20.092454    20.277231    20.831213    8487.0387    2373.1301    1860.8834    2028.6663    292.83339   -378.27959    514.18029   -3880.9673 
 3249000    257.69925   -4707.4493   -4210.4546   -4707.4493            0     2135.639    20.317005    20.023596    20.826422    8472.5948    1240.3577    2694.0194      2472.54    128.25268    942.65511    -310.9176   -3946.5663 
 3250000    260.72055   -4648.1236   -4145.3021   -4648.1236            0    2683.0582    19.950067     20.27925    21.123126    8545.8338     3517.666    2150.1164    2381.3921   -440.30907    -32.74341   -540.50986   -3810.9066 
Loop time of 361.497 on 64 procs for 250000 steps with 972 atoms

Performance: 119.503 ns/day, 0.201 hours/ns, 691.569 timesteps/s
194.5% CPU use with 32 MPI tasks x 2 OpenMP threads

MPI task timing breakdown:
Section |  min time  |  avg time  |  max time  |%varavg| %total
---------------------------------------------------------------
Pair    | 23.712     | 34.16      | 43.276     |  80.1 |  9.45
Bond    | 0.87385    | 1.1431     | 1.5574     |  15.9 |  0.32
Kspace  | 157.25     | 166.95     | 176.63     |  43.4 | 46.18
Neigh   | 2.2331     | 2.5431     | 2.849      |  10.4 |  0.70
Comm    | 64.875     | 72.052     | 77.406     |  33.2 | 19.93
Output  | 0.50492    | 0.50531    | 0.50699    |   0.0 |  0.14
Modify  | 69.484     | 71.488     | 75.646     |  17.9 | 19.78
Other   |            | 12.66      |            |       |  3.50

Nlocal:        30.3750 ave          36 max          24 min
Histogram: 3 2 2 3 2 5 7 1 5 2
Nghost:        2559.50 ave        2600 max        2519 min
Histogram: 4 0 1 6 8 2 3 3 3 2
Neighs:        9218.72 ave       11889 max        6706 min
Histogram: 2 4 2 4 3 8 2 5 0 2

Total # of neighbors = 294999
Ave neighs/atom = 303.49691
Ave special neighs/atom = 2.0000000
Neighbor list builds = 8371
Dangerous builds = 1

unfix		3
unfix		2
unfix		1

write_data	data.final.${pid}
write_data	data.final.0
System init for write_data ...
PPPM initialization ...
  extracting TIP4P info from pair style
  using 12-bit tables for long-range coulomb (../kspace.cpp:340)
  G vector (1/distance) = 0.37165298
  grid = 24 24 25
  stencil order = 5
  estimated absolute RMS force accuracy = 0.0035009363
  estimated relative force accuracy = 1.0542966e-05
  using double precision FFTW3
  3d grid and FFT values/proc = 3458 576
Last active /omp style is kspace_style pppm/tip4p/omp
WARNING: Not all mixed pair coeffs generated from mixing. Use write_data with 'pair ij' option to store all pair coeffs. (../write_data.cpp:312)

write_restart   restart.lmp.${pid}
write_restart   restart.lmp.0
System init for write_restart ...
PPPM initialization ...
  extracting TIP4P info from pair style
  using 12-bit tables for long-range coulomb (../kspace.cpp:340)
  G vector (1/distance) = 0.37165298
  grid = 24 24 25
  stencil order = 5
  estimated absolute RMS force accuracy = 0.0035009363
  estimated relative force accuracy = 1.0542966e-05
  using double precision FFTW3
  3d grid and FFT values/proc = 3458 576
Last active /omp style is kspace_style pppm/tip4p/omp
Total wall time: 0:06:01
