LAMMPS (30 Jul 2021)
  using 1 OpenMP thread(s) per MPI task
package omp 0
using multi-threaded neighbor list subroutines
echo both

include		in.partitions
variable        pid world 0
include		in.temp
variable        temperature equal 235.94
variable	tempDamp equal 100.0
include		in.pressure
variable        pressure equal 125.0
variable        pressureDamp equal 1000.0 # This is 1 ps
include		in.seed
variable        seed world 745823

units		real
atom_style	full
read_restart	restart.lmp.${pid}
read_restart	restart.lmp.0
Reading restart file ...
  restart file = 30 Jul 2021, LAMMPS = 30 Jul 2021
  restoring atom style full from restart
  orthogonal box = (-0.025965994 1.0609468 -0.031678452) to (18.233538 22.568231 22.244874)
  4 by 4 by 4 MPI processor grid
  restoring pair style lj/cut/tip4p/long/omp from restart
  restoring bond style harmonic/omp from restart
  restoring angle style harmonic/omp from restart
  864 atoms
  576 bonds
  288 angles
Finding 1-2 1-3 1-4 neighbors ...
  special bond factors lj:    0        0        0       
  special bond factors coul:  0        0        0       
     2 = max # of 1-2 neighbors
     1 = max # of 1-3 neighbors
     1 = max # of 1-4 neighbors
     2 = max # of special neighbors
  special bonds CPU = 0.581 seconds
  read_restart CPU = 0.954 seconds
include 	in.setup
variable	out_freq equal 1000
variable	out_freq2 equal 10000
variable	out_freq3 equal 1000

timestep	2.0

neigh_modify    delay 7 every 1

include		in.tip4p
# This is TIP4P/Ice

# create groups ###
group ox type 2
288 atoms in group ox
group hy type 1
576 atoms in group hy

# set charges - beside manually ###
set group ox charge -1.1794
Setting atom values ...
  288 settings made for charge
set group hy charge 0.5897
Setting atom values ...
  576 settings made for charge

# ### TIP3P Potential Parameters ###
pair_style lj/cut/tip4p/long/omp 2 1 1 1 0.1577 8.5
pair_coeff 1 1*2 0.000 0.000
pair_coeff 2 2 0.21084 3.1668
bond_style  harmonic
bond_coeff  1 450 0.9572
angle_style harmonic
angle_coeff 1 55 104.52
kspace_style pppm/tip4p/omp 1.0e-5
pair_modify tail yes

thermo          ${out_freq}
thermo          1000
thermo_style    custom step temp pe etotal epair emol press lx ly lz vol pxx pyy pzz pxy pxz pyz enthalpy

restart 	${out_freq3} restart.lmp.${pid} restart2.lmp.${pid}
restart 	1000 restart.lmp.${pid} restart2.lmp.${pid}
restart 	1000 restart.lmp.0 restart2.lmp.${pid}
restart 	1000 restart.lmp.0 restart2.lmp.0


include         in.dump
dump            myDump all atom ${out_freq2} dump.water.${pid}
dump            myDump all atom 10000 dump.water.${pid}
dump            myDump all atom 10000 dump.water.0
dump            myDump2 all dcd ${out_freq2} dump.dcd
dump            myDump2 all dcd 10000 dump.dcd
dump_modify     myDump append yes
dump_modify     myDump2 append yes


variable natoms 	equal  "count(all)"                        # NUMBER ATOMS
variable H      	equal  "enthalpy/v_natoms"                 # ENTHALPY-per-atom
variable Vol      	equal  "vol/v_natoms"                 # volume-per-atom
fix AVG all 		ave/time ${out_freq} 1 ${out_freq} v_Vol v_H file vol_enthalpy.dat
fix AVG all 		ave/time 1000 1 ${out_freq} v_Vol v_H file vol_enthalpy.dat
fix AVG all 		ave/time 1000 1 1000 v_Vol v_H file vol_enthalpy.dat


timer           timeout 23:50:00 every 1000
New timer settings: style=normal  mode=nosync  timeout=23:50:00

fix 		1 all shake 1e-6 200 0 b 1 a 1
       0 = # of size 2 clusters
       0 = # of size 3 clusters
       0 = # of size 4 clusters
     288 = # of frozen angles
  find clusters CPU = 0.357 seconds
fix             2 all nph iso ${pressure} ${pressure} ${pressureDamp}
fix             2 all nph iso 125 ${pressure} ${pressureDamp}
fix             2 all nph iso 125 125 ${pressureDamp}
fix             2 all nph iso 125 125 1000
fix             3 all temp/csvr ${temperature} ${temperature} ${tempDamp} ${seed}
fix             3 all temp/csvr 235.94 ${temperature} ${tempDamp} ${seed}
fix             3 all temp/csvr 235.94 235.94 ${tempDamp} ${seed}
fix             3 all temp/csvr 235.94 235.94 100 ${seed}
fix             3 all temp/csvr 235.94 235.94 100 745823

run             250000
PPPM initialization ...
  extracting TIP4P info from pair style
  using 12-bit tables for long-range coulomb (../kspace.cpp:340)
  G vector (1/distance) = 0.37121125
  grid = 24 25 25
  stencil order = 5
  estimated absolute RMS force accuracy = 0.0033400935
  estimated relative force accuracy = 1.0058592e-05
  using double precision FFTW3
  3d grid and FFT values/proc = 2940 384
Last active /omp style is kspace_style pppm/tip4p/omp
Neighbor list info ...
  update every 1 steps, delay 7 steps, check yes
  max neighbors/atom: 2000, page size: 100000
  master list distance cutoff = 10.8154
  ghost atom cutoff = 10.8154
  binsize = 5.4077, bins = 4 4 5
  1 neighbor lists, perpetual/occasional/extra = 1 0 0
  (1) pair lj/cut/tip4p/long/omp, perpetual
      attributes: half, newton on, omp
      pair build: half/bin/newton/omp
      stencil: half/bin/3d
      bin: standard
Per MPI rank memory allocation (min/avg/max) = 9.229 | 9.237 | 9.248 Mbytes
Step Temp PotEng TotEng E_pair E_mol Press Lx Ly Lz Volume Pxx Pyy Pzz Pxy Pxz Pyz Enthalpy 
15500000    248.11489   -3984.3306   -3559.0701   -3984.3306            0    496.75312    18.259504    21.507284    22.276553    8748.2774    424.14953    478.97023    587.13959    276.20329    600.47746   -996.08934   -3495.6921 
15501000    234.42598   -4002.3251    -3600.527   -4002.3251            0   -754.18718    18.344515    21.607415    22.380265    8871.0347   -1628.7953   -1320.5606    686.79442   -631.59163    173.98244   -1249.7223   -3698.0999 
15502000    233.05678   -3994.7756   -3595.3243   -3994.7756            0   -234.76742    18.299208    21.554049    22.324991     8805.468   -325.56058   -176.26121   -202.48046    561.70394   -582.40497   -415.96645   -3625.4728 
15503000    232.11273    -4011.055   -3613.2217    -4011.055            0    1712.1401    18.238398    21.482424    22.250803    8717.9756    201.07399    2695.8002    2239.5462   -774.20584    -453.5702    576.18095   -3395.5355 
15504000    231.30425   -4041.5064   -3645.0589   -4041.5064            0    1166.7603    18.194606    21.430843    22.197377    8655.3285    669.22453    780.80635    2050.2499    1323.4663    567.71013    19.691504   -3497.7798 
15505000    234.12564   -4005.7747   -3604.4913   -4005.7747            0    1084.7729    18.215876    21.455896    22.223326    8685.7188    1369.4743   -894.79421    2779.6386    244.64863   -241.92004     688.9223   -3467.0807 
15506000    251.14366   -4022.1038   -3591.6521   -4022.1038            0    936.32654    18.310193    21.566988    22.338392    8821.3351    103.42803    1527.1504    1178.4012    586.18965    84.551919   -627.82802   -3471.1936 
15507000    221.38283   -3984.1722   -3604.7296   -3984.1722            0    1053.9609    18.316109    21.573958    22.345611    8829.8897    1247.3572    85.237002    1829.2885   -120.08432   -130.08674    137.62158   -3469.0059 
15508000    243.25271     -4007.72   -3590.7932     -4007.72            0     707.2581    18.283661    21.535738    22.306024    8783.0446   -545.24117    1319.7931    1347.2223    179.97944    873.76387    68.196193   -3500.1993 
15509000    234.69697   -3975.3879   -3573.1253   -3975.3879            0    195.19388    18.377153    21.645859    22.420083    8918.4682   -1275.3603    894.34888    966.59302    711.70861   -556.38093   -226.94647   -3547.7371 
15510000    243.21841    -4010.671    -3593.803    -4010.671            0   -610.89515    18.375889     21.64437    22.418541     8916.628   -1549.5928   -91.084522   -192.00814    -306.2324   -377.51508    -814.5926   -3673.2437 
15511000    236.38047   -4025.0952   -3619.9472   -4025.0952            0    803.46231    18.339658    21.601695     22.37434    8863.9905      870.913    1048.1148    491.35909   -127.39685    633.52158   -438.11019   -3516.0818 
15512000    250.53551   -4002.5595   -3573.1503   -4002.5595            0    1146.8014    18.381024    21.650418    22.424806    8924.1048    1330.5453    1067.7937    1042.0652   -697.22177    -138.7599   -30.979339   -3423.8953 
15513000    238.11854   -4000.3986   -3592.2716   -4000.3986            0    32.705825    18.341481    21.603842    22.376564    8866.6346    927.85413    -827.4312   -2.3054599   -519.12181   -163.86565   -399.87036   -3588.0424 
15514000    227.95949   -4034.7871   -3644.0724   -4034.7871            0    275.45084    18.355551    21.620414    22.393729    8887.0549   -1966.0943    2229.4827    562.96415    -789.8845   -247.21929   -8.6729677   -3608.3716 
15515000    234.18134   -4018.2279   -3616.8491   -4018.2279            0   -394.75644    18.421436    21.698019    22.474109    8983.0961   -958.79987   -1088.8974      863.428   -487.62289    39.586193   -1966.2974   -3668.5659 
15516000    235.30054    -4011.191   -3607.8939    -4011.191            0   -616.59878    18.373269    21.641284    22.415345    8912.8145   -821.74573   -274.90269   -753.14792    407.41435   -503.19803   -117.68296   -3688.0421 
15517000    247.22096   -4038.1408   -3614.4126   -4038.1408            0    -882.4201    18.384453    21.654457    22.428989    8929.1004   -1656.6202   -464.53893   -526.10119    1436.8607    105.47738   -430.16663   -3729.3229 
15518000    219.13172   -4023.6035   -3648.0193   -4023.6035            0   -665.89589     18.38116    21.650579    22.424972    8924.3037   -360.02204   -870.16976   -767.49588   -874.30402    550.56989    382.69007   -3734.6868 
15519000    231.13753   -4020.3217   -3624.1598   -4020.3217            0    122.19932    18.385884    21.656142    22.430735    8931.1856   -2012.6172    2550.7542   -171.53903    -1120.029    467.14103    474.14542   -3608.2431 
15520000    219.75582   -4024.1049    -3647.451   -4024.1049            0   -1005.7817     18.37336    21.641391    22.415456    8912.9468   -2234.5306    -330.0963   -452.71812   -571.29748    140.84549   -819.29681   -3778.1887 
15521000     235.4866   -4038.8656   -3635.2496   -4038.8656            0   -195.60334     18.27191    21.521896    22.291687    8766.1197    -926.8885   -263.23557    603.31405    422.05388    603.05695   -982.05997   -3660.2565 
15522000     245.9542    -4009.415   -3587.8579    -4009.415            0    321.46414    18.389775    21.660726    22.435482    8936.8572   -945.03883    147.28565    1762.1456   -933.28342    1003.8704   -1105.7707   -3545.9599 
15523000     229.8185   -4027.1915   -3633.2904   -4027.1915            0    889.07005     18.29423    21.548186    22.318918     8798.284   -1224.4976    3185.9523    705.75537    -529.4645   -70.856352    763.69442   -3519.2103 
15524000    248.86349   -3982.1255    -3555.582   -3982.1255            0   -1491.5793    18.370549     21.63808    22.412027    8908.8572   -1474.8974   -1581.5929   -1418.2478    581.20973    516.96184    289.29854   -3749.3777 
15525000    232.37473   -3998.7171   -3600.4348   -3998.7171            0    324.38548    18.338113    21.599875    22.372455    8861.7503     79.85561    756.94875    136.35207    155.98564    456.58241   -631.27681   -3558.5114 
15526000    237.61966   -3983.1501   -3575.8782   -3983.1501            0    61.403318    18.414069    21.689341    22.465121    8972.3225   -1449.7711    125.25636    1508.7247    885.43091    189.21383    514.56303   -3567.8434 
15527000    244.88118    -4007.635    -3587.917    -4007.635            0    210.44059    18.371794    21.639547    22.413546    8910.6687   -624.43322    597.00139    658.75359    246.17927    339.84228    690.50346   -3560.5696 
15528000    238.80494   -4021.3549   -3612.0514   -4021.3549            0   -490.71207    18.360279    21.625984    22.399498    8893.9242   -1915.1675   -695.06013    1138.0915   -426.96464    1461.8584   -152.05303   -3675.7011 
15529000    226.94539   -4027.1376   -3638.1609   -4027.1376            0   -61.653924    18.288496    21.541432    22.311922    8790.0138   -433.01841   -23.573034    271.62967   -545.60016   -48.113309    26.547942   -3646.0646 
15530000    249.71113   -4010.6406   -3582.6443   -4010.6406            0    1283.8358    18.292963    21.546694    22.317372     8796.456    536.69209   -395.13536    3709.9506   -437.16599    633.39737   -102.41984   -3417.9445 
15531000    238.62362   -3981.9158   -3572.9231   -3981.9158            0   -1070.9951     18.38062    21.649943    22.424314    8923.5177   -1883.2426   -1057.9143   -271.82841   -317.91694   -342.58429   -1049.5173   -3712.3028 
15532000    235.07957    -3986.298   -3583.3797    -3986.298            0    570.98153    18.335918     21.59729    22.369777    8858.5692    167.80755   -600.42218    2145.5592   -404.80847   -415.35854   -1144.9503   -3509.6128 
15533000    235.81377   -3996.4329   -3592.2562   -3996.4329            0   -22.488016    18.465873    21.750359    22.528322    9048.2607   -962.41275    977.56645   -82.617753    699.81983    1108.7608    201.81578   -3595.2237 
15534000    234.07672    -4034.495   -3633.2955    -4034.495            0     -1098.78    18.450544    21.732303     22.50962    9025.7455    -1873.205   -1379.4848   -43.650108   -786.42393   -760.23481   -147.27551   -3777.9292 
15535000    227.19674    -4038.495   -3649.0875    -4038.495            0   -365.89116    18.390223    21.661253    22.436029    8937.5101   -1924.5766    540.04323    286.85992   -280.84502   -558.85149    496.76237   -3696.7794 
15536000    225.18444   -4022.4804    -3636.522   -4022.4804            0    802.22024    18.477197    21.763697    22.542137    9064.9168   -1459.7613    706.35502     3160.067   -443.21784    -550.2969    345.38199   -3530.4665 
15537000    246.97796   -4023.6101   -3600.2983   -4023.6101            0    179.61207    18.421516    21.698113    22.474207    8983.2134     488.9186   -20.492145     70.40977   -927.83103   -469.48762   -481.96313   -3576.7672 
15538000    232.17774    -4008.318   -3610.3733    -4008.318            0    170.40605    18.422668    21.699469    22.475612    8984.8983   -116.51755    829.43971     -201.704   -227.63351     165.4414   -454.15147    -3588.044 
15539000    243.18322   -4027.1872   -3610.3794   -4027.1872            0   -315.43141    18.496044    21.785897    22.565131    9092.6854   -1744.6889   -227.11772    1025.5124   -330.66619     38.15982   -914.63359    -3652.208 
15540000    230.26349   -4017.4161   -3622.7523   -4017.4161            0     1090.713    18.470975    21.756369    22.534546    9055.7632   -834.33858    2350.7338    1755.7439   -1070.1029    882.03561    887.80982   -3478.7029 
15541000    224.13962   -3994.4226    -3610.255   -3994.4226            0   -819.55981    18.501142    21.791901     22.57135    9100.2052   -281.44706    -1316.755   -860.47736    538.86026    -54.10529    421.38229   -3719.0246 
15542000    231.36046   -4025.6716   -3629.1277   -4025.6716            0    1501.6578    18.438914    21.718605    22.495432    9008.6895    1414.8388    2838.7842    251.35043   -469.13421    -179.5298   -499.12403   -3431.8362 
15543000    234.89144   -4010.3072   -3607.7113   -4010.3072            0    1031.7328    18.419528    21.695771    22.471781    8980.3044    1419.8252     2390.645   -715.27192   -1688.7775    348.93637     1163.439   -3472.5868 
15544000    240.47856   -4011.0896   -3598.9175   -4011.0896            0    1028.7015    18.464166    21.748349     22.52624    9045.7524    158.57799    1649.0795    1278.4469   -895.56982   -852.07624   -493.44023   -3463.2081 
15545000    231.78114   -4049.6146   -3652.3497   -4049.6146            0    90.149051    18.468987    21.754027    22.532121    9052.8393    542.00255   -450.11628    178.56088    314.48109   -305.47163   -1045.4189   -3640.4476 
15546000    236.90495   -3999.2937   -3593.2467   -3999.2937            0    414.62658    18.531653    21.827839    22.608573    9145.3024     759.1942     229.5272    255.15832   -413.77723    704.87047   -1176.3446    -3537.946 
15547000    224.38677    -4011.451   -3626.8598    -4011.451            0    -617.1721    18.435892    21.715046    22.491745    9004.2606   -1032.9051   -402.65949   -415.95168   -312.98702    435.56078   -456.98548   -3707.9055 
15548000    236.18467   -4009.7974    -3604.985   -4009.7974            0    420.95822    18.490291     21.77912    22.558112    9084.2026    -396.5104    630.37199    1029.0131   -981.80307    585.59172   -489.97602   -3549.2148 
15549000    252.16784   -4038.2029   -3605.9958   -4038.2029            0   -994.10905    18.498768    21.789106    22.568454    9096.7033   -2044.7508   -293.46429   -644.11201   -343.29141   -281.11882   -449.65444   -3737.8804 
15550000    228.38787   -4016.1777   -3624.7287   -4016.1777            0    1252.1323    18.385335    21.655496    22.430066    8930.3862    488.35346    2177.1356    1090.9077   -1941.3112    383.69158   -184.12944   -3461.6503 
15551000    242.41332   -4008.9699   -3593.4818   -4008.9699            0    690.08543    18.405536     21.67929    22.454711    8959.8553   -141.44305    1272.0141    939.68519    -1271.446   -796.46328   -102.47094   -3503.3081 
15552000    235.69378   -4020.0807   -3616.1097   -4020.0807            0   -423.29123    18.533166    21.829622    22.610419    9147.5426   -926.07137    219.97262   -563.77493   -861.84314    609.52377   -69.540161   -3672.5799 
15553000    230.97553   -4024.8526   -3628.9685   -4024.8526            0   -888.81675    18.520038    21.814158    22.594403    9128.1168     -1966.45    2.1780026   -702.17826    185.38132    530.33285    116.20972   -3747.2915 
15554000    231.77421   -3989.4677   -3592.2147   -3989.4677            0    228.61841    18.441279     21.72139    22.498317    9012.1554    719.03544    2.3777307    -35.55796    286.30074   -251.11251   -831.42597   -3562.1666 
15555000    234.89389   -4018.7923   -3616.1922   -4018.7923            0     235.4611     18.47704    21.763512    22.541945     9064.686   -426.22727   -747.17154    1879.7821   -1182.7177    1195.9028    260.30348   -3585.0645 
15556000    247.68116   -4006.5999   -3582.0829   -4006.5999            0    828.43423    18.421818    21.698469    22.474575     8983.655     10.47807    1141.1351    1333.6895   -213.24493    544.16509   -24.165195   -3473.5436 
15557000    249.65843   -4041.2996   -3613.3936   -4041.2996            0    192.06995    18.421477    21.698066    22.474159    8983.1556    -831.9479   -373.15668    1781.3144   -1399.7991   -120.53329    218.34562   -3588.2305 
15558000    240.22597   -4014.6373   -3602.8982   -4014.6373            0   -883.88249    18.471778    21.757314    22.535526     9056.944   -1989.7545   -159.52849   -502.36453   -969.12783    762.38543     189.2264   -3719.6469 
15559000    239.86647   -4004.0262   -3592.9033   -4004.0262            0   -857.95995     18.59128    21.898072    22.681318    9233.8634   -2065.0416    226.86261    -735.7009   -1590.4669    947.99826   -422.12587   -3708.4417 
15560000    232.33263   -4032.7777   -3634.5675   -4032.7777            0   -244.79904    18.390854    21.661997    22.436799    8938.4308   -1854.9139    1129.8514   -9.3346322   -311.18254    1100.6896  -0.76857265    -3666.479 
15561000    227.11121   -3992.5181   -3603.2573   -3992.5181            0   -258.09373    18.399421    21.672088    22.447251    8950.9279    -240.9672   -514.53907   -18.774934    -525.5626   -142.64355   -203.53606   -3636.9489 
15562000    239.95958   -3998.0172   -3586.7347   -3998.0172            0   -886.98574    18.333228    21.594121    22.366496    8854.6712   -948.71423     -7.21788   -1705.0251   -272.24021    867.65465     1066.867   -3701.2767 
15563000    243.16773   -3974.1661   -3557.3849   -3974.1661            0    872.61171    18.393081     21.66462    22.439516    8941.6788    811.28464    1242.4981     564.0524   -1013.8729   -677.73314   -724.59121   -3443.5918 
15564000    227.50887   -3992.5453   -3602.6029   -3992.5453            0   -110.13679    18.425198    21.702449    22.478698       8988.6    550.37637   -802.52427   -78.262475   -567.84514    131.01133    341.09356   -3617.0406 
15565000     230.7567   -4026.9356   -3631.4265   -4026.9356            0    767.70107    18.321948    21.580834    22.352733    8838.3357    595.38029   -64.848639    1772.5715   -62.183211   -571.14316     512.4182   -3532.4714 
15566000    243.79735   -4000.4732   -3582.6129   -4000.4732            0    896.21807    18.366899    21.633781    22.407574    8903.5481    1475.9851    657.80917    554.85994   -1144.2872   -763.64806    233.42886   -3466.2397 
15567000    219.24708   -4023.6417   -3647.8597   -4023.6417            0    407.96685    18.392502    21.663938     22.43881    8940.8345    850.92735   -1178.4561    1551.4293   -360.24296    1008.1268   -70.623764   -3594.6637 
15568000    229.27462   -4010.6483   -3617.6794   -4010.6483            0   -155.64266    18.364971    21.631511    22.405222     8900.745    96.934703    146.58461   -710.44729     -76.1394     265.7205    205.18789   -3637.8831 
15569000    229.08821   -4046.2722   -3653.6228   -4046.2722            0    902.02976    18.220174    21.460958     22.22857    8691.8683   -143.03794    2001.3422    847.78499    -362.4566   -294.91854    656.09045   -3539.2797 
15570000    242.72187   -4012.6175   -3596.6006   -4012.6175            0    541.69119     18.25769    21.505147    22.274339      8745.67     308.7379    1169.0583    147.27738    689.49989    295.86397    1637.9391   -3527.5097 
15571000    235.43354   -4013.1876   -3609.6626   -4013.1876            0    547.99742    18.248588    21.494426    22.263235    8732.5962    -219.0415    1316.2898    546.74393   -553.74701   -18.576502   -723.78687   -3539.8719 
15572000    240.97731   -3965.6528   -3552.6259   -3965.6528            0    101.33768    18.360227    21.625923    22.399434    8893.8489    793.01299    560.21422   -1049.2142   -1122.5001   -598.66879    418.72108   -3539.4817 
15573000    236.17604   -4036.8473   -3632.0496   -4036.8473            0    680.12323    18.274508    21.524956    22.294857    8769.8598    1394.3137   -4.3362307    650.39221   -1449.3715   -5.1575051    103.21684   -3545.0623 
15574000    236.88059    -4026.004   -3619.9988    -4026.004            0    1348.3094    18.231033    21.473748    22.241817    8707.4182    2031.0882    679.15809    1334.6819    315.13825     334.2431    296.62048   -3448.7787 
15575000    237.12091   -4018.5844   -3612.1673   -4018.5844            0   -772.03453    18.357191    21.622347    22.395731    8889.4379   -702.62797   -1229.5468   -383.92881   -207.93443    754.08797    944.00564   -3712.2564 
15576000     227.7095   -4012.8099   -3622.5236   -4012.8099            0    -821.8213    18.324797    21.584191     22.35621    8842.4605   -831.15718   -417.35854   -1216.9482   -38.732782   -588.46984   -384.50733   -3728.5042 
15577000    240.76599   -4046.2117    -3633.547   -4046.2117            0    410.58062    18.282381     21.53423    22.304462    8781.1996    427.19296    159.77202    644.77688   -479.17355    367.19095   -320.75018   -3580.9661 
15578000     248.4744   -4003.3628   -3577.4862   -4003.3628            0    375.99309    18.377847    21.646676     22.42093    8919.4787   -502.77073    679.41875    951.33125   -995.13732    700.35331    20.800299   -3528.5765 
15579000    243.49221   -4029.7647   -3612.4274   -4029.7647            0    212.78719    18.375962    21.644456     22.41863    8916.7342    236.27616    221.59921    180.48621   -1027.6485    1.5450804    -660.3593   -3584.7562 
15580000    246.60676   -3986.5902   -3563.9147   -3986.5902            0   -708.62544    18.346278    21.609493    22.382417    8873.5935    92.215962   -915.10959   -1302.9827   -611.92867   -921.12855   -296.11732   -3655.6195 
15581000    235.75922   -4006.0702    -3601.987   -4006.0702            0    1445.7929    18.288193    21.541075    22.311552    8789.5765     336.7073    2438.0708    1562.6006    98.910643    -328.6115   -352.70672   -3416.6552 
15582000    224.03829   -4005.3727   -3621.3788   -4005.3727            0   -517.57708    18.402325    21.675508    22.450793    8955.1665    438.43372   -1927.3936   -63.771388    796.74144   -703.04237   -1047.9918   -3688.9753 
15583000    215.55602   -3985.8454   -3616.3898   -3985.8454            0    200.47021    18.425569    21.702886    22.479151    8989.1431    907.46878   -1287.6727    981.61458    -1095.587    224.25358    -599.7202   -3590.1087 
15584000    245.04571   -3986.4613   -3566.4614   -3986.4613            0    394.28519    18.477471     21.76402    22.542471    9065.3207    4.5366314    707.55722    470.76172     244.3246   -316.14658    146.36166   -3514.3335 
15585000    231.16539   -3994.6567   -3598.4471   -3994.6567            0   -494.60722    18.440997    21.721059    22.497974    9011.7431   -514.46866    -759.0735   -210.27949    758.99705   -97.678076   -467.33853   -3663.4519 
15586000    242.07855   -4012.3459   -3597.4315   -4012.3459            0    250.77959    18.411917    21.686806    22.462496    8969.1777   -408.56961   -594.37477    1755.2831    272.48918   -503.18197   -392.63695    -3564.628 
15587000    234.08484   -4021.9073   -3620.6939   -4021.9073            0    924.27354    18.388896    21.659691    22.434411    8935.5767   -168.94769    2052.1197     889.6486   -278.46445    343.94926   -325.16542   -3500.2461 
15588000    247.29612   -4010.9839   -3587.1268   -4010.9839            0    1833.4483    18.328676    21.588759    22.360942    8848.0767    1327.2777    2391.4374    1781.6299    410.24151    1034.4267    671.52238   -3350.5384 
15589000     229.4119   -4038.8838   -3645.6797   -4038.8838            0   -529.20743    18.423739    21.700731    22.476919    8986.4655   -840.98302   -1083.6143    336.97501    114.47926   -512.81581   -60.321717   -3715.0367 
15590000    236.97259    -4024.601    -3618.438    -4024.601            0    1873.6713     18.28844    21.541367    22.311855    8789.9338    2643.2666    2080.6993    897.04804    701.88327    432.36426   -709.95018   -3378.2481 
15591000    227.55541   -4035.1393   -3645.1171   -4035.1393            0   -645.34659    18.349276    21.613023    22.386074    8877.9437   -342.88913   -1196.6996   -396.45103   -773.81685    482.52636   -740.60263   -3728.6738 
15592000    247.12524    -4010.454   -3586.8898    -4010.454            0    183.44213    18.323036    21.582116    22.354061    8839.9109    584.40142   -363.81624     329.7412   -635.78868    832.71895      143.693   -3563.2403 
15593000    228.14945   -4014.4251   -3623.3848   -4014.4251            0    26.773279    18.338357    21.600162    22.372753    8862.1046   -101.56817    -70.49023    252.37823   -102.80006    669.49494   -597.47665   -3619.9245 
15594000    232.96177   -4027.0559   -3627.7673   -4027.0559            0    42.476615    18.425997    21.703391    22.479674    8989.7706   -143.48067   -1052.1956    1323.1061   -596.55238   -407.65586   -150.01566   -3622.1984 
15595000    237.67289   -4037.8482    -3630.485   -4037.8482            0    150.24958    18.449555    21.731138    22.508413    9024.2942   -411.27044    1597.8583   -735.83912    345.48823    493.68537   -805.12636   -3610.7107 
15596000    240.52727   -4016.3735    -3604.118   -4016.3735            0    314.14718    18.418124    21.694117    22.470068    8978.2514    901.10014    642.94229    -601.6009   -31.818665   -195.21385    1097.5842    -3562.984 
15597000    242.14154   -4024.9779   -3609.9556   -4024.9779            0    -469.4465    18.384683    21.654728     22.42927    8929.4358    626.95388   -821.25185   -1214.0415   -980.38017    395.19321   -365.75051   -3671.0901 
15598000    233.38743   -4054.8809   -3654.8628   -4054.8809            0   -666.28769    18.446497    21.727537    22.504683    9019.8082   -792.36392   -1249.2588    42.759602    436.25055   -443.21073   -1097.2722   -3742.5094 
15599000    230.95247    -4011.147   -3615.3023    -4011.147            0   -68.744914    18.349727    21.613554    22.386624    8878.5977   -265.71508     486.0148   -426.53447    1331.2441    -455.8358   -291.90686   -3624.2038 
15600000    237.19694   -4054.0489   -3647.5014   -4054.0489            0   -753.02958    18.411412    21.686211     22.46188    8968.4393   -409.14403   -1726.7517   -123.19299    283.78323    876.89719    583.09181   -3745.9943 
15601000    233.83296   -4058.1118   -3657.3301   -4058.1118            0    1421.6208    18.306484     21.56262    22.333868    8815.9763    2128.0344    554.91643    1581.9116    651.89228    623.88218    248.88549   -3474.5495 
15602000    225.04988   -4005.7768    -3620.049   -4005.7768            0   -955.07526    18.449335    21.730879    22.508145    9023.9717   -2094.3929   -1759.3539    988.52099    173.36091    810.88656   -732.67205    -3745.742 
15603000    237.76408   -4027.1442   -3619.6247   -4027.1442            0   -1111.1596    18.421344    21.697911    22.473997    8982.9619   -772.69117   -2607.9152    47.127649   -833.37579   -620.27757   -17.710043   -3765.1947 
15604000    230.23443    -4020.245   -3625.6311    -4020.245            0   -858.30439    18.354656    21.619361    22.392638    8885.7557   -1586.7658   -585.97213   -402.17522    680.41374    46.654705    1287.8752   -3736.8584 
15605000    245.64282   -4009.4616   -3588.4382   -4009.4616            0   -62.253919     18.27282    21.522968    22.292797    8767.4297   -255.13591   -1003.4857    1071.8598   -316.72098    643.81893    44.946549   -3596.3982 
15606000    225.29867   -4028.6284   -3642.4742   -4028.6284            0   -444.46735    18.395696      21.6677    22.442706     8945.493     286.7843    355.59688   -1975.7832    141.62078    1001.4482    446.72038   -3700.4598 
15607000    225.08674   -4034.5288   -3648.7379   -4034.5288            0    -916.8817     18.37905    21.648093    22.422398    8921.2303   -793.07956   -1064.3921   -893.17341    264.88312    706.62461    -316.9841   -3768.0306 
15608000    237.79122   -4028.6137   -3621.0477   -4028.6137            0   -1133.1947    18.433328    21.712025    22.488617    9000.5041   -878.60613   -466.90366   -2054.0744   -800.08456    478.37901    130.00781   -3769.7944 
15609000     231.1075   -4018.7837   -3622.6733   -4018.7837            0   -241.20835    18.351533    21.615682    22.388827    8881.2199   -1213.5864    306.54604    183.41531   -54.964355    345.43375    449.97303   -3653.9155 
15610000    237.28497   -4042.7558   -3636.0575   -4042.7558            0   -300.14311    18.364506    21.630962    22.404654    8900.0684   -660.13786    1070.1591   -1310.4506   -946.18136   -11.647824    579.06604   -3675.0156 
15611000    229.20579   -4017.8587   -3625.0078   -4017.8587            0   -484.73695    18.314959    21.572602    22.344207    8828.2257   -401.61088   -981.66099   -70.938975   -1830.6405   -83.392746   -141.67659    -3687.418 
15612000    234.14728   -4018.5616   -3617.2412   -4018.5616            0    913.36311    18.259159    21.506878    22.276132    8747.7816   -320.60978    1840.7872    1219.9119    652.63547   -563.63434   -602.22069   -3500.7166 
15613000    229.17406   -4024.4471   -3631.6506   -4024.4471            0    1478.2006    18.340677    21.602895    22.375583    8865.4686    1855.3173    1062.2854    1516.9992   -1436.0596    160.63605     283.3464   -3440.5285 
15614000    253.51712   -4006.0947    -3571.575   -4006.0947            0   -349.95148    18.453137    21.735358    22.512784    9029.5524   -1155.6825    971.45129   -865.62325   -419.38869   -511.37817   -401.58373    -3617.659 
15615000    236.25017   -3987.4992   -3582.5745   -3987.4992            0   -860.12459    18.470413    21.755707    22.533861    9054.9369   -1516.0347     -518.861   -545.47803   -39.108336   -679.92811   -145.80177     -3696.16 
15616000    238.57328   -4048.0963   -3639.1898   -4048.0963            0    19.179058    18.388542    21.659274    22.433978    8935.0602     -285.873   -347.37547    690.78564   -972.40085   -281.44633   -10.475557   -3636.6906 
15617000    232.03639   -4037.8432   -3640.1407   -4037.8432            0    -1185.916     18.52588     21.82104    22.601531    9136.7585   -228.17783   -1576.6587   -1752.9113   -1055.3071    65.514198    398.85125   -3798.1643 
15618000     235.5261   -4042.2037     -3638.52   -4042.2037            0     89.26077    18.413452    21.688614    22.464368    8971.4209   -433.90149    458.14303    243.54078    -482.3389   -672.44547   -154.12319   -3626.8413 
15619000    231.14454   -3992.8517   -3596.6779   -3992.8517            0   -113.37872    18.491123      21.7801    22.559127     9085.429    338.41908   -373.24885   -305.30638    265.12014   -471.72507    281.68358   -3611.7008 
15620000    225.21156   -4004.4103   -3618.4054   -4004.4103            0    592.77788    18.356631    21.621686    22.395047    8888.6235    66.875185    375.00227    1336.4562   -667.13298    1404.6163   -571.10936   -3541.5627 
15621000     235.2021   -4034.4807   -3631.3523   -4034.4807            0    25.611163    18.385217    21.655357    22.429922    8930.2137    237.95823    334.37224   -495.49698    575.11301   -122.39547   -890.35378   -3628.0168 
15622000    250.00441   -4014.7171   -3586.2181   -4014.7171            0    1250.8455    18.421775    21.698418    22.474523    8983.5923    2554.7677    1132.3694    65.399302   -27.675431     519.5137   -580.14138   -3422.3367 
15623000    222.99437   -4029.9697    -3647.765   -4029.9697            0    1008.3755    18.379381    21.648483    22.422802     8921.713    2234.0395    536.13314    254.95397    905.83747    555.82204    270.60489   -3516.5612 
15624000     236.5677   -4008.9497   -3603.4808   -4008.9497            0    257.60375    18.420493    21.696908    22.472959    8981.7168    265.53887   -641.35842    1148.6308    426.40474   -471.84779    1408.1664   -3569.7375 
15625000    240.44975   -3988.4262   -3576.3035   -3988.4262            0    1828.9097    18.335575    21.596886    22.369359    8858.0723    751.00789    3334.0571    1401.6641   -278.12523     609.1177    -314.5389   -3340.0342 
15626000    233.97214   -4017.7591   -3616.7389   -4017.7591            0    527.09969    18.391295    21.662516    22.437337    8939.0734    833.23209     409.3456    338.72138    19.986044    1322.8962   -1159.2138   -3548.0224 
15627000    234.44078   -4000.9192   -3599.0957   -4000.9192            0    978.42432    18.372443    21.640311    22.414338    8911.6132   -131.99597    2156.7673    910.50166   -880.18563     1041.176    195.30174   -3471.9331 
15628000    239.85194   -4008.5223   -3597.4243   -4008.5223            0    1253.8593    18.422181    21.698896    22.475018    8984.1858    1370.0248     2431.069   -39.515923    513.14378   -608.24392   -359.03919   -3433.1372 
15629000    243.31537   -3999.9723   -3582.9381   -3999.9723            0    543.46861    18.379023    21.648062    22.422365    8921.1915    792.03919    144.44914     693.9175   -485.78141    1505.8712    1046.4846   -3512.2293 
15630000    227.47194   -4020.3952   -3630.5161   -4020.3952            0    376.98597    18.462296    21.746146    22.523958    9043.0038   -412.49257    635.15461    908.29588   -134.65955    243.54126   -401.08139   -3580.7981 
15631000    230.65095     -4027.81   -3632.4822     -4027.81            0    142.86654    18.445074    21.725861    22.502947     9017.721    830.97799    26.066072   -428.44445   -534.76252    499.76439   -1154.9808   -3613.6932 
15632000    240.37802   -3974.4078   -3562.4081   -3974.4078            0    882.47912    18.413363     21.68851     22.46426    8971.2912    1161.2936    368.98375      1117.16   -7.2218432   -1251.2432    940.51319   -3446.9471 
15633000    227.67706   -3995.5471   -3605.3165   -3995.5471            0    262.03723     18.39782    21.670202    22.445297    8948.5915    657.57582    15.996678    112.53918   -676.24939    270.35904    33.990626    -3571.119 
15634000    238.61434   -4036.8976   -3627.9208   -4036.8976            0    233.79278    18.386729    21.657138    22.431767    8932.4178    48.036896    741.82492   -88.483466   -1289.2474   -270.26902    465.21293   -3597.4645 
15635000    227.90491   -4030.6148   -3639.9935   -4030.6148            0   -746.72211    18.451388    21.733298     22.51065    9026.9849   -1720.6477    176.96335   -696.48201   -495.70518   -133.86771    1186.6816    -3738.299 
15636000    229.62608    -3986.561   -3592.9898    -3986.561            0   -285.98024     18.40006    21.672841    22.448031     8951.861   -1056.0546   -290.41565    488.52957   -856.84855    209.82274   -851.51482   -3630.3256 
15637000    234.84314   -4036.8607   -3634.3476   -4036.8607            0     502.5008    18.478293    21.764988    22.543474    9066.5304   -1096.2076    1767.3058    836.40424    -550.3175    369.83245    411.84162   -3567.9039 
15638000    237.22946   -4028.9517   -3622.3485   -4028.9517            0    491.11776    18.488585    21.777111    22.556031     9081.689   -24.992915    322.41329    1175.9329   -1284.0418    543.85904    678.83374   -3557.3014 
15639000    210.73984   -4035.9828   -3674.7819   -4035.9828            0    376.98402    18.493271     21.78263    22.561747    9088.5954    518.73691    -470.8591    1083.0743   -294.29501    1604.4304    266.20216   -3624.8135 
15640000    229.56863   -4007.8851   -3614.4124   -4007.8851            0   -391.13842    18.518003    21.811761     22.59192    9125.1079   -829.02057    171.00294   -515.39763     172.0321    995.98376    351.19766   -3666.4652 
15641000    233.63362   -4065.0796   -3664.6396   -4065.0796            0    24.655921    18.481963    21.769311    22.547951    9071.9333    264.75148   -790.37561    599.59189   -1185.5618    169.38444    1245.4456   -3661.3775 
15642000    230.21801   -4046.5421   -3651.9563   -4046.5421            0    -429.0678    18.550947    21.850565    22.632112    9173.8964   -934.10954   -365.94938    12.855528    1238.6152    458.27734    327.97791   -3709.3621 
15643000    226.42958   -4033.6242   -3645.5317   -4033.6242            0    996.90989    18.473328    21.759141    22.537418     9059.225    1108.2451    19.766636    1862.7179   -713.24843    76.192615    1400.1486   -3513.8204 
15644000     223.2295    -4022.352   -3639.7443    -4022.352            0    1168.0014     18.41653    21.692239    22.468123    8975.9199    776.12728    1077.5609     1650.316   -1747.2142   -667.41075    168.49674   -3486.8476 
15645000    249.56532   -4037.0702   -3609.3238   -4037.0702            0   -533.74133    18.511244      21.8038    22.583674    9115.1198    523.85385   -1694.4299   -430.64793   -674.06942   -78.059244    595.86524   -3680.2765 
15646000    237.13012   -4056.2248   -3649.7919   -4056.2248            0   -207.78602    18.465748    21.750212     22.52817    9048.0777    620.43523   -1704.1871     460.3938    101.04505   -553.92329   -20.713596   -3677.2107 
15647000    225.19085   -4039.9583   -3653.9889   -4039.9583            0    238.49156    18.406138    21.679999    22.455445    8960.7342   -955.33857   -186.61201    1857.4253   -1882.0509    4.6635792    853.18107    -3622.822 
15648000    220.97823   -4044.9712   -3666.2221   -4044.9712            0   -274.80128    18.453822    21.736164    22.513619     9030.557    313.15965    -119.7555    -1017.808    754.26102   -373.17733    442.53079   -3702.4138 
15649000    250.62212   -4016.6851   -3587.1274   -4016.6851            0    -108.4338    18.426056     21.70346    22.479745    8989.8558    603.10773   -1257.4874    329.07829   -1258.3624     806.3868   -134.86801   -3601.3439 
15650000    226.90817   -4014.5764   -3625.6635   -4014.5764            0    556.53346    18.387226    21.657724    22.432373    8933.1424    732.41385   -551.55165    1488.7382    287.03966   -450.26073    873.75881    -3553.158 
15651000    233.98745   -3991.0531   -3590.0066   -3991.0531            0    1113.5089    18.502844    21.793906    22.573426    9102.7171      565.025    1195.0545    1580.4472   -362.17152   -1100.0986    827.51169   -3442.1841 
15652000    227.36162    -4033.441    -3643.751    -4033.441            0   -4.0340383     18.51326    21.806175    22.586134    9118.0993   -1367.8116    585.73084    769.97866   -218.02932    284.55074    50.855753   -3644.2874 
15653000    231.19755   -4000.6805   -3604.4158   -4000.6805            0    1017.7208    18.464618    21.748881    22.526791    9046.4162    168.33835    1774.8661    1109.9578   -70.723813    1684.4386    18.856445   -3470.1452 
15654000     228.4303   -4034.4174   -3642.8957   -4034.4174            0    1610.8122    18.371553    21.639262    22.413251    8910.3174    1406.9923    2388.2366    1037.2077   -461.98412    1244.9532   -750.58949   -3433.5741 
15655000    239.77322   -4033.3865   -3622.4234   -4033.3865            0   -506.55263    18.520947     21.81523    22.595513     9129.462    53.770217   -353.76447   -1219.6636    356.64707   -279.38148   -1258.8523   -3689.8678 
15656000    224.77118   -4055.9695   -3670.7193   -4055.9695            0    412.23658    18.516033    21.809442    22.589518    9122.1973     536.0856    232.31052    468.31362   -1418.8115    929.11705    486.43486   -3615.8763 
15657000    236.87198   -4053.8118   -3647.8213   -4053.8118            0   -760.92397    18.509889    21.802204    22.582021    9113.1184   -478.77376   -1118.3914   -685.60669    -938.9915    1424.4569    358.15674   -3748.9523 
15658000    235.52478   -4048.9506   -3645.2692   -4048.9506            0    354.00308    18.458136    21.741246    22.518883    9036.8924    124.94228    1007.5369   -70.469938    43.372873   -108.99989   -791.01678   -3598.6138 
15659000    235.97109   -4048.9055   -3644.4592   -4048.9055            0    1459.5515    18.461473    21.745177    22.522954    9041.7949    749.95894    2072.2912    1556.4044   -792.19793   -344.69028    452.60895   -3451.9949 
15660000    257.74115    -4057.085   -3615.3255    -4057.085            0    827.55126    18.500452    21.791088    22.570508    9099.1867    936.67444    237.26654    1308.7128   -594.92021   -237.58409   -205.79715   -3505.5075 
15661000    233.60667   -4081.3207   -3680.9269   -4081.3207            0    247.73714     18.52023    21.814385    22.594638    9128.4014    668.18738   -121.88282    196.90685    448.69275    8.2941033   -114.13181    -3647.946 
15662000    218.73532   -4026.6386   -3651.7337   -4026.6386            0   -126.33801    18.539751    21.837378    22.618453    9157.2973    420.30572   -443.05884   -356.26091   -1932.5442    1340.7973   -1307.1854   -3668.6062 
15663000    234.09854   -4031.7967   -3630.5598   -4031.7967            0   -175.15467    18.471073    21.756484    22.534666    9055.9068   -1107.8748    189.39579    393.01504    -329.8695   -2.0222946   -402.28223   -3653.6926 
15664000    240.36961   -4064.3183    -3652.333   -4064.3183            0   -13.516214    18.455908    21.738622    22.516165    9033.6211    152.43047   -164.40298   -28.576141   -364.60122   -516.19586    565.24614   -3654.1137 
15665000    238.88607   -4051.2298   -3641.7873   -4051.2298            0    341.20115    18.497734    21.787887    22.567192    9095.1774   -101.36419     641.4542    483.51343   -876.84353    1676.4432    89.505609   -3596.5291 
15666000    236.74289   -4036.1492     -3630.38   -4036.1492            0   -127.66482    18.454881    21.737412    22.514912    9032.1124    156.61716    292.08937   -831.70099   -165.14355    398.21372   -409.09473   -3647.1965 
15667000    220.88453   -4031.1084   -3652.5199   -4031.1084            0   -20.867666    18.472851    21.758578    22.536835     9058.522   -1405.4818    819.03859    523.84021    796.19895   -246.09434   -501.61002   -3655.2767 
15668000    247.44564    -4027.695   -3603.5817    -4027.695            0    -145.1003    18.526892    21.822231    22.602765    9138.2554   -203.33071     692.9268     -924.897     193.5026    478.22494    449.74833   -3622.9195 
15669000    243.04838    -4028.581   -3612.0044    -4028.581            0   -477.99747    18.518787    21.812685    22.592877    9126.2682   -492.42777   -1316.4181    374.85345    292.00325    73.939793   -326.84231   -3675.6246 
15670000    237.37805   -4034.7261   -3627.8683   -4034.7261            0   -1167.8627    18.546014    21.844754    22.626093    9166.5794   -1403.5365   -1603.2194   -496.83213   -1017.7456    1024.0725    305.73882   -3783.9942 
15671000    235.04375   -4042.2141   -3639.3571   -4042.2141            0    2105.9829    18.442864    21.723257     22.50025    9014.4794    641.66879    3673.9335    2002.3465    1202.3675    786.66919    574.16963     -3362.49 
15672000    218.23537   -4012.9299    -3638.882   -4012.9299            0    1109.1195    18.554128    21.854312    22.635993    9178.6167    498.73099    928.19583    1900.4317   -1128.6964   -951.40113    197.39333   -3490.4145 
15673000    239.60993   -4053.6589   -3642.9757   -4053.6589            0    506.06213    18.476508    21.762886    22.541297    9063.9041   -34.974703    325.19923    1227.9619   -1207.1696    918.88996    413.13307   -3576.0805 
15674000    231.54088   -4050.7501    -3653.897   -4050.7501            0    8.2555136    18.491294    21.780302    22.559335    9085.6812   -998.56718    470.25572      553.078   -893.87772   -439.29932   -1793.8947   -3652.8031 
15675000    236.03248   -4036.4848   -3631.9332   -4036.4848            0   -828.36629    18.591606    21.898457    22.681716    9234.3502    156.51115   -1763.3048   -878.30517    850.44631   -867.69676    143.49539   -3743.4922 
15676000    240.21423   -4066.3633   -3654.6443   -4066.3633            0   -184.21462    18.559761    21.860947    22.642865    9186.9786    694.87061   -737.87748   -509.63698    41.937943    134.68028    391.21292   -3679.3259 
15677000    239.61695   -4028.0319   -3617.3367   -4028.0319            0   -965.71372    18.521653    21.816061    22.596373    9130.5054   -44.072779    192.50966   -3045.5781    818.22946   -1129.4447    273.01486   -3745.9302 
15678000    242.59988   -4040.6961   -3624.8882   -4040.6961            0    263.52861    18.477769    21.764372    22.542835    9065.7599    170.00982    476.29083    144.28519   -996.73359   -452.80643   -731.64113   -3590.0458 
15679000    239.01646   -4045.9874   -3636.3214   -4045.9874            0    1050.6847    18.490012    21.778792    22.557771    9083.7915    688.20891    2466.3248   -2.4797548   -1084.6835   -751.02015   -288.61478    -3497.129 
15680000      232.863    -4036.011   -3636.8918    -4036.011            0    575.32378    18.502721    21.793762    22.573277    9102.5364      455.414    1544.1296   -273.57227   -1760.5405   -60.000456    538.55345   -3560.5169 
15681000    250.21424   -4051.1198   -3622.2612   -4051.1198            0     794.4994    18.426424    21.703894    22.480194    8990.3951    1285.7236     1607.559   -509.78438    38.403071   -325.00237    573.75848   -3518.0898 
15682000    254.77697   -4041.3135   -3604.6345   -4041.3135            0   -506.24711    18.513665    21.806652    22.586629    9118.6978   -809.32442   -488.36277   -221.05413   -299.15682   -1201.7721   -16.722476   -3671.9587 
15683000    220.74439   -4036.8956   -3658.5473   -4036.8956            0    1491.3224    18.460086    21.743543    22.521262    9039.7573    3824.9059   -767.03844    1416.0996   -1472.1965      1145.86   -436.06057    -3461.938 
15684000    223.62324   -4048.3301   -3665.0475   -4048.3301            0    704.98275    18.458486    21.741659     22.51931     9037.407    1281.6608    153.76727    679.52013   -699.52347    373.36849    526.30331   -3572.1298 
15685000    231.28295   -4001.5094   -3605.0983   -4001.5094            0   -193.19219    18.547757    21.846808    22.628221    9169.1653    385.32971     1.625387   -966.53168    -194.1168    422.79361    105.28319   -3630.9325 
15686000    246.70163   -4023.6737   -3600.8356   -4023.6737            0   0.95476053    18.491591    21.780652    22.559698    9086.1197   -1.5930815   -1155.8776     1160.335   -397.71598    900.77036   -1098.4733   -3600.7091 
15687000    233.48697   -4033.4682   -3633.2795   -4033.4682            0   -517.12567    18.546857    21.845748    22.627123    9167.8306   -310.37826   -87.783879   -1153.2149   -1553.7104   -24.151684   -137.75141    -3702.421 
15688000    240.88123   -4020.0548   -3607.1926   -4020.0548            0    521.43784    18.475383    21.761561    22.539924    9062.2481    1524.5261   -493.47777    533.26519    331.66312     818.7008   -270.07832   -3538.2775 
15689000    224.31306   -4051.0772   -3666.6123   -4051.0772            0     1315.136    18.428877    21.706783    22.483187    8993.9864    1605.7092    565.15029    1774.5485   -575.67371    805.66724   -85.595547   -3494.1084 
15690000    250.54464   -4032.2451   -3602.8201   -4032.2451            0   -684.16156    18.510625    21.803071    22.582919    9114.2056    161.08756   -1197.2401   -1016.3321   -775.09114    471.05807    411.37571   -3693.7598 
15691000    230.16546   -4017.6778   -3623.1821   -4017.6778            0   -376.70464    18.512927    21.805783    22.585728    9117.6072    -1186.945    250.73047   -193.89937   -372.82261    213.48833    261.70682   -3673.2728 
15692000    237.83011   -4032.7289   -3625.0962   -4032.7289            0    1587.4846    18.401368    21.674381    22.449626      8953.77    1710.1484    120.36746    2931.9378   -189.76546    298.85264   -846.47873      -3417.8 
15693000    243.17254   -4041.5724   -3624.7829   -4041.5724            0    419.03223    18.452375    21.734461    22.511855    9028.4342    900.73068    22.202667    334.16335   -717.81453   -931.45671   -1287.3805   -3569.6088 
15694000    237.90192   -4011.8825   -3604.1268   -4011.8825            0    1021.5202    18.438698     21.71835    22.495168    9008.3723     218.2635    1980.0799    866.21737   -915.52229    85.340727   -1485.8671   -3469.9216 
15695000    242.64443   -4050.6696   -3634.7854   -4050.6696            0    146.57272    18.474949     21.76105    22.539395    9061.6095    2433.9369   -1348.7649   -645.45385    316.91261    1077.1943   -227.30166   -3615.4151 
15696000    239.79444   -4039.0896   -3628.0901   -4039.0896            0    291.96183    18.459205    21.742505    22.520187    9038.4629    997.04992    36.946799   -158.11123   -217.39397    312.41268    631.63718   -3589.6047 
15697000    230.71957   -4027.0402   -3631.5948   -4027.0402            0    758.73033    18.462883    21.746838    22.524675     9043.867    1981.4548   -217.33386    512.07001   -28.491513    758.27609    1149.1759   -3531.5216 
15698000    237.55731   -4031.2677   -3624.1026   -4031.2677            0    489.55814    18.440792    21.720817    22.497723    9011.4419    1130.8883   -796.01173    1133.7978     -804.942    274.00861   -450.31399   -3559.7635 
15699000    241.58755   -4028.3448    -3614.272   -4028.3448            0     386.2973    18.507059    21.798871    22.578569    9108.9396   -802.62885     776.9236    1184.5972   -546.46792   -80.169506    301.02047   -3562.9546 
15700000    226.19659   -4027.2225   -3639.5293   -4027.2225            0    1464.6885    18.476715     21.76313    22.541549    9064.2081    1568.7429   -220.25777    3045.5804    -704.2765     303.4672    1157.9033   -3445.9089 
15701000    238.97647   -4032.8528   -3623.2553   -4032.8528            0   -118.43189     18.48378    21.771451    22.550168    9074.6095    687.41725   -641.63406   -401.07885    956.62383    147.18031   -523.42672   -3638.9291 
15702000    241.66112   -4037.5982   -3623.3993   -4037.5982            0   -190.85623     18.54338    21.841652     22.62288    9162.6751   -120.35021   -348.33518   -103.88331   -28.305235     791.0525    21.677303   -3648.9031 
15703000    237.49582   -4056.3301   -3649.2704   -4056.3301            0    295.24108    18.449092    21.730593    22.507849    9023.6149    767.16401     1071.361   -952.80177   -773.86123    -164.8678    213.56392   -3610.4166 
15704000    231.25772   -4044.8527   -3648.4849   -4044.8527            0    2133.9672     18.41533    21.690827     22.46666    8974.1668    2352.2492    2317.7927    1731.8598    377.20507   -657.60454   -342.94423   -3369.1934 
15705000      222.684     -4044.43   -3662.7572     -4044.43            0    405.93202    18.585311    21.891042    22.674036    9224.9729    1688.1855    766.49964   -1236.8891   -593.63289   -908.09732    -182.8712   -3608.1444 
15706000     235.8264   -4065.9487   -3661.7503   -4065.9487            0   -623.32066     18.57937    21.884043    22.666788    9216.1284    -1190.788   -257.93494   -421.23906    588.16534   -753.47479    35.911512   -3745.5295 
15707000    239.30742   -4042.3085   -3632.1438   -4042.3085            0   -926.23326    18.522199    21.816703    22.597039    9131.3123   -158.94672   -719.85852   -1899.8945    823.76252    451.59461   -473.43492   -3755.4911 
15708000    233.76825   -4022.2677    -3621.597   -4022.2677            0    1100.8871    18.380283    21.649546    22.423902    8923.0263    685.36364     2175.774    441.52369    1076.2732   -813.19968   -951.78703    -3478.335 
15709000    227.84607   -4037.2387   -3646.7183   -4037.2387            0      1058.11    18.538342    21.835718    22.616733    9155.2083    95.119105    2013.2969    1065.9139   -29.697586   -642.64586    720.00801   -3505.4402 
15710000    233.79529   -4009.6168   -3608.8996   -4009.6168            0     1684.299     18.43077    21.709013    22.485496    8996.7578    2382.1959    685.06321    1985.6379   -853.65732   -1058.9941   -658.58374   -3387.9053 
15711000    243.51115   -4061.5992   -3644.2294   -4061.5992            0    859.17825    18.407009    21.681025    22.456507     8962.006    1283.2549    420.30834    873.97153    313.67908    21.373889   -275.84506   -3531.9334 
15712000    248.21374   -4044.5066   -3619.0767   -4044.5066            0    413.65256      18.3996    21.672299    22.447469    8951.1893   -445.06986     553.5312    1132.4963   -283.20367   -222.75497     -455.183   -3565.0769 
15713000     246.8657   -4027.7693     -3604.65   -4027.7693            0    350.62564    18.449943    21.731596    22.508888    9024.8644    1456.5776   -971.95675    567.25607   -802.14724    343.11373    -591.9861   -3558.5012 
15714000    239.23198   -4046.8487   -3636.8133   -4046.8487            0    471.69021    18.329573    21.589816    22.362036    8849.3754    721.27821   -53.571998    747.36443    389.51248   -322.05315   -935.08603   -3575.9374 
15715000    220.29788   -4061.9255   -3684.3425   -4061.9255            0    117.45396    18.459556    21.742919    22.520615    9038.9783    555.89613   -1588.2011    1384.6668   -300.23512    276.14076    175.49931   -3668.8592 
15716000    232.00922   -4052.1795   -3654.5236   -4052.1795            0     1346.404    18.386746    21.657158    22.431787    8932.4418    2146.8783    1375.6549    516.67888    601.63908    -167.1088    711.57962   -3479.1269 
15717000    234.01341   -4061.8115   -3660.7205   -4061.8115            0   -291.16034    18.403899    21.677362    22.452713    8957.4644    457.74896   -1735.4612     404.2312    -697.4468    353.85398   -486.97883   -3698.7563 
15718000    234.10049   -4023.2254   -3621.9852   -4023.2254            0   -1164.4118    18.463029     21.74701    22.524853    9044.0815   -205.93547     -2819.08   -468.22008    335.18375    340.30507    419.19097   -3775.5695 
15719000     235.1717   -4016.0881   -3613.0119   -4016.0881            0   -307.29771    18.499654    21.790149    22.569535    9098.0105   -1524.2697    638.87009   -36.493582   -1714.7475    659.54984    434.11777   -3653.7857 
15720000    222.51289   -4036.5535   -3655.1741   -4036.5535            0   -244.37874    18.466911    21.751582    22.529589    9049.7873    425.63989   -629.91166   -528.86444     319.1057   -561.42158   -377.93467   -3687.4276 
15721000    236.19188   -4044.4112   -3639.5863   -4044.4112            0     1362.291    18.442343    21.722644    22.499615    9013.7157    1106.2141    920.42744    2060.2315    278.69115    717.88281    127.30301   -3460.5053 
15722000    229.69106   -4039.8608   -3646.1782   -4039.8608            0    480.50836    18.433917     21.71272    22.489336    9001.3676    873.76432    1281.0598   -713.29901    484.82483   -1375.6957    968.61175   -3583.0991 
15723000    230.44293   -4036.4678   -3641.4965   -4036.4678            0    201.30844    18.453848    21.736196    22.513652    9030.5964   -103.02749   -270.10475    977.05757   -250.95733   -323.54844    830.08292   -3614.9838 
15724000    234.59791   -4031.0401   -3628.9474   -4031.0401            0   -292.43584    18.478405     21.76512     22.54361    9066.6949   -520.76654    663.70563   -1020.2466     2.923034    85.019539    711.53593   -3667.6157 
15725000    233.16245   -4043.6436   -3644.0112   -4043.6436            0    593.36154    18.425288    21.702555    22.478808    8988.7321    193.99743    1161.0839    425.00331    808.83928   -1056.6943   -122.18939   -3566.2265 
15726000    243.65106   -4052.7738   -3635.1643   -4052.7738            0    353.70911    18.389596    21.660516    22.435265    8936.5973    1052.1669   -883.79956    892.75999   -135.58949   -1462.0211    965.23371    -3589.065 
15727000    238.45661   -3993.0963   -3584.3898   -3993.0963            0   -845.71491    18.461108    21.744746    22.522508    9041.2578   -1867.1466   -1648.9624    978.96431   -263.87658   -398.55167     159.5917   -3695.9036 
15728000    248.83733   -4034.6178   -3608.1191   -4034.6178            0     727.6988    18.402961    21.676257    22.451569    8956.0947    583.23037   -75.027249    1674.8933   -48.139222   -99.321696    750.40187   -3513.0704 
15729000    239.94754   -4029.3999   -3618.1381   -4029.3999            0    380.48187    18.446071    21.727036    22.504164    9019.1839    891.01332   -578.18108    828.61338   -1001.2405   -473.77599    594.88383   -3568.0912 
15730000    246.33196   -4026.6018   -3604.3973   -4026.6018            0   -529.78666    18.511306    21.803873     22.58375    9115.2115     584.4145   -1474.8651   -698.90937    576.91053     -118.319   -239.63274    -3674.825 
15731000    243.17645    -4038.658   -3621.8619    -4038.658            0    227.71665    18.440655    21.720655    22.497555    9011.2406    472.86123   -369.42637    579.71511   -304.04062   -552.90013    1093.2578   -3591.9354 
15732000    233.10203   -4039.7753   -3640.2464   -4039.7753            0     1048.265    18.436737    21.716041    22.492777    9005.4993    20.654253    1110.9616     2013.179    136.21351    -447.5866   -545.04699   -3502.5715 
15733000    234.04841   -4049.5097   -3648.3587   -4049.5097            0   -358.07092    18.476399    21.762757    22.541163    9063.7426   -473.92139   -202.48637   -397.80499    413.30719   -1708.9423    66.825402   -3695.6905 
15734000     246.7942   -4043.6083   -3620.6115   -4043.6083            0    471.25392    18.458829    21.742063    22.519729    9037.9108    1649.5241    -353.6258    117.86346    1165.9052   -265.21849    948.68158   -3558.4962 
15735000    229.42511    -4040.252   -3647.0252    -4040.252            0   -812.84193    18.510086    21.802436    22.582262      9113.41   -1110.3431   -1987.8595    659.67683    368.55002    -995.6316     1253.362   -3755.0598 
15736000    239.95583   -4044.6432   -3633.3671   -4044.6432            0   -1419.6376    18.512271     21.80501    22.584927    9116.6373   -1213.8039   -1622.0337   -1423.0751    108.60503     1125.782    887.01524   -3822.1176 
15737000    242.75542   -4047.3385    -3631.264   -4047.3385            0    526.52851    18.455275    21.737876    22.515392    9032.6907    791.14161    309.81481    478.62909    523.00562    419.59493    174.17396   -3561.9031 
15738000    250.64403   -4046.9835   -3617.3882   -4046.9835            0     423.8848    18.432702    21.711289    22.487854     8999.588    791.32763    192.26608    288.06068    68.765723    630.94862    107.06242   -3561.7534 
15739000    234.88157   -4039.0807   -3636.5017   -4039.0807            0     549.0353    18.384477    21.654485    22.429019    8929.1352    1137.5976    866.36151   -356.85325    175.63274    183.73099    405.92241   -3565.0051 
15740000    244.20988   -4053.1946   -3634.6272   -4053.1946            0   -197.59471     18.50432    21.795645    22.575228    9104.8964   -927.21475    144.77558    189.65505    320.98919   -827.00612    199.74436    -3660.865 
15741000    227.63538   -4040.8934   -3650.7342   -4040.8934            0   -670.93522     18.43789    21.717398    22.494182    9007.1878   -608.16663    141.23089   -1545.8699    1601.6696    -465.5173    398.51026   -3738.8686 
15742000    239.51462   -4019.2207   -3608.7008   -4019.2207            0   -12.750781    18.494674    21.784284     22.56346    9090.6652   -54.729907    34.243879   -17.766315   -447.00017    4.3443641    705.52153   -3610.3913 
15743000    246.72196   -4019.8501   -3596.9771   -4019.8501            0   -141.03519     18.45316    21.735385    22.512812    9029.5855    110.83409   -264.21309   -269.72656    58.489211    243.78653    -1381.169   -3615.5496 
15744000    238.18015   -4022.9801   -3614.7474   -4022.9801            0     128.9466    18.476809    21.763241    22.541664    9064.3469    -64.66468    501.51152    -50.00704    314.85408   -1366.7324   -366.25269   -3597.7015 
15745000    249.68126   -4032.3005   -3604.3553   -4032.3005            0   -59.332523    18.521929    21.816385     22.59671    9130.9132    1265.9305    -643.9959   -799.93213    338.26493   -379.39218   -694.96642   -3612.2564 
15746000    235.35857   -4049.7915   -3646.3949   -4049.7915            0   -732.57479    18.523122    21.817791    22.598165    9132.6778   -21.738282   -1463.6112   -712.37493    1041.9588    538.13289    865.88359   -3743.9671 
15747000    226.40567   -4029.5662   -3641.5146   -4029.5662            0   -69.863993    18.411442    21.686247    22.461916    8968.4831    990.13677   -1049.8026   -149.92619    262.93962   -798.09147   -86.486392   -3650.6526 
15748000    237.25733   -4016.0737   -3609.4227   -4016.0737            0    973.55394    18.326206     21.58585    22.357928    8844.4999     1248.593    1186.5985    485.47025   -110.70022   -99.494061   -893.36025    -3483.846 
15749000    225.84827    -4040.302   -3653.2058    -4040.302            0   -896.29854    18.443824    21.724388    22.501422    9015.8875   -454.84973   -700.00445   -1534.0415   -224.77055   -209.53839   -351.56371   -3771.0578 
15750000    249.75512   -4029.1729   -3601.1011   -4029.1729            0   -758.13871     18.44906    21.730556     22.50781    9023.5686   -1107.3837    -152.4547   -1014.5777   -301.73236   -1154.8059   -207.53596   -3700.8718 
Loop time of 413.156 on 64 procs for 250000 steps with 864 atoms

Performance: 104.561 ns/day, 0.230 hours/ns, 605.099 timesteps/s
99.3% CPU use with 64 MPI tasks x 1 OpenMP threads

MPI task timing breakdown:
Section |  min time  |  avg time  |  max time  |%varavg| %total
---------------------------------------------------------------
Pair    | 15.472     | 20.664     | 25.829     |  52.7 |  5.00
Bond    | 0.2671     | 0.27529    | 0.29776    |   1.1 |  0.07
Kspace  | 192.33     | 203.27     | 215.48     |  34.4 | 49.20
Neigh   | 2.3544     | 2.7159     | 3.2459     |  14.4 |  0.66
Comm    | 79.85      | 89.147     | 98.803     |  43.4 | 21.58
Output  | 1.3935     | 1.3952     | 1.4068     |   0.3 |  0.34
Modify  | 84.048     | 87.129     | 93.53      |  19.8 | 21.09
Other   |            | 8.561      |            |       |  2.07

Nlocal:        13.5000 ave          18 max           7 min
Histogram: 1 1 3 6 13 11 7 9 3 10
Nghost:        1854.39 ave        1892 max        1793 min
Histogram: 1 3 3 3 9 12 8 9 5 11
Neighs:        3416.12 ave        4616 max        1777 min
Histogram: 1 2 2 9 11 14 6 5 9 5

Total # of neighbors = 218632
Ave neighs/atom = 253.04630
Ave special neighs/atom = 2.0000000
Neighbor list builds = 8947
Dangerous builds = 0

unfix		3
unfix		2
unfix		1

write_data	data.final.${pid}
write_data	data.final.0
System init for write_data ...
PPPM initialization ...
  extracting TIP4P info from pair style
  using 12-bit tables for long-range coulomb (../kspace.cpp:340)
  G vector (1/distance) = 0.37282157
  grid = 24 25 27
  stencil order = 5
  estimated absolute RMS force accuracy = 0.0030142977
  estimated relative force accuracy = 9.0774679e-06
  using double precision FFTW3
  3d grid and FFT values/proc = 3150 384
Last active /omp style is kspace_style pppm/tip4p/omp
WARNING: Not all mixed pair coeffs generated from mixing. Use write_data with 'pair ij' option to store all pair coeffs. (../write_data.cpp:312)

write_restart   restart.lmp.${pid}
write_restart   restart.lmp.0
System init for write_restart ...
PPPM initialization ...
  extracting TIP4P info from pair style
  using 12-bit tables for long-range coulomb (../kspace.cpp:340)
  G vector (1/distance) = 0.37282157
  grid = 24 25 27
  stencil order = 5
  estimated absolute RMS force accuracy = 0.0030142977
  estimated relative force accuracy = 9.0774679e-06
  using double precision FFTW3
  3d grid and FFT values/proc = 3150 384
Last active /omp style is kspace_style pppm/tip4p/omp
Total wall time: 0:06:55
