LAMMPS (30 Jul 2021)
  using 1 OpenMP thread(s) per MPI task
package omp 0
using multi-threaded neighbor list subroutines
echo both

include		in.partitions
variable        pid world 0
include		in.temp
variable        temperature equal 284.78
variable	tempDamp equal 100.0
include		in.pressure
variable        pressure equal 11750.0
variable        pressureDamp equal 1000.0 # This is 1 ps
include		in.seed
variable        seed world 745823

units		real
atom_style	full
read_restart	restart.lmp.${pid}
read_restart	restart.lmp.0
Reading restart file ...
  restart file = 30 Jul 2021, LAMMPS = 30 Jul 2021
  restoring atom style full from restart
  orthogonal box = (0.65836409 1.8669972 0.80320265) to (17.549208 21.762181 21.409993)
  4 by 4 by 4 MPI processor grid
  restoring pair style lj/cut/tip4p/long/omp from restart
  restoring bond style harmonic/omp from restart
  restoring angle style harmonic/omp from restart
  864 atoms
  576 bonds
  288 angles
Finding 1-2 1-3 1-4 neighbors ...
  special bond factors lj:    0        0        0       
  special bond factors coul:  0        0        0       
     2 = max # of 1-2 neighbors
     1 = max # of 1-3 neighbors
     1 = max # of 1-4 neighbors
     2 = max # of special neighbors
  special bonds CPU = 2.011 seconds
  read_restart CPU = 2.437 seconds
include 	in.setup
variable	out_freq equal 1000
variable	out_freq2 equal 10000
variable	out_freq3 equal 1000

timestep	2.0

neigh_modify    delay 7 every 1

include		in.tip4p
# This is TIP4P/Ice

# create groups ###
group ox type 2
288 atoms in group ox
group hy type 1
576 atoms in group hy

# set charges - beside manually ###
set group ox charge -1.1794
Setting atom values ...
  288 settings made for charge
set group hy charge 0.5897
Setting atom values ...
  576 settings made for charge

# ### TIP3P Potential Parameters ###
pair_style lj/cut/tip4p/long/omp 2 1 1 1 0.1577 8.5
pair_coeff 1 1*2 0.000 0.000
pair_coeff 2 2 0.21084 3.1668
bond_style  harmonic
bond_coeff  1 450 0.9572
angle_style harmonic
angle_coeff 1 55 104.52
kspace_style pppm/tip4p/omp 1.0e-5
pair_modify tail yes

thermo          ${out_freq}
thermo          1000
thermo_style    custom step temp pe etotal epair emol press lx ly lz vol pxx pyy pzz pxy pxz pyz enthalpy

restart 	${out_freq3} restart.lmp.${pid} restart2.lmp.${pid}
restart 	1000 restart.lmp.${pid} restart2.lmp.${pid}
restart 	1000 restart.lmp.0 restart2.lmp.${pid}
restart 	1000 restart.lmp.0 restart2.lmp.0


include         in.dump
dump            myDump all atom ${out_freq2} dump.water.${pid}
dump            myDump all atom 10000 dump.water.${pid}
dump            myDump all atom 10000 dump.water.0
dump            myDump2 all dcd ${out_freq2} dump.dcd
dump            myDump2 all dcd 10000 dump.dcd
dump_modify     myDump append yes
dump_modify     myDump2 append yes


variable natoms 	equal  "count(all)"                        # NUMBER ATOMS
variable H      	equal  "enthalpy/v_natoms"                 # ENTHALPY-per-atom
variable Vol      	equal  "vol/v_natoms"                 # volume-per-atom
fix AVG all 		ave/time ${out_freq} 1 ${out_freq} v_Vol v_H file vol_enthalpy.dat
fix AVG all 		ave/time 1000 1 ${out_freq} v_Vol v_H file vol_enthalpy.dat
fix AVG all 		ave/time 1000 1 1000 v_Vol v_H file vol_enthalpy.dat


timer           timeout 23:50:00 every 1000
New timer settings: style=normal  mode=nosync  timeout=23:50:00

fix 		1 all shake 1e-6 200 0 b 1 a 1
       0 = # of size 2 clusters
       0 = # of size 3 clusters
       0 = # of size 4 clusters
     288 = # of frozen angles
  find clusters CPU = 0.940 seconds
fix             2 all nph iso ${pressure} ${pressure} ${pressureDamp}
fix             2 all nph iso 11750 ${pressure} ${pressureDamp}
fix             2 all nph iso 11750 11750 ${pressureDamp}
fix             2 all nph iso 11750 11750 1000
fix             3 all temp/csvr ${temperature} ${temperature} ${tempDamp} ${seed}
fix             3 all temp/csvr 284.78 ${temperature} ${tempDamp} ${seed}
fix             3 all temp/csvr 284.78 284.78 ${tempDamp} ${seed}
fix             3 all temp/csvr 284.78 284.78 100 ${seed}
fix             3 all temp/csvr 284.78 284.78 100 745823

run             250000
PPPM initialization ...
  extracting TIP4P info from pair style
  using 12-bit tables for long-range coulomb (../kspace.cpp:340)
  G vector (1/distance) = 0.37467101
  grid = 24 24 24
  stencil order = 5
  estimated absolute RMS force accuracy = 0.0031146041
  estimated relative force accuracy = 9.3795377e-06
  using double precision FFTW3
  3d grid and FFT values/proc = 2535 216
Last active /omp style is kspace_style pppm/tip4p/omp
Neighbor list info ...
  update every 1 steps, delay 7 steps, check yes
  max neighbors/atom: 2000, page size: 100000
  master list distance cutoff = 10.8154
  ghost atom cutoff = 10.8154
  binsize = 5.4077, bins = 4 4 4
  1 neighbor lists, perpetual/occasional/extra = 1 0 0
  (1) pair lj/cut/tip4p/long/omp, perpetual
      attributes: half, newton on, omp
      pair build: half/bin/newton/omp
      stencil: half/bin/3d
      bin: standard
Per MPI rank memory allocation (min/avg/max) = 9.237 | 9.240 | 9.243 Mbytes
Step Temp PotEng TotEng E_pair E_mol Press Lx Ly Lz Volume Pxx Pyy Pzz Pxy Pxz Pyz Enthalpy 
 7250000    290.01572   -3741.9469   -3244.8699   -3741.9469            0    10044.791    16.890844    19.895183     20.60679    6924.8387    9256.5274    11723.971    9153.8759   -1229.6603     1440.055    1119.1964   -2230.4296 
 7251000    284.88874   -3762.5678   -3274.2782   -3762.5678            0    10224.248    16.921985    19.931863    20.644782    6963.2099    10260.322    10849.266     9563.156   -1259.9945    1199.3872   -2281.8731   -2235.9928 
 7252000    281.12024   -3779.2667   -3297.4362   -3779.2667            0     11738.39    16.819166    19.810756    20.519343    6837.0533    12451.494    10314.614    12449.063   -1309.7629   -211.85793    1666.2028   -2126.9847 
 7253000    279.97048   -3773.1012   -3293.2414   -3773.1012            0    12401.994    16.840188    19.835517     20.54499     6862.722    13271.566    10705.239    13229.178   -278.69157   -166.73616   -2046.1653   -2051.9783 
 7254000    277.84941   -3819.8851   -3343.6607   -3819.8851            0    10639.266    16.838008    19.832949    20.542331    6860.0572    11272.072    10866.611    9779.1143    1368.5675   -1163.9904   -736.35652   -2279.2352 
 7255000    278.53306   -3775.4771    -3298.081   -3775.4771            0    9609.4469    16.885608    19.889016    20.600402    6918.4005    10217.421     8711.423    9899.4968   -979.78877    429.47369   -178.19774   -2328.5092 
 7256000    291.19561   -3759.4165   -3260.3172   -3759.4165            0    9361.7775    16.855973    19.854109    20.564247    6882.0378    10256.989    8681.1604    9147.1832   -1535.1705   -116.21972   -281.75873   -2320.6993 
 7257000    291.82737    -3773.536   -3273.3538    -3773.536            0    12980.262     16.74367    19.721831    20.427238    6745.3972    12645.397    13367.867    12927.524    1104.1669    633.60894   -1271.4704   -1996.4244 
 7258000    297.71984    -3789.192   -3278.9104    -3789.192            0    11572.481    16.811224    19.801401    20.509654    6827.3722    12541.139    10339.215    11837.089    749.78807   -1062.2913    1141.7215   -2126.6359 
 7259000    305.70824   -3777.1257   -3253.1522   -3777.1257            0    11357.383    16.852195     19.84966    20.559639     6877.412    11900.949    11518.292    10652.908   -653.98573    335.74149    1417.3839   -2114.0067 
 7260000    279.61556   -3763.2486   -3283.9971   -3763.2486            0    10675.058    16.875618    19.877249    20.588215    6906.1288    12192.186    10577.175    9255.8125    1085.8219    134.41939   -1320.4223    -2208.818 
 7261000    290.80914   -3783.7372   -3285.3003   -3783.7372            0    12761.702    16.803786     19.79264     20.50058    6818.3143    13621.974    12161.022    12502.111   -1476.3844    599.95392    1330.9481   -2016.3006 
 7262000    291.57965   -3734.4328   -3234.6752   -3734.4328            0    11994.074    16.885822    19.889268    20.600664     6918.664    11117.954    13492.287    11371.981    667.88522   -958.85374    1179.0818   -2024.4538 
 7263000    291.36751   -3758.4889    -3259.095   -3758.4889            0    12308.082    16.794375    19.781555    20.489098    6806.8647    14143.525    8256.4088    14524.312   -147.58355    2155.3953    272.18652   -2037.2576 
 7264000    277.09503   -3793.0315   -3318.1001   -3793.0315            0    9954.4718    16.902017    19.908344    20.620422    6938.5899    9711.7939    9449.0399    10702.581   -1272.1228     194.5356   -1759.8158    -2310.785 
 7265000    282.63702   -3769.8855   -3285.4553   -3769.8855            0    11176.972    16.839024    19.834146     20.54357    6861.2985    9976.3953     13140.62    10413.901    676.41534    1311.6199     1577.073   -2167.0316 
 7266000    294.19589   -3768.6103   -3264.3686   -3768.6103            0    13464.443    16.799003    19.787007    20.494745    6812.4939    13777.695    12787.499    13828.136   -1636.3583    1150.3525    535.98757   -1926.6326 
 7267000    284.92338   -3762.1275   -3273.7786   -3762.1275            0    10981.565    16.815386    19.806304    20.514732    6832.4449    13555.928    10645.166    8743.6018    1479.4814      244.385    1502.4739   -2179.5293 
 7268000    279.50093   -3793.0881   -3314.0331   -3793.0881            0    13502.047    16.764193    19.746005    20.452276     6770.232    12883.034    13434.492    14188.616   -417.04568    1376.7281   -92.522307   -1980.8829 
 7269000    283.69042   -3781.6952   -3295.4596   -3781.6952            0    10863.595    16.906577    19.913715    20.625985    6944.2072    10974.952     10637.74    10978.092   -1344.3415    2171.8153    1028.7009   -2195.2584 
 7270000    269.84565   -3779.6818   -3317.1756   -3779.6818            0    8477.7104    16.917086    19.926093    20.638806    6957.1645    8875.4471    8210.9088    8346.7754    898.93829   -2316.6171   -1016.4511   -2457.0008 
 7271000    268.88935   -3741.1992   -3280.3321   -3741.1992            0    12642.473    16.865908    19.865812    20.576368     6894.214    13383.057    10373.366    14170.995    650.23362      923.582   -887.41917   -2009.1942 
 7272000    288.12652   -3741.5116   -3247.6726   -3741.5116            0    14088.609    16.824028    19.816483    20.525275    6842.9843    15159.136    13478.658    13628.032     1756.313   -480.02292    93.528106    -1841.659 
 7273000    272.16473   -3775.9355   -3309.4544   -3775.9355            0    10557.239    16.824486    19.817022    20.525833    6843.5426    9844.9372    10220.436    11606.345   -3378.6358   -1254.6014   -78.732222   -2255.7781 
 7274000    298.29091   -3766.8818   -3255.6213   -3766.8818            0    11552.904    16.899905    19.905855    20.617844    6935.9884    13246.005    9947.6561    11465.052    2104.4586    1335.5399    1507.2906   -2086.9957 
 7275000    284.95067   -3781.4332   -3293.0375   -3781.4332            0     11347.54    16.841387    19.836929    20.546452    6864.1873    13056.525    8383.5147     12602.58     1039.075    411.86684    568.34021   -2157.0679 
 7276000     290.1393   -3759.7807   -3262.4919   -3759.7807            0    11137.832      16.8374    19.832233    20.541588    6859.3134     11508.27    12430.487     9474.739    65.023646    636.53671   -48.528641   -2148.3072 
 7277000    292.29213   -3770.5081   -3269.5294   -3770.5081            0    11944.774    16.791893    19.778632     20.48607    6803.8471    10216.946    12126.846     13490.53   -1298.3524      215.368   -1685.9045   -2084.2837 
 7278000    270.64834   -3782.3662   -3318.4842   -3782.3662            0     10497.18    16.811304    19.801496    20.509752    6827.4704    10038.375    10449.969    11003.196    632.75098   -1095.5608   -748.03662   -2273.2626 
 7279000    272.91542   -3808.0458   -3340.2781   -3808.0458            0    10611.246    16.810243    19.800245    20.508457    6826.1768    10976.019    11139.984    9717.7364    820.02436    88.353769    310.13398    -2283.899 
 7280000     285.6423   -3761.0851    -3271.504   -3761.0851            0    14123.897    16.785023     19.77054    20.477689    6795.4997    14813.646    15213.797    12344.247    826.97092   -754.29645    868.69346   -1871.7497 
 7281000     292.9679   -3777.8794   -3275.7425   -3777.8794            0    10565.458    16.824549    19.817097    20.525911    6843.6205    9225.1664     10179.54    12291.668   -1336.2041   -1018.0231     17.59628   -2221.2338 
 7282000     285.4807   -3772.7329   -3283.4287   -3772.7329            0    10626.785    16.809773    19.799692    20.507883    6825.6042    10126.357    10925.302    10828.696    1067.6562   -412.95879    1269.2826   -2225.5914 
 7283000    293.96414   -3799.8991   -3296.0546   -3799.8991            0    10505.662    16.848868    19.845741     20.55558    6873.3396    10656.064    11207.433    9653.4889   -593.56503   -275.00248    1243.4234   -2242.9607 
 7284000    271.47105   -3807.0562   -3341.7641   -3807.0562            0    13019.356    16.750495    19.729871    20.435565      6753.65    13147.412     13232.76    12677.896    230.40044     1280.686    98.923231   -2059.4219 
 7285000    270.90794   -3817.3633   -3353.0363   -3817.3633            0    12487.122    16.759159    19.740076    20.446135     6764.135    13536.911    13728.482    10195.973    692.18875    652.44363    1038.3131   -2121.2071 
 7286000     276.9364   -3793.9206    -3319.261   -3793.9206            0    13491.467    16.737434    19.714486     20.41963    6737.8637    15722.392    13677.732    11074.277    -186.1114    115.68237     99.61476   -1993.5243 
 7287000    294.60587   -3781.7587   -3276.8143   -3781.7587            0    12184.729    16.851539    19.848887    20.558838    6876.6079    11930.028    12047.447    12576.712   -232.95368   -75.156563   -506.26798   -2054.8289 
 7288000    285.79378   -3787.6277   -3297.7869   -3787.6277            0    13624.638    16.788551    19.774696    20.481993    6799.7861    16845.775    10655.412    13372.727   -1741.5437    726.52099    586.86037   -1946.6601 
 7289000    284.20658   -3776.2395   -3289.1192   -3776.2395            0    12790.172    16.757393    19.737996     20.44398    6761.9968    13888.339    13628.624    10853.553   -12.663062   -1449.9388    249.38239   -2027.7935 
 7290000    278.07548   -3778.7664   -3302.1545   -3778.7664            0    10074.165    16.825959    19.818758    20.527631    6845.3412    8872.3172    11834.271    9515.9069     612.5869   -603.24206   -174.19743   -2296.4276 
 7291000    284.67129   -3805.8974   -3317.9805   -3805.8974            0     10930.24    16.790189    19.776624    20.483991    6801.7758    12468.943    10655.627    9666.1498   -564.57689   -83.039003     374.8808   -2233.7344 
 7292000    295.26839   -3817.1366   -3311.0566   -3817.1366            0    12483.043     16.74272    19.720713     20.42608    6744.2501    12314.983    12801.731    12332.415    161.02785   -394.92847    123.82221   -2083.2499 
 7293000     282.5897   -3764.5724   -3280.2233   -3764.5724            0    11728.845    16.825827    19.818601    20.527469    6845.1794    10366.216    11549.724    13270.596     1009.701   -1566.9656     1277.543   -2109.3336 
 7294000    294.10159   -3785.9926   -3281.9126   -3785.9926            0    11290.046    16.789221    19.775485    20.482811    6800.6004     10969.18    13049.271    9851.6874    1036.1913   -221.91738   -782.12439   -2162.1683 
 7295000    276.09049   -3823.9363   -3350.7267   -3823.9363            0    12329.705    16.789173    19.775428    20.482752     6800.542    11724.086    12518.676    12746.353    130.25223     19.15045    698.77755   -2127.8797 
 7296000    292.45356   -3774.0212   -3272.7658   -3774.0212            0    11414.565    16.755217    19.735433    20.441326    6759.3632    12484.575    10740.084    11019.035   -2519.8575    838.39776    805.79955   -2147.5366 
 7297000    277.21455   -3795.4224   -3320.2862   -3795.4224            0    12505.846    16.722891    19.697357    20.401888    6720.3157        12095    11861.935    13560.604    1290.6071   -2614.7676   -391.26718   -2094.6018 
 7298000     291.2214   -3819.9464   -3320.8029   -3819.9464            0    10385.576    16.834651    19.828995    20.538235    6855.9547     12120.44    10210.124     8826.164   -1151.6972    -887.7187   -479.73141   -2282.3796 
 7299000    284.02714   -3759.9831   -3273.1703   -3759.9831            0    13033.452    16.800333    19.788574    20.496368    6814.1124    11920.033    14618.224    12562.098   -1228.2608    316.63299   -624.23021    -1977.947 
 7300000    282.00665   -3797.5172   -3314.1675   -3797.5172            0    11070.732    16.860254    19.859152    20.569471    6887.2833    10665.584    11063.547    11483.066    265.47969   -26.909411    141.50656   -2202.1793 
 7301000    293.84792   -3784.6954   -3281.0501   -3784.6954            0    9605.1397     16.86392    19.863471    20.573943    6891.7769      10097.3    11034.205    7683.9138   -429.07293   -788.45569   -1172.6518   -2315.6424 
 7302000    287.71738   -3793.6642   -3300.5264   -3793.6642            0    12857.108    16.769097    19.751781    20.458259    6776.1751    11623.773    15170.041    11777.512    1314.7696   -1586.0615   -840.78202   -2029.9411 
 7303000     276.5948   -3800.3915   -3326.3175   -3800.3915            0     11274.36    16.802925    19.791626    20.499529    6817.2663    13050.475    10835.691    9936.9144   -1231.8852   -427.53678    2218.7314   -2205.3886 
 7304000    289.73633   -3757.1244   -3260.5262   -3757.1244            0    11176.181    16.779485    19.764017    20.470932    6788.7755    11874.251    10939.303    10714.989    -702.1759   -336.01348   -1045.3834   -2154.0024 
 7305000    281.89128    -3778.766   -3295.6139    -3778.766            0     12249.96    16.861226    19.860297    20.570657    6888.4746    13440.509    12510.728    10798.644    588.20958   -1831.3299   -1253.7271   -2064.9666 
 7306000    293.49453     -3740.28   -3237.2404     -3740.28            0    10906.954    16.881556    19.884243    20.595459    6913.4211    11930.234     9715.059     11075.57    17.636541    1202.0376   -434.51053   -2137.5451 
 7307000     294.2345   -3794.4184   -3290.1105   -3794.4184            0    11026.262    16.869959    19.870584    20.581311    6899.1835    10685.035    12267.811    10125.941    792.37498    220.61621    670.33399   -2180.6754 
 7308000    292.44204   -3780.1618   -3278.9262   -3780.1618            0    10925.578    16.869281    19.869785    20.580484    6898.3519    11201.135    12193.934    9381.6643   -2052.9005   -1286.0949    291.26754   -2179.7542 
 7309000    284.82654   -3778.2346   -3290.0517   -3778.2346            0    12784.408       16.848    19.844719    20.554521     6872.277    11470.135    11948.815    14934.273     257.9483   -1075.0321    182.43428    -2008.733 
 7310000    274.29867   -3785.1192   -3314.9806   -3785.1192            0    8968.3021    16.876605    19.878411    20.589418    6907.3398    10584.816    9481.3091    6838.7812   -12.352964    1065.8216    1553.0641   -2411.5456 
 7311000    287.93519   -3803.8848   -3310.3737   -3803.8848            0    9877.1891    16.888371     19.89227    20.603773    6921.7972    7301.8543    11802.272    10527.442   -671.64096   -631.43694    481.81752    -2313.298 
 7312000    294.01442   -3770.2738   -3266.3432   -3770.2738            0    10644.444    16.830829    19.824493    20.533572     6851.286    12758.921    11365.359    7809.0536    1377.7318    1110.5421   -478.63809   -2202.7612 
 7313000    288.44794    -3745.264   -3250.8741    -3745.264            0    10915.042    16.878093    19.880164    20.591233    6909.1668    12865.549    10343.515    9536.0602    653.39108   -1620.2806    57.449948   -2151.0405 
 7314000    284.05836   -3781.5965   -3294.7302   -3781.5965            0    12086.447    16.834858    19.829239    20.538488    6856.2078    11638.608    12678.743     11941.99    1188.1201   -1426.4679   -1497.1603   -2086.1971 
 7315000    277.47898   -3802.8445   -3327.2551   -3802.8445            0    11361.832     16.84712    19.843682    20.553447    6871.2004     11208.57    10733.796    12143.131   -310.28907    3081.2066   -346.17286   -2188.6926 
 7316000    283.83342   -3755.8879   -3269.4071   -3755.8879            0     11266.26     16.90669    19.913848    20.626123    6944.3465    11136.515    10989.873    11672.393    1694.8602   -1678.9616   -921.62484   -2128.4034 
 7317000    279.97203   -3827.7245   -3347.8621   -3827.7245            0    9415.3875    16.928108    19.939075    20.652252    6970.7717    6636.7094    12721.586    8887.8667    1729.9256     412.2014    1799.8053   -2390.6791 
 7318000    291.79921   -3798.5533   -3298.4194   -3798.5533            0    10932.344    16.854066    19.851863    20.561921    6879.7024     10808.27    10549.492    11439.269    179.80879    1213.2789   -1535.4747   -2201.5402 
 7319000    281.86317   -3833.8786   -3350.7748   -3833.8786            0    10234.478    16.819831     19.81154    20.520155    6837.8648    10558.024    9989.3684    10156.042   -762.92989    498.31762    846.15039   -2330.1594 
 7320000    272.91228   -3739.6077   -3271.8454   -3739.6077            0    11375.669    16.835045     19.82946    20.538716    6856.4366    10105.956    11357.541    12663.509   -118.34484   -1039.4102   -497.21026   -2134.3457 
 7321000    288.08563   -3787.6159    -3293.847   -3787.6159            0    12136.126    16.788796    19.774984    20.482292    6800.0834    10274.353    14969.037    11164.989   -950.69394    126.79335    311.08929   -2090.2801 
 7322000    312.59652   -3737.4828   -3201.7031   -3737.4828            0    11397.384    16.867006    19.867105    20.577708     6895.561    11192.577    12725.988    10273.587    2091.4307    1801.0777    444.55087   -2055.5288 
 7323000    269.55851   -3761.9611    -3299.947   -3761.9611            0    12678.823    16.795609    19.783009    20.490604    6808.3659    11759.258    13715.073     12562.14    -572.3577     1886.661    809.70494   -2041.0282 
 7324000    289.76816   -3788.8412   -3292.1885   -3788.8412            0    11531.926    16.844476    19.840568    20.550222    6867.9658     11595.86    10022.842    12977.077   -645.32196   -811.26867    307.77784    -2137.125 
 7325000    278.61194   -3786.3959   -3308.8646   -3786.3959            0    13958.368    16.796463    19.784015    20.491645    6809.4037    12969.979    15183.116    13722.009   -734.64436   -831.56047   -2007.7213   -1922.6847 
 7326000    276.47652   -3813.4495   -3339.5783   -3813.4495            0    10213.458    16.869223    19.869716    20.580412    6898.2796    10015.759    11225.321    9399.2931   -355.34285    348.48451    770.34443   -2312.0602 
 7327000    272.33218   -3792.6137   -3325.8457   -3792.6137            0    10399.394    16.851811    19.849207     20.55917    6876.9412    9564.9669    11016.878    10616.338   -269.19044   -795.27222    1568.3213   -2282.8578 
 7328000    294.35141   -3775.2975   -3270.7893   -3775.2975            0    9796.0201     16.81715    19.808381    20.516884     6834.595    11043.385     9262.714     9081.961   -12.807441    17.982609    119.98184   -2294.3655 
 7329000    282.07672   -3788.2166   -3304.7467   -3788.2166            0    12323.144    16.780638    19.765374    20.472339    6790.1748     11099.38     13249.17    12620.881    1427.0049   -412.91323   -393.35979   -2084.4137 
 7330000    298.91681    -3761.145   -3248.8118    -3761.145            0    12771.908    16.811341     19.80154    20.509797    6827.5154    13182.842    14498.491    10634.391   -200.08658    699.25578   -1645.6174   -1977.0835 
 7331000    280.24621   -3762.3414    -3282.009   -3762.3414            0    11606.046    16.854039    19.851832    20.561889      6879.67    11823.766     10652.34    12342.031   -803.97211    1392.9198    65.790943   -2117.5404 
 7332000     290.3617   -3832.5747   -3334.9047   -3832.5747            0    10924.664    16.869592    19.870152    20.580863    6898.7334    10595.697    11416.982    10761.314    664.19532    68.675696   -14.083475   -2235.7639 
 7333000    277.12723   -3779.8471   -3304.8605   -3779.8471            0    12172.311     16.85834    19.856898    20.567136    6884.9381    14053.152     10432.19    12031.592   -954.83014    466.60559    1199.7037   -2082.6417 
 7334000    285.97593   -3733.7426   -3243.5897   -3733.7426            0    11239.801    16.864355    19.863982    20.574473    6892.3094    9378.5672    12636.495    11704.341    716.99009    621.10405    63.190944   -2113.7956 
 7335000    291.20416   -3793.6316   -3294.5176   -3793.6316            0    13308.364    16.738224    19.715417    20.420594    6738.8179    14656.952    12823.955    12444.185    745.71169    62.661562     704.5422   -1986.5883 
 7336000    284.69221   -3808.6085   -3320.6558   -3808.6085            0     11539.37    16.871893    19.872862     20.58367    6901.5566    11983.621    9342.7083    13291.782   -1975.6972   -669.14628    67.310568   -2159.1936 
 7337000    279.46714   -3814.4241    -3335.427   -3814.4241            0    12362.194    16.872475    19.873547     20.58438    6902.2707    10655.924    12118.233    14312.425   -1016.8277    1416.1768    1057.6633   -2091.0172 
 7338000    269.75145   -3727.2439   -3264.8991   -3727.2439            0    10955.153    16.927725    19.938624    20.651785    6970.2988    12388.359    12054.665     8422.435     -1366.05    1406.1408    178.84537   -2151.2568 
 7339000    275.38868   -3813.6551   -3341.6483   -3813.6551            0    11387.532    16.852014    19.849446    20.559417    6877.1898    12165.939    10687.055    11309.601     1362.527   -475.32826   -2607.4482   -2199.5158 
 7340000    293.66951   -3794.7429   -3291.4034   -3794.7429            0    14037.706    16.739181    19.716544    20.421761    6739.9734    16142.485    13500.395    12470.236    254.99832    595.67647    286.69754   -1911.5587 
 7341000    280.33078   -3797.2396   -3316.7622   -3797.2396            0    11807.486     16.79225    19.779053    20.486506    6804.2816    14486.563    10756.809    10179.085    1206.1979   -1244.6453   -868.58556   -2145.0644 
 7342000    279.79267   -3723.8465   -3244.2915   -3723.8465            0    13695.939    16.776165    19.760107    20.466882    6784.7473    14638.736    13235.751    13213.331    1501.8009    735.57111    1523.2298   -1889.0977 
 7343000    284.28104   -3782.5775   -3295.3296   -3782.5775            0    12427.637    16.814601    19.805379    20.513774    6831.4876    12026.527    12780.906    12475.478   -707.95423   -670.22211    8.6751894   -2057.1611 
 7344000    301.04758   -3811.2041   -3295.2189   -3811.2041            0    11618.402    16.845262    19.841494     20.55118     6868.927    14479.139    11243.151    9132.9158    666.36149   -673.54081   -1951.2672   -2131.3309 
 7345000    281.65584   -3795.4877   -3312.7393   -3795.4877            0    9978.0377    16.870168    19.870829    20.581565     6899.439    8058.8642     9629.349      12245.9    -925.0144   -1074.1677   -898.55031   -2308.7367 
 7346000    290.95707   -3767.0723   -3268.3818   -3767.0723            0    12397.518    16.829882    19.823378    20.532417    6850.1299    12882.153    13492.807    10817.594    1923.4188   -949.75943   -181.75109   -2029.8435 
 7347000    270.30292   -3760.6795   -3297.3895   -3760.6795            0    10126.316    16.889318    19.893385    20.604928    6922.9615    9550.5127    8666.5243     12161.91    -507.8459    1827.5434   -538.20739   -2274.9932 
 7348000     271.4797    -3788.669    -3323.362    -3788.669            0    10742.608    16.873461    19.874709    20.585583     6903.481    12940.177     10866.09    8421.5578   -66.283954    162.55437    -772.8789   -2241.7942 
 7349000    279.01705   -3778.2945   -3300.0688   -3778.2945            0     13545.29    16.794988    19.782277    20.489846    6807.6099    12849.141    14994.961    12791.767   -3649.2109    1090.4418   -1188.6802   -1955.2653 
 7350000    263.51705   -3757.6063   -3305.9471   -3757.6063            0    13872.881    16.780131    19.764777     20.47172    6789.5596    14237.504    14116.957    13264.183    2535.7888    884.08476    1238.9685   -1932.2716 
 7351000    282.47442   -3809.1138   -3324.9624   -3809.1138            0    13661.283    16.806284    19.795583    20.503628    6821.3558     13572.16    14834.884    12576.805     61.46921    2241.3631    502.08358   -1965.9041 
 7352000    280.02112   -3752.6926    -3272.746   -3752.6926            0    11029.258    16.854401    19.852258     20.56233    6880.1126    9615.5212    13494.908    9977.3437    -29.60411    578.49408   -737.48557    -2166.077 
 7353000    287.04782   -3758.9519   -3266.9618   -3758.9519            0    11164.871    16.833427    19.827554    20.536742    6854.4595    8744.3591    12343.004    12407.248    593.37927    1307.5995   -245.64685   -2150.8626 
 7354000     278.8311    -3773.221    -3295.314    -3773.221            0    12508.686    16.837224    19.832026    20.541374    6859.0988    12210.626    15524.616     9790.815     747.7012   -456.44404   -1350.4828   -2044.0336 
 7355000    293.81118   -3771.7944   -3268.2121   -3771.7944            0    11370.772    16.856036    19.854183    20.564324    6882.1148    13280.699    9769.3721    11062.245   -686.65433    2695.0626    1154.5333   -2126.9438 
 7356000    279.40594   -3823.3599   -3344.4676   -3823.3599            0    10928.402    16.816953    19.808149    20.516644     6834.355    12414.689     8807.258    11563.258    493.03341     1940.997    857.53904   -2255.2113 
 7357000    286.04612   -3827.3028   -3337.0296   -3827.3028            0    12814.128    16.787194    19.773097    20.480337    6798.1371    14035.948    10617.827    13788.611    330.83516    357.06847    1315.3534   -2066.5875 
 7358000    276.75156   -3778.0436   -3303.7009   -3778.0436            0    11120.883     16.77948    19.764011    20.470926    6788.7698    11263.514    10097.288    12001.848   -984.57998   -1576.4507    732.48966   -2202.6529 
 7359000    281.95904   -3782.2839   -3299.0158   -3782.2839            0    11920.935    16.766782    19.749055    20.455435    6773.3696    13369.504    12176.106    10217.196   -274.24731   -809.34886   -2.6174574   -2121.4342 
 7360000    278.42585   -3770.6511   -3293.4387   -3770.6511            0    11432.638    16.854535    19.852416    20.562494    6880.2773    13246.052    8861.9921    12189.869   -714.85678   -1595.5134    202.47189   -2146.2675 
 7361000    288.51924   -3763.5824   -3269.0703   -3763.5824            0    12603.758    16.686873    19.654932    20.357946    6676.9863    13095.211    14436.623    10279.441   -810.11986     847.8181    228.99282   -2041.7542 
 7362000    274.91236   -3777.3845   -3306.1941   -3777.3845            0    11728.936    16.831628    19.825435    20.534547    6852.2622    12708.876    11231.079    11246.853    -147.9672   -624.41848    1830.4642   -2134.0838 
 7363000    287.66439   -3811.4479    -3318.401   -3811.4479            0    10768.129    16.797446    19.785172    20.492845    6810.5994    6863.0245    12874.953    12566.411   -1983.3845   -173.33222   -1862.7245     -2248.85 
 7364000    294.88492   -3776.8845   -3271.4618   -3776.8845            0    10715.286    16.834567    19.828896    20.538132    6855.8518    10059.302    11602.727    10483.828    448.67623    426.72583   -318.74707   -2200.0879 
 7365000    292.63829   -3753.9131   -3252.3411   -3753.9131            0    12888.504    16.816384    19.807479    20.515949    6833.6608    11990.653    11786.958    14887.901    985.49031   -441.94803   -98.787646   -1967.8479 
 7366000    278.35514   -3772.5772    -3295.486   -3772.5772            0    13891.363    16.752074     19.73173    20.437491    6755.5592    13594.591    14358.425    13721.072   -1434.2172   -613.71573    271.42848   -1926.8686 
 7367000    269.03197   -3803.1372   -3342.0256   -3803.1372            0    11438.675    16.809127    19.798931    20.507095    6824.8176    11576.421    11834.051    10905.553   -84.904708     192.6804    1009.6577   -2203.5004 
 7368000    283.42401   -3823.1756   -3337.3966   -3823.1756            0    10862.117    16.804102    19.793012    20.500965    6818.6988    12585.689    10914.551    9086.1116   -1225.3993   -451.24522    -1016.112   -2257.2272 
 7369000    286.79239   -3769.0649   -3277.5126   -3769.0649            0    11031.014    16.833377    19.827495    20.536681    6854.3989    10487.817    10081.947     12523.28    406.96195    407.25994    246.16592   -2174.8041 
 7370000    280.58555   -3784.8244   -3303.9104   -3784.8244            0    13543.735    16.794157    19.781298    20.488832    6806.5992    17075.318    13319.198    10236.691    911.64569   -1382.4715    -1441.423   -1959.4608 
 7371000    282.30356   -3777.3236   -3293.4649   -3777.3236            0    13970.575    16.736654    19.713567    20.418679    6736.9216    12967.175    14523.651    14420.899   -1727.3748   -1198.8313    1201.7212   -1920.8407 
 7372000    300.83675   -3775.3839     -3259.76   -3775.3839            0    10926.702     16.86479    19.864495    20.575005    6892.8434    12209.689    10826.252    9744.1657    2343.3693   -399.42478   -1640.0528   -2161.3527 
 7373000    275.10946   -3793.8394   -3322.3112   -3793.8394            0    10629.504    16.842387    19.838107    20.547672    6865.4102    9722.2877    11460.046    10706.177    889.66794   -1199.1583   -850.51175   -2258.0326 
 7374000    282.02787   -3752.9046   -3269.5185   -3752.9046            0    14039.593    16.769416    19.752157    20.458648    6776.5619    14132.226    12780.798    15205.757   -113.95461    1604.9711    258.92097   -1881.9967 
 7375000    294.64827   -3769.5239   -3264.5069   -3769.5239            0    10273.103     16.84543    19.841691    20.551385     6869.132    10828.204    8252.2017    11738.904   -1516.2216    274.63455    1369.2184   -2235.3551 
 7376000    290.72906   -3781.2181   -3282.9184   -3781.2181            0    12568.636    16.856208    19.854387    20.564535    6882.3265     10960.18    11884.094    14861.635   -173.93107    852.58704    790.72912   -2021.3834 
 7377000    281.29592   -3760.0203   -3277.8887   -3760.0203            0    11405.334    16.836485    19.831155    20.540472    6858.1954    9533.7454    12147.562    12534.693   -486.60592    69.714531   -478.15743   -2137.1301 
 7378000    287.00674   -3788.5038    -3296.584   -3788.5038            0    11806.633     16.82177    19.813823     20.52252    6840.2287    12214.505     12191.62    11013.775   -105.04665    2656.7038    666.85968   -2118.7812 
 7379000     288.3515   -3760.3396    -3266.115   -3760.3396            0    10724.348    16.853761    19.851504    20.561549    6879.3293    10664.674    11362.561    10145.808   -1498.6162   -1142.3611    583.79636    -2190.163 
 7380000    282.98654   -3812.6522   -3327.6229   -3812.6522            0    10240.037    16.814922    19.805757    20.514166    6831.8789    11356.904    9394.1189    9969.0888    336.04511   -665.48716   -1314.2495   -2307.3471 
 7381000    289.39071   -3822.9764   -3326.9706   -3822.9764            0    12746.839     16.76685    19.749135    20.455518    6773.4514    14915.845    8073.1649    15251.508   -1869.5587   -356.83707   -812.80315   -2067.7889 
 7382000    285.92155   -3772.5323   -3282.4726   -3772.5323            0    9724.5137     16.84465    19.840773    20.550434    6868.1789    12461.052    9455.2207    7257.2679    2227.5637    1336.8825   -1988.4706   -2308.4133 
 7383000    276.64552   -3790.1503   -3315.9893   -3790.1503            0    13287.115    16.776262    19.760221    20.467001    6784.8651    13422.177    11862.635    14576.534   -1267.7165   -370.80172    846.93827   -2001.2253 
 7384000    261.79477    -3788.333   -3339.6258    -3788.333            0    12277.699    16.800983    19.789338     20.49716    6814.9026    11979.095     11549.94    13304.061    2044.6475    463.81672    -153.5323   -2119.3654 
 7385000    281.72793   -3807.8684   -3324.9964   -3807.8684            0    9972.8904    16.800256    19.788482    20.496273    6814.0179    11725.517    8376.3749    9816.7794    380.53517   -140.47935    -419.4261   -2333.9358 
 7386000    281.55301   -3773.1636   -3290.5914   -3773.1636            0     9717.907    16.880241    19.882695    20.593855     6911.806    10245.941    9914.5733    8993.2071   -743.56963   -379.82147   -1705.6809   -2311.0108 
 7387000    279.54264    -3790.188   -3311.0615    -3790.188            0    12071.875    16.802867    19.791558    20.499459    6817.1963    12198.622    11858.258    12158.744    247.14152    169.47689    -830.7681   -2110.8539 
 7388000    299.65362    -3776.352   -3262.7559    -3776.352            0    12632.333    16.770403    19.753319    20.459852     6777.758    11907.064    14963.396    11026.539    818.93979   -75.169439    1436.3516   -2014.0921 
 7389000    261.48827   -3789.0146   -3340.8327   -3789.0146            0    11534.115    16.773238    19.756659    20.463312    6781.1968    12462.639    10839.916    11299.789    857.51528   -952.86489   -1018.8335   -2200.1457 
 7390000    280.32785   -3760.7594    -3280.287   -3760.7594            0    11403.258    16.882619    19.885496    20.596756    6914.7276    10411.797    12242.057    11555.921   -258.12456   -993.04592   -10.087534   -2130.3344 
 7391000    282.10955   -3794.0055   -3310.4794   -3794.0055            0    13521.915    16.784793     19.77027    20.477409     6795.221    13537.951    13592.931    13434.861   -922.19242   -665.46173    986.23958   -1970.4397 
 7392000    288.16338   -3787.4061   -3293.5039   -3787.4061            0    11976.606    16.861967     19.86117     20.57156    6889.3821    10097.985    11821.627    14010.206    288.53148   -116.43549   -351.24178   -2090.1596 
 7393000    268.15651   -3771.4425   -3311.8314   -3771.4425            0    11979.121    16.828522    19.821776    20.530757    6848.4691    10496.728    12126.618    13314.017     373.4461    185.97318   -168.92452    -2115.382 
 7394000    273.70262   -3774.6694   -3305.5525   -3774.6694            0    12047.333    16.780859    19.765635    20.472608    6790.4433    10538.846    13465.363    12137.789    876.23846   -766.82322   -1744.0246   -2112.4853 
 7395000    280.12436   -3751.9309   -3271.8074   -3751.9309            0    11750.712    16.784167    19.769532    20.476644    6794.4603    12750.398    12799.392    9702.3463    144.76838    1121.4327   -616.34682   -2107.4266 
 7396000    282.58289   -3778.9095   -3294.5721   -3778.9095            0     11819.91    16.812628    19.803055    20.511367    6829.0832    13808.833    10289.793    11361.104   -2050.4652   -599.61893   -1568.1058   -2117.3661 
 7397000    258.03215   -3754.5918   -3312.3335   -3754.5918            0    14922.361    16.736067    19.712877    20.417963    6736.2132    14741.206    14777.159    15248.719   -104.36704   -529.28626   -208.69709   -1846.3494 
 7398000    289.10827   -3779.0628   -3283.5412   -3779.0628            0    13355.859    16.778985    19.763428    20.470323    6788.1694    13122.486    13228.031    13717.059   -483.63743    693.97595    100.22474   -1961.3313 
 7399000    286.96821   -3737.2854   -3245.4317   -3737.2854            0    12303.063    16.807923    19.797513    20.505627    6823.3517     12040.45    11651.906    13216.833   -52.457526   -1556.9741     1361.767   -2021.1344 
 7400000    285.74672   -3800.1717   -3310.4117   -3800.1717            0     10421.84    16.885594    19.888999    20.600385    6918.3834     8183.846    11725.813     11355.86    2407.4753   -658.62258   -1438.9769   -2258.8738 
 7401000    290.11368   -3792.7808   -3295.5359   -3792.7808            0    10660.178    16.921893    19.931754    20.644669    6963.0962    9334.3087    10580.398    12065.827     478.3415    -274.5633    105.60423   -2212.9989 
 7402000    270.81053   -3816.9251   -3352.7651   -3816.9251            0     10649.95    16.873887     19.87521    20.586102    6904.0032    11716.352    9639.1178    10594.381   -847.85536    -1190.964   -658.33901    -2280.445 
 7403000    289.38528   -3783.8294   -3287.8329   -3783.8294            0     12832.32     16.80987    19.799806    20.508002    6825.7225    12944.866    12088.462     13463.63    168.71343   -1415.5716    26.253543   -2010.4248 
 7404000    270.69707   -3788.3183   -3324.3528   -3788.3183            0    10820.851    16.871668    19.872596    20.583395    6901.2797    12697.483    8192.1406    11572.929    387.80628    771.52514   -605.91411   -2235.2548 
 7405000    279.31324   -3790.0662   -3311.3329   -3790.0662            0    9994.8328    16.844339    19.840406    20.550054    6867.7978    10033.033    10686.529    9264.9364    307.51882    405.89458   -141.57028   -2310.2526 
 7406000    260.67868   -3794.6303    -3347.836   -3794.6303            0    12014.415    16.811546    19.801781    20.510047    6827.7651    9942.3019    12632.362     13468.58    913.92103    778.13203   -95.844459   -2151.4892 
 7407000    282.78911   -3797.7349    -3313.044   -3797.7349            0    11124.045    16.764969    19.746919    20.453223    6771.1716    10153.775    11597.866    11620.494     -797.117   -297.03158    37.489097    -2214.538 
 7408000    281.85659   -3775.9572   -3292.8647   -3775.9572            0    12088.555    16.755741     19.73605    20.441965    6759.9972    11302.132    14328.086    10635.447     390.4057    131.77681    362.96577   -2101.0827 
 7409000    287.59989    -3791.946   -3299.0096    -3791.946            0    11726.084    16.807756    19.797316    20.505423    6823.1478    12850.927    9952.2623    12375.064   -1011.5481    1832.0049    796.22885   -2132.1632 
 7410000    294.58942   -3772.4756   -3267.5594   -3772.4756            0    11019.799    16.780162    19.764814    20.471758    6789.5973    10432.172    11099.203    11528.021    138.48001    883.63602    855.10455   -2176.3865 
 7411000    278.47415   -3803.3497   -3326.0545   -3803.3497            0    10342.248    16.787432    19.773377    20.480628    6798.4259    9428.0602     11669.15    9929.5332    96.668191   -772.94436     440.7654   -2300.6406 
 7412000    273.84143   -3785.6757   -3316.3209   -3785.6757            0    10231.223    16.805865    19.795089    20.503116    6820.8456    9128.2428    11160.967    10404.461   -1307.3622   -1369.6336      30.8369   -2298.5695 
 7413000    282.48094    -3792.759   -3308.5963    -3792.759            0    11580.947    16.813321    19.803871    20.512212    6829.9271     12274.71    12942.935    9525.1969     140.1384   -991.61906    1580.9039   -2155.0474 
 7414000    278.33486   -3784.2912   -3307.2348   -3784.2912            0    11514.659    16.825694    19.818445    20.527307    6845.0172    11950.315    10908.329    11685.331   -84.903528   -572.80901    221.45009   -2157.7546 
 7415000    278.14534   -3794.5907   -3317.8591   -3794.5907            0    13212.314    16.799174    19.787208    20.494953     6812.702    12266.043    12425.162    14945.736   -345.49598   -651.08087   -463.78394   -2005.1329 
 7416000    282.90915   -3784.2009   -3299.3043   -3784.2009            0     10595.92    16.877341    19.879279    20.590317    6908.2442    10201.469    11010.776    10575.514    58.693395    1319.4759   -521.51832    -2231.769 
 7417000     275.4023   -3799.4543   -3327.4242   -3799.4543            0    10039.612    16.799471    19.787558    20.495315    6813.0631    8901.4663    9003.1811    12214.188   -1455.9597     1168.452   -48.444486    -2329.873 
 7418000    305.69611   -3776.1702   -3252.2176   -3776.1702            0    11941.414    16.796495    19.784052    20.491684    6809.4427    10937.961    13661.406    11224.877   -207.54929     -738.473    261.51866   -2066.3308 
 7419000    298.34411   -3794.4122   -3283.0606   -3794.4122            0    12053.381    16.825427    19.818131    20.526982    6844.6918     13182.24    10208.573    12769.331   -3.8948031   -963.53904    834.39032   -2079.8582 
 7420000    281.37176   -3780.0527   -3297.7911   -3780.0527            0    12467.197    16.776005    19.759917    20.466686    6784.5523    12735.754    12947.766    11718.071     1174.001   -939.36785    1405.6878   -2064.2152 
 7421000    291.31192   -3812.0669   -3312.7683   -3812.0669            0    10188.859    16.822611    19.814814    20.523547    6841.2558    11597.034    8994.0376    9975.5047   -938.00451   -2313.8498     998.5193   -2296.1983 
 7422000    278.90461   -3783.4525   -3305.4195   -3783.4525            0    12924.483    16.751007    19.730473    20.436189    6754.2685    11873.984    13475.926    13423.539    -268.5154   -585.20193   -1458.6471   -2032.3052 
 7423000    271.98779   -3758.0856   -3291.9078   -3758.0856            0    10272.364    16.782122    19.767123    20.474149    6791.9767    9122.5882    10285.953     11408.55    915.66695   -938.47556    378.01546   -2274.3889 
 7424000    284.02033   -3777.5056   -3290.7044   -3777.5056            0    11014.531     16.75802    19.738734    20.444745    6762.7558    13303.506    10551.341    9188.7465   -1297.8635    643.65852    1094.1514   -2204.3649 
 7425000    289.13863   -3752.6077    -3257.034   -3752.6077            0    11808.522    16.802499    19.791125     20.49901    6816.7483    12053.584    11794.014     11577.97   -1309.8401   -33.011384   -543.68143   -2083.0864 
 7426000    271.52476   -3765.5444   -3300.1603   -3765.5444            0    12546.243    16.748855    19.727939    20.433564    6751.6666    12778.397    12029.867    12830.465    861.77545    273.86434    555.63599   -2064.7803 
 7427000    299.32317   -3784.3083   -3271.2786   -3784.3083            0    10355.081    16.861521    19.860644    20.571016    6888.8356    9821.2031    8598.5522    12645.487    1854.2475    345.03928   -474.95686   -2230.9389 
 7428000    282.63175   -3776.1334   -3291.7122   -3776.1334            0    11896.472    16.873079    19.874258    20.585117    6903.0117    13443.155    9491.4763    12754.785   -1469.5222    660.24067    649.40819   -2094.0546 
 7429000    276.40423   -3755.7123   -3281.9649   -3755.7123            0    11825.944    16.816507    19.807624      20.5161    6833.8116    11234.114    12250.164    11993.555   -368.14678   -1236.1927   -318.38517   -2103.3424 
 7430000    270.84255   -3750.4784   -3286.2635   -3750.4784            0    11958.126      16.7839    19.769218    20.476319    6794.1366    10951.873    10103.572    14818.931    291.58179    650.77595     833.3098   -2101.3865 
 7431000    289.62649   -3749.8966   -3253.4867   -3749.8966            0    13397.509    16.772529    19.755824    20.462446    6780.3364    16605.731    10828.211    12758.585    712.20934    -764.6873    114.96886    -1928.684 
 7432000    290.84782   -3737.8118   -3239.3086   -3737.8118            0    12735.887    16.777394    19.761554    20.468381    6786.2378    11477.481    13766.554    12963.624    1003.7384   -18.688666    424.02797   -1978.8338 
 7433000    282.67093   -3813.9906   -3329.5023   -3813.9906            0    11126.303    16.826184    19.819022    20.527905    6845.6149    12040.972     12802.44    8535.4976    308.99675   -136.63325     447.1226   -2218.6936 
 7434000    284.96526   -3833.3702   -3344.9495   -3833.3702            0    10881.113    16.811771    19.802045    20.510321    6828.0387    13482.804     10756.72    8403.8149   -28.486037    1508.9092    1279.7212   -2261.4089 
 7435000    293.51764   -3799.6815   -3296.6023   -3799.6815            0    12515.549    16.829985    19.823499    20.532542    6850.2556    12492.847    13025.101    12028.698   -1488.5068   -798.73081    862.71512   -2046.2495 
 7436000    280.38865   -3745.8451   -3265.2685   -3745.8451            0     11751.49    16.857729    19.856178     20.56639    6884.1893    13778.252    9553.8501    11922.367    -596.3475   -921.19936    1832.2357   -2085.4326 
 7437000    277.98521   -3813.0394   -3336.5823   -3813.0394            0    10398.041    16.904978    19.911831    20.624034    6942.2367    9052.0681    11800.528    10341.526    1368.6888   -676.83311    238.04876   -2283.8285 
 7438000    309.47434   -3803.3998   -3272.9714   -3803.3998            0     10866.01    16.891538       19.896    20.607636    6925.6915    10421.319    11584.323     10592.39   -1288.2944    1880.4865    635.71289   -2175.4597 
 7439000    270.16826   -3786.5066   -3323.4475   -3786.5066            0     12721.72    16.839797    19.835056    20.544513    6862.2434    12192.224    11161.076    14811.861    146.11638    702.10572    1097.6826   -2050.2732 
 7440000    298.04508   -3750.0068   -3239.1677   -3750.0068            0    11934.817    16.876978     19.87885    20.589873    6907.7976    11495.119    12566.752    11742.579   -70.492274    2052.4922   -161.01758   -2036.8168 
 7441000    279.21634   -3755.7116   -3277.1444   -3755.7116            0    13270.977       16.811    19.801138    20.509381    6827.0998    11968.645    14529.539    13314.748    330.62229   -1401.9593   -700.48442    -1955.803 
 7442000    285.94762   -3767.4584    -3277.354   -3767.4584            0    11508.128    16.867976    19.868248    20.578892    6896.7511    12488.583    11937.826    10097.974    1006.7563    -1160.501    -59.87928    -2119.843 
 7443000    276.69785   -3769.2497   -3294.9991   -3769.2497            0    11000.069    16.816872    19.808054    20.516544    6834.2558    12349.007    11478.758    9172.4415   -553.48101    -349.5479     511.7492   -2198.6155 
 7444000    295.84565   -3763.7958   -3256.7265   -3763.7958            0    13789.681    16.770513    19.753449    20.459987    6777.8918    14658.119    13478.151    13232.774    1543.7557    2473.3705    772.40738   -1893.6358 
 7445000     285.0291   -3778.0036   -3289.4735   -3778.0036            0    11300.305    16.764021    19.745802    20.452066    6770.0233    10409.285    12303.183    11188.447   -637.64978    306.17013   -55.418708   -2173.7509 
 7446000    298.60487    -3785.781   -3273.9825    -3785.781            0    10443.359    16.817438     19.80872    20.517235     6834.946    11594.422    9421.7216    10313.934    1113.7456   -353.33927    541.67669   -2232.9814 
 7447000    278.14258   -3776.8933   -3300.1665   -3776.8933            0    11080.505      16.8381    19.833057    20.542442    6860.1689    9734.9413    12623.669    10882.904    613.36931   -1063.1498   -262.26544   -2191.5783 
 7448000    277.21854   -3769.4003   -3294.2572   -3769.4003            0    10072.681    16.871065    19.871887     20.58266    6900.5407    10796.944    8566.0941    10855.004   -296.54992   -57.188798   -461.93868   -2280.5698 
 7449000    288.18201   -3757.9423   -3264.0082   -3757.9423            0    9935.1508    16.836765    19.831485    20.540814    6858.5376    9964.5471    8176.6793    11664.226   -671.19025    155.48021     830.9249   -2270.2473 
 7450000     277.7651   -3784.6286   -3308.5488   -3784.6286            0    12836.325    16.820953    19.812861    20.521524    6839.2331    11300.879    12658.435     14549.66   -689.92432    1191.0192    21.000038   -2028.2127 
 7451000    279.56572   -3767.3648   -3288.1988   -3767.3648            0     12288.27    16.821382    19.813366    20.522047    6839.7563    10465.308    11841.831    14557.671   -22.019786   -1553.0918   -440.64745   -2062.4336 
 7452000    288.48033   -3770.4285   -3275.9831   -3770.4285            0    13298.442     16.84605    19.842421    20.552141    6869.8904    13216.814    13293.028    13385.484    1172.2903    1748.5942   -755.48028   -1943.6081 
 7453000     270.7055   -3783.2006   -3319.2206   -3783.2006            0    11152.781    16.810025    19.799989    20.508191    6825.9117     11905.92    11928.704    9623.7191    27.197657   -586.79913   -1895.2057   -2208.9733 
 7454000    285.81885   -3795.2424   -3305.3586   -3795.2424            0    13036.852    16.765487    19.747529    20.453855       6771.8    12981.032    12783.256    13346.269   -547.59374    136.77656   -1362.9255   -2017.8423 
 7455000    275.25853   -3819.5578   -3347.7741   -3819.5578            0     9527.691    16.856945    19.855255    20.565434    6883.2291    8851.9719    9877.0655    9854.0356   -706.16309    954.50409   -2382.8654   -2391.3384 
 7456000    286.74501   -3810.0049   -3318.5338   -3810.0049            0    14039.158    16.781864    19.766819    20.473835    6791.6639    11779.275    16104.602    14233.597    249.06073    -2714.004    -1983.869   -1927.9629 
 7457000    279.72269   -3806.3244   -3326.8893   -3806.3244            0    9410.1772      16.8998    19.905732    20.617716    6935.8592    9092.8736    10906.374    8231.2841    238.22296      527.668   -863.85671   -2375.0274 
 7458000    284.45259   -3764.0803   -3276.5383   -3764.0803            0    14817.467    16.819305    19.810919    20.519512    6837.2222    17477.802    12419.882    14554.718   -1058.7638    2437.7116    985.18275   -1799.0313 
 7459000    283.44384   -3781.5255   -3295.7124   -3781.5255            0    14683.381    16.790842    19.777394    20.484788    6802.5694    13830.816    13081.211    17138.117    1077.1534    -618.1513   -891.91842   -1838.9962 
 7460000    304.73248   -3766.5908   -3244.2898   -3766.5908            0    10361.348    16.901838    19.908133    20.620203    6938.3695    10760.902    12655.985    7667.1586    948.57795    164.46789    503.45758   -2195.8353 
 7461000    285.46091   -3804.3348   -3315.0646   -3804.3348            0    13804.236    16.811317    19.801511    20.509767    6827.4857     12894.83    13034.737    15483.141    321.87843   -1059.9934   -1024.4746   -1940.5509 
 7462000    279.31257   -3776.1361   -3297.4039   -3776.1361            0    12236.884    16.824873    19.817478    20.526306    6844.0157    11927.074    10673.335    14110.244    470.59661    667.54397    340.65001   -2076.0044 
 7463000    291.25304   -3749.4042   -3250.2065   -3749.4042            0    11608.819    16.810529    19.800583    20.508806    6826.5259    12985.088     11295.46    10545.908    625.51383    1419.1232      905.502   -2094.4571 
 7464000    281.12346   -3775.4856   -3293.6496   -3775.4856            0    8794.6278    16.883735    19.886809    20.598117    6916.0983    8902.4456    8807.7131    8673.7247     1672.891    875.84264    1568.6067   -2406.5865 
 7465000    265.11681   -3822.1654   -3367.7643   -3822.1654            0    12970.164    16.821753    19.813803    20.522499    6840.2083    11959.024    13511.462    13440.008    567.96102   -1392.9791      761.015   -2073.8941 
 7466000    272.89263   -3766.1634   -3298.4348   -3766.1634            0    12055.445    16.780637    19.765374    20.472338     6790.174    10602.678     12175.58    13388.076   -1576.3273   -717.79569   -1877.2206   -2104.6115 
 7467000    271.90311   -3777.2927   -3311.2601   -3777.2927            0    11034.454    16.769309    19.752031    20.458518    6776.4321      12392.6     8692.605    12018.156    911.25063    273.73173    385.61958   -2220.7547 
 7468000    287.19373   -3757.8956   -3265.6554   -3757.8956            0    11715.387     16.82835    19.821573    20.530547    6848.2588    10472.774    11560.773    13112.612    -330.1379    471.36947   -1718.6264   -2095.5831 
 7469000    287.85856   -3754.0677    -3260.688   -3754.0677            0     13558.31    16.810295    19.800307    20.508521     6826.241    14354.112    14067.275    12253.542   -96.271782     297.8105    448.53625   -1910.9078 
 7470000    281.10459   -3770.1077   -3288.3041   -3770.1077            0     12096.92    16.800066    19.788258    20.496041    6813.7868    13536.064    10839.463    11915.232    840.45607    130.88661   -2104.6274   -2086.2079 
 7471000    281.48784   -3781.4782   -3299.0177   -3781.4782            0    9829.7808    16.863848    19.863385    20.573855    6891.6882    11091.274    9694.8624    8703.2059    607.82056   -150.64369    1597.2758   -2311.0441 
 7472000    277.07911   -3792.3987   -3317.4946   -3792.3987            0    12622.706    16.827774    19.820895    20.529844    6847.5556     13362.27    10237.523    14268.324   -184.29395   -1276.6042   -1345.2749   -2056.9335 
 7473000    259.95411   -3781.8963   -3336.3438   -3781.8963            0    11713.834    16.847799    19.844481    20.554275    6872.0305    12162.556    10586.238    12392.708    14.540543    1760.4917    363.26799   -2162.3656 
 7474000     287.9144   -3796.7403   -3303.2648   -3796.7403            0    11550.639    16.826727    19.819662    20.528568    6846.2783    12622.894    9193.3821     12835.64   -138.11882   -989.39878    294.48773   -2149.9804 
 7475000    286.08291   -3823.4168   -3333.0805   -3823.4168            0    12764.707     16.78266    19.767757    20.474806    6792.6306    12627.023    14126.648    11540.451    1715.1235    607.88528    286.43033   -2068.5633 
 7476000    281.06487   -3797.9946   -3316.2591   -3797.9946            0    10846.043     16.83443    19.828735    20.537965    6855.6847    9968.3236    10680.887    11888.918    727.81186   -340.40645    639.39447   -2231.8378 
 7477000    286.17163    -3735.049   -3244.5606    -3735.049            0    12983.596    16.842407    19.838131    20.547698    6865.4354    12362.519    12823.459    13764.811    6.7348519    -1108.222   -1546.9825   -1944.5737 
 7478000    282.62619   -3736.4801   -3252.0685   -3736.4801            0    13582.275    16.777181    19.761303    20.468122      6785.98    13327.867    12752.133    14666.824   -1792.0375    411.88439    437.89978   -1907.8776 
 7479000    301.72966   -3801.6378   -3284.4835   -3801.6378            0    8532.9775    16.882425    19.885266    20.596519    6914.4885    6567.2827    9575.2443    9456.4054    1476.5695   -578.50064   -553.31041   -2424.0118 
 7480000    302.44762    -3758.888   -3240.5032    -3758.888            0    12779.644    16.863246    19.862677    20.573121    6890.9509    14381.633    12711.395    11245.903    -463.2702    -1244.923    1436.0435   -1956.1816 
 7481000     295.5275   -3783.6181   -3277.0941   -3783.6181            0    9723.8738    16.825177    19.817837    20.526677    6844.3868    10541.916    10620.832    8008.8735    1115.5285   -353.47287    -1609.793    -2306.473 
 7482000    302.73519   -3793.0565   -3274.1787   -3793.0565            0     9408.652    16.826643    19.819563    20.528466    6846.1761    8562.4312    10632.745    9030.7795   -54.129421    1560.2341    1444.4289    -2334.777 
 7483000    296.88001   -3803.4594   -3294.6173   -3803.4594            0    10844.708    16.818291    19.809725    20.518275    6835.9858    10454.656    12307.929    9771.5392   -300.96151    242.97899    2598.6266    -2213.445 
 7484000    291.37467   -3744.0139   -3244.6077   -3744.0139            0    11806.062    16.810502    19.800551    20.508773    6826.4928    12090.143     10249.48    13078.564   -372.40999    424.67177   -1102.5203   -2069.2268 
 7485000    268.80056   -3752.0527   -3291.3377   -3752.0527            0    13201.209    16.786086    19.771792    20.478985    6796.7908    14390.581    11947.372    13265.674    2394.3775    267.81947   -1446.3682   -1982.7781 
 7486000    278.75577   -3782.5232   -3304.7454   -3782.5232            0    8808.1348    16.845615    19.841909     20.55161    6869.3583    10332.411    8184.9146     7907.079    1251.2948    1986.8337    595.09629    -2422.324 
 7487000    280.98279   -3768.1721   -3286.5773   -3768.1721            0    13327.928    16.762315    19.743793    20.449985     6767.957    11645.883    14949.786    13388.113   -159.34611    1002.8706   -551.75236   -1971.0614 
 7488000     288.7834   -3771.5665   -3276.6017   -3771.5665            0    10760.265    16.781104    19.765924    20.472908    6790.7411    10398.921    10613.097    11268.778    1191.9337   -314.43616   -1339.5336   -2210.9481 
 7489000    276.99653   -3778.4697   -3303.7071   -3778.4697            0    11902.893    16.753254    19.733121    20.438931    6756.9876    10116.818    12818.015    12773.846   -889.18974    433.31257   -658.46895   -2130.7516 
 7490000    277.46053   -3777.8319   -3302.2741   -3777.8319            0     10514.42    16.793592    19.780633    20.488143    6805.9131    8579.6617     9389.263    13574.334    919.41779    882.06423     1119.897   -2258.6416 
 7491000    262.27547   -3778.1868   -3328.6556   -3778.1868            0    12047.042    16.750464    19.729834    20.435527    6753.6118      11760.5     10934.95    13445.675   -228.18402   -693.57363   -122.06954   -2142.0882 
 7492000    280.16785   -3770.8919   -3290.6938   -3770.8919            0    10900.093    16.794289    19.781454    20.488994    6806.7606    9504.2385    13757.128    9438.9119    327.80151    464.85523   -502.43439   -2208.6457 
 7493000    293.14447     -3769.66   -3267.2204     -3769.66            0    11927.902    16.819414    19.811048    20.519646    6837.3558    14619.483    8559.0949    12605.129    1245.0273    84.614611    69.114806   -2077.8198 
 7494000    285.64817   -3771.0625   -3281.4713   -3771.0625            0    12079.837    16.837472    19.832318    20.541677    6859.4023    9871.4618    11573.202    14794.848    691.43592   -1257.5321    972.54685   -2073.0364 
 7495000     288.0245   -3759.8854   -3266.2212   -3759.8854            0    10860.337    16.841123    19.836619    20.546131    6863.8652    12062.627    10962.268     9556.117   -869.87384   -1378.6536    -735.3362    -2179.075 
 7496000    284.04903   -3757.6115   -3270.7611   -3757.6115            0    11022.614    16.819371    19.810998    20.519594    6837.3038    10581.181    9529.3727    12957.287   -1838.1089   -2025.0117    168.53957   -2171.6405 
 7497000    276.85531   -3760.7253   -3286.2048   -3760.7253            0    10464.395    16.851593    19.848951    20.558905    6876.6751    9625.5298    10101.268    11666.386   -7.7201533   -581.25205   -1760.4232   -2236.7385 
 7498000    305.16492   -3806.0184   -3282.9762   -3806.0184            0    10389.465    16.827455    19.820519    20.529456    6847.1669    10499.439    10888.072     9780.884    98.782416    537.19673    905.29365   -2245.4956 
 7499000    275.42564    -3795.959   -3323.8889    -3795.959            0     11012.26    16.851681    19.849055    20.559012    6876.7829    12161.141    11866.284     9009.353     -1301.91    552.61705   -386.46305   -2219.4603 
 7500000    292.65414   -3745.7837   -3244.1846   -3745.7837            0    12649.482    16.797589     19.78534    20.493019     6810.773    12949.412     12205.89    12793.145   -693.11461    1191.4021   -690.45238    -1987.735 
Loop time of 566.039 on 64 procs for 250000 steps with 864 atoms

Performance: 76.320 ns/day, 0.314 hours/ns, 441.665 timesteps/s
99.1% CPU use with 64 MPI tasks x 1 OpenMP threads

MPI task timing breakdown:
Section |  min time  |  avg time  |  max time  |%varavg| %total
---------------------------------------------------------------
Pair    | 22.702     | 27.836     | 32.809     |  45.7 |  4.92
Bond    | 0.27594    | 0.2864     | 0.30411    |   1.2 |  0.05
Kspace  | 233.5      | 249.66     | 267.39     |  63.2 | 44.11
Neigh   | 6.5561     | 8.6011     | 11.085     |  51.0 |  1.52
Comm    | 118.71     | 138.84     | 158.99     |  95.4 | 24.53
Output  | 1.4524     | 1.455      | 1.4602     |   0.1 |  0.26
Modify  | 129.67     | 134.89     | 139.42     |  24.9 | 23.83
Other   |            | 4.473      |            |       |  0.79

Nlocal:        13.5000 ave          18 max           9 min
Histogram: 3 5 4 9 8 12 11 7 4 1
Nghost:        2321.77 ave        2366 max        2297 min
Histogram: 3 8 18 12 11 4 4 3 0 1
Neighs:        4524.38 ave        6269 max        2685 min
Histogram: 4 2 5 3 13 17 8 6 5 1

Total # of neighbors = 289560
Ave neighs/atom = 335.13889
Ave special neighs/atom = 2.0000000
Neighbor list builds = 16218
Dangerous builds = 3

unfix		3
unfix		2
unfix		1

write_data	data.final.${pid}
write_data	data.final.0
System init for write_data ...
PPPM initialization ...
  extracting TIP4P info from pair style
  using 12-bit tables for long-range coulomb (../kspace.cpp:340)
  G vector (1/distance) = 0.37512618
  grid = 24 24 24
  stencil order = 5
  estimated absolute RMS force accuracy = 0.0030637474
  estimated relative force accuracy = 9.2263844e-06
  using double precision FFTW3
  3d grid and FFT values/proc = 2535 216
Last active /omp style is kspace_style pppm/tip4p/omp
WARNING: Not all mixed pair coeffs generated from mixing. Use write_data with 'pair ij' option to store all pair coeffs. (../write_data.cpp:312)

write_restart   restart.lmp.${pid}
write_restart   restart.lmp.0
System init for write_restart ...
PPPM initialization ...
  extracting TIP4P info from pair style
  using 12-bit tables for long-range coulomb (../kspace.cpp:340)
  G vector (1/distance) = 0.37512618
  grid = 24 24 24
  stencil order = 5
  estimated absolute RMS force accuracy = 0.0030637474
  estimated relative force accuracy = 9.2263844e-06
  using double precision FFTW3
  3d grid and FFT values/proc = 2535 216
Last active /omp style is kspace_style pppm/tip4p/omp
Total wall time: 0:09:31
