LAMMPS (30 Jul 2021)
Processor partition = 0
  using 4 OpenMP thread(s) per MPI task
using multi-threaded neighbor list subroutines
variable        pid world 0 1
variable        phase world IceVI IceV

shell cd ${phase}
shell cd IceVI
include Restart.lmp
echo both
log log.lammps
#include		in.partitions
include		in.temp
variable        temperature equal 63.27
variable	tempDamp equal 100.0
include		in.pressure
variable        pressure equal 8196.1
variable        pressureDamp equal 1000.0 # This is 1 ps
include		in.seed
variable        seed equal 745823

units		real
atom_style	full
read_restart	restart.lmp.${pid}
read_restart	restart.lmp.0
Reading restart file ...
  restart file = 30 Jul 2021, LAMMPS = 30 Jul 2021
  restoring atom style full from restart
  orthogonal box = (0.027116495 0.021054095 0.064718436) to (24.702885 24.708947 22.745282)
  2 by 4 by 2 MPI processor grid
  restoring pair style lj/cut/tip4p/long/omp from restart
  restoring bond style harmonic/omp from restart
  restoring angle style harmonic/omp from restart
  1920 atoms
  1280 bonds
  640 angles
Finding 1-2 1-3 1-4 neighbors ...
  special bond factors lj:    0        0        0       
  special bond factors coul:  0        0        0       
     2 = max # of 1-2 neighbors
     1 = max # of 1-3 neighbors
     1 = max # of 1-4 neighbors
     2 = max # of special neighbors
  special bonds CPU = 0.001 seconds
  read_restart CPU = 0.007 seconds
include 	in.setup
variable	out_freq equal 1000
variable	out_freq2 equal 10000
variable	out_freq3 equal 1000

timestep	2.0

neigh_modify    delay 7 every 1

include		in.tip4p
# This is TIP4P/Ice

# create groups ###
group ox type 2
640 atoms in group ox
group hy type 1
1280 atoms in group hy

# set charges - beside manually ###
set group ox charge -1.1794
Setting atom values ...
  640 settings made for charge
set group hy charge 0.5897
Setting atom values ...
  1280 settings made for charge

# ### TIP3P Potential Parameters ###
pair_style lj/cut/tip4p/long/omp 2 1 1 1 0.1577 8.5
pair_coeff 1 1*2 0.000 0.000
pair_coeff 2 2 0.21084 3.1668
bond_style  harmonic
bond_coeff  1 450 0.9572
angle_style harmonic
angle_coeff 1 55 104.52
kspace_style pppm/tip4p/omp 1.0e-5
pair_modify tail yes

thermo          ${out_freq}
thermo          1000
thermo_style    custom step temp pe etotal epair emol press lx ly lz vol pxx pyy pzz pxy pxz pyz enthalpy

restart 	${out_freq3} restart.lmp.${pid} restart2.lmp.${pid}
restart 	1000 restart.lmp.${pid} restart2.lmp.${pid}
restart 	1000 restart.lmp.0 restart2.lmp.${pid}
restart 	1000 restart.lmp.0 restart2.lmp.0


include         in.dump
dump            myDump all atom ${out_freq2} dump.water.${pid}
dump            myDump all atom 10000 dump.water.${pid}
dump            myDump all atom 10000 dump.water.0
dump            myDump2 all dcd ${out_freq2} dump.dcd
dump            myDump2 all dcd 10000 dump.dcd
dump_modify     myDump append yes
dump_modify     myDump2 append yes


variable natoms 	equal  "count(all)"                        # NUMBER ATOMS
variable H      	equal  "enthalpy/v_natoms"                 # ENTHALPY-per-atom
variable Vol      	equal  "vol/v_natoms"                 # volume-per-atom
fix AVG all 		ave/time ${out_freq} 1 ${out_freq} v_Vol v_H file vol_enthalpy.dat
fix AVG all 		ave/time 1000 1 ${out_freq} v_Vol v_H file vol_enthalpy.dat
fix AVG all 		ave/time 1000 1 1000 v_Vol v_H file vol_enthalpy.dat




fix 		1 all shake 1e-6 200 0 b 1 a 1
Finding SHAKE clusters ...
       0 = # of size 2 clusters
       0 = # of size 3 clusters
       0 = # of size 4 clusters
     640 = # of frozen angles
  find clusters CPU = 0.000 seconds
fix             2 all nph aniso ${pressure} ${pressure} ${pressureDamp}
fix             2 all nph aniso 8196.1 ${pressure} ${pressureDamp}
fix             2 all nph aniso 8196.1 8196.1 ${pressureDamp}
fix             2 all nph aniso 8196.1 8196.1 1000
fix             3 all temp/csvr ${temperature} ${temperature} ${tempDamp} ${seed}
fix             3 all temp/csvr 63.27 ${temperature} ${tempDamp} ${seed}
fix             3 all temp/csvr 63.27 63.27 ${tempDamp} ${seed}
fix             3 all temp/csvr 63.27 63.27 100 ${seed}
fix             3 all temp/csvr 63.27 63.27 100 745823


run             250000
PPPM initialization ...
  extracting TIP4P info from pair style
  using 12-bit tables for long-range coulomb (../kspace.cpp:340)
  G vector (1/distance) = 0.37534604
  grid = 30 30 30
  stencil order = 5
  estimated absolute RMS force accuracy = 0.0031692707
  estimated relative force accuracy = 9.5441645e-06
  using double precision FFTW3
  3d grid and FFT values/proc = 7920 1800
Last active /omp style is kspace_style pppm/tip4p/omp
Neighbor list info ...
  update every 1 steps, delay 7 steps, check yes
  max neighbors/atom: 2000, page size: 100000
  master list distance cutoff = 10.8154
  ghost atom cutoff = 10.8154
  binsize = 5.4077, bins = 5 5 5
  1 neighbor lists, perpetual/occasional/extra = 1 0 0
  (1) pair lj/cut/tip4p/long/omp, perpetual
      attributes: half, newton on, omp
      pair build: half/bin/newton/omp
      stencil: half/bin/3d
      bin: standard
Setting up Verlet run ...
  Unit style    : real
  Current step  : 40250000
  Time step     : 2
Per MPI rank memory allocation (min/avg/max) = 12.57 | 12.57 | 12.57 Mbytes
Step Temp PotEng TotEng E_pair E_mol Press Lx Ly Lz Volume Pxx Pyy Pzz Pxy Pxz Pyz Enthalpy 
40250000    65.632526    -9924.876   -9674.6549    -9924.876            0    8117.4481    24.675768    24.687893    22.680563    13816.834    7591.0227    8714.2833    8047.0382   -242.95679   -360.73928    103.74346   -8038.9538 
40251000    63.226647     -9921.54   -9680.4912     -9921.54            0    8527.5784    24.597082    24.674973    22.743195     13803.58    8064.2859    8929.2657    8589.1835   -28.690802   -222.36486   -391.26416   -7963.7953 
40252000    63.305348   -9917.1032   -9675.7543   -9917.1032            0    8657.4009      24.6056    24.688483    22.708742    13794.991    9017.9379    8581.2478    8373.0171   -367.62727   -346.26061    288.17955   -7934.0082 
40253000    64.476428   -9926.9807   -9681.1672   -9926.9807            0    8041.7634    24.651831     24.69411    22.698074    13817.566    8469.7638    7367.1697    8288.3568   -506.20874    -527.5346    2.1063924    -8060.631 
40254000    62.915311   -9930.1467   -9690.2848   -9930.1467            0    7687.3037    24.626734    24.714014    22.726367    13831.845    7772.5793     7256.921     8032.411     -330.859   -783.99698     100.4625   -8139.5767 
40255000     62.71996   -9915.2845   -9676.1674   -9915.2845            0    8070.8828    24.666539    24.684324    22.698951    13820.866    8467.7743    8062.4703    7682.4039   -616.65918    -364.9443   -409.60357   -8049.3749 
40256000      64.2888   -9915.3526   -9670.2544   -9915.3526            0    7738.0288     24.65855    24.646662    22.774608     13841.29    7650.8816    8096.6677     7466.537    330.75394    88.623516    35.325309   -8108.2481 
40257000    61.864757   -9921.3991   -9685.5425   -9921.3991            0     8176.666    24.681397     24.66785    22.701982    13821.807    7854.7415     7993.956    8681.3004   -80.851951   -422.29247    135.11444   -8037.3156 
40258000    63.407362   -9929.2948    -9687.557   -9929.2948            0    7569.7699    24.653493    24.686012    22.742433    13840.963     7786.991    8017.9235    6904.3952    206.38202   -279.30009    296.27109   -8159.5516 
40259000    65.411167   -9918.2197   -9668.8425   -9918.2197            0     8081.475     24.67787     24.67688    22.706627    13827.719     7478.626    8496.2309    8269.5682   -129.54172     178.2126    162.47556   -8039.1072 
40260000    65.960998   -9926.4252   -9674.9518   -9926.4252            0    8113.4014    24.627047    24.651159    22.765103    13820.358    8215.6374    8365.8338    7758.7328   -203.85591   -282.29858    281.72615   -8039.6492 
40261000    62.168425   -9918.0277   -9681.0133   -9918.0277            0    8119.0028    24.670559    24.671319    22.710292    13822.738    8257.9994    8055.8167    8043.1925    37.757531   -277.44148   -870.45096   -8044.2998 
40262000    64.289944   -9912.9202   -9667.8176   -9912.9202            0    7724.3036    24.647798    24.668139     22.77489    13847.482    7815.4427    7859.2464    7498.2216   -5.7242987   -787.09465     284.9426   -8107.8844 
40263000    63.305626   -9915.2625   -9673.9126   -9915.2625            0     7480.429    24.741709    24.648336    22.715998    13853.169    7340.5527    7971.3963    7129.3378    321.49478   -620.76941    342.29581   -8162.6097 
40264000    61.929525   -9928.2111   -9692.1075   -9928.2111            0     7605.861    24.693647    24.644688    22.740073    13838.863      7251.61    7820.0777    7745.8953   -513.72823    633.06626   -268.52557   -8157.0499 
40265000    63.812462   -9927.1334   -9683.8512   -9927.1334            0     7789.012    24.715162     24.68239     22.68287    13837.215    7793.5963     7363.727    8209.7128    43.803421   -152.76826     188.6207   -8112.0163 
40266000    65.786402     -9926.35   -9675.5422     -9926.35            0    8646.4146    24.531256    24.766749    22.704348    13794.241    9837.8262    7488.0112    8613.4063   -45.162084   -321.03698    412.73007    -7936.101 
40267000    64.604327   -9917.5321   -9671.2309   -9917.5321            0    9079.0763    24.624977      24.6807    22.676205    13781.728    8879.1382    8385.0425    9973.0481    231.75242   -199.21009    773.82935   -7846.4059 
40268000    62.070397   -9923.1829   -9686.5422   -9923.1829            0    8362.9867    24.618722    24.665224    22.759599    13820.227    8474.5423    8267.8576    8346.5601   -315.15466   -544.98088    288.60623   -8000.9502 
40269000    62.898013    -9918.332   -9678.5361    -9918.332            0    8173.1155     24.68515    24.679942    22.666505    13809.071    8352.1023    8509.5297    7657.7146   -597.40702   -258.60811    124.58327   -8032.5431 
40270000    63.528282   -9924.3137   -9682.1149   -9924.3137            0    8299.4359    24.601499    24.690137    22.738431     13811.65    8165.7339    8383.5361    8349.0376   -34.011013     9.141545   -406.65676   -8010.3699 
40271000    64.852502   -9925.8355   -9678.5882   -9925.8355            0    8273.0822    24.664536    24.716512    22.643125    13803.731     8386.314    7905.6384    8527.2941    124.90596   -832.96999   -91.950508    -8013.107 
40272000    63.961848   -9915.0159   -9671.1641   -9915.0159            0    8316.1388     24.63108    24.669955    22.746782    13822.028    8936.7604    7717.8785    8293.7775   -107.76333   -276.16895   -419.62775    -7994.796 
40273000    61.214538   -9921.6907    -9688.313   -9921.6907            0    8204.3825    24.735448    24.644537    22.664479    13816.123    7456.4096     8729.536    8427.2018   -572.11996   -229.65061     518.4088   -8035.1793 
40274000    66.913218   -9919.4084   -9664.3047   -9919.4084            0    7921.7895    24.682415    24.661787    22.728787    13835.296    7795.2142    8315.0473     7655.107   -265.96315    292.99857    76.566548   -8065.8967 
40275000    62.955737   -9919.0775   -9679.0616   -9919.0775            0    7438.3948    24.700816    24.716415     22.68845    13851.653     7016.703    7037.9588    8260.5225   -7.4945737   -597.63512    194.75972   -8176.4154 
40276000    64.377457   -9915.4696   -9670.0334   -9915.4696            0    8195.0776    24.651496     24.67721     22.71344     13817.27     7878.515    8293.1411    8413.5766   -131.39344   -669.61376   -733.85792   -8018.6375 
40277000    63.761749   -9922.3695   -9679.2806   -9922.3695            0    7732.7424    24.647145    24.754065    22.681891    13838.607    7982.6949     7322.689    7892.8432    164.58188    -205.7756    431.07401   -8118.6439 
40278000    62.714349   -9923.1235   -9684.0278   -9923.1235            0     7918.894    24.633005    24.623457     22.78901    13822.668    8319.1953    7948.9231    7488.5638   -103.51843    -463.6565   -6.8149926   -8087.6624 
40279000    62.543092   -9920.5594   -9682.1166   -9920.5594            0    8490.8942    24.686448    24.679098    22.654471    13801.994    8253.9216    8214.8482    9003.9126   -325.42233    843.25047    130.85448   -7973.0022 
40280000    64.299192   -9918.9602   -9673.8224   -9918.9602            0    7776.8603    24.637987    24.719794    22.712041    13832.677    8227.3857    7014.8877    8088.3077    104.24739    146.92997    439.28583   -8104.9543 
40281000    62.744165   -9908.9491   -9669.7398   -9908.9491            0     7896.668    24.615879    24.668707    22.790073    13839.087    8178.3471    8275.8451    7235.8117    206.84099    127.77991   -469.28035    -8075.964 
40282000    66.043366   -9920.9889   -9669.2015   -9920.9889            0    8227.9461    24.687806    24.700919    22.667227    13822.736     8780.483    7738.6239    8164.7314    100.72106    59.024687    32.218586   -8010.5264 
40283000    64.501905   -9918.6085   -9672.6979   -9918.6085            0    8467.8818    24.584705    24.653193    22.775659    13804.133    8983.5899    8405.5416    8014.5139     432.4867   -122.83437     328.4283   -7967.9513 
40284000    61.598306   -9924.8128   -9689.9719   -9924.8128            0    8347.8419    24.613285    24.732876    22.699447    13818.455    9019.1113    7471.5807    8552.8337   -230.56179   -84.903401   -17.672204   -8007.6481 
40285000    62.828877    -9930.272   -9690.7396    -9930.272            0    8483.4103    24.622474    24.669896    22.730627    13807.353    8742.1073    8287.9624    8420.1612   -153.09198    -692.4381    568.69623   -7982.4686 
40286000    63.182524   -9921.1814   -9680.3009   -9921.1814            0    8435.7328    24.655779    24.652053    22.720873      13810.1    7632.5966    8884.8049     8789.797    138.72536     -860.418    -709.9177   -7981.2924 
40287000    63.897002   -9921.5463   -9677.9418   -9921.5463            0    7938.8226    24.683344    24.732404    22.654424    13830.037    7499.9978    7615.6622    8700.8078    7.9845417    312.92285     -328.128   -8076.7059 
40288000    63.494293   -9915.6248   -9673.5556   -9915.6248            0    8078.0462    24.593981    24.694617    22.767603    13827.652    8746.5645    7463.3204    8024.2536    412.13377    347.67655    300.49356   -8044.5197 
40289000    62.121602   -9922.1356   -9685.2997   -9922.1356            0    8287.8146    24.662346    24.735094    22.648828    13816.362    7961.8745    7582.5495    9319.0199   -180.18105   -710.31203    59.290699   -8015.3261 
40290000    63.477239   -9922.0327   -9680.0286   -9922.0327            0    8358.9364    24.618306     24.61479    22.782603    13805.675    8388.4391    8840.8448    7847.5253   -610.50796   -675.81977    443.72641   -7997.0269 
40291000    61.005107   -9922.3316   -9689.7523   -9922.3316            0    8784.7209    24.592412    24.714868    22.694548    13793.706    9375.4454     8359.874    8618.8432    -669.9571   -253.69534    403.20445    -7922.556 
40292000    64.629651   -9923.2295   -9676.8318   -9923.2295            0    8850.5074    24.656822    24.642343    22.691593    13787.454    8592.4183    9140.6243    8818.4798    64.717299    129.28173    300.92087   -7897.2082 
40293000    63.502143   -9917.8083   -9675.7092   -9917.8083            0    7639.6355    24.663324    24.740124    22.685152    13841.883    7461.6824    7888.5058    7568.7183   -300.16494   -258.67181    267.84839   -8133.4985 
40294000    62.423198   -9916.3863   -9678.4006   -9916.3863            0    8474.3922    24.602341    24.651014    22.784122    13817.948    8947.0859    8139.1266     8336.964    183.27352   -536.32991   -213.40559   -7970.6361 
40295000    62.037177   -9931.8092   -9695.2952   -9931.8092            0    7991.2127    24.614063    24.737559    22.699639    13821.625    8338.5738    7477.6637    8157.4008   -656.16169   -370.63676   -101.27342   -8084.4727 
40296000    65.400243   -9918.8574   -9669.5218   -9918.8574            0    7928.8417    24.594069     24.72251    22.761687    13839.723    8871.4055    7745.0611    7170.0585    235.93063   -253.61939    280.84843    -8069.179 
40297000    62.335259   -9925.0702   -9687.4197   -9925.0702            0    7393.0554     24.54672    24.827821    22.731547     13853.55    8265.6344    6300.7892    7612.7426   -585.55665   -362.61668   -4.8408528   -8193.7282 
40298000    63.660294   -9921.7876   -9679.0856   -9921.7876            0    8623.0595    24.609187     24.69027     22.70545    13796.001    9433.9497    8012.4147    8422.8141   -18.202987   -129.87608   -601.57268   -7944.1214 
40299000    61.990363    -9909.898   -9673.5625    -9909.898            0    8014.0684    24.685746     24.67606    22.698811    13826.911    7682.0532    8260.2216    8099.9305   -236.64713    -32.62948    540.55312    -8057.515 
40300000    65.075367   -9918.5346   -9670.4376   -9918.5346            0    8327.8556    24.632013    24.632071    22.775847     13818.96    8509.2013    8648.0339    7826.3315    264.51586     36.65057    79.518404   -7992.0802 
40301000    63.317756   -9918.8227   -9677.4266   -9918.8227            0    8462.4158    24.645428     24.71062    22.679747    13812.052    8493.0675    8471.9181    8422.2619    128.98878   -872.47014    -59.99882   -7972.8031 
40302000    62.475206   -9917.2476   -9679.0637   -9917.2476            0    8049.0245    24.622463    24.689851     22.74815    13829.168    7840.4939    8255.7217    8050.8577   -96.597941   -289.68226   -178.32733   -8055.7024 
40303000    62.574299   -9920.3445   -9681.7827   -9920.3445            0    7588.4144    24.656317    24.753642    22.685017    13845.429    7546.8849    7202.4596    8015.8987    50.355304   -385.24733    129.23104   -8149.5196 
40304000    65.981726    -9925.998   -9674.4456    -9925.998            0    8027.7373     24.65245    24.668803    22.737924    13827.987    8533.1919    7301.7585    8248.2614   0.32521201   -169.26275   -805.03028   -8055.5158 
40305000    66.567417   -9924.4961   -9670.7107   -9924.4961            0     7934.809    24.653805    24.633069    22.768544    13827.311    8273.6631     8053.006     7477.758    74.864087   -135.55299     314.1246   -8070.5998 
40306000    64.075739   -9917.2172   -9672.9313   -9917.2172            0    7923.0348    24.651029    24.704342    22.714551    13832.876    7812.3754    7807.6993    8149.0296   -344.87791   -283.40689    379.89392   -8074.5516 
40307000    62.687293   -9920.2573   -9681.2648   -9920.2573            0    7615.7689    24.682275    24.677496    22.742182    13852.189    7194.9078    8053.4964    7598.9026   -459.29221   -803.71294    230.09022   -8142.7274 
40308000    62.776968   -9923.7063   -9684.3719   -9923.7063            0    7926.7587    24.689597    24.660016    22.712059    13828.143    7506.9075    7889.4245    8383.9439   -98.685925     212.3043    334.12067   -8085.7881 
40309000    63.333514   -9922.8448   -9681.3885   -9922.8448            0    8347.2205    24.675164    24.660086    22.706873    13816.943    8051.7129     8180.258    8809.6908    554.79584   -581.36117      204.741    -7999.374 
40310000    62.329362   -9925.4623   -9687.8343   -9925.4623            0    8693.9174    24.627179    24.646749    22.731774     13797.73    9024.5331    8549.0155    8508.2035   -154.16138   -447.75881    555.77504   -7938.3944 
40311000      62.6679   -9923.7481   -9684.8294   -9923.7481            0    7909.3501    24.746141    24.677265    22.639224    13825.029    6889.6529    8326.2318    8512.1654   -73.444824    74.039572    48.164533   -8090.1157 
40312000    61.763787   -9916.5335   -9681.0618   -9916.5335            0    8044.5301    24.615748    24.646312    22.793935    13828.793    9107.0495    7870.0635    7156.4774   -246.75648   -810.42266      -194.23   -8058.6509 
40313000    64.702376   -9916.1921   -9669.5171   -9916.1921            0    7573.5998    24.698826    24.655378     22.74081    13848.219    6664.1312    8253.9195    7802.7487    -295.5482   -164.90336    333.84094   -8139.9372 
40314000    62.794736   -9917.7334   -9678.3312   -9917.7334            0    8018.4238    24.659418     24.72579    22.664935    13819.345    7949.1816    7806.2394    8299.8506    -92.15866   -526.67307    604.62571   -8062.2902 
40315000    62.872486   -9933.1586     -9693.46   -9933.1586            0    7722.3845    24.619991    24.703052    22.739043    13829.634    8295.2645     7531.065    7340.8238   -348.94601   -435.79734    518.37374   -8135.9244 
40316000    65.625453   -9912.4444   -9662.2502   -9912.4444            0    7980.6474    24.675305    24.683293    22.705082    13828.934    7525.1031    8188.0903    8228.7488    79.500222    322.57778   -100.91764   -8052.7067 
40317000     62.03211   -9928.5681   -9692.0734   -9928.5681            0    7479.1188    24.647093    24.755536    22.694445    13847.061     7111.969    7571.2878    7754.0998   -118.18141   -350.78314   -109.62882   -8181.7014 
40318000     61.36569   -9921.1265   -9687.1725   -9921.1265            0    8141.9668    24.640153    24.668088    22.731846    13816.996    8218.8524    8374.5561    7832.4918   -190.86154   -136.18641    113.68327   -8046.5116 
40319000    62.603268   -9922.4301   -9683.7579   -9922.4301            0    8656.8447    24.667678    24.593571    22.724472    13786.172    8307.1092    9128.4768    8534.9481   -257.85282   -295.47543    282.83688   -7943.2371 
40320000    62.649381   -9923.4971   -9684.6491   -9923.4971            0    8448.2559     24.68017    24.661438    22.688837    13809.526    7903.4915    8787.4261      8653.85   -172.78665   -133.43148   -55.198439   -7983.1892 
40321000    63.455065   -9919.2803   -9677.3606   -9919.2803            0    8146.6907    24.642984    24.656512    22.753047     13824.98    7688.4546    8534.2634    8217.3543   -471.26392    313.83739    204.92108   -8034.7992 
40322000    64.508313   -9915.9361    -9670.001   -9915.9361            0    8243.8075    24.685401    24.669265    22.684121    13813.965    8487.3428    8344.3031    7899.7764   -60.760017    499.69604   -109.88782   -8009.1829 
40323000    61.089446    -9928.031   -9695.1301    -9928.031            0    8198.1019    24.632635    24.618566    22.787262    13818.655    7896.5056    8980.5921    7717.2081   -17.665108   -403.88379    243.67359   -8042.9593 
40324000    63.866504   -9916.5476   -9673.0594   -9916.5476            0    8194.5537    24.665384    24.669924    22.711608    13819.858    8332.7167    7972.1124    8278.8322   -19.989282    133.95727   -59.348682   -8021.4598 
40325000    64.113107   -9913.3363   -9668.9079   -9913.3363            0    8093.0145    24.595227    24.740049    22.726296    13828.658     8750.819    7897.6633    7630.5611    238.37432    85.414688   -148.81735   -8036.7347 
40326000    63.206945   -9920.1329   -9679.1592   -9920.1329            0    8100.0052    24.605943    24.683739     22.76317    13825.591    8403.1614      8053.59     7843.264   -638.93713   -480.36234   -320.18822   -8045.9384 
40327000    63.093788   -9928.8331   -9688.2908   -9928.8331            0    8024.0861    24.651582    24.684345    22.705334    13816.381    8831.2559    7778.1377    7462.8648   -199.05925   -352.04573    456.86826   -8071.4555 
40328000    64.635347   -9919.1502   -9672.7308   -9919.1502            0    8178.6651    24.701776    24.643367    22.716292    13828.201    7547.1062    8629.9187    8358.9705    49.426094   -143.86478    181.97357   -8023.3384 
40329000    61.917859   -9919.7714   -9683.7122   -9919.7714            0    8086.5593    24.744509    24.648369    22.671545    13827.642    7378.5665    8305.4182    8575.6931   -392.12825    35.095283   -67.623682   -8052.9607 
40330000    62.886354   -9920.3872   -9680.6357   -9920.3872            0    8304.3899    24.641392    24.650569    22.745666    13816.271    8584.6979    8173.8383    8154.6335   -298.25957       -223.2    480.93877   -8007.3332 
40331000    64.364469   -9917.2418   -9671.8551   -9917.2418            0    7677.3663    24.614641    24.728569    22.741387    13842.338    7916.2412    7590.8196    7525.0381    24.530484   -932.58015    215.51466   -8121.9768 
40332000     64.30612   -9924.6149   -9679.4507   -9924.6149            0    8388.1657    24.637349    24.741646    22.652381    13808.179    8724.7229    7296.2737    9143.5007   -175.66895   -258.46843   -152.38898   -7990.2575 
40333000    62.868842   -9928.5834   -9688.8987   -9928.5834            0    8698.7886    24.594328    24.608427    22.789148    13792.624    8354.7088    9738.4485    8003.2083    74.831456    195.10342   -199.04643   -7939.1263 
40334000    64.585384   -9916.3206   -9670.0916   -9916.3206            0    7895.0285    24.673399    24.701923    22.692974    13830.923    8012.1971    7901.7611    7771.1274   -410.34274   -431.46312    283.63548   -8077.5869 
40335000    63.476118   -9926.3884   -9684.3885   -9926.3884            0    7815.1827    24.656151    24.685863     22.73001    13834.811    7329.6776    8002.2799    8113.5906   -314.45336   -485.30127   -14.451089   -8107.5463 
40336000     64.26964   -9922.3596   -9677.3344   -9922.3596            0    8024.6614    24.673597    24.700418    22.681593    13823.255    7914.4254    8238.8986    7920.6602    -340.3081   -59.221541   -25.386508   -8059.5788 
40337000    62.951022   -9915.8631   -9675.8651   -9915.8631            0       8818.7    24.632502    24.671052    22.693556    13791.095    8752.9659    9049.4551    8653.6791    -80.00442    39.019327   -328.17452    -7902.169 
40338000    63.978493    -9911.876   -9667.9608    -9911.876            0    8375.2551    24.604411    24.738637    22.697629    13815.584    8718.0557    7795.0939    8612.6157   -320.22474    334.66708   -671.74379   -7980.4631 
40339000    59.942199   -9920.4492   -9691.9222   -9920.4492            0     8210.815    24.574758    24.709705    22.754697    13817.449    8485.9746    8256.5982    7889.8722   -782.16586   -98.532831   -102.62319   -8037.3336 
40340000    66.057245   -9926.5363   -9674.6959   -9926.5363            0    8124.8931    24.665036    24.693756    22.694586    13822.645    8335.6624    8028.0304    8010.9865   -70.180724   -36.533286   -47.612797    -8036.806 
40341000    63.312298   -9930.6537   -9689.2783   -9930.6537            0    8201.2532    24.615782    24.678081    22.758275    13824.975    8618.0443     8058.122    7927.5933    140.63031   -40.535902    391.79282   -8035.7164 
40342000    64.667171   -9926.7696   -9680.2289   -9926.7696            0    7691.0309    24.716932    24.705053    22.675284     13846.28    7160.8954     7943.909    7968.2884   -537.59232   -30.116213    406.60204   -8127.1499 
40343000    65.635224   -9928.8297   -9678.5983   -9928.8297            0    7668.4088    24.647854    24.697812    22.722688    13832.392    7637.2466    7796.3868    7571.5929   -351.88778   -245.98486     99.90261   -8131.6407 
40344000    62.663026   -9923.4624   -9684.5624   -9923.4624            0    7359.3218    24.640705    24.683438    22.786511     13859.15    8018.9798     7500.347    6558.6384   -238.70926   -394.26044    230.26876   -8197.0853 
40345000    61.132624   -9928.4875    -9695.422   -9928.4875            0    7762.8636    24.650178    24.724205     22.67874    13821.696    7881.0837    8019.8226    7387.6847   -219.50144    -131.2882    86.120017   -8130.6208 
40346000    63.321794   -9918.2383   -9676.8268   -9918.2383            0    8566.8165    24.590001    24.661961    22.776493    13812.523    8736.3353    8577.3745    8386.7397   -399.59152   -512.53507   -72.285832   -7951.1146 
40347000     63.98294   -9917.7677   -9673.8356   -9917.7677            0    8204.5919    24.642709    24.676843    22.731464      13823.1    8383.3055      7975.12    8255.3502    -408.4152   -334.09565   -173.48588   -8019.8248 
40348000    62.508453   -9931.9853   -9693.6746   -9931.9853            0    7893.3997     24.69697    24.645799    22.698158    13815.837    7548.3516    8385.8791    7745.9683    461.54294    20.211785    74.019559    -8103.235 
40349000    64.658785   -9922.8445   -9676.3357   -9922.8445            0    7681.3533    24.670357    24.714075    22.696903    13838.416     7657.288    7026.6667    8360.1051    217.55339    255.79361   -19.433075   -8126.0918 
40350000    61.740067   -9925.6078   -9690.2266   -9925.6078            0    7697.9556    24.582339    24.740731    22.741197    13830.856    7999.9233    7361.3706    7732.5728   -393.58522    -389.9812    236.15282   -8137.4808 
40351000    61.745041   -9917.3927   -9681.9925   -9917.3927            0    8264.1989    24.624308    24.685263     22.72117    13811.234     8683.404     8452.431    7656.7618    227.04981   -109.75247   -484.33355   -8017.3954 
40352000    62.533765   -9911.2066   -9672.7994   -9911.2066            0    8242.0557    24.645183    24.699349    22.707452     13822.48    7825.2272    8681.4845    8219.4553    55.371415   -487.22155    348.08139   -8011.3107 
40353000    64.973257   -9922.6749   -9674.9672   -9922.6749            0    8843.4187    24.623296    24.634894    22.738963    13793.279    8549.7469    9238.7886    8741.7207   -49.243689   -327.82725    338.44437   -7896.0177 
40354000    64.927811   -9928.4604    -9680.926   -9928.4604            0    8304.0391    24.660114    24.673983    22.701598    13813.088    8204.2004    8455.8564    8252.0606    100.05205   -138.00339   -47.513906   -8008.0796 
40355000    64.372747   -9916.8496   -9671.4314   -9916.8496            0     8803.004    24.606256    24.686411    22.697964    13787.654    8969.1471    8840.9458    8598.9192    504.14649    -336.8087   -26.592713   -7901.3339 
40356000    64.322678     -9933.02   -9687.7926     -9933.02            0    7718.5589    24.723703     24.60915    22.735425    13832.899    6626.3487    9054.0155    7475.3127   -435.93943   -740.37218   -176.32226    -8130.661 
40357000    63.341164      -9922.3   -9680.8146      -9922.3            0    7761.6728    24.675216     24.64502     22.75556    13838.139    7629.8612    8130.5693    7524.5879   -27.716954    -543.2172   -44.952787   -8114.3921 
40358000    64.228577   -9929.3881   -9684.5195   -9929.3881            0    7183.1555    24.704964     24.71813    22.703612    13864.199    7664.8644    6878.1481    7006.4541   -161.04017    -646.0379    617.29185   -8232.1204 
40359000     61.33389   -9917.7224   -9683.8897   -9917.7224            0     8299.358    24.630914    24.671339    22.744885    13821.558    8255.0385    8423.9335     8219.102     102.9832    438.76253    501.88267   -8010.9612 
40360000    63.573893   -9931.7408   -9689.3682   -9931.7408            0    7808.8775    24.633643    24.755892    22.685549    13834.278      8077.63    7305.8738    8043.1286   -558.92526   -426.16188    355.89134   -8113.8588 
40361000    64.199687   -9923.3879   -9678.6294   -9923.3879            0    8248.5392    24.630963    24.698336    22.712069    13816.746     7901.454    8437.0153    8407.1484   -355.28459   -471.69769   -172.08107   -8016.5234 
40362000     62.71275   -9912.4189   -9673.3293   -9912.4189            0    8442.5971    24.659792     24.69198    22.672179    13805.069    8039.4695      8632.67    8655.6519     137.8896   -407.16072   -550.38508   -7973.5578 
40363000    62.690961   -9919.7078   -9680.7013   -9919.7078            0    7501.1735     24.66179    24.669139    22.755682    13844.218    7435.4624    7787.0014    7281.0568   -66.884749   -19.694911    359.07374   -8166.1864 
40364000    65.562447   -9915.4923   -9665.5384   -9915.4923            0    7869.4976    24.642067    24.726347    22.719389    13843.113    8181.6144    7145.0167    8281.8618   -601.22451   -4.6429189   -275.08227   -8076.7844 
40365000    65.451601   -9919.2115   -9669.6802   -9919.2115            0    7906.8625    24.637392    24.702663    22.729642    13833.468    7955.7863    8081.6483    7683.1529    -707.0919   -689.86456   -155.98499   -8074.4948 
40366000    62.909348   -9929.6827   -9689.8436   -9929.6827            0    7699.8154    24.625421     24.69748    22.754227    13838.799       7834.5    7460.7397    7804.2065   -507.91841   -655.25177    91.711318   -8135.8308 
40367000    60.220655   -9918.8503   -9689.2617   -9918.8503            0    8783.5695    24.621341    24.627389    22.729798    13782.425    8650.2105    9746.3935    7954.1046    113.84667   -463.58466    170.79042   -7923.7419 
40368000     59.91053   -9914.5966   -9686.1903   -9914.5966            0     9073.138    24.617165    24.667716    22.680636    13772.799    9064.6062    9033.8602    9120.9477    166.57955   -511.69547     159.2495   -7863.7404 
40369000    62.659684   -9920.2892   -9681.4019   -9920.2892            0    7772.3976    24.663601    24.673187    22.743531    13840.113    7767.7408    7648.6811    7900.7708    249.73914   -534.77724     371.4444   -8112.5913 
40370000    61.547568    -9921.212   -9686.5646    -9921.212            0    7726.4093    24.609786     24.70767    22.751802    13834.245    7694.8774    7972.7374     7511.613     192.0307   -431.84875    73.887505   -8127.6976 
40371000    62.525793   -9924.5256   -9686.1488   -9924.5256            0    7830.8469    24.638858    24.702196    22.730748    13834.704     8401.662    7456.5025    7634.3761    129.69043   -395.28965   -1.8234484   -8106.1582 
40372000    62.732902   -9913.1803   -9674.0138   -9913.1803            0    8327.1869    24.746112    24.646382    22.669222    13826.006     7043.291    9108.0053    8830.2644     -486.965   -168.87736    616.21764   -7994.9355 
40373000    63.481302   -9926.7707   -9684.7511   -9926.7707            0    8545.5083       24.628    24.656649      22.7271    13800.894    8758.3811    8345.5438       8532.6   -520.08412   -108.67545    -525.7116   -7964.7805 
40374000    65.462076    -9917.446   -9667.8747    -9917.446            0    8791.7767    24.640034    24.674533    22.700172     13801.28    9208.7865    8327.7726     8838.771   -153.48498   -463.38134    300.45602   -7898.2878 
40375000    65.206429   -9913.6393   -9665.0427   -9913.6393            0    8852.9616    24.589094    24.683554    22.732899    13797.647      9232.23    8427.1705    8899.4843   -687.27165   -220.41511    573.54725   -7883.6097 
40376000    63.465576   -9923.7008   -9681.7411   -9923.7008            0    7785.4177    24.690128    24.702813    22.678679     13832.08    7580.9504    7775.4907    7999.8119   -287.42455    51.151724    88.452098   -8111.2145 
40377000    65.143461    -9924.597   -9676.2404    -9924.597            0     8050.196    24.638474    24.660918    22.751524    13823.994    8308.0348    7763.5043    8079.0488     125.6084   -302.04736    424.23936   -8053.2503 
40378000    63.538502   -9922.9527    -9680.715   -9922.9527            0    8523.6494    24.697455    24.718725    22.596504    13794.931    8356.2921    8037.7539    9176.9021    128.32693    10.201689    257.42146   -7965.8853 
40379000    63.000201    -9916.769   -9676.5835    -9916.769            0    8091.9222    24.644329    24.639704    22.773187    13828.539    8237.6423    8393.9034    7644.2211    -55.80425    -162.4235    98.935124   -8044.6446 
40380000    59.256507   -9913.7963   -9687.8835   -9913.7963            0    8422.6791    24.634701    24.720731    22.675786    13809.278    8922.6067    7476.3472    8869.0834   -442.92401   -454.66179   -124.95846   -7991.6051 
40381000    61.180283   -9920.9807   -9687.7336   -9920.9807            0    8349.6297    24.610885     24.64517    22.748818    13798.056     8750.014    8510.8086    7788.0664     134.1684    460.09023    161.41663   -8007.5335 
40382000    63.192422   -9921.9967   -9681.0783   -9921.9967            0    8261.0627    24.643458      24.6403    22.750572    13814.653       7840.4    8695.4759    8247.3122    290.70773      313.397   -141.75749    -8016.701 
40383000    64.028187   -9920.5269   -9676.4222   -9920.5269            0    9060.3545    24.651632     24.69141    22.638751    13779.835    8875.4987     8676.723    9628.8417   -123.04872   -92.129405    823.22847   -7855.6102 
40384000    61.855391    -9923.501     -9687.68    -9923.501            0    8450.3152    24.660803    24.661274    22.704689    13808.238    8398.9347     8728.884    8223.1269   -13.603334    80.138264    79.978418   -7985.9641 
40385000    61.059711   -9921.4278   -9688.6403   -9921.4278            0    8634.0496    24.592382    24.676011      22.7497    13805.471    8732.5138    8422.7954    8746.8395     1.340234    101.93544    339.45818   -7950.2726 
40386000    63.050132   -9915.8958   -9675.5199   -9915.8958            0    8217.8889     24.67824    24.690688    22.667235    13811.661    7784.2131    8594.6436    8274.8099      17.0922   -564.63774   -303.92068   -8020.1995 
40387000    62.527108   -9923.0198    -9684.638   -9923.0198            0    8094.8468    24.628424    24.598762    22.830311    13831.259    8122.1214    8801.4629    7360.9561   -144.94683    9.7973132    625.22065   -8051.7881 
40388000    64.075665   -9919.3861   -9675.1005   -9919.3861            0    8297.2609    24.654283    24.673009    22.688764    13801.469    8690.4627    8054.8371    8146.4829   -192.91271    308.00859    512.44388   -8005.0255 
40389000    61.827719   -9924.5482   -9688.8328   -9924.5482            0    7914.3878    24.641176    24.630916    22.786783     13830.09    7857.7142    8403.4572    7481.9921    69.347083   -695.21549    107.35903   -8092.5191 
40390000    66.204353   -9930.0384   -9677.6373   -9930.0384            0    8359.3163    24.646227    24.704128    22.676245    13806.739     8295.677    8107.3955    8674.8763    157.07355   -167.57331   -15.277832   -7994.4294 
40391000    61.392289   -9922.6294    -9688.574   -9922.6294            0    7982.0593    24.600541    24.663652     22.78186    13822.647    8378.2688    8298.8304    7269.0786   -374.97192   -564.19619   -25.693537   -8079.4776 
40392000    62.576701   -9924.3347   -9685.7637   -9924.3347            0    8857.3677    24.611094    24.715815     22.67207     13791.04    9115.7443    8513.5267    8942.8321   -303.54535    116.56653   -842.63078   -7904.2975 
40393000    62.178086   -9916.2368   -9679.1856   -9916.2368            0    8358.8197    24.637368    24.661042    22.732951    13812.159    8307.1818     8660.415    8108.8625   -96.638781    -85.42335   -149.53937    -7995.417 
40394000    62.928381   -9921.0342   -9681.1225   -9921.0342            0    8104.0245    24.721003        24.67    22.662371    13821.036    7469.1725    8721.2176    8121.6834    83.911901    620.53302    634.60153   -8047.6297 
40395000    66.332009   -9919.3341   -9666.4462   -9919.3341            0    8206.2567    24.619343    24.712194    22.718213    13821.715    8180.0521    7785.5828    8653.1354   -87.037006    66.848277   -375.01427   -8012.2656 
40396000    60.836785   -9915.5978   -9683.6602   -9915.5978            0    8021.8741    24.612751    24.698506     22.74907    13829.118    8247.6972    7814.0829    8003.8422    -317.4988   -520.63834    78.113387   -8065.7806 
40397000    60.601648   -9916.2472    -9685.206   -9916.2472            0    8006.0997    24.624674    24.726857    22.706197    13825.594    8580.6563      7211.27    8226.3727   -451.61038    31.369768    24.327232   -8070.9193 
40398000     60.43896   -9924.1352   -9693.7143   -9924.1352            0    7878.4682    24.650197    24.665713    22.746686    13830.319    7603.4266    8429.8545    7602.1234    250.46776   -227.70595   -782.45045   -8104.6192 
40399000    64.044903   -9924.3885   -9680.2201   -9924.3885            0    8141.9056    24.713485    24.678949    22.655196    13817.468    7176.6264    7903.8126    9345.2779   -125.34678   -889.57412    440.84719   -8039.5154 
40400000    62.653089   -9925.3269   -9686.4647   -9925.3269            0    8231.1375    24.674758    24.711164    22.657024    13814.939    8140.5483    8217.1689    8335.6954   -231.47705    456.96096    382.03676   -8028.0822 
40401000    63.767617   -9917.8839   -9674.7727   -9917.8839            0    8520.2436    24.604261    24.685554    22.731929    13806.687    9386.9964    7720.5929    8453.1416    -313.7694   -451.93307    670.10964   -7959.1673 
40402000    60.417073   -9916.2533   -9685.9158   -9916.2533            0    8527.0654    24.656016    24.672714    22.702264    13810.488    8481.7953    8911.6102    8187.7907   -779.71369    115.72764   -600.60568   -7968.4643 
40403000    62.727506   -9910.0229    -9670.877   -9910.0229            0    8701.1835    24.569489    24.680238      22.7552    13798.317    9631.3316    8077.4365    8394.7824   -217.83672   -109.42986   -35.562068   -7919.9004 
40404000    61.472399   -9923.6183   -9689.2575   -9923.6183            0    7849.1394    24.712333    24.690062    22.665808    13829.521    6852.8661    8309.5965    8384.9555    59.938012    291.55643    383.67706   -8106.1695 
40405000    63.548672   -9926.0902   -9683.8137   -9926.0902            0     7566.629    24.650169    24.670233    22.762954    13842.731    7163.6634    7864.1396    7672.0839   -413.05584   -371.33039   -53.449375   -8156.2473 
40406000    60.345179   -9933.8639   -9703.8005   -9933.8639            0    8055.2934    24.637645    24.694198    22.710065     13816.96    8575.7488    7392.3814    8197.7499   -131.92086   -698.87882    317.13626   -8080.6091 
40407000    61.674085   -9919.3994   -9684.2696   -9919.3994            0    7860.8316    24.667068    24.649212    22.746487    13830.405    8017.4586    7860.3134    7704.7229   -254.17162   -720.19921    286.03522    -8098.722 
40408000    64.230859     -9922.12   -9677.2426     -9922.12            0    8278.4774    24.658781    24.648296    22.728442    13814.277    8397.3155    8285.4497    8152.6669    193.82288   -947.22467   -399.46204   -8009.4021 
40409000    65.495101   -9923.7883   -9674.0911   -9923.7883            0    7811.9288    24.647142    24.629109    22.785373    13831.568    7920.2975    8136.4674    7379.0213    449.16518   -200.43833     250.6645   -8098.2749 
40410000    62.606591   -9920.1562   -9681.4714   -9920.1562            0    7910.2335    24.667533    24.722938    22.662984    13821.109    7763.3213     7886.682    8080.6973   -119.52168   -269.86348    -274.8879   -8087.0317 
40411000    62.754146   -9933.2748   -9694.0274   -9933.2748            0    8188.7283    24.607131    24.644964     22.78554    13818.106    8635.9427    8102.0654    7828.1769     136.9103    350.06937   -284.44356   -8043.8111 
40412000    64.277728   -9927.1714   -9682.1154   -9927.1714            0    8162.5682    24.725404    24.638272    22.675394    13813.651    7416.7172    8766.9162    8304.0711    -151.1011   -82.911347    669.31071   -8037.7013 
40413000    62.952302   -9913.7597   -9673.7568   -9913.7597            0      8824.13    24.598401     24.69276    22.704727    13790.906    9361.2599    8154.4576    8956.6726   -449.91358   -729.45333    214.91546   -7898.9929 
40414000     63.03938   -9927.2435   -9686.9086   -9927.2435            0      8415.66    24.578902    24.723019    22.716333    13803.913    8997.9114    8211.0766     8037.992   -460.60846    121.05877     84.19422   -7992.7024 
40415000    63.206069   -9926.0967   -9685.1264   -9926.0967            0    7205.0112    24.683185    24.643631    22.776151    13854.352    7792.8874    7668.6452    6153.5009    36.067232    58.690839   -371.94785   -8229.3429 
40416000    62.717246    -9909.461   -9670.3542    -9909.461            0     8663.212    24.634579    24.671877    22.714203    13805.268    8294.8445    9186.0887    8508.7027   -9.7901522   -221.36141   -171.26646   -7926.1406 
40417000    60.668949   -9921.2384   -9689.9407   -9921.2384            0    8575.7768      24.5945    24.690405     22.72819    13801.652    8669.9219    8315.6137    8741.7949   -531.94966   -273.20984    339.19443   -7963.7832 
40418000    64.420517   -9914.1737   -9668.5733   -9914.1737            0    7808.4025    24.656137    24.684553    22.738411    13839.182    7590.9102    7920.5799    7913.7175   -17.617544     430.7466    437.79578   -8092.6012 
40419000    62.866848   -9919.7494   -9680.0723   -9919.7494            0     8096.996    24.675729    24.674504    22.709124    13826.708     7621.866    8585.9528     8083.169   -6.2985007   -325.24409    175.68179   -8047.3264 
40420000    60.752525   -9914.9251   -9683.3088   -9914.9251            0    8223.3849      24.7232    24.674247    22.649424    13816.745    7577.9269    8298.4602    8793.7677   -143.02618   -459.91626    386.38145   -8026.2716 
40421000    63.673013   -9922.1844   -9679.4339   -9922.1844            0    8707.6138    24.588201    24.678224    22.738014    13797.271    8850.7331     8956.785    8315.3233   -325.84083    163.29463    228.04632   -7927.2961 
40422000    64.357451   -9924.9779   -9679.6179   -9924.9779            0    8658.3862    24.590071    24.747539    22.664951    13792.614    8864.3997     8232.148    8878.6108   -530.77598    236.18115    257.51215   -7937.9737 
40423000    63.458923   -9920.5069   -9678.5726   -9920.5069            0    8303.9739     24.65245    24.652411    22.724692    13810.757    8039.1032    8898.4933    7974.3251   -112.20873   -452.97243    386.90326   -8006.0216 
40424000    63.735085   -9928.3293   -9685.3421   -9928.3293            0    8007.0448    24.653271    24.697158    22.691165    13815.873     8133.272    7915.4073     7972.455   -548.90326   -625.72862    390.95781        -8072 
40425000    63.043386   -9921.7569   -9681.4068   -9921.7569            0    7865.4846    24.611836    24.694863    22.751758    13828.198    7485.8534    8370.9052    7739.6952   -240.36041   -567.74917   -451.80778   -8095.1739 
40426000    62.816454   -9927.5557   -9688.0707   -9927.5557            0    7535.1138     24.63979    24.757344    22.690396    13841.499    7939.7208    6819.4051    7846.2155   -33.917275    -335.6025   -325.27526    -8167.002 
40427000    62.101719   -9916.1222   -9679.3621   -9916.1222            0    8092.5297    24.568905    24.734819    22.770195    13837.617      9077.72    6824.0871    8375.7821   -363.94244   -590.21374    -975.5396   -8046.2293 
40428000    61.919905   -9922.3195   -9686.2526   -9922.3195            0    7664.5344    24.672949    24.694749    22.720327     13843.32    8254.1694    7330.3676    7409.0663   -203.40131   -177.81473   -102.01377    -8138.855 
40429000    63.194721    -9928.261   -9687.3339    -9928.261            0    7796.6756    24.718086    24.676679    22.671929    13828.976    7040.4372    8246.8745     8102.715   -342.05554    314.53584    -222.0495   -8114.8893 
40430000    60.925642   -9915.6202   -9683.3438   -9915.6202            0    9233.9357    24.663299    24.568266    22.745289    13782.155    9066.3537    9565.6585    9069.7949    -171.6027   -93.400193   -67.042592   -7827.3358 
40431000    64.567773    -9927.334   -9681.1722    -9927.334            0     8241.256     24.70093    24.641855    22.688244    13809.806    7865.0648    8265.4708    8593.2325    206.50902    362.97675   -297.32702   -8021.3679 
40432000    64.119829   -9919.0801    -9674.626   -9919.0801            0    8260.1705    24.707995    24.624494    22.715333    13820.505    7340.6726    9541.5439    7898.2949    63.744421   -407.86241   -248.08174   -8009.7235 
40433000    61.986494   -9917.1824   -9680.8616   -9917.1824            0    8374.9021    24.647638    24.651937    22.730182    13811.132    8366.1626    8801.7748     7956.769    386.38243   -899.15707   -243.77785   -7993.9789 
40434000    63.185665   -9917.1759   -9676.2833   -9917.1759            0    8390.6618    24.678625    24.693668    22.663195    13811.082    8340.1236    7962.3762    8869.4856    308.98254   -132.23309    32.682544   -7986.2323 
40435000    65.270457   -9916.3648   -9667.5241   -9916.3648            0    7665.1355    24.647809    24.697568    22.738661    13841.954    8001.7513    7186.2413    7807.4139   -44.955628   -32.611772    700.14237   -8120.1578 
40436000    64.509192   -9917.4259   -9671.4874   -9917.4259            0    8205.1399    24.624717    24.679391    22.739877    13819.547    8466.8652    8264.0048    7884.5497   -125.12699   -791.28905   -247.02533   -8017.7915 
40437000     62.30619   -9932.4317   -9694.8921   -9932.4317            0    8263.2129    24.666229    24.703012     22.65803    13806.221    7792.7858    8369.6598     8627.193   -108.86653    120.20898     160.5229   -8031.0977 
40438000    64.036725   -9915.5304   -9671.3932   -9915.5304            0    8133.3092    24.592287     24.67249    22.780789    13822.311    8909.3181    7946.9706    7543.6388   -598.81742    174.01906   -213.16337   -8031.8464 
40439000    62.067887   -9929.9925   -9693.3615   -9929.9925            0    8122.0894    24.648002    24.661846    22.731654    13817.782    8368.4564     8384.123    7613.6889   -664.31654   -176.29635   -294.76373   -8056.6128 
40440000    66.080144   -9920.4551   -9668.5274   -9920.4551            0     8142.964    24.674423    24.678909     22.69653    13820.777    8343.7487    8228.2832      7856.86   -426.30785   -488.44845    587.60274   -8027.2165 
40441000    63.172151   -9919.5274   -9678.6864   -9919.5274            0    7976.6409    24.576902    24.725295    22.763043    13832.445    8675.6495     7373.738    7880.5352   -11.124137    28.373123    621.07449   -8069.5425 
40442000    65.439819   -9919.8609   -9670.3744   -9919.8609            0     8762.066    24.637575    24.669442    22.693508    13793.006    8268.1585    9314.0339    8704.0054   -297.04719   -550.75785   -204.81296   -7907.8249 
40443000    64.636516   -9925.0629    -9678.639   -9925.0629            0    8671.6693    24.698028    24.626151    22.682279    13795.756     8374.899    8744.6413    8895.4676    432.30028    -782.8223    484.87342   -7933.9256 
40444000    61.976449   -9917.6981   -9681.4156   -9917.6981            0    8606.1034    24.643169    24.683414    22.686065    13799.424    8633.8769    8467.2616    8717.1717   -52.097608   -54.808878    385.90571   -7949.4335 
40445000    61.937566   -9911.5742   -9675.4399   -9911.5742            0    9270.9744    24.623582    24.679302    22.670597    13776.759    9205.9883    8843.8782    9763.0567    109.48267    282.20108    257.05146   -7812.7167 
40446000    63.947438   -9919.9817   -9676.1849   -9919.9817            0    8308.8382    24.643902    24.681884    22.704323    13810.085    7840.9341    8160.1689    8925.4115   -161.87506   -189.72551   -77.928987   -8002.7357 
40447000    63.989844   -9921.4969   -9677.5384   -9921.4969            0    8587.1663    24.631874    24.617518    22.768296    13806.139    8485.6027    9376.7422     7899.154   -441.87038   -549.21074    210.68658   -7948.5263 
40448000    64.423148   -9919.5521   -9673.9417   -9919.5521            0    8286.9026    24.713053    24.629493    22.690093    13810.778    7751.7473    8720.0796    8388.8809   -16.050147   -665.57974   -544.70084   -8004.8266 
40449000    63.093334   -9914.1895    -9673.649   -9914.1895            0    8028.6409    24.653947     24.67837    22.724494    13826.019    7860.2782    8276.8417    7948.8027   -236.73608   -133.32698   -369.60389   -8054.7675 
40450000    63.333365   -9922.1078   -9680.6521   -9922.1078            0    8342.7391    24.628924     24.58561     22.80309    13807.661    8591.0477     8941.816    7495.3536   -289.84232   -377.37144   -15.696149     -8000.67 
40451000    64.826127   -9914.7865   -9667.6397   -9914.7865            0    8804.5436    24.631555    24.704389    22.670478    13795.156    8951.0866    8173.7195    9288.8246    28.472434   -100.27153   -8.6631868   -7896.2694 
40452000    64.029624   -9925.7391    -9681.629   -9925.7391            0    8632.0604    24.591019    24.684441    22.729498    13797.159    8362.0856    9046.5015    8487.5941   -372.45567    118.80002    487.09285   -7944.7082 
40453000    63.771261   -9931.2039   -9688.0788   -9931.2039            0    9012.6069    24.634322    24.694944    22.650225     13779.11    8709.1892    8960.9729    9367.6587    272.69894    128.51347   -336.41002   -7876.9576 
40454000    63.301585   -9912.1346   -9670.8001   -9912.1346            0    8818.7528    24.656147    24.662191    22.689499    13796.908    8331.5495    9340.9963    8783.7127    -223.8749   -45.515423    731.26732   -7896.3458 
40455000    63.873982   -9922.9942   -9679.4774   -9922.9942            0    9315.1089    24.667112    24.576975    22.705948    13765.322    8467.0228    10074.743     9403.561    54.205059   -402.03016    291.00119   -7809.4404 
40456000    62.296572   -9937.2977   -9699.7948   -9937.2977            0    8233.2264    24.621103    24.718978    22.690336    13809.531      8478.71    7794.5011    8426.4679   -417.38431    -369.4979    354.21728   -8041.6407 
40457000    61.778249   -9914.7012   -9679.1744   -9914.7012            0    8532.0791    24.554743    24.722047    22.750779    13810.712    8945.6477     8748.124    7902.4655   -35.017918    326.72166    27.942082    -7960.685 
40458000    63.011624   -9921.1437   -9680.9147   -9921.1437            0    8481.0431    24.655153    24.721301    22.660963    13812.026    8569.3517    7855.7728    9018.0048   -600.43146   -579.61599    226.77659   -7972.5422 
40459000    64.018192   -9913.7872   -9669.7207   -9913.7872            0    8601.5706    24.637175    24.625556    22.769698    13814.469    8251.0158    9440.2911     8113.405   -145.74912   -538.31119    645.95981   -7936.7634 
40460000    62.584329   -9913.9559   -9675.3559   -9913.9559            0    8712.4177    24.627782    24.732149    22.668102    13807.095    9014.2465    8103.8375    9019.1689    298.52573    50.300623   -220.34495   -7921.0033 
40461000    63.994167   -9913.5007   -9669.5257   -9913.5007            0    8679.1333     24.58001     24.65338    22.778992    13803.621    9030.8595      8887.16    8119.3805   -25.435396   -110.09558   -164.57394    -7922.315 
40462000     64.53551   -9927.3881   -9681.3493   -9927.3881            0    8414.1722    24.658901     24.68112    22.688041    13808.153    8388.1586      8464.76    8389.5981    109.59123   -472.12624   -248.09063   -7986.9223 
40463000     62.12845   -9922.9722   -9686.1102   -9922.9722            0    7988.3636    24.663927    24.641121    22.757632    13830.878    7718.6203    8165.7879    8080.6826    62.180219    28.103421   -256.05928    -8074.784 
40464000    65.305594   -9921.9936   -9673.0189   -9921.9936            0    8444.5937    24.646201    24.673119    22.712104      13811.2    8207.6149    8297.9528    8828.2135    -246.1794   -478.40619    111.39235   -7972.0904 
40465000    62.769434   -9923.5898   -9684.2841   -9923.5898            0    8252.3114    24.659247    24.688191    22.693485    13815.617    8192.5004    8055.7553    8508.6784   -333.83904   -91.907254   -576.34285   -8021.5539 
40466000    61.121632   -9919.8158   -9686.7923   -9919.8158            0    7992.7191      24.5976    24.664761    22.790824    13827.055    8170.8968    8328.1388    7479.1218   -483.15696    240.75611   -568.24973   -8075.0332 
40467000    63.417692   -9916.8515   -9675.0744   -9916.8515            0    8118.7319    24.671875    24.703322    22.694151    13831.569    7696.5734    7737.2064    8922.4159    -397.4688   -120.06769   -201.15432   -8037.3699 
40468000    63.286026   -9916.4408   -9675.1656   -9916.4408            0    8699.2573    24.634579    24.655179    22.717126    13797.699    8317.0065    9135.6948    8645.0707   -462.87138    79.641976   -16.433289   -7924.6551 
40469000    63.045943   -9930.9729    -9690.613   -9930.9729            0    7849.5257    24.595437     24.71733    22.749774     13830.35    8320.4331    7414.1066    7814.0373   -80.919344   -480.80348   -359.55407   -8107.3521 
40470000    62.047633   -9916.3961   -9679.8422   -9916.3961            0    8733.0432    24.592473    24.717722    22.709435    13804.383    9039.0303    8230.8547    8929.2445    194.48272    16.378114    947.42651   -7921.6819 
40471000    63.880596   -9925.3891   -9681.8472   -9925.3891            0    8201.7602    24.630647    24.758334    22.667271    13822.814    8104.2637    8058.4342    8442.5828    132.26195    84.302992   -448.52759   -8028.4415 
40472000    63.453016   -9930.4065   -9688.4947   -9930.4065            0    7709.9725    24.680469    24.672829    22.722933    13836.834     7666.364    7870.1634    7593.3901   -3.2931264   -224.79088    663.16311   -8132.6528 
40473000    63.782955   -9928.7398   -9685.5701   -9928.7398            0    6983.2089    24.633738    24.675555    22.808905    13864.419    7812.8516    6939.6109    6197.1642    250.48252   -371.04462    645.45017   -8273.5769 
40474000    64.650528   -9911.6375   -9665.1602   -9911.6375            0    8074.8297    24.717943    24.660188    22.667001    13816.651    7209.4585    8528.9255    8486.1051   -209.23987   -332.79129    10.682576   -8038.0685 
40475000    61.994241    -9921.951   -9685.6006    -9921.951            0     7887.422    24.627305    24.636648    22.797498    13832.023    8355.1295    8077.5086    7229.6278   -92.328746    -666.0114     289.2308   -8094.5036 
40476000     63.14609   -9923.4412   -9682.6996   -9923.4412            0    7896.1428    24.670753     24.72538      22.6658    13825.996    7772.3397    7810.4874    8105.6014   -168.57449   -704.81658   -463.78933   -8090.5374 
40477000    64.413716   -9919.2515    -9673.677   -9919.2515            0    8407.4752    24.630291    24.676835    22.721642     13810.16    8512.1162    8077.9584    8632.3512    151.03083    517.60603   -208.96334   -7980.3525 
40478000    63.780192   -9913.3238   -9670.1646   -9913.3238            0    8597.9014     24.63158     24.71876    22.665195    13799.979    8517.3696     8219.015    9057.3194    64.345041   -257.17398   -38.310943   -7939.7636 
40479000    62.738156   -9923.4724   -9684.2859   -9923.4724            0    8224.3439    24.599924    24.699694    22.745757    13820.564    8750.7546    7630.6035    8291.6736    290.51699   -291.00808   -275.73382   -8026.5975 
40480000    63.924578   -9921.2487    -9677.539   -9921.2487            0    7878.6925    24.579836    24.742113    22.740959    13830.076    8666.7148    7387.1396    7582.2233   -159.08055     175.5928   -284.39201   -8088.4267 
40481000    65.671081   -9922.5046   -9672.1365   -9922.5046            0    7659.6679    24.649334    24.718953    22.716702    13841.417    7965.8284    7437.7873    7575.3879    -44.98104   -164.57898    535.58165    -8125.934 
40482000    63.000094    -9919.971   -9679.7859    -9919.971            0    7274.6581    24.672789    24.664408    22.772231    13857.808    6875.4729    7727.3539    7221.1475   -210.50021   0.62867885   -612.22208   -8209.5637 
40483000    65.747676   -9924.0768   -9673.4167   -9924.0768            0    7993.4329    24.685287    24.689102    22.687086    13826.816    7663.2264    7700.2164     8616.856    212.31284   -652.86919    127.34404   -8061.5415 
40484000    64.636155   -9924.6585    -9678.236   -9924.6585            0     8053.028    24.658718    24.651331    22.743974    13825.384     8089.082    8659.9581    7410.0439    346.71083    -351.9412   -619.54416   -8054.5117 
40485000    59.577273   -9912.7587    -9685.623   -9912.7587            0    8898.9946    24.623802     24.63843      22.7363    13793.927     8983.426    9210.0104    8503.5475    195.08415   -263.89395   -264.88239   -7895.4098 
40486000    63.459847   -9917.5302   -9675.5924   -9917.5302            0    7916.9274    24.622009    24.682241    22.752579    13827.342    8083.7109    7819.6328    7847.4385    153.51886    272.25395     466.3274   -8079.0838 
40487000    63.538232   -9926.8634   -9684.6267   -9926.8634            0    8110.1872    24.685523    24.658377    22.717021    13827.963    7679.4463    8419.0979    8232.0173   -4.3018265   -310.43941    616.39193   -8049.0724 
40488000    64.685566   -9911.2966   -9664.6858   -9911.2966            0    8194.9895    24.693659    24.606622    22.751754    13824.592    7825.8304     8776.746     7982.392   -36.300403   -354.92017    318.96654   -8012.4325 
40489000    63.609502   -9917.0544    -9674.546   -9917.0544            0    8738.4644    24.697215    24.697015    22.628615    13802.267    8369.9053    8516.8608    9328.6271   -64.117734   -130.74617    272.90276   -7915.5638 
40490000    65.827662   -9922.0174   -9671.0523   -9922.0174            0     7957.199     24.67796     24.69153    22.691356    13826.673    7881.3517    7993.1469    7997.0983   -469.79902   -101.74941      443.285   -8066.5003 
40491000    63.992064   -9917.1629    -9673.196   -9917.1629            0    8535.3124    24.635388    24.625709    22.760003    13807.673    8575.1499    8805.3762    8225.4111   -99.989805   -232.57125    332.02699   -7954.4338 
40492000    63.780411   -9914.6588   -9671.4988   -9914.6588            0    8461.0406    24.655385    24.692371    22.691708     13814.71    8275.6464     8226.859    8880.6163   -66.968311    -683.0343   -576.80839   -7966.8244 
40493000     62.20718   -9915.8667   -9678.7046   -9915.8667            0    8632.8511    24.642315    24.624037     22.74127    13799.249     8362.445    8851.7382    8684.3702   -138.69389   -520.27273   -50.279571   -7941.3614 
40494000    62.454856    -9920.864   -9682.7576    -9920.864            0     8622.733    24.613955    24.703207    22.693251    13798.486    8771.7019    8260.5542    8835.9429   -372.32524   -229.85678      82.6752   -7947.5466 
40495000    65.091735   -9923.0712   -9674.9118   -9923.0712            0    8611.7837    24.633828    24.649491     22.72419    13798.385    8299.9446    8831.9426    8703.4639    149.33963   -377.09315    242.26489   -7941.9169 
40496000    60.424328   -9914.5474   -9684.1823   -9914.5474            0    8480.7092    24.666542    24.657645    22.702338    13807.989    8167.0557    8799.7145    8475.3575   -43.834817   -226.49897    344.25141   -7976.3764 
40497000    64.979616    -9917.389   -9669.6571    -9917.389            0    7742.0637    24.710092    24.659335     22.70765    13836.553    7181.1882    8134.3536    7910.6494    388.52583   -560.83234    568.58036   -8107.3711 
40498000    59.904413   -9919.2063   -9690.8234   -9919.2063            0    8016.4116    24.667007    24.617535    22.771306    13827.668    7790.3959    8108.6619    8150.1769    -457.5726   -447.66686  -0.65024268    -8074.215 
40499000    61.074965   -9926.9351   -9694.0895   -9926.9351            0     8198.069    24.744904    24.616959    22.682225    13816.748    7234.6021    8957.0456    8402.5592   -306.17924   -225.25016   -39.222098   -8042.1532 
40500000    64.791411   -9924.0482   -9677.0338   -9924.0482            0    7895.5274    24.642792    24.670764    22.752042    13832.252    8296.3635    7864.6983    7525.5205   -127.03176   -594.01575    285.99712   -8084.2754 
Loop time of 502.734 on 64 procs for 250000 steps with 1920 atoms

Performance: 85.930 ns/day, 0.279 hours/ns, 497.281 timesteps/s
387.4% CPU use with 16 MPI tasks x 4 OpenMP threads

MPI task timing breakdown:
Section |  min time  |  avg time  |  max time  |%varavg| %total
---------------------------------------------------------------
Pair    | 72.709     | 75.07      | 82.088     |  26.0 | 14.93
Bond    | 1.574      | 1.8577     | 2.7495     |  19.9 |  0.37
Kspace  | 240.76     | 249.59     | 257.39     |  24.8 | 49.65
Neigh   | 0.12113    | 0.12812    | 0.13687    |   1.6 |  0.03
Comm    | 60.518     | 68.405     | 73.63      |  36.3 | 13.61
Output  | 0.47363    | 0.4739     | 0.47528    |   0.1 |  0.09
Modify  | 77.502     | 87.53      | 93.718     |  41.9 | 17.41
Other   |            | 19.68      |            |       |  3.91

Nlocal:        120.000 ave         124 max         116 min
Histogram: 1 1 0 3 0 5 4 1 0 1
Nghost:        4349.94 ave        4396 max        4304 min
Histogram: 1 3 0 3 3 0 1 1 1 3
Neighs:        43973.9 ave       45220 max       42680 min
Histogram: 1 2 1 1 2 1 5 2 0 1

Total # of neighbors = 703582
Ave neighs/atom = 366.44896
Ave special neighs/atom = 2.0000000
Neighbor list builds = 250
Dangerous builds = 0

unfix		3
unfix		2
unfix		1

write_data	data.final.${pid}
write_data	data.final.0
System init for write_data ...
PPPM initialization ...
  extracting TIP4P info from pair style
  using 12-bit tables for long-range coulomb (../kspace.cpp:340)
  G vector (1/distance) = 0.37535111
  grid = 30 30 30
  stencil order = 5
  estimated absolute RMS force accuracy = 0.0031666177
  estimated relative force accuracy = 9.5361752e-06
  using double precision FFTW3
  3d grid and FFT values/proc = 7920 1800
Last active /omp style is kspace_style pppm/tip4p/omp
WARNING: Not all mixed pair coeffs generated from mixing. Use write_data with 'pair ij' option to store all pair coeffs. (../write_data.cpp:312)

write_restart   restart.lmp.${pid}
write_restart   restart.lmp.0
System init for write_restart ...
PPPM initialization ...
  extracting TIP4P info from pair style
  using 12-bit tables for long-range coulomb (../kspace.cpp:340)
  G vector (1/distance) = 0.37535111
  grid = 30 30 30
  stencil order = 5
  estimated absolute RMS force accuracy = 0.0031666177
  estimated relative force accuracy = 9.5361752e-06
  using double precision FFTW3
  3d grid and FFT values/proc = 7920 1800
Last active /omp style is kspace_style pppm/tip4p/omp
Total wall time: 0:08:22
