LAMMPS (30 Jul 2021)
  using 1 OpenMP thread(s) per MPI task
package omp 0
using multi-threaded neighbor list subroutines
echo both

include		in.partitions
variable        pid world 0
include		in.temp
variable        temperature equal 261.83
variable	tempDamp equal 100.0
include		in.pressure
variable        pressure equal 8000.0
variable        pressureDamp equal 1000.0 # This is 1 ps
include		in.seed
variable        seed world 745823

units		real
atom_style	full
read_restart	restart.lmp.${pid}
read_restart	restart.lmp.0
Reading restart file ...
  restart file = 30 Jul 2021, LAMMPS = 30 Jul 2021
  restoring atom style full from restart
  orthogonal box = (0.55312834 1.7430434 0.67481528) to (17.654444 21.886134 21.538381)
  4 by 4 by 4 MPI processor grid
  restoring pair style lj/cut/tip4p/long/omp from restart
  restoring bond style harmonic/omp from restart
  restoring angle style harmonic/omp from restart
  864 atoms
  576 bonds
  288 angles
Finding 1-2 1-3 1-4 neighbors ...
  special bond factors lj:    0        0        0       
  special bond factors coul:  0        0        0       
     2 = max # of 1-2 neighbors
     1 = max # of 1-3 neighbors
     1 = max # of 1-4 neighbors
     2 = max # of special neighbors
  special bonds CPU = 1.557 seconds
  read_restart CPU = 1.823 seconds
include 	in.setup
variable	out_freq equal 1000
variable	out_freq2 equal 10000
variable	out_freq3 equal 1000

timestep	2.0

neigh_modify    delay 7 every 1

include		in.tip4p
# This is TIP4P/Ice

# create groups ###
group ox type 2
288 atoms in group ox
group hy type 1
576 atoms in group hy

# set charges - beside manually ###
set group ox charge -1.1794
Setting atom values ...
  288 settings made for charge
set group hy charge 0.5897
Setting atom values ...
  576 settings made for charge

# ### TIP3P Potential Parameters ###
pair_style lj/cut/tip4p/long/omp 2 1 1 1 0.1577 8.5
pair_coeff 1 1*2 0.000 0.000
pair_coeff 2 2 0.21084 3.1668
bond_style  harmonic
bond_coeff  1 450 0.9572
angle_style harmonic
angle_coeff 1 55 104.52
kspace_style pppm/tip4p/omp 1.0e-5
pair_modify tail yes

thermo          ${out_freq}
thermo          1000
thermo_style    custom step temp pe etotal epair emol press lx ly lz vol pxx pyy pzz pxy pxz pyz enthalpy

restart 	${out_freq3} restart.lmp.${pid} restart2.lmp.${pid}
restart 	1000 restart.lmp.${pid} restart2.lmp.${pid}
restart 	1000 restart.lmp.0 restart2.lmp.${pid}
restart 	1000 restart.lmp.0 restart2.lmp.0


include         in.dump
dump            myDump all atom ${out_freq2} dump.water.${pid}
dump            myDump all atom 10000 dump.water.${pid}
dump            myDump all atom 10000 dump.water.0
dump            myDump2 all dcd ${out_freq2} dump.dcd
dump            myDump2 all dcd 10000 dump.dcd
dump_modify     myDump append yes
dump_modify     myDump2 append yes


variable natoms 	equal  "count(all)"                        # NUMBER ATOMS
variable H      	equal  "enthalpy/v_natoms"                 # ENTHALPY-per-atom
variable Vol      	equal  "vol/v_natoms"                 # volume-per-atom
fix AVG all 		ave/time ${out_freq} 1 ${out_freq} v_Vol v_H file vol_enthalpy.dat
fix AVG all 		ave/time 1000 1 ${out_freq} v_Vol v_H file vol_enthalpy.dat
fix AVG all 		ave/time 1000 1 1000 v_Vol v_H file vol_enthalpy.dat


timer           timeout 23:50:00 every 1000
New timer settings: style=normal  mode=nosync  timeout=23:50:00

fix 		1 all shake 1e-6 200 0 b 1 a 1
       0 = # of size 2 clusters
       0 = # of size 3 clusters
       0 = # of size 4 clusters
     288 = # of frozen angles
  find clusters CPU = 0.451 seconds
fix             2 all nph iso ${pressure} ${pressure} ${pressureDamp}
fix             2 all nph iso 8000 ${pressure} ${pressureDamp}
fix             2 all nph iso 8000 8000 ${pressureDamp}
fix             2 all nph iso 8000 8000 1000
fix             3 all temp/csvr ${temperature} ${temperature} ${tempDamp} ${seed}
fix             3 all temp/csvr 261.83 ${temperature} ${tempDamp} ${seed}
fix             3 all temp/csvr 261.83 261.83 ${tempDamp} ${seed}
fix             3 all temp/csvr 261.83 261.83 100 ${seed}
fix             3 all temp/csvr 261.83 261.83 100 745823

run             250000
PPPM initialization ...
  extracting TIP4P info from pair style
  using 12-bit tables for long-range coulomb (../kspace.cpp:340)
  G vector (1/distance) = 0.37364917
  grid = 24 24 24
  stencil order = 5
  estimated absolute RMS force accuracy = 0.0032315874
  estimated relative force accuracy = 9.7318296e-06
  using double precision FFTW3
  3d grid and FFT values/proc = 2535 216
Last active /omp style is kspace_style pppm/tip4p/omp
Neighbor list info ...
  update every 1 steps, delay 7 steps, check yes
  max neighbors/atom: 2000, page size: 100000
  master list distance cutoff = 10.8154
  ghost atom cutoff = 10.8154
  binsize = 5.4077, bins = 4 4 4
  1 neighbor lists, perpetual/occasional/extra = 1 0 0
  (1) pair lj/cut/tip4p/long/omp, perpetual
      attributes: half, newton on, omp
      pair build: half/bin/newton/omp
      stencil: half/bin/3d
      bin: standard
Per MPI rank memory allocation (min/avg/max) = 9.236 | 9.238 | 9.240 Mbytes
Step Temp PotEng TotEng E_pair E_mol Press Lx Ly Lz Volume Pxx Pyy Pzz Pxy Pxz Pyz Enthalpy 
16000000    264.59388   -3843.3423   -3389.8375   -3843.3423            0    7845.3399    17.101316    20.143091    20.863565    7186.9424     8034.428    7919.5118    7582.0799   -342.69074   -807.91068   -291.76032   -2567.5346 
16001000    270.28722   -3881.6949   -3418.4319   -3881.6949            0    9650.7889    16.971155    19.989779     20.70477     7024.086    9078.3744    12945.436    6928.5565    379.33408   -321.86323   -302.75229   -2429.8138 
16002000    263.76252   -3877.4332   -3425.3533   -3877.4332            0    5398.6604    17.053379    20.086627    20.805082     7126.674    6149.1638     4423.368    5623.4494    186.36096   -613.70239   -264.27421   -2864.2422 
16003000    259.23471   -3879.9249   -3435.6055   -3879.9249            0     7782.663    17.028092    20.056844    20.774233    7095.0192    9984.8045    5766.2315     7596.953   -1082.9125    654.63176   -1529.7536   -2630.3055 
16004000    255.36365   -3919.5959   -3481.9113   -3919.5959            0    7220.6651    16.992927    20.015424    20.731332    7051.1538    7577.6371    5832.2651    8252.0931    131.21811   -569.41351   -125.66701   -2739.3826 
16005000    259.88194   -3875.1502   -3429.7214   -3875.1502            0    6190.3703    17.039821    20.070659    20.788542    7109.6904    4763.6893     8013.216    5794.2055   -858.20904    1278.9051     173.6534   -2787.8572 
16006000    267.67861   -3859.0886   -3400.2967   -3859.0886            0    7239.6948    17.015294    20.041769    20.758619    7079.0336    6249.6497    7536.7205    7932.7141    321.28296   -32.905168     896.0095   -2652.8674 
16007000    264.37783   -3876.6274   -3423.4928   -3876.6274            0    6101.8513    17.076763    20.114171    20.833611    7156.0311    5444.3941    6119.8816    6741.2781     191.6877    1006.5891    223.02529   -2786.6831 
16008000    262.72736   -3866.6391   -3416.3334   -3866.6391            0    8278.0162    17.065737    20.101184     20.82016    7142.1793    9002.8622    7904.2079    7926.9784      467.879    403.63634   -2142.1601    -2554.084 
16009000    263.20023   -3841.9915   -3390.8753   -3841.9915            0    7328.2883    17.077591    20.115146    20.834621    7157.0722    5505.1403    7859.2369    8620.4877   -121.02372    1297.4532   -487.82362   -2625.9591 
16010000    255.66306   -3839.5319   -3401.3341   -3839.5319            0    8592.9449    17.021354    20.048907    20.766013    7086.6003    8615.9402    8969.8746    8193.0199    719.37241   -392.68248    488.55309   -2513.2464 
16011000    273.25362   -3878.0868   -3409.7394   -3878.0868            0    11215.131    16.959645    19.976221    20.690727    7009.8033    9523.5152     12728.06    11393.819   -1323.2095   -718.41187   -213.65468   -2263.2077 
16012000    279.54946   -3872.5996   -3393.4614   -3872.5996            0    6656.2002    17.019079    20.046227    20.763237    7083.7587    4587.4868    8978.3739      6402.74    1695.0172   -2482.2867    659.65871   -2705.8137 
16013000    260.67076   -3851.7356   -3404.9549   -3851.7356            0    6822.8868    16.992024     20.01436    20.730229    7050.0292    6701.3415    4626.7957    9140.5233   -1340.0278   -69.755163    1041.1106   -2703.4431 
16014000    272.52061    -3909.227    -3442.136    -3909.227            0    8508.8973    16.993509    20.016109    20.732041    7051.8776    7901.2509    9339.5089    8285.9321    106.04568     523.2354   -1189.5387   -2567.0435 
16015000    259.46423   -3862.6164   -3417.9036   -3862.6164            0    8055.6019    17.007673    20.032792    20.749321    7069.5254    7930.2881    10604.467    5632.0507   -486.65936   -595.01475    1215.4014   -2587.3568 
16016000    269.50692   -3860.4589   -3398.5332   -3860.4589            0    9545.4882    17.060327    20.094812    20.813559    7135.3886    10042.912     9937.458    8656.0948    43.269615   -1111.3261   -338.13011   -2405.2075 
16017000    261.25883    -3861.193   -3413.4043    -3861.193            0    6943.4471    17.092893     20.13317     20.85329    7176.3289    7252.0735    6438.4367     7139.831    395.71254   -978.93909   -921.69532   -2686.7074 
16018000    250.22917   -3876.1927   -3447.3085   -3876.1927            0    6524.8462    17.054423    20.087857    20.806356    7127.9831    7011.4457     6314.956    6248.1371    1031.8046    525.59664   -1775.2501   -2769.0225 
16019000    266.06233   -3862.9836   -3406.9618   -3862.9836            0    8801.0383    16.953474    19.968953    20.683199     7002.155    10714.229    8614.7302    7074.1555   -754.89669    696.45124   -1455.6407   -2508.2064 
16020000    250.10427   -3883.7943   -3455.1241   -3883.7943            0    7415.1342    16.991435    20.013665     20.72951    7049.2957    8276.1023    8326.6353     5642.665    1119.3651    62.891296   -775.98443   -2692.7983 
16021000    258.36964   -3886.8792   -3444.0425   -3886.8792            0     7813.297    17.003849    20.028288    20.744656    7064.7586    9059.4489    6767.9117    7612.5305    2554.7795    456.44873    421.07058   -2639.0209 
16022000    265.47749   -3896.0126   -3440.9933   -3896.0126            0    5785.5325    17.112676    20.156471    20.877424     7201.274    4625.5083    6553.1686    6177.9206    441.35821    175.00595    1066.2708   -2833.3781 
16023000    251.56736   -3887.4516   -3456.2738   -3887.4516            0     8803.876    17.014345    20.040651    20.757461    7077.8486    8638.9264    9972.0436    7800.6579    -1590.529    1209.8143     140.3677   -2547.5099 
16024000    275.74484   -3848.8859   -3376.2687   -3848.8859            0    7453.2309    17.051149    20.084001    20.802362    7123.8791    9229.7081    4898.6484    8231.3363   -78.411638   -550.70961    8.6526688   -2601.9192 
16025000    259.27776   -3852.2186   -3407.8254   -3852.2186            0    7717.8787    17.039915    20.070769    20.788656    7109.8074    9010.9351    4948.9228     9193.778    837.10598    283.68623   -635.76214   -2607.5644 
16026000    267.17294   -3853.7863    -3395.861   -3853.7863            0    5784.1356    17.096921    20.137914    20.858203    7181.4026    8132.2883    3745.9711    5474.1473   -943.18283     1147.814   -449.68778   -2790.0689 
16027000    268.74472   -3858.6742   -3398.0549   -3858.6742            0    8416.2857    17.055227    20.088805    20.807337    7128.9917    9206.3625    8857.1718    7185.3229   -668.64937   -16.000315    314.66313   -2523.0218 
16028000    260.59009   -3883.4745    -3436.832   -3883.4745            0    9349.9501    17.041945    20.073161    20.791134    7112.3497    11276.686    8893.0794    7880.0844   -1578.6581   -917.43673   -530.38396   -2466.9961 
16029000    240.29521   -3850.3111   -3438.4533   -3850.3111            0    7281.3002    17.032257    20.061749    20.779313     7100.226    7901.7623    5609.8466    8332.2918    1063.9217    -1522.935      981.085   -2684.4782 
16030000     267.9878    -3828.089    -3368.767    -3828.089            0    6660.1169    17.093422    20.133794    20.853935    7176.9951     4223.395    6402.5882    9354.3675   -657.26735   -1025.8684    283.55316   -2671.6585 
16031000    270.62169   -3847.1613    -3383.325   -3847.1613            0    6402.9404    17.106787    20.149535     20.87024    7193.8424     7881.865    4477.2683    6849.6879     247.4742   -54.229953    1143.9031   -2711.5617 
16032000    256.83593   -3832.1083   -3391.9003   -3832.1083            0    7212.4889    16.993165    20.015704    20.731622    7051.4501    6586.3003    8650.8144    6400.3519   -899.04247    536.04922   -292.04268   -2650.1811 
16033000    267.46473   -3850.9582   -3392.5328   -3850.9582            0    10628.591     16.97184    19.990585    20.705605    7024.9357    11437.245    9217.4464    11231.081    -322.2804    581.77527    40.697381   -2303.6179 
16034000    254.66684    -3889.224   -3452.7338    -3889.224            0    8287.4367    17.011398     20.03718    20.753866    7074.1717    8761.1734     7136.987    8964.1496    1304.2065    179.70822     1421.249   -2597.7228 
16035000    249.29899   -3881.4852   -3454.1952   -3881.4852            0    7204.6815    17.035944    20.066091    20.783811    7104.8379    8341.0249    5614.1362    7658.8835   -317.04099   -924.87583    1387.4714   -2707.6694 
16036000     263.8728   -3887.5895   -3435.3206   -3887.5895            0    8065.7669    17.028876    20.057766    20.775189    7095.9985    8056.2244    8776.9719    7364.1045     253.3674    -107.7738    732.28202   -2600.6116 
16037000    272.69362   -3875.4576   -3408.0701   -3875.4576            0    9278.9785    17.011984     20.03787    20.754581    7074.9029    9204.2667    9823.7204    8808.9484   -346.22746   -957.92128    627.73291   -2450.6632 
16038000    270.45669   -3870.0767   -3406.5232   -3870.0767            0    9822.0084    16.996273    20.019365    20.735413    7055.3196    9160.6099      10841.3    9464.1155   -80.623002   -898.86754    415.76038   -2395.8916 
16039000    265.93195   -3868.7989   -3413.0006   -3868.7989            0    6711.5169    17.031915    20.061346    20.778896    7099.7981     6763.239    6425.1125    6946.1993   -1325.9859    -576.6534    1335.6397   -2718.0682 
16040000    252.31089    -3865.779   -3433.3268    -3865.779            0    6764.1136    17.050141    20.082814    20.801132    7122.6157    7351.6224    6315.1449    6625.5734   -318.73574   -533.62733    2033.9236   -2730.6975 
16041000    252.95748   -3854.5095    -3420.949   -3854.5095            0    6837.2551    17.048622    20.081025    20.799279     7120.712    6396.8414    7271.4226    6843.5014    1054.3972    389.02199     279.3257   -2710.9118 
16042000    254.06417   -3874.9725   -3439.5152   -3874.9725            0     7208.004    16.999342    20.022979    20.739157    7059.1417    8388.3618    5731.9414    7503.7088   -931.29691   -1049.9543    1612.5787   -2697.4487 
16043000     264.8593   -3880.3856   -3426.4259   -3880.3856            0    8356.0547    16.971625    19.990332    20.705343    7024.6688    9704.7896    8520.8253    6842.5493    927.66327   -441.23513   -267.70302   -2570.3682 
16044000    256.35149   -3883.3858   -3444.0081   -3883.3858            0    7844.1552    16.991898    20.014211    20.730075     7049.872    6109.9801    10152.117    7270.3682   -955.40821    490.41732   -415.35061   -2637.5101 
16045000    255.03406   -3912.0425   -3474.9228   -3912.0425            0    8363.6718    16.983098    20.003846     20.71934    7038.9249    8148.0398    8534.4886    8408.4869    -2027.195    1132.4851    2053.4865   -2616.3459 
16046000    270.61891   -3851.0247   -3387.1932   -3851.0247            0    8708.5742    16.992142    20.014498    20.730373    7050.1757    7991.1267    8495.1021    9639.4937    179.60885    74.724057    399.74339   -2491.7812 
16047000    254.03031   -3859.2094   -3423.8101   -3859.2094            0    8664.4361    16.983457    20.004269    20.719777     7039.371    6476.4745     10236.15    9280.6835   -936.61816   -1177.8295    274.42208   -2534.3017 
16048000    263.39131   -3870.9378   -3419.4941   -3870.9378            0    9887.7971    17.003141    20.027455    20.743793    7063.8764    10437.448    11386.716    7839.2277   -85.380857   -916.65283    -497.0471   -2400.8592 
16049000     261.5034   -3832.8363   -3384.6284   -3832.8363            0    9412.8198    16.926497    19.937178    20.650287    6968.7822    6932.2326    10748.368    10557.859   -172.99499   -800.21655    17.716568   -2427.9796 
16050000    254.70266    -3856.608   -3420.0563    -3856.608            0     7252.516    17.022847    20.050665    20.767833    7088.4642    6508.5274    7143.8739    8105.1468     188.4763    613.30905   -578.99164   -2670.3059 
16051000    271.83981   -3869.5545   -3403.6304   -3869.5545            0    7567.7508     17.10361    20.145793    20.866364    7189.8355    5770.2756    8199.0122    8733.9646   -1245.9944   -689.06528    976.71177   -2610.1034 
16052000    244.38861   -3848.0836   -3429.2099   -3848.0836            0    7454.6612    17.106356    20.149028    20.869714    7193.2988    4932.1857    8521.3378    8910.4601   -721.29702    450.64056   -784.92675   -2647.1646 
16053000    266.46696   -3877.2604   -3420.5451   -3877.2604            0    8903.6765    17.012388    20.038346    20.755074    7075.4075    7698.5323    12250.589    6761.9078   -362.96264     1097.707   -984.57519   -2501.7964 
16054000    267.45067    -3854.753   -3396.3517    -3854.753            0     7039.435    17.040758    20.071761    20.789684    7110.8625    6699.8543    6866.6695    7551.7813    1856.1676   -780.00103   -725.07147   -2666.3296 
16055000    260.90317   -3874.0682   -3426.8891   -3874.0682            0    7344.6449    16.986918    20.008345       20.724    7043.6754    6707.8863    6691.0106     8635.038   -40.762406    148.48219      71.7716    -2672.412 
16056000    283.61808    -3868.348   -3382.2364    -3868.348            0    7112.1412    17.100726    20.142396    20.862845    7186.1985    7502.7552    5209.7187    8623.9497    771.39003   -296.71266    379.03363   -2636.8602 
16057000    274.24195   -3875.2301   -3405.1888   -3875.2301            0    7538.9533    17.010318    20.035908    20.752548    7072.8247    9224.8011    7980.5802    5411.4787    1077.9369    376.54561   -1023.6702   -2627.5465 
16058000    266.03093   -3859.4241   -3403.4562   -3859.4241            0    7639.1853    16.978286    19.998178    20.713469    7032.9432     10051.12    5152.3192    7714.1167    152.59607   -847.77063   -1298.4421   -2619.9182 
16059000    259.88685   -3847.4717   -3402.0345   -3847.4717            0    5235.5733    17.136806    20.184894    20.906863    7231.7803    4635.4109    6304.5252    4766.7838    191.03547    813.84509    111.45033   -2849.8485 
16060000    252.58319   -3872.0777   -3439.1588   -3872.0777            0    9851.7845    16.959168    19.975659    20.690145    7009.2119    9893.5415    10863.345    8798.4671   -2017.2147    918.24689   -898.27413    -2432.088 
16061000      263.979   -3845.2358   -3392.7848   -3845.2358            0    8735.8847    16.972912    19.991848    20.706912    7026.2668    8943.8066    9029.6261    8234.2215    214.89573    1577.0953    775.77346   -2497.6109 
16062000    264.13366   -3850.0142   -3397.2981   -3850.0142            0    7396.2482    17.022467    20.050218     20.76737      7087.99    8268.5868    5928.9961    7991.1617    90.263277    23.459545   -592.95081   -2632.7401 
16063000     265.2709   -3848.5507   -3393.8855   -3848.5507            0    7014.1646    17.075856    20.113103    20.832504    7154.8913    6421.7861    8460.2437    6160.4639   -730.77801    826.42127   -461.04055   -2661.9802 
16064000    260.62849   -3872.6256   -3425.9173   -3872.6256            0    8431.7029    17.080667     20.11877    20.838374    7160.9407     9380.696    8696.6733    7217.7395   -1265.6257    936.78892    1848.2032   -2545.3526 
16065000    247.23451   -3886.7525    -3463.001   -3886.7525            0     6952.808    17.077043    20.114501    20.833952     7156.383    7754.0005    5806.9182    7297.5053   -4.4519546    115.57904     150.7695   -2737.3468 
16066000    269.71842   -3857.7882   -3395.5001   -3857.7882            0    7922.3487    17.056499    20.090303    20.808889    7130.5871    7357.2381    8972.8865    7436.9213    642.82965    -1225.914    588.63083   -2571.6368 
16067000      244.162   -3876.3686   -3457.8832   -3876.3686            0    7959.0675    16.988544    20.010261    20.725984     7045.699    7887.6465    9118.8126    6870.7434   -207.54208   -939.00797    1761.4819   -2640.0549 
16068000     260.2977   -3860.0494    -3413.908   -3860.0494            0    7443.3167    17.010241    20.035818    20.752455    7072.7291    9183.6646    6968.4099    6177.8755   -717.69327   -2664.5362   -210.13963   -2646.1411 
16069000    242.78453   -3864.1949   -3448.0705   -3864.1949            0    7737.0966    17.017629    20.044519    20.761468    7081.9484    9285.4211    6771.4847    7154.3839   -1053.1444    -240.9175    727.65698   -2648.9603 
16070000    273.15581   -3888.5367    -3420.357   -3888.5367            0    6368.7207    17.078796    20.116566    20.836091    7158.5877    5831.4047    5491.5133     7783.244   -506.10822   -885.32552    22.965601   -2755.4583 
16071000     252.3676   -3850.5528   -3418.0033   -3850.5528            0     7979.856    17.049495    20.082053    20.800344    7121.8057    7556.0629    9199.7603    7183.7448    2309.3465   -2535.8281   -538.08278   -2589.1817 
16072000    276.30264   -3856.6288   -3383.0555   -3856.6288            0    6496.3033    17.159175    20.211242    20.934154    7260.1371     8611.927    4785.4926    6091.4902    894.37921   -1657.0745    211.71362   -2695.2162 
16073000    246.53723   -3893.3928   -3470.8364   -3893.3928            0    9348.0242    16.991763    20.014052    20.729911    7049.7042    9133.5591    10644.138    8266.3751   -520.33641    411.97854    1988.0174   -2509.7408 
16074000    259.28851   -3883.5981   -3439.1864   -3883.5981            0    9067.9046    16.991856    20.014162    20.730025    7049.8208    9935.6884     9186.061    8081.9645    856.47899   -492.03927    1186.2033   -2506.8752 
16075000    252.86664   -3860.1018    -3426.697   -3860.1018            0    8552.3294    17.050335    20.083043    20.801369    7122.8593     6560.246     10123.14    8973.6027   -1550.6133    1754.9388   -474.00802   -2538.2845 
16076000    263.32241   -3890.6438   -3439.3182   -3890.6438            0     6212.454    17.026479    20.054944    20.772265    7093.0032    5122.1537    4703.3196    8811.8887   -168.65743   -883.89156    157.42008    -2796.676 
16077000    263.43564   -3920.9171   -3469.3974   -3920.9171            0    8442.7172    17.070427    20.106709    20.825882    7148.0696    7316.8637    9509.9425    8501.3454    1090.5788    664.15026    418.73541   -2589.2673 
16078000    281.28956   -3881.6417    -3399.521   -3881.6417            0    8076.1998    17.049172    20.081673     20.79995    7121.4018    9266.2173    7734.7677    7227.6144    574.74492    563.28223   -2105.2682   -2560.7403 
16079000    265.75313   -3909.5855   -3454.0937   -3909.5855            0    10022.387     17.05461    20.088078    20.806585    7128.2182    9375.7712    9470.5731    11220.818    675.77942   -665.23544   -2058.9528   -2412.1889 
16080000    266.03083   -3853.9461   -3397.9783   -3853.9461            0    8167.1741    17.079352     20.11722    20.836769    7159.2864      7317.24    8638.4981    8545.7841   -1473.7377    1347.6564   -1608.5261   -2545.2368 
16081000     264.6472    -3901.316   -3447.7197    -3901.316            0    7327.2597    17.158343    20.210261    20.933138    7259.0804    7833.4603    7795.1676    6353.1512    1443.0661   -930.38358    862.65337   -2672.0103 
16082000    259.20749   -3890.1821   -3445.9093   -3890.1821            0    7620.4823    17.037379    20.067783    20.785563    7106.6345    7371.7772    7989.3693    7500.3004   -1347.5604   -165.71504   -1179.2242   -2656.0999 
16083000    255.95041   -3862.6552   -3423.9649   -3862.6552            0    6400.5256    17.041655    20.072819     20.79078    7111.9865    6517.0268    6296.7613    6387.7888   -1373.0042    1128.9599   -52.095092   -2760.0958 
16084000    269.85088   -3842.1966   -3379.6815   -3842.1966            0    7885.2353    17.039383    20.070142    20.788007    7109.1414    8609.8483    7556.3151    7489.5424    390.36572    1288.4287     321.9286   -2562.1439 
16085000    270.34191   -3894.1197   -3430.7629   -3894.1197            0     7954.843    17.081336    20.119558     20.83919    7161.7824    9754.5024    9134.8778     4975.149   -812.77831   -280.25136   -872.91075   -2599.9014 
16086000    257.34419    -3878.476   -3437.3969    -3878.476            0    7720.2488    17.055656     20.08931    20.807861    7129.5302    8802.4029    5992.3827    8365.9609   -1528.1831    639.52531    1325.1189   -2634.6695 
16087000    261.68914   -3923.0199   -3474.4937   -3923.0199            0    7485.5388     17.03333    20.063013    20.780623    7101.5684    5809.9681    7306.3905    9340.2576   -386.10057    63.681935    563.27715   -2699.2233 
16088000    273.02329   -3869.2259   -3401.2733   -3869.2259            0    9994.5878    16.991478    20.013717    20.729563    7049.3497    10425.612    10313.629    9244.5222    1410.0537    1212.4518    89.935777   -2373.7544 
16089000      248.332   -3868.7375   -3443.1049   -3868.7375            0    8264.7432    17.003248     20.02758    20.743922    7064.0089    6901.5591     9238.848    8653.8226    1209.8758   -429.58574   -145.29004   -2591.6601 
16090000    252.96937    -3832.862   -3399.2811    -3832.862            0    9263.3747    17.099998    20.141539    20.861957     7185.281    6835.5054     11443.01    9511.6084   -1017.6646   -1720.7952    467.97173   -2428.5725 
16091000    254.44129   -3872.1477    -3436.044   -3872.1477            0     8530.759    17.109569    20.152812    20.873634    7197.3525    8218.2169    9488.4664    7885.5936    1572.6118    868.07959    461.34532   -2540.6043 
16092000    273.16289   -3858.5808   -3390.3889   -3858.5808            0    4961.3959    17.142864    20.192029    20.914254    7239.4526    5373.0726    4542.3842     4968.731   -228.08556    1811.0363    767.98243   -2866.5648 
16093000    243.40151   -3852.1702   -3434.9884   -3852.1702            0    8681.1111    17.034288    20.064141    20.781792    7102.7667     8622.623    7771.5754    9649.1349   -453.54333    507.79817    1516.8096   -2535.7419 
16094000     273.4136   -3905.3023   -3436.6808   -3905.3023            0    7616.9719    17.052726    20.085859    20.804286    7125.8558     6870.518    8686.1948    7294.2029     134.3606   -16.800719    876.84629   -2645.0999 
16095000    253.74255   -3885.0615   -3450.1555   -3885.0615            0    8602.2954    17.069589    20.105722    20.824859     7147.017    8116.7518    7531.2702    10158.864    94.267269    108.87943    1407.1547   -2553.5218 
16096000    263.16165   -3831.2712   -3380.2212   -3831.2712            0     8771.864    17.045547    20.077403    20.795528      7116.86    8667.7227    9838.1043    7809.7649     30.08123     1165.185     1280.849    -2469.771 
16097000    266.74798   -3874.6325   -3417.4356   -3874.6325            0    6627.1205    17.051894    20.084878     20.80327    7124.8124    5495.9889    5832.8519    8552.5208   -1585.4502    247.09619    922.92827   -2728.8243 
16098000    260.58063   -3887.0828   -3440.4565   -3887.0828            0    8315.0966    16.983421    20.004226    20.719734    7039.3265    7259.9649    8583.5615    9101.7634     775.4909    421.90132    -1101.519   -2586.8174 
16099000    258.36741   -3868.7291   -3425.8962   -3868.7291            0    6828.7292    17.091938    20.132045    20.852124    7175.1252    5744.7808    5741.3644    9000.0424    672.94987    354.73655   -807.73961   -2711.3254 
16100000    251.03288   -3861.3311   -3431.0693   -3861.3311            0    9445.3139    16.993241    20.015793    20.731714    7051.5443    11360.571    8357.3807    8617.9899   -25.640273    199.73071    578.78803   -2459.7176 
16101000    248.98753   -3874.0398   -3447.2837   -3874.0398            0    8520.5408    16.946733    19.961013    20.674975    6993.8056    8328.9603    8708.6245    8524.0375    1024.7322   -952.82596    1200.3977     -2578.21 
16102000    268.84018   -3888.6096   -3427.8267   -3888.6096            0     6833.609    17.081969    20.120303    20.839962    7162.5782    6145.0241    7136.0761     7219.727    247.73955    557.35259    306.56613   -2713.9958 
16103000    258.99022   -3847.8609   -3403.9605   -3847.8609            0    7744.1637    17.010142    20.035701    20.752334    7072.6056    9892.0294    6394.4689    6945.9929   -862.19661   -263.28951   -781.28136   -2605.1756 
16104000     257.4034   -3865.0556    -3423.875   -3865.0556            0    6601.0458    17.050143    20.082817    20.801135    7122.6188    5261.3123     7682.874    6858.9511    3217.2931    1020.2654    1077.9812   -2738.1842 
16105000    266.51026   -3843.7459   -3386.9565   -3843.7459            0    8714.7133    16.993359    20.015932    20.731858    7051.6907    8274.0579    9196.7469    8673.3351    1446.9815   -621.56556   -1019.2971   -2490.7208 
16106000    244.05464   -3857.9097   -3439.6084   -3857.9097            0    7878.7552    16.981401    20.001847    20.717269    7036.8148    8860.3358    6366.2871    8409.6429    1321.2581   -1151.2524    401.73127   -2631.0533 
16107000    250.80309   -3865.6584   -3435.7905   -3865.6584            0    5938.2609    17.049318    20.081844    20.800128    7121.5842    6295.6703    6849.7666    4669.3459    -909.5452    319.74713   -1113.9977   -2819.0368 
16108000    260.34923   -3854.7257    -3408.496   -3854.7257            0     6310.382     17.07488    20.111953    20.831313    7153.6639    6087.4592    6491.5413    6352.1456   -778.23091   -296.01752    -945.4057   -2750.1411 
16109000    260.38243   -3870.1362   -3423.8496   -3870.1362            0    7329.6091    17.028754    20.057623     20.77504     7095.846    8801.5824    7126.1241    6061.1209    143.98257   -282.79071    762.03043   -2665.3403 
16110000    267.17991   -3869.8331   -3411.8959   -3869.8331            0    7858.4309    17.051244    20.084113    20.802478    7123.9979     8557.118    7280.9638    7737.2109    350.47604     1314.455    879.36613   -2595.4348 
16111000    257.48643   -3852.0958   -3410.7728   -3852.0958            0    6108.4386    17.042324    20.073606    20.791595    7112.8231    6379.7057    5045.9975    6899.6128   -903.88396   -1636.6505    1722.4524   -2777.1248 
16112000    259.29934   -3849.6143   -3405.1841   -3849.6143            0    6600.9081    16.967227    19.985152    20.699977     7019.209    7272.2697    6555.0764    5975.3783    1299.5172   -549.99979   -595.19691   -2729.4626 
16113000    259.36645   -3836.5745   -3392.0293   -3836.5745            0    8079.1132     16.93994    19.953012    20.666687    6985.3985    6196.2102    9085.6002    8955.5291   -357.36266    25.049734   -1324.8523   -2568.9707 
16114000    276.39807   -3845.6676   -3371.9308   -3845.6676            0    10324.784    16.984519    20.005519    20.721073    7040.6914    9860.6915    10441.081    10672.581    418.28123   -132.92527    647.36338   -2311.7689 
16115000    265.82238   -3870.5377   -3414.9272   -3870.5377            0    7149.5879    17.088523    20.128023    20.847958    7170.8254    9277.3755     5280.182    6891.2064     806.6601    237.26496    103.91938   -2667.2295 
16116000    244.21171   -3867.4404   -3448.8699   -3867.4404            0    7572.1868     17.00911    20.034484    20.751074    7071.3174    6906.0902    6806.7073    9003.7628    985.93399    755.88635   -351.39808   -2667.9661 
16117000    252.16411   -3899.4435   -3467.2428   -3899.4435            0    7363.7296    17.074349    20.111328    20.830666    7152.9977    5941.1461    8904.7452    7245.2977   -1051.4203    59.739791    567.53076   -2699.0649 
16118000    265.76998   -3890.5659   -3435.0453   -3890.5659            0    8209.3166    16.965605    19.983241    20.697998    7017.1962    6233.9008    9645.5207    8748.5284    1041.0245    553.26508   -464.17203   -2594.9152 
16119000    269.27076   -3875.7206   -3414.1998   -3875.7206            0    7040.0027    17.079799    20.117747    20.837315    7159.8491    7336.1242    7986.1221    5797.7618   -671.66306   -185.66643    215.50586   -2679.0893 
16120000    264.21202    -3893.458   -3440.6076    -3893.458            0    7597.8003    17.059222     20.09351    20.812211    7134.0027    8055.8545    5070.8756     9666.671     608.4533    323.87925    1505.9366   -2650.1164 
16121000    256.87738   -3862.3086   -3422.0296   -3862.3086            0    8369.3249    17.039092      20.0698    20.787653     7108.778    7258.3038    8602.0695    9247.6013   -505.82042   -1043.9512   -99.228789   -2554.3462 
16122000    268.49959   -3845.8296   -3385.6305   -3845.8296            0    7620.8923     17.00941    20.034838     20.75144    7071.6918    7613.2532    5874.0892    9375.3346    165.25029    764.39721   -227.71707   -2599.6621 
16123000    259.60787   -3890.6506   -3445.6916   -3890.6506            0    8346.9338    17.018118    20.045095    20.762064    7082.5587    7829.8672    10037.381    7173.5528   -547.84885   -212.46001   -97.988975   -2583.5214 
16124000     278.0927   -3856.3372   -3379.6959   -3856.3372            0        10414    16.945581    19.959656     20.67357    6992.3797    10938.124    8436.9321    11866.943    2577.1742    254.08344    46.897703   -2317.7107 
16125000    276.19974   -3836.3037   -3362.9068   -3836.3037            0    9253.2576    17.030062    20.059163    20.776635    7097.4812    9019.2961    9463.0603    9277.4165   -1076.5555   -730.05074    339.34179   -2405.1068 
16126000     252.6103   -3837.7621   -3404.7966   -3837.7621            0    6588.0359    17.020715    20.048154    20.765232    7085.8015    7500.4038    5769.0725    6494.6314   -693.94619   -716.20538   -1887.0052   -2723.9946 
16127000    271.74531   -3858.3294   -3392.5672   -3858.3294            0    8606.0898    17.001648    20.025695     20.74197    7062.0147    5923.6804    9991.4929    9903.0962    -1507.867   -81.124648    401.28965   -2506.2068 
16128000    275.02165   -3875.5675   -3404.1898   -3875.5675            0     7811.549    16.928065    19.939025      20.6522    6970.7186    10065.999     6346.556    7022.0919   -1342.0545    237.72484   -954.34367   -2610.0617 
16129000    272.40975   -3875.2578   -3408.3568   -3875.2578            0    7960.6609    16.967104    19.985007    20.699827    7019.0567    8904.6619    7891.5778    7085.7431    685.03271     -808.417   -704.03718   -2593.4578 
16130000    250.31239   -3896.6333   -3467.6064   -3896.6333            0    10756.313    16.905768    19.912762    20.624998    6943.2102    11965.051    11695.069     8608.818   -1099.3996   -1411.6396   -1271.7629   -2378.4265 
16131000    256.64153   -3903.9662   -3464.0914   -3903.9662            0    8825.8498    16.927115    19.937905     20.65104    6969.5444    9381.8676    6611.4549    10484.227   -705.45373   -1168.1773    1443.6967   -2566.9998 
16132000    267.68194   -3879.4236   -3420.6259   -3879.4236            0    6671.6521     17.05079    20.083578    20.801923    7123.4285    6870.4102    7166.8521    5977.6939    525.84856    1028.8402     1113.947    -2727.522 
16133000     273.9553   -3917.6883   -3448.1383   -3917.6883            0    7599.2443     16.94303    19.956652    20.670457    6989.2222    8420.0774    7477.2254      6900.43    1.7853346    723.18439   -1306.7904   -2673.5425 
16134000    258.90375   -3911.9486   -3468.1964   -3911.9486            0    7409.5203    17.003229    20.027558      20.7439    7063.9861    8153.5117    7634.5205    6440.5288    -1554.104    555.21047    26.301457   -2704.8603 
16135000    251.83458   -3900.1124   -3468.4765   -3900.1124            0    8347.1624    16.992145    20.014502    20.730377    7050.1796     9002.086      9174.95    6864.4513   -407.54294   -318.89309   -662.93593   -2610.2243 
16136000    262.00464   -3894.3515   -3445.2845   -3894.3515            0    7490.6372    17.012548    20.038535    20.755269    7075.6072     6156.156    8188.9546    8126.8011    1315.9518     1371.384   -690.67545   -2672.3221 
16137000    265.76518   -3914.1359   -3458.6235   -3914.1359            0    7347.7408    16.987537    20.009075    20.724755    7044.4457    6341.6883    8504.2872     7197.247    450.75442   -277.73135   -330.97867   -2703.7458 
16138000    273.52025   -3893.4004    -3424.596   -3893.4004            0    6613.0452    17.041846    20.073044    20.791012    7112.2253    6166.6052    8169.8032    5502.7271    1011.3969    1700.2532   -38.515715   -2738.6611 
16139000    247.30618   -3899.6275   -3475.7531   -3899.6275            0    6735.2029    17.026376    20.054822    20.772139    7092.8745    8698.5742    6613.8551    4893.1793   -183.90261    664.83855   -405.43688   -2779.0483 
16140000    243.70299    -3831.016   -3413.3174    -3831.016            0    8295.0905    16.959605    19.976175    20.690679    7009.7543    6843.2716    9125.1793    8916.8206   -12.934575   -723.64625    -613.3097   -2565.3097 
16141000    260.04233   -3886.4705   -3440.7668   -3886.4705            0    8291.5549    16.964504    19.981945    20.696656     7015.831    8022.5853    9221.1485    7630.9308   -1667.9805    714.31965   -1823.4974   -2592.3857 
16142000    264.54131    -3891.178   -3437.7632    -3891.178            0    6233.8558    17.026423    20.054878    20.772197    7092.9334    5704.9641    6947.3353    6049.2681    496.23411    1396.5953    306.34537   -2792.9135 
16143000    249.39454   -3854.7095   -3427.2558   -3854.7095            0    9192.8842    17.002627    20.026849    20.743166    7063.2357    9025.8117    8112.8331    10440.008    1068.8361    1811.0421    84.896119   -2480.2963 
16144000    267.83518   -3876.7389   -3417.6786   -3876.7389            0    8166.1582    17.005126    20.029793    20.746214    7066.3506    9248.0384    8644.6033     6605.833   -430.62174   -448.04817   -96.916523   -2576.1113 
16145000    280.33127   -3861.4299   -3380.9517   -3861.4299            0    8242.8069    17.001334    20.025325    20.741587    7061.6236    8373.0947    10430.414    5924.9119     1493.742   -365.65283   -1331.9034   -2532.0535 
16146000     249.9399   -3867.1136   -3438.7251   -3867.1136            0    6666.2872    17.059963    20.094383    20.813115    7134.9325    7761.5199    6414.9822    5822.3595    774.85185   -2123.1863   -1384.5269   -2745.0602 
16147000    267.55059   -3937.6272   -3479.0546   -3937.6272            0     6737.759     17.10495    20.147371    20.867999     7191.525     5964.257    7578.5657    6670.4542   -1537.0844   -1462.0462    -2419.565   -2772.3916 
16148000    253.65584   -3895.4582   -3460.7008   -3895.4582            0    8915.3775     17.03429    20.064144    20.781794    7102.7692    8181.7884    9382.5373    9181.8068    -693.2141   -81.523061    890.08844   -2537.1871 
16149000    276.66966    -3852.441   -3378.2387    -3852.441            0    7740.8358    17.053199    20.086416    20.804863    7126.4485    9791.1229     7943.001    5488.3833   -1145.6085     45.56746    46.512453   -2573.7186 
16150000    261.20979   -3886.2957    -3438.591   -3886.2957            0    6449.0852    17.033202    20.062862    20.780467    7101.4082    6375.1473    5412.6149    7559.4936   -968.03629    1265.0661    137.35984   -2770.6802 
16151000    277.69132   -3860.9844    -3385.031   -3860.9844            0    8670.3801    16.919549    19.928993     20.64181     6960.203    11293.797    6919.2243    7798.1187   -1553.2215   -1270.7824   -1107.2069   -2504.9231 
16152000    252.21319    -3888.965   -3456.6802    -3888.965            0     5180.191    16.940897    19.954139    20.667854    6986.5822    5033.6688    6022.5691    4484.3352    853.65508    1174.7915   -2106.3652   -2928.8595 
16153000    270.32732   -3880.6349   -3417.3031   -3880.6349            0     6551.664    17.002344    20.026516     20.74282     7062.883    6963.9522    6497.6691    6193.3708   -975.71256   -762.95537   -97.076377   -2742.4496 
16154000    254.78937   -3881.5226   -3444.8223   -3881.5226            0    8775.1406    16.864735    19.864431    20.574938    6892.7764    9294.1044    8714.7105     8316.607    6.3295618    1247.1109    698.65787   -2562.7094 
16155000    262.76233   -3889.1443   -3438.7786   -3889.1443            0      7510.91    16.919043    19.928398    20.641193    6959.5789    6335.3152    9526.8614    6670.5535   -237.80776   -448.67007    256.26713   -2676.4339 
16156000    238.16497   -3885.0087   -3476.8021   -3885.0087            0    6278.8824     16.99413     20.01684    20.732799    7052.6509    5257.3037    6527.5336      7051.81    1157.7051    1110.8177    1043.8195   -2830.9833 
16157000    265.13958   -3901.5196   -3447.0794   -3901.5196            0     6567.343    16.976067    19.995564    20.710762    7030.1862    6169.1008    7404.9264    6128.0018     2002.253   -2241.2754    1152.7792   -2773.7425 
16158000    273.40683   -3919.2277   -3450.6178   -3919.2277            0    9585.5261    16.906407    19.913515    20.625777    6943.9977    10159.776    9939.5202    8657.2822   -68.087921   -221.24204   -525.36041   -2479.8812 
16159000    261.39598   -3875.1802   -3427.1564   -3875.1802            0    8083.8028    16.959242    19.975747    20.690235    7009.3039    9930.2843    7852.8875    6468.2366   -807.38288    1206.0298   -930.03866   -2600.8017 
16160000    285.46968   -3888.3118   -3399.0265   -3888.3118            0    9049.7702    16.982817    20.003515    20.718997    7038.5755    9007.2462    8618.1323    9523.9322    290.76099   -868.28693   -236.44229    -2470.064 
16161000    243.78758   -3894.3555   -3476.5119   -3894.3555            0    7017.4738    17.013291    20.039409    20.756175    7076.5331    5605.6644    7151.8512    8294.9059    941.63163    1851.3536   -136.48833   -2752.2807 
16162000    259.79948   -3911.9915   -3466.7041   -3911.9915            0    6863.5561    17.044745    20.076458    20.794549    7115.8554    5428.1735    6946.9456    8215.5493    28.225051    697.88867    164.24567   -2754.4217 
16163000    255.27266    -3861.466   -3423.9374    -3861.466            0     7709.476    16.996476    20.019604    20.735662    7055.5728    6214.6315    9039.7826    7874.0139    170.92935   -1069.2831    577.33074   -2630.6455 
16164000    273.35414   -3885.0342   -3416.5146   -3885.0342            0    7965.9843    16.996528    20.019665    20.735725    7055.6373    7835.6193    8013.1031    8049.2306    1199.8338    42.396848   -94.378731   -2596.8209 
16165000    271.01908   -3893.2858   -3428.7684   -3893.2858            0    8143.4339    16.999487    20.023151    20.739335    7059.3233    9283.0599    8030.8432    7116.3985    854.75408    262.09304    -705.5859   -2590.3775 
16166000    266.89799   -3900.9045   -3443.4505   -3900.9045            0    8587.3975    17.016385    20.043054     20.75995    7080.3953    9777.8981    9531.0551    6453.2392   -661.52432   -1430.7953    255.47961   -2556.7132 
16167000    251.43362   -3924.0605   -3493.1119   -3924.0605            0    7923.8585    17.034223    20.064064    20.781712    7102.6847     7609.116    9772.1077    6390.3518    1388.8123   -289.70905    427.83213   -2672.3161 
16168000    276.03684   -3879.1931   -3406.0754   -3879.1931            0    7388.1374    17.094543    20.135114    20.855303    7178.4071     9109.066    5601.8945    7453.4516   -270.89339   -108.61151   -851.21293   -2632.6135 
16169000    270.20917   -3857.2723   -3394.1431   -3857.2723            0    8648.2543    16.996827    20.020017    20.736089    7056.0093    8029.5323    8799.6406      9115.59   -272.25096    280.97271   -434.35995   -2504.1974 
16170000    253.15213   -3819.2031    -3385.309   -3819.2031            0    8470.8034    16.987136    20.008602    20.724266    7043.9471    10205.793    8268.9579    6937.6587    1400.0997   -404.32964    553.18094    -2515.114 
16171000    257.58298   -3854.0509   -3412.5625   -3854.0509            0    7460.2516    16.979864    20.000037    20.715395    7034.9051    6645.3432    7068.8659    8666.5458    969.96098    17.257301    1243.2026    -2647.164 
16172000    256.84498    -3868.511   -3428.2875    -3868.511            0    6785.7396    17.064721    20.099988     20.81892    7140.9039    6752.2048    5134.3837    8470.6302    1177.1347    558.42149    177.39959   -2721.6019 
16173000    263.49123   -3886.8919   -3435.2769   -3886.8919            0    10673.498    16.973191    19.992177    20.707253    7026.6137    12179.571    11360.808    8480.1137    -11.47766   -979.10429   -201.02152   -2341.5001 
16174000    248.17361   -3868.8084   -3443.4473   -3868.8084            0    6239.7645    17.006219     20.03108    20.747548    7067.7133    6131.7877    6641.3986    5946.1073     638.8926    229.24223    309.24891   -2800.2814 
16175000    261.21557     -3838.49   -3390.7754     -3838.49            0    9668.9864     16.92498    19.935391    20.648437    6966.9087    9876.3702    9570.6933    9559.8957     563.8163   -427.49239   -1001.1923    -2408.356 
16176000    260.72412   -3880.6751   -3433.8029   -3880.6751            0     7556.204    17.018435    20.045468    20.762451    7082.9542    7413.9524    7962.8729    7291.7868   -878.22006    -1116.899    1842.7978    -2653.265 
16177000    269.46754   -3859.8282   -3397.9701   -3859.8282            0    7406.2933    17.030402    20.059564    20.777051    7097.9068    7435.4129    6571.4617    8212.0054   -345.94032   -570.34952    -65.55958   -2631.3025 
16178000    261.35428    -3853.673   -3405.7207    -3853.673            0     7856.106     16.94184     19.95525    20.669006    6987.7497    6951.0224    8399.2303    8218.0655   -165.54415    -580.2998   -2103.7394   -2605.1116 
16179000    260.80114    -3857.878   -3410.8737    -3857.878            0    7774.9626    16.969759    19.988135    20.703066    7022.3524    8836.5779    7118.3923    7369.9175    736.10743    355.22849   -414.96048   -2614.6102 
16180000    252.66375   -3853.4157   -3420.3586   -3853.4157            0    6996.6883    16.929339    19.940525    20.653754    6972.2919     7647.583    7607.8245    5734.6575   -1910.5353   -90.839209     -559.301   -2708.9093 
16181000    273.88699    -3876.432   -3406.9991    -3876.432            0    9696.9278    16.911637    19.919675    20.632158    6950.4442    9369.6468    9918.2512    9802.8855    244.00893    148.91042    1830.3351    -2424.069 
16182000    271.58736   -3839.2474    -3373.756   -3839.2474            0    10252.784    16.926764    19.937492    20.650613    6969.1114    12476.424    8897.7822    9384.1469   -336.81933   -681.95889    183.03658   -2331.6902 
16183000    252.09596   -3874.2259   -3442.1421   -3874.2259            0     7546.481    16.992464    20.014878    20.730766     7050.577     8497.084    5932.8755    8209.4834   -2252.8844   -1553.0037   -198.15361   -2666.1719 
16184000     258.2063   -3864.8604   -3422.3036   -3864.8604            0    8081.3656    17.045055    20.076823    20.794927    7116.2436    8410.5274    7414.4755    8419.0939    588.19708   -1041.8579   -827.59168   -2583.5944 
16185000    262.93512   -3830.3451   -3379.6833   -3830.3451            0    8914.7211    17.056498    20.090301    20.808887     7130.585      9410.12    8238.1075    9095.9359    776.31188    1911.6812   -742.65675   -2452.6212 
16186000    274.49604   -3867.5873   -3397.1105   -3867.5873            0    8680.6662    17.064557    20.099794     20.81872    7140.6977    9827.5375    7971.0088    8243.4524    -99.67322    745.32434   -1126.2568   -2493.1081 
16187000    250.15533   -3856.1532   -3427.3955   -3856.1532            0    8114.4169    16.985142    20.006253    20.721833    7041.4664    6176.8462    8407.5372    9758.8673    -1257.023    725.03824    50.583451   -2594.1052 
16188000    281.45747   -3859.4911   -3377.0826   -3859.4911            0    8460.8198    17.041398    20.072516    20.790466    7111.6642    8770.9228    7670.8069    8940.7297   -174.45846   -1.1731944   -442.18787   -2499.5574 
16189000     269.9249   -3918.7069   -3456.0648   -3918.7069            0    8336.1455    17.037706    20.068167    20.785962    7107.0433     7824.375    8070.4043    9113.6573    485.80317   -216.56114    453.10031   -2592.0322 
16190000    269.37398   -3835.6524   -3373.9546   -3835.6524            0    9727.2635    16.983748    20.004611    20.720132    7039.7327    11139.167    9983.0451     8059.578    481.77113   -489.39858   -175.74498   -2375.2829 
16191000     254.5224   -3843.2262   -3406.9835   -3843.2262            0    7356.3373    17.031421    20.060764    20.778294     7099.181    8538.3878    6724.0178    6806.6065   -1398.5454   -1343.9031   -187.98073   -2645.3505 
16192000    261.74666   -3895.2575   -3446.6327   -3895.2575            0    7290.5436    17.124495    20.170393    20.891843    7216.2053    6117.2626    7386.7269    8367.6411   -86.298027   -561.25042     717.8363   -2679.3689 
16193000    261.21928   -3882.8883   -3435.1674   -3882.8883            0    9734.3857    17.036274    20.066481    20.784215    7105.2513    10438.072    10976.921    7788.1638   -811.17946    466.43456    384.99304   -2426.4631 
16194000    257.16559   -3822.2255   -3381.4525   -3822.2255            0    8034.5352     17.02671    20.055216    20.772547    7093.2919    11204.141    6819.2922     6080.172    978.25412   -1017.1378   -257.46852   -2550.2928 
16195000     258.5104   -3871.4821   -3428.4041   -3871.4821            0    6297.3407    17.094413     20.13496    20.855143    7178.2427      7455.31    6009.2215    5427.4906   -150.85184   -997.77453   -344.19157   -2769.1525 
16196000    261.30121   -3893.4535   -3445.5922   -3893.4535            0    9362.9886    17.036497    20.066744    20.784487    7105.5308    8667.6042    11241.906    8179.4558     76.71258   -833.96615   -1344.4623   -2475.3349 
16197000    262.97947   -3875.2851   -3424.5473   -3875.2851            0    9372.4124     16.96387    19.981198    20.695882    7015.0439    6792.5179    9541.2637    11783.456   -1288.7461   -1362.1277   -683.70905   -2465.6818 
16198000    270.40321   -3872.4418     -3408.98   -3872.4418            0    8562.1581    16.979506    19.999615    20.714957    7034.4591    6869.4067    8568.1414    10248.926   -1062.1517   -669.32839    788.82143    -2530.585 
16199000    270.80446   -3842.6358   -3378.4862   -3842.6358            0    7392.9853    17.015705    20.042253     20.75912    7079.5461    7766.9878    6427.2027    7984.7652    981.20412   -1274.2611    183.28352   -2615.1759 
16200000    263.71527   -3860.6084   -3408.6095   -3860.6084            0    6741.6132    17.033551    20.063273    20.780893    7101.8451    7933.7864    6240.9394    6050.1139    347.27505    164.04758   -1355.7632   -2710.3595 
16201000    261.04532   -3851.1491   -3403.7264   -3851.1491            0    9250.0032    17.035637     20.06573    20.783437    7104.4541     11935.83    7805.0439    8009.1361   -226.25682    946.26554    339.13804   -2445.3226 
16202000    258.63145    -3840.742   -3397.4566    -3840.742            0    8450.8614     17.05758    20.091576    20.810207     7131.942    7030.1866    8708.3457    9614.0518    208.32123    -516.3794     1690.819   -2518.4651 
16203000    253.92098   -3854.7009    -3419.489   -3854.7009            0    8232.9538    16.946251    19.960445    20.674387    6993.2089    8622.1363    8700.3293    7376.3957    65.205656    1214.0552   -930.84977   -2579.8201 
16204000     252.9551   -3857.1453   -3423.5889   -3857.1453            0    7348.5369    17.018638    20.045708    20.762699     7083.208    7535.6155    7661.2124    6848.7828    695.28666   -955.25904      671.318   -2664.4754 
16205000    253.75272   -3874.9559   -3440.0324   -3874.9559            0     6919.684    16.949499    19.964271    20.678349    6997.2302    6892.2625    5997.4738    7869.3156   -707.93285   -1251.4196    310.79013   -2733.8965 
16206000    258.38765   -3887.4123   -3444.5448   -3887.4123            0    8910.3372    16.934753    19.946903     20.66036    6978.9844    10226.905    7976.1777    8527.9293    1053.8736    1230.7581   -946.59075   -2537.6388 
16207000     256.9776    -3861.373   -3420.9222    -3861.373            0    7947.7567    16.963696    19.980993    20.695669    7014.8278    9445.2002    6819.1948     7578.875   -48.741503    30.152254   -876.32169   -2607.8344 
16208000    264.91547   -3854.8272   -3400.7712   -3854.8272            0    8521.4787    17.049448    20.081998    20.800287    7121.7473    7151.1765    8301.0685    10112.191   -677.79399   -213.02238   -762.31845   -2515.7016 
16209000    267.81887   -3859.0839   -3400.0516   -3859.0839            0    8994.7622    16.961117    19.977956    20.692523    7011.6294    8866.1421    10601.628    7516.5167   -269.01999   -289.83759    688.69808   -2480.2704 
16210000    255.63509   -3822.5065   -3384.3567   -3822.5065            0    9772.7917    17.002849     20.02711    20.743436    7063.5117    10727.679    9455.9581    9134.7385    1001.1835    810.36348    108.46981   -2377.6216 
16211000    250.65897   -3864.2965   -3434.6756   -3864.2965            0     6669.435    17.065125    20.100463    20.819412    7141.4101    6634.7663    6349.1974    7024.3414   -771.34766    1316.7769    587.86179    -2740.053 
16212000    262.79881   -3876.2247   -3425.7965   -3876.2247            0    7519.8716     16.98379    20.004661    20.720184    7039.7855    5693.4627    10374.902      6491.25    1789.3505   -171.94242    249.60047    -2653.746 
16213000    282.55068   -3877.5856   -3393.3034   -3877.5856            0    9379.3143    16.936215    19.948624    20.662142    6980.7912    9090.9708    10170.332    8876.6406    173.69111   -1410.9047    237.99558   -2438.4172 
16214000    268.12616   -3889.6169   -3430.0578   -3889.6169            0    5922.2885     17.00973    20.035215    20.751831     7072.091    6260.6311     6884.078    4622.1563   -594.66631    1936.1384   -411.17019   -2819.2378 
16215000    247.78391    -3917.223   -3492.5299    -3917.223            0    6342.6199     17.00933    20.034744    20.751342    7071.5918    7033.2952    4840.1717    7154.3929    1061.7348   -213.70258    1764.6273   -2838.4034 
16216000    264.02186   -3895.7312   -3443.2067   -3895.7312            0    6066.2505    17.036186    20.066377    20.784107    7105.1408    6198.7916    6110.4808     5889.479   -1149.1401    1215.5615    200.77849   -2814.6146 
16217000    250.97456   -3888.8235   -3458.6617   -3888.8235            0     9152.773    16.985047    20.006142    20.721717    7041.3484    10153.798    8303.1085    9001.4128    -395.2197   -321.29348     329.7091   -2518.7557 
16218000    260.19739   -3856.9794     -3411.01   -3856.9794            0     9499.168    17.015827    20.042396    20.759269    7079.6985    8880.8479    10835.103    8781.5531   -1037.4605    834.36384    1012.7049   -2430.2195 
16219000    265.28784   -3856.3022    -3401.608   -3856.3022            0    8291.7983    17.037425    20.067836    20.785618     7106.691    8784.3249    8506.6872    7584.3828   -355.73892    960.80738    2095.1887   -2542.2145 
16220000    254.95581   -3860.5579   -3423.5724   -3860.5579            0    9063.0366    16.942891    19.956488    20.670287    6989.0498    8925.2109    8317.8982    9946.0008    1421.0841    -532.1327   -45.328021   -2499.7941 
16221000    263.49746   -3873.4761   -3421.8504   -3873.4761            0    7630.4648    17.025298    20.053552    20.770824    7091.5269    7248.4642    7464.6133    8178.3171    1011.3585   -213.72025     255.3172   -2632.6876 
16222000    262.97409   -3891.8212   -3441.0926   -3891.8212            0    8839.2224    17.021259    20.048794    20.765896    7086.4807     8819.923    7743.5484    9954.1958   -875.72817   -142.45719   -32.929544   -2527.5674 
16223000    253.81969   -3883.6443   -3448.6061   -3883.6443            0     8105.305    17.063297     20.09831    20.817182    7139.1156    8547.9838     9280.863    6487.0683    775.93319   -548.40668   -150.45195   -2604.7086 
16224000    260.46999   -3859.0147   -3412.5781   -3859.0147            0    7232.8138    17.064024    20.099166    20.818069    7140.0284    7671.8643    8993.6319    5032.9451    853.97601    247.18186   -301.75486   -2659.4252 
16225000     253.3785   -3874.8453   -3440.5632   -3874.8453            0    8783.6253    17.010118    20.035672    20.752304    7072.5748    11246.412    6518.5142    8585.9495    1010.7166   -598.07052   -115.60728   -2534.5652 
16226000    247.67836   -3844.4374   -3419.9252   -3844.4374            0    8196.6437     16.99906    20.022647    20.738813    7058.7904    8364.7435    8620.0505     7605.137    819.42683    646.87368    815.38113   -2576.1199 
16227000    289.51665   -3848.3022   -3352.0806   -3848.3022            0    7871.6999    17.057572    20.091567    20.810198    7131.9327    7919.8469    7749.6669    7945.5859    -428.2328    627.43777     808.2856   -2533.3299 
16228000    278.83353    -3865.175   -3387.2638    -3865.175            0    7130.5702    17.059747    20.094128    20.812851    7134.6609    8405.1291    5676.3173    7310.2641    1043.2643   -82.455545    42.799685   -2645.3158 
16229000    263.26444   -3851.9747   -3400.7484   -3851.9747            0    9256.1422    17.034775    20.064715    20.782386    7103.3764    9338.4737    9555.5086    8874.4443    134.31843   -487.87787    429.82467   -2441.8541 
16230000    263.98705   -3840.9723   -3388.5075   -3840.9723            0    7386.2642     17.04747    20.079668    20.797873    7119.2685    6954.3457    8332.3238    6872.1232   -1231.6373   -527.50883   -187.70697   -2621.6121 
16231000    278.38385   -3854.3898   -3377.2493   -3854.3898            0    8925.4334    17.027556    20.056212    20.773579    7094.3489    9677.3673    7757.3215    9341.6113   -193.91985   -103.18829    614.27842   -2453.7901 
16232000     250.1023   -3831.7862   -3403.1194   -3831.7862            0    9099.5473    17.036276    20.066482    20.784216    7105.2532     10013.46    7883.3866    9401.7952    -1877.898   -280.50243    -1346.366   -2460.1986 
16233000    258.56169   -3857.1337   -3413.9678   -3857.1337            0    10382.541     17.03856    20.069173    20.787003    7108.1118    11745.357    9975.1747    9427.0918   -1270.4459   -696.14024   -79.648461   -2337.6667 
16234000    261.90241   -3843.0891   -3394.1974   -3843.0891            0    8072.2485    17.109635     20.15289    20.873715    7197.4363       5769.7    8758.8389    9688.2065    1571.1633   -994.94238    2413.9984   -2546.8758 
16235000    267.21027   -3916.0048   -3458.0156   -3916.0048            0    7197.0622    17.080164    20.118177     20.83776    7160.3075     6981.364    7979.0899    6630.7326    1291.2365   -1184.5544    1783.1136    -2706.457 
16236000    261.41292   -3886.8151   -3438.7623   -3886.8151            0    9048.9353    17.005926    20.030734     20.74719     7067.347     9889.226    8453.4174    8804.1626    572.18968    775.88899    712.51235   -2506.0884 
16237000    250.88766   -3875.2304   -3445.2176   -3875.2304            0    7526.6383    17.015307    20.041784    20.758635    7079.0496    7360.5358    6644.4142    8574.9649    288.30469   -1110.5147   -717.27337   -2668.1623 
16238000    273.49996   -3893.4658   -3424.6963   -3893.4658            0    8772.9699    17.020619    20.048041    20.765115    7085.6813    9958.8708    7414.4767    8945.5622   -203.46261    2041.7619    814.78884   -2518.1204 
16239000    264.41253   -3898.7694   -3445.5754   -3898.7694            0    8111.1899    17.000735     20.02462    20.740857    7060.8773    6280.8682    8988.2923    9064.4094   -474.37774   -1021.8353    180.31049   -2610.3203 
16240000    257.85438   -3872.7702   -3430.8166   -3872.7702            0    8622.1874    17.021181    20.048703    20.765801    7086.3833     8512.881    9672.9401    7680.7412    1715.5763   -679.02923   -282.01182   -2539.7339 
16241000    242.56587   -3872.2145   -3456.4649   -3872.2145            0    9068.4427    16.981561    20.002035    20.717464    7037.0135     8728.378    9865.2006    8611.7496    1032.2753   -1438.0585   -2870.3187   -2525.7922 
16242000    256.01803   -3847.3068   -3408.5007   -3847.3068            0    7993.8705    17.066623    20.102228     20.82124    7143.2915    6674.8286    8096.5282    9210.2546    613.74729   -1086.7887    593.20531   -2575.7186 
16243000    270.87293   -3825.7759   -3361.5089   -3825.7759            0    7924.2472    16.993317    20.015883    20.731807    7051.6387    6484.1231    9373.8428    7914.7759   -299.68795   -486.23394    385.90522   -2546.5721 
16244000    266.29743    -3837.016   -3380.5914    -3837.016            0    10404.078    16.963128    19.980324    20.694976    7014.1234    9279.1804    12217.911    9715.1435    -324.5095    309.82002    1.8039949   -2316.3187 
16245000    272.44717   -3857.5722   -3390.6071   -3857.5722            0    5060.2863    17.122589    20.168148    20.889518     7213.796    4802.5328    4462.4701    5915.8559    644.59072    912.76199      159.306   -2858.2355 
16246000    254.09332   -3854.1177   -3418.6104   -3854.1177            0    7239.1039    17.045618    20.077486    20.795614    7116.9483    5491.2313    8754.5639    7471.5166    958.17525   -687.27865   -641.71084   -2667.2393 
16247000    250.81771   -3843.9454   -3414.0525   -3843.9454            0    7394.7581    17.017148    20.043953    20.760881    7081.3482    8318.4637    6462.1737    7403.6369    573.22599   -240.58731    31.021879   -2650.3647 
16248000     282.5041   -3860.8095   -3376.6072   -3860.8095            0    8294.0133    16.995336    20.018261     20.73427    7054.1529    7303.7874    10147.231    7431.0218    651.46221    595.61454   -610.77023   -2523.3391 
16249000     252.2727   -3880.0418    -3447.655   -3880.0418            0    6998.0297    17.021572    20.049164    20.766278    7086.8723    6703.2472    6978.6302    7312.2116   -541.03479    -128.7804    46.701576   -2724.3753 
16250000     271.3324   -3851.8631   -3386.8087   -3851.8631            0    7285.2756    17.045798    20.077699    20.795834    7117.1743    6825.9535    8236.1714     6793.702    350.33477    1876.7357   -1410.3249   -2630.6212 
Loop time of 419.237 on 64 procs for 250000 steps with 864 atoms

Performance: 103.044 ns/day, 0.233 hours/ns, 596.321 timesteps/s
99.1% CPU use with 64 MPI tasks x 1 OpenMP threads

MPI task timing breakdown:
Section |  min time  |  avg time  |  max time  |%varavg| %total
---------------------------------------------------------------
Pair    | 21.409     | 26.868     | 31.435     |  48.2 |  6.41
Bond    | 0.27574    | 0.28336    | 0.2949     |   0.8 |  0.07
Kspace  | 177.89     | 186.55     | 196.6      |  30.2 | 44.50
Neigh   | 4.964      | 5.6654     | 6.6363     |  17.5 |  1.35
Comm    | 87.261     | 95.744     | 102.32     |  35.1 | 22.84
Output  | 0.88162    | 0.88324    | 0.89613    |   0.2 |  0.21
Modify  | 97.201     | 98.81      | 100.04     |   7.1 | 23.57
Other   |            | 4.434      |            |       |  1.06

Nlocal:        13.5000 ave          20 max           9 min
Histogram: 7 8 11 5 11 8 6 5 2 1
Nghost:        2235.33 ave        2260 max        2205 min
Histogram: 3 3 6 5 13 7 4 10 7 6
Neighs:        4335.34 ave        6492 max        2484 min
Histogram: 2 5 9 11 11 10 5 5 3 3

Total # of neighbors = 277462
Ave neighs/atom = 321.13657
Ave special neighs/atom = 2.0000000
Neighbor list builds = 14054
Dangerous builds = 0

unfix		3
unfix		2
unfix		1

write_data	data.final.${pid}
write_data	data.final.0
System init for write_data ...
PPPM initialization ...
  extracting TIP4P info from pair style
  using 12-bit tables for long-range coulomb (../kspace.cpp:340)
  G vector (1/distance) = 0.37391797
  grid = 24 24 24
  stencil order = 5
  estimated absolute RMS force accuracy = 0.0032004322
  estimated relative force accuracy = 9.6380066e-06
  using double precision FFTW3
  3d grid and FFT values/proc = 2535 216
Last active /omp style is kspace_style pppm/tip4p/omp
WARNING: Not all mixed pair coeffs generated from mixing. Use write_data with 'pair ij' option to store all pair coeffs. (../write_data.cpp:312)

write_restart   restart.lmp.${pid}
write_restart   restart.lmp.0
System init for write_restart ...
PPPM initialization ...
  extracting TIP4P info from pair style
  using 12-bit tables for long-range coulomb (../kspace.cpp:340)
  G vector (1/distance) = 0.37391797
  grid = 24 24 24
  stencil order = 5
  estimated absolute RMS force accuracy = 0.0032004322
  estimated relative force accuracy = 9.6380066e-06
  using double precision FFTW3
  3d grid and FFT values/proc = 2535 216
Last active /omp style is kspace_style pppm/tip4p/omp
Total wall time: 0:07:02
