LAMMPS (30 Jul 2021)
  using 1 OpenMP thread(s) per MPI task
package omp 0
using multi-threaded neighbor list subroutines
echo both

include		in.partitions
variable        pid world 0
include		in.temp
variable        temperature equal 243.16
variable	tempDamp equal 100.0
include		in.pressure
variable        pressure equal 4250.0
variable        pressureDamp equal 1000.0 # This is 1 ps
include		in.seed
variable        seed world 745823

units		real
atom_style	full
read_restart    restart.lmp.${pid}
read_restart    restart.lmp.0
Reading restart file ...
  restart file = 30 Jul 2021, LAMMPS = 30 Jul 2021
  restoring atom style full from restart
  triclinic box = (-3.2684352 -0.21476066 -0.14474084) to (14.878434 22.794760 19.374739) with tilt (-0.39560115 -7.0699702 0.17490384)
  4 by 4 by 4 MPI processor grid
  restoring pair style lj/cut/tip4p/long/omp from restart
  restoring bond style harmonic/omp from restart
  restoring angle style harmonic/omp from restart
  1008 atoms
  672 bonds
  336 angles
Finding 1-2 1-3 1-4 neighbors ...
  special bond factors lj:    0        0        0       
  special bond factors coul:  0        0        0       
     2 = max # of 1-2 neighbors
     1 = max # of 1-3 neighbors
     1 = max # of 1-4 neighbors
     2 = max # of special neighbors
  special bonds CPU = 0.006 seconds
  read_restart CPU = 0.031 seconds

include 	in.setup
variable	out_freq equal 1000
variable	out_freq2 equal 10000
variable	out_freq3 equal 1000

timestep	2.0

neigh_modify    delay 7 every 1

include		in.tip4p
# This is TIP4P/Ice

# create groups ###
group ox type 2
336 atoms in group ox
group hy type 1
672 atoms in group hy

# set charges - beside manually ###
set group ox charge -1.1794
Setting atom values ...
  336 settings made for charge
set group hy charge 0.5897
Setting atom values ...
  672 settings made for charge

# ### TIP3P Potential Parameters ###
pair_style lj/cut/tip4p/long/omp 2 1 1 1 0.1577 8.5
pair_coeff 1 1*2 0.000 0.000
pair_coeff 2 2 0.21084 3.1668
bond_style  harmonic
bond_coeff  1 450 0.9572
angle_style harmonic
angle_coeff 1 55 104.52
kspace_style pppm/tip4p/omp 1.0e-5
pair_modify tail yes

thermo          ${out_freq}
thermo          1000
thermo_style    custom step temp pe etotal epair emol press lx ly lz vol pxx pyy pzz pxy pxz pyz enthalpy

restart 	${out_freq3} restart.lmp.${pid} restart2.lmp.${pid}
restart 	1000 restart.lmp.${pid} restart2.lmp.${pid}
restart 	1000 restart.lmp.0 restart2.lmp.${pid}
restart 	1000 restart.lmp.0 restart2.lmp.0


include         in.dump
dump            myDump all atom ${out_freq2} dump.water.${pid}
dump            myDump all atom 10000 dump.water.${pid}
dump            myDump all atom 10000 dump.water.0
dump            myDump2 all dcd ${out_freq2} dump.dcd
dump            myDump2 all dcd 10000 dump.dcd
dump_modify     myDump append yes
dump_modify     myDump2 append yes


variable natoms 	equal  "count(all)"                        # NUMBER ATOMS
variable H      	equal  "enthalpy/v_natoms"                 # ENTHALPY-per-atom
variable Vol      	equal  "vol/v_natoms"                 # volume-per-atom
fix AVG all 		ave/time ${out_freq} 1 ${out_freq} v_Vol v_H file vol_enthalpy.dat
fix AVG all 		ave/time 1000 1 ${out_freq} v_Vol v_H file vol_enthalpy.dat
fix AVG all 		ave/time 1000 1 1000 v_Vol v_H file vol_enthalpy.dat



fix 		1 all shake 1e-6 200 0 b 1 a 1
       0 = # of size 2 clusters
       0 = # of size 3 clusters
       0 = # of size 4 clusters
     336 = # of frozen angles
  find clusters CPU = 0.022 seconds
fix             2 all nph tri ${pressure} ${pressure} ${pressureDamp}
fix             2 all nph tri 4250 ${pressure} ${pressureDamp}
fix             2 all nph tri 4250 4250 ${pressureDamp}
fix             2 all nph tri 4250 4250 1000
fix             3 all temp/csvr ${temperature} ${temperature} ${tempDamp} ${seed}
fix             3 all temp/csvr 243.16 ${temperature} ${tempDamp} ${seed}
fix             3 all temp/csvr 243.16 243.16 ${tempDamp} ${seed}
fix             3 all temp/csvr 243.16 243.16 100 ${seed}
fix             3 all temp/csvr 243.16 243.16 100 745823


run             250000
PPPM initialization ...
  extracting TIP4P info from pair style
  using 12-bit tables for long-range coulomb (../kspace.cpp:340)
  G vector (1/distance) = 0.38312923
  grid = 24 30 36
  stencil order = 5
  estimated absolute RMS force accuracy = 0.0019530133
  estimated relative force accuracy = 5.8814417e-06
  using double precision FFTW3
  3d grid and FFT values/proc = 4320 480
Last active /omp style is kspace_style pppm/tip4p/omp
Neighbor list info ...
  update every 1 steps, delay 7 steps, check yes
  max neighbors/atom: 2000, page size: 100000
  master list distance cutoff = 10.8154
  ghost atom cutoff = 10.8154
  binsize = 5.4077, bins = 5 5 4
  1 neighbor lists, perpetual/occasional/extra = 1 0 0
  (1) pair lj/cut/tip4p/long/omp, perpetual
      attributes: half, newton on, omp
      pair build: half/bin/newton/tri/omp
      stencil: half/bin/3d/tri
      bin: standard
Per MPI rank memory allocation (min/avg/max) = 9.351 | 9.360 | 9.366 Mbytes
Step Temp PotEng TotEng E_pair E_mol Press Lx Ly Lz Volume Pxx Pyy Pzz Pxy Pxz Pyz Enthalpy 
 1250000    253.28445    -4852.404   -4345.8038    -4852.404            0    3802.1585    18.146869     23.00952     19.51948    8150.3736    4063.0637    3601.3574    3742.0545    414.06893    627.37651   -988.07932   -3893.8609 
 1251000    240.02548   -4854.2693   -4374.1887   -4854.2693            0    3907.7621     18.19974    23.014967     19.32386     8094.116    4390.8218    3379.0826    3953.3819    704.68956    212.26674   -58.770845   -3912.8994 
 1252000    240.35449   -4852.6625   -4371.9238   -4852.6625            0    3503.6839    18.275033    22.843222    19.492614    8137.3988    3411.2722    3518.5087    3581.2708    551.27121   -2208.7434   -535.15353    -3956.122 
 1253000     234.0583   -4846.1822   -4378.0367   -4846.1822            0    4087.3868    18.066297     22.85845    19.612523    8099.3353     3688.682    4279.3268    4294.1516   -624.20725     430.2064   -646.63475   -3895.2326 
 1254000    227.17171   -4869.9679   -4415.5964   -4869.9679            0     3802.838     18.22234    22.790175    19.518783    8105.9611    2070.3244    4045.2686     5292.921   -494.81551   -448.70201    301.78134   -3966.0359 
 1255000    246.02779   -4864.4319    -4372.346   -4864.4319            0    4241.0625      18.1753    22.779254    19.473037    8062.2225    5450.4906     4048.079    3224.6179   -752.10033   -604.47901    110.61495    -3873.685 
 1256000    246.36944   -4848.3024   -4355.5331   -4848.3024            0    4176.5077    18.060959    22.971857    19.469154    8077.6305    5866.1344    2325.2873    4338.1015    278.39014   -1304.4738   -64.827364    -3863.524 
 1257000    255.68751   -4885.8155   -4374.4089   -4885.8155            0    5441.2707    18.134032    22.968485    19.320234    8047.0946    4703.0944    4818.4962    6802.2216    364.87777    247.46256    1207.9194   -3735.8288 
 1258000    239.03287   -4838.4237   -4360.3284   -4838.4237            0    3469.4024    18.193384    22.905602    19.528708    8138.2068     2870.633    3294.4292    4243.1451    119.57679     1381.683    1701.2837   -3948.5541 
 1259000    259.57801   -4851.0515   -4331.8635   -4851.0515            0     4738.823     18.32399    22.905114    19.204519    8060.3878    2149.1824    5572.6324    6494.6542    116.28716    730.66184    635.66378    -3774.803 
 1260000    244.47973   -4841.0192   -4352.0295   -4841.0192            0    4988.3339    18.043796    22.893045    19.542938    8072.7462    2331.0692    6136.7748    6497.1579    34.179852   -72.512425    2111.2985   -3764.7394 
 1261000    242.36373   -4857.7804    -4373.023   -4857.7804            0    5272.4472    18.117417    22.792502    19.482125    8044.9737    2782.8926     5996.449    7038.0001   -527.64592    497.29348   -2543.8806   -3754.4189 
 1262000    244.13709   -4810.9584   -4322.6541   -4810.9584            0    3692.4499    18.291075     22.97611    19.326348    8122.0476    3475.8231    3729.2272    3872.2993   -94.169644    743.11039    1193.0442    -3885.277 
 1263000    256.74098   -4845.7099   -4332.1963   -4845.7099            0    5351.6687    18.084198    22.893645    19.484882    8066.9982    4982.6648    5962.2113    5110.1299   -585.76215    766.09493   -869.46415   -3702.5784 
 1264000    245.54209   -4866.7982   -4375.6837   -4866.7982            0    3831.5434     18.16211    23.011923    19.385994    8102.2806    4899.9871    3314.4848    3280.1582    200.62654   -947.62652    1222.5485   -3922.9353 
 1265000    244.09287   -4850.0542   -4361.8383   -4850.0542            0    4939.5131     17.94586    22.914618    19.548683    8038.8585    5185.2719    5352.8607    4280.4069   -631.34196   -259.00674    564.57891   -3782.7372 
 1266000    239.14242    -4831.116   -4352.8016    -4831.116            0    4534.0717    18.241925    23.007761    19.282235    8092.8666    2857.3445     4617.465    6127.4055   -13.294613    632.84162   -26.979099   -3817.6626 
 1267000    245.27159   -4859.5053   -4368.9318   -4859.5053            0    2996.5321    17.984193    23.069692    19.541528    8107.5805    2831.2288    4058.9145    2099.4532   -675.23646    99.789803    683.99072   -4014.6196 
 1268000    242.20422   -4879.9665   -4395.5282   -4879.9665            0    3050.4239    18.218815    22.961742     19.40777     8118.964    3154.8591    3102.7983    2893.6142    353.12108    -90.13843    1511.3209   -4034.3374 
 1269000    251.40512   -4869.5591   -4366.7178   -4869.5591            0    4298.0682     18.13716    22.855576    19.551309    8104.7064    3558.0962    4151.1471    5184.9614   -856.67688   -611.01603    537.89382   -3858.6912 
 1270000    253.09638   -4863.5566   -4357.3325   -4863.5566            0    6094.0133    18.192551    22.774215    19.399613    8037.6683     5721.112    6005.6812    6555.2468   -1393.0113    -1732.444    368.01805   -3642.9853 
 1271000     242.5353   -4874.9651   -4389.8646   -4874.9651            0    1815.7318    18.021467    23.142956    19.551823     8154.479    2830.6955    574.02486    2042.4751   -840.38611    181.72928    1643.5099   -4173.9292 
 1272000    244.82905   -4857.2293    -4367.541   -4857.2293            0    5605.2944    17.957519    23.124739    19.347586    8034.3356    5654.9212     5474.155    5686.8069   -80.600175    -78.08511     -115.785   -3710.7544 
 1273000    241.18903   -4883.1926   -4400.7847   -4883.1926            0    2957.8994    18.249674    23.115527    19.241164    8116.9009      2722.72    2177.2266    3973.7515   -913.68576   -29.960309    -95.71586   -4050.6385 
 1274000    247.10714   -4815.2862   -4321.0414   -4815.2862            0    5617.1603    17.962596    23.138918    19.411273    8068.0055    6613.4891    5792.9956    4444.9961    1131.3529    1010.6748    465.60281   -3660.1062 
 1275000    256.39143   -4856.6224   -4343.8079   -4856.6224            0    3923.3314    17.929217    23.280861    19.345051    8074.7714     3806.659    3818.4932    4144.8421    231.11619    799.43388   -126.05981   -3881.7875 
 1276000    247.91676   -4849.8421    -4353.978   -4849.8421            0    3047.0377    18.092255    23.205039    19.344723    8121.5235    3426.5752     2237.345    3477.1928   -5.5918287    470.15461   -207.14151   -3993.0744 
 1277000    248.75096   -4826.0389   -4328.5062   -4826.0389            0     4559.073    18.187537    22.688166     19.61628    8094.4982    3421.9138    5374.9851      4880.32   -402.30934    257.19907    1080.4518   -3790.3079 
 1278000    229.34461   -4841.8648   -4383.1473   -4841.8648            0    4417.3506    18.245896    22.665534    19.522999    8073.7946    2843.1043    5255.2667    5153.6807   -15.447804    1008.5814   -1440.3799    -3863.013 
 1279000    245.70762   -4852.7879   -4361.3423   -4852.7879            0    4279.8961    18.283373    22.443243    19.688428    8078.9137    4218.6705     4692.596    3928.4219     925.7167   -858.68579    -522.9165   -3857.0735 
 1280000    250.89641   -4840.1872   -4338.3633   -4840.1872            0    3741.1118    18.186691    22.854459    19.494947    8103.0162     3359.162     3288.249    4575.9244   -1499.2921     329.9407   -1676.1073   -3896.2605 
 1281000    240.53846   -4822.7235   -4341.6169   -4822.7235            0    3259.7907    18.165002    23.030402    19.561938    8183.6841    5715.3733    1868.2372    2195.7616    1488.4679   -350.40178    1123.5244   -3952.5588 
 1282000    247.50895   -4853.8224   -4358.7739   -4853.8224            0    4256.8926    18.123285    22.995681    19.411877    8090.0411    4219.8562    4749.0657    3801.7559   -490.32607    1563.9466   -1719.5729   -3856.5247 
 1283000    243.48934   -4852.4295   -4365.4208   -4852.4295            0    4910.0032    18.110379    22.940592    19.417432    8067.2208    5331.7988    4982.4202    4415.7905    159.60004    1056.4158    836.31288   -3787.7484 
 1284000    243.07006   -4882.2093   -4396.0391   -4882.2093            0    4764.0961    18.117213    22.786852    19.478219     8041.276    3750.1772     5422.803    5119.3082    -72.64769    -2039.722   -980.39114   -3837.3356 
 1285000    249.75661   -4897.0808   -4397.5367   -4897.0808            0    5094.3548    18.158271    22.861918    19.331374    8025.0896     4394.819    5636.2182    5252.0272     306.5875   -471.21192   -678.69432   -3801.3052 
 1286000    249.63532   -4891.2391   -4391.9376   -4891.2391            0     4806.366    18.203808    22.894145    19.332676    8057.0979     5167.577    4217.8004    5033.7208   -1738.3466    291.32961   -1605.9975    -3827.168 
 1287000    244.68286   -4847.3902   -4357.9942   -4847.3902            0    4729.0482    17.993711    23.106932    19.398176     8065.363    4046.3862    5150.0578    4990.7007    2352.8336      606.767    15.476176   -3801.7397 
 1288000     240.8655   -4851.4278   -4369.6671   -4851.4278            0    3806.6277    18.043313     23.14223    19.372784    8089.3483    5832.0842    1930.9857    3656.8131   -847.51343   -1448.0589   -2032.6603   -3920.5807 
 1289000    240.63395   -4856.0895   -4374.7919   -4856.0895            0    4714.0874     18.01158    23.016219    19.466843    8070.1444    5177.6463    4877.7414    4086.8746   -419.58076    234.34575   -1958.4969   -3819.9684 
 1290000     237.4368   -4836.2077   -4361.3048   -4836.2077            0    2408.6246    18.243851    23.088868    19.367364    8158.1121    2937.1826    1384.9613    2903.7298   -141.18271   -1413.0072   -1586.5357   -4074.7322 
 1291000    251.16223   -4867.7731   -4365.4176   -4867.7731            0    3346.5791    18.046526    22.956829    19.600072    8120.1336    3363.7968    3777.8769    2898.0636    1203.9266   -587.28197    1910.9656    -3969.103 
 1292000    248.96992   -4864.9805   -4367.0099   -4864.9805            0    5574.9376    18.201989    22.813192    19.382669    8048.5657    5775.6289    6169.9892    4779.1947    442.20122   -294.11388   -581.54946   -3712.6233 
 1293000    260.69503   -4864.7345   -4343.3123   -4864.7345            0    3836.9162    18.139203    22.731572    19.664762    8108.4225    5000.9658     4211.032    2298.7509   -137.75684    37.717238    278.28201   -3889.5853 
 1294000    246.83144    -4890.276   -4396.5826    -4890.276            0    4393.5132    18.303309    22.709411    19.407663    8066.9383    2905.3414    4976.6545    5298.5436    1059.7022   -167.47263    1268.2686   -3879.6945 
 1295000    242.90572   -4885.4045    -4399.563   -4885.4045            0    3879.9943    18.139533    22.787513    19.593637    8099.1246    2626.8406    5304.8274     3708.315   -720.86457     734.7064   -417.33852   -3941.2681 
 1296000    243.91178   -4876.2696   -4388.4159   -4876.2696            0    4638.6956    18.236381    22.856338    19.337547    8060.2165    4166.5387    4617.4507    5132.0973    102.45237    -35.94159    1120.2675   -3843.1373 
 1297000    234.90398   -4836.1761   -4366.3391   -4836.1761            0    5256.4326     18.07008    22.937596    19.484325    8075.9448    5345.5294    5244.9703     5178.798    1177.7386   -1033.7096    457.07249   -3747.2398 
 1298000    244.71363   -4875.0492   -4385.5917   -4875.0492            0    3949.8018    18.001101    23.026237    19.435297    8055.8843    3986.3605    4476.6122    3386.4328   -1546.8427   -397.64377    750.86401   -3921.5421 
 1299000     242.1517   -4834.6311   -4350.2978   -4834.6311            0    5021.2336    18.139757    22.990668    19.365299    8076.2037    4551.9314    5025.5315     5486.238   -224.62155   -283.25687    720.79929   -3758.8811 
 1300000    241.39342   -4870.8955   -4388.0788   -4870.8955            0    4565.4876    18.029496     23.15295    19.379313    8089.6232    5088.3556    3922.7663     4685.341   -2026.1777    930.64133    599.37676   -3849.4478 
 1301000    261.42413   -4832.4339   -4309.5533   -4832.4339            0    4576.6875    18.049588    23.231335    19.348986    8113.3397    5723.7599    2994.6202    5011.6825   -481.14176    991.33692   -353.30784   -3768.0179 
 1302000    241.61418   -4869.4355   -4386.1773   -4869.4355            0    5541.6863    17.861473    23.094263    19.484157    8037.1671    6346.4052    5145.9775    5132.6761    308.96967   -137.39179    111.84891   -3736.6149 
 1303000    238.92798   -4879.8345    -4401.949   -4879.8345            0    3603.8449    18.127229    23.059831    19.338394    8083.6586    3953.7958    3079.4826    3778.2563   -594.83757   -1499.7774   -102.04086    -3977.085 
 1304000    251.73513   -4848.6479   -4345.1465   -4848.6479            0     2899.503    18.121461    23.041861    19.442143    8118.1093    1497.6129    3700.8655    3500.0306    970.65825    -28.48694    -199.3761   -4001.8619 
 1305000     248.7254   -4848.4826    -4351.001   -4848.4826            0    4788.1812    18.131329    23.004632    19.377191    8082.3144    5522.4756    4643.0636    4199.0043   -524.39041    40.112825   -1575.2059   -3786.6073 
 1306000    260.02985   -4848.4736   -4328.3818   -4848.4736            0    4531.7622    18.117523    23.105712    19.335681    8094.2691    5353.8818    4246.4726    3994.9324   -1398.2753    475.14069   -1861.9013   -3793.4226 
 1307000    227.31249   -4855.3432   -4400.6902   -4855.3432            0    3367.0062    18.026784    23.303729    19.293934    8105.2137    4138.3606    1409.0595    4553.5984    1741.4658   -1608.0913    188.52778   -4002.6891 
 1308000    244.23909   -4858.9212   -4370.4129   -4858.9212            0    4032.9002    18.125199    22.875454    19.480566    8077.0744     5294.722    4015.9021    2788.0765   -225.00479   -1297.3576   -393.40937    -3895.354 
 1309000    236.29883   -4843.9633   -4371.3364   -4843.9633            0    1882.3765    18.178981    22.869435    19.635182    8163.1898    2449.8557    2557.9525    639.32127   -73.478349   -2361.2383   -17.211526   -4147.2362 
 1310000    244.40399   -4852.2601   -4363.4219   -4852.2601            0    5240.2198    18.227001     22.65935    19.439988    8028.9483    4624.0987     5828.225    5268.3356    898.00117   -496.28195   -889.83244   -3749.8238 
 1311000     251.3915   -4847.6298   -4344.8157   -4847.6298            0    3857.5347    18.144681    22.888237    19.574863     8129.436    4893.6009    3738.4204    2940.5828    92.217935    1124.5262   -846.68426   -3887.4684 
 1312000    265.81087   -4849.6324   -4317.9778   -4849.6324            0    4472.4764    18.154861    22.974199     19.43119     8104.621     5182.732     3702.094    4532.6033   -1033.6581    28.844094    -1663.416   -3789.3419 
 1313000    252.02883   -4847.6513   -4343.5626   -4847.6513            0    3317.8784    18.210196    23.057268    19.391422    8142.0193    2354.1155    2716.5693    4882.9504   -279.70824    77.387347    387.95212   -3949.5877 
 1314000    237.78999   -4848.9919   -4373.3826   -4848.9919            0     2251.728    18.088924    23.130412    19.496853    8157.5665     2780.798    564.72512     3409.661    730.03222   -1804.7522   -5.2386147   -4105.4951 
 1315000    244.41146   -4882.7227   -4393.8696   -4882.7227            0    5271.5881    17.990614    22.934543     19.49169    8042.3984    4916.3258    5935.6133    4962.8252    178.22299    241.46086   -155.67368   -3775.5644 
 1316000    250.42892   -4827.9593   -4327.0705   -4827.9593            0    4431.0546    18.308409    22.866916    19.338586    8096.2312    3817.7512    3231.2569    6244.1557   -316.35274   -191.05265   -487.44452   -3803.8727 
 1317000    234.16025   -4843.6057   -4375.2563   -4843.6057            0     4259.824    18.063775    22.952298    19.579114    8117.6016    3680.4132    4871.3964    4227.6624   -515.80905    552.02647   -87.657615   -3870.9489 
 1318000    242.52665   -4846.6663    -4361.583   -4846.6663            0    4289.9367    18.198408    22.895359    19.428801    8095.1862    3567.0856    4218.0353    5084.6892   -226.75906   -78.901222   -272.40749   -3855.1132 
 1319000    229.70279   -4861.7108   -4402.2769   -4861.7108            0    3526.6375    18.210724    22.712664    19.589682    8102.5678    2327.9462    5069.6134     3182.353   -944.86938   -1707.4536    -1108.905   -3985.5424 
 1320000    246.72145   -4852.8187   -4359.3453   -4852.8187            0    5051.4345    18.042676    22.868921    19.532497    8059.4314    6386.1839    4066.2617    4701.8578    958.90524    415.12243    826.42992   -3765.6071 
 1321000    239.40518   -4842.5346   -4363.6946   -4842.5346            0    5262.7935    18.266393    22.882346    19.273518    8055.9051    3561.7341    5791.8965      6434.75   -296.28613    834.93702    738.71919   -3745.3842 
 1322000    255.38614   -4826.6054   -4315.8016   -4826.6054            0    3497.5627    18.143475    22.925455    19.593638    8149.9232    3614.0414    4206.3176    2672.3291   -438.64068    2242.5858    2056.2529   -3900.0873 
 1323000    237.64037    -4889.582   -4414.2718    -4889.582            0    3751.4444    18.188659    23.001965    19.324676    8084.9596    3052.9228    4245.5674    3955.8429   -905.91175   -905.18299   -936.55675   -3971.9359 
 1324000    233.35931   -4871.4874   -4404.7399   -4871.4874            0    3397.9115    17.998414    23.016907    19.538027    8093.9761     3556.327    3748.2135    2889.1938   -657.82178   -220.31787    759.46805   -4003.6425 
 1325000    243.08582   -4862.7865   -4376.5848   -4862.7865            0     6532.404    18.226169    22.843539    19.235079     8008.529    4755.3165    6755.8195    8086.0759   -760.26629    564.18431   -961.01472    -3613.625 
 1326000     240.9576   -4849.1092   -4367.1642   -4849.1092            0    3732.7841      18.1807    22.930818    19.515146    8135.8316    2643.1947    2718.3955     5836.762    199.68315   -25.387609    898.56185   -3924.2591 
 1327000    239.71513   -4885.8036   -4406.3438   -4885.8036            0    5159.0395    18.131506    22.946109    19.277367    8020.3007    4836.5664    5214.0692    5426.4828   -1882.3669    373.22819   -615.51371    -3802.902 
 1328000    254.03105   -4832.7346   -4324.6412   -4832.7346            0    3729.0338    18.072844    23.160773    19.331817    8091.9324    3184.4472    3458.7027    4543.9514     796.1868    284.26885    1765.8266   -3884.5684 
 1329000    233.44583   -4854.8468   -4387.9263   -4854.8468            0    3720.8409    18.020018    23.127548     19.48529    8120.6667    4427.7839    3724.7024    3010.0362    528.10621   -630.37482      1625.46   -3947.2612 
 1330000    251.75676    -4848.029   -4344.4844    -4848.029            0    3520.2531    18.108483    23.170195    19.397281    8138.6545    3231.5489    2735.4199    4593.7906   -475.34837   -1747.2941    95.004211   -3926.6517 
 1331000     258.1527   -4876.7154   -4360.3782   -4876.7154            0    4192.1116    18.033589    22.874926    19.557442    8067.7777    3729.9619    4512.1509    4334.2222    842.15576    1262.4784    1324.0305   -3867.1332 
 1332000    237.84984   -4875.8486   -4400.1196   -4875.8486            0    3669.0012    18.293251    22.872062    19.375865    8106.9464    1263.4776    3987.6342    5755.8917    240.14706    303.79186    734.59119    -3966.328 
 1333000    247.86762   -4848.1069    -4352.341   -4848.1069            0     6016.398    18.119756    22.747664    19.589767    8074.5514    4719.1736    6751.9076    6578.1127   -73.087922    2106.4194   -1154.2295   -3643.8557 
 1334000    252.20618   -4834.9757   -4330.5322   -4834.9757            0    3957.0682    18.378574    22.756825    19.427028    8125.1212    3375.4953    3945.5226    4550.1867   -16.467022   -711.78792   -750.53416   -3861.6332 
 1335000     244.8821   -4874.7165    -4384.922   -4874.7165            0    5798.0183    17.990465    22.922452    19.413075    8005.6722    6478.3513    5075.8432    5839.8604    919.19711   -328.39819    365.64254   -3707.9772 
 1336000    245.43416    -4873.433   -4382.5344    -4873.433            0    3928.5604    18.125995    23.021232    19.328735    8065.5474    5356.9535    2985.3903    3443.3373    773.38387    -1364.861   -365.62605   -3920.4268 
 1337000     225.7312   -4833.8919   -4382.4016   -4833.8919            0    5055.3357    17.929248    23.187746    19.406855    8068.1834    6859.3679     3820.575    4486.0641    585.89623    35.844647   -549.75122   -3787.5596 
 1338000    245.36187   -4860.7697   -4370.0156   -4860.7697            0    1683.6901    18.210964     23.30091     19.21916    8155.3056     639.8603    1479.5893    2931.6208    573.02479    35.179831    1582.9503    -4169.763 
 1339000    228.87372   -4873.2302   -4415.4544   -4873.2302            0    5288.7706     17.89471    22.891194    19.628452    8040.4276    6930.1586    5764.5886    3171.5646   -1252.6136    106.41819    6.0811447   -3795.2859 
 1340000    237.46334    -4852.476   -4377.5199    -4852.476            0    5457.4972    18.143667    23.069956    19.186606    8031.0068    5248.1964    5184.1437    5940.1514    726.40995    1449.1296   -1217.6852   -3738.3161 
 1341000    238.53663   -4860.5359   -4383.4332   -4860.5359            0     3246.722    18.097108    23.062568    19.369413    8084.1304    3432.3318    2401.6567    3906.1776    403.26162   -1067.7401    571.30797   -4000.6487 
 1342000    249.38271   -4878.0268   -4379.2306   -4878.0268            0    4286.0467    17.966553    22.998604     19.52582    8068.1789    4603.7377    3630.3452    4624.0572    842.24931   -841.72749   -23.750063   -3874.9082 
 1343000    254.16108   -4857.0223   -4348.6687   -4857.0223            0     5218.803    18.221176    22.862247    19.283224    8032.9482    4222.7194    5463.0877    5970.6019   -776.27792    484.69964    651.22162   -3737.2739 
 1344000    247.64014   -4863.6259    -4368.315   -4863.6259            0    4037.4844    17.992128    22.807559    19.731063    8096.7706    3484.8797    4557.7736    4069.7999    537.59355    830.60053    2103.6708   -3891.5564 
 1345000    237.26075   -4885.6681   -4411.1173   -4885.6681            0    4194.8586    18.272446    22.839623    19.328469    8066.4614    2861.0814     4390.724    5332.7706   -779.76326    569.16894    931.28593   -3917.6297 
 1346000    254.15333   -4860.0673   -4351.7293   -4860.0673            0    5312.5023    18.108229    22.941596    19.369794    8046.8261    4224.5752    5812.8479    5900.0839    1767.3731    793.32738    264.24325   -3728.2821 
 1347000    244.89749   -4856.6192   -4366.7939   -4856.6192            0    2679.2208    17.939091    23.375723    19.342635    8111.1253    3291.6182    1008.8656    3737.1786    43.461636   -2740.2246    383.10801   -4049.8624 
 1348000     238.4023   -4850.4068   -4373.5727   -4850.4068            0    3255.8761    18.004912    23.269209    19.375098    8117.3923    4150.0889    2604.4504    3013.0888   -688.86185    -1003.417     1213.777   -3988.1296 
 1349000    232.17189   -4845.6927   -4381.3202   -4845.6927            0    4210.8858    18.205322    23.089205     19.26658    8098.6381    2635.5555    3863.3466    6133.7552    454.72337   -157.44424   -1045.5524   -3883.9711 
 1350000    237.79087   -4843.9026   -4368.2915   -4843.9026            0    6681.9499    17.979861    22.875033    19.508866    8023.7999    7440.6249    7300.9334    5304.2914   -328.34502    841.60447   -1151.9828   -3586.3772 
 1351000    241.83923   -4893.5809   -4409.8726   -4893.5809            0    4781.2119    18.228416    22.824211     19.43655    8086.5612    5244.9379    4155.2089     4943.489    1335.3799    222.56987   -727.62888   -3846.0042 
 1352000    238.86624   -4844.9023   -4367.1403   -4844.9023            0    4830.5724    18.100027    22.843201    19.558769    8086.8186    3703.7329    5998.8949    4789.0893     793.8166    318.42603    374.15677   -3797.4325 
 1353000    253.11527   -4854.4804   -4348.2186   -4854.4804            0    3469.3402    18.107832    22.822939    19.577679    8090.9445    3739.2501    4886.4232    1782.3471   -50.991666   -1297.3203   -2259.4794    -3938.843 
 1354000    242.78432   -4836.9185   -4351.3199   -4836.9185            0    4618.9768    18.220478    22.808865    19.454206    8084.9426    3087.2915    5425.8071     5343.832    965.82212   -323.02751   -1636.4393   -3806.6936 
 1355000    248.14539    -4824.602   -4328.2805    -4824.602            0    4497.2535     18.13814    22.838238    19.526906    8088.8874    3288.9568    4974.3434    5228.4602   -156.34078      546.098   -1092.0444   -3797.7479 
 1356000    231.56207   -4867.6151   -4404.4623   -4867.6151            0     1831.186    18.354299    22.993982    19.346221    8164.8487     2433.633    1386.6419     1673.283    80.652302    286.21441    -1927.408   -4186.4121 
 1357000    247.76734   -4856.6465   -4361.0812   -4856.6465            0    4700.0295    17.898131    22.995152    19.634617     8081.024    5850.6324     4226.197    4023.2589   -151.95305    2.0097997    857.19424   -3807.1666 
 1358000    240.35436   -4830.9814    -4350.243   -4830.9814            0    3529.0454    18.175345    23.246748    19.239211    8128.9066    2530.6341    3027.2647    5029.2375    458.42286   -278.92666   -259.90588   -3931.8684 
 1359000    233.87643   -4842.3734   -4374.5916   -4842.3734            0    4545.4762    17.827979     23.11234    19.509609    8038.8622    5654.0708    4459.0734    3523.2845   -753.27214   -313.51585   -2233.5231   -3841.6865 
 1360000    252.34369   -4850.3535   -4345.6349   -4850.3535            0    4226.7119      18.0831     23.40165    19.108341    8086.1601    4460.7674    3164.2511    5055.1172    109.20761    296.80373    1131.2981   -3847.1858 
 1361000    257.21573   -4850.3462    -4335.883   -4850.3462            0    6287.9036    17.994931    22.955969    19.477981    8046.1806    5764.3022    6797.3218    6302.0867   -218.06966    988.54283    1374.0792   -3598.0271 
 1362000    245.17596   -4848.6066   -4358.2244   -4848.6066            0    4102.6473    18.332392    22.857528    19.324284     8097.516    4333.3909    3267.8222    4706.7289    274.60942    392.19629    1131.7827   -3873.7265 
 1363000    238.00891   -4856.0407   -4379.9935   -4856.0407            0      6398.46    17.989132    22.710526    19.635733    8022.0344    8412.1474    6170.5891    4612.6436    510.40102   -356.22091   -717.61758   -3631.4175 
 1364000    244.36048    -4839.101   -4350.3499    -4839.101            0    5097.8774    18.293978    22.862601    19.363873    8098.8993    2524.2576    5569.6906    7199.6842      622.942   -87.040554    260.64181   -3748.2185 
 1365000    242.92712   -4852.0136   -4366.1294   -4852.0136            0     4154.471    18.163426    22.584434    19.718333    8088.6713     4066.037    4668.7641    3728.6118   -275.68036   -533.48335   -906.43871   -3876.0473 
 1366000    241.60801   -4892.2826   -4409.0368   -4892.2826            0    4251.8679    18.212782    22.812182    19.416962    8067.2294    4006.6512    4755.2272    3993.7253    799.25567   -566.88356    823.75411   -3908.7949 
 1367000    237.19483   -4877.4617   -4403.0427   -4877.4617            0    6315.1306    18.011543    22.978651    19.339118    8004.0926    5379.6667    6872.8385    6692.8866    1779.6798    497.46979   -71.148652   -3665.8682 
 1368000    240.85323   -4875.5913    -4393.855   -4875.5913            0    3826.1245    18.003185    23.284161    19.230949    8061.4036    3725.1772    3308.6871    4444.5093    895.06352    317.16312     -856.529   -3944.0279 
 1369000    238.12034   -4868.3063   -4392.0362   -4868.3063            0    5294.8643    17.882406    23.178476    19.380938    8033.1453    7531.0206    3529.4955    4824.0768   -535.47772     114.8684   -1141.8088   -3771.7154 
 1370000    244.58284   -4865.1953   -4375.9994   -4865.1953            0    4867.6255     18.07334    23.126534    19.293532    8064.1891     4894.504    3086.4749    6621.8976    784.51681   -88.479591   -86.883605   -3803.5281 
 1371000    246.06499   -4879.8653    -4387.705   -4879.8653            0    2187.0656    18.127673    23.100074     19.41926    8131.8265    1287.0154     2716.467    2557.7142    1253.5013   -88.765831   -178.55837   -4128.3313 
 1372000    249.02746   -4838.0502   -4339.9645   -4838.0502            0    4323.6982    17.931524    23.044221    19.533734    8071.6904    3549.9192    5666.6398    3754.5357    396.48956    59.912513   -71.362494   -3830.9903 
 1373000    240.79555   -4847.5321   -4365.9112   -4847.5321            0    4342.6691     18.17326    22.677462    19.652182    8099.1242    4006.4951    5416.1845    3605.3276   -246.86417   -47.398921   -844.19926   -3852.9664 
 1374000    249.16204   -4861.9293   -4363.5745   -4861.9293            0    4828.7249    18.318422    22.604928    19.535612    8089.4354    4978.3723    4327.3711    5180.4313    439.93497    1297.1358    189.15865   -3793.9002 
 1375000    246.32373   -4836.3971   -4343.7192   -4836.3971            0     4852.552    18.332729    22.604234    19.516576    8087.6164    3484.5285    5716.0329    5357.0947    205.67922    639.48099    607.55004   -3771.3627 
 1376000    255.76916   -4894.9901   -4383.4202   -4894.9901            0     3933.673    18.242134    22.661175    19.512762    8066.3455    4133.0171    4270.8002    3397.2015     417.3172     555.7442    489.53989   -3920.6653 
 1377000    248.69721   -4882.5772    -4385.152   -4882.5772            0    3714.3137    18.178749    22.767805    19.494556     8068.606    4534.4456     4246.106    2362.3895   -333.14661   -324.75315   -1684.2737     -3948.08 
 1378000    225.23075   -4841.3804    -4390.891   -4841.3804            0    1935.1418    18.076142    23.004362    19.594219    8147.8665    2762.0032    2289.6274    753.79463    129.01647   -909.41444    68.534808   -4160.9415 
 1379000     245.6603   -4813.0835   -4321.7326   -4813.0835            0    5001.9484    18.240996    22.970537    19.335288    8101.5917    5950.6572    3689.3041    5365.8841     582.7236   -261.96271   -325.68163   -3730.7354 
 1380000    242.81489   -4888.6938    -4403.034   -4888.6938            0    4923.9071    18.002598    22.833879    19.574044    8046.2855    5042.5824    4994.7569     4734.382    -821.3428   -733.50866    552.03679   -3825.2292 
 1381000    234.61267   -4872.4948   -4403.2405   -4872.4948            0    4674.9977    18.209836    22.817518    19.370237    8048.3966    3257.0452    5710.2662    5057.6816    423.71202    984.43694    833.21221   -3854.5004 
 1382000     248.4925   -4841.3242   -4344.3085   -4841.3242            0    3765.7652    18.075478    22.918594    19.681074    8153.1711    2340.3956    4139.5896    4817.3102    332.92243   -146.80278   -261.34062   -3896.5378 
 1383000    246.46618   -4844.0667   -4351.1039   -4844.0667            0    4437.6565    18.220767    22.727352    19.561626    8100.6611    5325.8687    4665.3368    3321.7639   -1334.8162    398.01138    204.58004   -3826.8399 
 1384000      234.887   -4866.4139   -4396.6109   -4866.4139            0    3770.3539     18.22424    22.815353    19.446097    8085.5407    2723.7588    4268.9236    4318.3792     5.709902   -452.08132    1682.6783   -3952.0133 
 1385000    243.63961   -4870.9734   -4383.6641   -4870.9734            0    4126.0593    18.080529     22.81167     19.57444    8073.4205    4185.7433    4932.2838    3260.1508   -2863.4745    920.18422   -492.05919   -3897.8514 
 1386000    249.93034   -4848.0326    -4348.141   -4848.0326            0    5944.8927    18.120241    22.922161    19.341931    8033.7693    6190.5707    5713.6053     5930.502    406.74603    159.04188    226.74675   -3651.6119 
 1387000    253.46773   -4888.1361   -4381.1694   -4888.1361            0    4756.5525    18.114712    22.854553    19.432769    8045.2375    4575.3058    4646.0104    5048.3412    167.42026    -442.9549    -509.0082   -3823.0757 
 1388000     239.1739   -4849.0882   -4370.7109   -4849.0882            0    2762.9793    18.086164    23.025749    19.457561    8103.0524    4628.6667    2342.8883     1317.383     1014.546   -619.88647    1469.8602   -4044.1966 
 1389000    236.83206   -4877.0909   -4403.3975   -4877.0909            0    5241.4339    18.154675    22.983843    19.242309    8029.1263    5002.5235    4527.1513    6194.6268   -1949.2332    -1359.306   -534.86948   -3789.6436 
 1390000    238.96195   -4826.7886   -4348.8352   -4826.7886            0    4459.5681    17.994377    23.216727     19.43342    8118.7104    4385.3877    3836.0953    5157.2213   -1177.3493     989.7135   -2419.2987   -3820.8086 
 1391000    246.79667   -4862.4984   -4368.8746   -4862.4984            0    4616.7316    18.038441    23.339144    19.149203    8061.8483    4116.1484    4059.1997    5674.8467   -127.28614    -286.7561    -108.6457   -3826.0679 
 1392000    237.94826   -4849.8045   -4373.8786   -4849.8045            0    4199.1852    17.938317    23.195551    19.446066    8091.2969    4859.3891    3161.4069    4576.7596   -799.04104   -1502.2647    226.81361    -3878.361 
 1393000    231.06418   -4841.5509    -4379.394   -4841.5509            0    3892.3697    18.008723    23.108358    19.422493    8082.7092    4350.9241    4204.9356    3121.2493   -1795.4591   -180.90072   -1044.3802   -3920.5691 
 1394000    245.98133   -4862.4984   -4370.5054   -4862.4984            0    4070.6431    18.229154    22.968857    19.349098     8101.522    4559.1724    3339.7712    4312.9856    514.28386   -754.32548   -275.74374   -3889.5492 
 1395000    249.02365   -4875.5954   -4377.5173   -4875.5954            0    4101.0957    18.116708    22.858596    19.575801    8106.7802    4365.9733    5217.1276    2720.1862    1559.2218    761.07966    75.762592   -3892.6486 
 1396000    240.58203   -4868.6632   -4387.4694   -4868.6632            0    3948.6443    18.400594    22.731038    19.425443    8124.9753    3575.7659    4420.1828    3849.9842     -861.288    749.14023   -1047.5204    -3919.577 
 1397000    241.23973   -4887.9253    -4405.416   -4887.9253            0    3580.1113    18.268647    22.700595    19.538633    8102.8499    2984.5218    4577.3349    3178.4773    967.27495   -304.52252    1365.9909    -3982.348 
 1398000    237.71943   -4855.6051   -4380.1369   -4855.6051            0    4730.0688    18.214787    22.591107    19.606746    8068.0228    4825.8042    5344.9727    4019.4294      170.164    1363.4188    407.66872   -3823.5789 
 1399000    254.96667   -4852.3739    -4342.409   -4852.3739            0    5802.2678    18.253745     22.84778    19.338424    8065.2358    5278.8831    4423.2513    7704.6691    382.98401    -166.7303    809.93443   -3659.9277 
 1400000    227.66691   -4840.8625   -4385.5006   -4840.8625            0    6452.7351    18.010093    22.955909    19.417891    8028.0951    7659.2707    6034.7117    5664.2229    198.86914    247.05292    403.16223   -3630.0045 
 1401000    250.46633   -4825.9046   -4324.9409   -4825.9046            0    5580.9836    18.163073    23.127992    19.217188    8072.6681    5869.3189    5579.7124    5293.9194   -290.73303   -17.073977    897.69133   -3667.8829 
 1402000     231.3258   -4825.8365   -4363.1563   -4825.8365            0    4070.1302    17.945787    23.251176    19.440633    8111.8114    4296.1792    3589.3493    4324.8622   -1483.1314    9.4638624    631.52276   -3881.6499 
 1403000    251.32535   -4859.2626   -4356.5809   -4859.2626            0    3563.5838    18.092193    22.960211    19.464721    8085.6563    4140.7085    2981.3276    3568.7153    789.48781   -461.06654    695.04856   -3936.3595 
 1404000    242.89106   -4865.1583   -4379.3462   -4865.1583            0    4023.8573    18.110991    22.806054    19.517184    8061.3824    3969.8247    4772.5479    3329.1995     997.4918   -105.56963    571.06925   -3906.2734 
 1405000    223.32178   -4820.7782    -4374.107   -4820.7782            0    4969.4209    18.324869     22.60125     19.51356    8081.8325    3806.1905    5626.7544     5475.318   -1712.4261   -631.74161   -1131.3352    -3788.385 
 1406000    232.03409   -4866.0355   -4401.9386   -4866.0355            0    5237.7759    18.225879    22.467511    19.714867    8073.0435    4051.0058    7348.7139     4313.608   -612.69157    983.29049   -68.205096   -3785.2583 
 1407000    242.42837    -4861.868   -4376.9813    -4861.868            0    5132.1208    18.256661    22.794782    19.356602     8055.378    3785.5908     5697.095    5913.6765   -12.591074   -208.33819    708.70867   -3774.0627 
 1408000    236.76086   -4868.0693   -4394.5183   -4868.0693            0    4302.0844    17.940345    23.033266    19.536848    8073.1089     6426.248    3723.0093    2756.9959    882.22128   -202.12225    695.38531   -3887.9995 
 1409000    243.81223   -4878.8051   -4391.1505   -4878.8051            0    4211.0121    18.033009     23.18094    19.285309    8061.6854    3646.0243     4458.748    4528.2638   -1259.8201    13.823561    -1153.692   -3896.0559 
 1410000    249.95375   -4862.8251   -4362.8867   -4862.8251            0    3832.9906    18.041376    23.201575    19.378497    8111.6127    5550.6888    3297.9693    2650.3138    960.27603    -196.5002     1101.185   -3909.4456 
 1411000     230.0521    -4860.192   -4400.0594    -4860.192            0    2996.3485     18.06279    23.131238     19.42469    8115.9213    2976.9617    2820.9571    3191.1266   -374.41755    372.39537   -1716.3209   -4045.4044 
 1412000    245.10948     -4864.64   -4374.3908     -4864.64            0    4089.7614    18.095306    23.074332     19.33181    8071.7481    3667.2904    4709.2347    3892.7591    383.39606    705.96773    775.66732   -3892.9516 
 1413000    239.09355   -4851.5771   -4373.3605   -4851.5771            0     4506.084    18.002734    23.018621    19.491598    8077.2815    3971.3997    3697.0641    5849.7881    490.25722   -678.01402     255.2416   -3842.5489 
 1414000    250.59965   -4884.0194   -4382.7891   -4884.0194            0    3247.9039    18.149946    23.016633    19.337305    8078.1713     2943.806    3035.0377    3764.8682    405.21109   -392.43772    424.36511   -4000.1476 
 1415000    246.12417   -4878.7218    -4386.443   -4878.7218            0    2836.8846    18.134511    22.800026     19.56382    8089.0005     3365.651     3384.142    1760.8609    1253.8284   -1209.9684   -883.26836   -4051.7764 
 1416000    257.20462   -4849.6349   -4335.1939   -4849.6349            0    2881.2226    18.313196    22.923913    19.402226    8145.2504    1947.5621    2192.8963    4503.2095    1315.9472   -886.76558    931.20903   -3992.9331 
 1417000    232.75994   -4843.2644   -4377.7157   -4843.2644            0    6161.1226    17.996979    22.681217    19.739169     8057.398    6647.1688    6832.4336    5003.7655   -264.36469    1202.5375   -414.70267   -3653.7291 
 1418000    238.54147   -4834.8564    -4357.744   -4834.8564            0    3693.8546     18.26569    22.831202    19.375601     8080.161    3721.9138    3902.9874    3456.6627    812.99456   -857.07937    317.47232    -3922.457 
 1419000    246.86127   -4834.9988   -4341.2457   -4834.9988            0    3582.0776    18.149007    22.901819    19.521346    8113.9553    3288.1839    3828.2156    3629.8333    59.998888   -360.87993   -1147.4506   -3917.3652 
 1420000    234.00769   -4840.5115   -4372.4672   -4840.5115            0     4597.452    18.012596    23.118373    19.453618    8100.9129    5740.0829    4629.5971    3422.6759    40.914993    55.207852   -415.11838   -3829.3081 
 1421000    242.89616    -4840.665   -4354.8427    -4840.665            0    4161.3823    18.018232    23.300387    19.304683    8104.7194    4594.8185    4514.9544    3374.3741   -13.485691    -956.7257   -696.75036   -3862.9714 
 1422000    239.31031   -4869.5065   -4390.8563   -4869.5065            0    3991.8465    18.019722    23.277987    19.230656    8066.5456    3901.2193    3487.3148    4587.0053   -565.37797    1200.6503    387.30424   -3921.2463 
 1423000    234.38517   -4862.7254   -4393.9261   -4862.7254            0    3166.8526    18.058094     23.00643    19.452273     8081.491    2992.2489    3849.2917    2659.0171   -131.53814   -1062.0559    19.834122     -4020.68 
 1424000    236.08611   -4848.3427   -4376.1413   -4848.3427            0    3089.9005    18.019673    23.084913    19.469342    8098.9072    4637.6629    2123.1473    2508.8912   -1571.6967   -1130.4546    589.04871     -4011.18 
 1425000    228.21608   -4840.8667   -4384.4063   -4840.8667            0    4999.8715    18.186196    22.819632    19.416661    8057.9592     4932.669    5543.6582    4523.2872   -106.76582    696.38812   -156.37984   -3796.8361 
 1426000    247.58425   -4878.1814   -4382.9823   -4878.1814            0    4339.8759    18.150323    22.861207    19.457196    8073.5357    5314.2535    4914.4766    2790.8975   -212.86441     546.9199    650.73337   -3871.9869 
 1427000    255.59919   -4861.4242   -4350.1942   -4861.4242            0    4514.9367    18.152191    22.727997    19.621965    8095.2954    6598.9983    3902.6339    3043.1778   -1041.5958    246.56111    18.254366   -3817.1537 
 1428000     237.8153   -4837.7765   -4362.1165   -4837.7765            0    5112.0494    18.125196    22.813205    19.507497    8066.2293    5385.5281    5629.0068    4321.6133   -570.57275    -26.10394    134.72352   -3760.7468 
 1429000    247.12206   -4847.3861   -4353.1115   -4847.3861            0    3113.2584    18.189241    23.004709    19.440067    8134.4665    2861.2487    4071.1756    2407.3509    301.78983     1.805872    1520.0928   -3983.7767 
 1430000    233.43461   -4832.7462   -4365.8481   -4832.7462            0    3961.3673    18.121703    22.877169    19.499009    8083.7677    4876.9579    4209.0978    2798.0462   -1494.8428    -871.6104   -396.54325   -3898.8288 
 1431000    254.39429   -4892.8084   -4383.9884   -4892.8084            0    5026.7609    18.239837    22.722924    19.399923     8040.539    4260.6204    4893.2807    5926.3816    609.21505    199.01503    639.69642   -3794.5352 
 1432000    245.19342   -4851.5481   -4361.1309   -4851.5481            0    4532.1246    18.211658    22.784952    19.558881    8115.9918    4589.0194    5127.6805    3879.6738   -97.974145    1562.4152    246.77173   -3824.6932 
 1433000    233.17829   -4858.8158   -4392.4305   -4858.8158            0    5407.4089    18.197314    22.807735    19.438638    8067.8027    6467.1066     4445.449    5309.6711   -1444.6722   -1155.0486   -3514.3708   -3756.1913 
 1434000    235.42872   -4871.3872   -4400.5007   -4871.3872            0    3436.3739    18.144816    22.956831    19.453818    8103.4388    2966.0818    5230.1258    2112.9141   -20.709931   -160.94881    948.51217   -3994.3888 
 1435000    244.17662   -4841.5041   -4353.1207   -4841.5041            0    3340.5604    18.112683    23.218495    19.358268    8141.1046    3579.9029    2334.2855    4107.4928    941.35945    481.31614     386.2321   -3956.4971 
 1436000    247.75063   -4855.8903   -4360.3584   -4855.8903            0    5998.3416    17.966483    23.179236    19.288263    8032.5844    7210.2568    4461.4965    6323.2716    -661.5561     362.5312   -358.85758   -3657.6706 
 1437000     239.4513   -4867.0818   -4388.1496   -4867.0818            0     3395.779    18.094151    23.233063    19.265027    8098.6814    2630.1222    3002.3619     4554.853   -1047.5956   -129.37886    1008.4957   -3987.0709 
 1438000    248.55327   -4845.5736   -4348.4363   -4845.5736            0    5241.5643    17.980011    23.059436    19.389203    8038.9365    4873.5743    5164.2226     5686.896   -1075.8915    -262.8673    402.11394   -3733.9172 
 1439000    241.02025   -4893.1825   -4411.1123   -4893.1825            0    4234.3022    18.219975    23.063558    19.237355    8083.8725    4058.5045    3809.3915    4835.0106   -1155.9353    650.64727   -2131.1658   -3911.9092 
 1440000    258.02468   -4845.2596   -4329.1784   -4845.2596            0    3545.5081     18.10327     22.73787    19.623488    8077.6128     2807.418    4823.6844    3005.4219   -505.61377   -73.009914   -32.339743   -3911.5044 
 1441000    254.90833   -4869.9891    -4360.141   -4869.9891            0    4317.4614    18.322853    22.624415    19.437521    8057.7045    4833.2236    4626.7215    3492.4392   -670.48644   -850.35734    1234.8007   -3852.7816 
 1442000    254.39077   -4871.8131   -4363.0002   -4871.8131            0    3924.6894    18.197269    22.823666    19.558251    8123.0974    2693.5369    4393.8547    4686.6768   -344.82405    1298.3532   -1171.5301   -3898.0538 
 1443000    231.90351   -4839.2073   -4375.3716   -4839.2073            0    4825.0489    18.099176    22.750072    19.605442    8072.6891    5928.4267    5787.0388    2759.6813   -252.48905   -708.87131   -898.38559   -3807.3095 
 1444000    246.69437   -4858.1498   -4364.7305   -4858.1498            0    5611.5919    18.023381    22.970054     19.44421    8049.8647    5345.4629    5004.5558    6484.7571    1065.4675    834.86889    1104.8314   -3705.9351 
 1445000    246.32032   -4862.0469   -4369.3759   -4862.0469            0    3317.2866     18.19946    22.944476    19.424667    8111.2956    3875.4052    2336.9646    3739.4901    5.0859754   -81.754355    -530.6596   -3976.9577 
 1446000    241.14631   -4867.2101   -4384.8877   -4867.2101            0    3618.1617    18.398384    22.815387    19.373239    8132.2318    2650.8466    3619.0221    4584.6164    185.49718   -939.66453   -1909.1488   -3955.7728 
 1447000    237.47942   -4837.9441    -4362.956   -4837.9441            0    3231.5419    17.971271    22.843259    19.684289    8080.8417    4219.3006    3773.0642    1702.2609   -293.59357   -366.62108   -1684.0009   -3982.1162 
 1448000    233.19674   -4838.9254   -4372.5031   -4838.9254            0     3843.449    18.284875    22.856002    19.448671    8127.9716    1427.1302    5548.6136    4554.6031   -1010.6895    443.69155   -2061.3435   -3916.9078 
 1449000    253.76537   -4865.4866   -4357.9245   -4865.4866            0    4425.7583    18.131502     22.88982    19.566145    8120.4746    3924.3715    4595.1229    4757.7805   -61.828721   -1475.2701   -716.79393   -3833.7873 
 1450000     248.6138   -4869.0215   -4371.7632   -4869.0215            0    5649.0392    18.074188     22.89815    19.414544    8035.0089    3488.5605     6929.036    6529.5212    217.64704    275.80874   -601.67589   -3709.7954 
 1451000    246.19689   -4867.2529   -4374.8287   -4867.2529            0    3334.0443    18.187831        23.09    19.309665    8109.2291    2663.5445    3342.8285      3995.76   -261.40199   -430.23642     756.4934   -3980.5286 
 1452000    258.89515   -4889.1916   -4371.3693   -4889.1916            0    3026.1969    17.861405    23.288519     19.44561    8088.7063    4334.5302    3154.8875    1589.1729    1757.2519    571.77238    1672.7017   -4014.3826 
 1453000      237.162   -4870.7256   -4396.3723   -4870.7256            0    4308.7808    18.089058    23.193161    19.261907    8081.1873    4122.1061     3275.278    5528.9582   -415.12034   -388.47057    406.96836   -3888.5574 
 1454000     234.8583   -4876.2973   -4406.5517   -4876.2973            0    4215.4006    18.049874     22.91758    19.470749    8054.2594     3051.731    3947.7739     5646.697    459.46745    -170.6299    1083.0762   -3911.3976 
 1455000     240.3766   -4880.4701   -4399.6872   -4880.4701            0    5147.9393    18.326006    22.804667    19.300752    8066.1411    4395.6008    4948.3464    6099.8707    563.57149   -463.97208     2440.107   -3794.1022 
 1456000    243.66706   -4876.8932    -4389.529   -4876.8932            0     5034.812    18.214687    22.587554    19.591254    8060.3362    5019.5429    6552.4484    3532.4447   -707.35986    599.97923   -723.66714   -3797.6781 
 1457000    233.85977   -4841.3498   -4373.6014   -4841.3498            0    3607.7403    18.213307     22.86415    19.550229    8141.3364    3896.8936     3391.764    3534.5633    33.452412   -112.63173    663.26822   -3945.2434 
 1458000    251.75773   -4861.6605   -4358.1139   -4861.6605            0    3593.0422    18.447348    22.586555    19.457007     8106.996    3237.7407    4235.5778     3305.808   -113.71533    326.92874     916.7299   -3933.3006 
 1459000    242.93561   -4865.9888   -4380.0876   -4865.9888            0     2170.025    18.116234    22.817139    19.724242    8153.2248    2922.3135    2225.8747    1361.8868    1162.9223   -1254.0267    2824.6677   -4122.0577 
 1460000    231.75795   -4820.1072   -4356.5626   -4820.1072            0    5345.8181    18.049774    23.142421    19.250913    8041.4046    5759.4617    3821.9415     6456.051   -758.10943   -1451.2378   -196.54129   -3729.6284 
 1461000     241.2902   -4851.7408   -4369.1306   -4851.7408            0    4130.3909    18.039758    23.124584     19.41803    8100.4626     4624.689    4730.4752    3036.0087   -485.96219    1616.6033   -703.51796   -3881.1788 
 1462000    243.63205   -4861.8341   -4374.5399   -4861.8341            0    2402.1543    18.157043    23.306379    19.171927    8113.0787    1810.0358    1932.0773    3464.3498    107.08912    600.94649   -497.07422   -4090.3147 
 1463000    246.26102   -4858.7085   -4366.1561   -4858.7085            0    4768.0302    18.066289    22.980128    19.378179    8045.1541    5434.3116    4581.7158    4288.0633    344.38582   -1256.1403    1382.8569   -3806.7216 
 1464000    240.52902   -4859.2339   -4378.1461   -4859.2339            0     3014.172    18.251977    22.833353    19.506006    8129.2031    1696.9016    3632.5137    3713.1007    1413.8566   -444.01188    825.22389   -4020.7977 
 1465000    227.13295   -4878.5716   -4424.2776   -4878.5716            0    3501.1105    18.337383    22.469793    19.623487    8085.6061     1550.462    4731.4112    4221.4584    167.87546    120.82992    948.05945   -4011.4257 
 1466000    243.31497   -4864.4684   -4377.8084   -4864.4684            0    5664.4972    18.286723    22.575167    19.505063    8052.1938    1815.5886    7139.4759     8038.427    1735.6442    569.50801    256.42489   -3712.6096 
 1467000    232.22686   -4869.9724     -4405.49   -4869.9724            0    3712.6668     18.09356       22.933    19.491552     8087.817    4153.8768    2892.8001    4091.3237    141.76583   -261.87633    229.87618   -3967.5716 
 1468000    246.40306   -4843.5521   -4350.7156   -4843.5521            0    2997.3407    18.061555    23.175978    19.415751     8127.321    3834.9573    3224.0056    1933.0591   -791.16378   -200.51105    121.01009   -3995.4449 
 1469000    235.29994   -4845.3747   -4374.7458   -4845.3747            0    5353.3482    17.971916    23.069089    19.366228    8029.1554    6084.7182    3339.5676    6635.7589     227.0741   -2051.2513    388.49544   -3747.8848 
 1470000    241.34925   -4888.9925   -4406.2642   -4888.9925            0    5755.9232    17.828515    23.191566    19.352264    8001.6036    7602.8406    4207.9817    5456.9472   -698.28709   -771.80164    1023.0984   -3734.5757 
 1471000    234.66361   -4856.5732    -4387.217   -4856.5732            0    4035.1875    18.155015    23.203943    19.278212    8121.2925    3446.4508    3728.0744    4931.0374   -528.79469    566.48528      1128.75   -3909.2865 
 1472000     235.7679   -4879.7131   -4408.1482   -4879.7131            0    3923.2745    18.015265     23.14226    19.378367    8079.1115    4558.0089    3876.0585    3335.7561   -636.06968     1667.655   -1577.7813   -3945.8862 
 1473000    241.79784   -4894.1274   -4410.5018   -4894.1274            0    2984.0244    18.137159    22.981567    19.424651    8096.5897    1866.1539    3367.6724    3718.2468     501.6028   -402.19044    1638.7678   -4058.1469 
 1474000    251.13644   -4869.2255   -4366.9216   -4869.2255            0    4278.8279    18.030827    22.907492    19.530525    8066.9082    3602.4588    4488.2855    4745.7394    196.91543   -300.69118    184.73301   -3863.5278 
 1475000    237.28571   -4869.6147    -4395.014   -4869.6147            0    3451.3866    18.081075    22.995483    19.574351    8138.6832    3567.5777     4284.043    2502.5392    636.07938   -13.735969     332.4594   -3985.3539 
 1476000    242.91711   -4870.7105   -4384.8462   -4870.7105            0    2497.1528    18.276656    22.977876    19.413024    8152.6691    1374.8433    3293.4062    2823.2088     -68.0405    538.88597   -1777.8142    -4087.939 
 1477000     251.8985   -4811.2521    -4307.424   -4811.2521            0    6194.5598    17.982905    22.845346    19.602353      8053.15    6406.5767    7018.3548    5158.7478    1511.0163   -104.77576   -142.91054    -3579.892 
 1478000    251.78278   -4847.8014   -4344.2047   -4847.8014            0    5280.3276    18.314017    22.784193    19.331421    8066.4241    4270.4372    4648.2135    6922.3321    301.01787   -601.31281   -976.13593   -3723.0242 
 1479000    253.12701    -4862.401   -4356.1157    -4862.401            0    2259.1095    18.146576    22.869188    19.610417     8138.273     1593.324    3023.5849    2160.4195   -314.41342   -638.88928   -696.52421   -4087.9857 
 1480000    262.11014   -4858.2068   -4333.9542   -4858.2068            0    3057.5198    18.045734    23.069298     19.46501    8103.3309    4349.0464    2525.3083    2298.2048    731.54928   -834.34783    1114.7573   -3972.6202 
 1481000    251.26245   -4848.6502   -4346.0942   -4848.6502            0    4930.4532    17.991813    23.150256    19.336654    8054.0076    4036.4696    5567.6138    5187.2763   -390.76016    1127.6636    678.70771    -3766.966 
 1482000    241.96301   -4855.7503   -4371.7944   -4855.7503            0    5130.9501    18.012495    23.116339     19.36034    8061.3149    6602.2817    4047.2142    4743.3544    58.587021   -191.04326   -1535.3793   -3768.5691 
 1483000    239.88777    -4863.782   -4383.9768    -4863.782            0    6382.7464    18.094769    22.918906    19.350588    8024.9271    6007.2709    6275.0976    6865.8707   -661.09253   -225.12198    502.77044     -3636.97 
 1484000    254.94226   -4858.4878   -4348.5718   -4858.4878            0     4303.243    18.174887    23.033389    19.360281    8104.7797    5416.0775     3661.537    3832.1144   -848.80954    -485.8092    541.01338   -3839.9289 
 1485000    244.17468   -4891.7968   -4403.4173   -4891.7968            0    5409.3323    18.039582    22.859081    19.470111    8028.8562    5664.3942    7007.7069    3555.8957   -1628.3409    492.88256   -1101.6991   -3770.0243 
 1486000    244.80975    -4872.959   -4383.3092    -4872.959            0    3162.8458    18.248941    22.810944    19.488975    8112.7845    1506.8354    4720.3983    3261.3037    190.85933    1296.2534    1581.6326   -4009.0919 
 1487000    233.29972   -4851.1043    -4384.476   -4851.1043            0    3195.4174    18.251916    22.880297    19.438845    8117.8413    1265.4102    4324.7348    3996.1072   -939.55646   -54.750992    952.27609   -4006.1693 
 1488000    253.72686   -4860.9764   -4353.4913   -4860.9764            0    6047.2243    18.018304     22.91366    19.541785    8068.1247    5824.8824    6947.5901    5369.2003    1881.4141    377.99752    2380.3556   -3641.9427 
 1489000    238.97133   -4849.6097   -4371.6375   -4849.6097            0    2765.6432    18.247102    22.829942    19.564714    8150.2738    1067.9633    4733.1891    2495.7771    85.983194    217.63046   -1643.0266   -4042.9038 
 1490000    241.54048   -4838.0127   -4354.9019   -4838.0127            0    5581.6295    18.048497    22.846129    19.569516     8069.261    4660.6785    6127.6569    5956.5532   -275.50889   -188.77976   -364.58127   -3698.0451 
 1491000    234.66294     -4867.25   -4397.8951     -4867.25            0    3498.3719    18.251932    22.862802    19.439791    8112.0363     3113.931    3723.5679    3657.6167   -393.63994    136.08153    355.86738   -3984.0177 
 1492000    238.66306   -4858.3374   -4380.9818   -4858.3374            0    4335.9005    18.111668    22.862857    19.509106     8078.418    5696.5516    3786.0583    3525.0917   -58.939318   -308.22938    280.74893   -3870.1458 
 1493000    257.48241   -4861.9894   -4346.9928   -4861.9894            0    2796.5111    18.032166     22.98439    19.671627    8153.0699    3212.1558    4079.4451    1097.9325     433.3091    281.79092   -728.21057    -4014.476 
 1494000    240.19102   -4828.0673   -4347.6556   -4828.0673            0    6575.0721    18.264151    22.893537    19.226975    8039.3945    5270.1378    6904.3166    7550.7618    1849.9555    31.914324    1832.3665   -3576.7526 
 1495000    246.17164    -4826.557   -4334.1833    -4826.557            0    3988.7524    17.967259    22.987362    19.649961    8115.8249    5581.2894     3545.863    2839.1047   -386.59132   -473.20619   -1312.5349   -3862.0707 
 1496000    240.68587   -4859.9747   -4378.5732   -4859.9747            0    3852.7861    18.142178    22.960206    19.447979    8101.0195    2138.7562    4508.0322    4911.5698    305.59257    689.94317    2010.3846   -3923.3856 
 1497000    245.07849   -4861.5103   -4371.3231   -4861.5103            0    5423.3013    18.036176    22.843328    19.493391    8031.3992    5868.2478    5757.4384    4644.2177    487.09029    595.38639   -478.09764   -3736.0933 
 1498000    245.21415   -4841.2899   -4350.8313   -4841.2899            0    2592.9825    18.240584    23.009843    19.509485     8188.384    2038.4051    3791.4347    1949.1078    1774.4303    879.25519   -561.24375   -4041.1795 
 1499000    238.25753   -4864.8679   -4388.3234   -4864.8679            0    4217.1114    18.191619    22.888846    19.397465    8076.8167    4867.0338    4687.8049    3096.4955   -641.64687   -308.78288    101.03511   -3891.5811 
 1500000    245.41092   -4826.9402    -4336.088   -4826.9402            0    2678.9938    18.055039     22.91696     19.71745    8158.4222     3082.445    2953.1625    2001.3738   -979.14462   -545.51197   -665.99651   -4017.3354 
Loop time of 528.884 on 64 procs for 250000 steps with 1008 atoms

Performance: 81.681 ns/day, 0.294 hours/ns, 472.694 timesteps/s
99.2% CPU use with 64 MPI tasks x 1 OpenMP threads

MPI task timing breakdown:
Section |  min time  |  avg time  |  max time  |%varavg| %total
---------------------------------------------------------------
Pair    | 27.961     | 31.769     | 35.156     |  33.2 |  6.01
Bond    | 0.27281    | 0.28281    | 0.29687    |   1.1 |  0.05
Kspace  | 249.82     | 260.58     | 270.71     |  28.5 | 49.27
Neigh   | 3.7704     | 4.3597     | 4.846      |  13.8 |  0.82
Comm    | 97.061     | 106.83     | 116.69     |  46.8 | 20.20
Output  | 1.195      | 1.1964     | 1.1982     |   0.0 |  0.23
Modify  | 109.38     | 115.35     | 120.31     |  29.7 | 21.81
Other   |            | 8.522      |            |       |  1.61

Nlocal:        15.7500 ave          20 max          12 min
Histogram: 1 4 12 15 0 13 7 6 4 2
Nghost:        2457.00 ave        2481 max        2431 min
Histogram: 2 3 6 6 12 9 9 11 2 4
Neighs:        5129.73 ave        6532 max        3866 min
Histogram: 1 4 12 13 7 8 7 6 3 3

Total # of neighbors = 328303
Ave neighs/atom = 325.69742
Ave special neighs/atom = 2.0000000
Neighbor list builds = 8430
Dangerous builds = 0

unfix		3
unfix		2
unfix		1

write_data	data.final.${pid}
write_data	data.final.0
System init for write_data ...
PPPM initialization ...
  extracting TIP4P info from pair style
  using 12-bit tables for long-range coulomb (../kspace.cpp:340)
  G vector (1/distance) = 0.37852826
  grid = 24 27 36
  stencil order = 5
  estimated absolute RMS force accuracy = 0.0025143976
  estimated relative force accuracy = 7.5720338e-06
  using double precision FFTW3
  3d grid and FFT values/proc = 4050 480
Last active /omp style is kspace_style pppm/tip4p/omp
WARNING: Not all mixed pair coeffs generated from mixing. Use write_data with 'pair ij' option to store all pair coeffs. (../write_data.cpp:312)

write_restart   restart.lmp.${pid}
write_restart   restart.lmp.0
System init for write_restart ...
PPPM initialization ...
  extracting TIP4P info from pair style
  using 12-bit tables for long-range coulomb (../kspace.cpp:340)
  G vector (1/distance) = 0.37852826
  grid = 24 27 36
  stencil order = 5
  estimated absolute RMS force accuracy = 0.0025143976
  estimated relative force accuracy = 7.5720338e-06
  using double precision FFTW3
  3d grid and FFT values/proc = 4050 480
Last active /omp style is kspace_style pppm/tip4p/omp
Total wall time: 0:08:51
