LAMMPS (30 Jul 2021)
  using 1 OpenMP thread(s) per MPI task
package omp 0
using multi-threaded neighbor list subroutines
echo both

include		in.partitions
variable        pid world 0
include		in.temp
variable        temperature equal 263.74
variable	tempDamp equal 100.0
include		in.pressure
variable        pressure equal 5875.0
variable        pressureDamp equal 1000.0 # This is 1 ps
include		in.seed
variable        seed world 745823

units		real
atom_style	full
read_restart	restart.lmp.${pid}
read_restart	restart.lmp.0
Reading restart file ...
  restart file = 30 Jul 2021, LAMMPS = 30 Jul 2021
  restoring atom style full from restart
  orthogonal box = (0.50045917 1.6810061 0.61055902) to (17.707113 21.948172 21.602637)
  4 by 4 by 4 MPI processor grid
  restoring pair style lj/cut/tip4p/long/omp from restart
  restoring bond style harmonic/omp from restart
  restoring angle style harmonic/omp from restart
  864 atoms
  576 bonds
  288 angles
Finding 1-2 1-3 1-4 neighbors ...
  special bond factors lj:    0        0        0       
  special bond factors coul:  0        0        0       
     2 = max # of 1-2 neighbors
     1 = max # of 1-3 neighbors
     1 = max # of 1-4 neighbors
     2 = max # of special neighbors
  special bonds CPU = 0.018 seconds
  read_restart CPU = 0.180 seconds
include 	in.setup
variable	out_freq equal 1000
variable	out_freq2 equal 10000
variable	out_freq3 equal 1000

timestep	2.0

neigh_modify    delay 7 every 1

include		in.tip4p
# This is TIP4P/Ice

# create groups ###
group ox type 2
288 atoms in group ox
group hy type 1
576 atoms in group hy

# set charges - beside manually ###
set group ox charge -1.1794
Setting atom values ...
  288 settings made for charge
set group hy charge 0.5897
Setting atom values ...
  576 settings made for charge

# ### TIP3P Potential Parameters ###
pair_style lj/cut/tip4p/long/omp 2 1 1 1 0.1577 8.5
pair_coeff 1 1*2 0.000 0.000
pair_coeff 2 2 0.21084 3.1668
bond_style  harmonic
bond_coeff  1 450 0.9572
angle_style harmonic
angle_coeff 1 55 104.52
kspace_style pppm/tip4p/omp 1.0e-5
pair_modify tail yes

thermo          ${out_freq}
thermo          1000
thermo_style    custom step temp pe etotal epair emol press lx ly lz vol pxx pyy pzz pxy pxz pyz enthalpy

restart 	${out_freq3} restart.lmp.${pid} restart2.lmp.${pid}
restart 	1000 restart.lmp.${pid} restart2.lmp.${pid}
restart 	1000 restart.lmp.0 restart2.lmp.${pid}
restart 	1000 restart.lmp.0 restart2.lmp.0


include         in.dump
dump            myDump all atom ${out_freq2} dump.water.${pid}
dump            myDump all atom 10000 dump.water.${pid}
dump            myDump all atom 10000 dump.water.0
dump            myDump2 all dcd ${out_freq2} dump.dcd
dump            myDump2 all dcd 10000 dump.dcd
dump_modify     myDump append yes
dump_modify     myDump2 append yes


variable natoms 	equal  "count(all)"                        # NUMBER ATOMS
variable H      	equal  "enthalpy/v_natoms"                 # ENTHALPY-per-atom
variable Vol      	equal  "vol/v_natoms"                 # volume-per-atom
fix AVG all 		ave/time ${out_freq} 1 ${out_freq} v_Vol v_H file vol_enthalpy.dat
fix AVG all 		ave/time 1000 1 ${out_freq} v_Vol v_H file vol_enthalpy.dat
fix AVG all 		ave/time 1000 1 1000 v_Vol v_H file vol_enthalpy.dat


timer           timeout 23:50:00 every 1000
New timer settings: style=normal  mode=nosync  timeout=23:50:00

fix 		1 all shake 1e-6 200 0 b 1 a 1
       0 = # of size 2 clusters
       0 = # of size 3 clusters
       0 = # of size 4 clusters
     288 = # of frozen angles
  find clusters CPU = 0.159 seconds
fix             2 all nph iso ${pressure} ${pressure} ${pressureDamp}
fix             2 all nph iso 5875 ${pressure} ${pressureDamp}
fix             2 all nph iso 5875 5875 ${pressureDamp}
fix             2 all nph iso 5875 5875 1000
fix             3 all temp/csvr ${temperature} ${temperature} ${tempDamp} ${seed}
fix             3 all temp/csvr 263.74 ${temperature} ${tempDamp} ${seed}
fix             3 all temp/csvr 263.74 263.74 ${tempDamp} ${seed}
fix             3 all temp/csvr 263.74 263.74 100 ${seed}
fix             3 all temp/csvr 263.74 263.74 100 745823

run             250000
PPPM initialization ...
  extracting TIP4P info from pair style
  using 12-bit tables for long-range coulomb (../kspace.cpp:340)
  G vector (1/distance) = 0.3747042
  grid = 24 24 25
  stencil order = 5
  estimated absolute RMS force accuracy = 0.0030231564
  estimated relative force accuracy = 9.1041456e-06
  using double precision FFTW3
  3d grid and FFT values/proc = 2730 288
Last active /omp style is kspace_style pppm/tip4p/omp
Neighbor list info ...
  update every 1 steps, delay 7 steps, check yes
  max neighbors/atom: 2000, page size: 100000
  master list distance cutoff = 10.8154
  ghost atom cutoff = 10.8154
  binsize = 5.4077, bins = 4 4 4
  1 neighbor lists, perpetual/occasional/extra = 1 0 0
  (1) pair lj/cut/tip4p/long/omp, perpetual
      attributes: half, newton on, omp
      pair build: half/bin/newton/omp
      stencil: half/bin/3d
      bin: standard
Per MPI rank memory allocation (min/avg/max) = 9.241 | 9.244 | 9.250 Mbytes
Step Temp PotEng TotEng E_pair E_mol Press Lx Ly Lz Volume Pxx Pyy Pzz Pxy Pxz Pyz Enthalpy 
 7750000    262.85454   -3811.2757    -3360.752   -3811.2757            0    5681.5941    17.206654    20.267166    20.992078    7320.5695    6040.2799    6305.1581    4699.3441    1239.4275    16.474592   -735.58348   -2754.1679 
 7751000    268.73452   -3851.8609   -3391.2592   -3851.8609            0    4911.6267    17.210223     20.27137    20.996432     7325.126     4538.813     3892.784     6303.283    223.46813    157.95045   -357.62382   -2866.5528 
 7752000    268.09645    -3881.397   -3421.8888    -3881.397            0    6058.4969    17.175578    20.230563    20.954166    7280.9778    6333.3718    5136.7698    6705.3492   -274.01592    1023.6041    330.80131   -2778.5637 
 7753000    253.39648   -3852.9039    -3418.591   -3852.9039            0    5490.4643    17.227906    20.292197    21.018005    7347.7274    5259.9022    5396.6303    5814.8604    639.71651    2022.4932    319.03106    -2830.238 
 7754000    245.35994   -3864.9829   -3444.4443   -3864.9829            0    5589.9426    17.120751    20.165983    20.887276    7211.4731    4386.7059    4173.3413    8209.7804    834.92685   -1622.0172   -1120.6167   -2856.5392 
 7755000    263.23788   -3854.1163   -3402.9356   -3854.1163            0    5479.7244    17.271704    20.343786    21.071438    7403.9099    4275.7406    6362.3461    5801.0864    450.81155   -798.97169   -2.6349597   -2811.2436 
 7756000    270.14264   -3853.7761   -3390.7608   -3853.7761            0    7661.6172    17.259189    20.329045     21.05617    7387.8271    5964.1768    9179.5301    7841.1449    334.33395   -434.64861    961.53149   -2565.2685 
 7757000    263.49028   -3860.8427   -3409.2293   -3860.8427            0    6221.2005    17.283435    20.357604    21.085751    7419.0073    5720.2354    6155.1559    6788.2103   -50.785142   -276.53649   -497.79952   -2736.1041 
 7758000    274.52228    -3853.272   -3382.7502    -3853.272            0    5310.4807    17.295776     20.37214    21.100807    7434.9108    6488.6552    4412.4197    5030.3672   -1574.2703   -495.23118    1380.6497   -2806.9319 
 7759000    272.00031   -3829.1711   -3362.9719   -3829.1711            0     7120.862    17.235765    20.301455    21.027593    7357.7885    8340.9789    7778.8889    5242.7184   -1764.4814   -351.12831    858.34946   -2598.8621 
 7760000    258.16447   -3832.5117   -3390.0266   -3832.5117            0    5880.1999    17.218054    20.280593    21.005986    7335.1294     4107.039    5894.0131    7639.5476   -625.25921    147.43823   -650.70753   -2760.9902 
 7761000    278.35779   -3851.1474   -3374.0517   -3851.1474            0    7036.3091    17.207045    20.267626    20.992555    7321.0688    5236.7474     8040.265    7831.9149   -781.53253    332.64474   -735.44133    -2622.783 
 7762000    273.57053   -3821.5718   -3352.6813   -3821.5718            0    5304.5857    17.221402    20.284537     21.01007    7339.4095     3989.769    5260.4632     6663.525    1111.7725    740.63872    23.911871   -2784.8903 
 7763000    258.89152   -3818.2535   -3374.5223   -3818.2535            0     5455.907    17.198603    20.257682    20.982255    7310.2979    6431.8541    4511.2375    5424.6294    1271.1607    -135.7932   -1228.3698   -2792.8506 
 7764000    264.29975   -3891.3218    -3438.321   -3891.3218            0     6551.663    17.141409    20.190315    20.912479    7237.6092     6995.454    5816.0296    6843.5053    26.879962   -918.68743    585.30159   -2746.7727 
 7765000    255.57824   -3832.9349   -3394.8826   -3832.9349            0     6396.644    17.177629    20.232978    20.956667    7283.5856     4484.335    7947.1716    6758.4254   -1318.0147    103.06712   -879.19187   -2715.4078 
 7766000    263.35003   -3843.8141   -3392.4411   -3843.8141            0    5496.3819     17.21325    20.274935    21.000125    7328.9914    4651.4432    6620.6065    5217.0959   -1339.7254    38.551551   -953.91239   -2804.9558 
 7767000    264.11195   -3855.3346   -3402.6558   -3855.3346            0    6368.2408    17.160855    20.213221    20.936203    7262.2697    6583.7796    6491.1765    6029.7664    204.13765     498.5613   -659.85597   -2728.1778 
 7768000    253.73329   -3887.8428   -3452.9526   -3887.8428            0    5026.0689    17.280397    20.354025    21.082044    7415.0954    6425.5625    4490.5495    4162.0948    1174.4539    1273.0289   -280.32578   -2909.4257 
 7769000    262.42971   -3863.2399   -3413.4443   -3863.2399            0    6869.5715     17.27124    20.343239    21.070873    7403.3137    7913.3928    5796.7968    6898.5251    453.53447   -194.06699    740.54445   -2671.7385 
 7770000    267.23146   -3888.9819   -3430.9563   -3888.9819            0    4689.5003    17.220288    20.283225    21.008711    7337.9852    5197.9456    4221.5649    4648.9903    2203.9678    549.07223    138.25507   -2929.1002 
 7771000    265.76292   -3867.5371   -3412.0285   -3867.5371            0    7016.8684    17.203247    20.263153    20.987922    7316.2223    7669.9316    7064.8363    6315.8374   -621.13235    321.80158   -252.89308   -2663.3315 
 7772000    259.76917   -3808.2185    -3362.983   -3808.2185            0    8376.3848    17.128215    20.174775    20.896383    7220.9099    6490.9499    8851.9565     9786.248    553.12734   -893.32293   -44.521998   -2480.8696 
 7773000    254.12592   -3868.6429   -3433.0797   -3868.6429            0    5372.1485    17.150557    20.201091    20.923639    7249.2032    6704.0237    4305.4259    5106.9958    169.10341    1254.7954  0.041746589   -2865.1244 
 7774000    276.15248   -3821.4381   -3348.1222   -3821.4381            0    6095.1081    17.193381    20.251532    20.975885    7303.6415    6356.7047    4935.8721    6992.7475    1164.6814    6.3355222   -1526.1878   -2698.8949 
 7775000    259.45143    -3821.872   -3377.1811    -3821.872            0    6663.4964    17.260674    20.330794    21.057982    7389.7347     7071.493    7132.9271    5786.0691    718.12248    67.893325   -830.81019   -2659.0448 
 7776000    262.76234   -3827.8881   -3377.5224   -3827.8881            0    4949.4082     17.25594    20.325218    21.052206    7383.6559    6060.4157    4832.2438     3955.565    3.6432233   -645.95881    982.26878   -2844.5551 
 7777000    275.83324    -3871.833   -3399.0643    -3871.833            0    4371.5041    17.342924    20.427673    21.158327    7495.8785     2477.591    6957.4421    3679.4793   -324.48232    768.08019    949.48216   -2921.1728 
 7778000    253.69337   -3859.7396   -3424.9178   -3859.7396            0    6061.5186    17.247772    20.315598    21.042242    7373.1763    6886.9777    6785.2599    4512.3181    86.234485    -482.0095    17.860007   -2773.1215 
 7779000    270.79939   -3916.5542   -3452.4133   -3916.5542            0    4233.0701       17.308    20.386538     21.11572     7450.686    3586.9457    6247.1017    2865.1628   -400.73559     663.7444   -962.57697   -2992.4453 
 7780000    270.79225   -3843.2055   -3379.0768   -3843.2055            0    5194.7686    17.215147    20.277169    21.002439    7331.4144    4610.4059    6466.4191    4507.4809    327.03916   -129.76086    2370.9725   -2823.6461 
 7781000    266.50922   -3819.6423   -3362.8547   -3819.6423            0    5654.1599    17.198009    20.256983    20.981531    7309.5412    5881.8627    4780.6615    6299.9555   -539.52575   -1500.5785   -286.40647    -2760.109 
 7782000    254.80494   -3824.5217   -3387.7948   -3824.5217            0    6623.7141    17.211204    20.272525    20.997628     7326.378    7378.6191    6623.2841    5869.2392    1335.7832    1103.1519    638.49714   -2680.0661 
 7783000    259.39485   -3833.9502   -3389.3563   -3833.9502            0    6922.1551    17.211005    20.272291    20.997386    7326.1245    6825.4564    6086.7113    7854.2977    158.95759    398.20877   -14.466332   -2649.7655 
 7784000    257.31069    -3878.552   -3437.5302    -3878.552            0     5931.199    17.243478    20.310539    21.037003    7367.6702    7172.5695    4647.3784    5973.6489    1051.2901    132.53961   -824.74181   -2800.2234 
 7785000    254.30911   -3895.9538   -3460.0767   -3895.9538            0     4037.863    17.206965    20.267532    20.992457    7320.9665    3414.6916    3851.4787    4847.4189   -655.36162    1197.7933   -272.22122    -3028.959 
 7786000    251.06411   -3874.4993   -3444.1841   -3874.4993            0    7276.3035    17.132493    20.179814    20.901601    7226.3212    5631.2927    8012.4005    8185.2174    368.42516   -141.88063   -739.38442   -2677.3455 
 7787000    257.49609    -3846.565   -3405.2255    -3846.565            0    6356.1303    17.253152    20.321934    21.048805    7380.0776    8539.9122    6266.6465    4261.8321   -930.20716   -639.67676    1790.6039   -2721.1097 
 7788000    265.88214   -3852.8031   -3397.0902   -3852.8031            0    5428.7542    17.181939    20.238055    20.961926    7289.0702    6174.4726    6342.5131    3769.2768   -493.35479   -1667.5487    1514.5018   -2819.9941 
 7789000    268.13095   -3860.9305   -3401.3632   -3860.9305            0    5168.5599     17.19491    20.253332     20.97775    7305.5897    5490.5971    5026.5891    4988.4935    328.55337    554.02593    2306.3956   -2850.6814 
 7790000    251.54106   -3834.3085   -3403.1758   -3834.3085            0    6308.7333     17.16462    20.217655    20.940796    7267.0505    6684.6623    5963.7792    6277.7584   -922.94795   -1843.7889   -943.31665   -2734.5606 
 7791000    254.10522   -3833.7392   -3398.2115   -3833.7392            0    5524.0851    17.216443    20.278695     21.00402    7333.0705    5372.1591    5774.7507    5425.3455   -274.16671    583.87544    125.16522   -2807.4365 
 7792000    262.65192   -3869.6988   -3419.5224   -3869.6988            0    4721.5405     17.17329    20.227867    20.951373    7278.0672    3939.5358     3589.338    6635.7478    972.01582   -1950.4461   -2279.3721   -2918.3632 
 7793000    266.27677   -3839.2261   -3382.8368   -3839.2261            0    5531.5333    17.190493     20.24813    20.972362    7299.9621    6257.4954    5304.4189    5032.6856   -659.91466    -725.5237    418.86939   -2793.9362 
 7794000    262.49151   -3851.6031   -3401.7017   -3851.6031            0    5258.5032    17.206352     20.26681    20.991709    7320.1841    3650.1238    6516.9702    5608.4156    138.43685   -1038.9348    625.67112   -2840.3176 
 7795000    249.33648    -3874.311   -3446.9568    -3874.311            0    4545.4398    17.273022    20.345339    21.073047    7405.6061    5710.4793    3593.0323    4332.8077    877.31066   -672.76659   -417.03702   -2956.0349 
 7796000     266.2105   -3835.8746    -3379.599   -3835.8746            0    4610.2931    17.257937     20.32757    21.054642    7386.2194    3072.1936    6306.4426    4452.2431   -908.91582   -1458.2231   -610.65555   -2882.9762 
 7797000    260.66558    -3866.304   -3419.5321    -3866.304            0     5548.678     17.24857    20.316537    21.043215    7374.1997    4823.4718    7706.1738    4116.3883    170.60888   -1106.1364    1280.0473   -2822.7988 
 7798000    263.58848   -3846.0649   -3394.2833   -3846.0649            0    5828.6113    17.247729    20.315546    21.042189    7373.1205    4814.4747    7571.6315    5099.7278     -796.818   -634.93898   -1110.5013   -2767.5362 
 7799000    269.22015   -3856.8074   -3395.3732   -3856.8074            0     5718.871    17.187319    20.244391    20.968489    7295.9189    5916.2778    5976.9601     5263.375    113.68318   -1223.8821   -1285.5544   -2786.8654 
 7800000    260.27641    -3849.123   -3403.0181    -3849.123            0    7234.7812    17.145241     20.19483    20.917155     7242.465    7484.6267    6409.5737    7810.1432    23.197853   -500.32155    885.72812   -2638.8522 
 7801000    269.55484   -3819.3738    -3357.366   -3819.3738            0    6230.2937    17.122039      20.1675    20.888847    7213.1012    6725.4806    7386.5493    4578.8513    904.39776   -1567.3909   -1518.5549    -2701.966 
 7802000    247.78406   -3833.8373   -3409.1439   -3833.8373            0    6187.1486    17.229648     20.29425     21.02013    7349.9572    4860.0306    6776.3762     6925.039    385.47475   -777.86931   -1933.0062   -2745.9336 
 7803000    263.43917   -3865.1807   -3413.6549   -3865.1807            0    6694.1877    17.133041     20.18046     20.90227    7227.0153    5742.2728    7900.0881    6440.2022    335.80836     231.2371   -1293.4023   -2708.0969 
 7804000    259.58875   -3808.1975   -3363.2713   -3808.1975            0    5894.8221    17.221948     20.28518    21.010736    7340.1072    6860.9962    4739.9275    6083.5427     851.3045   -760.26864   -153.29951   -2732.2428 
 7805000     267.2395   -3841.9049   -3383.8656   -3841.9049            0    7818.1112    17.144584    20.194055    20.916352    7241.6315    7070.2204    8096.6256    8287.4877   -363.49468   -371.55053    1098.0805    -2558.181 
 7806000    280.31562   -3803.5357   -3323.0843   -3803.5357            0    6789.6074    17.155498    20.206911    20.929668     7255.471     5574.585    7482.5639    7311.6734    317.35719   -786.42221    23.848603   -2604.6515 
 7807000    266.20387   -3844.0817   -3387.8173   -3844.0817            0    6012.2759    17.214191    20.276043    21.001273    7330.1934    6033.1013    4818.3425     7185.384    51.371315   -501.44495   -726.01108   -2745.0849 
 7808000    274.46916   -3866.5296   -3396.0989   -3866.5296            0    6976.7947    17.162543    20.215208    20.938262    7264.4123    6883.0064    6791.3267    7256.0511    1276.1323    -1461.425    919.72616   -2656.9493 
 7809000    279.09426   -3871.3565   -3392.9985   -3871.3565            0    5690.9445    17.173469    20.228078    20.951592    7278.2949    4391.3338    6862.0246    5819.4751   -1151.0529   -1382.3237    490.41652   -2788.9248 
 7810000     247.5426    -3866.854   -3442.5745    -3866.854            0    5458.6005    17.230283    20.294997    21.020905    7350.7694    5590.5585     6310.718    4474.5252   -454.05197   -731.08534    1357.5789   -2857.3938 
 7811000    264.38009   -3868.2042   -3415.0657   -3868.2042            0    6144.8322    17.211583    20.272972    20.998091    7326.8629    7963.3349     5586.459    4884.7027   -646.48575   -524.69512   -465.32535   -2758.4611 
 7812000    277.56385   -3868.2381   -3392.5032   -3868.2381            0    5785.1411    17.210302    20.271463    20.996529    7325.2271    5736.0668    6277.7481    5341.6084    856.76279    50.088256   -609.78953   -2774.4712 
 7813000     268.2115   -3814.8055   -3355.1002   -3814.8055            0    6626.1787    17.169006    20.222822    20.946148    7272.6231    5872.6196    5806.4815    8199.4348   -454.60884   -922.94712    790.16468   -2652.3029 
 7814000    260.52858   -3834.6395   -3388.1024   -3834.6395            0    5079.9445    17.228213    20.292559     21.01838    7348.1208    7925.6805    4305.2949    3008.8582   -5.9515167   -1471.6257   -1243.8832   -2843.7112 
 7815000    251.86425   -3871.4219   -3439.7352   -3871.4219            0      3536.82     17.29254    20.368328    21.096859    7430.7383    2331.0736    5367.0546    2912.3319    529.87332   -1165.6425   -1337.6213   -3056.4511 
 7816000    279.53004   -3855.0659    -3375.961   -3855.0659            0    5963.6844    17.243811    20.310932    21.037409    7368.0976    6498.5813    6616.1216    4776.3505    1877.3409   -365.10531    -652.1089   -2735.1265 
 7817000    251.39421   -3881.5318   -3450.6507   -3881.5318            0    4643.2623    17.263644    20.334292    21.061606      7393.55    5151.3263    2865.8016    5912.6589   -499.82931   -822.40369    761.16365   -2949.9801 
 7818000    252.10593   -3860.6894   -3428.5884   -3860.6894            0    4698.3293     17.31196    20.391202    21.120551    7455.8013    4602.0417    4527.7065    4965.2396    -887.4702    38.204868    316.32092   -2917.7146 
 7819000     253.1466   -3900.5708   -3466.6862   -3900.5708            0    5990.9216    17.234769    20.300281    21.026377    7356.5122    7066.4534    6461.6188    4444.6925   -97.504522    309.95484    1210.4345    -2823.937 
 7820000    258.92116    -3843.075   -3399.2929    -3843.075            0    7378.4913    17.160435    20.212726    20.935691    7261.7366    6476.6127    9617.3717    6041.4895    1936.2844   -290.10538   -643.98321    -2617.874 
 7821000    257.02905   -3877.3967   -3436.8577   -3877.3967            0    3918.5069     17.24129    20.307963    21.034334    7364.8667    3260.3476    4796.8325    3698.3407    105.18167    -279.3437   -109.72893   -3015.9747 
 7822000    279.98459   -3844.6115   -3364.7275   -3844.6115            0    5330.7052    17.215612    20.277716    21.003006    7332.0084    6312.6162    3548.8347    6130.6649    602.53358     96.16683   -1587.9988   -2794.7162 
 7823000    256.19473     -3894.32    -3455.211     -3894.32            0    6295.8906    17.084394     20.12316    20.842921    7165.6293     8187.157    6375.4229     4325.092    875.00717    765.42852   -2423.9744   -2797.2693 
 7824000    271.18801   -3888.8818   -3424.0748   -3888.8818            0    7067.2474    17.078123    20.115774    20.835271    7157.7419    8778.4096    7037.0103    5386.3222   -818.61462    28.247322    350.38509   -2686.3367 
 7825000    268.53536   -3876.3118   -3416.0514   -3876.3118            0    6907.2393    17.134337    20.181986    20.903851    7228.6554    6206.6383    6137.8226    8377.2571    964.76075    555.76077   -492.92784   -2687.8728 
 7826000    255.93552   -3867.6585   -3428.9938   -3867.6585            0    6871.8743    17.217158    20.279537    21.004892    7333.9839    7952.9132     6020.849    6641.8605    862.95348    -721.2199    407.91672   -2693.9875 
 7827000    261.83589   -3895.2385   -3446.4608   -3895.2385            0    6770.0867    17.176079    20.231152    20.954776    7281.6141    6651.5779     7316.572      6342.11   -1261.7699    275.23789   -1829.3249   -2727.5123 
 7828000    283.35685   -3841.0114   -3355.3475   -3841.0114            0    8126.2828    17.120217    20.165354    20.886625    7210.7991    7172.6566    7689.5952    9516.5967    1602.5145   -665.64982    459.65511   -2500.7704 
 7829000    266.42264   -3891.7617   -3435.1224   -3891.7617            0    5095.0088    17.143257    20.192492    20.914733    7239.9499    6037.9771    4387.1499    4859.8993   -220.35967    727.24021    685.93496   -2897.1545 
 7830000    271.40965   -3842.9049    -3377.718   -3842.9049            0    4262.6592    17.231388    20.296299    21.022253    7352.1845    3634.2847    4296.3124    4857.3806   -1368.3984    -413.5633    89.518628   -2920.6584 
 7831000     258.6457   -3850.4381   -3407.1282   -3850.4381            0    6268.2085    17.181044       20.237    20.960833    7287.9304     8442.897    3360.3229    7001.4056    40.396591    743.37864   -998.03026   -2740.8992 
 7832000    252.70048   -3865.0181   -3431.8981   -3865.0181            0    6674.4903    17.179101    20.234712    20.958463    7285.4588    6007.5184    7028.7269    6987.2257    26.149551    26.744855   -1385.0482   -2722.7272 
 7833000    261.62431   -3879.2558   -3430.8407   -3879.2558            0    4506.3758    17.206499    20.266983    20.991889     7320.372    4764.3186    4206.7838     4548.025   -405.67688   -1262.0419   -149.75997   -2949.7395 
 7834000    259.19067   -3821.8199    -3377.576   -3821.8199            0    5711.1942    17.261001    20.331179    21.058381    7390.1545    6142.4451     5436.606    5554.5316   -428.44114     629.8651    -227.9936   -2762.0359 
 7835000    266.54341   -3855.1794   -3398.3331   -3855.1794            0    7791.2058     17.14249    20.191589    20.913798    7238.9792    7026.5164    8988.7292    7358.3719    166.41351    476.24651    267.32909   -2575.7915 
 7836000    272.05305   -3859.3877   -3393.0981   -3859.3877            0    5350.5717    17.253713    20.322595     21.04949    7380.7981    5576.3508    4156.8367    6318.5277   -575.78056    5.4662772   -706.03606   -2817.1552 
 7837000    258.63612   -3856.1372   -3412.8437   -3856.1372            0    5621.6668      17.2399    20.306325    21.032638    7363.0855    6385.2232    4555.0767    5924.7007    1350.1734   -721.54378     490.1431    -2809.172 
 7838000     272.6949   -3842.3923   -3375.0026   -3842.3923            0    6507.6986    17.213607    20.275355     21.00056    7329.4471    7644.9471    5605.0015    6273.1471   -1424.0242    1526.1609   -879.65069   -2679.3787 
 7839000     260.4567   -3899.1001   -3452.6862   -3899.1001            0    6542.8239    17.194577     20.25294    20.977344    7305.1656     8289.574    5951.8239    5387.0738    1392.6483    732.72254   -682.06829   -2755.6246 
 7840000     259.6063   -3874.7191   -3429.7628   -3874.7191            0    6408.9273     17.22363    20.287161    21.012789    7342.2584    6571.6958    5140.6989    7514.3871   -461.90034    821.53375   -148.68137   -2743.4993 
 7841000       252.42   -3860.9747   -3428.3355   -3860.9747            0    6745.9715    17.160047    20.212269    20.935217    7261.2434    8076.6213    3593.4632      8567.83    2007.4776    191.31673     2593.941   -2713.9521 
 7842000    267.00734   -3837.0329   -3379.3915   -3837.0329            0    5206.4698    17.234461    20.299918    21.026002     7356.118    6734.6001    4716.2226    4168.5866    117.33394     328.4515   -970.42825   -2820.8339 
 7843000    261.75215   -3895.0424   -3446.4081   -3895.0424            0     6058.931    17.217617    20.280078    21.005452    7334.5704    5695.4588    7505.1855    4976.1485    675.47725     203.9867   -83.200485   -2798.3013 
 7844000    262.02427   -3844.2239   -3395.1233   -3844.2239            0    7528.2902    17.181352    20.237363    20.961209    7288.3223    7600.0129     6319.221    8665.6367   -368.15291    415.65741    274.76418   -2594.9209 
 7845000    273.65306   -3905.8371   -3436.8051   -3905.8371            0     5954.291    17.143797    20.193129    20.915393    7240.6351     6424.449    6869.2831    4569.1409    -1034.622    530.22091   -863.08706   -2808.0484 
 7846000    258.45864   -3838.9571   -3395.9679   -3838.9571            0    6283.0013    17.224755    20.288486    21.014161    7343.6972    7141.7544    6004.0851    5703.1644   -1017.7653    1124.4811   -1807.2141   -2723.0566 
 7847000    276.28302   -3873.3036    -3399.764   -3873.3036            0    7348.1298    17.153893     20.20502    20.927709    7253.4341    8966.1903    7739.3047    5338.8944   -1283.0788    1216.9202   -171.64583   -2622.4502 
 7848000    253.75893   -3868.8524   -3433.9183   -3868.8524            0    4878.4814    17.304437    20.382341    21.111372    7446.0849    4472.6499    4138.2261    6024.5683    198.11752    366.66459    596.59544   -2904.1469 
 7849000    261.00649   -3855.8459   -3408.4897   -3855.8459            0    6312.2359    17.299883    20.376976    21.105816    7440.2076    6649.9289    5638.7658    6648.0129    1680.8848   -648.79651   -618.63894   -2723.5629 
 7850000    258.20961    -3862.371   -3419.8086    -3862.371            0    6937.2381    17.208277    20.269077    20.994058    7322.6413    6064.2255     6880.312    7867.1768   -808.36261    -985.1203    -998.9577   -2678.9587 
 7851000    256.60997   -3879.8913   -3440.0706   -3879.8913            0     6524.169    17.186698    20.243661    20.967732    7295.1287    6982.4993     5096.313    7493.6945    137.93509   -433.26336   -584.23721   -2745.9514 
 7852000     256.1714    -3855.092   -3416.0229    -3855.092            0    6713.9798    17.243578    20.310657    21.037125    7367.7989    5618.8954    8280.5353    6242.5087    119.21484    849.34672    548.30511   -2694.5938 
 7853000    262.25424   -3856.4917   -3406.9969   -3856.4917            0     6256.623    17.243483    20.310546    21.037009    7367.6772    6546.4343     4785.899    7437.5357   -1315.5468    628.71098   -1013.3149   -2734.7227 
 7854000    267.62498   -3872.1549   -3413.4548   -3872.1549            0    6807.2649    17.222866    20.286261    21.011856    7341.2805    8226.2926    5140.4927    7055.0093    35.491102    -38.47925   -37.085604   -2684.6347 
 7855000    263.52565   -3832.1816   -3380.5076   -3832.1816            0    4769.7633     17.31226    20.391556    21.120917    7456.1891     5288.216    5259.0494    3762.0246   -881.29071    -874.7588    383.66621   -2861.8394 
 7856000    254.53646   -3871.7713   -3435.5045   -3871.7713            0    4918.7501     17.25112    20.319541    21.046327    7377.4709    3712.8371     5505.134    5538.2791    105.28506    472.92924    1038.5705   -2906.2822 
 7857000    261.11912   -3854.3964   -3406.8472   -3854.3964            0    6191.7693    17.237357     20.30333    21.029535    7359.8274    6503.7543    6008.2985    6063.2553    2160.2414   -808.07562   -166.97953   -2742.2503 
 7858000    250.62086   -3810.0302   -3380.4746   -3810.0302            0    5690.8313     17.24928    20.317374    21.044082    7375.1103     5734.725    6825.9378     4511.831    223.78287   -1534.1422   -353.14502   -2768.3778 
 7859000    255.70259    -3834.676   -3396.4105    -3834.676            0    6661.6191    17.246011    20.313523    21.040093    7370.9175    7913.4577    5431.3149    6640.0846     1140.344      405.226    923.18297   -2680.3047 
 7860000    249.70808   -3824.3996   -3396.4085   -3824.3996            0     4547.978    17.266726    20.337922    21.065365    7397.5104    1555.9238    4152.8039    7935.2064    1443.6257   -767.49187     755.6624   -2905.7494 
 7861000    258.41189   -3841.3528   -3398.4437   -3841.3528            0    5579.5699    17.197746    20.256673    20.981209    7309.2051    6717.6161    6046.6608    3974.4328   -1796.7946   -459.21996   -295.75297   -2803.6768 
 7862000    259.21624   -3850.3675   -3406.0798   -3850.3675            0    5310.2558    17.139689    20.188289     20.91038    7235.4304    4056.5693    7915.6897    3958.5083    420.54763     595.6986   -474.18275   -2845.7345 
 7863000    252.86259   -3858.5979   -3425.2001   -3858.5979            0    5609.6594    17.132843    20.180225    20.902028    7226.7637    6392.5784    4735.7052    5700.6945    201.58276    739.52403    1033.2484   -2833.9704 
 7864000    269.10996   -3858.0724   -3396.8272   -3858.0724            0    7765.0154    17.185886    20.242704    20.966741    7294.0945    7159.4276    7865.7898    8269.8288   -939.80906   -459.77765    125.81313    -2570.809 
 7865000    264.29137   -3843.7431   -3390.7567   -3843.7431            0    7289.8768    17.198192    20.257199    20.981754    7309.7743    5727.2688    6836.8679    9305.4938    173.21822    983.88107   -611.16644   -2613.6153 
 7866000    262.92145   -3879.5848   -3428.9464   -3879.5848            0    6709.7301    17.255139    20.324274    21.051229    7382.6275    6637.4012    5375.8121    8115.9769    185.81254    1525.1618   -693.17918   -2706.5229 
 7867000    260.70246   -3881.4488   -3434.6137   -3881.4488            0    4419.7013    17.240572    20.307117    21.033458    7363.9466    3463.0923    5279.7496    4516.2619   -255.74462   -677.73941    340.20771   -2959.9572 
 7868000    250.60582   -3859.8302   -3430.3004   -3859.8302            0    5903.7842    17.221534    20.284692    21.010231    7339.5782    6113.3325    5748.5154    5849.5048    723.77099 -0.063440425    3.5457629   -2798.3581 
 7869000    267.90092   -3870.3761   -3411.2031   -3870.3761            0    5761.6775     17.25632    20.325666    21.052671    7384.1443    6053.9563    5372.1537    5858.9226   -1762.0588   -46.796975   -497.47958   -2790.7271 
 7870000    264.49299   -3867.2449   -3413.9129   -3867.2449            0    4582.7788    17.231494    20.296424    21.022383    7352.3202    5049.5456    5015.1804    3683.6105   -202.39523    1214.8909   -2109.9134   -2922.5197 
 7871000     262.7458   -3856.4808   -3406.1435   -3856.4808            0      6712.93    17.120838    20.166086    20.887383    7211.5839    6576.5596    4678.5683    8883.6622   -65.416744    183.84853    223.33963   -2700.1208 
 7872000    265.45877   -3843.6989   -3388.7116   -3843.6989            0     5897.405    17.167882    20.221498    20.944776    7271.1945    4805.6504    5653.0519    7233.5126   -476.94562    354.18241    43.309945   -2763.3336 
 7873000    247.43115   -3865.0089   -3440.9204   -3865.0089            0    5296.1035    17.181442    20.237469    20.961319    7288.4375    4487.8486    5848.4403    5552.0214    914.00637   -98.971886   -1425.0621   -2877.9743 
 7874000      272.596   -3866.2794   -3399.0592   -3866.2794            0    7557.5634    17.181254    20.237248     20.96109    7288.1979    7132.0222    6246.3292    9294.3387    1605.9556   -825.49572   -266.08321    -2595.759 
 7875000    270.80105   -3819.9748   -3355.8311   -3819.9748            0    7596.8874    17.210935    20.272208    20.997301     7326.035    7050.6921    8116.0956    7623.8746   -905.17433   -765.48483     729.3287   -2544.1591 
 7876000    264.25043   -3842.7721   -3389.8559   -3842.7721            0    6561.1394    17.087958    20.127358    20.847269    7170.1148    7090.7013     6272.952     6319.765    19.658634   -821.88707   -338.09036   -2703.7657 
 7877000    261.80886   -3839.0249   -3390.2935   -3839.0249            0    5394.5386    17.158251    20.210153    20.933026    7258.9635    6305.3818    3940.8456    5937.3884    480.14573    -408.1128    1747.6742   -2819.2032 
 7878000    262.76425   -3842.5213   -3392.1523   -3842.5213            0    6445.8071    17.115273     20.15953    20.880593    7204.5532    7284.5013     5798.629    6254.2909   -1054.9746     841.7123    54.309931   -2714.8848 
 7879000    275.57654   -3842.4406   -3370.1118   -3842.4406            0    5492.8997    17.133503    20.181003    20.902834    7227.5996    4187.0639    6643.2135    5648.4217    171.21517   -345.57949    289.35882   -2791.1211 
 7880000    256.33972   -3862.3365    -3422.979   -3862.3365            0     5479.979    17.173831    20.228504    20.952033    7278.7551    4754.7097    5735.6699    5949.5576     608.7214    650.92849    61.974101   -2841.2618 
 7881000    265.42323   -3895.3132   -3440.3869   -3895.3132            0    5093.9883    17.203444    20.263385    20.988162    7316.4732    6353.9344     4802.584    4125.4465   -1529.1188   -106.29481    -800.4668   -2896.8417 
 7882000    268.15445   -3839.1877   -3379.5802   -3839.1877            0     5863.563    17.218171    20.280731    21.006128    7335.2784    5253.6924    6266.8974    6070.0992   -145.06116    1322.2201   -1336.1425   -2752.3108 
 7883000    266.61104   -3869.4702    -3412.508   -3869.4702            0    7469.9757    17.079052    20.116868    20.836404      7158.91    8504.4497    7311.0681    6594.4092    1689.3514   -1043.1872   -400.17119   -2632.6025 
 7884000    252.89868    -3874.884   -3441.4243    -3874.884            0     3061.023    17.215499    20.277584    21.002869    7331.8652    2195.2801    3072.5595    3915.2293   -789.86635   -754.16192   -418.92201    -3114.116 
 7885000    260.32251   -3895.5734   -3449.3895   -3895.5734            0    5677.7354    17.140782    20.189577    20.911714    7236.8148     6856.108    4586.3617    5590.7365   -2087.2175   -1906.4837     627.8552   -2850.1527 
 7886000     254.6462   -3859.6498    -3423.195   -3859.6498            0    4680.1609    17.233485    20.298769    21.024811    7354.8682    3082.3102    6306.3499    4651.8225    59.914398   -341.15023   -77.913413   -2921.1859 
 7887000    261.18648   -3884.3106   -3436.6459   -3884.3106            0    4752.8146    17.201651    20.261273    20.985975    7314.1863    5031.4021    4857.2533    4369.7884    227.54366    786.22794   -937.81576   -2929.6636 
 7888000    254.83176   -3847.6783   -3410.9054   -3847.6783            0    6918.2111    17.107528    20.150408    20.871144    7194.7776    8368.6013    6373.2183    6012.8137   -98.163508   -359.60823   -628.36247   -2684.9882 
 7889000    251.01856   -3885.6005   -3455.3633   -3885.6005            0    5919.8739     17.11704    20.161612    20.882748    7206.7848     5565.404    7803.2862    4390.9315   -650.84685   -537.61211   -626.21305   -2833.1635 
 7890000    273.63739   -3884.3385   -3415.3334   -3884.3385            0    5830.1705    17.131635    20.178803    20.900555     7225.236    7534.9843    3745.9372      6209.59   -132.18545   -542.85459    222.65825   -2800.9929 
 7891000    256.99486   -3893.9379   -3453.4575   -3893.9379            0    5561.1386    17.103944    20.146187    20.866772    7190.2571    5712.7902    5195.6817    5774.9441   -706.30257   -962.46853    -86.84632   -2870.3024 
 7892000    260.83221   -3887.2851   -3440.2276   -3887.2851            0    5802.8295    17.136599     20.18465    20.906611    7231.5183    6710.8823    7049.4589    3648.1473    147.08757   -417.62314    660.99868   -2828.2364 
 7893000    258.39087   -3864.4643   -3421.5912   -3864.4643            0    5987.0388    17.130896    20.177932    20.899653    7224.3005    7587.0634    6160.6858    4213.3673   -147.84309    563.87493   -1683.1337   -2790.8027 
 7894000    263.62553   -3881.4888   -3429.6436   -3881.4888            0    6525.3228    17.131123      20.1782     20.89993     7224.588    5973.6223    6157.7797    7444.5663    74.209481    -272.7183    -1238.313   -2742.1147 
 7895000    275.12982   -3853.3855   -3381.8224   -3853.3855            0    7817.8692     17.14015    20.188832    20.910943    7236.0143    8153.9364    9513.5427    5786.1284   -667.71839   -380.71931    515.43486   -2556.8038 
 7896000    268.73177   -3892.7232   -3432.1261   -3892.7232            0     8199.108    17.139915    20.188556    20.910656    7235.7171    9042.3469    10135.243    5419.7336   -933.50412    935.71044    40.664102    -2566.911 
 7897000    241.08654   -3847.6831    -3434.469   -3847.6831            0    6746.2087    17.153594    20.204668    20.927344    7253.0546    4910.9854    7812.4803    7515.1602   -1424.7117   -1559.9281   -506.70498   -2720.8661 
 7898000    249.00707   -3871.8123   -3445.0227   -3871.8123            0     5206.668     17.28171    20.355571    21.083646    7416.7854    6472.0407    5505.2079    3642.7554    960.57829    837.89799   -571.36701   -2881.8372 
 7899000    282.13977   -3874.2282   -3390.6502   -3874.2282            0    7083.0018    17.216026    20.278204    21.003511    7332.5375    6586.7296    6801.6931    7860.5828   -1155.9354    37.986999   -72.707882   -2633.2115 
 7900000    270.15828   -3923.9155   -3460.8734   -3923.9155            0    6114.3359      17.1879    20.245076    20.969198    7296.6589    4921.8682    6541.1798    6879.9597   -565.68909    1233.9499   -200.75265   -2810.2208 
 7901000     248.2188   -3847.9259   -3422.4874   -3847.9259            0    5953.5954    17.225303    20.289131    21.014829    7344.3977    6248.5768    4836.7738    6775.4357     1041.369    1766.3858    -431.5453   -2784.7947 
 7902000    237.67549   -3883.2955   -3475.9279   -3883.2955            0    4591.7682     17.29229    20.368034    21.096554    7430.4161    6274.8982    3520.7098    3979.6964   -136.33302    550.42141   -681.88174   -2978.3409 
 7903000    255.27762    -3852.492   -3414.9549    -3852.492            0    5665.3913     17.22254    20.285877    21.011458    7340.8638    4261.3546    5084.4266    7650.3927   -285.07622   -981.82566   -449.01319    -2808.424 
 7904000    257.28764   -3904.2737   -3463.2915   -3904.2737            0    6348.1872    17.161326    20.213775    20.936778    7262.8676     6926.849    5792.2049    6325.5078    650.09354    170.56938   -146.27857   -2790.8822 
 7905000    265.06118   -3887.6294   -3433.3236   -3887.6294            0    5488.1967    17.161781    20.214312    20.937333    7263.4457    5624.6494    6308.6418    4531.2991    1194.1023    1092.8501   -149.86668   -2851.9594 
 7906000    243.61079   -3880.0052   -3462.4647   -3880.0052            0    4445.6656     17.16566     20.21888    20.942065    7268.3716    4841.0512    3450.9632    5044.9823    1557.6685   -439.82306    1878.1287   -2991.2164 
 7907000    244.83608   -3862.8936   -3443.2529   -3862.8936            0    7160.7295    17.154662    20.205926    20.928648    7254.4101    5315.9725    8156.9875    8009.2284    586.13539    421.04535   -299.97784   -2685.6611 
 7908000    264.20441   -3890.7993    -3437.962   -3890.7993            0    7882.7687    17.105741    20.148303    20.868964     7192.523    8099.1487    7684.3661    7864.7914   -33.408946    301.65371    452.18725   -2611.0945 
 7909000    268.44834   -3889.3237   -3429.2124   -3889.3237            0    5976.8522     17.20162    20.261236    20.985936    7314.1462    5863.7607    7089.9494    4976.8464   -590.10596   -289.97409   -683.01234   -2791.6656 
 7910000    266.61149   -3840.9349   -3383.9719   -3840.9349            0    5434.6129    17.230029    20.294699    21.020596    7350.4453     5820.651    6379.1026    4104.0851   -650.02088    91.166195    196.69495   -2801.3885 
 7911000    250.28401   -3889.9996   -3461.0213   -3889.9996            0    4479.5528    17.297567    20.374249    21.102991    7437.2205    3906.7044    4838.2926    4693.6614    1399.1558    1053.9572   -209.91204   -2975.1501 
 7912000    265.96787   -3888.9594   -3433.0996   -3888.9594            0    2775.5018    17.341297    20.425757    21.156342    7493.7694    3769.4124    2261.6469    2295.4462   -1346.3314   -19.055109    235.63079   -3129.7679 
 7913000    267.24985   -3868.2516   -3410.1945   -3868.2516            0    6602.1062    17.243941    20.311084    21.037567    7368.2635    7997.4144    6039.7854    5769.1189    -506.7371   -648.16654    1577.5501   -2700.7417 
 7914000    261.41258   -3876.4077   -3428.3555   -3876.4077            0    4897.8226    17.233433    20.298708    21.024748    7354.8022    4619.4453    5284.9406    4789.0818    1224.8052   -809.46042   -363.42265    -2903.004 
 7915000    253.08242    -3851.415   -3417.6404    -3851.415            0    5871.2514    17.231651    20.296608    21.022574    7352.5203    5231.6038    6413.1713    5968.9792   -541.66351    54.234394   -496.58171   -2788.0722 
 7916000    264.98791   -3839.1985   -3385.0182   -3839.1985            0    7295.9795    17.164207    20.217169    20.940293    7266.5263    6928.4853    8575.5016    6383.9517    387.42016    45.933049    10.219611    -2611.828 
 7917000    256.26434   -3877.6055   -3438.3772   -3877.6055            0    4263.5112    17.228522    20.292923    21.018757    7348.5162     2909.139    4538.7039    5342.6908   -1086.5459    636.61645    1026.1865   -2981.4543 
 7918000    292.18602   -3888.8196   -3388.0228   -3888.8196            0    4904.4529    17.210844    20.272101     20.99719    7325.9189     3822.987    4949.5032    5940.8683    785.13114    10.769246     1446.894   -2864.0261 
 7919000    273.16699   -3852.1007   -3383.9018   -3852.1007            0    4787.1769    17.217338     20.27975    21.005112    7334.2147    3933.8884     5604.743    4822.8994   -302.66623    1114.0118    453.48413   -2871.8558 
 7920000     260.3687   -3842.9684   -3396.7054   -3842.9684            0    6032.7043    17.160776    20.213127    20.936106    7262.1686    7580.4791    5341.2315    5176.4023   -544.73628   -1455.6223    178.50571   -2757.7739 
 7921000    268.14879   -3895.7353   -3436.1374   -3895.7353            0    5304.2351    17.109467    20.152692    20.873509    7197.2239    5989.9032     6061.313     3861.489   -1165.8465    401.46353    3.5388892    -2879.383 
 7922000    260.51139   -3887.1145   -3440.6069   -3887.1145            0    6778.3102    17.175429    20.230387    20.953983    7280.7878    4726.6304    8355.6588    7252.6413   -1615.2941    -597.1229   -2174.9264   -2720.8668 
 7923000    250.96943   -3860.7591   -3430.6061   -3860.7591            0    7054.4382    17.111028    20.154531    20.875414    7199.1944    5313.5488    8370.4906    7479.2751   -1274.2846   -1112.8087    1905.4579   -2689.9405 
 7924000    260.65744   -3893.0037   -3446.2458   -3893.0037            0    5949.9073    17.251227    20.319666    21.046456    7377.6073    4046.1999    5350.5169    8453.0051    1376.9623   -162.53743    110.27294   -2806.0665 
 7925000    273.00032   -3861.7497   -3393.8365   -3861.7497            0    7038.1311    17.195874    20.254468    20.978926    7306.8192     6155.772    4789.2352    10169.386    366.99589    1102.6072    805.87538   -2643.8359 
 7926000     259.6344   -3872.0443   -3427.0398   -3872.0443            0    7183.9978    17.136392    20.184406    20.906358    7231.2564    8237.7302    7263.6502    6050.6131   -1091.7235   -464.72772   -822.47446   -2669.4121 
 7927000    269.63864   -3849.7744    -3387.623   -3849.7744            0    6439.9468    17.171874    20.226199    20.949646    7276.2674    5591.5213    6270.8402    7457.4788     234.3846   -1388.7616   -681.03045   -2704.2358 
 7928000    266.99313   -3851.4673   -3393.8502   -3851.4673            0    7222.6421    17.194448    20.252789    20.977187    7305.0016    7563.3654    5405.7368     8698.824    312.90029    -997.9957   -1043.6147   -2624.3792 
 7929000    268.94971      -3875.3   -3414.3294      -3875.3            0    3931.1618    17.202668    20.262471    20.987215    7315.4836    3760.5717    2533.7007    5499.2132    173.36429   -945.12004   -623.08458   -2994.9183 
 7930000    253.10727   -3834.6357   -3400.8185   -3834.6357            0     7016.833    17.144552    20.194018    20.916314    7241.5916    5722.2763    8336.0245    6992.1982   -1716.8653   -849.74806    993.26466   -2659.7624 
 7931000    281.62246   -3842.4577   -3359.7664   -3842.4577            0    7807.3348    17.156724    20.208355    20.931163    7257.0263    9094.1352    8673.3947    5654.4746   -989.11712   -903.01553   -233.00951   -2533.4671 
 7932000    279.58497   -3826.0267   -3346.8276   -3826.0267            0     7307.023    17.100723    20.142392    20.862842    7186.1945    7603.4854    8054.8271    6262.7565    1510.2841   -467.46304    -1606.631   -2581.0277 
 7933000    269.05934   -3892.0415    -3430.883   -3892.0415            0    4175.5993    17.192375    20.250346    20.974657     7302.359    3686.2503    4314.3675    4526.1801   -1481.6765    49.254547   -491.45802   -2986.1925 
 7934000    285.25712   -3917.4555   -3428.5345   -3917.4555            0    6437.0137    17.131673    20.178848    20.900601    7225.2837    6751.0941    5640.9268    6919.0201    122.76053     251.7442   -1556.2321   -2750.2448 
 7935000    274.63382   -3858.5399   -3387.8269   -3858.5399            0    7315.5904     17.10048    20.142107    20.862546    7185.8893    6785.9108    6442.3874    8718.4731   -132.36137   -565.32849   -13.739061   -2621.1617 
 7936000    267.41804   -3856.7309   -3398.3856   -3856.7309            0    6454.6113    17.100109     20.14167    20.862093     7185.421    6026.2878    6461.8772     6875.669    751.28731   -693.85548    916.01982    -2721.994 
 7937000    258.70952   -3853.3823   -3409.9631   -3853.3823            0    7075.8987    17.093412    20.133782    20.853923    7176.9823    6032.3497    6653.7002    8541.6462    301.69333    -656.2873   -987.76531   -2669.3364 
 7938000    266.63735   -3825.5989   -3368.5916   -3825.5989            0    7176.9783    17.197018    20.255815    20.980321    7308.2768    8589.6918    7481.8029      5459.44    954.69042   -947.49301    128.74072   -2603.6425 
 7939000    265.16775    -3880.559   -3426.0705    -3880.559            0    5370.7232    17.248114       20.316    21.042659    7373.6149    4435.4228    6380.5682    5296.1784    226.68335    482.20637    -625.8114   -2848.5211 
 7940000    275.66728   -3813.3992   -3340.9149   -3813.3992            0    5606.1835    17.189762    20.247269    20.971469    7299.0302    4841.6826    7485.7509    4491.1169     1344.383     349.5425    1590.1921    -2744.143 
 7941000    272.72123   -3832.8621   -3365.4273   -3832.8621            0    5450.9366    17.191427     20.24923    20.973501    7301.1515    6725.0469    4797.8933    4829.8696    -67.76344   -1193.0742    80.421352   -2785.0126 
 7942000    271.92233   -3845.8605   -3379.7949   -3845.8605            0     5875.435    17.211133    20.272441    20.997542    7326.2877    7830.9707    4110.7601    5684.5742    105.80415     1775.791    317.68794   -2752.0259 
 7943000    270.69991   -3847.4637   -3383.4934   -3847.4637            0     4830.594    17.216513    20.278778    21.004106    7333.1602    5863.3169    3908.9563    4719.5088    160.82631    -31.15225   -249.23777   -2866.8777 
 7944000    269.75487   -3849.4932   -3387.1426   -3849.4932            0    7117.5111    17.231793    20.296776    21.022747     7352.702    7844.7979    6164.0678    7343.6675    1678.5481   -990.01832    345.70405   -2623.9203 
 7945000    268.40198   -3882.4461   -3422.4143   -3882.4461            0    7147.5758    17.212888    20.274508    20.999683    7328.5286    5845.4848    8131.2889    7465.9536   -446.55917   -879.38758    537.98721    -2658.488 
 7946000    258.15438   -3874.9877   -3432.5199   -3874.9877            0     4495.746     17.37241    20.462404      21.1943    7534.1769    3924.9715    5115.0493    4447.2173   -2202.5313   -601.17638    341.25176   -2938.5352 
 7947000    265.72596   -3875.1019   -3419.6567   -3875.1019            0    5280.7276    17.297892    20.374631    21.103387    7437.6392    4404.6494    6529.7813     4907.752    1403.5316    524.34928     37.81305   -2846.8544 
 7948000    259.22208    -3851.134   -3406.8362    -3851.134            0    5391.9195    17.236565    20.302397    21.028569    7358.8132     3634.778    6451.5925     6089.388   -1494.5999   -1384.1695    1253.0195   -2828.1714 
 7949000     285.8063   -3871.6616   -3381.7993   -3871.6616            0    6451.6001    17.206064     20.26647    20.991358    7319.8162    4737.7198    6247.0832    8369.9974     -514.295   -313.08876    1500.0294   -2693.0781 
 7950000    262.57913    -3848.121   -3398.0693    -3848.121            0     5937.514    17.166639    20.220033    20.943259    7269.6148    4981.2218    6166.6148    6664.7053   -1044.0641   -2018.5638    2034.2594   -2768.5749 
 7951000    266.76157   -3868.7566   -3411.5364   -3868.7566            0    6035.2867    17.199279    20.258479     20.98308    7311.1601    6912.3095    5764.8449    5428.7057    622.35766   -844.14614    -476.2537   -2768.0193 
 7952000    268.07536   -3868.1461   -3408.6741   -3868.1461            0    5568.0645    17.285673     20.36024    21.088481    7421.8895    6865.4221    5159.6479    4679.1236    433.56252   -1524.8935    337.51543   -2805.9832 
 7953000    255.21171   -3865.9844   -3428.5603   -3865.9844            0    5136.7033     17.20317    20.263062    20.987828    7316.1242    5743.7665    4623.3045     5043.039    1253.4354    294.84997   -583.48764   -2880.4834 
 7954000    267.23688   -3877.8801   -3419.8452   -3877.8801            0    8370.4345    17.113465    20.157401    20.878387    7202.2707    8199.4667    7592.4774    9319.3593   -1263.9933    1006.7476    577.11002   -2540.6338 
 7955000    249.07464   -3892.2081   -3465.3026   -3892.2081            0     5293.414    17.257766    20.327369    21.054434    7386.0003    6064.4827    5495.9086    4319.8505   -1174.4837    439.58109    448.31673   -2895.1107 
 7956000    259.42641    -3904.713    -3460.065    -3904.713            0    6001.5291     17.18905     20.24643      20.9706    7298.1232    5353.8743    5935.5656    6715.1475   -523.19924    157.66962    1277.3454   -2821.2884 
 7957000    251.18451   -3863.2484   -3432.7267   -3863.2484            0    6194.4611    17.241969    20.308762    21.035161    7365.7358    5671.6592    6176.4711     6735.253    -50.54615    745.82227    16.225993   -2767.3072 
 7958000    269.20892   -3875.8572   -3414.4423   -3875.8572            0    6629.5514    17.196085    20.254716    20.979183    7307.0874    5894.9861    7454.0916    6539.5763    767.98959      376.083    2206.0264   -2707.9551 
 7959000     261.4654   -3878.6145   -3430.4717   -3878.6145            0    6080.4693    17.227468    20.291681     21.01747    7347.1673    6137.7907    4609.9344    7493.6828    69.360859   -429.92284   -236.31348    -2778.944 
 7960000    258.96092   -3835.5482    -3391.698   -3835.5482            0    5736.0584    17.267098    20.338361     21.06582    7397.9889    6283.8151    5250.9954    5673.3647    1777.3719   -2005.7513   -393.02456   -2772.8228 
 7961000    264.68158   -3904.6487   -3450.9936   -3904.6487            0    5648.9422    17.249227    20.317311    21.044017     7375.042    6237.6385    5615.4769    5093.7112     1312.892    -65.90993    482.72269   -2843.4079 
 7962000     281.5751   -3927.3807   -3444.7706   -3927.3807            0    4678.1668    17.206864    20.267412    20.992333    7320.8369    4188.0251    5146.0887    4700.3866   -294.06729    481.62761    371.71137   -2945.2972 
 7963000     271.5644   -3886.5525   -3421.1004   -3886.5525            0    6331.7386    17.260454    20.330535    21.057713    7389.4518    8500.7839    4875.8561    5618.5758    331.82755   -740.16122    83.496832   -2738.7443 
 7964000    259.35463    -3889.023   -3444.4981    -3889.023            0    7444.0623    17.128437    20.175036    20.896653    7221.1901    7924.4721    8508.8149    5898.8999    150.98654   -1694.1054   -1164.3456   -2660.5367 
 7965000    251.83019   -3932.2459   -3500.6176   -3932.2459            0    6496.3058    17.159896    20.212091    20.935033    7261.0521    6681.6224    6613.3537    6193.9413    153.33462   -107.83663   -499.84971   -2812.6913 
 7966000    250.73953   -3862.9261   -3433.1671   -3862.9261            0    6389.6264    17.162605    20.215282    20.938338    7264.4912    6235.2215    7699.1462    5234.5116    364.64171    48.420425   -890.26964   -2756.2172 
 7967000    263.26594   -3900.4357   -3449.2069   -3900.4357            0    7369.6453     17.09841    20.139669    20.860021    7183.2801     7230.714    8615.1288    6263.0931     1057.099   -1219.1195    623.43907   -2677.1571 
 7968000    260.59508   -3855.1125   -3408.4615   -3855.1125            0    3239.9032    17.260423    20.330498    21.057676    7389.4123    3141.8473    4211.5307    2366.3314    -1690.135   -151.26336   -315.64292   -3059.3068 
 7969000    266.24569   -3850.2095   -3393.8735   -3850.2095            0    6862.3207    17.249813    20.318001    21.044732    7375.7938    7021.4252    6006.0115    7559.5255    783.89662   -586.00476   -477.87462   -2655.7048 
 7970000    264.52676   -3875.6776   -3422.2878   -3875.6776            0    7419.2864    17.156706    20.208334    20.931141    7257.0034    5380.8678    8634.4722    8242.5193   -60.854554   -251.38407     661.3785   -2637.0606 
 7971000    269.88742   -3884.5277   -3421.9499   -3884.5277            0    8822.0791    17.140936    20.189758    20.911902    7237.0103    8060.1096    9471.6105     8934.517   -263.01393    1071.6086   -117.69593   -2490.8291 
 7972000    264.60832   -3894.9671   -3441.4375   -3894.9671            0    6778.1744    17.235393    20.301017     21.02714    7357.3123    6786.8791    7760.5683    5787.0759   -560.36726    1336.3274    636.16492   -2714.1472 
 7973000    253.32723   -3883.9312    -3449.737   -3883.9312            0    6676.7071    17.266377    20.337511    21.064939    7397.0616    6512.0522    6171.0113    7347.0578   -559.39274   -778.33165   -27.255666   -2729.4635 
 7974000    256.05841   -3860.4088   -3421.5334   -3860.4088            0    5568.6288     17.20538    20.265665    20.990524     7318.944    7066.2591    4929.8116    4709.8157    1435.9526    569.34926    1003.7272    -2827.142 
 7975000    265.73148   -3894.6503   -3439.1956   -3894.6503            0    8442.7422    17.140568    20.189325    20.911452    7236.5437    9530.7039    7293.3982    8504.1245    1129.9123   -1428.0995    -365.2065   -2548.1692 
 7976000     266.9605   -3869.1044   -3411.5432   -3869.1044            0    5552.2966    17.240889     20.30749    21.033844    7364.3521    5835.4609    5137.0401    5684.3887    1054.5946   -669.70377    1392.7684   -2815.2181 
 7977000    280.33592   -3852.5192    -3372.033   -3852.5192            0    4022.3634    17.233773    20.299109    21.025163    7355.2378    4737.2515    4882.4851    2447.3538    815.11245      1534.05    796.37361   -2940.5597 
 7978000    277.87145   -3873.0558   -3396.7937   -3873.0558            0    7175.5217    17.190131    20.247704     20.97192    7299.5006    5599.2661    9614.6165    6312.6824    928.22634    216.52562   -1461.6048   -2632.9183 
 7979000    271.53358   -3872.4189   -3407.0197   -3872.4189            0    6717.0583    17.210581    20.271791    20.996869    7325.5831    5043.7189    6190.4971    8916.9587   -824.16287    251.39538   -120.10841   -2689.3952 
 7980000    267.05232    -3843.637   -3385.9184    -3843.637            0    6458.6039    17.145038     20.19459    20.916906    7242.2067    6968.5853    6062.3171    6344.9094   -107.31392      239.669    1516.4242   -2703.7597 
 7981000    268.53727   -3840.7019   -3380.4382   -3840.7019            0    4390.2072    17.236543     20.30237    21.028542     7358.784    4855.2607    3982.6988     4332.662     660.0326   -321.79141   -1164.9863   -2909.2798 
 7982000     261.7368   -3845.9693   -3397.3614   -3845.9693            0    5871.4891    17.140169    20.188855    20.910966    7236.0387    6800.3107    2984.8508    7829.3059    519.52049   -344.23812   -1518.2197   -2777.7419 
 7983000    268.96251    -3852.583   -3391.5905    -3852.583            0    6897.5512     17.14591    20.195618     20.91797    7243.3126    8745.5127    5107.2565    6839.8843   -7.9796353   -509.02163    1087.0718   -2662.9588 
 7984000    273.66027   -3836.1593    -3367.115   -3836.1593            0    7541.9997    17.172575    20.227025    20.950501    7277.1587    8009.4064    7463.7002    7152.8924   -13.972757    270.27124   -283.46886   -2566.6834 
 7985000    267.37056   -3882.0559   -3423.7919   -3882.0559            0    6584.8448    17.183928    20.240397    20.964352    7291.6015    6336.0327    5822.2796     7596.222   -1421.1241     461.7115    54.475516    -2723.556 
 7986000    260.08734   -3846.6264   -3400.8456   -3846.6264            0    7694.5816    17.170977    20.225143    20.948552    7275.1277    7525.4204    8309.1367    7249.1877   -814.51106    1052.0038    1345.6002   -2584.4484 
 7987000    264.97537   -3853.3633   -3399.2046   -3853.3633            0    5273.6569    17.178906    20.234482    20.958226    7285.2108    5416.3347    4401.5949    6003.0409   -622.62354    751.11755      952.063   -2838.8927 
 7988000    260.74329   -3832.2829   -3385.3778   -3832.2829            0    6587.7389    17.154518    20.205756    20.928472    7254.2268    6120.6314    7615.8264     6026.759    643.71565    1689.8194   -34.029427   -2688.4249 
 7989000     258.4373   -3837.8587    -3394.906   -3837.8587            0    4978.6444    17.183623    20.240038     20.96398    7291.2136    5526.2623     4974.878    4434.7931   -232.44246    1171.2171   -14.959308   -2865.5025 
 7990000    247.40431   -3817.2584   -3393.2159   -3817.2584            0     5437.617    17.211587    20.272975    20.998095    7326.8669    5354.9436    4758.0221    6199.8852    1080.6724     681.2056   -16.501381   -2812.1802 
 7991000    252.91396    -3861.235   -3427.7491    -3861.235            0      4534.37    17.221286      20.2844    21.009929    7339.2612    5252.0444    4542.9216     3808.144   -2257.3955   -390.13906    1484.4366   -2942.4101 
 7992000    268.25162   -3843.6811    -3383.907   -3843.6811            0    6716.3887    17.142035    20.191052    20.913242    7238.4019    8315.0683    6200.4127    5633.6851   -402.05789    337.73975    2328.2242   -2674.8937 
 7993000    280.56209    -3848.614   -3367.7402    -3848.614            0    5208.8905     17.22512    20.288917    21.014607    7344.1644    4760.2565    4029.1506    6837.2646   -1438.3895   -998.93601    438.08115    -2809.831 
 7994000    269.78191   -3872.9882   -3410.5912   -3872.9882            0    6579.9684    17.172837    20.227334    20.950821    7277.4923    8347.1637    5181.7693    6210.9722   -1642.7397   -326.70498   -762.47936   -2712.2278 
 7995000    267.96161   -3823.7247   -3364.4476   -3823.7247            0    5641.1775    17.260033    20.330039      21.0572    7388.9111    5290.5185    4307.1228    7325.8912    -421.1644    905.32631   -1259.3677   -2756.5561 
 7996000    259.52942   -3857.0429   -3412.2184   -3857.0429            0     4458.685    17.207699    20.268397    20.993353    7321.9035    3595.4678    5525.0406    4255.5467   -1007.6993      196.471    133.48178   -2936.1091 
 7997000    266.21192   -3844.8359   -3388.5578   -3844.8359            0     7472.042    17.139686    20.188286    20.910377    7235.4275    5091.4105    8366.4673    8958.2483   -803.74503    386.13021   -941.65546   -2600.0983 
 7998000    265.55505   -3820.2057   -3365.0534   -3820.2057            0    4257.5025    17.261077    20.331269    21.058474    7390.2524    4985.8154    5688.1551    2098.5371    1083.1783     563.5651    -1472.773    -2906.183 
 7999000    251.60292   -3867.9168   -3436.6781   -3867.9168            0    6701.1716    17.194253    20.252559    20.976949    7304.7532    8956.6066    6173.0097    4973.8985    100.41268    657.20389   -559.61041   -2722.7866 
 8000000    272.92093   -3839.5457   -3371.7686   -3839.5457            0    6418.0591    17.222016    20.285261     21.01082    7340.1948    7210.7033    5688.6831    6354.7911   -126.09662    260.81619   -492.41367   -2684.7204 
Loop time of 417.929 on 64 procs for 250000 steps with 864 atoms

Performance: 103.367 ns/day, 0.232 hours/ns, 598.188 timesteps/s
99.1% CPU use with 64 MPI tasks x 1 OpenMP threads

MPI task timing breakdown:
Section |  min time  |  avg time  |  max time  |%varavg| %total
---------------------------------------------------------------
Pair    | 20.789     | 25.807     | 30.222     |  48.6 |  6.18
Bond    | 0.26691    | 0.27802    | 0.28924    |   0.9 |  0.07
Kspace  | 175.89     | 186.95     | 199.25     |  40.6 | 44.73
Neigh   | 4.4146     | 5.8136     | 6.9896     |  30.0 |  1.39
Comm    | 83.624     | 96.557     | 108.85     |  62.0 | 23.10
Output  | 0.87985    | 0.8811     | 0.88656    |   0.1 |  0.21
Modify  | 93.194     | 96.026     | 102        |  19.7 | 22.98
Other   |            | 5.612      |            |       |  1.34

Nlocal:        13.5000 ave          19 max           8 min
Histogram: 2 2 3 15 12 11 7 7 3 2
Nghost:        2167.03 ave        2206 max        2133 min
Histogram: 3 4 8 15 13 4 6 2 5 4
Neighs:        4204.50 ave        6666 max        2801 min
Histogram: 4 12 13 10 8 7 7 1 1 1

Total # of neighbors = 269088
Ave neighs/atom = 311.44444
Ave special neighs/atom = 2.0000000
Neighbor list builds = 14354
Dangerous builds = 0

unfix		3
unfix		2
unfix		1

write_data	data.final.${pid}
write_data	data.final.0
System init for write_data ...
PPPM initialization ...
  extracting TIP4P info from pair style
  using 12-bit tables for long-range coulomb (../kspace.cpp:340)
  G vector (1/distance) = 0.37463093
  grid = 24 24 25
  stencil order = 5
  estimated absolute RMS force accuracy = 0.0030311737
  estimated relative force accuracy = 9.1282897e-06
  using double precision FFTW3
  3d grid and FFT values/proc = 2730 288
Last active /omp style is kspace_style pppm/tip4p/omp
WARNING: Not all mixed pair coeffs generated from mixing. Use write_data with 'pair ij' option to store all pair coeffs. (../write_data.cpp:312)

write_restart   restart.lmp.${pid}
write_restart   restart.lmp.0
System init for write_restart ...
PPPM initialization ...
  extracting TIP4P info from pair style
  using 12-bit tables for long-range coulomb (../kspace.cpp:340)
  G vector (1/distance) = 0.37463093
  grid = 24 24 25
  stencil order = 5
  estimated absolute RMS force accuracy = 0.0030311737
  estimated relative force accuracy = 9.1282897e-06
  using double precision FFTW3
  3d grid and FFT values/proc = 2730 288
Last active /omp style is kspace_style pppm/tip4p/omp
Total wall time: 0:06:59
