LAMMPS (30 Jul 2021)
Processor partition = 1
  using 4 OpenMP thread(s) per MPI task
using multi-threaded neighbor list subroutines
variable        pid world 0 1
variable        phase world IceII IceIh

shell cd ${phase}
shell cd IceIh
include Restart.lmp
echo both
log log.lammps
#include		in.partitions
include		in.temp
variable        temperature equal 2.60
variable	tempDamp equal 100.0
include		in.pressure
variable        pressure equal 1990.0
variable        pressureDamp equal 1000.0 # This is 1 ps
include		in.seed
variable        seed equal 745823

units		real
atom_style	full
#include		in.box
read_restart	restart.lmp.${pid}
read_restart	restart.lmp.1
Reading restart file ...
  restart file = 30 Jul 2021, LAMMPS = 30 Jul 2021
  restoring atom style full from restart
  orthogonal box = (0.19694859 0.15404368 0.16538213) to (18.010624 23.475134 22.047814)
  2 by 4 by 2 MPI processor grid
  restoring pair style lj/cut/tip4p/long/omp from restart
  restoring bond style harmonic/omp from restart
  restoring angle style harmonic/omp from restart
  864 atoms
  576 bonds
  288 angles
Finding 1-2 1-3 1-4 neighbors ...
  special bond factors lj:    0        0        0       
  special bond factors coul:  0        0        0       
     2 = max # of 1-2 neighbors
     1 = max # of 1-3 neighbors
     1 = max # of 1-4 neighbors
     2 = max # of special neighbors
  special bonds CPU = 0.001 seconds
  read_restart CPU = 0.005 seconds
include 	in.setup
variable	out_freq equal 1000
variable	out_freq2 equal 10000
variable	out_freq3 equal 1000

timestep	2.0

neigh_modify    delay 7 every 1

include		in.tip4p
# This is TIP4P/Ice

# create groups ###
group ox type 2
288 atoms in group ox
group hy type 1
576 atoms in group hy

# set charges - beside manually ###
set group ox charge -1.1794
Setting atom values ...
  288 settings made for charge
set group hy charge 0.5897
Setting atom values ...
  576 settings made for charge

# ### TIP3P Potential Parameters ###
pair_style lj/cut/tip4p/long/omp 2 1 1 1 0.1577 8.5
pair_coeff 1 1*2 0.000 0.000
pair_coeff 2 2 0.21084 3.1668
bond_style  harmonic
bond_coeff  1 450 0.9572
angle_style harmonic
angle_coeff 1 55 104.52
kspace_style pppm/tip4p/omp 1.0e-5
pair_modify tail yes

thermo          ${out_freq}
thermo          1000
thermo_style    custom step temp pe etotal epair emol press lx ly lz vol pxx pyy pzz pxy pxz pyz enthalpy

restart 	${out_freq3} restart.lmp.${pid} restart2.lmp.${pid}
restart 	1000 restart.lmp.${pid} restart2.lmp.${pid}
restart 	1000 restart.lmp.1 restart2.lmp.${pid}
restart 	1000 restart.lmp.1 restart2.lmp.1


include         in.dump
dump            myDump all atom ${out_freq2} dump.water.${pid}
dump            myDump all atom 10000 dump.water.${pid}
dump            myDump all atom 10000 dump.water.1
dump            myDump2 all dcd ${out_freq2} dump.dcd
dump            myDump2 all dcd 10000 dump.dcd
dump_modify     myDump append yes
dump_modify     myDump2 append yes


variable natoms 	equal  "count(all)"                        # NUMBER ATOMS
variable H      	equal  "enthalpy/v_natoms"                 # ENTHALPY-per-atom
variable Vol      	equal  "vol/v_natoms"                 # volume-per-atom
fix AVG all 		ave/time ${out_freq} 1 ${out_freq} v_Vol v_H file vol_enthalpy.dat
fix AVG all 		ave/time 1000 1 ${out_freq} v_Vol v_H file vol_enthalpy.dat
fix AVG all 		ave/time 1000 1 1000 v_Vol v_H file vol_enthalpy.dat


timer           timeout 23:50:00 every 1000
New timer settings: style=normal  mode=nosync  timeout=23:50:00

fix 		1 all shake 1e-6 200 0 b 1 a 1
Finding SHAKE clusters ...
       0 = # of size 2 clusters
       0 = # of size 3 clusters
       0 = # of size 4 clusters
     288 = # of frozen angles
  find clusters CPU = 0.000 seconds
fix             2 all nph aniso ${pressure} ${pressure} ${pressureDamp}
fix             2 all nph aniso 1990 ${pressure} ${pressureDamp}
fix             2 all nph aniso 1990 1990 ${pressureDamp}
fix             2 all nph aniso 1990 1990 1000
fix             3 all temp/csvr ${temperature} ${temperature} ${tempDamp} ${seed}
fix             3 all temp/csvr 2.6 ${temperature} ${tempDamp} ${seed}
fix             3 all temp/csvr 2.6 2.6 ${tempDamp} ${seed}
fix             3 all temp/csvr 2.6 2.6 100 ${seed}
fix             3 all temp/csvr 2.6 2.6 100 745823


run             250000
PPPM initialization ...
  extracting TIP4P info from pair style
  using 12-bit tables for long-range coulomb (../kspace.cpp:340)
  G vector (1/distance) = 0.3721951
  grid = 24 27 25
  stencil order = 5
  estimated absolute RMS force accuracy = 0.0031068218
  estimated relative force accuracy = 9.3561016e-06
  using double precision FFTW3
  3d grid and FFT values/proc = 6300 1296
Last active /omp style is kspace_style pppm/tip4p/omp
Neighbor list info ...
  update every 1 steps, delay 7 steps, check yes
  max neighbors/atom: 2000, page size: 100000
  master list distance cutoff = 10.8154
  ghost atom cutoff = 10.8154
  binsize = 5.4077, bins = 4 5 5
  1 neighbor lists, perpetual/occasional/extra = 1 0 0
  (1) pair lj/cut/tip4p/long/omp, perpetual
      attributes: half, newton on, omp
      pair build: half/bin/newton/omp
      stencil: half/bin/3d
      bin: standard
Setting up Verlet run ...
  Unit style    : real
  Current step  : 47750000
  Time step     : 2
  Walltime left : 23:49:59.96
Per MPI rank memory allocation (min/avg/max) = 12.26 | 12.29 | 12.31 Mbytes
Step Temp PotEng TotEng E_pair E_mol Press Lx Ly Lz Volume Pxx Pyy Pzz Pxy Pxz Pyz Enthalpy 
47750000    2.7363078   -4735.2855   -4730.5956   -4735.2855            0    1991.9561    17.813675     23.32109    21.882432    9090.7133     2126.842    1949.4278    1899.5986   -103.84442   -144.68524    41.368086   -4466.5046 
47751000    2.5997083   -4735.5647   -4731.1089   -4735.5647            0    1973.4646    17.863308    23.279124    21.863394    9091.7208    2044.3898    1960.0193    1915.9845   -223.24593   -25.213676    27.987623   -4469.4405 
47752000    2.6484233     -4735.92   -4731.3807     -4735.92            0    1964.6664    17.890805    23.266535    21.845013    9093.1404     1925.385    1928.2495    2040.3646   -4.9622763    68.712221    54.246729   -4470.8381 
47753000    2.5556942   -4735.6712   -4731.2908   -4735.6712            0    1985.8172    17.909238    23.247751     21.83792    9092.2072    1932.9405    2025.8679    1998.6432   -58.643397   -44.937637   -10.476488   -4467.9704 
47754000    2.4152444   -4735.8707   -4731.7311   -4735.8707            0    2007.0361    17.944001    23.210517    21.820338    9087.9422    1874.1344    2042.4272    2104.5466   -101.85646    48.601387     95.77254   -4465.7219 
47755000    2.7049527    -4735.569   -4730.9328    -4735.569            0    1970.4098    17.917348    23.237381    21.843454    9094.5713    1968.1572    2047.6657    1895.4065   -41.425005    20.942213    40.767106   -4469.5875 
47756000    2.7066073   -4735.4874   -4730.8483   -4735.4874            0    1966.5251    17.886487    23.246368      21.8691    9093.0812    1894.4483    1991.5382    2013.5887    27.115295   -114.93632    14.276083    -4470.061 
47757000    2.6281314   -4735.5945     -4731.09   -4735.5945            0    2006.3478    17.851968    23.296275    21.862665    9092.3401    2085.0171    1990.3241    1943.7022    84.291372   -25.948352    79.926249   -4465.0434 
47758000    2.6255715   -4735.8136   -4731.3135   -4735.8136            0    1943.7828    17.846203    23.306912    21.866449     9095.128    2021.8494    1915.6979    1893.8011   -27.433057    87.411174    79.044642   -4473.4841 
47759000    2.8352851     -4735.58   -4730.7204     -4735.58            0    2021.3103    17.843867    23.284801    21.876038    9089.2943    2076.1766     2007.344    1980.4104   0.67366199   -80.490325    61.154296   -4462.7795 
47760000    2.5436454   -4735.3447    -4730.985   -4735.3447            0    2027.0631    17.868187    23.280835    21.853532    9090.7702    2033.6079    1970.7037    2076.8778   -131.20044   -69.744296    61.414553   -4462.2378 
47761000     2.568913   -4735.7359   -4731.3329   -4735.7359            0    1949.2315    17.918033    23.222167    21.857169    9094.6708     1907.485    1975.7858    1964.4236   -43.841511    84.639295    123.10076   -4472.7937 
47762000    2.7716488   -4735.2195    -4730.469   -4735.2195            0    1967.3934    17.935377    23.192101    21.861907    9093.6587    1877.2714    2047.2133    1977.6957    6.4412288   -90.308505    15.262551   -4469.5499 
47763000    2.6258745   -4735.3117   -4730.8111   -4735.3117            0    1975.9504    17.905294    23.241069    21.855336    9094.8395    1937.9725    1994.1003    1995.7784    31.447766    -61.29019    79.145735   -4468.7232 
47764000    2.5439551    -4735.706   -4731.3457    -4735.706            0    1993.1787    17.880678    23.251227    21.869435    9092.1676    2001.3177    1993.5262    1984.6921   -108.89474    71.000491    56.462935   -4467.0503 
47765000    2.7067777   -4735.5543    -4730.915   -4735.5543            0    1974.5674    17.864827    23.274535    21.871761    9094.1806    1955.9548     1958.778    2008.9693   -59.131367   -107.47719    58.339895   -4469.0295 
47766000    2.7154225   -4735.5888   -4730.9347   -4735.5888            0    1970.8058     17.83359    23.301134    21.884589    9093.9854    2064.8781    1976.2461    1871.2933    -20.84838   -86.224975    83.711411   -4469.5537 
47767000    2.5114666   -4735.3892   -4731.0846   -4735.3892            0     2022.557     17.83589    23.307574    21.871101    9092.0645    2084.4955     1915.541    2067.6346   -91.031466    85.555967    25.218482   -4462.8967 
47768000    2.5149527   -4735.8084   -4731.4978   -4735.8084            0    1980.3902    17.860684    23.287244    21.858518    9091.5283     2014.249    1934.3777    1992.5438   -105.30648   -32.174296    123.59606   -4468.9167 
47769000    2.5582221   -4735.6309   -4731.2462   -4735.6309            0    2006.6281    17.903144    23.241908    21.848956    9091.4212    1926.5979    2016.4919    2076.7945   -109.32922   -96.056224    41.018374   -4465.1892 
47770000    2.4122076   -4735.5664   -4731.4319   -4735.5664            0    1991.0698    17.928185    23.216867    21.844883    9092.6328    1917.1908    2071.6239    1984.3948   -44.975728    79.273796     33.50743   -4467.4027 
47771000     2.423636   -4735.7682   -4731.6142   -4735.7682            0    1972.9399    17.929792    23.214518    21.846289    9093.1132    1867.5164    2022.6693    2028.6339    133.34965    -48.90033    54.761386   -4469.9753 
47772000    2.6445107   -4735.3352   -4730.8026   -4735.3352            0    1991.3151    17.910598     23.23204    21.853257    9093.1343    1955.5327    1965.1096     2053.303    74.061078   -69.024417    68.653741   -4466.7263 
47773000    2.5615708    -4735.596   -4731.2056    -4735.596            0    2013.6817    17.879159    23.264055    21.858966    9092.0563    2041.9742    2012.3967    1986.6743   -99.046721    8.0054043    34.682354   -4464.1948 
47774000    2.6897353   -4735.0122   -4730.4021   -4735.0122            0    1962.7419    17.827599    23.315502    21.872076    9091.3342    2036.2598    1912.8662    1939.0998   -24.546934    -7.055747    29.886961   -4470.1665 
47775000    2.5816905   -4735.2482   -4730.8232   -4735.2482            0     1995.763    17.842352    23.294774    21.873181     9091.228    2050.4283    1920.7065    2016.1541   -77.233379   -21.775664    6.2780247   -4466.2125 
47776000    2.6918879   -4735.6457   -4731.0319   -4735.6457            0    1965.8589    17.843146     23.31537     21.85911    9093.8171    1983.2514    1924.0164    1990.3088   -32.573798    46.963991    43.091732   -4470.3118 
47777000    2.7375819   -4735.5042   -4730.8121   -4735.5042            0    2003.6547     17.88107    23.263709    21.856356    9091.8068     2035.118    1993.2298    1982.6162    -190.1278   -97.689014    15.862141   -4465.1381 
47778000    2.6109653   -4735.6859   -4731.2108   -4735.6859            0    1984.3681    17.926767    23.221402     21.84133    9092.2109    1929.0805    2020.4847    2003.5392   -197.52897    -20.51131    90.475077   -4468.0825 
47779000    2.4265282   -4735.5272   -4731.3682   -4735.5272            0    1986.6807    17.919284    23.214523    21.863552    9094.9672    1952.0433    2007.4795    2000.5194   -18.773407    33.411778    122.43564   -4467.8533 
47780000    2.7054872   -4735.5074   -4730.8703   -4735.5074            0    1977.7991    17.913888    23.199684    21.879808    9093.1722    1925.4642    2044.0833    1963.8497   -64.952279   -39.425728    152.82307   -4468.5853 
47781000    2.7181807   -4735.3773   -4730.7184   -4735.3773            0    1989.2619     17.89379    23.240832    21.866864    9093.6978    1996.9523    2015.0331    1955.8004   -69.328135   -93.498158    18.030072    -4466.898 
47782000     2.525578   -4735.4502   -4731.1214   -4735.4502            0    1979.0262    17.849257    23.289413    21.873241    9092.6784    1999.1445     1946.804      1991.13    38.902538    21.433983    103.97556   -4468.6879 
47783000    2.6204964   -4735.4489   -4730.9574   -4735.4489            0    2003.5312    17.836775    23.309826    21.872039    9093.7843    2072.9244    1966.4087    1971.2605   -57.245691    -66.28995   -1.6383771   -4465.2421 
47784000    2.6028729   -4735.7468   -4731.2855   -4735.7468            0    1981.4835    17.851137    23.292702    21.868479    9092.9402    2064.5109    1935.9686    1943.9709   -24.776372   -47.395382    112.77067   -4468.5186 
47785000    2.5418506   -4735.9362   -4731.5796   -4735.9362            0    1962.1663    17.870553    23.266081    21.871979    9093.8816    1975.0556    1927.3566    1984.0867   -60.475875    77.642622    96.709787   -4471.3474 
47786000    2.5125847   -4735.8991   -4731.5927   -4735.8991            0    1990.7548    17.907208    23.249294    21.840421    9092.8212     1978.173    2009.5489    1984.5425   -7.0704932   -49.618007    32.245826   -4467.5997 
47787000    2.6505205   -4735.8557   -4731.3128   -4735.8557            0    1982.5732    17.935051    23.209962    21.846278    9093.9907    1842.9398    2032.9879     2071.792   -38.928496   -74.735499     66.24411    -4468.371 
47788000    2.5376307   -4735.4222   -4731.0728   -4735.4222            0    1986.7981    17.921661    23.213802    21.855033    9092.3471    1911.9582    2040.1682    2008.2679   -117.58413    61.493665    102.36917   -4467.6183 
47789000    2.6675506    -4735.882   -4731.3099    -4735.882            0    1978.8677    17.892527    23.246932    21.860476    9092.7856    1919.7924    1990.9452    2025.8656    6.8994577   -65.467037   -19.771731   -4468.8943 
47790000    2.5491877   -4735.5075   -4731.1383   -4735.5075            0    1990.8922    17.870857    23.266112    21.866536    9091.7857    1969.1165    1970.9788    2032.5812    17.936837    3.0306136    166.43129   -4467.1572 
47791000     2.586092   -4735.5368   -4731.1043   -4735.5368            0    2008.8373    17.830499    23.282706     21.89982     9091.541     2107.625    2001.2719    1917.6149    22.135146   -11.572762    83.977194    -4464.751 
47792000    2.7704673     -4735.84   -4731.0915     -4735.84            0    2009.5842     17.83523    23.281447    21.891341    9089.9405    2037.5625    1998.4617    1992.7284   -70.413705   -13.076919    99.455646    -4464.686 
47793000    2.6167498   -4735.3122   -4730.8272   -4735.3122            0    1999.9151    17.829331    23.292877    21.891521    9091.4701    2009.2324    1983.4267    2007.0861   -66.290495   -45.159908    51.153424   -4465.6589 
47794000    2.6470299     -4735.33   -4730.7931     -4735.33            0    2021.6318    17.880617    23.255173    21.862156    9090.6528    1983.6398    1999.5233    2081.7322   -16.349604    30.874662     80.80664   -4462.7695 
47795000    2.5354816   -4735.8106   -4731.4648   -4735.8106            0    1961.3947    17.906636     23.22911    21.861547    9093.4245    1902.0506    2015.4502    1966.6832    21.922879   -39.736915    33.370077   -4471.3481 
47796000    2.6416876   -4735.4393   -4730.9115   -4735.4393            0    2010.9253    17.919482    23.223802    21.840272    9089.0149    1940.3315    2027.4381    2065.0064   -94.585098   -4.3312246    80.074076   -4464.3554 
47797000    2.4224817   -4735.4034   -4731.2513   -4735.4034            0    1990.2663    17.919168     23.20868    21.863439    9092.5721    1893.0781    2026.0709    2051.6501   -92.515509   -1.8938456    45.400646   -4467.3304 
47798000    2.6307084   -4735.6206   -4731.1116   -4735.6206            0    1973.9052    17.884102    23.248292    21.869418    9092.7536    1946.6771    2005.6835    1969.3551    -10.83974   -25.752641    77.057003   -4469.3551 
47799000    2.6684106    -4735.329   -4730.7554    -4735.329            0    2018.8888    17.855788    23.279962    21.869505    9090.7608    2071.4511    1967.0932    2018.1219   -74.814245    49.420041    75.195131   -4463.0923 
47800000    2.5121278   -4735.6834   -4731.3777   -4735.6834            0    1968.5737    17.832434    23.310145    21.876099    9093.3828    2040.9204    1868.6052    1996.1954   -193.19407    16.711584    61.086269     -4470.31 
47801000    2.7030736   -4735.5151   -4730.8821   -4735.5151            0     1987.861    17.831067    23.303996     21.88396    9093.5539    2058.8575    1899.5753    2005.1502   -152.42159   -11.054648    14.941551   -4467.2517 
47802000    2.6179877   -4735.6554   -4731.1682   -4735.6554            0    1999.9093    17.874987    23.266049      21.8682    9094.5541    1971.0112    2014.5383    2014.1784   -23.040506    71.587457    110.35305   -4465.9108 
47803000    2.5534824   -4735.6077   -4731.2311   -4735.6077            0    1989.8283      17.9054    23.236004    21.855488    9092.9746    1964.1733    2055.9037    1949.4079   -101.05526   -54.377864    4.7615753   -4467.3566 
47804000    2.5667048    -4735.311   -4730.9118    -4735.311            0    1998.6296    17.923972    23.220607     21.84452    9091.8093    1915.6899    2076.5176    2003.6813   -64.545213    34.401804    117.89809    -4465.904 
47805000    2.6620173   -4735.9308   -4731.3682   -4735.9308            0    1992.0769    17.949076       23.187    21.847729    9092.7023    1876.9992    2097.6012    2001.6302    27.038776   -11.173892    11.806995   -4467.2033 
47806000     2.682139   -4735.1156   -4730.5185   -4735.1156            0      2012.59    17.884321    23.225998    21.889103    9092.3223    1980.6984    2044.7407    2012.3309    -27.04296   -41.969433   -25.117933   -4463.6447 
47807000    2.7245247   -4735.8124   -4731.1427   -4735.8124            0    1977.3808    17.856609    23.258551    21.899279    9095.1836    1989.9601    2002.0743    1940.1081    2.7807693   -26.142155    60.655605   -4468.8552 
47808000     2.422349   -4735.4911   -4731.3393   -4735.4911            0    2006.8327    17.850566    23.283426    21.876116    9092.2026    2015.0468    2009.9264    1995.5247   -63.325832   -41.194835    53.868002   -4465.2324 
47809000    2.6185481   -4735.3686   -4730.8805   -4735.3686            0    1979.6651    17.823763    23.315437    21.877258    9091.5065    2087.0474     1931.754     1920.194   -195.20275    8.7671349    37.934539   -4468.3961 
47810000    2.5019208   -4735.9504   -4731.6622   -4735.9504            0    1985.5893    17.847613    23.282272    21.884903     9093.899    1965.5408     1970.071    2021.1561    48.941312   -37.136173    50.550128   -4468.3231 
47811000    2.5249198    -4735.438   -4731.1104    -4735.438            0    1991.5605    17.882462    23.261939    21.858505    9092.7174    2009.1506    1998.5123    1967.0184   -117.27391   -6.2643815    15.966555   -4467.0136 
47812000    2.5195535   -4735.2822   -4730.9637   -4735.2822            0    1988.0151    17.908005    23.226505    21.858408    9091.7938    1927.0309    2091.6004     1945.414   -174.01351    36.764822    68.385823   -4467.3639 
47813000    2.7255095   -4735.4868   -4730.8154   -4735.4868            0    1988.9592    17.932035    23.210494    21.843774    9091.6273    1857.0243    2068.6258    2041.2275   -77.415719   -34.861665    47.685118   -4467.0952 
47814000    2.6194456    -4735.693   -4731.2033    -4735.693            0    1971.1818     17.91113    23.223165     21.86398     9094.391     1916.476    2020.0599    1977.0096    19.237399    62.241654    76.607996   -4469.7608 
47815000    2.5500879   -4735.7856   -4731.4148   -4735.7856            0    1994.1689    17.887802    23.243433    21.864334    9090.6198    1935.8987    1990.5368    2056.0712   -91.904185   -38.586865    65.175847   -4467.0331 
47816000    2.8042257   -4735.4749   -4730.6685   -4735.4749            0    1982.8767    17.865226    23.275252     21.86976    9093.8319    2007.9446    1971.0031    1969.6825   -73.632051   -10.178731    41.380935   -4467.6911 
47817000    2.5161422   -4735.6914   -4731.3788   -4735.6914            0    1992.3932     17.82769    23.314234    21.873797    9091.6014    2086.4825    1888.5825    2002.1145     51.59032    -49.48018    61.224358   -4467.2041 
47818000    2.5907837   -4735.7369   -4731.2963   -4735.7369            0    2007.4586    17.837251    23.301763     21.87248    9091.0644    2075.8458     1923.655    2022.8751    1.1858518     12.32656   -10.572915   -4465.1398 
47819000    2.4739282   -4735.8967   -4731.6564   -4735.8967            0    1971.4488    17.849643    23.284447    21.878892    9093.2852    1982.0774    1928.5991    2003.6699   -29.634764    23.274144    75.974753   -4470.2103 
47820000     2.549449   -4735.5952   -4731.2256   -4735.5952            0    1981.1651    17.894204    23.230729    21.875887    9093.7059    1964.1479    2032.5894    1946.7578   -23.511192    29.133566    75.151246   -4468.4787 
47821000    2.7012508   -4735.7679   -4731.1381   -4735.7679            0    1990.9497    17.923574    23.219041     21.84757    9092.2636    1914.6968    1966.3135    2091.8389   -96.477301   -18.516995    55.800473   -4467.1355 
47822000    2.6209027   -4735.2455   -4730.7534   -4735.2455            0    1978.1114    17.906562    23.252221    21.838619    9092.8878    2002.0359    2022.4234    1909.8749   -62.042992   -18.175121    47.234558   -4468.4351 
47823000    2.5496603   -4735.8998   -4731.5298   -4735.8998            0    1991.2103    17.917693    23.212872     21.86049    9092.2396    1931.8983    2058.1274    1983.6052   -99.596478   -30.854038    64.353188   -4467.4933 
47824000    2.5188413   -4735.7967   -4731.4795   -4735.7967            0    1999.0523    17.877086     23.25974    21.864788    9091.7367    2021.3804    1982.0876    1993.6889     -154.643    8.8614205    15.693478   -4466.4178 
47825000    2.6024625   -4735.7095   -4731.2489   -4735.7095            0    1964.6573    17.854607    23.279855    21.880427    9094.6579    2025.1963    1950.6963    1918.0793    25.290385    -69.59165    80.889561   -4470.6641 
47826000    2.4732416   -4735.6277   -4731.3886   -4735.6277            0    1986.2316    17.830395    23.317195    21.870176    9092.6306     2117.856    1925.3247    1915.5143   -99.354007    -40.80576    110.67613    -4468.001 
47827000    2.5788851    -4735.511   -4731.0908    -4735.511            0    2005.4768     17.83525    23.306298    21.873421    9092.2053    2079.1351     2015.425    1921.8703   -97.365326   -24.195205    65.560281   -4465.1636 
47828000    2.7731712   -4735.3583   -4730.6051   -4735.3583            0    2029.7038    17.876496    23.250635    21.873373    9091.4463    2004.6413    2058.2758    2026.1943   -55.189458   -20.742069    145.83915   -4461.4879 
47829000    2.6424066   -4735.6811   -4731.1521   -4735.6811            0    2019.4088    17.899477    23.239217    21.857222    9091.9449    1981.9732    2015.3203    2060.9327     6.206344    49.261993   -32.808157   -4463.3852 
47830000    2.5904448   -4735.2403   -4730.8003   -4735.2403            0    1995.1604    17.932629     23.20232    21.850159    9091.3834    1922.0029    2060.4792     2002.999     21.80871    -88.54074      80.4905    -4466.265 
47831000    2.5515668   -4735.8087   -4731.4354   -4735.8087            0    1994.9816    17.929811    23.223186    21.835619    9092.0753    1927.4402    2041.7137    2015.7909   -208.32762    -25.87858    44.745996   -4466.9036 
47832000    2.5442605   -4735.7443   -4731.3835   -4735.7443            0    1998.8908    17.904154    23.239116     21.85298     9092.516    1965.9414     2058.488     1972.243   -80.200785    82.090965   -8.8918873   -4466.3206 
47833000     2.466536    -4735.653   -4731.4254    -4735.653            0    2029.7565    17.871643    23.244894    21.885892    9091.9346    2053.6749    2061.5063    1974.0882   -81.892037   -51.805207    124.71664   -4462.2868 
47834000    2.6794911   -4735.2416    -4730.649   -4735.2416            0    2002.4948    17.839847    23.309707    21.865667    9092.6539    2077.8425     1869.345    2060.2969   -94.495889   -15.194878    52.806995   -4465.1041 
47835000    2.5752622    -4735.421   -4731.0071    -4735.421            0    1997.9281    17.839199    23.307724    21.865697    9091.5629    2082.4926    1971.5791    1939.7126   -50.036752    34.723807    21.163495   -4466.0996 
47836000    2.5050414   -4735.4875   -4731.1939   -4735.4875            0     1978.321    17.858449    23.285446    21.863793    9091.8828    1985.6836    1905.7559    2043.5235   -81.021255   -83.636099    81.502434   -4468.8769 
47837000    2.5442664   -4735.7425   -4731.3817   -4735.7425            0    2001.7318    17.897922    23.260725    21.840088    9092.4358    1970.0626     1998.816    2036.3169   -123.90179    13.657064    50.765819   -4465.9443 
47838000    2.6187227   -4735.3484     -4730.86   -4735.3484            0    2027.8862    17.927929     23.21535    21.844661    9091.8167    1952.8208     2079.124    2051.7137   -118.14386    42.855901    83.582551   -4461.9728 
47839000    2.4026063   -4735.7425   -4731.6245   -4735.7425            0    1968.7076    17.929784    23.212311    21.848468    9093.1513    1865.6717    2064.7366    1975.7144   -68.628878   -41.792404    67.212337   -4470.5458 
47840000    2.5966775   -4735.5284   -4731.0777   -4735.5284            0    1982.6992    17.943978     23.20706    21.838028    9093.9437    1891.0513    2073.2616    1983.7847   -21.666919   -31.855445    67.139758   -4468.1206 
47841000    2.5542809   -4735.7905   -4731.4125   -4735.7905            0    1946.5266     17.87974     23.26362    21.864648    9094.5455    1965.8264    1937.9287    1935.8248   -135.55728     10.37883    110.33914   -4473.2357 
47842000    2.6164624   -4735.5752   -4731.0907   -4735.5752            0    2005.5829    17.851457     23.27279    21.887651     9093.295    2031.8728    1983.9027    2000.9732   -122.87188   -105.24732    54.012069   -4465.1176 
47843000    2.4039169   -4735.4446   -4731.3244   -4735.4446            0    1996.6566     17.83191    23.310956    21.873788    9092.4712    2055.1528    1961.7379    1973.0792   -104.66337    26.030005    24.805924    -4466.559 
47844000     2.456601   -4735.3261   -4731.1156   -4735.3261            0    1994.3661    17.838493     23.29424    21.875411    9089.9801    2108.1812    1966.0851    1908.8321   -96.909477   -32.451324   -19.061507   -4466.7264 
47845000    2.6025856   -4735.8052   -4731.3444   -4735.8052            0     1970.212    17.867681    23.260631     21.87634    9092.1032    1984.9729    1989.0465    1936.6167   -55.753914   -73.289969    111.37154   -4470.0963 
47846000    2.6799808   -4735.7404    -4731.147   -4735.7404            0    1944.0384    17.912092    23.236257    21.854946    9096.2461    1860.8699    1985.9035    1985.3418   -120.21635    -11.29613     54.06934    -4473.252 
47847000    2.5920207   -4735.6322   -4731.1896   -4735.6322            0    1983.8129    17.925343    23.194917    21.872536    9094.0938    1903.6002    2088.1873    1959.6512   -125.36803    23.139545   -19.130346   -4468.0804 
47848000    2.4902831   -4735.8646   -4731.5963   -4735.8646            0    1973.1841    17.927379    23.218102    21.841156    9091.1565     1855.743    2008.4122    2055.3971    36.250542   -43.477141    104.79333   -4469.9813 
47849000    2.6175007   -4735.2966   -4730.8103   -4735.2966            0    2009.4767     17.89795    23.227825     21.86671    9090.6573    1992.5603    2070.3565    1965.5134   -20.796922    -36.92646    61.538305   -4464.3981 
47850000    2.5490529   -4735.7902   -4731.4212   -4735.7902            0    2009.8191    17.859921    23.283926    21.863835    9092.0557    2002.8341    2041.0343     1985.589   -158.55085    18.681373   -5.1768095   -4464.9226 
47851000    2.5468272   -4735.6844   -4731.3193   -4735.6844            0    1974.1671    17.849215    23.284946    21.882943    9094.9448     2046.866    1896.5325    1979.1028   -18.914805   -68.519692    86.489553   -4469.4649 
47852000    2.6708743    -4735.761   -4731.1832    -4735.761            0     1963.391    17.826152     23.31208    21.878725    9092.0255    2079.9115    1806.2546    2004.0068   -62.094962   -22.446247    38.629347   -4470.8418 
47853000    2.6330833    -4735.569    -4731.056    -4735.569            0    1988.3439    17.849124    23.296316    21.861509    9090.4273    2040.6569    2002.9395    1921.4354   -120.35318    32.357555    72.880418   -4467.4521 
47854000    2.6199982   -4735.5875   -4731.0969   -4735.5875            0    2006.2193    17.887838    23.245984     21.86407    9091.5264    1952.2907    2008.8161     2057.551   -17.164608   -98.803117    72.360792   -4465.0911 
47855000    2.5369941   -4735.4812   -4731.1329   -4735.4812            0    1977.5291     17.92648    23.213891     21.85268    9093.8476    1939.9962    1992.2775    2000.3135    -56.20213   -17.894809    45.122987   -4468.8642 
47856000    2.5150909   -4735.6197   -4731.3089   -4735.6197            0     1980.612    17.918492    23.217858    21.851966    9091.0515    1958.9047    2009.5193    1973.4119   -2.9839553    19.339545    85.845171   -4468.7121 
47857000    2.5984143   -4735.7284   -4731.2748   -4735.7284            0     1983.105    17.883966    23.255928    21.856996    9090.5042    1979.7752    2009.9676    1959.5721    17.854606   -87.360932    50.460228   -4468.3634 
47858000    2.7044308   -4735.8963    -4731.261   -4735.8963            0    1972.0793    17.882536     23.24913    21.874363    9094.3406    1972.8786    1985.4847    1957.8745      10.1051    23.425536    79.349395   -4469.7009 
47859000    2.5539555   -4735.5762   -4731.1988   -4735.5762            0    1991.5053     17.85479    23.283865    21.870352    9092.1289     2015.487    1882.7448     2076.284   -46.994192  -0.87800902    66.631122   -4467.1264 
47860000    2.5131883   -4735.5619   -4731.2544   -4735.5619            0    1994.9996    17.817405    23.313606    21.884335    9090.4896    2091.6698    1950.0002    1943.3289    33.586929   -32.129797    15.614586   -4466.7664 
47861000    2.6260223   -4735.5564   -4731.0555   -4735.5564            0    2003.2217    17.841787    23.289432    21.877966    9090.8437     2009.477    1975.1008    2025.0872   -43.486471    18.327762    178.97492   -4465.4671 
47862000    2.6198113   -4735.4647   -4730.9745   -4735.4647            0    1990.9825    17.891797     23.26901    21.837887    9091.6453    1979.0962    1981.7922    2012.0591   -124.68121  -0.19904368   -17.896534   -4466.9855 
47863000    2.5378993   -4735.6045   -4731.2546   -4735.6045            0    1994.2437    17.913034     23.22792    21.849233    9091.0843    1905.7391    2052.4736    2024.5182   -134.09162   -33.337153    106.47969   -4466.8496 
47864000    2.7366307   -4735.4482   -4730.7577   -4735.4482            0    1995.5538    17.941863    23.212344    21.832506    9092.6427    1928.6349    2012.7375     2045.289   -116.86336    20.593338    86.338801   -4466.1336 
47865000    2.7085191   -4735.8589   -4731.2166   -4735.8589            0    1943.1808    17.915978    23.229144    21.848518    9092.7595    1885.4455      1988.72    1955.3768    41.213525    5.2197085   -2.3108002   -4473.5342 
47866000    2.5365436   -4735.7935    -4731.446   -4735.7935            0     1981.266    17.870936    23.266075    21.870194     9093.332    2013.0259    2008.9096    1921.8623   -129.75189   -66.456633    82.126642   -4468.6966 
47867000    2.5374579    -4735.842   -4731.4929    -4735.842            0    2000.6923    17.852725    23.297555    21.853065    9089.2326    2030.3678    1968.6372     2003.072   -35.162277    8.7867226    100.48369   -4466.2868 
47868000    2.5071293   -4735.5855   -4731.2884   -4735.5855            0    1988.3328     17.82993    23.306529    21.880871    9092.6786    2047.3654    1951.6264    1966.0066   -64.406866   -31.525758      15.9135   -4467.6208 
47869000    2.6239157   -4735.5468   -4731.0495   -4735.5468            0    2005.6475    17.846727    23.292228    21.867641    9090.1605    2030.0688    1957.0811    2029.7926   -72.082907    -43.48837    109.69919   -4465.1595 
47870000    2.4580799   -4735.2505   -4731.0375   -4735.2505            0    1984.3221    17.879106    23.271287    21.852441    9092.1409    1987.1712    1951.2305    2014.5645   -84.321868   -25.216873    44.342829   -4467.9173 
47871000     2.480189   -4735.5744   -4731.3234   -4735.5744            0     1960.927    17.891791    23.246497    21.860264    9092.1532    1942.9813    1946.5532    1993.2466   -76.427317    24.731044    64.451638    -4471.305 
47872000    2.5457337   -4735.4448   -4731.0814   -4735.4448            0    1960.4669     17.94271     23.19963    21.844823    9093.2185    1906.9487    2015.8873    1958.5649   -11.955372   -57.802644    65.752028   -4471.0936 
47873000    2.5941682   -4735.9067   -4731.4604   -4735.9067            0    1998.3031    17.922237    23.210172    21.854882    9091.1546    1875.9953    2084.0251    2034.8889   -35.136185    56.998412    74.977031   -4466.5151 
47874000    2.6948486   -4735.8165   -4731.1976   -4735.8165            0    1977.0345    17.893406    23.230884    21.872871    9092.1072    1986.5279    2012.7531    1931.8226    -77.83937   -14.603265     2.660277   -4469.0447 
47875000    2.6403646   -4735.3314   -4730.8059   -4735.3314            0    1981.1112    17.866931    23.276441    21.862908    9092.3148    1971.3486     1893.045      2078.94   -136.95774    -48.80556    57.512162   -4468.1064 
47876000    2.6383819   -4735.4529   -4730.9308   -4735.4529            0    1979.9514    17.832551    23.290207    21.891303    9091.9793    2035.1014     1963.717    1941.0359    58.845942    28.525235    135.28628   -4468.3948 
47877000    2.5517008    -4735.389   -4731.0155    -4735.389            0    1956.6051    17.829422    23.290255    21.897196    9092.8497    2046.0694    1894.3823    1929.3636     34.17283    8.7238578    89.116231   -4471.5503 
47878000    2.6399492   -4735.7409   -4731.2161   -4735.7409            0    1969.6224    17.854699    23.280915    21.878114    9094.1573    1992.9263    1954.4885    1961.4525   -113.56511   -12.909272    23.398365   -4469.9872 
47879000    2.7678786   -4735.4478   -4730.7037   -4735.4478            0    2018.1128    17.895327     23.23887    21.857616    9089.8647    1961.7736     2009.284    2083.2807     31.34098   -74.498642    94.569976   -4463.1699 
47880000    2.5824434   -4735.7589   -4731.3327   -4735.7589            0     2006.034      17.9146    23.226405    21.845778    9089.8483    1922.4754    2064.7195    2030.9072   -154.39543   -6.5215928   0.99669328   -4465.4006 
47881000    2.6671395   -4735.7099   -4731.1385   -4735.7099            0    1996.4258    17.934752    23.204501    21.845194    9091.2481    1841.5129    2060.4235    2087.3409   -102.27433   -2.6207602    134.78504   -4466.4393 
47882000    2.7005788   -4735.4849   -4730.8562   -4735.4849            0    1974.9726    17.911194    23.213888    21.870554     9093.524    1955.6324    2080.8884    1888.3969    72.752891   -24.910548    5.7986315   -4468.9359 
47883000     2.614551   -4735.3921   -4730.9109   -4735.3921            0    1967.3326    17.868639    23.258679    21.876987    9092.0962    1973.4655    1925.4286    2003.1038   -68.641144    47.283211     89.52992   -4470.0447 
47884000     2.534514   -4735.5515   -4731.2074   -4735.5515            0    1988.8338    17.831999     23.28683     21.89395    9091.4785     2031.198    1924.3331    2010.9702   -91.327978   -76.585794     144.2342   -4467.5082 
47885000    2.4282853   -4735.5675   -4731.4055   -4735.5675            0    1990.7173    17.836245    23.310342    21.867678    9091.9021     2066.706    1918.3246    1987.1214   -104.83752    16.301357    8.9641196   -4467.4442 
47886000    2.5921551   -4735.3648   -4730.9219   -4735.3648            0     2007.335    17.842081    23.283325    21.881574    9090.1085    2083.6619    2007.5406    1930.8024   -85.317106    -23.43039    81.983478   -4464.8097 
47887000     2.657641   -4735.7248   -4731.1697   -4735.7248            0    2010.0649    17.863621    23.279387    21.863124     9091.871    2044.0645    1980.0869    2006.0434    -120.1018    -53.51563    84.401164   -4464.6439 
47888000    2.7034844   -4735.8065   -4731.1728   -4735.8065            0    1982.6755    17.908945    23.237124    21.847183    9091.7572    1909.5443     2031.845    2006.6373   -163.61664    58.729871    72.221131    -4468.282 
47889000    2.4794094   -4735.6583   -4731.4087   -4735.6583            0     1974.435     17.92822    23.211217    21.852138    9093.4568    1909.9973    2007.9434    2005.3642   -61.710193   -16.824861    56.859473   -4469.5616 
47890000    2.5546495   -4735.6171   -4731.2385   -4735.6171            0    1976.6743    17.916688    23.218776    21.860282     9093.955    1922.5699     2057.998     1949.455   -38.416645  -0.61566949    107.73372   -4469.0801 
47891000    2.5688076   -4735.7053   -4731.3025   -4735.7053            0    1962.6422    17.899439    23.233571    21.865305     9093.078    1911.4984    1987.4274    1989.0006     34.17557   -2.3078634    106.06202   -4471.0302 
47892000    2.5984912   -4735.7062   -4731.2525   -4735.7062            0    2018.1054    17.858594    23.269399    21.877796    9091.5093    2026.6383    1984.5769    2043.1011    12.419275   -11.248119    61.002875   -4463.6712 
47893000    2.4677722   -4735.5968   -4731.3671   -4735.5968            0    1999.4887    17.839051    23.280718    21.890337    9091.1861    2089.7603     2019.911    1888.7949    40.837571   -25.874475     73.70153   -4466.2636 
47894000    2.5098675   -4735.4438    -4731.142   -4735.4438            0    1973.5331    17.831728    23.310435    21.878835    9094.2732     2029.232    1906.7748    1984.5924   -77.167258   -53.264553   -25.226288    -4469.391 
47895000    2.7183573   -4735.4044   -4730.7452   -4735.4044            0    2019.6231    17.863936    23.251484    21.884239    9089.9039    2071.7336    2020.2495    1966.8863   -17.359299    33.772028    161.21017     -4463.01 
47896000    2.6677185   -4735.6566   -4731.0842   -4735.6566            0     2000.262    17.886232    23.256695    21.861325    9093.7566    1970.4313    1986.6293    2043.7255   -74.952483   -49.503339    76.396957   -4465.8032 
47897000    2.4141253   -4735.3884   -4731.2507   -4735.3884            0      1984.53    17.905884    23.227339    21.860818    9092.0459    1926.3774    2036.7931    1990.4195   -125.17528    23.806649      2.39863   -4468.1056 
47898000    2.5540192   -4735.6618   -4731.2843   -4735.6618            0    2002.2994    17.936066    23.201348    21.850335    9092.8182    1944.6116    2032.4307    2029.8561   -50.209015   -117.51634    123.88612   -4465.7605 
47899000    2.6667158   -4735.6342   -4731.0635   -4735.6342            0    1991.4465    17.911755    23.219684    21.864133     9093.409    1991.3487    2017.0702    1965.9206   -41.301598   -10.267648    49.462053   -4466.9618 
47900000    2.5250759   -4735.7797   -4731.4518   -4735.7797            0    2020.9163    17.882662    23.250787    21.865228    9091.2551     2054.247    1957.0258    2051.4761   -118.27383   -16.173566    22.586173   -4463.5053 
47901000    2.6925284   -4735.2208   -4730.6059   -4735.2208            0    1996.2086     17.84019    23.295033    21.874471    9090.7638    2045.0153    1963.4045     1980.206    28.507012   -94.314579    105.33585   -4465.9497 
47902000    2.5054625   -4735.6044   -4731.3101   -4735.6044            0    1974.7959     17.84771    23.302047    21.861603    9091.9823    2034.4672    1907.6187    1982.3019    6.0845134   -101.46637    72.867658   -4469.4576 
47903000    2.5493034   -4735.3812   -4731.0118   -4735.3812            0    1986.0232    17.824148    23.307979    21.882734    9091.0693    2015.3159    1988.5359    1954.2177   -47.880822   -2.6675352   -14.834118    -4467.697 
47904000    2.4394279    -4735.568   -4731.3869    -4735.568            0    1969.7173    17.863612    23.271221    21.875862    9093.9725    1977.3762    1965.2058    1966.5699    16.481979   -44.282614    98.008541   -4470.1507 
47905000     2.575735   -4735.8282   -4731.4135   -4735.8282            0    1950.6244    17.912691    23.216424    21.865695    9093.2565    1916.5239    1988.6088    1946.7404   -93.724427   -33.224102   -3.1182215   -4472.7298 
47906000     2.343339   -4735.5145   -4731.4981   -4735.5145            0    2003.8616    17.922795    23.205717    21.862137    9092.7102    1915.8333    2119.2306    1976.5208    -103.7671    6.9876439    80.892109   -4465.7703 
47907000    2.4734914    -4735.352   -4731.1125    -4735.352            0    1983.3295    17.925578    23.216523    21.846284    9091.7595    1919.7597    2024.8271    2005.4018    22.510083   -50.313405    92.063259    -4468.135 
47908000     2.643974   -4735.8427    -4731.311   -4735.8427            0     1979.576    17.900092    23.236827     21.86502    9094.5656    1975.8508    1995.7586    1967.1184   -62.706264    -27.95631   -2.7972902   -4468.7501 
47909000    2.5692407    -4735.179   -4730.7754    -4735.179            0     2016.359    17.858437    23.277298    21.870551    9091.5039    2071.3599    1994.8787    1982.8385   -156.89793    49.481761    113.34718   -4463.4258 
47910000    2.7746943   -4735.2721   -4730.5164   -4735.2721            0    2005.9344    17.832933    23.293204    21.885273    9090.8392    2072.8011    1948.4385    1996.5636   -91.601363   -51.263804     6.510553   -4464.5684 
47911000    2.3632354   -4735.3441   -4731.2936   -4735.3441            0    1969.6858    17.832098    23.312839    21.873813    9093.3127    2032.9664    1899.2281    1976.8629   -218.25521     18.61359    68.417414   -4470.0805 
47912000    2.3996204   -4735.2236   -4731.1108   -4735.2236            0    2007.3425    17.842144     23.28909     21.87851    9091.1182    2076.4653    1955.4686    1990.0936   -110.99397   -6.6329297    110.00916    -4464.968 
47913000    2.6637623   -4735.9151   -4731.3495   -4735.9151            0    1956.3416    17.889257    23.261125    21.853609    9093.8164    1952.2513    1943.9484    1972.8252    12.281631   -86.236595    -51.44554   -4471.8917 
47914000    2.4377333   -4735.7337   -4731.5555   -4735.7337            0    1986.6091    17.926685    23.226143    21.838386    9092.7994    1944.3128    2040.1404    1975.3739   -114.55379    29.055537    117.00517    -4468.113 
47915000    2.4754134   -4735.9025   -4731.6597   -4735.9025            0    1954.6117    17.924801    23.229325    21.838856    9093.2852     1898.624    2003.8306    1961.3805   -31.248052    24.620533    33.721975   -4472.4464 
47916000    2.7202145   -4735.7096   -4731.0472   -4735.7096            0    1996.7985    17.903996    23.249341    21.844515    9092.9126    1967.7193    1993.0767    2029.5994   -103.96466   -125.12272   -14.687373   -4466.2502 
47917000    2.5831935   -4735.7649   -4731.3374   -4735.7649            0     2003.452    17.884527    23.266624    21.847375    9090.9669    2007.7904    2019.1932    1983.3723   -115.77981    54.528426    127.66395   -4465.7148 
47918000    2.6373911   -4735.3336   -4730.8132   -4735.3336            0    1953.1633    17.847788    23.283466    21.880261    9092.5253    2037.8759    1919.2012    1902.4128   -7.8860142    63.293253   -10.025328   -4471.8136 
47919000    2.6343269   -4734.9864   -4730.4713   -4734.9864            0    1982.1613     17.82511    23.296723    21.896805    9093.0129    2016.3793    1982.6285    1947.4761   -144.56307    -56.11394    -56.60528   -4467.6124 
47920000    2.5591088   -4735.4268   -4731.0406   -4735.4268            0    1999.9649    17.843238    23.294863    21.874038    9092.0706    2073.3773    1938.3236    1988.1938   -90.460463    11.366667    104.07613   -4465.8482 
47921000    2.6374457   -4735.8003   -4731.2798   -4735.8003            0    1975.6588    17.867529    23.275938    21.861545    9091.8555    1982.7255    1958.2968    1985.9539   -155.05305    46.251199   -53.700581   -4469.3165 
47922000    2.6083152   -4735.7663   -4731.2957   -4735.7663            0    1942.2097    17.905445    23.240764    21.855288    9094.7772    1880.6296    1949.5553    1996.4443   -63.877723   -62.444024    74.427157   -4473.6849 
47923000    2.5392727   -4735.7422     -4731.39   -4735.7422            0     2002.538    17.931338    23.199019    21.857627    9092.5425    1884.8205    2122.4873    2000.3062   -49.335292   -11.172431    172.21436   -4465.8426 
47924000    2.5165793   -4735.7358   -4731.4225   -4735.7358            0    1976.0534    17.931346    23.198416    21.854982    9091.2092     1876.741    2054.7613    1996.6579   -1.1360314    53.174785  -0.18560365   -4469.4255 
47925000    2.7969368   -4735.6631   -4730.8692   -4735.6631            0    1985.2605     17.88806    23.245967    21.867365     9093.003    1969.3927    1999.4167    1986.9723   -129.49565   -109.13229    84.601194   -4467.5996 
47926000    2.6022799   -4735.6956   -4731.2354   -4735.6956            0    1985.7176    17.862372    23.275216    21.867517    9091.4326    2027.4906    1953.1055    1976.5567    -26.94441    61.551706     88.08665   -4467.9506 
47927000    2.6539879   -4735.3266   -4730.7777   -4735.3266            0    1981.4705    17.829915    23.322403    21.865641    9092.5311    2065.5339    1891.8808    1986.9969   -19.976164    88.348149    24.557901   -4468.0243 
47928000    2.6881277   -4735.5727   -4730.9653   -4735.5727            0    1973.2794    17.842107    23.292015    21.882277    9093.8066    2001.9058     1986.764    1931.1683   -155.88588   -93.134656    156.50629   -4469.2614 
47929000    2.6092456   -4735.5552    -4731.083   -4735.5552            0    2032.6773    17.845826    23.304878    21.856692    9090.0847    2045.1693    2004.7295    2048.1332   -2.8704733    8.6087648    59.719401   -4461.6119 
47930000    2.6547948   -4735.9451   -4731.3949   -4735.9451            0    2005.6184     17.90599     23.23622    21.852864    9092.2671    2019.1106    1969.5941    2028.1503   -108.30285     37.01426    34.326256   -4465.4471 
47931000    2.6380073   -4735.4877   -4730.9662   -4735.4877            0    1996.2579    17.925914    23.211409    21.848242    9090.7417    1958.7525    2013.5518    2016.4693   -86.922038   -49.812445    94.087602   -4466.3041 
47932000    2.7156519   -4735.6361   -4730.9815   -4735.6361            0    1972.4492    17.936318    23.197386    21.855795    9093.6648    1868.1507    2055.5863    1993.6107   -230.96624    30.683049    26.156782   -4469.3918 
47933000     2.556333   -4735.9211   -4731.5397   -4735.9211            0    1996.2589    17.919579    23.213989     21.85693    9092.1532    1998.5876     2054.186     1936.003   -53.785526    -22.87503    49.886154   -4466.8363 
47934000     2.597515   -4735.7772   -4731.3251   -4735.7772            0    1973.2644    17.867935    23.272504    21.864637    9092.0065    1941.9406    1965.5678    2012.2847   -90.989476   -52.143251    76.709595    -4469.675 
47935000     2.604563   -4735.6577   -4731.1936   -4735.6577            0    1978.8391    17.850769    23.301291    21.858336    9091.8862    2021.5113    1964.3076    1950.6985   -201.30791   -28.810373    31.895976   -4468.8078 
47936000    2.6274091   -4735.2575   -4730.7542   -4735.2575            0    1998.6743    17.843659    23.290376    21.874639    9090.7834    2088.3387     1909.875    1997.8091   -84.120725    48.688966    89.661407   -4465.7704 
47937000    2.5492759   -4735.6942   -4731.3248   -4735.6942            0    1991.2184    17.847215    23.297823     21.87058    9093.8146    2027.0439    1938.4729    2008.1384   -20.146302    -79.35843    140.84549   -4467.2416 
47938000    2.7780162    -4735.402   -4730.6406    -4735.402            0    2004.6004    17.880667    23.248797    21.868286     9090.734    1983.4682    2067.0182    1963.3148   -17.952265   -60.851729   -25.782174   -4464.8726 
47939000    2.5267747   -4735.8691   -4731.5383   -4735.8691            0     1988.426    17.924312    23.227913    21.836467    9091.4899    1872.1922    2006.8515    2086.2344   -91.051344    59.665074    89.361737   -4467.8928 
47940000    2.6375609   -4735.0721   -4730.5514   -4735.0721            0    1996.4217     17.92873    23.208189    21.853274    9093.0023    1897.6276    2085.3413    2006.2961   -147.03212   -41.303417    33.487564   -4465.8017 
47941000    2.6164886   -4735.6597   -4731.1751   -4735.6597            0    1994.3625    17.907703    23.223435    21.862753    9092.2458    1989.7956    2013.1712    1980.1206   -74.387444     17.00366   -12.047324   -4466.7205 
47942000    2.7434979   -4735.8507   -4731.1485   -4735.8507            0    1997.8416    17.870242    23.259511    21.873803    9091.9139    2045.9677    1934.6705    2012.8865   -214.04171   -4.0417193    184.98755   -4466.2422 
47943000    2.6469409   -4735.7073   -4731.1705   -4735.7073            0    1996.4725    17.871723    23.257418    21.876277    9092.8775    2052.6173    1949.6609    1987.1392   -62.430182   -52.747488    38.279944   -4466.4177 
47944000    2.6111715   -4735.1187   -4730.6432   -4735.1187            0    1982.3715    17.827604    23.308676    21.885652    9094.3165    2042.5501    1996.2674    1908.2969    96.292502   -66.624806    99.804675   -4467.7187 
47945000    2.6071152   -4735.6432   -4731.1747   -4735.6432            0    1986.7491    17.841524    23.292789    21.874586    9090.6154    2062.1989    1949.2748    1948.7735   -227.32172    -22.01263    112.14872   -4467.7769 
47946000    2.6552376   -4735.5563   -4731.0053   -4735.5563            0    2007.1501    17.876749    23.265684    21.856905    9090.6106    2003.3698    2013.0134     2005.067   -98.426908   -69.103031    12.052114   -4464.9029 
47947000    2.6341566   -4735.5983   -4731.0835   -4735.5983            0    2002.2027    17.890247    23.244792    21.862696    9091.7132      1987.14    2009.8965    2009.5714    51.584287   -77.519718    76.246989   -4465.6048 
47948000    2.5730189   -4735.6671    -4731.257   -4735.6671            0    2005.2629    17.934415    23.202221    21.852928    9093.4019    1926.2124    2071.9404    2017.6359    92.312568    17.405468    51.684728   -4465.3232 
47949000    2.6647384   -4735.3435   -4730.7762   -4735.3435            0     2008.896    17.927266     23.21432    21.845226    9091.3126    1932.2492    2093.5463    2000.8925   -84.550189   -57.973235    14.866482   -4464.4218 
47950000    2.5359714   -4735.8305    -4731.484   -4735.8305            0    1997.4557    17.913457    23.215171    21.860337    9090.9268    1986.0516    2008.4794     1997.836   -193.25218    56.536276    169.12952   -4466.6576 
47951000    2.6465544   -4735.5103   -4730.9742   -4735.5103            0    2018.5837    17.860116    23.270868    21.870426    9089.7951    2051.9769    1992.1924    2011.5819    -71.04017   -68.992483    33.011972     -4463.38 
47952000    2.5402838   -4735.4403   -4731.0863   -4735.4403            0    2008.2468    17.838048    23.297865    21.873126    9090.2181    2061.2081    1981.7249    1981.8073   -19.288018   -80.994926    -18.13377     -4464.85 
47953000     2.519004   -4735.6061   -4731.2886   -4735.6061            0    1994.5704    17.828948    23.304788    21.881779    9091.8762    2057.6952    1948.2729    1977.7432    25.343253     35.83374    192.83164   -4466.8171 
47954000    2.4421054   -4735.5231   -4731.3374   -4735.5231            0    2014.5872    17.860045     23.28295    21.864723    9092.1071    2026.0828    1997.8727     2019.806   -109.79975    9.8089126    6.9896864    -4464.205 
47955000    2.5312121   -4735.8463   -4731.5079   -4735.8463            0    2003.4491    17.880646    23.275396    21.844052    9091.0381    1965.7546    2026.2251    2018.3676   -75.292433   -54.797163    46.091893   -4465.8836 
47956000    2.4756323   -4735.5927   -4731.3496   -4735.5927            0    1996.7907    17.908175    23.226137    21.856114    9090.7823    1960.3669    1995.9149    2034.0902   -117.13184    47.627634    139.23873   -4466.6156 
47957000    2.5173295   -4735.5676    -4731.253   -4735.5676            0    1960.2133    17.923329    23.215775    21.856338    9094.5093    1875.6829    2041.2642    1963.6929    21.269973   -75.728036   -12.546331   -4471.2619 
47958000     2.633416   -4735.4283   -4730.9147   -4735.4283            0    2006.5582    17.919801    23.222359    21.846074    9091.0263    1972.3646    2102.9538    1944.3562   -7.5530462   -38.565109    73.929927   -4464.8786 
47959000    2.6070733   -4735.6303   -4731.1619   -4735.6303            0    2002.4381    17.884853    23.255642     21.85905    9091.6981    2048.7599    1995.6905     1962.864   -170.08762    26.483031    55.702453   -4465.6524 
47960000     2.681335   -4735.5529   -4730.9572   -4735.5529            0    2005.3989    17.853012    23.289954    21.867018    9092.2149    2026.9997    1965.4694    2023.7276   -47.435213   -32.729171    6.1949964     -4465.04 
47961000    2.6018804   -4735.5299   -4731.0703   -4735.5299            0    1993.1629    17.840624    23.300091    21.874386    9092.9236    2070.4418    1958.4578    1950.5891   -141.63848    15.645485    95.418962   -4466.7551 
47962000    2.6781372    -4735.748   -4731.1578    -4735.748            0    1962.8914    17.838523    23.292226    21.882817    9092.2866    1961.3517    1922.1436    2005.1789   -24.888377   -20.752804    61.731503   -4470.8751 
47963000    2.7509367   -4735.7133   -4730.9983   -4735.7133            0    1992.3513    17.857878    23.273732    21.877824    9092.8497    2018.0398    1949.6549    2009.3593   -94.601022    -53.89211    45.667677   -4466.7928 
47964000    2.6087578   -4735.6688   -4731.1975   -4735.6688            0    1988.5072    17.891156    23.241266     21.86497    9091.7414    1984.4991    1987.2807    1993.7418   -105.72973    6.4481927    97.652318   -4467.5339 
47965000    2.4231527   -4735.9668   -4731.8136   -4735.9668            0    1985.8585    17.911165    23.231324    21.850577    9092.0267    1903.9841    2011.8476    2041.7438   -120.59652   -4.2522304    89.770935    -4468.493 
47966000    2.5800165   -4735.6614   -4731.2394   -4735.6614            0    1984.7064    17.926311    23.192998    21.867906    9091.9076    1902.8848    2072.2643    1978.9702    28.503306   -39.909287    44.107349   -4468.0749 
47967000    2.5711187   -4735.8495   -4731.4426   -4735.8495            0    2022.0516    17.908868    23.201977    21.874644    9089.3774    1984.7806    2044.9924    2036.3817   -96.786766   -53.440493    116.09835    -4463.401 
47968000    2.6418748   -4735.2597   -4730.7316   -4735.2597            0    1999.5964    17.850612    23.260005    21.895589    9091.1654    2039.4712    2003.4001    1955.9179   -98.599359    46.345142    94.400914   -4465.6144 
47969000    2.5008999   -4735.2645    -4730.978   -4735.2645            0    1967.6174    17.835378    23.270289    21.905976    9091.7337    2036.3677    1910.2562    1956.2282    -101.5216   -60.558799    7.0600571   -4470.0845 
47970000    2.5586241   -4735.7349   -4731.3495   -4735.7349            0    1987.1454    17.820011    23.305602    21.889294    9090.7568     2100.591    1952.9296    1907.9158   -1.7871394   -55.990741    95.896579    -4467.895 
47971000     2.653457    -4735.512   -4730.9641    -4735.512            0    1982.5036    17.847862    23.276179    21.884569    9091.5071    2030.9333    1957.0239    1959.5537   -42.422557   -26.731601   -15.082098   -4468.1033 
47972000    2.5956978   -4735.9005   -4731.4515   -4735.9005            0     1970.268    17.882927    23.250598    21.870026    9093.3106    1954.9259    1978.2453    1977.6328   -31.671081   -47.389279    90.192065   -4470.1613 
47973000    2.5632086   -4735.8899   -4731.4966   -4735.8899            0    1998.7449    17.899024    23.236897    21.856386    9090.4593    1950.1229    1979.1917      2066.92   -98.187065   -52.222798    67.681825    -4466.513 
47974000    2.5982732   -4735.8357   -4731.3823   -4735.8357            0    1989.4683      17.9375    23.214682     21.83222    9091.2278    1910.1938    2082.6177    1975.5933   -33.530221    27.888983    24.970726   -4467.6062 
47975000     2.513727   -4735.5901   -4731.2817   -4735.5901            0    1982.6799    17.902136    23.240769    21.852004    9091.7322    1924.5604     2012.424    2011.0553   -85.936232   -25.932896    112.01501    -4468.391 
47976000    2.6624795   -4735.7061   -4731.1427   -4735.7061            0    1976.3822    17.878797    23.250235    21.872971    9092.2929    1953.5768    2018.7841    1956.7855   -18.826897    20.272955    88.804965   -4469.0709 
47977000    2.7562852   -4734.9434   -4730.2193   -4734.9434            0    2011.8615     17.83789    23.308586    21.866188    9091.4358    2096.5681    1959.2703     1979.746   -81.033425    28.699884   -27.002674    -4463.468 
47978000    2.7462649   -4735.6001   -4730.8931   -4735.6001            0    1980.9729    17.839741    23.317815    21.857946    9092.5508    2023.3113    1966.6046    1953.0028   -125.94233   -74.105755    107.49497   -4468.2052 
47979000    2.6109506   -4735.8303   -4731.3552   -4735.8303            0    1955.0318     17.84516    23.304797    21.865372    9093.3234    2019.1662    1899.9151    1946.0141   -133.15686   -44.396136    111.83586   -4472.0851 
47980000    2.6629241   -4735.1916   -4730.6274   -4735.1916            0    1985.6916    17.864925    23.288787    21.852784     9091.904    1978.9902    1951.6873    2026.3974     53.07289    7.1042395     21.54717   -4467.3325 
47981000    2.6509735   -4735.6529   -4731.1092   -4735.6529            0    1972.1144      17.9105     23.23792    21.846885    9092.7338    1959.7007    1963.6958    1992.9469   -55.641753    21.705703    102.93473   -4469.5907 
47982000    2.5386166   -4735.4976   -4731.1465   -4735.4976            0    1987.8852    17.926529    23.211468    21.849327    9091.5282    1938.2074    2043.7297    1981.7186    37.786729     59.64954    35.380094   -4467.5716 
47983000    2.4184367   -4735.6992   -4731.5541   -4735.6992            0    1945.1137    17.915094    23.227567    21.854226    9094.0688    1875.4682    1984.7573    1975.1155   -61.259206    10.366166   -52.662103   -4473.5782 
47984000    2.7657165   -4735.6342   -4730.8938   -4735.6342            0    1988.5328    17.887873    23.253721    21.862241    9093.8091    1956.3493    2021.9026    1987.3465   -10.592229   -4.9906788    122.34123   -4467.1669 
47985000    2.5823215   -4735.8847   -4731.4587   -4735.8847            0    1981.1326    17.861684    23.279585    21.864687     9091.612    1960.5815    1954.9868    2027.8295   -68.033743   -31.030643     35.09661   -4468.7767 
47986000    2.5429266   -4735.4506   -4731.0921   -4735.4506            0    2011.0512    17.832602    23.311962    21.868918    9091.1924    2105.3326    1862.5538    2065.2673   -92.671085   -16.062327    49.065931   -4464.4555 
47987000    2.5324914   -4735.6444   -4731.3038   -4735.6444            0    1987.6369    17.842348    23.300147    21.872608    9093.0847    1993.4478    1989.1167    1980.3462   -20.291358   -50.104115     86.05454   -4467.7167 
47988000    2.6535308   -4735.4987   -4730.9507   -4735.4987            0    1956.8201    17.850378    23.281243    21.880851    9093.2222    1985.7342    1907.8555    1976.8705    -124.2055   -67.687577    42.656745   -4471.4464 
47989000    2.5189795   -4735.5217   -4731.2042   -4735.5217            0    1996.0433     17.88461    23.262201     21.85577     9092.774    2033.5363    1961.2858    1993.3077   -187.81243   -10.621469    113.57863   -4466.5114 
47990000    2.4425208   -4735.4498   -4731.2634   -4735.4498            0    1987.7135    17.908276    23.223365    21.863296    9092.7354     1938.862    1998.5478    2025.7307     40.39816   -16.553684    79.682257   -4467.6763 
47991000    2.5428448   -4735.8322   -4731.4738   -4735.8322            0    1986.6756    17.918168     23.22413    21.850017    9092.5323    1940.5748    2014.7388    2004.7131   -174.93228   -26.130164    48.592043   -4468.0302 
47992000    2.6217314   -4735.7331   -4731.2395   -4735.7331            0    1980.8528    17.897512    23.242706    21.854231    9091.0677    1908.9089    1993.3177    2040.3318   -50.938386    50.515139    66.366683   -4468.6103 
47993000    2.7639919   -4735.7938   -4731.0564   -4735.7938            0    1991.5333    17.869699    23.271931    21.863572    9092.2372    2034.4915    1992.5009    1947.6076   -99.072718    -33.81323    37.527829   -4466.9772 
47994000    2.6038986    -4735.246    -4730.783    -4735.246            0    2033.8012    17.835422    23.302937    21.870383    9089.7187    2056.3682    1994.2841    2050.7512   -81.330187    23.536108    68.022477   -4461.1737 
47995000    2.6270349   -4735.1645   -4730.6619   -4735.1645            0    1994.2908    17.825038    23.317731    21.872984    9091.2749    2086.0061    1915.9137    1980.9528   -20.137601    38.913742   -11.154492    -4466.245 
47996000    2.5233363   -4735.4945   -4731.1696   -4735.4945            0    1981.2423     17.84109    23.309904    21.864494    9092.8767    2060.1491    1933.8217     1949.756    26.465791   -17.871745    104.22199   -4468.4365 
47997000    2.6274422   -4735.5835   -4731.0802   -4735.5835            0     1982.997     17.89793    23.239648    21.862355    9093.4632    1964.6761    1969.0554    2015.2596    26.945979   -23.367437    19.912551   -4468.0974 
47998000    2.7141249   -4735.5119     -4730.86   -4735.5119            0    1998.5067    17.907134    23.225829      21.8658    9094.1615    1952.8616    2044.3056     1998.353   -102.98952    56.608115    88.222838      -4465.8 
47999000    2.5351081   -4735.7593   -4731.4142   -4735.7593            0    1970.1113    17.930048    23.204156    21.855294    9092.9308    1919.9825    2025.6252     1964.726   -30.996802   -39.595067    64.120637   -4470.1557 
48000000    2.6674785   -4735.6262   -4731.0542   -4735.6262            0    1976.8339    17.911611    23.233798    21.847311    9091.8621    1931.8064    1996.4938    2002.2017   -135.72746   -6.5330908     117.0733    -4468.935 
Loop time of 332.485 on 64 procs for 250000 steps with 864 atoms

Performance: 129.931 ns/day, 0.185 hours/ns, 751.914 timesteps/s
392.6% CPU use with 16 MPI tasks x 4 OpenMP threads

MPI task timing breakdown:
Section |  min time  |  avg time  |  max time  |%varavg| %total
---------------------------------------------------------------
Pair    | 24.318     | 26.61      | 29.845     |  35.0 |  8.00
Bond    | 1.5712     | 1.8094     | 2.5814     |  16.7 |  0.54
Kspace  | 183.54     | 186.12     | 190.44     |  13.9 | 55.98
Neigh   | 0.046056   | 0.049029   | 0.052217   |   0.9 |  0.01
Comm    | 40.76      | 46.245     | 48.459     |  28.9 | 13.91
Output  | 0.38289    | 0.38322    | 0.38459    |   0.1 |  0.12
Modify  | 53.123     | 59.57      | 63.966     |  46.9 | 17.92
Other   |            | 11.7       |            |       |  3.52

Nlocal:        54.0000 ave          61 max          47 min
Histogram: 2 3 2 1 0 0 1 1 4 2
Nghost:        2603.06 ave        2626 max        2582 min
Histogram: 3 2 3 0 0 0 1 3 2 2
Neighs:        13378.6 ave       14939 max       11877 min
Histogram: 5 2 1 0 0 0 1 1 2 4

Total # of neighbors = 214057
Ave neighs/atom = 247.75116
Ave special neighs/atom = 2.0000000
Neighbor list builds = 250
Dangerous builds = 0

unfix		3
unfix		2
unfix		1

write_data	data.final.${pid} nocoeff
write_data	data.final.1 nocoeff
System init for write_data ...
PPPM initialization ...
  extracting TIP4P info from pair style
  using 12-bit tables for long-range coulomb (../kspace.cpp:340)
  G vector (1/distance) = 0.37228121
  grid = 24 27 25
  stencil order = 5
  estimated absolute RMS force accuracy = 0.0030921724
  estimated relative force accuracy = 9.3119853e-06
  using double precision FFTW3
  3d grid and FFT values/proc = 6300 1296
Last active /omp style is kspace_style pppm/tip4p/omp

write_restart   restart.lmp.${pid}
write_restart   restart.lmp.1
System init for write_restart ...
PPPM initialization ...
  extracting TIP4P info from pair style
  using 12-bit tables for long-range coulomb (../kspace.cpp:340)
  G vector (1/distance) = 0.37228121
  grid = 24 27 25
  stencil order = 5
  estimated absolute RMS force accuracy = 0.0030921724
  estimated relative force accuracy = 9.3119853e-06
  using double precision FFTW3
  3d grid and FFT values/proc = 6300 1296
Last active /omp style is kspace_style pppm/tip4p/omp
Total wall time: 0:05:32
