#include		in.partitions
include		in.temp
variable        temperature equal 72.28
variable	tempDamp equal 100.0
include		in.pressure
variable        pressure equal 418.8
variable        pressureDamp equal 1000.0 # This is 1 ps
include		in.seed
variable        seed equal 745823

units		real
atom_style	full

read_restart	restart.lmp.${pid}
read_restart	restart.lmp.1
Reading restart file ...
  restart file = 30 Jul 2021, LAMMPS = 30 Jul 2021
  restoring atom style full from restart
  orthogonal box = (0.051845250 -0.0049270436 -0.12053533) to (19.948156 20.004928 20.820533)
  4 by 4 by 4 MPI processor grid
  restoring pair style lj/cut/tip4p/long/omp from restart
  restoring bond style harmonic/omp from restart
  restoring angle style harmonic/omp from restart
  972 atoms
  648 bonds
  324 angles
Finding 1-2 1-3 1-4 neighbors ...
  special bond factors lj:    0        0        0       
  special bond factors coul:  0        0        0       
     2 = max # of 1-2 neighbors
     1 = max # of 1-3 neighbors
     1 = max # of 1-4 neighbors
     2 = max # of special neighbors
  special bonds CPU = 0.006 seconds
  read_restart CPU = 0.017 seconds
include 	in.setup
variable	out_freq equal 1000
variable	out_freq2 equal 10000
variable	out_freq3 equal 1000

timestep	2.0

neigh_modify    delay 7 every 1

include		in.tip4p
# This is TIP4P/Ice

# create groups ###
group ox type 2
324 atoms in group ox
group hy type 1
648 atoms in group hy

# set charges - beside manually ###
set group ox charge -1.1794
Setting atom values ...
  324 settings made for charge
set group hy charge 0.5897
Setting atom values ...
  648 settings made for charge

# ### TIP3P Potential Parameters ###
pair_style lj/cut/tip4p/long/omp 2 1 1 1 0.1577 8.5
pair_coeff 1 1*2 0.000 0.000
pair_coeff 2 2 0.21084 3.1668
bond_style  harmonic
bond_coeff  1 450 0.9572
angle_style harmonic
angle_coeff 1 55 104.52
kspace_style pppm/tip4p/omp 1.0e-5
pair_modify tail yes

thermo          ${out_freq}
thermo          1000
thermo_style    custom step temp pe etotal epair emol press lx ly lz vol pxx pyy pzz pxy pxz pyz enthalpy

restart 	${out_freq3} restart.lmp.${pid} restart2.lmp.${pid}
restart 	1000 restart.lmp.${pid} restart2.lmp.${pid}
restart 	1000 restart.lmp.1 restart2.lmp.${pid}
restart 	1000 restart.lmp.1 restart2.lmp.1


include         in.dump
dump            myDump all atom ${out_freq2} dump.water.${pid}
dump            myDump all atom 10000 dump.water.${pid}
dump            myDump all atom 10000 dump.water.1
dump            myDump2 all dcd ${out_freq2} dump.dcd
dump            myDump2 all dcd 10000 dump.dcd
dump_modify     myDump append yes
dump_modify     myDump2 append yes


variable natoms 	equal  "count(all)"                        # NUMBER ATOMS
variable H      	equal  "enthalpy/v_natoms"                 # ENTHALPY-per-atom
variable Vol      	equal  "vol/v_natoms"                 # volume-per-atom
fix AVG all 		ave/time ${out_freq} 1 ${out_freq} v_Vol v_H file vol_enthalpy.dat
fix AVG all 		ave/time 1000 1 ${out_freq} v_Vol v_H file vol_enthalpy.dat
fix AVG all 		ave/time 1000 1 1000 v_Vol v_H file vol_enthalpy.dat


timer           timeout 02:55:00 every 1000
New timer settings: style=normal  mode=nosync  timeout=02:55:00

fix 		1 all shake 1e-6 200 0 b 1 a 1
       0 = # of size 2 clusters
       0 = # of size 3 clusters
       0 = # of size 4 clusters
     324 = # of frozen angles
  find clusters CPU = 0.001 seconds
fix             2 all nph aniso ${pressure} ${pressure} ${pressureDamp}
fix             2 all nph aniso 418.8 ${pressure} ${pressureDamp}
fix             2 all nph aniso 418.8 418.8 ${pressureDamp}
fix             2 all nph aniso 418.8 418.8 1000
fix             3 all temp/csvr ${temperature} ${temperature} ${tempDamp} ${seed}
fix             3 all temp/csvr 72.28 ${temperature} ${tempDamp} ${seed}
fix             3 all temp/csvr 72.28 72.28 ${tempDamp} ${seed}
fix             3 all temp/csvr 72.28 72.28 100 ${seed}
fix             3 all temp/csvr 72.28 72.28 100 745823


run             250000
PPPM initialization ...
  extracting TIP4P info from pair style
  using 12-bit tables for long-range coulomb (../kspace.cpp:340)
  G vector (1/distance) = 0.37234711
  grid = 24 24 25
  stencil order = 5
  estimated absolute RMS force accuracy = 0.0034144663
  estimated relative force accuracy = 1.0282564e-05
  using double precision FFTW3
  3d grid and FFT values/proc = 2366 288
Last active /omp style is kspace_style pppm/tip4p/omp
Neighbor list info ...
  update every 1 steps, delay 7 steps, check yes
  max neighbors/atom: 2000, page size: 100000
  master list distance cutoff = 10.8154
  ghost atom cutoff = 10.8154
  binsize = 5.4077, bins = 4 4 4
  1 neighbor lists, perpetual/occasional/extra = 1 0 0
  (1) pair lj/cut/tip4p/long/omp, perpetual
      attributes: half, newton on, omp
      pair build: half/bin/newton/omp
      stencil: half/bin/3d
      bin: standard
Per MPI rank memory allocation (min/avg/max) = 9.228 | 9.231 | 9.238 Mbytes
Step Temp PotEng TotEng E_pair E_mol Press Lx Ly Lz Volume Pxx Pyy Pzz Pxy Pxz Pyz Enthalpy 
 6500000    76.709166   -5096.8073   -4948.8672   -5096.8073            0    1381.5064    19.896311    20.009855    20.941069    8337.1062    1903.1382    1119.5925    1121.7885    -268.6174   -145.24719    392.13049   -4780.8924 
 6501000    68.494559   -5103.3619   -4971.2644   -5103.3619            0    199.83817    20.022527    19.964362    20.988944    8390.0573    514.63753   -349.89337    434.77036   -249.45617    77.853088     247.2354   -4946.8121 
 6502000    71.492203   -5107.3255   -4969.4468   -5107.3255            0   -84.554302    19.926096    20.011421    20.969812    8361.7017    899.30988   -932.78514   -220.18765   -251.60191   -139.22511    578.60187   -4979.7579 
 6503000    71.488419   -5108.7933   -4970.9218   -5108.7933            0    1026.3101    19.968699    19.956765    20.944695    8346.6835     1037.275    1044.6711    996.98421    180.59799   -550.50692    104.99978   -4845.9914 
 6504000    66.901697   -5108.1243   -4979.0987   -5108.1243            0    451.62307    19.968294    19.894482     21.05538    8364.4368    1064.7163    425.35827   -135.20538   -380.57928    55.616157   -124.09352   -4924.0067 
 6505000    73.053722   -5111.5919   -4970.7017   -5111.5919            0    347.52699    20.040175    19.997255    20.897325    8374.5715   -215.30352    724.87261    533.01188    128.51275    246.06598    683.12606   -4928.2566 
 6506000    76.199596   -5110.5496   -4963.5923   -5110.5496            0    1014.8918    19.902365    19.957761    21.008018    8344.5243    1202.9437    1104.3544    737.37742    125.24508    737.06442   -188.45048   -4840.0837 
 6507000    72.997375   -5109.9729   -4969.1913   -5109.9729            0   -815.30996     20.02847    19.948704    20.991595    8387.0243   -873.24642   -933.63487   -639.04859    320.34274    689.81872   -252.59641   -5068.9169 
 6508000    73.801334   -5110.4441   -4968.1121   -5110.4441            0    1055.4949    20.033862    19.885524    20.898939    8325.7996     709.8729    1646.9002    809.71166    226.70702    145.93742   -244.69266   -4839.9504 
 6509000    77.021579   -5108.6015    -4960.059   -5108.6015            0    1099.1284    19.981703    20.056437     20.72109    8304.2209    1614.1286    504.07523    1179.1812    24.559514    720.82147    49.246563   -4826.9451 
 6510000    72.751131   -5108.0901   -4967.7835   -5108.0901            0    695.25441    20.009479    19.890367    21.081593    8390.3869    427.82668    1380.4405    277.49604   -142.21145    102.07701    387.57506   -4882.7085 
 6511000    73.715523   -5112.5264   -4970.3598   -5112.5264            0    431.69148    20.065921    19.959222    20.875988    8360.8371   -119.71822   -27.463854    1442.2565    1.0770779    705.59278    57.368937   -4917.7219 
 6512000    73.013523   -5095.4612   -4954.6485   -5095.4612            0    86.906713    19.991166    19.961415    21.038612    8395.4997    391.95041    18.102152   -149.33243   -467.67649   -443.79878   -304.16418   -4944.0077 
 6513000    72.804566   -5097.8894   -4957.4796   -5097.8894            0    1289.7106     20.02348    19.979325     20.82677    8331.8662    1750.8177    309.15928    1809.1549   -217.12973   -314.40558   -56.903151   -4800.7647 
 6514000    69.763169   -5107.4855   -4972.9413   -5107.4855            0    204.86171    20.103007    19.968149    20.854473    8371.3989    51.780463    77.717572    485.08709   -116.51918    1081.3495   -162.64379   -4947.9301 
 6515000    71.633474   -5111.6473   -4973.4961   -5111.6473            0    973.91179    19.994663    19.961321    20.869429    8329.4044    1217.4866    1209.7839    494.46486    81.023111    943.71294    420.53128   -4855.1894 
 6516000    74.318836   -5110.6285   -4967.2983   -5110.6285            0    854.13668    20.041352    20.013753    20.675478    8292.9894    758.20236    529.99547    1274.2122   -192.83444    317.61358   -591.11025    -4863.995 
 6517000    71.381486   -5108.6469   -4970.9817   -5108.6469            0    542.75541    19.908641    20.047437    20.905142    8343.6026    1670.2997   -445.01075    402.97724   -328.32622    350.97474    914.61837   -4904.9376 
 6518000    65.583863   -5103.2376   -4976.7536   -5103.2376            0    516.66327    19.988545    19.914175    21.058913    8382.6138    1429.9228    -82.65932    202.72633    53.182391    631.44249    150.34097   -4913.5906 
 6519000    70.817964   -5104.9456   -4968.3672   -5104.9456            0    1160.0584    19.987467    19.942269     20.87498     8320.672    1950.1709    221.05948    1308.9447   -123.18057    552.13711   -383.98543   -4827.5959 
 6520000    76.772851    -5118.521   -4970.4581    -5118.521            0   -560.24796    19.983652    20.036175    20.975364    8398.4506    -978.2855   -418.18383   -284.27456     -253.127   -219.66834    22.098501   -5039.0789 
 6521000    68.532826   -5108.6974   -4976.5261   -5108.6974            0   -359.16011    20.010115    20.024889    20.879448    8366.4016      13.3997   -679.10182    -411.7782   -130.49598   -279.16271    223.57702   -5020.3492 
 6522000     75.50007   -5112.8094   -4967.2011   -5112.8094            0    378.81151    20.049381    20.048579    20.729372    8332.4116    690.77945   -265.63701    711.29209   -350.06967   -121.24088   -67.064769   -4921.1681 
 6523000    69.510092   -5110.0521   -4975.9961   -5110.0521            0    763.40555    20.052487     19.91341     20.87463    8335.5195    665.43849    930.40587    694.37231    543.94913    1023.1313    6.4948901   -4883.1927 
 6524000    77.932128   -5107.1097   -4956.8111   -5107.1097            0   -380.07687    20.065972    20.043416    20.900694     8406.063   -856.16408   -208.06582   -76.000722    128.46547    512.88704   -682.88732   -5003.4061 
 6525000    71.980172   -5100.6533   -4961.8335   -5100.6533            0    177.92499    20.161813    19.950038    20.814588    8372.2299    -614.0064     -80.7003    1228.4817   -242.31297    114.57482   -120.01985   -4940.1088 
 6526000    76.549303   -5106.8817   -4959.2499   -5106.8817            0    393.81643    20.041634    19.987034     20.94945    8391.7803   -57.454648     604.5528    634.35115    155.93735    745.26907    268.98779   -4911.0525 
 6527000    72.893344   -5101.0615   -4960.4805   -5101.0615            0    1188.6044    19.949281    19.968782      20.8812    8318.2944    2097.6365    461.38482    1006.7919    13.047998   -499.14988   -275.11989   -4816.2864 
 6528000    69.705322   -5111.2321   -4976.7995   -5111.2321            0     641.6761    19.994377    20.008801    20.798172    8320.5897   -321.51352     1318.999    927.54284   -214.94225    178.11302   -695.67741   -4898.9339 
 6529000     71.10426   -5104.9932   -4967.8627   -5104.9932            0    224.96058    19.958947    20.016542     20.87828     8341.063    389.50317     -191.998    477.37658   -131.96888   -35.080926    343.09955   -4940.4971 
 6530000    74.626455   -5107.4684    -4963.545   -5107.4684            0    36.225477    19.908064    20.000732    21.082791    8394.6581     1134.472   -855.33855   -170.45702    69.674665    568.34465    326.24068   -4959.1101 
 6531000     75.01316   -5108.4769   -4963.8077   -5108.4769            0    581.97752    20.033714    19.966372    21.007833    8403.1453    513.78055    643.52686    588.62517   -386.96665   -29.453125     62.37521   -4892.4856 
 6532000    73.101043   -5107.3885    -4966.407   -5107.3885            0    45.736214     20.00114    19.956415    21.019442    8389.9324    586.47875   -237.15629   -212.11382   -341.83485    337.52953   -208.09053   -4960.8108 
 6533000    73.411958   -5108.5957   -4967.0145   -5108.5957            0    1521.0737    19.972458    20.019765    20.797799    8315.8737    1639.1616    1734.6177    1189.4419   -233.34426    410.32808   -92.941474    -4782.541 
 6534000    74.145982   -5120.0573   -4977.0605   -5120.0573            0    365.97371    20.008132    20.049281     20.80234    8344.8311    1268.3388   -532.30015    361.88248   -333.33362    260.45104    793.93912   -4932.5212 
 6535000    68.990309     -5116.79   -4983.7364     -5116.79            0    -691.3402    20.004177    19.978269    20.915473    8358.8442   -759.52726   -953.50091   -360.99242   -144.32907    942.84509   -399.99963   -5068.0143 
 6536000    72.199181   -5118.0607   -4978.8185   -5118.0607            0   -434.85096      19.9762    19.980336    20.967317    8368.7103   -13.044955   -570.09417   -721.41375   -49.854561    202.01803    76.729995   -5031.8917 
 6537000    71.167159   -5106.7711   -4969.5192   -5106.7711            0    884.63407    20.002001    19.953955    20.890408    8337.7592    673.12365    1181.4925    799.28608   -246.66719    131.75983    603.53793   -4861.9498 
 6538000    69.916649    -5098.297   -4963.4568    -5098.297            0   -230.03715    19.986138    19.831471    21.213235    8407.9616    240.89557    837.01754   -1768.0246    90.951356   -368.22668    262.71792   -4991.6643 
 6539000    70.176211   -5109.8688   -4974.5281   -5109.8688            0    1017.2364    19.997342    20.005451    20.849879     8341.116    1611.6257    550.51072    889.57288   -225.29755    517.88913    347.55461   -4850.7847 
 6540000    72.288046   -5112.0855   -4972.6719   -5112.0855            0   -143.64506    20.133474    20.046156    20.749456    8374.4545   -1050.4746    436.83534    182.70405    118.81674    314.69032   -60.841554   -4990.2157 
 6541000    72.293929   -5108.5966   -4969.1717   -5108.5966            0    474.01279    19.969243     20.03941    20.796337    8322.1086     852.2559   -221.81225    791.59471   -210.28507    590.45746   -321.19938    -4911.641 
 6542000    72.656534   -5112.2226   -4972.0984   -5112.2226            0    526.10246    20.051134    19.955997     20.75736    8305.8575    476.95296    645.80129    455.55312    -175.4365    754.14834    193.60075   -4908.3703 
 6543000    75.792948   -5111.4945   -4965.3214   -5111.4945            0    1348.2357    20.010162    19.910886    20.953043    8348.1125    1396.1398    1586.2647    1062.3026   0.89173536    164.62468   -1196.1091   -4801.1755 
 6544000    67.534608   -5107.2113   -4976.9652   -5107.2113            0      558.589    20.001423    19.987581    20.837474    8330.4064    36.212199    1243.7826    395.77216    23.990232    169.46039     244.2409    -4909.102 
 6545000    68.635782   -5111.6368   -4979.2669   -5111.6368            0    1216.7105    19.983377    20.028103    20.898296    8364.1072    1517.7345    1295.5829    836.81408    61.553955   -45.301164   -133.37038   -4830.8502 
 6546000    71.463223   -5113.0439   -4975.2211   -5113.0439            0   -165.50698    20.022868    19.927807    20.894262     8337.058    110.38149    380.40853   -987.31096   -69.627142    284.40608    230.32749   -4995.3447 
 6547000    74.688665   -5114.4205   -4970.3771   -5114.4205            0   -258.90451    20.001367    20.121149    20.759271    8354.5784   -115.80932   -934.59564    273.69142   -416.12669    724.44367   -216.16688   -5001.9228 
 6548000    70.027393   -5111.3649   -4976.3111   -5111.3649            0    552.21942    20.014719    19.958283    20.816992     8315.544    -855.0741    1821.6441    690.08829    167.69758   -11.364076   -602.41426   -4909.3415 
 6549000     75.65856   -5111.5186   -4965.6047   -5111.5186            0    699.80132    20.120237    19.953055    20.805906    8352.7427   -22.135928     857.7694    1263.7705    147.00272    268.68599    581.40882   -4880.3576 
 6550000    70.898789   -5115.1914   -4978.4571   -5115.1914            0    597.55484    19.949474    19.929465    20.935656    8323.6472    514.06035    659.43647    619.16771   -311.68694   -288.20654   -542.37749   -4905.9188 
 6551000    76.832633   -5099.5129   -4951.3347   -5099.5129            0   -11.696774    19.954899    20.011016    21.029002    8397.2545   -368.29013    142.39383    190.80598   -20.750967    -154.1124    597.38023   -4952.7672 
 6552000    67.973399   -5106.1656   -4975.0732   -5106.1656            0    961.80813    19.964785    20.017649    20.851821    8333.3895    1191.4906    504.31399    1189.6198    110.26009    420.25266    52.286608   -4858.1809 
 6553000    69.805668   -5114.9866   -4980.3605   -5114.9866            0    930.82268    20.148828    19.836842    20.856221    8336.0047    351.50178    1151.4545    1289.5117   -103.24973    651.86598    -20.05365   -4867.1985 
 6554000    71.132132   -5100.1051   -4962.9209   -5100.1051            0    1258.9768     19.86274    19.990151    20.998374    8337.5974    1719.2504    1443.2803    614.39977   -177.71876   -22.054308    116.31313   -4809.8352 
 6555000    75.582389   -5113.5454   -4967.7784   -5113.5454            0    934.31169    19.957804    20.100991    20.748304    8323.6309    1186.5251    335.68109    1280.7289   -546.41367    -232.3099   -179.59121   -4854.3608 
 6556000    76.525154   -5105.1344   -4957.5492   -5105.1344            0    545.64698    19.979877    19.966984    20.973282     8367.037    955.62603    200.47806    480.83685    28.863161    1104.4993    137.15185   -4890.9668 
 6557000     69.83315   -5113.9929   -4979.3138   -5113.9929            0    353.73744    19.928725    19.982683    21.047731     8381.825    460.35882     1327.686   -726.83247   -181.05847   -109.81384   -209.04047   -4936.0729 
 6558000    73.343113   -5110.4411   -4968.9928   -5110.4411            0    1330.9483    19.978901    19.973882    20.908541    8343.6831    1925.1287    986.35677    1081.3594   -164.97825     23.81531   -35.001012   -4807.0376 
 6559000    72.949672   -5113.4983   -4972.8087   -5113.4983            0    337.64843    20.041955    19.844043    21.010588    8356.1929    -628.7445    1845.8409   -204.15113    37.623362   -63.942722   -100.98774   -4931.6607 
 6560000    71.784866   -5107.3957   -4968.9526   -5107.3957            0     320.7313    20.002329    19.962272    20.947401    8364.1283    116.62953    916.37902   -70.814651       -59.59   -463.40156   -161.98468   -4929.8291 
 6561000    73.078388   -5108.7626   -4967.8248   -5108.7626            0   -370.17951     20.06345    19.982025    20.899692    8378.8612   -661.52461   -75.367926   -373.64599    513.69072    303.40345   -224.87232   -5013.0597 
 6562000    78.024582   -5107.9234   -4957.4464   -5107.9234            0    606.14103    19.997461    19.994973    20.961371    8381.3769    1211.3962    607.68714  -0.66025555   -287.20292    239.83432   -24.517279   -4883.3555 
 6563000    76.575582   -5109.5773   -4961.8949   -5109.5773            0     28.03628    19.957927    20.010256    20.964697     8372.529    1145.2924   -591.18981    -469.9938   -187.19106    280.84033   -509.77629   -4958.4715 
 6564000    75.612523   -5116.6402    -4970.815   -5116.6402            0    289.98717    19.912975    20.048122    20.899541    8343.4681    1305.2711   -469.80339    34.493812    210.65925   -721.64638   -194.73547   -4935.5291 
 6565000    73.651211   -5114.4405   -4972.3979   -5114.4405            0    212.52876    19.978567    19.975807    20.870605     8329.208   -8.1516419    413.41267    232.32524   -139.80392    742.15801    96.841554   -4946.5814 
 6566000    73.215376    -5100.612     -4959.41    -5100.612            0    665.60762    20.100372    19.870344    20.910211    8351.5656     154.6232    514.00193    1328.1977   -240.49099    81.124049   -649.92522   -4878.3396 
 6567000    70.033813   -5109.1991    -4974.133   -5109.1991            0    966.61284    20.061562    19.907189    20.829796    8318.7811    600.00057    1415.2544    884.58356   -344.02004    286.79576    30.783849   -4856.8627 
 6568000    73.748541   -5111.6705   -4969.4403   -5111.6705            0    1284.6541    19.951947    19.902183    20.942828    8316.1313    1289.0954    1472.9415    1091.9253    69.718947    1262.2381   -325.87055   -4813.6346 
 6569000    70.381419   -5117.1004   -4981.3639   -5117.1004            0    134.23969    19.920469    20.066933    20.899815    8354.5488     606.2733   -396.11903    192.56481    48.045431    568.95817   -148.71955   -4965.0078 
 6570000    72.125497    -5106.273   -4967.1729    -5106.273            0    729.72788    19.966887    19.913537    20.979441    8341.6636    838.00139    966.02957    385.15268    94.076033   -375.33095    117.90331   -4878.3981 
 6571000      70.8086   -5105.0519   -4968.4916   -5105.0519            0    1082.7481    20.001051    19.930977    20.883627    8325.0592    1150.6796    848.82499    1248.7398    358.78098   -141.75207   -200.42309   -4837.0325 
 6572000    75.976722   -5099.6407   -4953.1132   -5099.6407            0    1204.4192    20.059079    19.832817    20.890468     8310.814    413.25816    1451.4782    1748.5211   -54.068576    2.1605332    374.84426   -4807.1319 
 6573000    70.444035   -5116.5035   -4980.6463   -5116.5035            0   -515.08882    20.053518    20.001566    20.881843    8375.7438   -611.98083   -789.86045   -143.42517   -90.045068   -71.121807    594.40617   -5043.5652 
 6574000    70.529078   -5111.6823    -4975.661   -5111.6823            0   -305.47078     19.88026    20.071587    20.983324    8372.9415      683.258   -682.99333   -916.67702   -262.80781    151.57161   -295.17328   -5012.9623 
 6575000    72.711662   -5113.7592   -4973.5287   -5113.7592            0   -382.59759    19.997213    20.027234    20.913053    8375.4451    273.63503   -1105.5011   -315.92667    287.42093    1077.1488   -161.50179   -5020.2619 
 6576000    69.964289   -5106.5541    -4971.622   -5106.5541            0    900.14971    20.037477    19.951249    20.742681    8292.3575    773.97125    814.26827    1112.2096   -352.63644    1061.8559    275.82375    -4862.762 
 6577000    68.888617   -5113.5053   -4980.6478   -5113.5053            0    430.38183    20.108135    19.928664    20.835557    8349.3966   -180.54855    104.25665    1367.4374   -57.197674    615.82574   -149.70543   -4928.2414 
 6578000    74.397398   -5102.7012   -4959.2196   -5102.7012            0    669.26995    19.967731    19.893338    20.979312    8333.5037    767.80999    1354.3025    -114.3027    336.60037   -322.57052   -187.54827   -4877.8794 
 6579000    70.839821   -5111.3284   -4974.7078   -5111.3284            0    1312.7984    20.047471     19.94567    20.826388    8327.6447    994.12875    1700.5919    1243.6744   -63.702696    1012.8607    333.60941   -4815.2683 
 6580000    73.790871   -5105.2359    -4962.924   -5105.2359            0   -13.110933    20.013783    20.003072     20.83162    8339.6715    358.15125   -476.86008    79.376028   -271.68749    967.00686   -371.74163   -4964.5186 
 6581000    73.793878   -5111.6201   -4969.3024   -5111.6201            0    10.065045    20.005167    19.989751    20.904888    8359.8293     507.5724   -449.62006   -27.757198   -138.02896    382.70703    400.54686   -4968.0753 
 6582000    72.295845   -5115.0975   -4975.6689   -5115.0975            0    -270.9794    20.088572    20.026416    20.801356    8368.4293   -78.174669    -1050.074    315.31043   -361.51668   -140.45354    9.5444077   -5008.7405 
 6583000    76.721247   -5115.6817   -4967.7183   -5115.6817            0   -313.59618    20.120885    19.864481    20.919173    8361.2039   -669.95513    511.52364   -782.35705    106.40482    766.10509    185.77722   -5005.9581 
 6584000    73.342617   -5101.2243   -4959.7769   -5101.2243            0   -409.20688    20.033413    20.054519    20.899523    8396.6021     -1153.67   -311.45215    237.50154    101.27097    292.69455    120.36922   -5009.8867 
 6585000    70.358163   -5113.1834   -4977.4917   -5113.1834            0   -645.65643    20.066108    19.975581    20.863206    8362.6441   -1258.6513   -47.111846   -631.20616     22.24481   -501.13464    132.00852   -5056.2364 
 6586000    71.797678   -5109.9966   -4971.5287   -5109.9966            0    269.61463    19.967247    19.945808    20.943065    8340.8452    293.71277    475.82306    39.308068    104.56984    519.55635    121.97433   -4938.7321 
 6587000    70.531405   -5110.2595   -4974.2338   -5110.2595            0    162.48025    20.077795    19.921163    20.979109    8391.0776   -155.65553    152.15601    490.94028   -299.10037    456.42188   -152.14795   -4954.3502 
 6588000    72.631116   -5110.5738   -4970.4986   -5110.5738            0     761.4322    19.919307    20.041513    20.838535    8319.0151    1427.6238    144.74848    711.92432   -203.04406    58.872015   -609.96054   -4878.1184 
 6589000     69.50158   -5117.2299   -4983.1903   -5117.2299            0     431.7766    19.954875    19.873785    20.971677    8316.9246    467.61835    739.41453    88.296907   -175.52809    77.127174   -28.386147   -4930.8184 
 6590000    70.681728   -5109.8366   -4973.5209   -5109.8366            0    228.82746    20.010668    19.973212    20.924786    8363.1628    1139.9648    -779.6155    326.13309   -149.93628    549.09016    145.50225   -4945.6113 
 6591000    69.862413   -5108.1701   -4973.4346   -5108.1701            0    165.96892    20.145409    19.864527    20.857658    8346.7975    40.133581    406.34019    51.432986    139.96694    575.23593   -137.73465   -4953.2312 
 6592000    73.661144   -5115.1246   -4973.0629   -5115.1246            0     1001.517    20.048388    19.965498     20.77294    8314.9104    1019.6452    1007.3521    977.55373    93.727044    34.333716    368.22456   -4851.6145 
 6593000    73.136428   -5103.4549   -4962.4051   -5103.4549            0    59.328265    20.012492    19.970437     20.94498    8370.8335    93.214183   -187.92125    272.69186   -441.58674    196.88333   -440.23197   -4955.1623 
 6594000    71.110466   -5106.6573   -4969.5148   -5106.6573            0    1136.2743    19.909064    19.974561    20.913731    8316.8644    2108.3045    859.60015    440.91818   -410.27686    44.626892    22.017867   -4831.6927 
 6595000    70.214794   -5118.1735   -4982.7584   -5118.1735            0    733.27919    19.999574     19.92646    20.961548    8353.6109    605.71687    1266.2543    327.86638   -221.72389   -311.81091    101.51865   -4893.4238 
 6596000    72.989111   -5105.1186    -4964.353   -5105.1186            0    716.70738    20.051477    19.858074    20.930925    8334.3534    651.24934    1251.6191    247.25364    89.404192    303.35946    -165.8237   -4877.2386 
 6597000    77.747933   -5118.1211   -4968.1777   -5118.1211            0    962.05955    19.962736    19.967306    20.786926    8285.7117    1739.3909   -148.14058    1294.9283    -14.63947   -50.000743   -655.91566   -4851.9238 
 6598000    69.150335   -5102.0562   -4968.6939   -5102.0562            0     1591.372    20.003416     19.92475    20.885278    8324.1006    1572.4825    1703.0285    1498.6051   -481.42047    538.40084    44.384582   -4775.5038 
 6599000    71.318455   -5107.9786    -4970.435   -5107.9786            0    1155.3141    20.037302    19.984833    20.776675    8319.8561   -139.84612     2403.278    1202.5103   -254.54644   -75.981509    39.583042   -4830.2531 
 6600000    73.700248   -5115.5378   -4973.4006   -5115.5378            0    231.44629    20.125415    19.955997    20.861136    8378.3065   -886.95915    878.56808    702.72995   -238.25279    43.348645   -506.31617   -4945.1205 
 6601000    68.856806   -5114.0936   -4981.2974   -5114.0936            0     1719.842    19.947045    19.994861    20.765567    8282.1052    1569.8703    1989.0262    1600.6295   -18.141499    648.13221   -63.170747   -4773.5646 
 6602000    74.518861   -5111.5037   -4967.7878   -5111.5037            0    2.6689762    19.916436    20.007877    21.028916    8379.7203   -264.22254   -57.420154    329.64962   -179.81132   -807.32071    318.15959   -4967.4616 
 6603000    73.057004   -5106.0607   -4965.1641   -5106.0607            0   -731.58354    20.076922    19.963758    20.915532    8383.1714   -419.26899   -1136.8171   -638.66452   -163.95531   -185.65813   -121.84939   -5054.6075 
 6604000    75.436035   -5110.2404   -4964.7557   -5110.2404            0    681.58012    19.960434    19.982761    20.915566    8342.4785    870.83794     893.4864      280.416   -203.81332    1113.9342    651.13011   -4881.8302 
 6605000    76.611381   -5104.5367   -4956.7852   -5104.5367            0    385.12715    20.090229    19.952861    20.876302    8368.4229   -160.86136    563.80697    752.43583    -527.1668    272.84786    97.392703   -4909.7824 
 6606000    69.540967    -5111.402   -4977.2864    -5111.402            0    301.75834    20.072628     19.94775     20.83424    8342.1081    -1018.363    989.56329    934.07474   -191.29063    627.10638   -272.50566   -4940.5741 
 6607000    73.155246   -5110.1389   -4969.0529   -5110.1389            0    859.29227    20.004273    19.941764    20.900185    8337.5121    361.59761    1919.9905    296.28867    74.702429   -205.06179    343.58211    -4864.568 
 6608000    69.899187   -5095.9823   -4961.1758   -5095.9823            0     701.4969    19.935471    20.039146    20.813521    8314.7896    1350.9127    275.25793    478.32009   -119.22863    1032.0804    402.04916   -4876.1104 
 6609000    71.508001   -5108.4093   -4970.5001   -5108.4093            0    900.22244    20.004624    19.984262    20.835391    8329.5233    986.21494    1145.1414    569.31099   -479.46872    110.07066    390.34364   -4861.1433 
 6610000    76.189076   -5108.2173   -4961.2803   -5108.2173            0     341.7232    19.945234    19.986513    20.913266    8336.7741    380.35012    513.30225    131.51723   -37.314934    232.76619    133.85494   -4919.7325 
 6611000    76.406367   -5106.8602   -4959.5041   -5106.8602            0    657.24904    20.087679    20.058116    20.704921    8342.4475    432.39799    520.14557    1019.2036   -417.10978    791.91983   -327.77006   -4879.5392 
 6612000    72.600618   -5104.6195   -4964.6031   -5104.6195            0   -59.931164    20.153155    19.909239     20.94447    8403.6334   -1076.5032    602.11135    294.59838    -220.5823    225.83667   -548.83799   -4971.9482 
 6613000    71.069397   -5114.8621   -4977.7988   -5114.8621            0    616.93358    19.993278    19.986975    20.805479    8313.9766   -403.12257    1034.5899    1219.3334   -10.400629   -41.141306    423.89462   -4902.9951 
 6614000    73.692163   -5108.5554   -4966.4338   -5108.5554            0   -8.1997385     20.02018    19.917804    20.903902    8335.5988    21.973876   -10.502081   -36.071011   -8.2871146     202.3262   -421.17535   -4967.4307 
 6615000    74.868233   -5113.5769   -4969.1872   -5113.5769            0    406.91958    19.941855    20.051439    20.854587    8338.9754    334.10582    336.28711    550.36582   -397.66602    626.79138   -459.02628   -4919.6995 
 6616000    69.448964   -5112.2097   -4978.2715   -5112.2097            0   -847.89596    20.020795    20.090543    20.854505    8388.2792   -828.62347   -647.25523   -1067.8092   -159.36901    15.714066    302.27264   -5081.9984 
 6617000    71.294081    -5116.787   -4979.2904    -5116.787            0     273.3926    20.086587    19.927966    20.859378    8349.6924   -218.46457    549.63736    489.00502    109.22944   -113.54418    86.373162   -4945.9989 
 6618000    71.739302   -5113.9914   -4975.6361   -5113.9914            0    1167.0923    20.074412    19.867801    20.903171    8336.9043    209.63274    1984.8405    1306.8036    125.88254    197.22809    29.274156    -4833.735 
 6619000    70.930544   -5113.0015    -4976.206   -5113.0015            0    189.21394     19.98654    20.068116    20.832967    8355.9408     558.2362   -379.49327    388.89888   -19.175565    31.204484   -37.495628   -4953.1479 
 6620000    73.228024   -5110.6004    -4969.374   -5110.6004            0    91.468803    19.966048     19.94083    20.978488    8352.3661    494.56961   -565.25262    345.08942    -560.4985    242.51092   -624.27729   -4958.2321 
 6621000    70.704323    -5116.348   -4979.9888    -5116.348            0    658.72485    19.869621    20.016526    20.952351    8333.1857    525.78005    1229.5447    220.84983   -232.78734    897.84783     -81.9195   -4899.9333 
 6622000    74.634573   -5106.5532   -4962.6141   -5106.5532            0    890.42122    19.886423    20.064251    20.863888    8324.8203     1551.899    149.49459    969.87003   -190.45346    832.05209    1097.9563    -4854.509 
 6623000    72.808005   -5109.7786   -4969.3622   -5109.7786            0   -395.90111    20.023624    20.048683    20.905664    8392.5224   -841.20552   -433.42229    86.924458   -230.62249   -89.651882    531.83914   -5017.8191 
 6624000    70.410851    -5105.343   -4969.5497    -5105.343            0    1511.1186     20.02182     19.91359    20.941979    8349.6992    1103.5716    2540.3062    889.47792   -18.685379    1353.8256   -173.91066   -4785.5381 
 6625000    72.714156   -5102.2912   -4962.0558   -5102.2912            0    317.92834    20.122544    19.963734    20.776855    8346.5016   -170.58774    386.60378    737.76898   -189.42514    1360.3159     64.00187   -4923.3559 
 6626000     69.46522   -5114.0036   -4980.0341   -5114.0036            0    779.89821    19.997573    19.935859    20.920821    8340.4786    26.553875    1198.9627    1114.1781    7.4301288    504.37786    29.738044   -4885.1694 
 6627000    71.019136   -5107.7177   -4970.7513   -5107.7177            0    1176.6343    20.019897    19.942323    20.788602    8299.7087    1455.0156    461.56683    1613.3204   -325.79819    154.79494    74.199035   -4828.3283 
 6628000    72.874929   -5113.8257   -4973.2803   -5113.8257            0    1448.1682    19.954081    19.969129    20.888907    8323.5115    2286.0667    607.90995    1450.5281     224.3849   -231.58861    447.83439   -4797.4873 
 6629000    73.207242   -5098.5469   -4957.3606   -5098.5469            0   -4.2156542    19.990294    19.998877    20.935039    8369.4818    54.242111   -411.49787     344.6088   -22.967073      517.132    1096.6186   -4957.8751 
 6630000     70.39754   -5115.6122   -4979.8446   -5115.6122            0    606.36951    19.954827    20.050679    20.728197    8293.5141    620.72273   -107.41823     1305.804    62.533232   -494.79856    174.20785   -4906.5028 
 6631000    67.202742    -5111.723   -4982.1169    -5111.723            0    403.51953     20.00676    20.000385     20.88092     8355.352     906.5468     44.81442    259.19735   -200.47411    -160.4344   -164.98429   -4932.9463 
 6632000    74.987759   -5105.5171   -4960.8969   -5105.5171            0   -452.99893    20.068765    20.024447    20.812759    8363.9388   -912.63269   -140.86204   -305.50205   -196.96039   -265.53369    334.77609   -5016.1535 
 6633000    76.394795   -5108.8645   -4961.5307   -5108.8645            0    273.34983    20.038527     19.95967    20.958943    8382.7889    8.8962047    1194.0057   -382.85245   -402.41705   -49.521655   -659.34592   -4928.1125 
 6634000    68.651578   -5106.4399   -4974.0395   -5106.4399            0    207.25297    20.090843     20.01139    20.738991    8338.0219    149.80176   -299.28591    771.24307    131.29482    596.81399    53.922973   -4948.8373 
 6635000     73.02965   -5114.7434   -4973.8996   -5114.7434            0    561.72368    20.014595    19.958389    20.950944    8369.0445    450.23492    1235.5311  -0.59492972    83.900489    382.72931   -30.697055    -4905.339 
 6636000    75.461209   -5112.4534   -4966.9202   -5112.4534            0    626.20717    20.059505    19.873488    20.974651    8361.5938   -537.73767    2123.4643    292.89493   -32.616899    124.77354    217.57835   -4890.5572 
 6637000    71.221285   -5113.0773    -4975.721   -5113.0773            0    382.39306    19.999012    20.030323    20.815085    8338.2455     1237.222   -327.16059    237.11774   -335.96665    164.39503   -283.81944   -4929.2202 
 6638000    70.478747   -5110.2794   -4974.3552   -5110.2794            0   -112.66522    20.028304    19.936511    20.986451    8379.7748   -179.95846   -138.02365   -20.013549   -37.578847    379.87142    -448.7635    -4988.124 
 6639000    68.136568     -5113.69   -4982.2829     -5113.69            0   -105.49675    20.054187    20.016454    20.772487    8338.3614   -127.47594   -644.87187    455.85755    -251.5492     47.21863    306.50608    -4995.112 
 6640000    73.714098   -5109.4665   -4967.3026   -5109.4665            0    523.15963    20.100891    20.012831    20.695574    8325.3272    413.62061    195.75788    960.10039    311.15111   -591.10142   -133.88038   -4903.7825 
 6641000     71.86521     -5110.54   -4971.9419     -5110.54            0    506.41532    20.048449    19.884295    20.869298    8319.5305    48.018729    1138.7861    332.44116   -120.27619   -313.86641     495.6262   -4910.4976 
 6642000    71.184464   -5107.6481   -4970.3629   -5107.6481            0    1071.1882    20.038435    19.961216    20.794696    8317.7022    919.10609    207.15964    2087.2989    143.26356    378.05265    1158.6542   -4840.4222 
 6643000    70.003656   -5109.6818   -4974.6738   -5109.6818            0    293.62332    20.003481    19.928112    20.996412    8369.8335   -23.175246    1198.3444   -294.29916   -148.77334     48.33736   -87.188712   -4938.8326 
 6644000    72.697593   -5110.3223   -4970.1189   -5110.3223            0    871.20721    19.977029    19.920104    20.971842    8345.6292    1413.7335    520.43785     679.4503   -172.61981   -254.42253   -86.867817   -4864.0821 
 6645000    71.896377   -5109.9715   -4971.3133   -5109.9715            0    270.80209    19.944769    19.977463    21.025666    8377.5899    1371.2412    -55.73723   -503.09771    114.69325    632.05111    -829.1093    -4938.227 
 6646000    69.720123   -5109.5692    -4975.108   -5109.5692            0   -108.08286    19.953855    20.010408    20.908527    8348.4566    579.61632   -402.19044   -501.67446   -131.52327   -14.493779   -195.47177   -4988.2675 
 6647000    72.026867   -5118.4747   -4979.5649   -5118.4747            0    479.47691    20.078982    19.957336    20.773973    8324.6087    107.52999    828.57595    502.32478   -212.64185   -158.58377    132.18074   -4921.3535 
 6648000    68.519859   -5108.4637   -4976.3174   -5108.4637            0    463.47016    20.026293    19.940381    20.876814    8336.7779   -210.50417    1187.0752    413.83948    182.18536    144.43461    852.14869   -4919.9671 
 6649000    72.169768    -5103.719   -4964.5336    -5103.719            0    475.96898    20.013624    19.938141    20.921925    8348.5693   -309.58592    1206.4975    530.99536   -530.63713    98.078284    191.54448   -4906.5818 
 6650000     71.59315   -5111.5391   -4973.4657   -5111.5391            0    1068.2042    19.980236    19.994036    20.884044     8342.874    239.75622    1702.1585    1262.6979   -274.12041    304.62026    927.95676   -4843.4949 
 6651000    76.747405   -5106.1982   -4958.1844   -5106.1982            0   -31.391112    20.069432    19.803464    21.123761    8395.5182   -826.19486    998.82162   -266.80009   -282.42298   -494.80884   -387.41333   -4962.0279 
 6652000    75.421471   -5109.6994   -4964.2427   -5109.6994            0    309.92747    19.918736    20.071122    20.850489    8335.8456    809.46003   -212.62082    332.94322   -382.40904    194.30761   -585.78851   -4926.5649 
 6653000    73.367753   -5112.0064   -4970.5105   -5112.0064            0   -208.08239    19.952302    20.025937    20.937688    8365.9369     310.7304   -611.27333   -323.70424    90.556375    385.03055   -118.09735   -4995.8983 
 6654000    72.856142   -5110.5415   -4970.0323   -5110.5415            0    562.63786    19.988715     19.98609    20.737012    8284.3587    633.78352   -44.464071    1098.5941   -108.89082    253.74524    172.14568   -4902.0551 
 6655000    69.734418   -5105.3905   -4970.9018   -5105.3905            0     550.2386    20.043893    19.974816     20.84047    8343.9628   -208.76118    772.98188    1086.4951   -70.535458    580.72368     176.1263   -4903.9443 
 6656000    68.613094   -5107.5479   -4975.2218   -5107.5479            0   -94.114184    19.940959    20.081868    20.912302    8374.3671   -24.995877   -411.10113    153.75446   -316.32636      1133.69    915.70436   -4986.7161 
 6657000    74.952265   -5112.3237    -4967.772   -5112.3237            0    218.05364    20.073286     20.01374    20.777826    8347.3153   -404.65915    414.09696    644.72312    46.060971    198.73728    596.53123   -4941.2268 
 6658000    69.116672   -5113.9112   -4980.6139   -5113.9112            0    1108.6792    20.135604     19.88189    20.793075    8324.1722    151.71913    795.79273    2378.5258    -339.3245    594.43134   -541.96113   -4846.0208 
 6659000    70.247098   -5113.0045   -4977.5271   -5113.0045            0    378.80172    20.041322    19.909924    20.957736    8362.5814    47.826857    408.99405    679.58426   -90.859791    29.870617    -229.3936   -4931.3286 
 6660000    72.890763   -5108.8494   -4968.2734   -5108.8494            0     238.7878    20.024881    19.927952     20.92741    8351.1849   -684.07768     1130.045    270.39605   -86.046731    94.342866    224.28374   -4939.1906 
 6661000    71.119461   -5113.5807   -4976.4208   -5113.5807            0   -141.97551    20.146871     19.84904    20.886848    8352.5679    -1144.622    1023.7167    -305.0212   -154.49748   -253.49112    -314.0148   -4993.7154 
 6662000     73.82795   -5111.3131   -4968.9297   -5111.3131            0    -428.5575    19.961555    20.051232    21.009346    8409.0701   -148.07462   -562.82306   -574.77484   -200.42341     75.79238    102.51484    -5021.487 
 6663000    70.743893   -5105.0711   -4968.6356   -5105.0711            0    374.93793    19.978815    19.981123    20.880455    8335.4597      266.738    360.36864    497.70714   -65.528461   -1097.4129   -343.89295   -4923.0566 
 6664000    69.474351   -5110.1002   -4976.1131   -5110.1002            0    795.68955    19.961123    20.015096    20.823058    8319.3073    806.49607    1010.5084    570.06418   -292.36311    877.28297    380.41229   -4879.5732 
 6665000    73.469547   -5114.2514   -4972.5592   -5114.2514            0    892.16573    19.951696     20.02053    20.842081     8325.234    1900.5826    34.092462    741.82211    104.32427   -330.85136   -225.68263   -4864.2369 
 6666000    71.023898   -5103.3844   -4966.4089   -5103.3844            0    417.71994      19.8912    20.021637    20.906606    8326.1474    1411.6128   -114.04284   -44.410201    200.83779    1278.7134    434.20009   -4915.6858 
 6667000    73.279695   -5110.7354   -4969.4093   -5110.7354            0    501.95149    20.145484     19.85671    20.868902    8348.0417    -586.9274     2099.464   -6.6821024   -160.38493   -140.61981    294.25509   -4908.2979 
 6668000     76.21058   -5106.3221   -4959.3436   -5106.3221            0    173.91372    20.034002    19.921596    20.965961      8367.71   -650.86192    1050.0233    122.57979   -372.65106    196.77311    87.097368   -4938.1201 
 6669000    75.665615   -5108.1133   -4962.1858   -5108.1133            0    1321.5411    19.995916    19.893247    20.908962    8317.2442    850.34679    2220.5623    893.71424   -235.58761    -44.91745    227.68296   -4801.8849 
 6670000    73.237973   -5109.2407   -4967.9951   -5109.2407            0   -935.81403    20.061257    20.070512    20.918992    8422.8164   -1096.6881   -802.37945   -908.37456   -260.79435   -56.397044   -302.10068   -5082.9487 
 6671000    71.176572   -5102.9398   -4965.6698   -5102.9398            0    136.30674    19.958053    20.004875     21.00645    8387.0006    571.70134    80.927549   -243.70868   -378.13569    690.67739    -96.37828   -4948.9973 
 6672000    71.010764   -5111.2033    -4974.253   -5111.2033            0     178.3352    20.075402    20.055569    20.826672    8385.3102   -841.23718    645.98321    730.25957    210.68526   -289.15316   -274.88911   -4952.4442 
 6673000    69.301172    -5109.639   -4975.9859    -5109.639            0    352.30565    20.004548    20.011731    20.932614    8379.8619    1331.6194   -219.68301   -55.019422    -77.65943    759.52946    587.06861     -4932.93 
 6674000    72.310794   -5108.7244    -4969.267   -5108.7244            0    388.52055    20.134091    19.965363    20.833646    8374.8016   -867.71042    523.76244    1509.5096   -106.50656     825.6724     -467.221   -4921.8139 
 6675000    71.272037   -5108.1639   -4970.7098   -5108.1639            0    344.82891    19.986701     19.97814    20.854829     8327.273    788.92574    97.131639    148.42934    239.20352   -161.34791   -357.47111   -4928.8321 
 6676000    70.855999   -5114.0402   -4977.3884   -5114.0402            0    553.17373    19.954549    19.997772    20.946016    8358.4351    1030.3694    229.15823     399.9936   -411.72901   -226.93954   -222.47517    -4909.957 
 6677000     73.31546   -5110.4784   -4969.0834   -5110.4784            0    146.69908    20.118456    19.952226    20.859557    8373.1928   -985.79418     560.7785    865.11293    139.74937    261.08893     241.2638   -4951.1693 
 6678000    68.841047   -5102.5931   -4969.8274   -5102.5931            0    353.14245    20.145092    19.919421    20.819252    8354.3197   -1216.2264    1751.5728    524.08099    118.49825    -110.4067     -140.095   -4926.8008 
 6679000    76.153122   -5110.0155   -4963.1478   -5110.0155            0    419.01653     20.09858    19.934316    20.819202    8341.2433   -381.30301    1492.8967    145.45594   -134.59137   -795.98762   -347.77007   -4912.1751 
 6680000    75.417613   -5110.3617   -4964.9125   -5110.3617            0    1509.5027    19.904984    19.989575    20.881452    8308.5659    2248.2185    513.87066    1766.4188   -215.36217   -73.868306    182.82857   -4782.0031 
 6681000    73.036669   -5116.6261   -4975.7687   -5116.6261            0    1465.8726    19.950554    19.862551    20.889195    8277.7381    1624.8921    1609.3841    1163.3417   -64.999003    -287.5602   -195.17863   -4798.8052 
 6682000    71.874091   -5109.8055   -4971.1903   -5109.8055            0   -325.04084    20.098475    19.945609    20.849996    8358.2699   -555.71247   -650.42844     231.0184   -232.53083   -420.90129    -435.1697   -5010.8117 
 6683000    71.231721   -5116.2498   -4978.8734   -5116.2498            0    1153.5359    19.952206    19.976629    20.928924    8341.8049    802.65364    1830.7762    827.17798   -327.88854    60.603006   -57.587361    -4838.538 
 6684000    70.944985   -5118.0806   -4981.2573   -5118.0806            0    533.54332    20.055873    19.956147    20.827395    8335.9138    615.07258    573.70855    411.84882    -159.9655    254.37617   -244.26986    -4916.394 
 6685000    75.146391   -5110.9296   -4966.0035   -5110.9296            0    317.27599    20.170529    19.858185    20.880597     8363.725   -584.68207    806.08281    730.42722   -44.215385   -847.51369   -373.94462   -4927.3033 
 6686000    74.244698   -5106.9722   -4963.7851   -5106.9722            0   -610.18745    20.038762    20.002435    20.969662    8405.1445   -61.774565   -1141.1489   -627.63886   -545.63473   -481.21865   -68.931049   -5038.5821 
 6687000    73.479789   -5117.5929   -4975.8809   -5117.5929            0    668.66096    20.075106    20.032744    20.789781    8360.8071    1490.6215    -813.2062    1328.5676   -84.820126    149.51465    34.120958   -4894.3486 
 6688000    76.749976   -5117.0626   -4969.0439   -5117.0626            0    273.59587    20.004595    19.943753    21.032408    8391.2305    204.42784    253.04588    363.31388    287.00852   -342.74182   -172.71143   -4935.5619 
 6689000    69.920537   -5113.7067    -4978.859   -5113.7067            0     1124.503     20.03675    20.034566    20.735385    8323.7558    888.01006    1234.0588    1251.4402    54.002137   -530.79034   -140.28055   -4842.3517 
 6690000    74.554244   -5104.3498   -4960.5657   -5104.3498            0    252.91075    19.924853      20.0408    20.943025    8362.7588    1.7695398     10.85442    746.10829   -58.028821     -561.027   -264.02041   -4929.7201 
 6691000    71.980182   -5108.2298   -4969.4099   -5108.2298            0    413.12094    19.925835    20.026273    20.940356    8356.0438    778.96666    62.809887    397.58628    145.90249     167.1874    300.34936   -4919.0652 
 6692000    72.689594    -5107.539    -4967.351    -5107.539            0    27.961309    20.129045    19.958885    20.874596    8386.4377   -665.18591   -100.54405    849.61388   -26.494966   -564.90507   -32.333864   -4963.9311 
 6693000    72.480606   -5108.9746   -4969.1896   -5108.9746            0    89.012954    20.066808    19.941731    20.930603    8375.7338    468.42754   -675.46758    474.07891   -70.832001    372.50341    659.80344   -4958.3165 
 6694000    76.681219   -5111.1685   -4963.2823   -5111.1685            0   -563.59541     20.15134    19.862555    20.974349    8395.1321   -1274.0224   -236.49958   -180.26425   -148.44995    74.903578    125.04966   -5032.2858 
 6695000    72.580639   -5110.3482   -4970.3703   -5110.3482            0    350.66705    20.009224    19.967083    20.952618    8371.1122    936.70649   -153.81441    269.10909   -248.99434    439.08963    582.05245   -4927.5595 
 6696000    69.182679   -5106.0762   -4972.6515   -5106.0762            0    640.83479    19.963548    19.938545    21.063924    8384.3708    1341.2901    693.96291   -112.74864   -719.44246    714.51206    873.53936   -4894.2919 
 6697000    73.251311   -5111.3766   -4970.1052   -5111.3766            0    582.98392    19.968478    20.020663    20.823555    8324.8856    554.87982    823.61582    370.45613    -321.0424    298.40877     83.60414   -4899.3252 
 6698000    70.688653   -5103.6863   -4967.3573   -5103.6863            0    638.98857    19.928492    20.082395    20.843956     8341.998    1002.0337    478.38019     436.5518   -236.12075     172.7827   -954.46527   -4889.6183 
 6699000    74.723479   -5106.4019   -4962.2914   -5106.4019            0    363.70231    19.939222    20.029897    20.867156    8333.9365    413.22519    129.25034    548.63141   -155.09249     308.6394    -283.3633   -4918.0863 
 6700000    70.139867   -5108.4161   -4973.1455   -5108.4161            0    1559.5983    19.959836    20.004717    20.911473    8349.7603    861.84081    1929.7892    1887.1649   -17.497554    514.12856   -20.337904    -4783.229 
 6701000    73.455547   -5114.7738   -4973.1086   -5114.7738            0    666.32237    19.971302     19.89528    21.041768    8360.6235      627.787    1026.7386    344.44151    24.452562   -56.220492   -131.92702   -4891.8632 
 6702000    70.956678    -5107.758   -4970.9121    -5107.758            0    124.96522    19.929178    20.021142    20.975146    8369.1863     726.3304    77.347954    -428.7827   -49.708588     527.3411    96.420805   -4955.6593 
 6703000    70.699392   -5112.8421   -4976.4923   -5112.8421            0    1051.8339    20.112823    19.881068    20.912542    8362.1811   -338.21016     2652.678    841.03383    139.49468    539.31544   -560.13666   -4848.2172 
 6704000     71.49841    -5115.465   -4977.5743    -5115.465            0    331.03256    20.119459    19.923872    20.854534     8359.697    792.60703    78.838084    121.65256   -208.11036   -495.51995    402.49177   -4937.2156 
 6705000    68.868157   -5112.4879   -4979.6698   -5112.4879            0     580.9397    20.046224    20.002158    20.823755    8349.6542    337.63172     262.6819    1142.5055    -243.8246    366.42039   -160.11753   -4908.9281 
 6706000    70.396879   -5112.7627   -4976.9964   -5112.7627            0    598.38548      20.0777    19.955293      20.8843    8367.4283   -238.94853    1395.3869    638.71806    -205.2969    252.68616   -140.79546   -4903.9752 
 6707000    74.174056   -5113.4548   -4970.4039   -5113.4548            0    109.98051    19.880651    20.039714    21.041159    8382.8515    477.66477   -44.333794   -103.38944   -593.66608    265.76792    768.95301   -4956.9582 
 6708000    70.167987   -5101.6482   -4966.3234   -5101.6482            0   -824.67649    19.993839     20.02288    20.965655    8393.2697   -721.79333   -484.67901   -1267.5571    -176.2407    390.74553   -243.73464   -5067.2697 
 6709000    69.792509   -5106.3744   -4971.7737   -5106.3744            0    409.49049    20.045002    19.870071    21.105885    8406.3814    1127.1792    438.82929   -337.53705    104.86622    450.07706    384.82354   -4921.5708 
 6710000    76.807254   -5111.2335   -4963.1043   -5111.2335            0    56.312915    20.033051    20.051591    20.872311    8384.2933   -79.681498    162.29754    86.322702   -61.817892    69.320767    674.37678   -4956.2185 
 6711000    75.753106   -5116.0947   -4969.9984   -5116.0947            0    373.28723    20.022292    19.896894    21.008971    8369.5838   -759.00615    1818.6046    60.263255   -264.53396    273.55609   -346.86761   -4924.4343 
 6712000    71.478874   -5107.1802   -4969.3271   -5107.1802            0    488.90203    20.062714    19.871134    20.875208    8322.2957    395.35299     116.1592    955.19389   -6.5504706   -369.22275    580.02841   -4909.9881 
 6713000    75.427002   -5109.5975   -4964.1302   -5109.5975            0    326.46174    20.037701    19.916613    20.878775    8332.3667   -438.81291    1312.7739    105.42419   -181.62456    747.14782    256.80282   -4924.4589 
 6714000    72.729084   -5107.2801    -4967.016   -5107.2801            0    317.29922    20.062177    19.985007    20.854998      8361.66   -276.19388    329.94133    898.15022    62.468573   -406.02282    225.92142   -4928.3225 
 6715000    70.178735   -5120.2697   -4984.9241   -5120.2697            0    73.016762    20.007342    20.029616    20.890069    8371.4738   -123.46498    74.291905    268.22336   -28.391475    255.35678    89.122428   -4976.0096 
 6716000    72.149488   -5112.8067   -4973.6604   -5112.8067            0   -23.396634    20.049175    19.997304    21.000335    8419.6532   -563.83115     668.2375   -174.59625    97.791031    88.450192    303.58885   -4976.5333 
 6717000     68.24266   -5113.4785   -4981.8668   -5113.4785            0    126.77837    19.912509    20.036009    20.955772    8360.6662    938.89606   -454.79484   -103.76609    -235.8501   -103.61668    251.29508   -4966.4085 
 6718000    74.543055   -5107.3658   -4963.6032   -5107.3658            0    861.31041    19.928999    20.027014    20.979957    8373.4855    498.44968    1352.9679    732.51369   -414.73637    196.77288   -251.33361   -4858.4211 
 6719000    71.705532   -5105.3694   -4967.0793   -5105.3694            0    534.63707    20.041484     19.97674    20.733406    8300.8992     1071.902   -266.06127    798.07044   -428.46053    -937.8389    -335.0761   -4902.3561 
 6720000    70.311005   -5114.9093   -4979.3086   -5114.9093            0    486.31374    20.045006    19.941162    20.891778    8350.8762    207.86179    1128.7678     122.3116   -187.48365    281.45528    230.76162    -4920.081 
 6721000    71.216768   -5110.4598   -4973.1123   -5110.4598            0    932.28748    20.016375    19.897305    20.869686    8311.8099    192.47987    1309.5519    1294.8307    360.47475   -367.34572   -867.14938   -4860.1011 
 6722000    70.314688   -5113.3563   -4977.7485   -5113.3563            0    1003.3279     19.95484    19.991479    20.898332    8336.9039    1233.5118     491.5199     1284.952    27.400599   -295.33025   -160.19092   -4855.7587 
 6723000    71.486988   -5113.6392   -4975.7705   -5113.6392            0    467.73278    19.965206    19.915036    20.989866    8345.7343      1352.11    383.02817   -331.93982     -190.595     467.7587   -480.01927   -4918.8409 
 6724000    69.862753   -5103.3751   -4968.6389   -5103.3751            0    1218.2341    20.063138    19.814193    21.005938    8350.5934    2221.8951    543.32899    889.47823    150.38796   -622.25902    99.720986   -4820.2765 
 6725000    66.842025   -5104.5004     -4975.59   -5104.5004            0    113.60293    20.025202    19.901419    20.986159    8363.6126    77.128754    204.27657    59.403456   -260.33951    524.32832   -194.31804   -4961.7333 
 6726000    70.621542   -5107.7442   -4971.5447   -5107.7442            0    652.73167    20.052073    19.933389    20.891523    8350.4621    466.26276    715.96374    775.96853   -353.05324    208.60303    93.357327   -4892.0531 
 6727000    78.158611   -5103.9593   -4953.2238   -5103.9593            0    89.463566    20.060659    19.970864    20.798011    8332.2799   -586.45611    324.32336    530.52345   -193.21872    146.68678     742.1912   -4942.3524 
 6728000    72.477214   -5106.1063   -4966.3279   -5106.1063            0    118.78842    20.080311    20.018888    20.800168     8361.366   -290.14705    640.12493    6.3873688   -23.252493   -121.43939    197.82209   -4951.8426 
 6729000    73.680427   -5107.7258   -4965.6269   -5107.7258            0    644.85446    19.945586    19.997293    20.902343    8337.0608    1783.7177   -30.854155     181.6998   -384.01896     246.0917    376.00818   -4887.2207 
 6730000    76.134355   -5108.4448   -4961.6133   -5108.4448            0    189.20755    19.992216    20.130122     20.82982    8382.8726    919.09938    -728.4037    376.92697   -252.10999    543.18053   -24.691601   -4938.4816 
 6731000    76.052755   -5111.3035   -4964.6294   -5111.3035            0    254.61177    19.972113    19.939876    20.947061    8341.9882   -81.165131    758.19047     86.80997   -7.3017604    38.662489    -180.0752   -4933.6535 
 6732000    71.989858   -5107.3607   -4968.5222   -5107.3607            0    771.32559    19.908604     20.02253    20.880164     8323.264     898.4847    328.05359    1087.4385   -256.77388     216.9014   -629.13829   -4874.8939 
 6733000    68.792581   -5109.2295   -4976.5572   -5109.2295            0    1078.3273    20.106287    19.939451    20.868166    8366.2215    1046.9269    1379.1753    808.87966   -124.12008    564.99485   -225.13767   -4844.9875 
 6734000    73.197186   -5105.4214   -4964.2545   -5105.4214            0    1214.0489    20.042207    19.918656    20.814473    8309.4253    884.30641    1153.2817    1604.5585    318.95434    533.18283   -384.02267   -4817.1306 
 6735000    68.602973   -5111.8282   -4979.5216   -5111.8282            0     1298.083    20.024025    19.987632    20.862194    8349.7351    936.77954    1382.2758    1575.1937    8.0743554    106.24868    28.242344    -4821.451 
 6736000    72.044928    -5116.018   -4977.0733    -5116.018            0    343.64324    19.929989    19.995925    20.980479    8361.1103    543.58079    196.57598    290.77296   -688.75345   -566.14034    8.3792602     -4935.17 
 6737000    72.899534   -5112.0533   -4971.4605   -5112.0533            0    8.6284643    19.903802     19.97877    20.994553    8348.5572   -138.91755    703.94426   -539.14132   -239.23862    364.97228   -255.19573   -4970.4099 
 6738000    74.444489   -5111.6534    -4968.081   -5111.6534            0     150.2028    19.972082    20.017185    20.888437     8350.881    258.96902    6.9047596    184.73464    165.03112   -199.95179    535.19919   -4949.7879 
 6739000    72.888563   -5112.6696   -4972.0978   -5112.6696            0    161.64491    20.106202    19.934112    20.920466    8384.9079   -198.95862    137.51629    546.37705   -146.10671   -446.21883   -887.42178    -4952.331 
 6740000    71.805177   -5105.4596   -4966.9773   -5105.4596            0    260.37173    20.077196    19.999599    20.814297     8357.687    448.04901    -223.5108    556.57698   -216.88821    127.22781    263.94879    -4935.241 
 6741000    71.749892   -5115.3431   -4976.9674   -5115.3431            0    224.92573    19.956724    20.062639    20.805563    8330.2262    421.26069   -528.57753    782.09403   -369.19471    438.11957    291.95956   -4949.6417 
 6742000    72.431148   -5111.5935   -4971.9039   -5111.5935            0    538.59722    19.973475    20.003125    20.947491    8369.1912    868.84952    160.67037    586.27177   -230.46214   -1.8115552     150.5581   -4906.1648 
 6743000     72.93434   -5105.4849   -4964.8249   -5105.4849            0    719.20832    19.980345    19.932378      20.9552    8345.5298    1336.8232    600.93584    219.86593   -82.071234   -78.810471   -247.01887   -4877.2893 
 6744000    71.870636   -5103.6949   -4965.0864   -5103.6949            0     136.2077    19.997528    19.972312    21.048806    8406.8276    230.74661     614.2887   -436.41222   -358.45193    400.30879    712.64233   -4948.3866 
 6745000    77.055812   -5107.9111   -4959.3025   -5107.9111            0    94.490666    20.113291    19.896549    20.968656    8391.3433   -121.67459    207.67859      197.468   -220.68858    509.06679    161.52297   -4947.7388 
 6746000    76.020491   -5112.3772   -4965.7653   -5112.3772            0    793.81766    20.014049    19.988997    20.866818    8347.9954     556.1277     1305.888    519.43732    116.39745   -851.53972    -213.6759   -4869.1204 
 6747000    72.369286   -5110.7157   -4971.1455   -5110.7157            0   -58.535397    19.984077    20.003342    20.855551    8336.9718    420.33724   -498.05563   -97.887792   -411.10904    366.89936   -130.77271   -4978.2626 
 6748000    72.176026   -5103.5349   -4964.3373   -5103.5349            0    235.16256    20.036488    19.964434    20.938776    8375.8695   -697.81685     1101.488    301.81654   -354.43446    587.46517    84.223054   -4935.6114 
 6749000    69.457817   -5110.9256   -4976.9704   -5110.9256            0    1292.0153    19.936708     19.90479    21.065529    8359.5599     1487.573    1630.7186    757.75415   -244.66365    432.60289    -480.7013   -4819.4535 
 6750000     79.49287   -5110.9008   -4957.5921   -5110.9008            0    519.94146    20.082415    19.845075    21.028231    8380.5284    562.90451     645.1609    351.75896   -171.42785    503.66043    53.800472   -4894.0441 
Loop time of 345.579 on 64 procs for 250000 steps with 972 atoms

Performance: 125.008 ns/day, 0.192 hours/ns, 723.423 timesteps/s
99.1% CPU use with 64 MPI tasks x 1 OpenMP threads

MPI task timing breakdown:
Section |  min time  |  avg time  |  max time  |%varavg| %total
---------------------------------------------------------------
Pair    | 17.68      | 26.93      | 36.764     |  87.1 |  7.79
Bond    | 0.25707    | 0.27287    | 0.28651    |   1.4 |  0.08
Kspace  | 137.53     | 147.51     | 157.16     |  37.3 | 42.68
Neigh   | 0.13117    | 0.13378    | 0.13652    |   0.4 |  0.04
Comm    | 80.676     | 81.471     | 82.159     |   3.7 | 23.58
Output  | 0.49603    | 0.49727    | 0.49889    |   0.1 |  0.14
Modify  | 79.679     | 81.028     | 83.948     |  11.4 | 23.45
Other   |            | 7.739      |            |       |  2.24

Nlocal:        15.1875 ave          19 max          11 min
Histogram: 3 4 11 6 0 12 6 10 10 2
Nghost:        2208.19 ave        2232 max        2169 min
Histogram: 2 3 2 7 3 8 13 10 10 6
Neighs:        4705.16 ave        6282 max        2853 min
Histogram: 1 3 8 7 11 9 7 8 6 4

Total # of neighbors = 301130
Ave neighs/atom = 309.80453
Ave special neighs/atom = 2.0000000
Neighbor list builds = 436
Dangerous builds = 0

unfix		3
unfix		2
unfix		1

write_data	data.final.${pid}
write_data	data.final.1
System init for write_data ...
PPPM initialization ...
  extracting TIP4P info from pair style
  using 12-bit tables for long-range coulomb (../kspace.cpp:340)
  G vector (1/distance) = 0.37220045
  grid = 24 24 25
  stencil order = 5
  estimated absolute RMS force accuracy = 0.0034326317
  estimated relative force accuracy = 1.0337268e-05
  using double precision FFTW3
  3d grid and FFT values/proc = 2366 288
Last active /omp style is kspace_style pppm/tip4p/omp
WARNING: Not all mixed pair coeffs generated from mixing. Use write_data with 'pair ij' option to store all pair coeffs. (../write_data.cpp:312)

write_restart   restart.lmp.${pid}
write_restart   restart.lmp.1
System init for write_restart ...
PPPM initialization ...
  extracting TIP4P info from pair style
  using 12-bit tables for long-range coulomb (../kspace.cpp:340)
  G vector (1/distance) = 0.37220045
  grid = 24 24 25
  stencil order = 5
  estimated absolute RMS force accuracy = 0.0034326317
  estimated relative force accuracy = 1.0337268e-05
  using double precision FFTW3
  3d grid and FFT values/proc = 2366 288
Last active /omp style is kspace_style pppm/tip4p/omp
Total wall time: 0:05:45
