#include		in.partitions
include		in.temp
variable        temperature equal 60.10
variable	tempDamp equal 100.0
include		in.pressure
variable        pressure equal 2018.7
variable        pressureDamp equal 1000.0 # This is 1 ps
include		in.seed
variable        seed equal 745823

units		real
atom_style	full
box tilt large
read_restart	restart.lmp.${pid}
read_restart	restart.lmp.0
Reading restart file ...
  restart file = 30 Jul 2021, LAMMPS = 30 Jul 2021
  restoring atom style full from restart
  triclinic box = (-10.650438 -9.1721037 0.17306615) to (12.630438 12.162102 21.686933) with tilt (-9.1172062 1.8763830 2.8643165)
  2 by 2 by 4 MPI processor grid
  restoring pair style lj/cut/tip4p/long/omp from restart
  restoring bond style harmonic/omp from restart
  restoring angle style harmonic/omp from restart
  1296 atoms
  864 bonds
  432 angles
Finding 1-2 1-3 1-4 neighbors ...
  special bond factors lj:    0        0        0       
  special bond factors coul:  0        0        0       
     2 = max # of 1-2 neighbors
     1 = max # of 1-3 neighbors
     1 = max # of 1-4 neighbors
     2 = max # of special neighbors
  special bonds CPU = 0.001 seconds
  read_restart CPU = 0.006 seconds
include 	in.setup
variable	out_freq equal 1000
variable	out_freq2 equal 10000
variable	out_freq3 equal 1000

timestep	2.0

neigh_modify    delay 7 every 1

include		in.tip4p
# This is TIP4P/Ice

# create groups ###
group ox type 2
432 atoms in group ox
group hy type 1
864 atoms in group hy

# set charges - beside manually ###
set group ox charge -1.1794
Setting atom values ...
  432 settings made for charge
set group hy charge 0.5897
Setting atom values ...
  864 settings made for charge

# ### TIP3P Potential Parameters ###
pair_style lj/cut/tip4p/long/omp 2 1 1 1 0.1577 8.5
pair_coeff 1 1*2 0.000 0.000
pair_coeff 2 2 0.21084 3.1668
bond_style  harmonic
bond_coeff  1 450 0.9572
angle_style harmonic
angle_coeff 1 55 104.52
kspace_style pppm/tip4p/omp 1.0e-5
pair_modify tail yes

thermo          ${out_freq}
thermo          1000
thermo_style    custom step temp pe etotal epair emol press lx ly lz vol pxx pyy pzz pxy pxz pyz enthalpy

restart 	${out_freq3} restart.lmp.${pid} restart2.lmp.${pid}
restart 	1000 restart.lmp.${pid} restart2.lmp.${pid}
restart 	1000 restart.lmp.0 restart2.lmp.${pid}
restart 	1000 restart.lmp.0 restart2.lmp.0


include         in.dump
dump            myDump all atom ${out_freq2} dump.water.${pid}
dump            myDump all atom 10000 dump.water.${pid}
dump            myDump all atom 10000 dump.water.0
dump            myDump2 all dcd ${out_freq2} dump.dcd
dump            myDump2 all dcd 10000 dump.dcd
dump_modify     myDump append yes
dump_modify     myDump2 append yes


variable natoms 	equal  "count(all)"                        # NUMBER ATOMS
variable H      	equal  "enthalpy/v_natoms"                 # ENTHALPY-per-atom
variable Vol      	equal  "vol/v_natoms"                 # volume-per-atom
fix AVG all 		ave/time ${out_freq} 1 ${out_freq} v_Vol v_H file vol_enthalpy.dat
fix AVG all 		ave/time 1000 1 ${out_freq} v_Vol v_H file vol_enthalpy.dat
fix AVG all 		ave/time 1000 1 1000 v_Vol v_H file vol_enthalpy.dat


timer           timeout 10:00:00 every 1000
New timer settings: style=normal  mode=nosync  timeout=10:00:00

fix 		1 all shake 1e-6 200 0 b 1 a 1
       0 = # of size 2 clusters
       0 = # of size 3 clusters
       0 = # of size 4 clusters
     432 = # of frozen angles
  find clusters CPU = 0.000 seconds
fix             2 all nph tri ${pressure} ${pressure} ${pressureDamp}
fix             2 all nph tri 2018.7 ${pressure} ${pressureDamp}
fix             2 all nph tri 2018.7 2018.7 ${pressureDamp}
fix             2 all nph tri 2018.7 2018.7 1000
fix             3 all temp/csvr ${temperature} ${temperature} ${tempDamp} ${seed}
fix             3 all temp/csvr 60.1 ${temperature} ${tempDamp} ${seed}
fix             3 all temp/csvr 60.1 60.1 ${tempDamp} ${seed}
fix             3 all temp/csvr 60.1 60.1 100 ${seed}
fix             3 all temp/csvr 60.1 60.1 100 745823


run             250000
PPPM initialization ...
  extracting TIP4P info from pair style
  using 12-bit tables for long-range coulomb (../kspace.cpp:340)
  G vector (1/distance) = 0.36801086
  grid = 30 40 32
  stencil order = 5
  estimated absolute RMS force accuracy = 0.0043882722
  estimated relative force accuracy = 1.3215151e-05
  using double precision FFTW3
  3d grid and FFT values/proc = 11832 2400
Last active /omp style is kspace_style pppm/tip4p/omp
Neighbor list info ...
  update every 1 steps, delay 7 steps, check yes
  max neighbors/atom: 2000, page size: 100000
  master list distance cutoff = 10.8154
  ghost atom cutoff = 10.8154
  binsize = 5.4077, bins = 7 5 4
  1 neighbor lists, perpetual/occasional/extra = 1 0 0
  (1) pair lj/cut/tip4p/long/omp, perpetual
      attributes: half, newton on, omp
      pair build: half/bin/newton/tri/omp
      stencil: half/bin/3d/tri
      bin: standard
Per MPI rank memory allocation (min/avg/max) = 12.76 | 12.77 | 12.77 Mbytes
Step Temp PotEng TotEng E_pair E_mol Press Lx Ly Lz Volume Pxx Pyy Pzz Pxy Pxz Pyz Enthalpy 
36000000    64.412617   -6854.1996   -6688.5021   -6854.1996            0    2211.6572    23.280876    21.334205    21.513867    10685.486    1815.5697    1982.8438    2836.5583    -1053.261    401.00299   -111.04833   -6343.8444 
36001000    59.971953   -6870.7773   -6716.5031   -6870.7773            0     2143.579    23.166464    21.299287    21.664855    10690.072    1573.7872      2600.36    2256.5898    341.95891    289.93125   -347.40956   -6382.3111 
36002000    62.124339   -6872.8046   -6712.9935   -6872.8046            0    1995.5561    23.094728    21.359971    21.656733    10683.326      2743.25    1967.6277    1275.7906    699.33839    -268.5035    190.37765   -6402.0752 
36003000    59.661297   -6868.0226   -6714.5476   -6868.0226            0    1760.4787     23.19758    21.364362        21.56    10685.168    1050.1707    1927.2241    2304.0413    695.54593     153.7735   -57.604382   -6440.2083 
36004000    58.102141   -6872.8848   -6723.4206   -6872.8848            0    2269.6982    23.160119    21.340128    21.611361    10681.197    2627.2932    1812.4377    2369.3636   -580.28132   -40.568272   -234.00667   -6369.8599 
36005000    61.073459   -6872.7089   -6715.6011   -6872.7089            0    1772.3734    23.235516    21.225552    21.689669    10697.055    1810.9801    2097.3169    1408.8233   -264.98379    -224.5788    465.80209    -6439.101 
36006000     61.57295   -6866.8791   -6708.4865   -6866.8791            0    1777.8921    23.339861    21.211876    21.605417    10696.458    1224.4864    2467.6555    1641.5345   -560.94238   -134.35938    -516.9079   -6431.1409 
36007000    60.950741   -6873.7953   -6717.0033   -6873.7953            0    2097.5118    23.223639    21.285275    21.625617    10690.008    2343.0088    2148.9501    1800.5764   -484.16769   -194.09855    -18.09645   -6389.9953 
36008000    60.593323   -6867.9433   -6712.0707   -6867.9433            0    2137.9369    23.169442    21.284655    21.676236    10689.713    1718.9224    2220.7002     2474.188    101.41729    265.12101    234.63305   -6378.7695 
36009000    62.595319   -6864.0588   -6703.0361   -6864.0588            0     1386.263    23.176528     21.39655    21.608163    10715.439    1213.7002    1432.8343    1512.2545   -120.84157    65.456484    115.28597   -6486.3997 
36010000    58.818393    -6862.719   -6711.4123    -6862.719            0    2350.0829    23.071286    21.422123    21.586854    10668.998    2821.0412    1416.2369    2812.9706    202.30931   -113.47099    199.72981   -6345.7479 
36011000    61.178039   -6869.0262   -6711.6495   -6869.0262            0    2077.4415    23.100138    21.420184    21.585155    10680.533      2418.58    1481.6881    2332.0563   -261.44626    496.44837   -475.46164   -6388.0576 
36012000    59.705981   -6858.4024   -6704.8124   -6858.4024            0    1871.3233    23.222511     21.31411    21.633226    10707.737    1993.4916    1636.3319    1984.1464    253.97986   -31.278002    398.35861    -6412.584 
36013000    60.247722   -6861.9035   -6706.9199   -6861.9035            0    2429.9338    23.237769    21.224829    21.658569    10682.389    2256.6747    2413.6612    2619.4655   -64.687657    110.80708    613.27899   -6328.3564 
36014000     57.93757    -6869.533   -6720.4922    -6869.533            0    1523.1571    23.345642    21.229988    21.595277    10703.217    697.26633    2523.5438    1348.6611    583.08821   -493.09619   -372.49736   -6482.7343 
36015000    60.637707   -6870.1794   -6714.1926   -6870.1794            0    2146.5051    23.206263     21.25257    21.662022    10683.552    2141.7848    3013.2964    1284.4342   -554.25689    -284.4706   -106.21167   -6379.7486 
36016000    59.500097   -6866.7398   -6713.6794   -6866.7398            0    2273.9165    23.220819    21.307026    21.596375    10685.165    2164.9776    2390.4051    2266.3668    501.88275   -497.48115   -161.10057   -6359.3301 
36017000    56.987878   -6859.2296   -6712.6317   -6859.2296            0     2090.619    23.124942    21.423619    21.572933    10687.661    2156.1673     1273.505    2842.1848   -50.660558     97.28608   -136.57923   -6386.7699 
36018000    59.457473   -6874.2096   -6721.2589   -6874.2096            0    1846.4256    23.113923    21.390304    21.620219    10689.336    2070.8761     1449.425    2018.9757    146.44998    196.15692    223.77377   -6433.4141 
36019000    61.163197   -6873.6677   -6716.3291   -6873.6677            0    1704.5336    23.148704    21.387974    21.624531    10706.389    1826.4735    1695.6587    1591.4687    483.90716   -779.07504    12.687261   -6450.1804 
36020000    61.475312   -6873.9049   -6715.7634   -6873.9049            0     2509.726    23.219871    21.282468    21.573986     10661.35    2220.9755    2627.3481    2680.8543   -220.44283    211.22637     521.1229   -6325.5391 
36021000    57.036772   -6868.3831   -6721.6594   -6868.3831            0    1503.1431    23.304078    21.256528    21.636064    10717.722    1277.0841    1888.8646    1343.4806    136.83199    46.944098   -345.55089   -6486.7077 
36022000    62.435932   -6871.0239   -6710.4112   -6871.0239            0    2480.5958    23.269995     21.22435    21.599109    10667.595    2376.1401    2798.5065    2267.1408   -302.82622    10.083744    101.42885   -6324.4902 
36023000    58.444971   -6867.2492   -6716.9031   -6867.2492            0    1798.4174     23.18764    21.301861    21.657108    10697.309    1597.6452    2399.9866    1397.6204     32.63126    477.72439    204.83031   -6436.3333 
36024000    63.117838   -6858.8738   -6696.5071   -6858.8738            0    2105.7368     23.10868    21.441905    21.590476    10697.954    2414.3304    1359.3414    2543.5387    98.109021    423.92964   -113.54094   -6367.9728 
36025000    63.638467   -6867.8657   -6704.1597   -6867.8657            0    1982.8724    23.077788    21.400608    21.652089    10693.506    2570.9634    1324.9934    2052.6602   -241.76031    278.39998    393.77134   -6394.9232 
36026000    61.676008   -6865.0811   -6706.4233   -6865.0811            0    1962.7381    23.146638      21.3917    21.594789    10692.572    2513.7927    1305.9163    2068.5055   -470.97105    755.00802    255.85909   -6400.3536 
36027000    59.975849   -6862.6076   -6708.3234   -6862.6076            0    2319.1732    23.211053    21.316027    21.585816    10679.959    1709.7032    2377.8452    2869.9712      -191.57    432.07802   -357.64712   -6347.0977 
36028000    56.794446   -6865.0532   -6718.9529   -6865.0532            0    2367.8078    23.197779    21.270994    21.635993    10676.061    2729.2548    2240.3534    2133.8152   -751.06001    222.85136    194.15556   -6350.2867 
36029000    58.124884    -6869.515   -6719.9923    -6869.515            0    1641.1132    23.257131    21.269399    21.636869    10703.006    1389.8426    1582.6312    1950.8659   -134.67028    68.688642     111.1924   -6463.8271 
36030000     62.03471   -6863.6133   -6704.0328   -6863.6133            0    2535.2659    23.264935    21.205157    21.619674    10665.776     2274.225    2860.4567    2471.1162     685.7282    75.204319    647.63115   -6309.6736 
36031000    59.867629   -6860.2939   -6706.2881   -6860.2939            0    2005.2628    23.160382    21.347972     21.61951    10689.274    2106.4925    1638.1229     2271.173   -149.51782    348.55133    261.89538   -6393.6835 
36032000    62.223245   -6870.0376   -6709.9721   -6870.0376            0    1698.9512    23.096992    21.414845    21.622131    10694.706    2040.8477    894.14427    2161.8616    36.010126    558.59224   -285.69233   -6444.9844 
36033000    62.068828   -6870.3142   -6710.6459   -6870.3142            0    2589.5305    23.089438    21.388903    21.581539     10658.21    2211.3406    2576.4864    2980.7644     178.9214    676.81067    509.45071   -6308.1317 
36034000    59.824699   -6869.6114    -6715.716   -6869.6114            0    2229.3102    23.160078     21.36018    21.575971    10673.707     2348.392    2293.9055     2045.633    319.98764    36.328066   -394.26704   -6368.6903 
36035000    56.568939   -6864.1496   -6718.6294   -6864.1496            0    2083.4863    23.146023    21.273405    21.689287    10679.691    2568.8395     2228.172    1453.4475    -654.3414     51.22695   -559.26777   -6394.1216 
36036000    58.710641   -6869.7335    -6718.704   -6869.7335            0    2168.9038    23.284558    21.218341    21.603222    10673.281    1832.9736    2492.3826    2181.3553   -217.83514    168.66435   -128.63389   -6381.0949 
36037000    60.580337   -6867.7302    -6711.891   -6867.7302            0    1925.6371    23.265897     21.22143    21.649169    10688.965    1551.4595    2432.7636    1792.6882   -155.59284   -249.93391    501.17798   -6411.7081 
36038000    59.497469   -6866.9268   -6713.8732   -6866.9268            0    2620.3727    23.147946    21.275724    21.654515    10664.617    3266.4989    2445.1486    2149.4707   -57.341676   -268.81085    378.02324   -6306.3201 
36039000    61.335621   -6870.5285   -6712.7463   -6870.5285            0     2114.547    23.213436    21.355451    21.540993    10678.589    1351.8789    2432.9122    2558.8498    279.98992    -138.2537   -391.71084   -6383.4347 
36040000    58.775593   -6868.8646    -6717.668   -6868.8646            0    1910.9069     23.10874    21.405471    21.612896    10690.894     2254.682    1837.1321    1640.9065    175.42235    404.96332   -62.483963   -6419.7276 
36041000    56.359454   -6863.0156   -6718.0343   -6863.0156            0    2115.1291    23.076664    21.408288    21.638348    10690.033    2558.5554    1536.2932    2250.5386    667.37924   -134.91598    1.6834739    -6388.279 
36042000    60.102745   -6868.4239   -6713.8132   -6868.4239            0    1431.3025    23.255316    21.357441    21.566101    10711.322     891.9388    1198.7833    2203.1854    533.08013   -329.59065    177.11102   -6490.2242 
36043000    61.086347   -6868.0747   -6710.9338   -6868.0747            0    1930.1835    23.262155    21.259099    21.619967    10691.776    1139.7843    2375.6872    2275.0791    127.50619   -261.80228    404.80962   -6409.9631 
36044000    61.393064   -6869.2262   -6711.2963   -6869.2262            0    2377.1806    23.220267    21.186872    21.729493    10690.147    2765.2579    2856.1387    1510.1453   -648.01395   -176.77227   -138.87833   -6340.6824 
36045000    56.292219   -6874.2947   -6729.4864   -6874.2947            0    1622.0057    23.280746    21.294994    21.574126    10695.661    1565.4089    1577.2878    1723.3205    75.085097   -428.50467    142.26075   -6476.4775 
36046000     60.74188   -6867.4911   -6711.2363   -6867.4911            0    2438.5758    23.134227    21.363954    21.589597    10670.412    2845.9788    1934.5565    2535.1922   -95.664835    281.25602     172.7306   -6331.7525 
36047000    59.599838   -6871.6962   -6718.3792   -6871.6962            0    2287.1527    23.063606     21.39755    21.627409    10673.227    2373.1125    2331.1156      2157.23    53.689714    276.88309   -339.21543   -6362.3654 
36048000    59.993825   -6861.7768   -6707.4463   -6861.7768            0    1469.6837    23.123457     21.45679    21.581238    10707.642    1613.0304    1128.5091    1667.5117    168.40538    703.45906   -364.35635   -6477.9405 
36049000    59.507945   -6860.7912   -6707.7107   -6860.7912            0     2658.944    23.205121     21.30031    21.570282    10661.678    2776.3272    2501.9933    2698.5116   -163.89179    600.87295   -550.06938   -6294.2724 
36050000    60.575341   -6867.3058   -6711.4795   -6867.3058            0     2283.075    23.263236    21.211292      21.6598    10687.883    1316.0727    3601.2067    1931.9455    232.70579   -47.983136   -629.18875   -6355.6124 
36051000    61.020062   -6865.1892   -6708.2188   -6865.1892            0    1700.4959    23.299184    21.203101    21.684819    10712.625    1182.9116    2336.9116    1581.6645   -172.56355    296.15246    62.187745   -6442.5458 
36052000    60.626435   -6874.3668    -6718.409   -6874.3668            0    2598.3638    23.224667    21.290176    21.562605    10661.786     2558.364     2625.564    2611.1634     -22.6133   -232.47303    181.57987   -6314.3862 
36053000    58.257079   -6866.6982   -6716.8354   -6866.6982            0    1802.3224    23.161758     21.43156    21.562335    10703.383    2025.2304    1857.4308     1524.306    122.63184   -396.63441   -518.57453   -6435.4967 
36054000     60.15072   -6865.5773   -6710.8433   -6865.5773            0    1899.0691    23.051883    21.387136    21.705198    10700.961    2713.0312    1435.7913    1548.3848    727.71155   -323.03259    892.00578   -6414.4697 
36055000    61.231344   -6868.8911   -6711.3772   -6868.8911            0    2029.8618    23.213617    21.432367    21.487031    10690.288    1651.5359    1261.7453    3176.3041    418.83431   -3.8848512    168.94556   -6394.9078 
36056000    60.092577   -6859.6221   -6705.0376   -6859.6221            0    2030.2907    23.185763    21.301043    21.665505     10700.18    1882.6354    2283.6338     1924.603   -267.27958   -57.906498     607.4287   -6388.2084 
36057000    62.563087   -6874.9184   -6713.9787   -6874.9184            0    2065.6861    23.286013     21.19418    21.655798    10687.742    1487.8893    3148.3201     1560.849    284.67865   -119.90422   -223.09657   -6392.0007 
36058000    58.590146   -6866.6242   -6715.9046   -6866.6242            0    2115.9719    23.251385     21.31223    21.558149    10682.901    2238.1815    1720.8785    2388.8559    483.32819    -646.4037    40.163435    -6386.238 
36059000    62.255197   -6875.0951   -6714.9474   -6875.0951            0    2464.1672    23.089947    21.321569    21.685559    10676.102    3206.9612    2454.2382    1731.3023   -533.30135    131.26303    -184.9389   -6331.2766 
36060000    57.652416   -6871.0475   -6722.7401   -6871.0475            0     1933.462    23.123302    21.396281    21.606776     10690.01    1882.3098    2156.2036    1761.8725   -178.96827    27.869655    -540.7457   -6421.3079 
36061000    58.310296   -6864.5598   -6714.5601   -6864.5598            0    2068.2365    23.170901    21.392161    21.554055     10683.82    1947.7677    2087.2278     2169.714   0.88554725   -119.75914   -289.12417   -6392.3029 
36062000     61.88378   -6869.2277   -6710.0355   -6869.2277            0     2238.139    23.090676     21.30644    21.737366    10694.351    2888.1527    2137.4259    1688.8383   -194.78629   -237.78283    -90.76753   -6360.9616 
36063000     62.99113   -6865.5379    -6703.497   -6865.5379            0    810.26574    23.338776    21.308107     21.61814    10750.812    583.69279    475.27469    1371.8297    205.69207   -78.488605     308.3794   -6576.4558 
36064000    59.061589   -6869.0906   -6717.1583   -6869.0906            0    2147.1393    23.265167    21.231054     21.60994    10674.101    1580.2754    2849.9083    2011.2343   -603.87022    655.65163   -45.341816   -6382.9113 
36065000    56.632309   -6872.1259   -6726.4427   -6872.1259            0    1940.8522    23.214204    21.240825    21.693202    10696.676    1761.4546    2004.5176    2056.5844   -281.35576   -237.09326   -470.93517   -6423.6697 
36066000    61.861407   -6865.2711   -6706.1364   -6865.2711            0    2067.7293    23.239582    21.306692    21.574268    10682.685     2312.663    1571.2242    2319.3005   -775.87752     467.3632    184.26628   -6383.9925 
36067000    57.039608   -6869.8103   -6723.0793   -6869.8103            0    2420.2082    23.115668    21.345926    21.616177    10665.969    3106.9273    1929.3253     2224.372   -453.96765   -34.465763   -208.98742   -6346.6106 
36068000     57.15625   -6866.6157   -6719.5847   -6866.6157            0    1872.1355    23.113413    21.434319    21.566957    10684.708    1709.6211    1747.0596    2159.7257    388.85533    302.64514       -252.3   -6427.8583 
36069000    57.773569   -6874.7341   -6726.1151   -6874.7341            0    1976.3463    23.177161    21.323467    21.612596    10681.322    1909.4807    2108.3819    1911.1762    -134.2638    406.13831    172.40571   -6418.2476 
36070000     57.29191   -6863.2173   -6715.8374   -6863.2173            0    2371.9306     23.19534    21.269401    21.666415    10689.147    2359.2748    2340.0254    2416.4916   -152.36101   -106.59974    72.222982   -6346.0765 
36071000    60.964617    -6866.246   -6709.4182    -6866.246            0    2094.7598    23.410898    21.198511     21.53165    10685.645    1336.0408    2024.9167     2923.322     189.0289     520.0541    306.13476   -6382.9726 
36072000    62.335017   -6862.1197   -6701.7667   -6862.1197            0    1715.9345    23.232197    21.262975    21.691862    10715.468    1825.1554    1996.5639    1326.0842    749.77224   -236.20416   -312.38853   -6433.6105 
36073000     61.30677    -6878.936   -6721.2281    -6878.936            0    2348.1991    23.123496      21.3343    21.649849    10680.382    2180.6628    2853.5439    2010.3907    470.54807     213.3967    64.686442   -6355.4669 
36074000    60.747788   -6870.3775   -6714.1076   -6870.3775            0     2662.497    23.132735    21.398371    21.509432     10647.23    2039.6204    2368.5473    3579.3234     164.0116    260.36146    1192.1277   -6300.6779 
36075000    60.264927   -6869.6315   -6714.6037   -6869.6315            0    1835.4399    23.094507    21.406241    21.641288    10698.729    2625.1193    1603.4246    1277.7757   -97.753904   -226.28372   -248.00047     -6428.22 
36076000    58.162291   -6865.2887   -6715.6698   -6865.2887            0    2091.7821    23.152279    21.306165    21.664757    10686.927    2622.7269    2188.0606    1464.5588    353.39901   -438.90255   -59.293312   -6389.6491 
36077000     59.24373   -6871.6403   -6719.2394   -6871.6403            0    1921.5404    23.283856    21.234099    21.614216    10686.322    2030.4189      2085.58    1648.6224    538.28167    26.736042    68.880536   -6419.7692 
36078000    61.986786   -6863.9717   -6704.5144   -6863.9717            0    1903.2791    23.261656    21.246497    21.647422    10698.777    1368.8586    2592.6141    1748.3645   -547.18868   -131.00817   -569.95252   -6407.5445 
36079000    60.520856   -6876.4728   -6720.7866   -6876.4728            0    1983.6451    23.229442    21.232768    21.671868    10689.115    1655.9775    2072.9046     2222.053   -214.86411   -143.46615    383.71649   -6411.5566 
36080000    62.124121   -6865.2794   -6705.4688   -6865.2794            0    2281.5089    23.220275    21.264123    21.629964    10679.984    1931.8658    2162.0849     2750.576   -90.925987    59.892512    506.39521   -6350.1087 
36081000    56.856334   -6864.5613   -6718.3018   -6864.5613            0    2421.9444    23.100395     21.39307    21.606839    10677.848     2678.309    1832.4597    2755.0644    197.63045    93.108639     426.1312   -6341.1434 
36082000    57.750605   -6866.4243   -6717.8644   -6866.4243            0    1997.2968    23.104497    21.461308    21.565048    10693.088     1812.434    1645.5577    2533.8986   -352.62986    185.91807   -180.99248   -6406.3905 
36083000     58.80472   -6866.1261   -6714.8546   -6866.1261            0     1595.725    23.173444     21.35136    21.646513     10710.36    2066.8678    903.77151    1816.5358   -12.482677   -163.89857   -365.36636   -6465.6029 
36084000    62.230615   -6864.0691   -6703.9846   -6864.0691            0    1855.2049    23.173666    21.321847    21.664155    10704.375    2208.2375    2097.3898    1259.9873   -75.821619    -726.4911    112.24212   -6414.3643 
36085000    59.580389   -6869.6743   -6716.4074   -6869.6743            0    2307.8772    23.298481    21.243145    21.576074    10678.711    1882.8565     2294.857    2745.9181    67.157275   -63.887038   -59.198408   -6356.9831 
36086000    59.319231   -6871.1323   -6718.5372   -6871.1323            0    1789.6431    23.302944    21.195304    21.654859    10695.616    1505.9274    2237.0363    1625.9656   -417.51852    115.37644   -37.503465   -6439.3804 
36087000    58.760327   -6873.4555   -6722.2981   -6873.4555            0    2278.6244     23.21002    21.228634    21.682067    10683.123    2235.4348    2867.4099    1733.0286    315.57618    -187.9533   -812.29438    -6367.283 
36088000    60.754737   -6867.9785   -6711.6906   -6867.9785            0    1892.5631    23.188978    21.393263    21.528235    10679.897    1640.8448    1501.6169    2535.2278   -723.52612    543.13945    23.275123   -6416.9138 
36089000    57.584947    -6874.221   -6726.0873    -6874.221            0    2126.2603    23.097948    21.408636    21.575097     10668.79    2734.3309    2060.0706    1584.3795    34.192872   -315.60375   -545.95499   -6395.2553 
36090000    59.522943   -6867.9665   -6714.8474   -6867.9665            0    2518.2578    23.021176    21.407682     21.65319    10671.342    3489.5031    2078.8569    1986.4135   -606.47584   -405.86242    10.085917   -6322.9295 
36091000    60.892904   -6878.7428   -6722.0995   -6878.7428            0    1375.0868    23.240374    21.360293    21.580359    10712.948    1825.0908    928.14801    1372.0216   -169.13457   -659.47617   -22.743528   -6507.2596 
36092000    59.809204   -6868.0704   -6714.2149   -6868.0704            0    2139.7166     23.29152    21.205926      21.6227    10679.846    1992.3566    2763.5777    1663.2154    -85.65869   -221.37333    291.53638   -6380.9442 
36093000    60.279789   -6869.3103   -6714.2442   -6869.3103            0    1884.9708    23.277591    21.196595    21.683954    10698.986    1878.1296    2016.1921    1760.5906    310.16617     45.73064   -243.42844   -6420.1251 
36094000     59.42206   -6865.5818   -6712.7222   -6865.5818            0    1845.4826    23.234863     21.30525     21.61732    10701.105     1385.787    1766.9721    2383.6887   -292.09226    31.413844    19.871655   -6424.7076 
36095000    56.909446   -6870.2563   -6723.8602   -6870.2563            0    2191.6034    23.204587    21.357377    21.556995    10683.412    1931.2429    1632.0002    3011.5669    154.23425   -175.64792    640.61449   -6382.3939 
36096000    62.686055   -6870.7899   -6709.5339   -6870.7899            0    1740.9192    23.134235    21.394919    21.648951    10715.259    1620.1637    1798.4898     1804.104    32.082452   -38.120503    730.87064   -6437.4786 
36097000    59.022011   -6867.5654   -6715.7349   -6867.5654            0    1817.6284    23.093821    21.452984    21.610768    10706.653    2599.2475    934.05967     1919.578    467.00516   -577.37491    291.94322   -6431.9203 
36098000    56.921205   -6872.4874   -6726.0611   -6872.4874            0    2117.6124    23.185066    21.392348    21.527855     10677.45    2139.2486    1404.4257    2809.1627    176.80812   -115.74969    383.53259   -6396.3072 
36099000    62.751343   -6875.4972   -6714.0732   -6875.4972            0    2009.8302    23.210049    21.260955    21.668598    10692.756     1305.126    2772.3934    1951.9713     335.5675    444.22163    322.23831   -6400.6545 
36100000    59.197655   -6872.4901   -6720.2077   -6872.4901            0    1694.3859    23.264872    21.301515    21.585464     10697.26    1521.3265    1260.5387    2301.2924    354.09567   -57.620321    469.54404    -6455.869 
36101000    57.198395   -6872.0431   -6724.9037   -6872.0431            0    2052.4687    23.265102    21.206693    21.646585    10679.903    1554.6221    2624.6426    1978.1413   -234.53681    -672.7814    67.838853   -6405.2206 
36102000    60.805351   -6870.5401   -6714.1221   -6870.5401            0    2701.5882    23.212401    21.193604    21.677655    10664.419    2855.3934    2784.7548    2464.6166    19.444047   -218.62753    262.35802   -6293.9451 
36103000    60.149655   -6861.9863   -6707.2549   -6861.9863            0    1718.9417    23.212592    21.323811    21.629137     10706.01    1336.8768    1703.1757    2116.7728     618.9322   -134.98345    604.89317   -6438.8659 
36104000     61.21834   -6870.6257   -6713.1452   -6870.6257            0    2765.8092    23.087517    21.419379    21.546503    10655.183     2954.156    1747.9345    3595.3371    119.59161    437.63114    44.603298   -6283.3525 
36105000    60.115959   -6864.8007   -6710.1561   -6864.8007            0    1849.4973    23.068606    21.411089    21.645417     10691.19    2155.9406     1305.018    2087.5334    428.10331    224.04912     190.1767   -6421.7824 
36106000    59.424532   -6872.6897   -6719.8238   -6872.6897            0    2271.8599    23.152992    21.356134    21.578891    10669.864    2586.1957    1834.6849    2394.6991    42.010432   -112.38708   -21.766101   -6366.3019 
36107000    59.006887   -6868.6455   -6716.8539   -6868.6455            0    2058.4739    23.217027    21.227316    21.644289    10667.066    1841.5088    2650.7475    1683.1653   -210.43712   -42.059499   -51.210152   -6396.6208 
36108000    60.303691    -6872.157   -6717.0294    -6872.157            0    2286.3951    23.230898    21.244965    21.606621    10663.724    2512.5507    1977.5463    2369.0883   -416.73012    -100.6038    193.65843   -6361.4505 
36109000    59.055731   -6870.4274   -6718.5101   -6870.4274            0    1825.3236    23.302476    21.208178    21.643275    10696.173    1341.7063    2447.6434    1686.6209   -429.90274    110.30685   -380.70417   -6433.7729 
36110000    60.998003   -6876.2541   -6719.3404   -6876.2541            0    1697.9754    23.185258    21.275306     21.68641     10697.33    1987.4438    1251.0755     1855.407   -91.859422    32.208671    650.39479     -6454.44 
36111000    59.337612   -6866.0592   -6713.4168   -6866.0592            0    2500.8665    23.130255    21.394158    21.577733    10677.791    2532.0627    2408.6094    2561.9275    -277.5499   -397.57163   -133.09729   -6323.9703 
36112000    61.127718   -6870.3034    -6713.056   -6870.3034            0    2357.0245     23.08139    21.406413    21.603935    10674.283    2459.0187    1575.4183    3036.6365    290.92525    326.05901    710.14472   -6346.1298 
36113000    61.086723   -6869.6119     -6712.47   -6869.6119            0    1962.0963     23.02576    21.430476    21.664149    10690.239    2604.9038     1059.337    2222.0482    837.60787    364.38536    173.36739   -6406.5671 
36114000     60.55837   -6866.5149   -6710.7322   -6866.5149            0    1790.7575    23.191572    21.319363    21.639304    10699.111    1836.1423    2181.6295    1354.5006   -130.76763   -360.06274   -138.47608   -6431.3104 
36115000    59.773651   -6865.5726   -6711.8086   -6865.5726            0    2194.0389    23.267131     21.25624    21.604106     10684.78    1829.0611    2570.8301    2182.2255    348.03964    -22.28151    85.452187   -6369.9191 
36116000    57.979253   -6873.1449   -6723.9968   -6873.1449            0    2163.9477    23.283397    21.222088    21.622577    10684.198    2135.0738    2439.9236    1916.8457   -340.13161   -870.68199    18.544408   -6386.8147 
36117000    58.086964   -6880.6317   -6731.2065   -6880.6317            0    1652.7014    23.315076    21.253303    21.601298    10703.927    601.85152     2414.873    1941.3798    591.75909   -60.186117    307.58954   -6473.2102 
36118000    58.078547   -6871.2666   -6721.8631   -6871.2666            0    1890.8275    23.208578    21.335278    21.601167    10696.065    1684.1806    1980.3966    2007.9052    50.272002    350.23606     334.6317   -6426.9107 
36119000    61.519182   -6875.2978   -6717.0434   -6875.2978            0    1583.4547    23.108172    21.408049    21.625496    10698.152    1861.0762    1603.3656    1285.9223    367.66512    338.44441   -48.657662   -6469.9904 
36120000    60.339725   -6873.7362   -6718.5159   -6873.7362            0    1508.0434    23.158115     21.42764    21.557162    10697.176    1915.4067    786.16991    1822.5536    73.296505   -93.027193   -82.255736   -6483.2501 
36121000     58.49645   -6866.8169   -6716.3384   -6866.8169            0    2537.1233    23.084037    21.351313    21.632938    10662.323    3128.1658    2367.8579    2115.3461    76.186431    44.939902   -16.855503   -6321.8181 
36122000    62.032023   -6864.6295   -6705.0559   -6864.6295            0     1988.799    23.172192     21.33326    21.632863    10693.955    1765.4386    1687.1597    2513.7987   -290.21198    102.91015   -129.49531   -6394.8821 
36123000    58.558164   -6866.1861   -6715.5488   -6866.1861            0    2977.2332    23.250138    21.236034    21.555023    10642.593    2378.2946    3609.4965    2943.9085     112.6416    92.735947   -22.577903   -6253.4486 
36124000    61.139158   -6868.5346   -6711.2579   -6868.5346            0    1872.3427    23.225629    21.244597    21.682568    10698.594    1574.1355    2347.6973    1695.1954   -423.62337    205.61097   -295.84041   -6419.1199 
36125000    63.754401   -6872.2349   -6708.2306   -6872.2349            0     1574.641    23.265996    21.262803    21.633704      10702.2    599.55006    1756.7771    2367.5959    295.96577    323.84198   -145.30675   -6462.4597 
36126000     61.13239   -6873.9336   -6716.6742   -6873.9336            0    1939.8917    23.189844    21.334619    21.615463    10694.174    2102.4847    1833.8411    1883.3492    113.46767    574.43006   -245.77172   -6414.1218 
36127000    60.338017   -6871.2618   -6716.0459   -6871.2618            0    1897.7966    23.090009    21.436041    21.603006    10692.589    2002.9323    1298.3009    2392.1566    99.016322   -194.08301   -10.050354   -6420.1027 
36128000    59.841813    -6868.354   -6714.4146    -6868.354            0    2348.3817    23.059477    21.466641    21.560909    10672.855    3130.3214    1196.4518    2718.3719   -150.15721    178.12571    80.104121   -6348.8828 
36129000    61.473702    -6863.316   -6705.1786    -6863.316            0    1956.2166    23.144015    21.349106    21.661632      10703.1     2249.286    1979.8741    1639.4899    -109.9178    363.95441    408.69838   -6399.8255 
36130000     57.91191    -6877.003   -6728.0282    -6877.003            0    1674.6097    23.245718    21.329419    21.598566     10708.95    2128.8611    1427.0371     1467.931   -410.23164    -844.4992   -398.57289   -6466.4892 
36131000    58.808388   -6876.5721   -6725.2912   -6876.5721            0     2124.025    23.300214    21.214563    21.616879    10685.307     1087.982     3161.093         2123   -422.87901    392.78212   -4.7906598   -6394.2953 
36132000    62.854683   -6870.9788    -6709.289   -6870.9788            0    1542.9068    23.259855    21.258589    21.695107    10727.616    1513.4443    1734.3132    1380.9631    511.21591   -18.743735   -256.10452   -6467.8992 
36133000    62.833576   -6872.0432   -6710.4076   -6872.0432            0    2626.6147     23.20412    21.320199    21.572008    10672.027    1911.8435    2843.2859    3124.7147    36.276559    186.06312     -170.838   -6301.5998 
36134000    59.317288   -6875.6806   -6723.0905   -6875.6806            0     1638.936    23.128191    21.395431    21.617316    10697.061    1952.8802    1126.9869     1836.941   -152.44125    188.63644    86.178773   -6467.4072 
36135000    56.965847   -6870.1965   -6723.6553   -6870.1965            0    2209.2201    23.090376    21.444943    21.581867    10686.732    3249.1806    1292.9675    2085.5121    622.16872   -147.91118   -82.731567   -6379.3372 
36136000    60.904943   -6865.1519   -6708.4777   -6865.1519            0    2141.9303    23.184169    21.341283    21.603445     10688.95    1635.9837     2405.564    2384.2433    -118.0369    514.91406   -62.614781   -6374.5778 
36137000    60.502362   -6874.2464   -6718.6078   -6874.2464            0     1759.306     23.20515    21.327159    21.614399    10696.965    2116.8894    1412.0744    1748.9544   -393.59842   -21.127697    92.803216   -6444.1486 
36138000     58.26742    -6870.901   -6721.0117    -6870.901            0    2489.8785    23.314569    21.215416    21.566216     10667.26    2055.0498    3081.2427     2333.343   -416.51722   -205.84319   -325.70337   -6333.6586 
36139000    60.612021   -6874.7505   -6718.8298   -6874.7505            0    1874.3224    23.235228    21.213051    21.707262    10699.294    967.88077     3224.884    1430.2023   -285.31733    32.360431    63.256312   -6426.3639 
36140000     58.30065   -6866.1857   -6716.2108   -6866.1857            0    2133.4248    23.209887    21.336393    21.577938    10685.724    1887.0402    2011.3702     2501.864    185.76337    174.02701    -182.9057   -6383.7372 
36141000     61.52452   -6878.9739   -6720.7058   -6878.9739            0    1873.0431    23.141459    21.373829    21.601285    10684.462    2184.6268    1982.5138    1451.9888   -436.08238    251.36713   -662.94959   -6428.8446 
36142000    59.744625   -6866.9865   -6713.2971   -6866.9865            0    2574.5527    23.036936    21.384916    21.638232    10659.922    3156.4159    2491.0368    2076.2055    45.218847    573.24253     168.3754   -6313.0468 
36143000    60.466367   -6870.7408   -6715.1948   -6870.7408            0    2009.8619    23.180196    21.376792    21.577185    10691.888    1793.4461    1619.0314    2617.1084   -174.26227    122.03876    5.0918631   -6401.7966 
36144000    58.134622    -6864.924   -6715.3762    -6864.924            0     2167.375    23.254972    21.231297    21.631447    10680.164    2151.0259    1905.8216    2445.2775    22.807724     153.5989    489.80602   -6377.7876 
36145000    60.835546   -6862.4236   -6705.9278   -6862.4236            0    1681.4924     23.32137    21.212745    21.636231    10703.666       1483.7    1894.3903    1666.3869   -193.63035   -700.21533    155.12044   -6443.4435 
36146000    60.020782   -6872.5915   -6718.1917   -6872.5915            0    2185.3899    23.209293    21.285753     21.62034    10681.037    1960.6844    2467.1558    2128.3294    164.49638   -229.10061   -241.63789   -6377.7692 
36147000    59.638341   -6873.5957   -6720.1797   -6873.5957            0    2404.6374     23.14065    21.367289    21.588059    10674.279    1782.3201     2628.926     2802.666    557.09097    175.53165   -120.58463   -6345.8416 
36148000    57.999576   -6871.3781   -6722.1777   -6871.3781            0    1747.0392    23.102359    21.489462    21.561762    10704.494    2591.9698    641.95575    2007.1921   -298.60544     119.6351   -350.89178   -6449.4403 
36149000    59.133935    -6859.551   -6707.4325    -6859.551            0    1874.2174     23.16234     21.35597      21.6301    10699.421    1791.5664    1872.5517    1958.5341    72.692913    6.8853114    364.59935   -6414.9795 
36150000    57.134574   -6865.7971   -6718.8219   -6865.7971            0    2113.4283    23.232905    21.310098    21.592947     10690.57    2132.9083    2161.6328    2045.7438    41.618225   -483.49816    242.69804   -6389.3152 
36151000    61.761929   -6869.0502   -6710.1714   -6869.0502            0    1304.6637    23.314904    21.214735     21.67312    10719.948    1262.6516    1061.0128    1590.3265   -144.68719   -306.06097    351.16036    -6506.201 
36152000    57.351451   -6870.2845   -6722.7514   -6870.2845            0    2497.2179    23.225417    21.266305    21.597571    10667.446    2127.1971    2862.7931    2501.6635    -31.19117    -278.2224   -67.406424   -6334.2498 
36153000    62.402701   -6867.7852    -6707.258   -6867.7852            0    1470.8157    23.168256       21.378    21.627147    10711.731    1823.4872    1081.8558    1507.1042    -37.49802   -319.19903   -31.225114   -6477.4878 
36154000    59.959885   -6869.5994   -6715.3563   -6869.5994            0    2109.4839    23.094535     21.40932    21.598647    10679.198     2313.437    1655.6986     2359.316   -597.69394    303.36239    260.39204   -6386.8144 
36155000    56.857708   -6868.1739   -6721.9109   -6868.1739            0    2108.9043    23.157225    21.369186    21.573715    10675.775    2096.9105    1955.9578    2273.8447    59.519475   -259.67896   -77.861365   -6393.5645 
36156000    56.488898   -6873.2743     -6727.96   -6873.2743            0    2159.1908    23.156233    21.256631    21.676123    10669.497    2463.0928    1984.9294    2029.5503    705.90184    590.56326    355.16296    -6391.982 
36157000    60.359964   -6875.5982   -6720.3259   -6875.5982            0    2162.8774    23.225728    21.278197     21.60017    10674.839    2080.8562    2043.1233    2364.6528   -243.03601   -135.46922   -771.02382   -6383.6057 
36158000    60.845362   -6877.1028   -6720.5818   -6877.1028            0    1498.3802    23.260008    21.246691    21.653837    10701.287    1081.0926     1607.087     1806.961   -682.03897    672.47371    138.41992   -6486.7336 
36159000    59.811874   -6867.5032   -6713.6408   -6867.5032            0    2199.0155    23.213176    21.224627    21.670758    10676.988    1905.3464    3331.8634    1359.8368   -38.916972   -105.72737    2.9432527   -6371.2257 
36160000    59.259171   -6869.5405   -6717.0999   -6869.5405            0    2254.5232     23.17631    21.380614    21.528684    10667.974    2641.1655    2080.5589    2041.8453    103.25943   -397.43304    116.69081   -6366.3379 
36161000    58.911725   -6874.1322   -6722.5854   -6874.1322            0    2090.6108    23.113259    21.391853    21.603605    10681.588    2586.8357    1545.1038    2139.8927   -5.4763263   -41.823296    44.846426     -6396.91 
36162000    58.869512   -6865.7434   -6714.3051   -6865.7434            0       1906.2    23.154089    21.383982     21.62027    10704.771    2480.4783    1867.4647    1370.6571    114.94245     162.3499   -583.83509   -6416.7128 
36163000    57.443136   -6864.0306   -6716.2616   -6864.0306            0    1692.4413    23.171285    21.354568    21.620102    10697.903    2072.4615    1275.0225      1729.84    184.77603    38.850764    390.65475   -6452.2104 
36164000    57.281996   -6867.5084   -6720.1539   -6867.5084            0    1864.6566    23.217611    21.329816     21.59994    10696.882    1341.5035    1792.0023     2460.464    59.482536    -387.0627    132.01011   -6429.2618 
36165000    60.272383    -6871.333    -6716.286    -6871.333            0    2038.1178    23.252685    21.285424    21.616369    10698.876    1774.3862    2359.6069    1980.3602   -470.83462   -424.85854    67.417368   -6398.2741 
36166000    59.176088   -6859.4024   -6707.1756   -6859.4024            0    1949.2686    23.265316    21.204589    21.686632    10698.698    2111.3856    2099.4496    1636.9707    329.34716   -310.39755     132.0107   -6403.0321 
36167000    59.046256   -6870.8328   -6718.9399   -6870.8328            0     1769.019     23.24529    21.341204    21.573798    10702.383    2320.5048    1411.9939    1574.5583   -630.83078    268.53952   -66.109112   -6442.8257 
36168000    59.565535   -6863.0432   -6709.8145   -6863.0432            0    1645.9498     23.17263    21.357078    21.636013    10707.656    2021.9997    1743.4935    1172.3561    440.51914   -302.13715    89.268073   -6452.7827 
36169000    62.570828   -6864.1097   -6703.1501   -6864.1097            0       2196.9     23.12498    21.413542    21.579851    10686.077     3032.725    1660.5709    1897.4039   -736.89888    2.5526994    314.00171   -6360.7732 
36170000    57.822135   -6866.2143   -6717.4704   -6866.2143            0    1814.5083    23.135931    21.375406    21.638794    10701.248    1900.4562    1472.0071    2071.0617     36.02417   -884.25162    332.82663   -6434.2861 
36171000    59.134174   -6867.2335   -6715.1144   -6867.2335            0    2294.2093    23.189123    21.269881    21.632251    10669.673    2678.5936    2480.2996    1723.7347   -297.04971    2.6353732     443.3342   -6358.1212 
36172000    61.005715   -6870.9179   -6713.9844   -6870.9179            0     1834.133    23.266592     21.31977    21.560576    10694.874    1629.7296    1916.3439    1956.3255     419.6088     -174.948   -836.92995   -6427.9078 
36173000    58.660865   -6870.1513   -6719.2498   -6870.1513            0    1626.6754    23.170516    21.324786    21.666752    10705.679    1932.6481    1266.9806    1680.3977   -170.39035    190.26747    211.39169   -6465.2748 
36174000    57.286482   -6869.0935   -6721.7275   -6869.0935            0    2036.4617    23.230221    21.317342    21.576581    10684.865    1988.8547    1881.6498    2238.8806   -527.74934    225.72221    51.403436   -6404.3902 
36175000     60.42609   -6867.3834    -6711.941   -6867.3834            0    2148.0955    23.233342    21.321972    21.567943    10684.342    1854.6339    2208.1933    2381.4593    89.542072   -85.765356   -119.47543   -6377.2244 
36176000    59.392304   -6873.2245   -6720.4414   -6873.2245            0     1743.768    23.181827     21.29071    21.678615    10699.644    1591.1312    1756.3685    1883.8044   -237.86153    531.19298    302.79179    -6448.338 
36177000    62.943996   -6865.7023   -6703.7827   -6865.7023            0    2055.3591    23.234374    21.361133    21.545908    10693.505     1449.199    2237.2253     2479.653    130.26804   -242.08518    -734.2774   -6383.2416 
36178000    60.487666   -6868.1119   -6712.5111   -6868.1119            0    2144.9457    23.182955    21.274557    21.655205    10680.501    2184.2344    2761.0805    1489.5223   -18.074471    1216.0539    591.37713   -6378.4054 
36179000    59.246603   -6867.4895   -6715.0812   -6867.4895            0    2590.6485    23.223168    21.290014    21.604238    10681.601    2180.6059    3046.7845    2544.5551    342.43934    72.933416   -712.00081   -6311.5095 
36180000    62.707186   -6874.3406   -6713.0302   -6874.3406            0    1310.4156     23.19761    21.337733    21.660751    10721.734    1728.9309    931.61232    1270.7035    96.850973    -18.28737   -48.295533   -6508.1264 
36181000    61.596134   -6876.1706   -6717.7183   -6876.1706            0    2119.4201    23.188965    21.318477    21.599486     10677.78    2249.0179    2075.6519    2033.5905    279.22734    225.64249    128.93195   -6387.6728 
36182000    58.152387   -6860.0475    -6710.454   -6860.0475            0    2107.6254    23.170738    21.335938    21.635777    10696.066    2582.4796    2241.7814    1498.6151    507.18536   -667.74649   -524.82668   -6381.6831 
36183000      58.9107   -6871.0584   -6719.5142   -6871.0584            0     2406.375    23.115701    21.284639    21.672306    10662.977    2296.8457    2657.1653     2265.114   -42.414571   -36.118233    1037.3371   -6345.3022 
36184000    59.345969   -6871.3508   -6718.6869   -6871.3508            0    2616.1309    23.210665     21.30745    21.564123    10664.755     2716.673    2247.1141    2884.6056   -192.82213   -186.02877   -803.81842   -6311.7883 
36185000    60.702241   -6865.5162   -6709.3634   -6865.5162            0    1979.9949    23.215008    21.252227    21.647741    10680.359     1988.435     2157.741    1793.8086    460.80508   -442.39922    78.030935   -6400.9553 
36186000    61.844844   -6866.6557   -6707.5636   -6866.6557            0    1700.5538    23.193473    21.252716    21.721246    10706.929    1868.9255    1885.9169    1346.8189    74.792059    43.208565    480.06473   -6442.0228 
36187000    56.225622   -6867.2931   -6722.6561   -6867.2931            0    2479.4778    23.212928    21.317768    21.555049    10666.469    2426.0396    2579.6814    2432.7123   -228.52991   -316.32184   -346.96973   -6336.9498 
36188000    61.970242   -6865.5701   -6706.1554   -6865.5701            0    2231.8297    23.176411    21.376639    21.560919    10682.008    2291.7203     1458.058    2945.7109    151.77911    54.491128    935.12521   -6358.4673 
36189000    56.070512   -6870.7494   -6726.5115   -6870.7494            0    1181.8957    23.162827    21.383906    21.676077    10736.415    1083.9256    1055.3585     1406.403    404.55149   -14.230042   -450.47866   -6541.4507 
36190000    63.740806   -6865.8055   -6701.8362   -6865.8055            0    2190.3265    23.172753    21.339922    21.621198    10691.785    2138.4541    2377.1725    2055.3528    264.97854    530.17213    465.05477   -6360.3014 
36191000    61.149916   -6865.0662   -6707.7618   -6865.0662            0    2221.0969    23.243571     21.32166    21.574176    10691.979    1969.1174    2271.6153    2422.5579   -50.896808   -85.930721     260.8227   -6361.4227 
36192000    60.217959   -6868.3377   -6713.4307   -6868.3377            0    1953.4694    23.213878    21.335689    21.617512     10706.81    2284.5381    1898.5468    1677.3233    233.76613   -546.91821   -155.06664   -6408.4007 
36193000    61.743175   -6878.8506     -6720.02   -6878.8506            0    1671.0118    23.245874    21.221389    21.682021    10695.951    698.01812    3091.6251    1223.3921     79.59923    587.41843     618.6304   -6459.3597 
36194000     59.74683   -6869.9701    -6716.275   -6869.9701            0    1898.9409    23.247569    21.292035     21.62409    10703.667    1227.1964    2316.6613    2152.9651    688.39026    455.81239   -171.06685   -6419.8465 
36195000    60.248598   -6866.5702   -6711.5843   -6866.5702            0    1879.6458    23.146956    21.364301    21.632601    10697.722    2339.1298    1249.8249    2049.9829    350.58728    14.821109    370.28804   -6418.3308 
36196000     58.36446   -6866.9412   -6716.8022   -6866.9412            0    2636.2922    23.025321    21.421304    21.612944    10660.204    3241.2013    2469.1889    2198.4864    176.69536    402.47819    2.6838537   -6306.9427 
36197000    61.361844   -6873.9719   -6716.1223   -6873.9719            0    1586.7087    23.165905    21.394578    21.596227    10703.625    1900.3625    1057.5551    1802.2086     460.1599   -770.82928   -95.730684   -6468.4349 
36198000    61.397353   -6869.5289   -6711.5879   -6869.5289            0    2429.7058    23.182072    21.242615    21.679225    10675.887    2606.9463    2625.1567    2057.0146   -333.18098    91.224312    780.81801   -6333.2904 
36199000    60.486942   -6865.1779   -6709.5789   -6865.1779            0    2269.6867    23.292122    21.227724    21.596947    10678.367    1836.5053    2461.8736    2510.6813     729.6056    -1027.398   -229.16963   -6356.1137 
36200000    59.083421   -6871.7464   -6719.7579   -6871.7464            0    2119.0959    23.241776    21.201488    21.678904    10682.502    2596.9516    2323.0767    1437.2595   -306.44859    -670.7264    140.67613   -6389.6169 
36201000     63.79588   -6877.3289   -6713.2179   -6877.3289            0    2373.7702    23.197343    21.250027    21.643918    10669.243    2958.9111    2405.7281    1756.6714    458.09394   -869.85746   -138.57019   -6343.8593 
36202000    60.894647   -6871.1651   -6714.5173   -6871.1651            0    2503.0349    23.138075     21.37366    21.556848    10660.839    1783.3883    2920.8556    2804.8608   -130.99211    193.96927   -1.3729418    -6325.352 
36203000    57.851072   -6875.2653   -6726.4469   -6875.2653            0     2459.675    23.059817    21.429506    21.567062     10657.59    3068.5506    1377.5447    2932.9298    174.74987    284.56483    185.32677   -6344.1396 
36204000    61.436859   -6876.5666   -6718.5241   -6876.5666            0    2080.4593    23.107037    21.383911    21.627347    10686.479    1992.9337    1983.2919    2265.1522    151.26929    138.22487   -111.63495   -6394.2817 
36205000    60.398403   -6874.1969   -6718.8257   -6874.1969            0    2292.1572    23.206263    21.304069    21.591434    10674.543    2298.1196    1562.4616    3015.8903   -160.33052   -484.69967    788.42435   -6361.9889 
36206000    57.958111   -6874.1797    -6725.086   -6874.1797            0    2002.7161    23.262533    21.242412    21.625374    10686.228    2034.6107    2048.3586    1925.1791    211.87743   -629.40895    292.42752   -6412.9673 
36207000    58.163429   -6870.6015   -6720.9796   -6870.6015            0    2882.7843    23.264946    21.194778    21.625916    10663.639     2023.631    3711.0772    2913.6449    -423.4593   -101.13603   -651.62595   -6272.6541 
36208000    58.803464   -6865.2807   -6714.0124   -6865.2807            0    1972.3785    23.235023    21.262531    21.644828    10693.311    1779.8633     2542.065    1595.2073   -143.54874    196.94889      -77.231    -6406.418 
36209000    60.318317   -6866.4833   -6711.3181   -6866.4833            0    1989.8327    23.160382    21.338325    21.627867    10688.573    2441.8288    1403.4395    2124.2299   -716.50964    111.81295   -18.535453   -6401.1392 
36210000    61.147205   -6872.7826   -6715.4851   -6872.7826            0    2376.1667    23.113737     21.42962    21.542562    10670.432    2742.5033    2024.8887    2361.1082   -71.949058   -72.322531   -142.50389   -6345.7125 
36211000    58.272517   -6861.2543   -6711.3518   -6861.2543            0    1834.9551    23.038278    21.434427    21.674887    10703.325     2724.192    1362.0925    1418.5808   -489.17846    465.23551    413.36168   -6424.9208 
36212000     57.40772   -6869.1131   -6721.4353   -6869.1131            0    1966.6342    23.212723    21.349436    21.574462    10691.841    1451.4637    1922.9265    2525.5125    251.36659    369.81486   -314.93438   -6414.7789 
36213000    61.057957   -6874.1321   -6717.0642   -6874.1321            0    2538.4988    23.187438    21.318222    21.578313    10666.483    2613.0372     2460.045    2542.4142   -308.04776    237.54436    182.60801   -6322.1761 
36214000    60.620577   -6873.2099   -6717.2672   -6873.2099            0    1828.8232    23.260956    21.202766    21.695427    10700.111    811.93052    3097.8079     1576.731    56.504109    277.63111   -301.15616   -6431.8791 
36215000     59.14094    -6878.031   -6725.8946    -6878.031            0    1823.2056    23.256574    21.284825     21.61306    10698.726    1666.8546    1793.7806    2008.9817   -420.04154    426.21759   -114.27093   -6441.4199 
36216000    59.658067   -6870.3791   -6716.9123   -6870.3791            0    1959.1432    23.250207    21.292024    21.602701    10694.286    1342.9616    2186.2113    2348.2566    36.025587    126.71349    448.38092   -6411.3542 
36217000    59.969272   -6870.9105   -6716.6432   -6870.9105            0    1891.1108    23.147276    21.396158    21.601798    10698.566    1999.4525    1291.7036    2382.1765    126.07445   -9.5902807   -440.60671   -6421.5777 
36218000    61.328356   -6868.8042   -6711.0407   -6868.8042            0    1767.2657    23.118746    21.436031    21.593778    10701.319    2038.2179    1590.4398    1673.1393   -157.21316    2.9882255    1.5325621   -6435.2275 
36219000    59.009296    -6867.701   -6715.9032    -6867.701            0    2681.2837    23.111562    21.327621    21.625596    10659.573    2860.0732    2646.7946    2536.9833    291.59458    178.32533    191.58708   -6299.0737 
36220000    58.366967   -6875.1216   -6724.9761   -6875.1216            0    1002.7796    23.224394     21.36961    21.624313    10732.065    1169.9275    903.39666    935.01463   -26.782217   -652.23281   -512.53705   -6568.0249 
36221000    59.787113   -6874.5534   -6720.7547   -6874.5534            0    2284.4788    23.194852    21.257122    21.642921    10671.168    2540.4575    2421.1316    1891.8473   -101.60739   -144.54941    -109.5119   -6365.2258 
36222000    59.533584   -6872.1716   -6719.0251   -6872.1716            0    2172.2952    23.264643    21.246163    21.599684    10676.387    2138.4032    2319.0484    2059.4341   -326.47113   -672.88946   -148.83386   -6380.7897 
36223000    57.750552   -6870.9779   -6722.4181   -6870.9779            0       1237.5    23.288478    21.286778    21.627707    10721.647    1193.3127    1090.3213     1428.866    457.06436   -399.75302    552.44643   -6528.9174 
36224000    61.479735   -6865.9711   -6707.8183   -6865.9711            0    2555.3671    23.145296     21.34804    21.585598    10665.589    2275.8382    2874.5061    2515.7569   -10.952868    1023.8214   -139.35607   -6310.3394 
36225000    56.446674   -6864.1128   -6718.9072   -6864.1128            0    1873.1212    23.107102    21.411093    21.618687    10695.809    2193.8945    1347.7607    2077.7082    332.83769   -229.19193   -511.32084   -6426.7239 
36226000    58.813975   -6867.7823    -6716.487   -6867.7823            0    1594.6777    23.118642    21.412717    21.633767    10709.427    2327.5062    986.90465    1469.6222    -283.0831     484.4594    572.80685   -6467.4206 
36227000    60.549071   -6858.3718    -6702.613   -6858.3718            0    2441.2296    23.185816    21.306845     21.62921    10685.189    1771.1814    3103.8581    2448.6494     361.7552   -189.86663   -129.38426     -6322.19 
36228000    61.294387   -6861.9608   -6704.2847   -6861.9608            0     2012.471    23.240826    21.219994    21.701844    10702.702    2093.6475    2738.3052    1205.4604   -875.50818    182.22902   -190.62154   -6390.1623 
36229000    61.248706    -6871.412   -6713.8534    -6871.412            0    1568.0854    23.343942     21.21998    21.605804    10702.607    1216.8033    1350.6998    2136.7532    27.935477    202.38042    267.13411   -6469.0964 
36230000     63.26518   -6871.0814   -6708.3356   -6871.0814            0    1853.2912    23.196018    21.267603      21.6716    10691.114    2102.2611    2561.3442    896.26827   -89.733391   -137.17681   -676.67789   -6419.3724 
36231000    61.002774    -6862.867   -6705.9411    -6862.867            0    2278.7092    23.127943    21.354008    21.616472     10675.82     2744.782    2337.0701    1754.2753     269.8427   -197.99251    131.74844   -6351.1554 
36232000    60.542112   -6867.4454   -6711.7045   -6867.4454            0    2155.3155    23.143895    21.411026    21.530275    10668.994    2629.2058    1406.3032    2430.4376   -82.974815    574.87227    180.77602   -6376.3453 
36233000    58.412334   -6869.8365   -6719.5743   -6869.8365            0    2199.4251    23.081226    21.369522     21.63899    10673.103    2690.3789    2049.7918    1858.1045    184.57103   -116.88731   -266.20872     -6377.22 
36234000    59.366588   -6866.7403   -6714.0233   -6866.7403            0    2280.2704    23.182071    21.311264    21.616148    10679.225    1919.6479    1857.9481    3063.2153    353.48563    523.48445     29.09176   -6358.8814 
36235000    61.859512   -6876.6493   -6717.5195   -6876.6493            0    1846.4798    23.306757    21.260382    21.560722    10683.565    949.52442    2069.3937    2520.5213    266.52665   -216.95385    297.71631   -6429.8216 
36236000    60.209611   -6872.1378   -6717.2522   -6872.1378            0     2085.841    23.190815    21.263888    21.665187    10683.686    2252.1566    2444.9266      1560.44   -372.65252   -587.29045    172.23474   -6392.2561 
36237000    59.416753   -6875.5138   -6722.6678   -6875.5138            0    1808.0371    23.222084     21.27473    21.634802    10688.535    1840.0324    2072.8729    1511.2061   -166.64923    -332.6987    -241.6251   -6440.8286 
36238000     62.28361   -6868.2056   -6707.9848   -6868.2056            0    2336.3133    23.246963      21.3047    21.544726    10670.448     2178.946    2209.5827    2620.4111    312.50454    512.24818    79.449599   -6344.4135 
36239000    58.138012   -6866.0322   -6716.4757   -6866.0322            0    1581.5218    23.126838    21.362002     21.70071    10720.922    1861.4913    1609.2619    1273.8122   -156.39008    519.49071   -564.12007    -6469.199 
36240000    60.271464   -6868.2776   -6713.2329   -6868.2776            0    1907.0678    23.147443    21.399137    21.604665    10701.553    2020.7339    1950.1486    1750.3209    -943.6655    582.14022   -199.04309   -6415.5946 
36241000     59.33119   -6870.8953   -6718.2695   -6870.8953            0    1919.0596    23.230713    21.378422    21.526837    10691.002    1610.6078    1379.1869     2767.384    757.02899   -68.194603    124.28845   -6419.0549 
36242000    59.449552   -6872.4787   -6719.5484   -6872.4787            0    2349.6723    23.142021    21.274478    21.702363     10684.82    2621.6596    2438.7032    1988.6542   -66.193403   -107.43498    417.74632   -6353.4056 
36243000    59.597212   -6867.6275   -6714.3173   -6867.6275            0     1159.247    23.329324    21.260315    21.630249     10728.36    314.45372    1725.8722    1437.4152    133.00235     369.2916   -297.44549    -6532.939 
36244000    59.065237    -6867.746   -6715.8043    -6867.746            0     2132.027     23.33735     21.16376    21.636451    10686.374    1582.7625    2692.4996    2120.8189    185.81614   -315.91562    138.23682   -6383.5283 
36245000    63.593294   -6869.4595   -6705.8696   -6869.4595            0    1715.6369     23.20157     21.32217    21.643847     10707.38     2432.585    1241.8714    1472.4542   -81.210216   -140.34476    187.14076   -6437.9623 
36246000    61.875767   -6879.3693   -6720.1977   -6879.3693            0    2277.5913    23.168233    21.357413    21.578756     10677.46     2365.783    1750.0946    2716.8964    -343.7427   -297.32572    29.336545   -6365.5316 
36247000    61.308381   -6872.3596   -6714.6475   -6872.3596            0    1551.4772    23.101688     21.41132    21.636659    10702.306    1768.9617     1235.984    1649.4858    401.15203    14.013984   -135.20756   -6472.4896 
36248000    58.093367   -6863.4196   -6713.9779   -6863.4196            0    2031.6687    23.128654     21.39467    21.621325    10698.878    2418.2274     1569.149    2107.6299    22.055867    836.60173   -74.920514   -6396.9722 
36249000    61.101519   -6874.4823   -6717.3024   -6874.4823            0      2433.15    23.176875    21.292322    21.612482    10665.532    2061.3437    2266.4282    2971.6781     460.4007   -159.41917    105.56793    -6338.836 
36250000    62.137866   -6861.4313   -6701.5854   -6861.4313            0    2110.0365    23.214146      21.3114    21.624931    10698.414     2705.373    1455.1468    2169.5896   -902.53964    178.55644     90.91704   -6372.3661 
Loop time of 546.425 on 64 procs for 250000 steps with 1296 atoms

Performance: 79.059 ns/day, 0.304 hours/ns, 457.519 timesteps/s
386.6% CPU use with 16 MPI tasks x 4 OpenMP threads

MPI task timing breakdown:
Section |  min time  |  avg time  |  max time  |%varavg| %total
---------------------------------------------------------------
Pair    | 38.992     | 49.844     | 58.603     |  90.5 |  9.12
Bond    | 1.5509     | 1.7616     | 2.3605     |  16.4 |  0.32
Kspace  | 278.84     | 288.52     | 299.43     |  38.5 | 52.80
Neigh   | 0.25343    | 0.26536    | 0.27296    |   0.9 |  0.05
Comm    | 50.26      | 57.009     | 61.1       |  37.1 | 10.43
Output  | 0.51069    | 0.51107    | 0.51245    |   0.1 |  0.09
Modify  | 124.98     | 132.37     | 136.82     |  26.1 | 24.22
Other   |            | 16.15      |            |       |  2.96

Nlocal:        81.0000 ave          97 max          61 min
Histogram: 2 0 0 1 2 3 4 2 0 2
Nghost:        3693.69 ave        3725 max        3669 min
Histogram: 3 0 4 1 2 2 0 0 1 3
Neighs:        26119.7 ave       31309 max       19582 min
Histogram: 2 0 0 1 2 4 3 2 0 2

Total # of neighbors = 417915
Ave neighs/atom = 322.46528
Ave special neighs/atom = 2.0000000
Neighbor list builds = 555
Dangerous builds = 0

unfix		3
unfix		2
unfix		1

write_data	data.final.${pid}
write_data	data.final.0
System init for write_data ...
PPPM initialization ...
  extracting TIP4P info from pair style
  using 12-bit tables for long-range coulomb (../kspace.cpp:340)
  G vector (1/distance) = 0.3673847
  grid = 30 40 32
  stencil order = 5
  estimated absolute RMS force accuracy = 0.0045373319
  estimated relative force accuracy = 1.366404e-05
  using double precision FFTW3
  3d grid and FFT values/proc = 11832 2400
Last active /omp style is kspace_style pppm/tip4p/omp
WARNING: Not all mixed pair coeffs generated from mixing. Use write_data with 'pair ij' option to store all pair coeffs. (../write_data.cpp:312)

write_restart   restart.lmp.${pid}
write_restart   restart.lmp.0
System init for write_restart ...
PPPM initialization ...
  extracting TIP4P info from pair style
  using 12-bit tables for long-range coulomb (../kspace.cpp:340)
  G vector (1/distance) = 0.3673847
  grid = 30 40 32
  stencil order = 5
  estimated absolute RMS force accuracy = 0.0045373319
  estimated relative force accuracy = 1.366404e-05
  using double precision FFTW3
  3d grid and FFT values/proc = 11832 2400
Last active /omp style is kspace_style pppm/tip4p/omp
Total wall time: 0:09:06
