LAMMPS (30 Jul 2021)
  using 1 OpenMP thread(s) per MPI task
package omp 0
using multi-threaded neighbor list subroutines
echo both

include		in.partitions
variable        pid world 0
include		in.temp
variable        temperature equal 263.99
variable	tempDamp equal 100.0
include		in.pressure
variable        pressure equal 8625.0
variable        pressureDamp equal 1000.0 # This is 1 ps
include		in.seed
variable        seed world 745823

units		real
atom_style	full
read_restart	restart.lmp.${pid}
read_restart	restart.lmp.0
Reading restart file ...
  restart file = 30 Jul 2021, LAMMPS = 30 Jul 2021
  restoring atom style full from restart
  orthogonal box = (0.61554279 1.8165594 0.75096077) to (17.592030 21.812618 21.462235)
  4 by 4 by 4 MPI processor grid
  restoring pair style lj/cut/tip4p/long/omp from restart
  restoring bond style harmonic/omp from restart
  restoring angle style harmonic/omp from restart
  864 atoms
  576 bonds
  288 angles
Finding 1-2 1-3 1-4 neighbors ...
  special bond factors lj:    0        0        0       
  special bond factors coul:  0        0        0       
     2 = max # of 1-2 neighbors
     1 = max # of 1-3 neighbors
     1 = max # of 1-4 neighbors
     2 = max # of special neighbors
  special bonds CPU = 0.278 seconds
  read_restart CPU = 0.500 seconds
include 	in.setup
variable	out_freq equal 1000
variable	out_freq2 equal 10000
variable	out_freq3 equal 1000

timestep	2.0

neigh_modify    delay 7 every 1

include		in.tip4p
# This is TIP4P/Ice

# create groups ###
group ox type 2
288 atoms in group ox
group hy type 1
576 atoms in group hy

# set charges - beside manually ###
set group ox charge -1.1794
Setting atom values ...
  288 settings made for charge
set group hy charge 0.5897
Setting atom values ...
  576 settings made for charge

# ### TIP3P Potential Parameters ###
pair_style lj/cut/tip4p/long/omp 2 1 1 1 0.1577 8.5
pair_coeff 1 1*2 0.000 0.000
pair_coeff 2 2 0.21084 3.1668
bond_style  harmonic
bond_coeff  1 450 0.9572
angle_style harmonic
angle_coeff 1 55 104.52
kspace_style pppm/tip4p/omp 1.0e-5
pair_modify tail yes

thermo          ${out_freq}
thermo          1000
thermo_style    custom step temp pe etotal epair emol press lx ly lz vol pxx pyy pzz pxy pxz pyz enthalpy

restart 	${out_freq3} restart.lmp.${pid} restart2.lmp.${pid}
restart 	1000 restart.lmp.${pid} restart2.lmp.${pid}
restart 	1000 restart.lmp.0 restart2.lmp.${pid}
restart 	1000 restart.lmp.0 restart2.lmp.0


include         in.dump
dump            myDump all atom ${out_freq2} dump.water.${pid}
dump            myDump all atom 10000 dump.water.${pid}
dump            myDump all atom 10000 dump.water.0
dump            myDump2 all dcd ${out_freq2} dump.dcd
dump            myDump2 all dcd 10000 dump.dcd
dump_modify     myDump append yes
dump_modify     myDump2 append yes


variable natoms 	equal  "count(all)"                        # NUMBER ATOMS
variable H      	equal  "enthalpy/v_natoms"                 # ENTHALPY-per-atom
variable Vol      	equal  "vol/v_natoms"                 # volume-per-atom
fix AVG all 		ave/time ${out_freq} 1 ${out_freq} v_Vol v_H file vol_enthalpy.dat
fix AVG all 		ave/time 1000 1 ${out_freq} v_Vol v_H file vol_enthalpy.dat
fix AVG all 		ave/time 1000 1 1000 v_Vol v_H file vol_enthalpy.dat


timer           timeout 23:50:00 every 1000
New timer settings: style=normal  mode=nosync  timeout=23:50:00

fix 		1 all shake 1e-6 200 0 b 1 a 1
       0 = # of size 2 clusters
       0 = # of size 3 clusters
       0 = # of size 4 clusters
     288 = # of frozen angles
  find clusters CPU = 0.557 seconds
fix             2 all nph iso ${pressure} ${pressure} ${pressureDamp}
fix             2 all nph iso 8625 ${pressure} ${pressureDamp}
fix             2 all nph iso 8625 8625 ${pressureDamp}
fix             2 all nph iso 8625 8625 1000
fix             3 all temp/csvr ${temperature} ${temperature} ${tempDamp} ${seed}
fix             3 all temp/csvr 263.99 ${temperature} ${tempDamp} ${seed}
fix             3 all temp/csvr 263.99 263.99 ${tempDamp} ${seed}
fix             3 all temp/csvr 263.99 263.99 100 ${seed}
fix             3 all temp/csvr 263.99 263.99 100 745823

run             250000
PPPM initialization ...
  extracting TIP4P info from pair style
  using 12-bit tables for long-range coulomb (../kspace.cpp:340)
  G vector (1/distance) = 0.3742543
  grid = 24 24 24
  stencil order = 5
  estimated absolute RMS force accuracy = 0.0031618361
  estimated relative force accuracy = 9.5217755e-06
  using double precision FFTW3
  3d grid and FFT values/proc = 2535 216
Last active /omp style is kspace_style pppm/tip4p/omp
Neighbor list info ...
  update every 1 steps, delay 7 steps, check yes
  max neighbors/atom: 2000, page size: 100000
  master list distance cutoff = 10.8154
  ghost atom cutoff = 10.8154
  binsize = 5.4077, bins = 4 4 4
  1 neighbor lists, perpetual/occasional/extra = 1 0 0
  (1) pair lj/cut/tip4p/long/omp, perpetual
      attributes: half, newton on, omp
      pair build: half/bin/newton/omp
      stencil: half/bin/3d
      bin: standard
Per MPI rank memory allocation (min/avg/max) = 9.236 | 9.239 | 9.240 Mbytes
Step Temp PotEng TotEng E_pair E_mol Press Lx Ly Lz Volume Pxx Pyy Pzz Pxy Pxz Pyz Enthalpy 
 6500000    269.62798    -3840.607   -3378.4739    -3840.607            0     8360.051    16.976487    19.996059    20.711274    7030.7078    7876.5055    8418.2966     8785.351    1392.0277   -30.763446   -78.149032   -2521.2705 
 6501000    271.70403    -3863.546   -3397.8546    -3863.546            0    7544.0762    17.049222    20.081732    20.800012    7121.4646    5411.0688    8143.5857    9077.5741     444.0044    606.41434    -627.7788   -2614.3324 
 6502000    276.98208   -3860.7253   -3385.9875   -3860.7253            0    6503.8588    17.057026    20.090924    20.809532    7131.2483    5279.9114    6355.3024    7876.3625   -2308.2641   -584.10066   -847.85108   -2709.5735 
 6503000    262.82298   -3863.2459   -3412.7763   -3863.2459            0    8222.9542    17.075773    20.113005    20.832404    7154.7874    9770.6459    7863.8207    7034.3959   -1060.4989    813.94204    1197.7453   -2554.7502 
 6504000    246.27166   -3852.9796   -3430.8784   -3852.9796            0    9235.9303    16.914652    19.923226    20.635836    6954.1618     8722.752    8896.0557    10088.983    797.61873    353.72518    357.57163   -2494.1767 
 6505000    271.90845   -3868.7209   -3402.6791   -3868.7209            0    8724.0775    17.046331    20.078326    20.796484    7117.8419    9063.8197    8187.0621    8921.3507    86.675046   -286.03627    185.18771   -2497.0638 
 6506000    276.98689   -3881.9093   -3407.1633   -3881.9093            0    8551.8985    17.060552    20.095077    20.813833    7135.6709     7385.345    9130.7649    9139.5857   -1348.2529    767.10349   -1404.6336   -2517.1976 
 6507000    263.51126   -3862.1819   -3410.5326   -3862.1819            0    9457.7856    17.024934    20.053124     20.77038    7091.0725    10291.853    8520.2435    9561.2606    604.01045    581.77605   -600.80888   -2432.4461 
 6508000     274.6965   -3864.8474    -3394.027   -3864.8474            0    8175.3378    16.953318    19.968769    20.683008    7001.9614     7321.743    8220.5046    8983.7658   -1804.1862   -138.59012    -91.37526   -2559.1907 
 6509000    272.28748    -3839.637   -3372.9456    -3839.637            0    7413.4005     16.99265    20.015097    20.730993    7050.8085    7946.7774     6636.817    7656.6071    -876.3418   -1638.7224    37.449246   -2610.6345 
 6510000    274.82556   -3853.4869   -3382.4453   -3853.4869            0    9189.0776    16.934767    19.946919    20.660377    6979.0015    9559.4571    7871.2135    10136.562   -1226.2218    1745.6377    287.57067   -2447.1665 
 6511000    252.02392   -3815.2385   -3383.2781   -3815.2385            0    9317.1287    16.958401    19.974756    20.689209    7008.2611    8124.3017    9535.8073    10291.277   -1652.0363   -289.89091   -814.66868   -2430.9903 
 6512000    278.03281   -3826.6498   -3350.1111   -3826.6498            0    8240.4947    16.954671    19.970363    20.684659    7003.6384    6951.5815    8452.1692    9317.7334    -442.5425   -534.34282    -490.3823   -2508.4197 
 6513000    264.23074   -3816.2196   -3363.3372   -3816.2196            0    10023.156    16.986035    20.007305    20.722923    7042.5773    10966.529    9507.8713    9595.0692    1134.4519   -999.24712    132.58405   -2333.8711 
 6514000    267.56221   -3883.6418   -3425.0493   -3883.6418            0    7356.8224    16.996349    20.019454    20.735506    7055.4139    6322.6607     7604.317    8143.4893    2288.9108    506.57299    326.68084   -2668.0619 
 6515000    268.78009    -3835.552   -3374.8721    -3835.552            0    9208.3458     16.95262    19.967947    20.682156    7001.0962    9512.3808     10527.42    7585.2367    465.79567    144.35315   -1872.7106   -2434.6649 
 6516000    260.27513   -3834.4115   -3388.3089   -3834.4115            0    9022.9266    16.954217    19.969829    20.684106    7003.0758    10231.026    7747.9058    9089.8477   -892.93728    176.37565   -601.35199   -2466.7732 
 6517000    271.26651   -3872.9148   -3407.9733   -3872.9148            0    10143.236    16.991929    20.014248    20.730114    7049.9116    10673.465    10428.854    9327.3889   -133.80951   -566.40406    264.06761    -2365.089 
 6518000    259.05393   -3894.4753   -3450.4657   -3894.4753            0    9034.2115    16.966685    19.984513    20.699315    7018.5362    8727.4987    10567.764     7807.372    1727.9463    92.134354     465.1285   -2525.7405 
 6519000    265.61264   -3843.4895   -3388.2386   -3843.4895            0    8382.4804    16.973218    19.992209    20.707287    7026.6479     7846.135    8227.6252    9073.6811   -455.28062   -1659.4262    1581.3261   -2529.2317 
 6520000    252.55339   -3839.2391   -3406.3713   -3839.2391            0    6983.5174    17.034351    20.064215    20.781868    7102.8453     7153.946    6341.2593     7455.347    1490.3705   -1315.0429     706.1185   -2682.9647 
 6521000    260.48066    -3841.669    -3395.214    -3841.669            0    10432.437    16.933138       19.945    20.658389    6976.9875     10255.64    8786.8065    12254.863     865.3313   -1102.2958     264.7317   -2333.6906 
 6522000    279.78991   -3832.4023    -3352.852   -3832.4023            0    8451.2585    17.018548    20.045602    20.762589    7083.0958    10318.575    7857.7046    7177.4965   -822.00181    452.42487    654.06969   -2479.8396 
 6523000    262.73601   -3861.9832   -3411.6627   -3861.9832            0    9907.7234    16.927645     19.93853    20.651687    6970.1996    12917.278    7466.2829    9339.6093     350.2242    1189.7147     1283.739   -2404.5108 
 6524000    280.01173   -3811.5247   -3331.5942   -3811.5247            0    10041.592    16.925086    19.935515    20.648565    6967.0385    9602.9245    9739.9561    10781.896   -1131.4664    480.02341    266.32961   -2311.2971 
 6525000    265.38037   -3843.2539    -3388.401   -3843.2539            0    6357.2645    17.009093    20.034465    20.751054    7071.2972    5344.6572    6776.6419    6950.4945    -659.1691    249.21207   -515.63849   -2732.7915 
 6526000    291.14428   -3845.7904    -3346.779   -3845.7904            0    8617.0905    16.957183    19.973321    20.687723    7006.7508    8844.9933    8515.5443    8490.7339   -1207.9149    276.02264    366.99078   -2466.2307 
 6527000    271.83705    -3825.647   -3359.7276    -3825.647            0    10797.172    16.953722    19.969245    20.683501    7002.4617    10102.537    10269.506    12019.473   -61.013469   -427.36071     1691.753   -2257.0802 
 6528000    264.97655   -3870.4799   -3416.3191   -3870.4799            0    8640.7984    17.021767    20.049393    20.766516    7087.1158    10265.028     7523.995    8133.3721   -966.40845    504.67148   -590.24737   -2523.2208 
 6529000    257.32031   -3886.1911   -3445.1529   -3886.1911            0    7654.5121    17.041897    20.073103    20.791074    7112.2885    6965.2416    8468.5353    7529.7592    393.40606    -611.8402    -1460.936   -2651.1853 
 6530000    267.14579   -3851.9826   -3394.1039   -3851.9826            0    8541.0563    17.035455    20.065515    20.783215    7104.2261    8344.0649    8921.4031     8357.701   -661.03387    800.82752   -355.28648   -2509.1834 
 6531000    274.50401   -3846.2052   -3375.7148   -3846.2052            0    8058.1903    17.022655    20.050439    20.767599    7088.2245    5893.2126    8795.5563    9485.8022    1230.9494   -1392.9645   -1056.7662   -2542.7035 
 6532000    249.86129   -3842.5158   -3414.2621   -3842.5158            0    8547.1515    16.987528    20.009064    20.724745    7044.4351     7774.818    9714.8332    8151.8032    554.24912   -502.05456    224.08538   -2536.1631 
 6533000    261.15519    -3854.955   -3407.3439    -3854.955            0    11018.626    16.902993    19.909493    20.621612    6939.7918    11031.978    9814.2948    12209.607    150.86515    -1776.847   -27.101292   -2292.1515 
 6534000    259.47133    -3903.742    -3459.017    -3903.742            0    7775.4502    16.972984    19.991933       20.707    7026.3562    7174.2039    7090.4893    9061.6573    -51.83629    43.408999   -419.15928   -2662.2495 
 6535000    253.32616   -3879.7588   -3445.5665   -3879.7588            0    10380.913    16.929931    19.941222    20.654476    6973.0238    7614.8527    12990.039    10537.846   -3190.5575    243.74973    1264.0974   -2389.8858 
 6536000    267.69424   -3896.2788     -3437.46   -3896.2788            0    8342.1512    16.951577    19.966718    20.680884    6999.8044    7948.0442    7975.5425    9102.8669    1402.4327     196.5638   -733.43748   -2585.8518 
 6537000    267.74264   -3871.2038   -3412.3021   -3871.2038            0    8180.5665    17.009226    20.034621    20.751216    7071.4621    8602.6697    6395.3036    9543.7261    114.62625   -328.68269   -1061.5721   -2568.6401 
 6538000     270.8086   -3848.9401   -3384.7835   -3848.9401            0    8675.2277    17.025026    20.053232    20.770492     7091.187     7114.122    10006.239    8905.3218    674.60497    951.47289    1021.3354   -2487.6115 
 6539000    274.79532   -3876.7299   -3405.7401   -3876.7299            0    7702.3545    17.017993    20.044948    20.761912    7082.4026    5071.2291    9029.3316    9006.5027   -60.472303    962.73315   -302.22607   -2610.1672 
 6540000    264.82697   -3879.9595   -3426.0552   -3879.9595            0    9121.0427    16.980204    20.000438    20.715809    7035.3274    10670.592    8286.7351    8405.8011    -1091.375    -1059.587   -1403.2558   -2490.2085 
 6541000    265.65584   -3868.6411   -3413.3161   -3868.6411            0    7444.4027    17.030338    20.059489    20.776973    7097.8271     9060.732    7080.0086    6192.4673   -805.85563    314.57894     195.0175   -2642.7122 
 6542000    266.52686   -3879.5194   -3422.7015   -3879.5194            0    7583.5475    17.021925    20.049579    20.766709    7087.3129    8103.8692    6429.1199    8217.6533   -387.72786    320.84622    914.73029    -2638.857 
 6543000    263.87965     -3862.31   -3410.0293     -3862.31            0    8689.6572    17.028771    20.057643    20.775061    7095.8682    9105.5142    8577.7077    8385.7497     661.7688   -322.23259   -531.96211   -2510.7718 
 6544000    261.25467   -3863.9504   -3416.1688   -3863.9504            0     9649.799    16.990254    20.012275     20.72807    7047.8267    9130.3655    9056.8398    10762.192   -352.53809    2191.3009    509.55657   -2424.3111 
 6545000    244.35637   -3871.4535    -3452.635   -3871.4535            0    8316.6005    16.986668    20.008051    20.723695     7043.365    7264.8259     8933.467    8751.5086   -158.53638   -120.38205   -278.20571   -2598.3517 
 6546000    264.37366   -3843.0237   -3389.8963   -3843.0237            0    10004.884    16.905978    19.913008    20.625253    6943.4683    10671.615    7389.2428    11953.794    1442.5994    946.56102    726.79434   -2376.7681 
 6547000    260.65067   -3860.2256   -3413.4793   -3860.2256            0    8059.8045    16.952255    19.967518    20.681712     7000.645    9528.1065     6051.704     8599.603   -581.69595   -139.73139   -224.08738   -2590.5956 
 6548000    266.48277   -3833.6809   -3376.9385   -3833.6809            0    8768.6155    16.928068    19.939029    20.652204    6970.7226    7662.9844    9226.4006    9416.4615    656.41483   -1846.7141   -411.00025   -2485.5137 
 6549000    266.97139   -3827.4789   -3369.8991   -3827.4789            0    8933.4636    16.932661    19.944438    20.657807    6976.3974    10052.594    7875.1845    8872.6126   -369.16068   -561.57093    1881.4873   -2460.9763 
 6550000    266.21971   -3843.5128   -3387.2213   -3843.5128            0    10412.849    16.907525    19.914831    20.627141    6945.3749    9132.4103    10009.684    12096.451   -7.2937593     409.7606   -282.39232   -2332.4917 
 6551000    263.64898   -3820.0187   -3368.1333   -3820.0187            0    7424.4758    17.019892    20.047184    20.764228    7084.7733    6931.0894    6920.6722    8421.6657    658.33942    872.48765    665.42342   -2601.0057 
 6552000    261.24457    -3840.353   -3392.5888    -3840.353            0    8450.6922     16.99166    20.013931    20.729785    7049.5759    9179.4699    6401.1815    9771.4252   -667.20493   -384.56596   -394.67827    -2523.766 
 6553000    269.53854   -3859.5235   -3397.5437   -3859.5235            0    9669.8769    16.923079    19.933152    20.646117    6964.5611    8988.1563    10229.192    9792.2823    -892.0856    790.52892   -373.88467   -2415.3648 
 6554000    272.07982   -3857.8294   -3391.4939   -3857.8294            0     9634.392    17.006592    20.031519    20.748002    7068.1776    8698.8673    10327.907    9876.4016   -591.48181    316.27792    971.85468   -2398.3604 
 6555000    264.16365   -3873.8966   -3421.1291   -3873.8966            0    7648.8753    17.065973    20.101461    20.820447    7142.4749    7105.8805    7975.4666    7865.2789    1607.1186   -604.93705    1569.7365   -2624.3789 
 6556000    261.43064   -3793.8376   -3345.7544   -3793.8376            0     10864.53    16.938566    19.951393     20.66501    6983.6985    9622.6469    12207.922    10763.022    762.55483   -62.225087    3.4129197   -2239.2012 
 6557000    267.04676    -3868.446   -3410.7369    -3868.446            0    8683.6798    16.992919    20.015414    20.731321    7051.1432    8519.4006    7711.9688    9819.6699   -102.67493   -1338.4021    1816.4362   -2517.7621 
 6558000    261.20079   -3877.3724   -3429.6832   -3877.3724            0    10352.595    16.909206    19.916811    20.629192     6947.447    9739.0822    10977.629    10341.075   -482.23762   -1073.3867     1485.863   -2380.7438 
 6559000    258.88893   -3850.2001   -3406.4734   -3850.2001            0    7808.4495    16.955392    19.971212    20.685539    7004.5317    7555.9823    7917.7139    7951.6523     363.0129   -77.616095   -67.911794   -2608.8097 
 6560000    261.11617   -3909.4496   -3461.9054   -3909.4496            0    8495.1898    17.005911    20.030717    20.747172    7067.3288    7576.3337    8699.4625    9209.7732    141.23385   -427.61504   -261.80718   -2586.3084 
 6561000    247.81527   -3842.3129    -3417.566   -3842.3129            0    7155.7139    17.033177    20.062832    20.780436    7101.3764    6540.6556    6441.5397    8484.9464    98.396841    410.17461     503.2275   -2676.4753 
 6562000    269.66815   -3845.8529   -3383.6509   -3845.8529            0    10904.918     16.94186    19.955274     20.66903    6987.7744    11391.486    10873.755    10449.514    92.571559   -919.19034    1243.5723   -2272.3359 
 6563000    263.73188   -3811.4297   -3359.4022   -3811.4297            0    10444.196    16.937062    19.949622    20.663176    6981.8386    11175.609    11341.957    8815.0216    28.684852    217.74119   -999.10191   -2295.9433 
 6564000    264.12688   -3850.6017   -3397.8973   -3850.6017            0    8882.5309    16.927068    19.937851    20.650984    6969.4873    6515.6378    8568.9369    11563.018   -126.72776   -51.780778   -849.55476   -2495.0518 
 6565000    264.33237   -3877.7328   -3424.6762   -3877.7328            0    8045.3241    16.945497    19.959558    20.673467    6992.2758    8378.8299    5742.5043    10014.638   -44.273853   -755.71683   -282.63425   -2604.2529 
 6566000    276.27535   -3845.3765     -3371.85   -3845.3765            0    8999.2756    16.965249    19.982823    20.697565    7016.7554    9763.0404    8955.2651    8279.5214     240.9822   -98.909811    539.91906   -2450.9345 
 6567000    255.33171   -3880.6591   -3443.0293   -3880.6591            0    9515.2696    16.900386    19.906422    20.618432    6936.5811    8122.2151    7859.8367    12563.757    -274.8538    610.92575   -777.41936   -2480.4368 
 6568000    260.21721   -3861.7468   -3415.7434   -3861.7468            0    8516.1518     16.98254    20.003189    20.718659    7038.2316    8510.8059    7688.1525    9349.4971   -672.64634    1838.9364    469.95775   -2541.5997 
 6569000    244.05078   -3870.4657   -3452.1711   -3870.4657            0     7746.233    16.956089    19.972033    20.686389     7005.395    9327.1824    6896.3492    7015.1676    1139.9984    545.38018   -2081.7246   -2660.7655 
 6570000    266.60123   -3886.0962   -3429.1508   -3886.0962            0    6479.4425     17.02497    20.053166    20.770424    7091.1171    8210.2803    5013.3851    6214.6619   -14.947964    854.86654   -569.54932   -2759.0684 
 6571000     268.0339   -3880.4415   -3421.0406   -3880.4415            0    7922.5391    16.931772    19.943391    20.656722    6975.2985    7810.8883      6558.25     9398.479   -828.53567    -137.9811   -623.37059   -2615.0999 
 6572000     279.4349   -3819.8244   -3340.8825   -3819.8244            0    7014.6839    17.042126    20.073374    20.791354     7112.576    6179.2223     7897.179    6967.6504    283.69537     243.6475    625.42309    -2613.252 
 6573000    240.78828   -3833.6614   -3420.9585   -3833.6614            0    9657.9187    16.959084    19.975561    20.690043     7009.108    9438.9452    10433.327    9101.4838   -813.87046    484.38591   -467.43392   -2433.7198 
 6574000    269.78091   -3885.4235   -3423.0283   -3885.4235            0    7512.6618    17.029657    20.058686    20.776141    7096.9748    8226.6555    8182.8548     6128.475   -1221.4164   -1211.8354    168.36363    -2645.452 
 6575000    265.64619   -3861.2049   -3405.8964   -3861.2049            0    7281.9026    17.038601    20.069222    20.787054    7108.1636    7163.0352    8359.0882    6323.5843    690.70127    282.67721    -818.8564    -2651.016 
 6576000    267.31324   -3880.1419   -3421.9761   -3880.1419            0     8184.794    17.021896    20.049545    20.766673    7087.2764    7465.5232     7759.844    9329.0147    1754.3519    1855.3692   -1802.9931   -2575.9904 
 6577000      261.597    -3880.712   -3432.3437    -3880.712            0     9302.031    16.981785    20.002299    20.717737    7037.2919    10269.031    8613.2698    9023.7925   -914.80591   -897.46941    1642.4254   -2477.6606 
 6578000     281.6897   -3845.0798   -3362.2733   -3845.0798            0    8634.5897    16.983545    20.004372    20.719885    7039.4803    8533.1697    7537.3714    9833.2282    1246.9125   -669.22445   -97.153425   -2475.8152 
 6579000     259.5241   -3858.5497   -3413.7342   -3858.5497            0    8463.8646    16.964958    19.982479    20.697209    7016.3934    9074.8009    8058.5331    8258.2597    135.02469   -1347.6423   -1292.5336   -2547.6532 
 6580000     275.6131   -3830.7127   -3358.3212   -3830.7127            0    9303.5012    16.990104    20.012098    20.727887    7047.6398    8568.0634    8860.6133    10481.827   -329.09678   -1202.3058    283.12406   -2402.0832 
 6581000    264.04952   -3854.1874   -3401.6156   -3854.1874            0    8207.9652    17.014804    20.041192    20.758021    7078.4222    7347.8429    9681.1286    7594.9241   -594.57135   -799.19089    140.70924   -2554.2948 
 6582000    257.96103   -3854.3013    -3412.165   -3854.3013            0    8324.8421    17.002102     20.02623    20.742525    7062.5809     8219.244    9657.1575     7098.125   -1670.8324   -586.73911   -55.138669   -2554.7021 
 6583000    249.62126   -3834.6863    -3406.844   -3834.6863            0    10007.147    16.939919    19.952987    20.666661    6985.3722    10269.053    11173.006    8579.3803   -1302.5467   -1314.7301    274.21438    -2387.371 
 6584000     278.0099   -3832.0305    -3355.531   -3832.0305            0    6620.2923    17.040036    20.070911    20.788804     7109.959    5045.2961    6836.0046    7979.5761    139.53705    -499.4768    167.74092   -2669.0633 
 6585000    268.06198    -3822.477    -3363.028    -3822.477            0    8989.9735    16.933524    19.945454    20.658859    6977.4639    9281.5541    9931.9994    7756.3671   -117.10499   -12.359596   -17.369885   -2448.2159 
 6586000     264.2512   -3844.6327   -3391.7152   -3844.6327            0    7334.8727    17.025482    20.053769    20.771048    7091.7569    8767.9579    6607.2808    6629.3796    418.00017   -2013.8407   -1268.4769   -2633.0986 
 6587000     250.0839   -3847.0973    -3418.462   -3847.0973            0    9249.2784     17.00136    20.025357     20.74162    7061.6569    9348.1778    10410.282    7989.3757   -1896.6832    378.28829    105.21839   -2465.9064 
 6588000    285.77837   -3876.7034    -3386.889   -3876.7034            0    9041.5119    16.972795    19.991711     20.70677    7026.1219    9820.4364    8682.3511    8621.7482   -86.673809   -737.30715    461.91161   -2460.4163 
 6589000     254.4859   -3867.1964   -3431.0163   -3867.1964            0    10935.844    16.904167    19.910876    20.623044    6941.2376    10780.715    12031.122    9995.6959   -970.55201   -788.73945   -1344.7614   -2323.9717 
 6590000    261.47855   -3854.5831   -3406.4178   -3854.5831            0    10772.861    16.913125    19.921428    20.633973     6952.279    10241.539    11237.521    10839.523    259.92754    1345.7139    857.73638   -2314.1374 
 6591000     257.2843   -3884.1311   -3443.1546   -3884.1311            0    8810.9233    16.915041    19.923684     20.63631    6954.6415    8349.2962     9331.726    8751.7476   -1547.3325   -133.05405   -338.84991   -2549.4951 
 6592000    267.41018   -3851.8548   -3393.5229   -3851.8548            0     8300.362    16.914191    19.922683    20.635274    6953.5937    10014.106    7870.7619     7016.218    747.58257   -1797.7589    1539.7993   -2551.7746 
 6593000    258.47731   -3883.2314   -3440.2101   -3883.2314            0    9212.6008    16.958891    19.975333    20.689807    7008.8684    7173.1715    12119.156    8345.4753    40.575192   -1220.9326   -403.72579   -2498.5243 
 6594000    251.03014    -3841.908   -3411.6509    -3841.908            0    9520.1068    16.912759    19.920996    20.633527    6951.8273    8729.6598    9755.1072    10075.553   -1040.6182    183.11348    236.17001   -2446.4523 
 6595000    268.56486   -3872.3701   -3412.0592   -3872.3701            0     9977.535    16.894698    19.899723    20.611492    6929.5796    9185.9829    10011.933    10734.689   -618.71527   -430.99725    1424.7316   -2403.7214 
 6596000    277.65095   -3864.8995   -3389.0153   -3864.8995            0    8586.5857    17.004484    20.029036    20.745431    7065.5502    7416.3808    9598.2147    8745.1616    1262.7408    978.05749   -679.76257   -2504.2209 
 6597000    271.29135   -3850.3792   -3385.3951   -3850.3792            0    8974.6323    16.969736    19.988108    20.703039    7022.3242    9975.0701    7914.8379    9033.9887   -57.623588   -1685.2489   -590.63598   -2466.2725 
 6598000    247.96585   -3846.2378   -3421.2328   -3846.2378            0    8082.0269    16.987176    20.008649    20.724315    7043.9965    6027.5608    7865.0973    10353.423    199.52109   -620.78045   -666.51537   -2590.9705 
 6599000      276.424     -3866.15   -3392.3687     -3866.15            0    9357.3356    16.982159     20.00274    20.718194    7037.7571    10199.532    8249.3761    9623.0988    530.01682    -299.4282   -659.78903   -2431.9461 
 6600000    252.75335   -3845.8065   -3412.5959   -3845.8065            0     8672.004    16.985848    20.007085    20.722694    7042.3444    9105.7882    8934.1543    7976.0694    70.207427    1482.5984    357.32905   -2521.9345 
 6601000    257.86223   -3863.0451    -3421.078   -3863.0451            0    8554.6847    16.976381    19.995934    20.711145    7030.5763    8463.9712    8219.0547    8981.0283   -441.59543   -904.01202    404.73172   -2543.9342 
 6602000    264.67496   -3850.6526   -3397.0088   -3850.6526            0    8525.1149    17.009102    20.034475    20.751065    7071.3078    8018.5894    6414.6634    11142.092    1965.8608   -8.3919952   -686.99481   -2517.8327 
 6603000    255.32236    -3839.231   -3401.6172    -3839.231            0    8905.0075    16.949572    19.964357    20.678438    6997.3208    9637.9607    7920.1983    9156.8636    681.01497    267.95996   -510.24329   -2492.8724 
 6604000    261.53733   -3868.1819   -3419.9159   -3868.1819            0    7915.2121    17.037578    20.068017    20.785806    7106.8831    9821.1933    6894.7441    7029.6988   -168.54249   -411.26629    1170.1075    -2599.531 
 6605000    278.36722   -3850.1874   -3373.0755   -3850.1874            0    9807.4179    16.998465    20.021947    20.738088      7058.05    9562.8648    9403.1901    10456.199   -143.39249   -1609.6633    256.11614   -2363.5546 
 6606000    254.18211   -3879.2798   -3443.6204   -3879.2798            0    6243.5101     17.10745    20.150316    20.871049    7194.6791    6310.8855    5020.2355    7399.4094    1326.3528   -728.80483   -464.33469   -2788.5075 
 6607000    250.92144   -3849.0244   -3418.9536   -3849.0244            0     10218.42    16.955294    19.971097    20.685419    7004.4101    8381.8814    11035.126    11238.252   -1011.3751    244.72657   -1017.2208   -2375.1202 
 6608000    266.53469   -3851.1958   -3394.3645   -3851.1958            0    7644.0285    17.045729    20.077617    20.795749    7117.0875    6582.1394    9604.3401    6745.6061   -2370.4181   -686.07223    703.23812   -2600.9493 
 6609000     259.5722   -3839.9646   -3395.0667   -3839.9646            0     7948.414     16.91826    19.927475    20.640237    6958.6125    8121.6998    7847.4469    7876.0953    1097.5979   -646.85238    3147.9158   -2588.4281 
 6610000    268.33963   -3841.8355   -3381.9105   -3841.8355            0    9228.8811    16.889112    19.893143    20.604677     6922.708    6730.9709    12131.257    8824.4152   -1622.2434   -2169.8822   -285.93585   -2450.1572 
 6611000     260.0282   -3842.9538   -3397.2744   -3842.9538            0    7092.9035    16.988093    20.009729    20.725434    7045.1373    6781.3789    6912.6716      7584.66    126.34733    -811.5929   -379.68898   -2668.5062 
 6612000     265.7006   -3873.4888   -3418.0871   -3873.4888            0    7148.2136    17.016037    20.042644    20.759525    7079.9605    8289.1804    6463.4817    6691.9786    142.16632   -1344.2851    2803.3734   -2680.0057 
 6613000    260.00155   -3849.9474   -3404.3136   -3849.9474            0    8364.3075     16.97529     19.99465    20.709815    7029.2215     8367.703    8711.7374    8013.4821    1207.3312    2313.6017    1378.4823   -2546.8552 
 6614000    264.61867   -3821.8042   -3368.2569   -3821.8042            0     7011.388    17.058862    20.093086    20.811772     7133.551     8633.417    6945.5742    5455.1729    313.99547   -2058.0022   -187.61319   -2638.8235 
 6615000    253.69021   -3803.6018   -3368.7855   -3803.6018            0    8113.8577    17.035244    20.065267    20.782958    7103.9622    8534.3759    7548.0025    8259.1948    930.51351    24.834523    1060.5216   -2528.1574 
 6616000    251.30542   -3871.2072   -3440.4784   -3871.2072            0    7534.4616    17.107974    20.150934    20.871688    7195.3404    7834.5267    8056.9402    6711.9178   -629.44052   -469.00288   -69.748193   -2649.8371 
 6617000    262.29525   -3892.6334   -3443.0683   -3892.6334            0    9113.6224    16.967079    19.984978    20.699796    7019.0254    10061.398    10665.918    6613.5512    725.76114    922.54591    616.12554   -2510.1498 
 6618000    260.78069   -3874.3641   -3427.3949   -3874.3641            0    7777.6471     16.94834    19.962906    20.676935     6995.795    7710.1946    8145.8644    7476.8823   -392.63707     1065.542    1998.8068   -2633.8688 
 6619000    267.55224   -3867.2572   -3408.6818   -3867.2572            0    9020.4794    16.978098    19.997957     20.71324    7032.7098    9707.0843    9827.3894    7526.9646   -810.58582     865.7438    64.339436   -2483.4976 
 6620000    256.91415   -3880.6649   -3440.3228   -3880.6649            0    9449.3114    16.987283    20.008775    20.724445    7044.1294    9727.1619     9580.295    9040.4771   -1016.4274    1934.2042   -724.14221   -2469.5818 
 6621000    258.60909   -3869.4448   -3426.1977   -3869.4448            0    7520.5917    16.986905     20.00833    20.723984    7043.6596    9755.5402    7958.3286    4847.9064   -205.12935   -951.15912    738.77533   -2653.6483 
 6622000    281.30446   -3862.5479   -3380.4016   -3862.5479            0    9050.3829    16.961077    19.977908    20.692474    7011.5792    8853.4563    8736.6549    9561.0376   -257.90041   -1507.6978   -878.55733   -2454.9394 
 6623000    253.25045   -3869.4489   -3435.3863   -3869.4489            0    9085.9534    16.935261      19.9475    20.660979    6979.6118    9859.9813    10554.569    6843.3101    497.21941   -716.08611   -3084.8892   -2510.5227 
 6624000    271.41081   -3841.2856   -3376.0967   -3841.2856            0    8786.5889    16.918672    19.927961    20.640741    6959.1217    9116.2109    9170.0088    8073.5469    303.97127   -224.25449   -359.84389   -2484.3313 
 6625000    277.47972    -3828.441   -3352.8503    -3828.441            0    6966.6128    17.034965    20.064939    20.782618     7103.614    7562.9756    5196.4525    8140.4103    432.32453    465.64724   -1366.1282   -2631.1167 
 6626000    272.27976   -3862.1324   -3395.4542   -3862.1324            0    7159.4517    16.949889     19.96473    20.678825    6997.7132    6658.7304    6416.3976     8403.227   -1372.0502    993.81141    50.619468   -2664.8001 
 6627000    264.87736   -3833.7098   -3379.7191   -3833.7098            0    8571.6423    16.997059     20.02029    20.736372    7056.2981    9750.6401    8317.9405    7646.3461    27.536788   -1305.6783   -1656.1863   -2497.6211 
 6628000      275.692   -3873.7459   -3401.2192   -3873.7459            0    9294.6217    16.996421    20.019539    20.735594    7055.5035    9288.9446    9166.6395    9428.2811   -253.00551    939.52643    484.90064   -2444.8279 
 6629000    272.27909   -3863.5735   -3396.8965   -3863.5735            0    8872.1409    17.049168    20.081668    20.799946    7121.3969    9311.3541    7619.1052    9685.9635    532.10783    479.53729   -738.93291   -2475.4513 
 6630000    253.23072   -3903.4408    -3469.412   -3903.4408            0    8004.6708    17.036168    20.066355    20.784085     7105.118     10058.13    6687.3554    7268.5271   -1916.0387   -2362.9569    96.597029   -2639.9612 
 6631000    262.92095   -3893.9486   -3443.3111   -3893.9486            0    8775.6134      16.9684    19.986534    20.701409    7020.6658    9376.1284    6897.4928    10053.219   -1647.8955    435.09019   -833.29807    -2544.783 
 6632000     260.7974    -3834.317   -3387.3192    -3834.317            0    8393.0698    17.071709    20.108219    20.827446    7149.6803     8592.061    7509.4869    9077.6616    673.75171    356.87437    141.15437   -2512.1675 
 6633000    266.82381   -3887.7995   -3430.4726   -3887.7995            0    9337.3212    16.948553    19.963157    20.677195    6996.0589    10397.034    6468.1898     11146.74   -1622.8314    846.54565   -224.11646   -2477.7825 
 6634000    257.72335   -3892.4461   -3450.7171   -3892.4461            0    8945.2343    16.947763    19.962226    20.676231    6995.0809    10903.457    7722.4687    8209.7771   -64.390007   -170.40769    590.24401   -2538.1593 
 6635000    250.41151   -3898.0949   -3468.8982   -3898.0949            0    7800.1071    16.981652    20.002143    20.717576    7037.1276    8580.5995    6770.8306    8048.8913   -90.834903   -1462.5308    -365.3395   -2668.3787 
 6636000    266.89185   -3886.6681   -3429.2246   -3886.6681            0    9183.2244    16.973031    19.991989    20.707058    7026.4152     10871.24    6750.2052    9928.2281   -658.34195   -1021.0779    436.26009   -2488.1915 
 6637000    252.68287   -3861.4567   -3428.3669   -3861.4567            0    9127.9545    16.938408    19.951207    20.664818    6983.5032    9660.8704    9102.8018    8620.1912    1569.2013   -839.01242    1943.2252   -2498.7101 
 6638000    267.91177    -3853.971   -3394.7794    -3853.971            0    7414.1502    16.956724    19.972781    20.687164    7006.1825    7214.4945    6081.1593    8946.7968   -906.89189   -79.423357   -1033.1828   -2637.2165 
 6639000    246.01476   -3879.3611   -3457.7003   -3879.3611            0    8321.9621    16.929063      19.9402    20.653418    6971.9518    6741.3697    8461.5328    9762.9836   -1012.4084    534.97502    1646.0706   -2611.5334 
 6640000    268.54035    -3870.998    -3410.729    -3870.998            0    7519.6775    16.982037    20.002596    20.718045    7037.6058     7530.367    8319.4945    6709.1711    508.99367    67.467631   -55.628615   -2638.9374 
 6641000    248.04286   -3857.9118   -3432.7749   -3857.9118            0    7184.0969    16.983445    20.004255    20.719764    7039.3569     8897.104    4725.4129    7929.7737   -1249.2224   -627.80874    -339.0734   -2695.2426 
 6642000     253.2766    -3843.969   -3409.8616    -3843.969            0     9866.785    16.949069    19.963764    20.677824    6996.6978    10150.589    7971.7377    11478.028   -633.66535   -921.79728    1726.1803   -2403.0582 
 6643000    252.75413   -3852.3736   -3419.1616   -3852.3736            0     7480.608    16.992504    20.014925    20.730815    7050.6265    8313.2984    7143.6734    6984.8523   -616.19066    176.48032    1716.5549   -2649.9595 
 6644000    264.74401   -3858.4543   -3404.6922   -3858.4543            0     8503.327     16.95714    19.973271    20.687671    7006.6979    10455.554    6974.6824    8079.7443   -1584.7554     417.6385   -60.616102   -2535.7754 
 6645000    273.00558   -3835.4973   -3367.5751   -3835.4973            0    8439.1648    16.988905    20.010687    20.726425    7046.1484    8192.2712    7730.7287    9394.4944   -1818.2406    1748.0788   -1091.7585   -2500.3593 
 6646000    260.56927   -3851.2115   -3404.6047   -3851.2115            0    10658.595    16.847393    19.844004     20.55378    6871.5345    9221.1194    10920.329    11834.336    675.19786    441.46244    2128.4439   -2336.4613 
 6647000    247.29389   -3850.3001   -3426.4468   -3850.3001            0    8556.8294    16.903845    19.910496    20.622651    6940.8407    9274.9801    6859.4285    9536.0796    46.592237   -658.12945   -215.06145   -2560.2814 
 6648000     248.0757   -3875.5232   -3450.3299   -3875.5232            0    8550.1768    16.937326    19.949933    20.663498    6982.1653    6940.3914    7815.2342    10894.905   -131.44948    805.43419    1044.1406   -2579.6849 
 6649000    269.22737   -3828.6302   -3367.1837   -3828.6302            0    8698.2148    16.934652    19.946783    20.660236    6978.8591    9039.3296    7079.9816    9975.3331    1005.6805   -155.12994    76.810304   -2481.8838 
 6650000    262.97002    -3881.524   -3430.8024    -3881.524            0    8097.7883    16.945393    19.959435     20.67334    6992.1467    6009.4271    8585.5491    9698.3886    889.50742   -528.67368    1805.8638   -2605.0443 
 6651000    260.54021   -3840.8759   -3394.3189   -3840.8759            0    7901.9861    16.969489    19.987817    20.702737    7022.0176     7827.092    7070.7576    8808.1088    1271.5665   -392.60944   -1078.9884    -2585.085 
 6652000     242.7534   -3861.4664   -3445.3953   -3861.4664            0    8327.6278    16.981037    20.001419    20.716826    7036.3629    9098.7953    9051.9817    6832.1063    752.13402    62.013224   -250.50892   -2590.8297 
 6653000    277.16489    -3867.716   -3392.6649    -3867.716            0    8282.2757      16.9185    19.927759    20.640531    6958.9095    9704.3198    8062.9979    7079.5093    886.54541     1547.047   -1334.7424   -2552.1087 
 6654000    264.51624    -3880.501   -3427.1292    -3880.501            0    9660.7405    16.889298    19.893362    20.604904    6922.9366    10057.254    10254.807    8670.1609   -274.04451   -636.05346   -1336.9625   -2451.7429 
 6655000    269.96341   -3890.1531    -3427.445   -3890.1531            0    9556.3316    16.959522    19.976077    20.690577    7009.6511    9337.6998    8762.2751     10569.02    379.97479   -616.06492    54.955209   -2450.5149 
 6656000    250.18974   -3855.9747    -3427.158   -3855.9747            0    11804.379    16.888706    19.892665    20.604182    6922.2097    10491.246    13243.731    11678.161    760.35716    80.767017    -426.3738   -2235.4666 
 6657000    258.35195   -3849.1537   -3406.3473   -3849.1537            0     6774.007     17.03325    20.062918    20.780525    7101.4681    6405.5578    7405.7353    6510.7278    187.98644    610.77678    1723.3214   -2704.7795 
 6658000    275.27015   -3865.1013   -3393.2977   -3865.1013            0    9937.6968    16.998007    20.021408    20.737529    7057.4797    10024.884    9521.0423    10267.164   -87.723903   -1335.5103    426.33088   -2370.4493 
 6659000    260.72549    -3847.187   -3400.3125    -3847.187            0    9090.8061    16.978697    19.998663    20.713971    7033.4547     8051.198    9667.0404    9554.1798   -172.30531   -271.65099    -594.6773   -2467.8165 
 6660000    275.78033   -3833.8787   -3361.2006   -3833.8787            0    8382.8804    17.053291    20.086524    20.804975    7126.5642    9200.0761    8056.8472     7891.718    718.01255    522.97327    90.603676   -2489.9374 
 6661000    241.93618   -3871.8353    -3457.165   -3871.8353            0     9761.718    17.049044    20.081522    20.799794    7121.2412    10052.437    9384.3616    9848.3555    673.35251    1050.8552   -500.43445    -2443.352 
 6662000    269.53965   -3887.3038    -3425.322   -3887.3038            0    7208.2695     17.11157    20.155169    20.876075    7199.8779    9334.0698    5140.5486    7150.1902   -262.31326     2175.237    17.954893   -2668.4333 
 6663000    271.19579   -3859.3182   -3394.4979   -3859.3182            0    9394.4045    16.997176    20.020428    20.736515    7056.4436    8776.0029    10154.499     9252.712   -1329.6277   -1179.9571    2021.1091   -2427.7104 
 6664000    265.91883   -3871.1212   -3415.3454   -3871.1212            0    9272.5965    16.948234    19.962781    20.676806    6995.6639    9089.5796    9212.7182    9515.4918   -187.44871    8.9691429    576.51658   -2469.3126 
 6665000    261.65151   -3862.3484   -3413.8866   -3862.3484            0    10080.632    16.977186    19.996883    20.712128    7031.5769    9767.9782    8915.6017    11558.316     289.5314    926.65668     1027.585   -2380.1346 
 6666000    253.34408   -3813.9034   -3379.6803   -3813.9034            0    9432.2479    16.992614    20.015054    20.730949    7050.7635    8266.4703    12249.072    7781.2011   -111.63374    1255.0297    1643.8353   -2409.7797 
 6667000     258.2982   -3869.3622   -3426.6479   -3869.3622            0    8098.5894    16.974132    19.993285    20.708401     7027.782    8135.4901    7969.4138    8190.8643   -1206.9429    506.78149    840.38055   -2596.5992 
 6668000    272.26144   -3841.5115   -3374.8647   -3841.5115            0    9848.4988    16.916193     19.92504    20.637715    6956.0621    11133.127    9191.1833    9221.1862   -652.64774    644.11696     831.4318   -2375.7637 
 6669000    268.10753   -3833.0916   -3373.5645   -3833.0916            0    8050.3879     16.97576    19.995203    20.710388    7029.8052    5744.7614    8675.3289    9731.0732   -386.06668   -1964.7054    1215.8549   -2548.2186 
 6670000    275.22797   -3886.7317   -3415.0004   -3886.7317            0    8998.2311    16.985182      20.0063    20.721882     7041.516    6224.0974    9701.0797    11069.516    416.31387   -17.127987   -1849.8536   -2490.9424 
 6671000      274.938   -3917.4161   -3446.1818   -3917.4161            0    7498.7095    17.020645    20.048072    20.765148    7085.7146    7979.8365    7751.4148    6764.8773    386.61545   -492.00735   -122.61628    -2671.281 
 6672000    265.10187   -3883.3987   -3429.0232   -3883.3987            0    9888.4189    16.940318    19.953457    20.667149    6985.8667    9127.0936    9323.5451    11214.618    106.10521    -236.6983    1174.1967   -2421.5743 
 6673000    260.57359   -3875.0391   -3428.4249   -3875.0391            0    9515.7759    16.934139    19.946179     20.65961    6978.2248    8897.5677    9297.5872    10352.173    135.69782    679.16737   -2015.7822   -2460.0019 
 6674000    265.49849   -3884.7518   -3429.6965   -3884.7518            0     8039.023    17.002701    20.026936    20.743256    7063.3275     8399.395    7895.2491    7822.4249    1124.9366   -856.64396    -16.85456   -2601.5856 
 6675000    264.98705   -3855.0949   -3400.9161   -3855.0949            0    9898.1889    16.930804    19.942251    20.655542    6974.1029    10399.127    9360.1035     9935.336   -537.23286   -685.68087    -358.4316     -2394.17 
 6676000    254.98339   -3873.6543   -3436.6215   -3873.6543            0    10620.652    16.967253    19.985183    20.700009    7019.2418    9884.7141    10658.217    11319.025    1352.1421   -1886.8189    33.494684   -2349.4019 
 6677000      283.295   -3868.6734   -3383.1155   -3868.6734            0    7557.0868     16.96675    19.984591    20.699396    7018.6179    8131.2878     6396.622    8143.3505    587.41948    854.56474    1749.7767    -2609.577 
 6678000    259.76105    -3843.915   -3398.6935    -3843.915            0    9523.0783    16.963341    19.980575    20.695236    7014.3876    9030.2144     9388.767    10150.253    261.56827      2344.67   -37.857023    -2424.505 
 6679000    240.40658   -3822.8632   -3410.8146   -3822.8632            0    8275.9861    16.953454     19.96893    20.683174    7002.1302    7229.5282    9556.9649    8041.4653   -1006.4383   -145.07291   -98.860089   -2565.6801 
 6680000    266.10227   -3870.5414   -3414.4512   -3870.5414            0    9117.3272    16.965733    19.983392    20.698154    7017.3551    9204.3325    7221.0835    10926.565    1338.9699    668.40382   -76.799278   -2481.3755 
 6681000    261.07912   -3850.3379   -3402.8572   -3850.3379            0    9232.0547    16.957059    19.973176    20.687573     7006.598    8921.2171     7410.398    11364.549    1842.8942     1005.203    62.381317   -2459.4885 
 6682000    268.02759   -3846.8819   -3387.4918   -3846.8819            0    7418.4622    17.011275    20.037035    20.753716    7074.0188    7968.0379    8022.7847    6264.5639   -365.23948   -768.71629   -538.41908    -2622.149 
 6683000    256.45831   -3881.1342   -3441.5734   -3881.1342            0     7834.958     16.96015    19.976816    20.691343    7010.4296    7208.0691    8810.9975    7485.8072   -475.01463    594.81243    737.61553   -2640.5279 
 6684000     250.9327   -3881.3167   -3451.2266   -3881.3167            0    9896.3625    16.949299    19.964036    20.678105    6996.9831    11343.365    10072.026    8273.6967   -189.70975   -529.69041    -826.1612   -2441.3639 
 6685000    266.15356   -3854.7707   -3398.5926   -3854.7707            0     9676.281    16.861707    19.860864    20.571244    6889.0642    9754.5397    9438.0725    9836.2306   -362.33048    1159.5163      71.0736   -2426.4172 
 6686000    266.91404   -3871.6624   -3414.1809   -3871.6624            0     8059.464     16.95734    19.973506    20.687915    7006.9455    6987.0302    7684.3926    9506.9691    658.13511    208.90865    1495.7497   -2590.5914 
 6687000    255.85333   -3879.5981   -3441.0743   -3879.5981            0    9007.6467    16.890644    19.894947    20.606546    6924.5921    7303.9903    10506.837    9212.1125    408.54771    -390.5557    593.00815   -2531.4094 
 6688000    287.59383   -3888.9467   -3396.0208   -3888.9467            0    8833.1711    16.935341    19.947595    20.661076    6979.7107    10799.826    7409.6942    8289.9929    387.38824    717.07662    872.41635   -2496.8753 
 6689000    265.12244   -3881.1727    -3426.762   -3881.1727            0    10048.599    16.916697    19.925635    20.638331     6956.685    10793.166    9288.5375    10064.092    484.46203    1862.7131    56.803748   -2407.2702 
 6690000    278.79198   -3835.1439    -3357.304   -3835.1439            0    9838.6957    16.904138    19.910842    20.623009     6941.202    11402.409    7914.2616    10199.417   -235.94666   -859.92118    695.73883   -2361.3298 
 6691000    271.54724   -3826.6292   -3361.2066   -3826.6292            0    9580.6675    16.864224    19.863829    20.574314    6892.1496    9314.9301    10641.137    8785.9351    601.78193    209.67103    193.88203   -2398.2064 
 6692000    252.78056   -3804.8453   -3371.5881   -3804.8453            0    9311.4337    16.871423    19.872307    20.583096    6900.9791     9576.594    10096.679    8261.0282     724.6161   -2483.6161   -115.69754   -2434.4509 
 6693000    270.92559   -3836.4751   -3372.1179   -3836.4751            0    10331.623    16.873258    19.874469    20.585335    6903.2312    11678.343    7856.8622    11459.663   -7.1269388   -48.430416   -421.51969   -2331.9658 
 6694000    258.37971   -3822.3543   -3379.5003   -3822.3543            0    8846.5942    16.957654    19.973877    20.688299    7007.3358    8655.1236    10427.483    7457.1759    1659.2432    773.25652    2007.3881   -2475.4244 
 6695000    259.16863   -3874.8728   -3430.6666   -3874.8728            0    5375.0605    17.050693    20.083464    20.801806    7123.3076    5042.6063    7105.0198    3977.5555   -11.417616    249.02652   -789.45311   -2872.2724 
 6696000     264.4702   -3857.0609   -3403.7681   -3857.0609            0    8175.2466    16.950449     19.96539    20.679509    6998.4077    8109.0216    6400.3139    10016.404   -205.34001   -159.85669    13.110891   -2569.3648 
 6697000    261.67808   -3855.9981   -3407.4908   -3855.9981            0    9258.4089    16.941556    19.954915    20.668658    6987.3975    7767.8836    9769.6694    10237.674   -496.60072    437.95524    163.08308   -2464.0217 
 6698000    267.79401    -3858.962   -3399.9722    -3858.962            0    8605.1133    16.991893    20.014206     20.73007    7049.8664    6275.9029      10234.5    9304.9371     1468.135   -184.66608    396.59763   -2515.2369 
 6699000    268.79226   -3858.8742   -3398.1735   -3858.8742            0    8678.2903    16.953499    19.968982    20.683229    7002.1857     8809.727    8568.9638    8656.1802    137.18968    1947.7639    290.33976   -2511.9491 
 6700000    260.80889   -3886.4635    -3439.446   -3886.4635            0    7281.8622    17.038918    20.069595     20.78744    7108.5599    5900.7051    8932.2926     7012.589     51.46538   -350.24259    651.44831   -2684.5277 
 6701000      263.638   -3874.1207   -3422.2541   -3874.1207            0    7796.5593    16.951512    19.966642    20.680805    6999.7236    7330.8644    8155.0333    7903.7801   -431.62018   -1227.5485     128.6035   -2626.3518 
 6702000    271.61606    -3880.348   -3414.8074    -3880.348            0    9141.7214    16.949447     19.96421    20.678286    6997.1665    7955.1968    10178.057      9291.91    56.749933   -240.65227   -183.87916   -2481.9268 
 6703000    254.28959   -3881.1844   -3445.3407   -3881.1844            0    9840.4099    16.933255    19.945137    20.658531    6977.1314    9625.3556     8816.094     11079.78    160.49793    699.30257   -142.64978   -2444.0366 
 6704000    268.09973   -3888.4807    -3428.967   -3888.4807            0    9731.0271     16.97815    19.998018    20.713303    7032.7744    9513.5065    11217.281    8462.2933   -1841.9405   -1097.9536   -1385.8018   -2430.8964 
 6705000    254.14719   -3897.9454   -3462.3458   -3897.9454            0    7308.5844    16.980041    20.000245     20.71561    7035.1241    6919.6724    7280.6371    7725.4437   -322.40963     996.8693   -1156.4295   -2712.4846 
 6706000    262.33836   -3895.3856   -3445.7467   -3895.3856            0    9500.1251    16.989264    20.011109    20.726862    7046.5942    8923.2458    9938.7878    9638.3417   -1360.8297    1305.6778   -155.76903    -2469.444 
 6707000    251.82853   -3873.9861   -3442.3607   -3873.9861            0    7521.8009    17.074349    20.111328    20.830666    7152.9975    6828.2246     8580.322    7156.8562   -968.34938    1759.2922   -547.36687   -2657.6929 
 6708000    278.43927   -3888.9028   -3411.6674   -3888.9028            0    8449.5282    16.985173     20.00629    20.721871    7041.5051    8976.5982    7864.4252     8507.561    1452.4813    1.8978873    423.32547    -2543.959 
 6709000     263.0225   -3884.1873   -3433.3758   -3884.1873            0    9669.7592    17.036183    20.066374    20.784104    7105.1379    10199.455    9559.1541    9250.6681   -195.91386   -1072.1891    66.988033   -2431.3842 
 6710000    275.68777   -3864.8629   -3392.3435   -3864.8629            0    7207.0173    17.098384    20.139638    20.859989    7183.2471    7301.9553    7447.7878     6871.309    746.95905   -1156.1598    1012.7787   -2637.3343 
 6711000    256.26587   -3840.0561   -3400.8252   -3840.0561            0    10193.341    16.970662    19.989199    20.704168    7023.4739    10521.975    9763.5549    10294.492   -88.236459    642.52141   -380.62919   -2356.7197 
 6712000    241.69244   -3819.2174   -3404.9649   -3819.2174            0    7354.6352    17.080101    20.118103    20.837684     7160.229    6006.0204     7918.457    8139.4283    1835.8954    1463.6119    2011.2556   -2636.9601 
 6713000    275.43766   -3863.1972   -3391.1065   -3863.1972            0    7365.2133    17.054872    20.088386    20.806904    7128.5459    7447.6303    8431.5264    6216.4831   -1874.2454    742.04382   -527.03959   -2625.4003 
 6714000    263.66842   -3860.4038   -3408.4852   -3860.4038            0    7718.3737     17.04221    20.073472    20.791456    7112.6806    6900.0436    7143.7627    9111.3148    356.13253   -187.27217    1444.7707   -2607.8494 
 6715000    258.62459   -3898.6083   -3455.3347   -3898.6083            0    9160.0035    16.924496    19.934821    20.647846    6966.3109    8287.8614    10309.044    8883.1048   -348.36917    89.507913   -770.54012   -2524.7104 
 6716000    255.30135   -3870.3604   -3432.7826   -3870.3604            0    6923.8116    17.059926    20.094339     20.81307    7134.8855    7842.4233    5870.5014    7058.5102    1326.7658     1425.199   -46.817513   -2712.3255 
 6717000    246.92546   -3854.3465   -3431.1247   -3854.3465            0    8614.1101    16.989544    20.011439    20.727204    7046.9432    7526.7722    9900.5369    8415.0212    591.91919    -1112.996    57.104693   -2545.8316 
 6718000    263.75152   -3843.1355   -3391.0744   -3843.1355            0    9438.8903    16.983554    20.004384    20.719897    7039.4926    9241.5066    8960.8782    10114.286   -730.09651   -1764.6751    -469.0353   -2422.0423 
 6719000     266.2785   -3852.7757   -3396.3835   -3852.7757            0    9040.4559     17.02255    20.050316    20.767472     7088.094    9642.9661    8933.0612    8545.3403    787.37226    43.420915    125.30215   -2461.8482 
 6720000    262.21645   -3872.6201   -3423.1901   -3872.6201            0    9173.3348    16.957818     19.97407    20.688499     7007.539    7531.4747    9317.4884    10671.041    1010.0975   -692.38144    982.99521   -2485.6957 
 6721000    269.74382    -3887.247   -3424.9153    -3887.247            0     8046.952      16.9287    19.939772    20.652974    6971.5024    8633.3076    7595.5252    7912.0232    552.88627   -1242.6048    1170.0625   -2606.7639 
 6722000    269.34972   -3901.7349   -3440.0787   -3901.7349            0    7105.4738    16.999452    20.023109    20.739292    7059.2796    6947.6104    6776.5534    7592.2577    40.401409   -982.23156    751.75197   -2708.5534 
 6723000    258.99489   -3857.2214    -3413.313   -3857.2214            0    9538.9719    16.866938    19.867025    20.577625    6895.4774    9634.5028    8101.3556    10881.057   -238.77612   -148.56203    1055.0655   -2454.0409 
 6724000    260.85301   -3874.1048   -3427.0116   -3874.1048            0    8534.2386    16.945108    19.959098    20.672992    6991.7933    8017.2892    10130.074     7455.353   -1006.6956    737.52113    969.24559   -2556.7912 
 6725000    265.31692   -3883.9483   -3429.2041   -3883.9483            0     10130.13    16.904853    19.911683    20.623881    6942.0822      10799.7    9428.6521    10162.037      839.885   -146.22538   -932.13407   -2403.5979 
 6726000     259.4341   -3828.0168   -3383.3556   -3828.0168            0    9329.9929    16.876093    19.877808    20.588794    6906.7113    10107.992    8376.5069      9505.48    252.36114    278.66623    -1002.465   -2443.5707 
 6727000    280.49259   -3830.3662   -3349.6115   -3830.3662            0    7342.2278    16.995757    20.018757    20.734784    7054.6772    6900.7718    10323.634    4802.2772    1559.1013   -923.97729   -317.65499   -2594.2047 
 6728000    268.35243   -3838.0119   -3378.0651   -3838.0119            0    10021.959    16.943349    19.957028    20.670847    6989.6172    9995.9743    10332.287    9737.6167    1142.9648    712.66958    59.198816   -2356.4626 
 6729000    269.51554    -3872.174   -3410.2336    -3872.174            0    9147.1743     17.00637    20.031257    20.747732    7067.9009    8216.2973    10790.757    8434.4684   -501.55952    194.15374  -0.61944861   -2467.3604 
 6730000    276.21909   -3882.7016   -3409.2715   -3882.7016            0    8482.6664     17.05203    20.085039    20.803437    7124.9834    8626.4349    11297.335    5524.2297    738.75214    764.44995   -2241.5735   -2527.8328 
 6731000    267.29646   -3880.3792   -3422.2422   -3880.3792            0    8984.7296    17.027775     20.05647    20.773846    7094.6232    7919.0506    9930.2357    9104.9026   -71.310738    358.79007   -1849.8379    -2492.612 
 6732000    265.28681    -3877.125   -3422.4325    -3877.125            0    8594.1538    16.948912     19.96358    20.677633    6996.5039    10792.352    7279.1309    7710.9784   -177.07864    511.25156   -1104.1128   -2545.5123 
 6733000    256.47405   -3871.0306   -3431.4428   -3871.0306            0    9548.5045    16.941008     19.95427     20.66799    6986.7202    8777.5577     10056.87    9811.0857    242.28601   -681.95652   -1234.9271   -2458.5061 
 6734000    258.25081   -3835.4415   -3392.8084   -3835.4415            0    6848.8514    16.967282    19.985217    20.700045    7019.2782    8651.5372    6343.7033    5551.3136     733.5008    962.80196    172.48363   -2691.6985 
 6735000    261.44554   -3870.0638   -3421.9551   -3870.0638            0    9190.4875    16.931981    19.943637    20.656977    6975.5571    8925.6839    10415.605    8230.1738    415.44103     -169.176    97.103419   -2486.9945 
 6736000    252.70789    -3836.853   -3403.7203    -3836.853            0    8061.6451    16.992111    20.014462    20.730336    7050.1378    9365.6614    5349.5373    9469.7365    119.42764    597.73152    978.81947   -2574.8298 
 6737000    273.68457   -3863.4125   -3394.3265   -3863.4125            0    7829.3187    16.961921    19.978903    20.693504    7012.6264    10337.535    8144.5953    5005.8255   -1167.6426   -281.50571   -795.54263   -2593.6067 
 6738000    266.79369   -3833.0067   -3375.7314   -3833.0067            0    8189.3064    16.943147    19.956789      20.6706    6989.3667    10527.624    7197.1258    6843.1698   -1304.2667    2817.8527   -932.21288   -2540.9729 
 6739000    260.44216   -3837.1467   -3390.7578   -3837.1467            0    8479.6989    16.953605    19.969107    20.683358    7002.3168    9827.3526    6415.6665    9196.0774    224.76855   -1009.6504    21.548706   -2524.7973 
 6740000    258.76893   -3840.8259   -3397.3048   -3840.8259            0    8273.2654    17.009076    20.034445    20.751033    7071.2754     9228.079    7909.1023     7682.615    1121.4123    268.06239   -288.28502   -2544.1053 
 6741000    249.63309   -3853.4538   -3425.5912   -3853.4538            0    8430.4676    16.968083     19.98616    20.701021    7020.2716    10028.879    7887.3527    7375.1712   -443.68124   -1906.1789   -401.15082   -2562.4508 
 6742000    268.94003   -3863.7962   -3402.8422   -3863.7962            0    7503.1506    16.997518    20.020831    20.736932      7056.87    8988.1926    5402.8805    8118.3787    1142.2532    2067.0632    1563.6024   -2630.6389 
 6743000    266.40082   -3828.0372   -3371.4354   -3828.0372            0    10541.515    16.962769    19.979901    20.694538    7013.6776    9660.0029    10174.982    11789.559     608.0769     270.1045    -911.5205   -2293.1724 
 6744000    273.99111   -3860.5626   -3390.9512   -3860.5626            0    8836.4472    16.938213    19.950977     20.66458    6983.2622     8651.806    8853.5684    9003.9671    645.23194    522.73939    411.61571   -2491.0146 
 6745000    271.13895   -3839.6905   -3374.9676   -3839.6905            0    7960.0384    16.979547    19.999664    20.715008     7034.511    5149.6395    10395.644    8334.8321    274.25866    912.07344    76.378218   -2558.3383 
 6746000    250.16795    -3859.789   -3431.0097    -3859.789            0    6482.9593    17.008557    20.033833      20.7504     7070.628    7181.8542    6722.6071    5544.4164   -285.21889     -668.918    -64.28211   -2762.5009 
 6747000    262.63593   -3868.9643   -3418.8153   -3868.9643            0    9352.7839    16.970921    19.989503    20.704484    7023.7951    9060.8262     9784.929    9212.5966    843.37881   -100.99099   -224.23224   -2460.7643 
 6748000     272.0102   -3862.9438   -3396.7276   -3862.9438            0    8510.5094    16.983407     20.00421    20.719717    7039.3095    9395.3001     8741.346    7394.8822   -326.45483    1211.1202   -873.49075   -2523.0293 
 6749000    261.12627    -3892.107   -3444.5455    -3892.107            0    8665.0614    16.959939    19.976567    20.691085    7010.1677    8849.3815    7637.1147     9508.688   -388.04996    148.28049    930.94158   -2558.6634 
 6750000    274.28502   -3843.2869   -3373.1717   -3843.2869            0    8744.4284    16.967086    19.984986    20.699806    7019.0347    7602.6986    9642.5313    8988.0554   -1400.1345   -1093.0645    451.24174   -2478.0446 
Loop time of 521.227 on 64 procs for 250000 steps with 864 atoms

Performance: 82.881 ns/day, 0.290 hours/ns, 479.637 timesteps/s
99.2% CPU use with 64 MPI tasks x 1 OpenMP threads

MPI task timing breakdown:
Section |  min time  |  avg time  |  max time  |%varavg| %total
---------------------------------------------------------------
Pair    | 22.029     | 26.938     | 31.446     |  48.2 |  5.17
Bond    | 0.2784     | 0.29508    | 0.31702    |   1.1 |  0.06
Kspace  | 214.8      | 229.42     | 245.23     |  53.1 | 44.01
Neigh   | 4.9614     | 6.3404     | 7.7621     |  37.8 |  1.22
Comm    | 114.72     | 133.29     | 150.91     |  78.8 | 25.57
Output  | 1.019      | 1.0208     | 1.0388     |   0.3 |  0.20
Modify  | 115.3      | 119.85     | 125.43     |  28.3 | 22.99
Other   |            | 4.073      |            |       |  0.78

Nlocal:        13.5000 ave          18 max           8 min
Histogram: 1 1 2 7 13 7 5 18 8 2
Nghost:        2258.06 ave        2292 max        2221 min
Histogram: 5 6 2 7 7 9 10 9 4 5
Neighs:        4392.14 ave        6258 max        2296 min
Histogram: 2 1 5 11 11 8 14 4 6 2

Total # of neighbors = 281097
Ave neighs/atom = 325.34375
Ave special neighs/atom = 2.0000000
Neighbor list builds = 14371
Dangerous builds = 0

unfix		3
unfix		2
unfix		1

write_data	data.final.${pid}
write_data	data.final.0
System init for write_data ...
PPPM initialization ...
  extracting TIP4P info from pair style
  using 12-bit tables for long-range coulomb (../kspace.cpp:340)
  G vector (1/distance) = 0.37429998
  grid = 24 24 24
  stencil order = 5
  estimated absolute RMS force accuracy = 0.003156627
  estimated relative force accuracy = 9.5060884e-06
  using double precision FFTW3
  3d grid and FFT values/proc = 2535 216
Last active /omp style is kspace_style pppm/tip4p/omp
WARNING: Not all mixed pair coeffs generated from mixing. Use write_data with 'pair ij' option to store all pair coeffs. (../write_data.cpp:312)

write_restart   restart.lmp.${pid}
write_restart   restart.lmp.0
System init for write_restart ...
PPPM initialization ...
  extracting TIP4P info from pair style
  using 12-bit tables for long-range coulomb (../kspace.cpp:340)
  G vector (1/distance) = 0.37429998
  grid = 24 24 24
  stencil order = 5
  estimated absolute RMS force accuracy = 0.003156627
  estimated relative force accuracy = 9.5060884e-06
  using double precision FFTW3
  3d grid and FFT values/proc = 2535 216
Last active /omp style is kspace_style pppm/tip4p/omp
Total wall time: 0:08:43
