LAMMPS (30 Jul 2021)
  using 1 OpenMP thread(s) per MPI task
package omp 0
using multi-threaded neighbor list subroutines
echo both

include		in.partitions
variable        pid world 0
include		in.temp
variable        temperature equal 276.43
variable	tempDamp equal 100.0
include		in.pressure
variable        pressure equal 10250.0
variable        pressureDamp equal 1000.0 # This is 1 ps
include		in.seed
variable        seed world 745823

units		real
atom_style	full
read_restart	restart.lmp.${pid}
read_restart	restart.lmp.0
Reading restart file ...
  restart file = 30 Jul 2021, LAMMPS = 30 Jul 2021
  restoring atom style full from restart
  orthogonal box = (-0.10350489 -0.098938022 -0.094061022) to (24.833506 24.828939 22.904061)
  4 by 4 by 4 MPI processor grid
  restoring pair style lj/cut/tip4p/long/omp from restart
  restoring bond style harmonic/omp from restart
  restoring angle style harmonic/omp from restart
  1920 atoms
  1280 bonds
  640 angles
Finding 1-2 1-3 1-4 neighbors ...
  special bond factors lj:    0        0        0       
  special bond factors coul:  0        0        0       
     2 = max # of 1-2 neighbors
     1 = max # of 1-3 neighbors
     1 = max # of 1-4 neighbors
     2 = max # of special neighbors
  special bonds CPU = 1.591 seconds
  read_restart CPU = 1.927 seconds
include 	in.setup
variable	out_freq equal 1000
variable	out_freq2 equal 10000
variable	out_freq3 equal 1000

timestep	2.0

neigh_modify    delay 7 every 1

include		in.tip4p
# This is TIP4P/Ice

# create groups ###
group ox type 2
640 atoms in group ox
group hy type 1
1280 atoms in group hy

# set charges - beside manually ###
set group ox charge -1.1794
Setting atom values ...
  640 settings made for charge
set group hy charge 0.5897
Setting atom values ...
  1280 settings made for charge

# ### TIP3P Potential Parameters ###
pair_style lj/cut/tip4p/long/omp 2 1 1 1 0.1577 8.5
pair_coeff 1 1*2 0.000 0.000
pair_coeff 2 2 0.21084 3.1668
bond_style  harmonic
bond_coeff  1 450 0.9572
angle_style harmonic
angle_coeff 1 55 104.52
kspace_style pppm/tip4p/omp 1.0e-5
pair_modify tail yes

thermo          ${out_freq}
thermo          1000
thermo_style    custom step temp pe etotal epair emol press lx ly lz vol pxx pyy pzz pxy pxz pyz enthalpy

restart 	${out_freq3} restart.lmp.${pid} restart2.lmp.${pid}
restart 	1000 restart.lmp.${pid} restart2.lmp.${pid}
restart 	1000 restart.lmp.0 restart2.lmp.${pid}
restart 	1000 restart.lmp.0 restart2.lmp.0


include         in.dump
dump            myDump all atom ${out_freq2} dump.water.${pid}
dump            myDump all atom 10000 dump.water.${pid}
dump            myDump all atom 10000 dump.water.0
dump            myDump2 all dcd ${out_freq2} dump.dcd
dump            myDump2 all dcd 10000 dump.dcd
dump_modify     myDump append yes
dump_modify     myDump2 append yes


variable natoms 	equal  "count(all)"                        # NUMBER ATOMS
variable H      	equal  "enthalpy/v_natoms"                 # ENTHALPY-per-atom
variable Vol      	equal  "vol/v_natoms"                 # volume-per-atom
fix AVG all 		ave/time ${out_freq} 1 ${out_freq} v_Vol v_H file vol_enthalpy.dat
fix AVG all 		ave/time 1000 1 ${out_freq} v_Vol v_H file vol_enthalpy.dat
fix AVG all 		ave/time 1000 1 1000 v_Vol v_H file vol_enthalpy.dat




fix 		1 all shake 1e-6 200 0 b 1 a 1
       0 = # of size 2 clusters
       0 = # of size 3 clusters
       0 = # of size 4 clusters
     640 = # of frozen angles
  find clusters CPU = 1.638 seconds
fix             2 all nph aniso ${pressure} ${pressure} ${pressureDamp}
fix             2 all nph aniso 10250 ${pressure} ${pressureDamp}
fix             2 all nph aniso 10250 10250 ${pressureDamp}
fix             2 all nph aniso 10250 10250 1000
fix             3 all temp/csvr ${temperature} ${temperature} ${tempDamp} ${seed}
fix             3 all temp/csvr 276.43 ${temperature} ${tempDamp} ${seed}
fix             3 all temp/csvr 276.43 276.43 ${tempDamp} ${seed}
fix             3 all temp/csvr 276.43 276.43 100 ${seed}
fix             3 all temp/csvr 276.43 276.43 100 745823


run             250000
PPPM initialization ...
  extracting TIP4P info from pair style
  using 12-bit tables for long-range coulomb (../kspace.cpp:340)
  G vector (1/distance) = 0.37444568
  grid = 30 30 30
  stencil order = 5
  estimated absolute RMS force accuracy = 0.0032719119
  estimated relative force accuracy = 9.8532656e-06
  using double precision FFTW3
  3d grid and FFT values/proc = 3600 512
Last active /omp style is kspace_style pppm/tip4p/omp
Neighbor list info ...
  update every 1 steps, delay 7 steps, check yes
  max neighbors/atom: 2000, page size: 100000
  master list distance cutoff = 10.8154
  ghost atom cutoff = 10.8154
  binsize = 5.4077, bins = 5 5 5
  1 neighbor lists, perpetual/occasional/extra = 1 0 0
  (1) pair lj/cut/tip4p/long/omp, perpetual
      attributes: half, newton on, omp
      pair build: half/bin/newton/omp
      stencil: half/bin/3d
      bin: standard
Per MPI rank memory allocation (min/avg/max) = 9.330 | 9.339 | 9.345 Mbytes
Step Temp PotEng TotEng E_pair E_mol Press Lx Ly Lz Volume Pxx Pyy Pzz Pxy Pxz Pyz Enthalpy 
 1000000    281.31734   -9031.8286   -7959.3186   -9031.8286            0    10226.293    24.937011    24.927877    22.998122    14296.248    10863.791    9829.4713    9985.6173   -220.45626   -757.39963   -526.49397   -5827.1762 
 1001000    272.06612   -9020.3662   -7983.1261   -9020.3662            0    11370.854    24.999083    24.900453    22.856827    14228.112    9876.2582    13344.455    10891.849   -1637.5248    289.57987   -250.93159   -5623.6464 
 1002000    276.91994   -9029.7321   -7973.9871   -9029.7321            0    10507.495    24.882741    24.817313    23.096995    14262.921        11473    10470.616    9578.8693   -378.55537    73.946317   -89.623244   -5788.3223 
 1003000    274.13804   -9025.8819   -7980.7426   -9025.8819            0    10495.301    24.965856    24.905744    22.946486    14267.969    10206.557    11200.891    10078.453   -545.97316    299.44292     -1097.91   -5796.8416 
 1004000    262.22916   -9018.4401   -8018.7029   -9018.4401            0    10719.578    24.899571    24.977338    22.938092    14265.773    10695.652    10769.981    10693.099   -1129.0221    744.20279   -1200.0669    -5788.477 
 1005000    278.55067   -9028.0833   -7966.1211   -9028.0833            0    10252.973    24.771164    25.083448    22.999165    14290.444    11811.093    8049.8827    10897.941   -942.10691   -475.22125    832.58686   -5829.2841 
 1006000     282.1582    -9011.058   -7935.3422    -9011.058            0    10910.077    24.920296    25.015764    22.898047    14274.647    10929.745    9693.5727    12106.914   -763.33469   -152.12175    131.52432   -5664.0704 
 1007000    267.84877    -9022.464   -8001.3023    -9022.464            0    10781.383    24.862004    24.881754    23.051856    14260.115    11260.258    10861.743    10222.148   -415.18958   -967.69102   -591.73865   -5759.1073 
 1008000    274.77523   -9052.6964   -8005.1279   -9052.6964            0    9535.4044    25.002613    24.900604    22.934865    14278.792    9453.1786    9677.1598    9475.8749    1617.6908    201.52293   -1287.9805   -6019.4606 
 1009000    275.49752   -8977.4789   -7927.1567   -8977.4789            0    11102.069    25.033708    24.949252    22.819458    14252.402     9967.385    11039.861    12298.961    552.37516   -824.15962    312.46083   -5619.5178 
 1010000    274.71874   -9006.8139   -7959.4608   -9006.8139            0    10783.722    24.835882    24.910578    23.092639    14286.866    10894.194     10914.38    10542.591   -501.30406   -238.32215     943.1191   -5712.5722 
 1011000    275.49046     -9043.47   -7993.1748     -9043.47            0    9770.9246    24.992222    25.132227    22.775332    14305.418    9662.6809    9079.9071    10570.186   -1003.3169    94.363185    61.174343   -5954.6683 
 1012000    281.20133   -9012.0356   -7939.9679   -9012.0356            0    9630.9925    24.904523    25.032451    23.041149    14364.342    9377.4735    10291.654    9223.8503   -610.81198    23.579026   -589.62644   -5922.3791 
 1013000    281.77198   -9032.5341   -7958.2908   -9032.5341            0    9520.1938    24.859435     25.00675    23.079775    14347.627    9710.6244    9056.8928    9793.0642    398.70605   -522.71435   -405.46441   -5966.2338 
 1014000    269.80057   -9064.2413   -8035.6385   -9064.2413            0    9583.2004    24.954517     24.96711    22.952773    14300.545    9139.5403    9477.0388    10133.022    287.18053   -332.33495   -164.85264   -6036.9779 
 1015000    276.06879   -9046.4565   -7993.9564   -9046.4565            0    9080.0507    25.040884    24.964627    22.900207    14315.751    8882.8199    9631.3848    8725.9475   -430.06815   -739.71015    830.73573   -6098.2184 
 1016000    277.98531   -9033.0993   -7973.2925   -9033.0993            0    10376.342    25.067605     24.87605     22.96688    14321.756    9558.4268    11305.532    10265.069   -469.70977     848.8798   -335.89075   -5806.0054 
 1017000    283.59832    -9053.823   -7972.6168    -9053.823            0    10670.857     25.03778    24.822969    22.940943    14258.072    9417.1448    12451.077     10144.35    94.230687    50.697682   -467.22806   -5753.7257 
 1018000    269.86192    -9056.341   -8027.5043    -9056.341            0    9373.9228    24.971343    24.914762    23.033563    14330.448    8397.8459    10660.975    9062.9476   -693.64543     1183.678   -1174.8689   -6068.4024 
 1019000    271.57321   -9027.3915   -7992.0306   -9027.3915            0    11332.554    25.071626    24.827741    22.885183    14245.382    10710.575    11019.136    12267.951   -30.017866    491.79671   -915.88943   -5637.6439 
 1020000    271.46494   -9050.4244   -8015.4763   -9050.4244            0    9632.4218    25.002309    24.941279    22.940491     14305.45    9150.3243    10048.884    9698.0574    424.79985    442.62143   -919.86972    -6005.861 
 1021000     284.4213   -9101.3768   -8017.0331   -9101.3768            0    8674.9761    24.925342    24.941498    23.080946    14348.855    9913.9118    8381.4595    7729.5569    595.48343   -819.82269   -471.37379   -6201.6787 
 1022000    284.58828   -9027.9082   -7942.9279   -9027.9082            0    10086.628    24.937913    25.028752    22.905627    14296.887    10264.614    9937.5925    10057.677     124.5334   -1002.7866    1049.2617   -5839.8112 
 1023000     273.0438   -9075.4042   -8034.4368   -9075.4042            0    9853.5344    24.914411    24.952635    22.950975    14268.167    10457.548    10010.873    9092.1821   -353.31886     759.2726    988.05936   -5984.0485 
 1024000    277.94186   -8980.3408   -7920.6997   -8980.3408            0    9211.4508    24.960361    24.919892    23.073873    14352.168    10118.322    9836.3704      7679.66   -335.55182    259.44332    484.00114   -5992.6357 
 1025000     274.1764   -9028.7934    -7983.508   -9028.7934            0    8680.4405    25.108078    24.887801     23.00832    14377.551    7488.9192    10114.711    8437.6912    55.057457    165.45368    336.55997   -6163.3773 
 1026000    274.18612   -8996.4537   -7951.1312   -8996.4537            0    10161.774    25.003376     24.95195     22.95194    14319.325    10474.736    9720.0667    10290.521    963.56106     299.1089   -768.27339   -5829.0207 
 1027000    275.23512    -9033.092   -7983.7702    -9033.092            0    7900.0774    24.999115    24.907655    23.183078    14435.392    8839.5614    7767.7326    7092.9381    35.248361    1564.7812   -731.40758   -6320.6034 
 1028000     279.4861   -9073.6437   -8008.1152   -9073.6437            0    9093.0839       24.985    25.069769    22.859866    14318.693    8851.9892    7856.0233    10571.239   -885.39399   -104.69935   -1188.7536   -6109.2661 
 1029000     268.4958   -9035.0736   -8011.4452   -9035.0736            0    9082.2902    24.961128    24.992723    23.003519    14350.666    8662.0508    9072.5707    9512.2491   -507.73149   -10.913131    85.821108    -6110.615 
 1030000    278.98214   -9030.7342   -7967.1271   -9030.7342            0     8655.263    24.974069    24.951212    23.117058    14405.008    8545.7686    9221.3847    8198.6356   -178.63494    435.24839   -1141.9435   -6148.8098 
 1031000    290.33852   -9049.9328     -7943.03   -9049.9328            0    7986.8437    24.998735    25.078345    22.980512    14407.101    7858.4795    7194.0535    8907.9979   -645.42476    586.17265    936.68423   -6264.8919 
 1032000    276.48264   -9006.7882   -7952.7103   -9006.7882            0    9962.0349    24.973517    25.028009    22.906765    14317.585    8591.9993    10601.966    10692.139   -319.00788     1048.535    410.00121   -5872.5647 
 1033000    277.33035   -9034.8662   -7977.5565   -9034.8662            0    8984.9053    24.878131    25.096292    23.008294    14365.201    10070.982    7078.1837    9805.5504    390.53755   -428.32258   -1123.5462   -6095.2033 
 1034000    263.68541   -9051.5103   -8046.2213   -9051.5103            0    9409.8633    24.859957     25.00389      23.0399    14321.501    10005.345      9234.11    8990.1347   -312.66428   -587.22627   -428.06695   -6080.8357 
 1035000     268.3869   -9079.5861   -8056.3728   -9079.5861            0    9677.4162    24.881987    25.100876    22.877425    14288.317    9507.7387    8300.3538    11224.156     31.24925    58.518336    487.11806   -6039.7886 
 1036000    266.35613   -9014.8644   -7999.3934   -9014.8644            0    9952.2868    24.803688    25.027025    23.037651    14300.911    11397.897    8723.4472    9735.5159   -344.34385   -121.25508   -10.341137   -5923.7035 
 1037000    272.88188    -9023.893   -7983.5428    -9023.893            0    10198.274    24.835402    24.986759    22.992726    14268.279    11321.424    9943.6606    9329.7372   -400.80847    670.48718    131.45999   -5861.4022 
 1038000    285.67707   -9037.8201   -7948.6888   -9037.8201            0    11554.071    24.851632    24.965355    22.891604    14202.634     11664.65    11014.662    11982.902   -89.150493    1185.3951    511.07589   -5555.4843 
 1039000    272.06134   -9046.0866   -8008.8647   -9046.0866            0    11272.339    24.702441    25.036965    23.049627    14255.598    12068.921    10490.474    11257.622    -534.6511   -544.09235   -137.34747   -5665.3085 
 1040000     274.1146   -9040.2769    -7995.227   -9040.2769            0    12068.647    24.850879    24.928723    22.933987    14207.621    12215.975    11941.071    12048.896   -60.842094   -319.34541    1100.7893   -5494.5602 
 1041000    270.44203   -9068.3016   -8037.2532   -9068.3016            0    11244.378    24.991057    24.930998    22.839909    14230.451    9869.6138    11557.388    12306.132    434.46946    133.43209   -767.28084   -5703.6341 
 1042000    278.51002   -9059.4426   -7997.6354   -9059.4426            0     9460.107    24.831466    25.053062    23.024798    14323.824    10295.674    9434.7169    8649.9306     555.5401   -785.07828   -807.11104   -6021.4352 
 1043000    271.88927   -9007.5241   -7970.9582   -9007.5241            0    9302.8008    24.914915    25.037853    23.000988    14348.384    9092.3077    9139.0035    9677.0913   -653.27916   -298.98964   -784.17075    -6024.287 
 1044000    274.59757   -9042.6778   -7995.7866   -9042.6778            0    9964.6086    24.970543    24.922895    22.983062    14303.238    9389.2259    10586.664    9917.9357   -48.471687    595.16564    473.09287   -5917.1886 
 1045000    272.59475   -9088.1867   -8048.9312   -9088.1867            0    10848.103     24.98238    24.918816    22.863331     14233.14     9621.958    11830.151      11092.2   -27.520719   -46.634169    508.94581   -5797.1281 
 1046000    284.36373   -9015.9485   -7931.8243   -9015.9485            0    9780.5288    24.943433    24.863273    23.073787    14309.795    9931.6327    10651.545    8758.4083    922.59578    -133.7215    277.56986   -5890.6898 
 1047000    282.12273   -9074.4215    -7998.841   -9074.4215            0    10863.417    24.873873    24.818678     23.04891    14228.936    10382.035    12094.269    10113.947   -61.798746   -533.52542    961.12637   -5744.5251 
 1048000    277.35033   -9055.2024   -7997.8165   -9055.2024            0    9581.6076     24.91341    25.061941    22.936522    14321.069    10471.702    8236.7691    10036.352   -179.51619    391.41232   -89.152638     -5996.62 
 1049000    285.99586   -9057.5768   -7967.2302   -9057.5768            0    8581.6534    24.915021    25.098509    22.958071    14356.368    10100.953    6944.3311    8699.6757    1065.0746    521.24904   -203.86344   -6170.4645 
 1050000    278.19044   -9012.2401   -7951.6513   -9012.2401            0    11268.521    24.795344    24.974712    23.017939     14254.01    12394.868    11258.792    10151.902   -152.29812    1613.9098    183.30214   -5609.1499 
 1051000    282.73241    -9047.271   -7969.3662    -9047.271            0    9959.8494     24.93784    25.025681    22.930957    14310.899    9365.2988    9780.0052    10734.244   -333.10528    658.48605    879.38964   -5890.6482 
 1052000    267.18302   -9004.4844   -7985.8609   -9004.4844            0    10753.974    24.845268    24.981121    23.052258    14307.675    10989.018    10562.654    10710.249    257.22638   -244.76748    779.32642    -5741.907 
 1053000    267.96573   -9013.0163   -7991.4087   -9013.0163            0    10253.681    24.900664    25.082878    22.938624    14327.013    10983.143    9258.6683    10519.232    127.23849   -295.81451    660.36231   -5848.9554 
 1054000     278.2148   -9027.1758   -7966.4941   -9027.1758            0    8884.7054    25.012565    25.023837    22.946928    14362.719    9457.3237    8675.0948    8521.6977    289.67479   -444.54685   -122.82307   -6105.4546 
 1055000    293.44507    -9068.513   -7949.7666    -9068.513            0    9999.6556     24.94488    24.908098    23.028908     14308.54    9663.1648    9672.1823     10663.62    328.11109   -479.81187    480.72663   -5863.0847 
 1056000     280.1036   -8996.4171   -7928.5344   -8996.4171            0    11184.857    25.061277    24.892722     22.81376    14232.213    10400.515     12525.37    10628.685   -146.60576    8.0288119   -895.80435   -5606.9805 
 1057000    274.82458   -9032.3192   -7984.5625   -9032.3192            0    10101.605    24.951337     24.81398    23.099388    14301.801    9560.3824    12461.113    8283.3194    793.00932    793.03474    -729.8842   -5877.5991 
 1058000    275.59202   -9052.0142   -8001.3317   -9052.0142            0    10228.933    25.004799     24.94341    22.914836    14292.097    8969.2989     11666.94     10050.56   -291.11581   -197.87469   -172.72081   -5869.2583 
 1059000    269.53329   -9013.8902   -7986.3064   -9013.8902            0     10286.45    24.880781     25.02139     22.92029    14269.066    10726.779    9867.8962    10264.676   -131.55921    923.81507   -314.98689   -5845.6992 
 1060000    268.11079   -9052.3597   -8030.1991   -9052.3597            0    10773.384     24.79553    24.901812    23.123723    14277.826    11327.295    11282.982    9709.8756   -598.38288   -1661.4101    478.89769   -5786.8848 
 1061000    270.41598   -9045.8598   -8014.9108   -9045.8598            0     8537.987    25.016221    25.075912    22.863952    14342.661    8442.0157    8039.8017    9132.1436    174.89151   -278.45241    -882.8665   -6228.9944 
 1062000    277.65738   -9031.4219   -7972.8653   -9031.4219            0    9671.4869     24.85309    24.995352    23.037792    14311.347    9454.0367    10470.693    9089.7313    -1098.947   -474.19526     1098.126   -5954.2682 
 1063000     278.5941    -8983.013   -7920.8852    -8983.013            0    11240.685    25.033025    24.925872    22.874655    14273.098    10597.818    11719.605    11404.632   -741.18353    416.14419    903.68016   -5581.0411 
 1064000    280.74059   -9039.5864   -7969.2753   -9039.5864            0    10319.592    25.032576    24.895566    22.885551    14262.279     9804.806    9460.3164    11693.655   -158.26065   -1001.1666   -45.085044   -5822.7927 
 1065000    270.22847   -9065.5401    -8035.306   -9065.5401            0    9459.9379    24.898588    24.979207    23.025484    14320.631    10661.972    8286.0166    9431.8251   -768.09177    228.33644   -409.39934   -6059.5818 
 1066000       283.12   -8995.2271   -7915.8446   -8995.2271            0     9858.558    24.984823    24.958494    23.054006    14376.099    10924.541    9917.7176    8733.4156    -103.0799   -323.09549   -409.60255   -5848.8928 
 1067000    275.30464   -9086.9466   -8037.3598   -9086.9466            0    9240.8641    25.062337    25.086492    22.773489    14318.287    9164.6322    8617.9033    9940.0569    650.29326   -1423.6151   -23.802591   -6107.7053 
 1068000    269.25491    -9052.919   -8026.3965    -9052.919            0    9595.6917    24.921741    24.888395    23.085126    14318.829    8437.1908     10682.35    9667.5341   -294.03534   -50.867853   -70.707632    -6022.572 
 1069000    274.04696   -9064.0969   -8019.3049   -9064.0969            0    10845.291    24.904019     25.13372    22.749519    14239.622     9909.127    10095.373    12531.374    228.58694   -917.32189     28.48828   -5767.0603 
 1070000    269.72639   -9039.4211   -8011.1011   -9039.4211            0    10851.896    24.867465    25.003073    22.889885    14232.084    10858.323     11388.06    10309.304   -1558.9473   -933.32651    -1401.842   -5758.6778 
 1071000    273.57888     -9018.15   -7975.1426     -9018.15            0    10438.715    24.763195    25.048968    22.984275    14256.973    11843.824    10028.786    9443.5345   -261.32854    -804.7535    410.81392   -5804.6903 
 1072000    278.05911   -9001.5095   -7941.4214   -9001.5095            0    11156.138    24.781189    25.089227    22.955501    14272.373    13061.255    9567.5136    10839.646    1158.3849    236.13022    474.91211   -5619.2944 
 1073000    271.89551   -9104.8983   -8068.3086   -9104.8983            0    10015.915    24.869318     25.02043    22.917698    14260.332    11261.567    9859.1079    8927.0703    8.3396007   -186.50391   -365.67603   -5985.2756 
 1074000    283.50353   -9044.2775   -7963.4327   -9044.2775            0    10996.672    24.839589    24.958895    22.982681    14248.542    11503.645    11170.933    10315.439    827.35981    341.73718   -201.01665   -5678.3201 
 1075000    277.84674   -8996.9763   -7937.6979   -8996.9763            0    11131.461    24.973712     24.89393    22.961197    14274.835    11059.935    11076.763    11257.684    209.00745   -887.97628    10.633343   -5620.3078 
 1076000    275.65979   -9020.3045   -7969.3637   -9020.3045            0    12227.856    24.953022    24.848299    22.914423    14207.863    12529.458    11783.886    12370.224    508.98042    366.83918   -807.06126    -5435.665 
 1077000    268.73101   -9040.9158   -8016.3907   -9040.9158            0    12391.728    24.882398    24.786367    23.002851    14186.876        12362    12837.822    11975.361     881.3865    344.35135   -1118.9931   -5452.5294 
 1078000    281.90577   -9010.5677   -7935.8143   -9010.5677            0    10518.321    25.053532    24.958444    22.819945    14269.247    11239.192    9037.5729    11278.198    241.57196    734.99099    691.46397   -5746.9271 
 1079000    269.34122   -9032.6215   -8005.7699   -9032.6215            0     11076.52     24.89219    24.937915    22.970359    14259.064    11527.657    10823.324     10878.58   -210.85942   -780.28743   -594.63257   -5702.3653 
 1080000    275.20409   -9033.2206   -7984.0171   -9033.2206            0    10245.218    24.959931    24.874125    22.982572    14268.878    9376.1927      10483.7    10875.762   -150.71608   -667.88095   -437.13935   -5852.0184 
 1081000    290.53387   -9057.0959   -7949.4483   -9057.0959            0    9887.7078    25.062566    24.983764    22.836505    14299.243    8476.6561     10102.42    11084.047    264.60833    881.92622      79.9653   -5887.4678 
 1082000    276.57936   -9042.6168   -7988.1702   -9042.6168            0    10190.495    24.878855    24.954905    23.001891    14280.711    10231.137      10241.4    10098.948    198.75336    367.16454    1020.8745   -5865.8006 
 1083000     271.0312   -9078.5664   -8045.2719   -9078.5664            0    9727.2807    24.851968    25.051839    22.957327    14292.945    9525.9762    10001.808    9654.0583    820.69762    41.048429   -167.24139   -6017.6402 
 1084000    280.90934   -9011.1627   -7940.2082   -9011.1627            0    8840.9877    24.999129    25.063694    22.915915    14358.436    8451.3089    8931.0159    9140.6383   -178.61571    315.92434    248.02092   -6088.8783 
 1085000    270.59175    -9026.749   -7995.1299    -9026.749            0    9848.9593    24.860961    24.936921     23.05963    14295.951    12001.146    9018.4332    8527.2989   -79.309665    775.26596    139.54563   -5941.7027 
 1086000    276.63251   -9037.1277   -7982.4784   -9037.1277            0    8964.8327    24.914869    25.022943    22.982651    14328.381    9146.2393    8491.3222    9256.9366    35.756792    559.50427    751.51182   -6109.1445 
 1087000    278.77566    -9051.727   -7988.9071    -9051.727            0    10436.956    24.890612    24.859125    23.036374     14253.96    9834.2119    11543.373    9933.2831   -304.16493   -1095.9386    345.37144    -5819.279 
 1088000    278.98365   -9000.6305   -7937.0176   -9000.6305            0    10070.526    24.978424    24.965007    22.992408    14337.756    9573.7366    10292.845    10344.997   -1695.6344    131.51675   -477.55922   -5831.2558 
 1089000    265.61087   -9043.8163   -8031.1865   -9043.8163            0    12241.621     24.97862    24.814613    22.849503    14162.917    11372.032    12854.402    12498.429    449.71489    129.66233   -58.119211   -5502.6599 
 1090000    279.31159   -9030.5953   -7965.7322   -9030.5953            0    10936.491    24.956501    24.940999    22.914661    14263.003    9783.5675    12345.871    10680.034    277.37949    771.96839    325.10484   -5690.8188 
 1091000    271.89277   -9042.9437   -8006.3644   -9042.9437            0    11753.896    24.960864    24.836879    22.883518    14186.636     9522.457    13527.925    12211.307   -273.01605   -9.6339467   -861.68282   -5574.5123 
 1092000    280.44839   -9048.4217   -7979.2245   -9048.4217            0    9369.5119    24.979491    24.903987    22.990962    14302.423    10061.805    9723.4053    8323.3253   -625.96152   -308.67744    108.06439    -6024.874 
 1093000    274.55216   -9009.1717   -7962.4537   -9009.1717            0    10194.773    24.935061    24.869057    23.079161    14311.652    9813.4376    10078.057    10692.824   -89.500364    942.53653    1686.1791   -5834.5929 
 1094000    282.98537   -9063.8892   -7985.0199   -9063.8892            0    10483.075    24.908751    24.987646    22.907394    14257.816    11187.237    10583.426    9678.5614    -791.1846   -1872.8502    429.84605   -5805.2152 
 1095000    259.83338   -9040.3749   -8049.7715   -9040.3749            0    11173.925    24.954504    24.941049     22.86831    14233.042    11168.354    11502.763    10850.659    380.90411    364.32289    844.22262   -5730.3516 
 1096000     280.9171   -9048.1186   -7977.1345   -9048.1186            0    10540.841    24.839619    24.825818    23.176103    14291.866    10764.884    11289.193    9568.4462    287.77582   -122.36768    1141.5535   -5780.0838 
 1097000    279.39082   -9034.6944   -7969.5292   -9034.6944            0    9899.9904    24.974075    24.951393    22.949578    14300.754    9694.1407    10406.325    9599.5051    528.49261   -942.00414   -630.20795   -5904.7691 
 1098000    270.57037   -9078.6846    -8047.147   -9078.6846            0    9631.9203    24.943177    25.078526    22.843341    14289.381    10469.559    8453.5579    9972.6445   -572.34644   -253.39747    359.26755   -6039.8937 
 1099000     271.8915   -9007.9359   -7971.3615   -9007.9359            0     9163.426    24.813156    25.025507    23.114162    14353.012    9465.1954    9863.1514    8161.9311   -476.49096   -1254.1853    686.49596   -6053.2369 
 1100000    273.11227   -9068.9005   -8027.6719   -9068.9005            0    9972.9996    24.881146     25.06226    22.937758    14303.476    10492.357    9430.7923    9995.8499    18.981015    302.97157   -520.53309    -5947.289 
 1101000      277.327    -9056.718    -7999.421    -9056.718            0    10119.877    25.031113    25.116382    22.726769    14288.115    10319.652    9148.4933    10891.486   -947.85164    1007.8901    399.71929   -5890.6663 
 1102000    279.85969   -9015.2101   -7948.2573   -9015.2101            0    10275.249    24.847341    24.949128    23.099672    14319.937    10710.559    9675.4815    10439.705      -461.63    556.49015    56.379463   -5802.3581 
 1103000    281.03951   -9052.4707     -7981.02   -9052.4707            0    9442.3952    24.991186    25.004965    22.899192    14309.791    9048.6533    9215.4666    10063.066   -237.48198     -70.6194   -965.71535   -6010.4523 
 1104000    268.37327   -9029.4252   -8006.2639   -9029.4252            0     8241.495    24.999874    24.975728    23.103543    14425.623    7933.4899    9037.9213    7753.0739    798.16248   -564.91974   -254.93855   -6272.3942 
 1105000    271.64607   -9016.7461   -7981.1074   -9016.7461            0    10099.112    24.992737    24.921903    23.013833    14334.547    9317.7174    10737.573    10242.047   -274.83891    446.74316    -16.31908   -5869.8408 
 1106000    283.62911   -9100.7182   -8019.3947   -9100.7182            0    10388.144    24.898634    24.976821    22.931937    14261.113    10634.727    10271.839    10257.865    -274.9293    92.723726   -325.66824   -5858.8301 
 1107000    275.82343    -9038.589   -7987.0243    -9038.589            0    10947.472    24.920321    25.056891    22.829088     14255.07     11691.53    10421.422    10729.463     513.0795      488.011    531.26054   -5711.0934 
 1108000    278.87854   -9040.2508   -7977.0386   -9040.2508            0    12212.875    24.838218    24.863765    23.033383    14224.764    11725.498    11708.779    13204.349    232.95084   -494.65862    590.18238   -5443.4339 
 1109000    270.84879   -9027.6072   -7995.0081   -9027.6072            0    9974.9836    24.932922    24.953784    22.941843    14273.743     9807.718    10990.777     9126.456    1533.6765   -970.20866    506.10353   -5918.5367 
 1110000    266.04439   -9023.7501   -8009.4676   -9023.7501            0    10158.765    24.997029    25.016066    22.866531    14299.066     9600.166    10478.351    10397.778    80.245229   -1054.3818    -810.8087    -5890.987 
 1111000    274.39116   -9032.1084   -7986.0042   -9032.1084            0    9177.9724    24.871797    24.982977    23.110627    14360.286     11726.23     8128.717    7678.9698   -992.97637    -266.5968    191.09265    -6063.861 
 1112000    273.17049   -9021.9048   -7980.4543   -9021.9048            0     8942.561    24.898093    25.110694    22.974276     14363.71    9806.1796    8523.9284    8497.5749   -91.772618    332.47129   -216.43635   -6107.1669 
 1113000    276.25396   -9040.3653   -7987.1592   -9040.3653            0    9736.4918    24.959143    24.995101    22.945611    14314.764    9087.8509    9416.2797    10705.345   -568.89701   -670.51876    541.91156   -5954.5094 
 1114000    280.32967   -8993.6292   -7924.8846   -8993.6292            0    10984.454    24.895119    24.832604    23.106621    14284.759    11580.608    11976.092    9396.6619    119.97313   -346.39098    216.52591   -5636.5092 
 1115000    285.41069   -9012.9747    -7924.859   -9012.9747            0     10559.72    24.914086    25.057701    22.824046    14248.817     11307.48    10247.704    10123.976    123.68158    43.973366    1003.5637    -5730.503 
 1116000    281.74798   -9075.3954   -8001.2436   -9075.3954            0    11112.437    24.883262    24.817404    23.023066    14217.617    9838.5481    11373.282    12125.483   -917.77088   -29.223577    880.02404   -5697.0868 
 1117000    274.94398   -9103.0606   -8054.8487   -9103.0606            0    10447.806    24.913575     24.95319    22.966311    14277.539    9377.4598    10663.525    11302.432   -50.800955    243.58952   -1492.0741   -5879.3725 
 1118000    266.29642   -9066.8169   -8051.5735   -9066.8169            0    10616.106    24.964094    25.007345    22.827881     14251.12    9791.4397    10791.191    11265.688    382.84384    712.81998    857.97265   -5845.1435 
 1119000    273.97481   -9034.1951   -7989.6782   -9034.1951            0    10338.265    24.835019    24.909413    23.094569    14286.894    11535.697    10258.971    9220.1262   -25.756213   -124.53909   -108.72621   -5835.6004 
 1120000    280.11304   -9073.0484   -8005.1298   -9073.0484            0    9697.1622    24.984597    24.945869    22.960454     14310.39    9618.2748    9937.0713    9536.1407    640.44622    1007.4177    287.23214   -5981.3092 
 1121000    273.95767   -9044.7706    -8000.319   -9044.7706            0    10924.589    24.951859    24.961418    22.910102    14269.186     10722.93    11194.641    10856.196    26.683087   -90.750192   -660.06518   -5726.8963 
 1122000    279.89769   -9030.3447    -7963.247   -9030.3447            0    9970.2974    24.868229    24.838323    23.144819     14296.21    9289.3638    11228.505    9393.0234    536.09862   -27.338334    306.08387   -5884.4843 
 1123000    271.98013   -9058.9746   -8022.0623   -9058.9746            0    9632.0656    24.877073    25.045783    22.981772    14319.155    10874.181    9216.8426    8805.1736   -506.50635    165.55515   -725.91786   -6010.5962 
 1124000    285.57376   -9042.0148   -7953.2774   -9042.0148            0    9232.6931    24.881881    25.111796    22.942869    14335.363    9717.3426    8837.0051    9143.7316   -230.97927    1013.6059     746.1409     -6023.03 
 1125000    282.15537   -9003.6504   -7927.9454   -9003.6504            0    10871.148    24.885503    25.002511    22.951317    14280.311    12024.187    10552.402    10036.853    268.33895    1087.9836    -910.9003   -5663.8802 
 1126000    278.42991   -9057.5101   -7996.0083   -9057.5101            0    10667.427    24.898531    24.941316    22.933861    14241.976    11175.718     10253.54    10573.023   -510.20271   -1075.8335    665.47117   -5780.3345 
 1127000    285.97023   -9053.5678   -7963.3188   -9053.5678            0    12925.823    24.910857    24.853222    22.865126    14156.144    12730.676    12257.266    13789.528   -305.10814   -514.59957    182.09159   -5294.7459 
 1128000    279.44733   -9067.4838   -8002.1032   -9067.4838            0    10448.336    24.915912    24.901903    22.980749    14258.489    10346.902    11108.527    9889.5792     656.5198    1009.7023    460.74038   -5829.4194 
 1129000    276.27406   -9022.3924   -7969.1097   -9022.3924            0    10160.003    24.906996    24.916611    23.020363    14286.389    9668.6944     11083.71    9727.6044   -851.82098     -851.317    1101.0117   -5852.2494 
 1130000     270.9515   -9065.6544   -8032.6637   -9065.6544            0    10151.039    25.056086    24.945771    22.784622    14241.377    8965.2099    11151.958    10335.948     210.5372   -1313.1428    47.229671   -5924.3348 
 1131000    277.37489   -9079.7977   -8022.3181   -9079.7977            0    10854.928    24.937034    24.808549    22.992131    14224.119    10172.582     12451.44    9940.7608    669.64459   -111.01378    44.077091   -5770.5265 
 1132000    279.43382   -9063.7334   -7998.4042   -9063.7334            0     9387.735     24.91267     24.92387    23.129529     14361.59    9329.5553    10024.775    8808.8745    61.943462   -592.28628   -1810.4564   -6032.1519 
 1133000    272.79076   -9046.7357   -8006.7329   -9046.7357            0    9303.1847    25.019539    24.979437    22.952852    14344.935     8612.962    9600.8005    9695.7916   -190.29041   -551.25549    852.61029   -6060.4493 
 1134000    272.62235   -9080.0869   -8040.7261   -9080.0869            0    8510.0754    25.173154    24.877365     22.91663     14351.35    6962.7353    10254.184    8313.3068    320.66188    767.51985    1156.3916   -6259.5697 
 1135000    266.18574   -9067.8777   -8053.0563   -9067.8777            0     9540.107    24.940479    24.897448     22.98292    14271.343    10772.211    9652.2028    8195.9075    475.05949   -1143.0696    441.34958   -6067.4462 
 1136000    271.87605   -9028.2149   -7991.6994   -9028.2149            0    9865.2771    25.066777    24.977474    22.870017    14319.027    8858.4381    10539.733    10197.661   -551.66479   -410.28399    -152.9912   -5931.5502 
 1137000    269.32879   -9046.4769   -8019.6727   -9046.4769            0    9771.8541    24.871765    24.826334    23.166431    14304.686    9520.7265    10325.373    9469.4629    534.58202   -595.26078    1234.7695   -5981.0766 
 1138000    271.45235   -9020.7524   -7985.8522   -9020.7524            0    10675.356    24.935724    25.043654    22.862451    14277.181    11307.039    9883.4449    10835.584   -520.34055   -429.97726    270.13937   -5763.0505 
 1139000    270.28979    -9067.942   -8037.4741    -9067.942            0    11018.123    24.825335     25.02011    22.903699    14226.234    11263.726    10916.709    10873.933   -191.78938    135.95895    510.68769   -5751.4887 
 1140000    283.02766    -9067.915   -7988.8845    -9067.915            0    9983.3131    24.833759    25.032395    22.967713    14277.844    10349.371    9907.1731    9693.3949    167.07158    878.32345    263.70824   -5910.0821 
 1141000    270.86837   -9054.1726   -8021.4988   -9054.1726            0    9139.0797    24.861667    25.196403    22.878567    14331.697    9474.0772    8077.8417    9865.3202    347.23918   -91.719345    -100.2234   -6111.3115 
 1142000    280.41902   -9095.2252   -8026.1401   -9095.2252            0       9742.1    24.839624     24.95247    23.035738     14277.78    9710.2613    10398.525    9117.5136    798.66157    363.29516   -24.831917    -5997.574 
 1143000    280.63231   -9063.3944    -7993.496   -9063.3944            0    9096.0936    24.941238    25.023503    22.984299    14344.895    9857.5799     8946.448    8484.2529    -792.4507   -501.32312    239.91457   -6090.5424 
 1144000    272.33006   -9033.7947   -7995.5483   -9033.7947            0    10101.656    24.888554    24.928686    23.003002    14271.958    11416.602    9583.0748     9305.291   -583.14772   -393.38664    652.15212   -5892.9707 
 1145000    282.68409   -9004.2324   -7926.5118   -9004.2324            0    10602.794    24.909177    24.900089    23.046555    14294.412    12169.162      10105.8    9533.4199    588.40143   -42.243517   -132.48053   -5716.1542 
 1146000    270.41237   -9034.6525   -8003.7172   -9034.6525            0    9324.3158    25.078082    25.009487    22.836739    14322.974    7937.7928    8754.6309    11280.524   -1154.8988    1490.3729   -282.60449   -6055.9993 
 1147000    273.44792   -9047.2854   -8004.7772   -9047.2854            0    10217.648    24.914524    24.901512    23.038238    14293.137    10316.793     10545.79    9790.3627    948.54957    -180.8421    606.15462   -5874.9008 
 1148000    271.85318    -9062.719   -8026.2907    -9062.719            0    10245.729    24.953479    24.885972    22.973749    14266.505    11244.199    9985.4238    9507.5629   -177.65993   -107.16013   -1136.7384   -5894.5404 
 1149000    277.08596   -9037.6643   -7981.2863   -9037.6643            0    9968.4909     25.07896    24.913587    22.909982    14314.314    9658.5494    10990.948    9255.9756    514.21273    1100.7112   -218.47903   -5900.2683 
 1150000    272.41387   -9049.7695   -8011.2036   -9049.7695            0    9600.2814    24.995791    24.704768     23.16933    14307.414    9616.3286    10529.695    8654.8208    390.74654    271.00848   -33.128481   -6008.0189 
 1151000    280.66366   -9047.5666   -7977.5488   -9047.5666            0    10051.632     25.02772    24.932871    22.926878    14306.668    9067.4779    10947.026     10140.39   -873.08742    1233.2986   -249.79049   -5880.2952 
 1152000    263.24788   -9024.0775   -8020.4565   -9024.0775            0     10031.82    24.919887    24.876432    23.060396    14295.552    10137.593    10583.139    9374.7288   -224.80126    467.76304   -6.8886416   -5928.9628 
 1153000    283.62446   -9056.1696   -7974.8638   -9056.1696            0    9592.5444    24.952811    25.027484    22.940176    14326.279    9161.2177    10210.771    9405.6441    610.67198    552.40872   -152.09559   -5970.6543 
 1154000    273.00757   -9078.0599   -8037.2305   -9078.0599            0    9897.7401    24.932542    24.876097    23.020813    14278.068    10218.093    10269.713    9205.4145    245.11535    245.08185   -115.20433   -5976.2144 
 1155000    269.93919   -9020.0526   -7990.9213   -9020.0526            0    10572.467    24.962165    24.852648    22.994441    14265.197    11235.767    10884.539    9597.0955   -567.16069   -1337.8583   -795.56635   -5791.3907 
 1156000    259.41156   -9067.2161    -8078.221   -9067.2161            0    11257.866    24.976562     25.01996    22.699203    14185.017    9627.5485    10512.074    13633.974    601.11582   -93.181822    683.63267   -5749.2621 
 1157000    270.34755   -9031.7678   -8001.0797   -9031.7678            0    11056.285    24.923431    24.851133    23.038383     14269.41    10813.254    12804.203    9551.3989    -197.7711   -20.143864   -585.88569   -5700.2147 
 1158000    276.59999     -9042.12   -7987.5947     -9042.12            0    10976.662    24.914469    24.981789    22.955524    14287.702    11231.875    10316.947    11381.162    430.41256   -575.99932    471.29264   -5700.3715 
 1159000    279.84076   -9027.5606   -7960.6799   -9027.5606            0    10028.627    24.917079    25.024389    22.927677    14296.202    10450.193    8303.3367    11332.351   -476.28856   -227.89432   -362.08621   -5869.7569 
 1160000    274.51863   -9038.4718   -7991.8816   -9038.4718            0    10493.366    24.682181    24.949138    23.153481    14257.894    11776.578    10893.527    8809.9922   -61.298392   -993.20836    378.99445   -5809.9252 
 1161000    271.89583   -9081.5219    -8044.931   -9081.5219            0     11217.85    24.866904    24.964905    22.887043    14208.274    11986.397    10449.115     11218.04   -158.77461    -1102.485    707.71151   -5720.4454 
 1162000    285.07707   -9076.8147   -7989.9709   -9076.8147            0    10370.976    24.812009    25.040051    22.970929      14271.7     10726.56    9884.3975    10501.969    143.12877   -1204.5728    783.39056   -5831.3757 
 1163000    275.28456   -9029.7948   -7980.2845   -9029.7948            0    10644.544    24.844354    24.959987    23.039493    14287.129    11516.313    11096.417    9320.9014   -81.275089   -512.07589    1514.7592   -5762.3541 
 1164000    270.76876   -9054.4707   -8022.1767   -9054.4707            0    10408.783    25.006152    24.970887    22.928339    14317.046    10112.396    9977.8898    11136.063    37.504656   -627.19799    435.78204   -5848.8288 
 1165000    268.21856   -9017.6442   -7995.0728   -9017.6442            0    9539.7808    25.043342    24.789868    23.098722    14340.175    8629.7615      11491.2    8498.3808    1174.9263    701.93604    451.46929   -5999.9541 
 1166000    288.28348   -9063.5865   -7964.5184   -9063.5865            0    8832.8357    25.019549    25.043283    22.863542    14325.647    8363.3286     8474.249    9660.9296    269.20313    682.54549   -292.90922   -6119.1194 
 1167000    266.45836   -9089.6814   -8073.8206   -9089.6814            0    7945.1049    24.956114    24.976735    23.009392    14342.266    7783.0223    8126.7394     7925.553   -534.66887   -58.242316    1701.2241   -6411.9649 
 1168000    288.75016   -9037.9267   -7937.0794   -9037.9267            0    10128.139    25.030048     24.77372    23.081079    14312.286    9255.7997    11113.889    10014.727    138.53142   -303.44034    1056.7516   -5823.0329 
 1169000    274.33659   -9032.0793   -7986.1832   -9032.0793            0     9758.785    25.057445    24.947238    22.889466    14308.526     8536.362    9960.3458    10779.647   -168.90344    1655.6843    1435.7668    -5949.767 
 1170000    272.59521   -9037.9421   -7998.6848   -9037.9421            0    10924.243     24.96133    24.758127    23.046726    14242.779    9802.0936    13497.899    9472.7367   -484.57813    2.0711656   -1112.9716   -5729.5412 
 1171000    276.83485   -9044.0372   -7988.6165   -9044.0372            0    11088.147    24.909109    24.872746    22.959809    14224.932    10743.221     11506.92    11014.299    245.43484   -1229.0351   -381.22786   -5688.3134 
 1172000    273.53378   -9040.3153   -7997.4797   -9040.3153            0    11327.626    24.781805    25.041579     22.93917    14235.487    13652.394    9146.3828    11184.099   -94.334739    608.14211    1322.1539   -5645.7516 
 1173000    278.89986   -9054.3756   -7991.0822   -9054.3756            0    10101.071    24.799188    25.072678    22.954694    14272.817    10381.999    9919.8067    10001.408   -419.35804    -729.8384    531.02682   -5888.4999 
 1174000    265.47953   -9034.3004   -8022.1714   -9034.3004            0    10148.785    24.865126    25.033543    22.934921    14276.122    11705.939    8284.0576    10456.358    488.17007    138.07164    893.56685   -5909.1681 
 1175000    274.05731   -9049.6595   -8004.8281   -9049.6595            0    9562.8193    24.828384    25.097151    22.949232    14300.165    10869.222     7965.029    9854.2065    565.88294   -359.49789    689.31786   -6010.4712 
 1176000    276.48832    -9080.927   -8026.8275    -9080.927            0    10098.894    24.988214     24.95958    22.882162    14271.498    10521.341    9239.7624    10535.578   -1338.7203    87.709888   -69.984779   -5924.8926 
 1177000     269.2229   -9010.9489   -7984.5484   -9010.9489            0     9470.375    24.887207    24.886445    23.169345    14350.029     9881.014    9802.9749     8727.136    -568.1868    67.509765    183.13351    -6002.584 
 1178000    272.68792   -9043.8019   -8004.1912   -9043.8019            0     8711.878    24.994102    25.012802    22.937117    14339.655    8110.1871    8528.8309    9496.6162    216.28941    1093.8181     308.6733   -6182.2834 
 1179000    274.48177   -9077.3043   -8030.8546   -9077.3043            0    7852.0608    24.962276    25.037266    23.047714    14404.524    8988.6064    7834.3248    6733.2513    140.49404   -552.20905     262.2075   -6381.3313 
 1180000    262.26682   -9033.5364   -8033.6556   -9033.5364            0    9348.1996    25.016693    24.939712    22.959962     14324.93    8018.5103    9962.7634    10063.325   -60.359396   -684.35805    212.93927   -6080.6821 
 1181000    275.20003   -9053.6711   -8004.4831   -9053.6711            0    9794.3108    25.007038    24.968798    22.917301    14309.464    8948.7031    9778.9989     10655.23   -1160.8398   -807.50043    177.57636   -5960.5197 
 1182000    281.83592   -9027.6008   -7953.1138   -9027.6008            0    11075.668    24.971358    24.909591    22.919427    14256.487    10553.718    11566.184    11107.102     408.9365    586.12328    939.79589   -5650.3026 
 1183000    277.71953   -9052.1727   -7993.3792   -9052.1727            0    10433.109    24.907364    24.924724    23.004708    14281.534    11762.676    9396.0737    10140.578   -370.89543    492.48094     469.7012   -5820.3553 
 1184000    283.46721   -9048.6217   -7967.9154   -9048.6217            0    11181.315    24.838154    24.991159    22.916581    14225.106    11903.286    11090.374    10550.286   -438.53578    -506.2311   -20.408174   -5648.2555 
 1185000    285.56045   -9017.8805   -7929.1938   -9017.8805            0     11463.68    24.908267    24.975161    22.896821    14243.837    12131.745    12286.722    9972.5716   -217.58379    99.943865    427.80641   -5547.8235 
 1186000    282.87467   -9025.9789   -7947.5317   -9025.9789            0    10063.518    24.915252    24.895539    23.026093    14282.593    9386.2136    11675.359    9128.9828    82.061456    440.74834   -316.51049   -5851.3313 
 1187000    267.04332     -9079.29   -8061.1991     -9079.29            0    9952.1701    24.990483    24.953125    22.931724    14300.008    10405.173    8373.1602    11078.178   -882.14741   -816.39179    101.10207   -5985.6645 
 1188000    276.88038   -9010.6927   -7955.0984   -9010.6927            0    10543.181    24.971897    24.894587    22.966325    14277.362     10987.82     9923.696    10718.027   -1350.1196   -586.59657    301.84743   -5759.7901 
 1189000    272.92454   -9093.8687   -8053.3559   -9093.8687            0    9979.7436    24.927258    24.981637     22.93774    14283.874    9705.6946    10924.069    9309.4669    -938.5029   -1317.0749   -243.94331   -5974.4191 
 1190000    280.31375   -9011.7221   -7943.0383   -9011.7221            0    10778.588    24.923155    24.961738    22.974148    14292.798    11459.608    11074.195    9801.9621    1017.2081   -175.76783    600.79756   -5696.2868 
 1191000    283.86491    -9072.021   -7989.7985    -9072.021            0    9251.2605    24.919016    24.914182    23.069739    14322.545    9187.2817    9549.3287    9017.1711   -456.37778   -208.43528    1331.0665   -6057.3986 
 1192000     282.2818   -9049.0061   -7972.8191   -9049.0061            0     10109.87    24.930313    25.043607    22.902823    14299.263    10304.033    9416.5425    10609.035    137.26722   -253.95608   -430.56812   -5864.5061 
 1193000    280.72593   -9056.2291   -7985.9739   -9056.2291            0    11040.461      24.9468    24.956039    22.862981    14233.882    11000.568    10408.237    11712.579   -940.05992   -529.47104    830.41786   -5694.1224 
 1194000    267.46765   -9022.6757    -8002.967   -9022.6757            0    9903.0468     25.02786    24.853136     23.00388    14308.892    8932.8965    11456.868    9319.3755   -316.26642   -491.46489    623.98466   -5936.3941 
 1195000    276.20201   -9037.5244   -7984.5164   -9037.5244            0     10851.86    24.961146    24.819622    22.982754    14238.419    10321.818    10985.861    11247.903      719.585   -1002.7933    582.16571   -5731.0979 
 1196000     280.1799     -9034.89   -7966.7165     -9034.89            0    10324.988    25.034849    24.994479    22.819125     14278.68    9783.6465    10192.995    10998.323   -127.50503    574.17614   -29.230581    -5816.642 
 1197000    274.37111   -9033.8744   -7987.8466   -9033.8744            0     9107.418    24.926148    25.071572    22.921811    14324.704     9371.504    8572.1231    9378.6269    659.82059    305.16329    209.33533   -6085.2057 
 1198000    276.49972   -9021.6169   -7967.4738   -9021.6169            0    9820.9995    24.906802    25.003445    22.981456    14311.836    9263.6384    9880.4561    10318.904     539.7216   -30.308792   -66.264609   -5917.6009 
 1199000    275.57029   -9005.8139   -7955.2143   -9005.8139            0     10438.39    24.836363    25.063751     22.97297    14300.499    11741.483    8578.9357     10994.75   -833.89304   -1816.7224    1266.8165   -5778.2035 
 1200000    276.75241   -9045.6324    -7990.526   -9045.6324            0     9970.701    24.963394    24.910707    22.988995     14295.84    8554.9252    10748.178        10609   -109.87187   -246.50371    440.24575   -5911.7329 
 1201000    287.10204   -9030.7179   -7936.1539   -9030.7179            0     11297.55    24.956192     24.80365    23.009774    14243.157     11265.24    12751.383    9876.0277   -651.36522    676.32277    330.90517    -5589.406 
 1202000    275.22633   -9041.8704   -7992.5821   -9041.8704            0    10801.638    25.059684    24.881921    22.842591    14243.112    9353.7968    10930.098     12121.02   -129.60173    636.66257    -1170.825   -5748.8531 
 1203000    270.58723   -9072.9593   -8041.3574   -9072.9593            0    11833.842    24.944043    24.861695    22.902021    14202.716    10726.793    12213.933    12560.802    674.49133   -262.89276    1193.5113   -5590.1895 
 1204000    278.51089   -9028.2788   -7966.4683   -9028.2788            0    9909.6361    24.929791    24.959748    22.977155    14297.335    10912.498    10258.714    8557.6971    972.71707   -764.85048   -841.76452   -5900.1906 
 1205000    272.83558   -9074.0934   -8033.9198   -9074.0934            0    9754.9348    24.851293    24.948893    23.036969    14283.203    10314.665    10277.589    8672.5498    96.763088   -1184.9589    547.86692   -6001.9096 
 1206000    271.17262   -9109.7652   -8075.9315   -9109.7652            0     9447.238    24.973707    25.009584    22.836139    14263.042    9314.7091    9021.0621    10005.943   -451.47323   -122.89313   -7.1164106   -6110.7942 
 1207000    269.90878   -9026.3787   -7997.3633   -9026.3787            0    9695.7011    24.863622    24.879944    23.112276    14297.382    10498.097     11117.83    7471.1765   -863.57505   -966.25503     239.0021    -5975.687 
 1208000    272.14042   -9030.8384    -7993.315   -9030.8384            0    9738.8959    24.926822     24.95492    22.993903    14303.285     9686.985     9118.319    10411.384   -297.80048    25.185538   -474.81475   -5961.7935 
 1209000    278.77589   -9020.5616   -7957.7408   -9020.5616            0    8996.8531    24.943105    25.065347    22.934124    14338.588    9027.0398    9312.1672    8651.3522    1156.5148   -270.82009   -748.19096   -6076.3764 
 1210000    271.90465   -9012.4136   -7975.7891   -9012.4136            0    9698.1636    24.925056     24.95765    23.022688    14321.742    10373.231    9267.1398    9454.1203   -594.59733   -719.58421    579.00024   -5950.1539 
 1211000    278.39323   -9027.3461   -7965.9842   -9027.3461            0     9691.122    24.889693    25.158811    22.885521    14330.801    9232.5609    8879.7465    10961.059     284.4036     114.5126   -242.13149   -5940.5393 
 1212000    278.02136   -9076.3182    -8016.374   -9076.3182            0    9649.7325    24.856905    24.959951    23.040822    14295.152     10458.16    8674.8984    9816.1396    162.30733   -782.52238   -1369.1998   -6004.5966 
 1213000    270.91789   -9047.0996   -8014.2371   -9047.0996            0    10903.236     24.92101    24.935257     22.95866    14266.782      12321.6    10207.113    10180.996    112.40298    233.91509   -333.03134   -5745.6402 
 1214000    270.38054   -8998.9734   -7968.1595   -8998.9734            0    11263.756    25.028298     24.90924    22.828073     14231.84    10409.424    11408.096    11973.749   -193.57072   -544.00537    1018.5183   -5630.2904 
 1215000    266.77755   -9031.9086   -8014.8309   -9031.9086            0    11165.433     24.88731    24.912442    23.004024     14262.58    11624.043    11744.843    10127.412   -458.97593   -666.52651   -315.71822    -5692.364 
 1216000    277.35021   -9093.1191   -8035.7336   -9093.1191            0    10182.056    24.797036    25.060528    22.943581    14257.756    10955.156    9487.3145    10103.697   -1273.8369    1088.2538    570.68733   -5918.5303 
 1217000    277.82521   -9015.0934    -7955.897   -9015.0934            0     11151.67    24.852789    25.078294     22.89828    14271.709     12351.81    10123.585    10979.614   -67.033125   -252.29374    758.80606   -5634.8081 
 1218000    276.35387   -9031.7225   -7978.1355   -9031.7225            0    11633.353    24.912039    24.760833    23.038116    14210.897    11093.291    13252.301    10554.467    -240.0213   -1127.9939    129.37239   -5567.1074 
 1219000    273.54965   -9068.4642   -8025.5682   -9068.4642            0    11184.024    25.017421    24.799119     22.91112    14214.288    10071.818    12148.049    11332.206    212.63276    297.59979    687.43629   -5707.1108 
 1220000    277.40858   -9058.4348   -8000.8268   -9058.4348            0    10265.324    25.242926    24.722683    22.907175    14295.746     7457.106    12945.135    10393.731   -645.20494    15.050221    561.62262   -5860.6218 
 1221000    274.44705   -9044.6299   -7998.3126   -9044.6299            0    10848.941    24.857477    24.947624    22.971847    14245.646    11875.721    11156.893    9514.2083   -635.26729   -435.13716    18.141465   -5744.3569 
 1222000    271.23371   -9053.2808   -8019.2142   -9053.2808            0    11857.721    24.900859    24.972395    22.840266    14202.856    11670.672    12366.719    11535.772    331.51446   -172.92932    1795.3903   -5563.0761 
 1223000    276.19501   -9053.0855   -8000.1041   -9053.0855            0    10873.267     24.96018    24.829418    23.009071    14259.797    8978.7746    12039.225    11601.802   -372.31533   -261.80996    285.73997   -5738.8505 
 1224000    287.78021   -9018.6944    -7921.545   -9018.6944            0    11179.476    25.118768    24.853399    22.842119    14260.033    9359.8522     12400.53    11778.045   -182.32573    483.53588    466.05693   -5596.5724 
 1225000    273.33605   -9062.9064   -8020.8247   -9062.9064            0    8591.7575    25.024375    24.907216    23.059374     14372.62    8123.7646    10026.155    7625.3532   -56.455037     733.2057   -175.36562   -6219.9071 
 1226000    277.69549   -9052.1486   -7993.4468   -9052.1486            0    10065.258    25.088349    24.971018    22.815997    14293.803    9520.7271     9534.006    11141.042     189.9657     33.17319    896.13001   -5895.2385 
 1227000    282.35847   -9040.5458   -7964.0666   -9040.5458            0     8840.087    25.012894    24.920159    23.035096    14358.358    8253.1497    9157.8026    9109.3086    3.5380027    141.74195   -413.76718   -6112.9354 
 1228000    272.10519   -9005.5858   -7968.1967   -9005.5858            0     8720.888    24.982875    25.006264    23.024463    14384.035    9257.4187     7922.176    8983.0693    1026.9557   -364.88098    636.60186   -6138.7602 
 1229000    273.67648   -9048.9554   -8005.5758   -9048.9554            0    10722.465      24.9755    24.970892    22.877287     14267.66    9237.2076    11168.179     11762.01    1273.8262    -795.1426    1134.6857   -5774.4539 
 1230000     268.5514   -8999.0223   -7975.1819   -8999.0223            0    10661.018    24.765121    24.911172    23.127889    14268.247    11064.124    10867.029    10051.901    175.19728   -230.37349   -719.00819   -5756.7546 
 1231000    282.81668   -9028.0422   -7949.8161   -9028.0422            0    10637.566    24.942912    24.946991    22.999022    14311.156    10995.357    10345.246    10572.095   -128.00978    258.46667    999.94579   -5729.6122 
 1232000    283.09686   -9056.2208   -7976.9264   -9056.2208            0    10016.971    24.947828    25.035972    22.866772    14282.428    8679.1451     9364.355    12007.412   -501.42071    -407.9917    1032.6854   -5890.4459 
 1233000    288.23394   -9059.2367   -7960.3575   -9059.2367            0    10260.458    24.806036    24.933836     23.08005    14275.233    10453.324    11207.136    9120.9132    -1215.715    62.245754   -189.45664   -5824.2365 
 1234000    278.92576   -9027.5727   -7964.1805   -9027.5727            0    10532.103    24.903896    24.932251    22.987573    14273.218    10047.448    11624.225    9924.6364    318.08833    981.50613   -320.91062   -5771.8153 
 1235000    276.43625   -9087.0658   -8033.1647   -9087.0658            0    9890.9405    24.905002    24.933874    22.986569    14274.158     10088.96    10260.403    9323.4593    732.41711    688.61591   -120.76021   -5974.1286 
 1236000    278.99465   -9022.9199    -7959.265   -9022.9199            0     12845.96    24.950788    24.929324    22.797873    14180.421    14002.643    11720.106    12815.131   -378.27773   -1764.3112    929.53712    -5302.632 
 1237000    278.80968   -9058.1672   -7995.2176   -9058.1672            0    11772.137    24.949417    24.783084    22.970331    14203.096    10494.218    12669.815    12152.379   -527.43967    563.43205   -524.95157   -5556.7655 
 1238000    284.41539    -8997.555   -7913.2338    -8997.555            0    11903.606    25.023624    24.974198     22.75565    14221.029    10150.256    12134.753    13425.809    653.59052   -353.82514     793.4977   -5444.4365 
 1239000    282.90944   -9063.3264   -7984.7466   -9063.3264            0    9778.4512    24.918239    24.900702    23.046359    14299.843    9111.8343    10129.278    10094.241    282.26154   -272.58584      131.685   -5945.4648 
 1240000    282.92145   -9015.0974   -7936.4718   -9015.0974            0    10866.129    24.928974    25.050502    22.791774    14233.082     11591.92    9499.4522    11507.014    -511.6354   -751.95619    920.02424   -5680.9362 
 1241000    281.12466   -9039.9291   -7968.1537   -9039.9291            0    9938.9451    24.781048    25.091573    23.020143     14313.82    10284.235    9674.7628    9857.8377    303.97565    984.72117    -686.9819   -5893.3752 
 1242000    277.13441   -9009.3407    -7952.778   -9009.3407            0    11170.118    24.868545    24.986504    22.977867    14277.941    11016.018    11873.729    10620.606    544.71628    411.89472    957.81484   -5626.8341 
 1243000    272.27177   -9032.0636   -7994.0395   -9032.0636            0    11019.867    24.892737    24.953244    22.921525     14237.81    11225.895     9935.669    11898.038    276.14581    418.80985   -58.044178   -5705.8318 
 1244000    270.37858   -9047.9765   -8017.1701   -9047.9765            0    10106.993    24.981911    24.954113     22.93603    14298.354    10312.588    9366.6617    10641.729    -598.8279    24.642675    -121.5708   -5909.5909 
 1245000    282.98145    -9047.052   -7968.1977    -9047.052            0    9921.6267    25.147436    24.761896    22.953844    14293.317     8955.426    10574.068    10235.386   -686.57018   -701.12008   -932.02886   -5900.0012 
 1246000     272.4903   -9055.2239   -8016.3666   -9055.2239            0    9713.5591    24.967924    24.922548    23.004867    14315.107    9209.1704    10752.828    9178.6795    402.01884    129.20881    926.68863   -5988.4556 
 1247000    282.97929   -9011.1326   -7932.2865   -9011.1326            0    9072.9598    25.039496    25.064356    22.858284    14345.832    8170.4089     8852.108    10196.363    237.72368   -63.197181    934.63192   -6034.0486 
 1248000    267.30189   -9063.7836   -8044.7068   -9063.7836            0    8298.2576    25.036333    25.040169    22.968751    14399.432    7634.0122     7511.971    9748.7897   -60.613494    1236.8635    686.74872   -6302.0649 
 1249000    265.43751   -9072.2726   -8060.3038   -9072.2726            0    9803.7408    24.922224    24.969317    22.974766    14296.989    10024.516    9607.8266    9778.8799   -482.33243    600.93063     432.3783    -6016.156 
 1250000    286.65451   -9041.2031   -7948.3454   -9041.2031            0    10339.131    24.905892    24.894031    23.071704    14304.642    9250.8936    11509.381    10257.117   -599.44682   -993.34203   -146.52569   -5791.4112 
Loop time of 557.34 on 64 procs for 250000 steps with 1920 atoms

Performance: 77.511 ns/day, 0.310 hours/ns, 448.559 timesteps/s
99.2% CPU use with 64 MPI tasks x 1 OpenMP threads

MPI task timing breakdown:
Section |  min time  |  avg time  |  max time  |%varavg| %total
---------------------------------------------------------------
Pair    | 62.821     | 65.007     | 66.539     |  12.0 | 11.66
Bond    | 0.27648    | 0.28483    | 0.29843    |   0.8 |  0.05
Kspace  | 237.8      | 246.82     | 254.68     |  25.9 | 44.29
Neigh   | 6.6152     | 7.5525     | 8.3922     |  17.8 |  1.36
Comm    | 100.79     | 109.24     | 118.94     |  45.4 | 19.60
Output  | 1.847      | 1.8569     | 1.8762     |   0.7 |  0.33
Modify  | 112.66     | 118.87     | 123.24     |  24.0 | 21.33
Other   |            | 7.71       |            |       |  1.38

Nlocal:        30.0000 ave          35 max          26 min
Histogram: 1 4 3 13 23 11 6 1 1 1
Nghost:        2806.20 ave        2838 max        2769 min
Histogram: 2 4 4 9 8 9 10 8 9 1
Neighs:        10617.0 ave       12719 max        9356 min
Histogram: 2 6 14 16 16 4 4 1 0 1

Total # of neighbors = 679486
Ave neighs/atom = 353.89896
Ave special neighs/atom = 2.0000000
Neighbor list builds = 12974
Dangerous builds = 0

unfix		3
unfix		2
unfix		1

write_data	data.final.${pid}
write_data	data.final.0
System init for write_data ...
PPPM initialization ...
  extracting TIP4P info from pair style
  using 12-bit tables for long-range coulomb (../kspace.cpp:340)
  G vector (1/distance) = 0.3744668
  grid = 30 30 30
  stencil order = 5
  estimated absolute RMS force accuracy = 0.0032671966
  estimated relative force accuracy = 9.8390656e-06
  using double precision FFTW3
  3d grid and FFT values/proc = 3600 512
Last active /omp style is kspace_style pppm/tip4p/omp
WARNING: Not all mixed pair coeffs generated from mixing. Use write_data with 'pair ij' option to store all pair coeffs. (../write_data.cpp:312)

write_restart   restart.lmp.${pid}
write_restart   restart.lmp.0
System init for write_restart ...
PPPM initialization ...
  extracting TIP4P info from pair style
  using 12-bit tables for long-range coulomb (../kspace.cpp:340)
  G vector (1/distance) = 0.3744668
  grid = 30 30 30
  stencil order = 5
  estimated absolute RMS force accuracy = 0.0032671966
  estimated relative force accuracy = 9.8390656e-06
  using double precision FFTW3
  3d grid and FFT values/proc = 3600 512
Last active /omp style is kspace_style pppm/tip4p/omp
Total wall time: 0:09:21
