LAMMPS (30 Jul 2021)
Processor partition = 0
  using 2 OpenMP thread(s) per MPI task
using multi-threaded neighbor list subroutines
variable        pid world 0 1
variable        phase world IceIh IceIII

shell cd ${phase}
shell cd IceIh
include Restart.lmp
echo both
log log.lammps
#include		in.partitions
include		in.temp
variable        temperature equal 67.72
variable	tempDamp equal 100.0
include		in.pressure
variable        pressure equal 2102.8
variable        pressureDamp equal 1000.0 # This is 1 ps
include		in.seed
variable        seed equal 745823

units		real
atom_style	full
#include		in.box
read_restart	restart.lmp.${pid}
read_restart	restart.lmp.0
Reading restart file ...
  restart file = 30 Jul 2021, LAMMPS = 30 Jul 2021
  restoring atom style full from restart
  orthogonal box = (0.17918194 0.17751235 0.070415803) to (18.028390 23.451665 22.142780)
  2 by 4 by 4 MPI processor grid
  restoring pair style lj/cut/tip4p/long/omp from restart
  restoring bond style harmonic/omp from restart
  restoring angle style harmonic/omp from restart
  864 atoms
  576 bonds
  288 angles
Finding 1-2 1-3 1-4 neighbors ...
  special bond factors lj:    0        0        0       
  special bond factors coul:  0        0        0       
     2 = max # of 1-2 neighbors
     1 = max # of 1-3 neighbors
     1 = max # of 1-4 neighbors
     2 = max # of special neighbors
  special bonds CPU = 0.003 seconds
  read_restart CPU = 0.008 seconds
include 	in.setup
variable	out_freq equal 1000
variable	out_freq2 equal 10000
variable	out_freq3 equal 1000

timestep	2.0

neigh_modify    delay 7 every 1

include		in.tip4p
# This is TIP4P/Ice

# create groups ###
group ox type 2
288 atoms in group ox
group hy type 1
576 atoms in group hy

# set charges - beside manually ###
set group ox charge -1.1794
Setting atom values ...
  288 settings made for charge
set group hy charge 0.5897
Setting atom values ...
  576 settings made for charge

# ### TIP3P Potential Parameters ###
pair_style lj/cut/tip4p/long/omp 2 1 1 1 0.1577 8.5
pair_coeff 1 1*2 0.000 0.000
pair_coeff 2 2 0.21084 3.1668
bond_style  harmonic
bond_coeff  1 450 0.9572
angle_style harmonic
angle_coeff 1 55 104.52
kspace_style pppm/tip4p/omp 1.0e-5
pair_modify tail yes

thermo          ${out_freq}
thermo          1000
thermo_style    custom step temp pe etotal epair emol press lx ly lz vol pxx pyy pzz pxy pxz pyz enthalpy

restart 	${out_freq3} restart.lmp.${pid} restart2.lmp.${pid}
restart 	1000 restart.lmp.${pid} restart2.lmp.${pid}
restart 	1000 restart.lmp.0 restart2.lmp.${pid}
restart 	1000 restart.lmp.0 restart2.lmp.0


include         in.dump
dump            myDump all atom ${out_freq2} dump.water.${pid}
dump            myDump all atom 10000 dump.water.${pid}
dump            myDump all atom 10000 dump.water.0
dump            myDump2 all dcd ${out_freq2} dump.dcd
dump            myDump2 all dcd 10000 dump.dcd
dump_modify     myDump append yes
dump_modify     myDump2 append yes


variable natoms 	equal  "count(all)"                        # NUMBER ATOMS
variable H      	equal  "enthalpy/v_natoms"                 # ENTHALPY-per-atom
variable Vol      	equal  "vol/v_natoms"                 # volume-per-atom
fix AVG all 		ave/time ${out_freq} 1 ${out_freq} v_Vol v_H file vol_enthalpy.dat
fix AVG all 		ave/time 1000 1 ${out_freq} v_Vol v_H file vol_enthalpy.dat
fix AVG all 		ave/time 1000 1 1000 v_Vol v_H file vol_enthalpy.dat


timer           timeout 23:50:00 every 1000
New timer settings: style=normal  mode=nosync  timeout=23:50:00

fix 		1 all shake 1e-6 200 0 b 1 a 1
Finding SHAKE clusters ...
       0 = # of size 2 clusters
       0 = # of size 3 clusters
       0 = # of size 4 clusters
     288 = # of frozen angles
  find clusters CPU = 0.001 seconds
fix             2 all nph aniso ${pressure} ${pressure} ${pressureDamp}
fix             2 all nph aniso 2102.8 ${pressure} ${pressureDamp}
fix             2 all nph aniso 2102.8 2102.8 ${pressureDamp}
fix             2 all nph aniso 2102.8 2102.8 1000
fix             3 all temp/csvr ${temperature} ${temperature} ${tempDamp} ${seed}
fix             3 all temp/csvr 67.72 ${temperature} ${tempDamp} ${seed}
fix             3 all temp/csvr 67.72 67.72 ${tempDamp} ${seed}
fix             3 all temp/csvr 67.72 67.72 100 ${seed}
fix             3 all temp/csvr 67.72 67.72 100 745823


run             250000
PPPM initialization ...
  extracting TIP4P info from pair style
  using 12-bit tables for long-range coulomb (../kspace.cpp:340)
  G vector (1/distance) = 0.37188318
  grid = 24 27 25
  stencil order = 5
  estimated absolute RMS force accuracy = 0.0031460112
  estimated relative force accuracy = 9.4741193e-06
  using double precision FFTW3
  3d grid and FFT values/proc = 4410 672
Last active /omp style is kspace_style pppm/tip4p/omp
Neighbor list info ...
  update every 1 steps, delay 7 steps, check yes
  max neighbors/atom: 2000, page size: 100000
  master list distance cutoff = 10.8154
  ghost atom cutoff = 10.8154
  binsize = 5.4077, bins = 4 5 5
  1 neighbor lists, perpetual/occasional/extra = 1 0 0
  (1) pair lj/cut/tip4p/long/omp, perpetual
      attributes: half, newton on, omp
      pair build: half/bin/newton/omp
      stencil: half/bin/3d
      bin: standard
Setting up Verlet run ...
  Unit style    : real
  Current step  : 37000000
  Time step     : 2
  Walltime left : 23:49:59.93
Per MPI rank memory allocation (min/avg/max) = 10.21 | 10.22 | 10.23 Mbytes
Step Temp PotEng TotEng E_pair E_mol Press Lx Ly Lz Volume Pxx Pyy Pzz Pxy Pxz Pyz Enthalpy 
37000000    71.826735   -4611.1352   -4488.0266   -4611.1352            0    1775.8078    17.849209    23.274153    22.072364    9169.4166    1936.9705    2357.3982    1033.0545   -505.76749   -226.38041    302.10502    -4250.554 
37001000    69.158124   -4621.3805   -4502.8458   -4621.3805            0    1642.3664    17.952304     23.37598    21.831336     9161.579    2259.2188    1742.0387     925.8416   -200.69908     71.73738    226.83569   -4283.4056 
37002000     68.74974   -4621.2033   -4503.3686   -4621.2033            0    2836.1772    17.945815    23.179111     21.88515    9103.5226    2725.9651    3177.2208    2605.3458    74.083191   -303.79981    121.69546    -4126.822 
37003000     66.92399   -4620.2652   -4505.5597   -4620.2652            0    2366.7812    17.979796    23.176962    21.919049    9134.0415    1606.3013     2792.123    2701.9195    479.02216   -197.18884    261.23131   -4190.2793 
37004000    65.692665   -4627.8263   -4515.2313   -4627.8263            0    1659.4299    17.874844    23.341228    21.939495    9153.6141    2034.9016     618.2979    2325.0901   -1027.6592   -96.185492    185.95577   -4293.7039 
37005000     65.54007   -4611.3734   -4499.0399   -4611.3734            0    2108.5939    17.926447    23.283271    21.857598    9123.0625     1589.678    2826.6925    1909.4111   -311.00446    31.345858    47.121376   -4218.4904 
37006000    70.077097    -4619.838   -4499.7283    -4619.838            0    2047.2012    17.891695     23.31276    21.910258    9138.8735    1995.2385    1941.2477    2205.1175   -319.44614    85.578383    39.339041   -4226.8751 
37007000    69.331809    -4623.029   -4504.1967    -4623.029            0     1759.588     17.94505    23.357587    21.837366    9153.1988    1906.7015    946.78478    2425.2777   -77.817821   -25.058234   -24.997322   -4269.3092 
37008000     70.44289   -4617.7127    -4496.976   -4617.7127            0    3212.4248    17.898117    23.226479    21.892089    9100.7655    2974.6574    4192.6425    2469.9745    200.72879    39.377065   -257.36703   -4070.6059 
37009000     68.95077    -4613.788   -4495.6087    -4613.788            0    2680.4802     17.76134    23.398655    21.921304    9110.3072    2795.6912    2607.6489    2638.1004   -218.68083   -338.50968   -140.47603   -4139.4681 
37010000    70.083693   -4622.9407   -4502.8197   -4622.9407            0    1651.2321    17.869102    23.326216    21.972846    9158.6894    1804.0999    1308.5693     1841.027   -93.347973   -441.10588   -33.430498   -4282.2645 
37011000    68.831394   -4622.0277   -4504.0531   -4622.0277            0    2643.0034    17.799601    23.323117    21.939412    9107.9751    3202.6285    2058.2283    2668.1533   -314.25706   -639.88738   -30.739956   -4152.9817 
37012000     72.39902   -4617.4601   -4493.3707   -4617.4601            0    2249.0019    17.988923    23.251943    21.824785    9128.8148    1138.1435    3070.7717    2538.0905    307.52757   -260.08342   -204.27315   -4193.9512 
37013000    70.264728   -4619.0079   -4498.5766   -4619.0079            0    1591.3614    18.009508    23.301045    21.878126    9180.9442    2074.7557    1280.2214    1419.1073   -119.47787    68.438351   -685.47872   -4285.5018 
37014000    66.034879   -4623.1096    -4509.928   -4623.1096            0    2055.2404    17.916676    23.309491    21.901482    9146.6852    1928.2945    1641.2719    2596.1548   -503.54119    254.96393    31.927664   -4235.7692 
37015000    70.002833   -4623.0018   -4503.0194   -4623.0018            0    2549.0567    17.856403     23.23983    21.977302    9120.1353    2749.7947     2604.645    2292.7303   -22.913981    329.91342    126.57548   -4163.9749 
37016000    67.601271   -4621.1843   -4505.3181   -4621.1843            0    1369.9939    17.980947    23.284123    21.894828    9166.7205    1656.4406    1579.4841    874.05706   -407.92126     32.26424    222.25579   -4322.1674 
37017000    68.183301   -4619.4837   -4502.6199   -4619.4837            0    1951.6793    17.879395    23.288252    22.006729    9163.1582    2425.5648    1641.2122     1788.261   -709.66855    207.27038    135.46558   -4241.8067 
37018000     64.49472    -4621.688   -4511.1463    -4621.688            0    1887.0399     17.90244    23.316641    21.912583    9146.8552    1843.6188     2328.992    1488.5089    307.79721    163.56082   -86.707718   -4259.4198 
37019000    68.854351    -4620.679    -4502.665    -4620.679            0     1832.929    17.800019    23.373804    21.974078    9142.4065    1372.0255    1525.2112    2601.5504     -195.085    3.4224969   -66.319943   -4258.2758 
37020000    66.181258   -4621.5538   -4508.1214   -4621.5538            0    1852.4812    17.908467    23.300159    21.917418    9145.4837    1812.8133    1775.2407    1969.3897   -4.3074146     404.4834    167.54889   -4261.0421 
37021000    67.131589   -4624.7633   -4509.7021   -4624.7633            0    1388.5601    17.974692    23.296852    21.883623    9163.8488    909.12927    1515.8353    1740.7156   -58.405415   -57.759649   -342.79215   -4324.1275 
37022000    70.640124   -4618.2366   -4497.1618   -4618.2366            0    2685.0515    18.050241    23.183271    21.773263    9111.3184    2460.1853    3115.4196    2479.5496    394.25394    155.93213   -265.86962   -4140.3742 
37023000     65.06606   -4621.8107   -4510.2897   -4621.8107            0    2334.1683    17.875701    23.345049    21.843934    9115.6727    2137.7905    1999.9443    2864.7701    1264.2681    18.604009   -61.924506    -4199.979 
37024000    73.163041   -4618.6264   -4493.2274   -4618.6264            0    1759.3239    17.889614    23.414579    21.894143    9170.9701    1685.5603    1726.2503    1866.1612   -252.85787   -271.27932   -59.806178   -4257.9193 
37025000     65.41861   -4613.8058   -4501.6805   -4613.8058            0    2084.3081    17.894076    23.302947    21.925434    9142.5712    2088.8608    1942.8214    2221.2421   -1108.5804   -99.644045     661.0712   -4223.7693 
37026000    67.892438   -4613.7165   -4497.3512   -4613.7165            0     1970.754    17.901874    23.302439    21.973491    9166.4033    1230.7903    2061.1424    2620.3292    122.05765    292.92962    75.840525   -4233.8957 
37027000    69.080953   -4618.3541   -4499.9517   -4618.3541            0    1714.0773    17.911631      23.3535    21.891032    9157.0028    1108.8719    1349.1886    2684.1714   -133.99163      172.117    347.17183   -4271.0444 
37028000    68.079404   -4623.7219   -4507.0361   -4623.7219            0    2312.2436    17.984667    23.240966    21.851854    9133.6604    1134.9204    2591.6451    3210.1653   -58.422184    71.380462    195.51571   -4199.0335 
37029000    66.684094    -4628.225   -4513.9307    -4628.225            0    1834.4953    17.911352    23.321156    21.926666    9159.0628      1750.52    1856.2092    1896.7569    343.60514     634.8832   -331.51025    -4268.887 
37030000    70.507486   -4617.6274     -4496.78   -4617.6274            0    2372.5639    17.941509    23.289816    21.818307    9116.8767    1814.6805    2286.5471     3016.464     33.40826    375.68231   -446.92109   -4181.3232 
37031000    70.196676   -4615.0417    -4494.727   -4615.0417            0    2769.3669    17.740338    23.323109    22.001086    9103.1659     3477.121    2909.7514    1921.2283    375.40127    321.68556    255.60572   -4127.0649 
37032000    69.924669      -4619.9   -4500.0515      -4619.9            0     1857.797    17.919315     23.35179    21.867992    9150.6193    1429.0189    2616.4281     1527.944     -345.606    448.09374   -24.235677   -4252.1241 
37033000    69.943079   -4623.5589   -4503.6788   -4623.5589            0    1358.6532     17.92667    23.325946    21.933428    9171.6064    1375.3899    978.44457    1722.1252    -64.24664    -408.0509    404.63349   -4321.9475 
37034000    67.386548   -4626.3938   -4510.8956   -4626.3938            0    1704.5003     18.03742    23.214801    21.875418     9160.006    1109.7238    1974.2549    2029.5223    -219.8725   -422.09379   -87.562901   -4283.1926 
37035000    66.089061   -4626.8512   -4513.5768   -4626.8512            0    2339.8832     17.85969     23.32285    21.935004    9136.7817    2287.3022    2513.7765    2218.5708   -217.39675    111.51282    143.41836    -4201.786 
37036000    67.130767   -4624.2917   -4509.2318   -4624.2917            0    2197.4207    17.992811    23.239849    21.862188    9141.6787    1486.2705    2190.5093    2915.4822   -539.26018   -37.996853    220.91374   -4216.2673 
37037000    68.435863   -4619.3455   -4502.0488   -4619.3455            0    2781.6425    17.832487    23.337223    21.893522    9111.2242    3414.7174    2544.8437    2385.3664   -527.24593   -99.589494  -0.75556359   -4132.4301 
37038000    66.825934   -4620.1909   -4505.6536   -4620.1909            0     1392.612    17.927283    23.386421     21.87709    9172.0792    972.05975    1510.8556    1694.9207    142.62523     432.8362    57.818244   -4319.3703 
37039000    69.033923    -4618.471   -4500.1492    -4618.471            0     3058.126    17.897344    23.223029    21.911926    9107.2657    3472.5505    2321.3864    3380.4409    157.27766    195.73984    166.60484   -4093.9685 
37040000    69.155801   -4625.3455   -4506.8149   -4625.3455            0    2269.5464    17.855416    23.366671    21.897264    9136.0121    1912.3458    3053.6248    1842.6686   -352.57385    260.26367   -426.22449   -4204.4219 
37041000    68.697502   -4622.2503   -4504.5051   -4622.2503            0    2517.3403    17.833006    23.245871    21.989192    9115.4822    2435.2542    2378.3863    2738.3802    366.01517    205.09633   -28.397075     -4169.85 
37042000     67.80404   -4626.6975   -4510.4837   -4626.6975            0    1955.2303    17.897414    23.441409    21.824878    9156.4225    2996.5376    598.62284    2270.5305   -285.26014    22.808419     388.4452   -4249.3881 
37043000    70.197065   -4621.2309   -4500.9156   -4621.2309            0    2086.2207    17.880017     23.39859    21.824275    9130.5604    2319.2082    1284.0474    2655.4066    452.63669   -269.21555    118.29697   -4223.1147 
37044000     68.11412   -4620.8024   -4504.0571   -4620.8024            0    1856.3753    17.999795    23.314917    21.824341    9158.8844    1761.7742    1905.0932    1902.2585   -305.74382    347.82551    589.82255   -4256.0956 
37045000    63.031685   -4624.7943   -4516.7602   -4624.7943            0    1751.3166    17.892472    23.253694     22.01411    9159.3242     1897.656    1828.2518     1528.042    103.05274    226.62448   -169.02677   -4282.8204 
37046000    72.387549   -4625.2575   -4501.1878   -4625.2575            0    2322.5973    18.014881    23.162069    21.901312    9138.5832    2249.9259    2779.4463    1938.4197   -304.63619    178.80735    20.834005   -4191.6393 
37047000    68.178845   -4626.6491   -4509.7929   -4626.6491            0    1401.0734    17.942063    23.289051    21.964284    9177.8557    2092.7688     1407.339    703.11227   -57.004184    132.11194    299.49314   -4322.2598 
37048000    68.777125   -4619.3977    -4501.516   -4619.3977            0    2159.6224    17.972726     23.29331    21.799359    9126.1767     1719.457    2456.6138    2302.7965    1124.3687   -324.84667    167.54402   -4214.0791 
37049000    69.258528   -4619.9754   -4501.2687   -4619.9754            0    1647.2277    17.864836    23.362286    21.952137    9162.0191    2108.6812    1776.8718    1056.1303   -29.761169   -727.21421    134.93791   -4281.1683 
37050000    67.952459   -4623.1186   -4506.6504   -4623.1186            0    2178.3537    17.934147    23.331913    21.853426    9144.3029    2282.0891    2201.6419    2051.3301    123.35194   -147.05234   -344.59507   -4216.1446 
37051000    67.635542   -4615.1812   -4499.2562   -4615.1812            0    2059.9488    17.946608    23.206859    21.937733    9136.7238     1889.151    2422.3931    1868.3022    220.83195   -238.78363     94.29637   -4224.7686 
37052000    67.603042   -4620.7621   -4504.8928   -4620.7621            0    1669.0336    18.040917    23.282073    21.823036    9166.3288     1290.901    2409.5703    1306.6294    388.36074   -180.44802    -440.5173   -4281.7739 
37053000    66.405877   -4623.1814    -4509.364   -4623.1814            0    1841.7387    17.868751    23.352006    21.908478     9141.777    1840.4683    1462.5302    2222.2177   -160.91643    36.339875    -95.87499   -4263.8171 
37054000    71.345117   -4621.2477   -4498.9646   -4621.2477            0    1820.0498    17.927748    23.382777    21.835297    9153.3684    2296.5536    1663.2079    1500.3879   -24.297789      435.839    359.47648   -4256.0016 
37055000    67.305385   -4618.0219   -4502.6628   -4618.0219            0    3107.6111    17.842109    23.367513    21.857846    9113.0981    3369.3583    3534.9853    2418.4895    141.19642    114.35516    361.29995   -4089.6452 
37056000    72.240915   -4620.7185      -4496.9   -4620.7185            0    1945.7146    17.979148    23.260301    21.907821    9161.8595    1977.8968     1565.287    2293.9601    40.593394    502.09827    107.57134   -4236.9208 
37057000    66.997407   -4618.2844   -4503.4531   -4618.2844            0    1649.6626    17.996348    23.142118    22.026473    9173.4448    1364.2316    1499.2568    2085.4992    290.73745   -311.91047   -4.9789818   -4282.7526 
37058000    67.402403    -4619.683   -4504.1575    -4619.683            0    2600.8739    17.940756    23.267909    21.873241    9130.8504     2300.662    2725.5286    2776.4311   -267.96034    135.97465     61.61703   -4157.8145 
37059000    68.900018   -4622.2868   -4504.1945   -4622.2868            0    2109.3349     17.98167    23.254475    21.862604    9141.9415    2251.4089     2097.076    1979.5198    291.76883   -141.62892   -97.596609   -4222.9656 
37060000    65.458865   -4625.5619   -4513.3676   -4625.5619            0    2793.6446    17.906239    23.273754    21.846321    9104.3536    3789.2455    2422.4446    2169.2437    28.281988   -300.37631    341.50449   -4142.4341 
37061000    65.004037   -4615.6587    -4504.244   -4615.6587            0    1742.5919     17.94782    23.286015    21.896689    9151.3536    1440.0519    1124.8254    2662.8985    321.47975   -111.28785     604.6876   -4271.6723 
37062000    66.969638   -4612.5039   -4497.7202   -4612.5039            0    2532.2932    18.016644    23.137657    21.881351    9121.5238    2238.5614    2469.4542    2888.8639   -773.93953    299.11003    212.72654   -4160.8541 
37063000    70.676884   -4615.7415   -4494.6037   -4615.7415            0    1700.6178    17.945702    23.246873    21.957727    9160.3567    2689.8827    1704.9844    706.98634   -593.39763    269.25453    29.209657   -4267.4107 
37064000    65.642568   -4615.0822   -4502.5731   -4615.0822            0     2281.684    17.942566    23.165548    21.944921    9121.3922    1829.4552    2512.6168      2502.98   -99.454049   -135.80516    237.17024   -4199.0495 
37065000    65.143109   -4626.8368   -4515.1838   -4626.8368            0    1902.0196     17.91111    23.263023    21.953644    9147.3493    2252.5583    1430.5261    2022.9745   -228.79798   -14.686134    186.59533   -4261.4454 
37066000    70.723275   -4617.5472     -4496.33   -4617.5472            0    1904.6792    17.934121    23.317939    21.884513    9151.8133    1403.2538    2627.8811    1682.9028     373.0938    78.217061    239.40073   -4242.1128 
37067000    66.480381   -4627.9414   -4513.9963   -4627.9414            0    2553.4281    17.857036    23.342831    21.884587    9122.2348    2352.6937    2041.5168    3266.0739   -141.56561   -207.42069    22.795391   -4174.2922 
37068000    64.555051   -4616.2214   -4505.5762   -4616.2214            0    2660.7518    17.866917    23.384809    21.815903    9114.9993    2663.0886    2383.2756    2935.8912   -558.36979    318.61437    73.059899   -4151.8748 
37069000    64.369853    -4626.093   -4515.7652    -4626.093            0     1585.924    17.979591    23.370222     21.81048     9164.481    1139.2267    1614.3552      2004.19   -407.47647    746.72016    239.91263   -4303.7993 
37070000    68.936275   -4624.1752   -4506.0208   -4624.1752            0    1832.3552    17.942654    23.351493    21.839622    9150.5343    1462.0386    2132.2701     1902.757   -361.88231   -340.77178    172.63137   -4261.4909 
37071000    65.758912   -4618.7392   -4506.0307   -4618.7392            0    1585.6862    18.048202    23.302688    21.781734    9160.7794    1491.7131    623.26655     2642.079    32.434079    73.327752   -280.05438   -4294.1821 
37072000    74.164677   -4615.8935   -4488.7777   -4615.8935            0    2956.4112    17.892913    23.350409    21.809391    9112.1124    2326.5541    3133.6158    3409.0636   -597.30471   -314.01895    642.18393   -4095.8979 
37073000    65.301778   -4626.1429   -4514.2179   -4626.1429            0    1825.0896    17.746655    23.434638    21.975597    9139.3526    2614.1986    1710.6308    1150.4395   -484.54537    345.68305    294.54795   -4270.9552 
37074000    68.698833   -4623.0091   -4505.2616   -4623.0091            0    2427.2517    17.939898    23.198175    21.930592    9126.9178    2841.2238    2109.2447    2331.2866   -529.06506   -8.5079622    337.57805   -4182.1781 
37075000    65.032572   -4614.4361   -4502.9725   -4614.4361            0    2848.1127    17.820197    23.242673     21.97777    9102.9506    2297.0498    3245.5036    3001.7848    70.219264    112.11131    336.71211    -4124.865 
37076000    66.359021   -4621.0298   -4507.2927   -4621.0298            0    2280.7589    17.901207    23.274329    21.947089    9144.0039    2392.3848    2198.0978    2251.7941    374.08372    102.08423    293.80149     -4203.14 
37077000    63.370906   -4617.5662   -4508.9506   -4617.5662            0    2024.0356    17.961084    23.235295    21.898774    9139.0394    2308.6398    2163.7411    1599.7259   -597.23827    4.6758736    365.15139   -4239.1801 
37078000    70.953936   -4614.5581   -4492.9455   -4614.5581            0     1672.586    17.950037    23.299968    21.892472    9156.2043     1445.071    1472.8522    2099.8348    68.692554    70.453702    492.10575   -4269.5987 
37079000    66.746869   -4620.9548    -4506.553   -4620.9548            0    2715.1997    17.916239    23.214693    21.945491    9127.5682    2820.2251    2364.7208    2960.6532    856.63332    27.233301    551.36787   -4145.1159 
37080000     73.99882   -4621.4595   -4494.6281   -4621.4595            0    2220.5044    17.863762    23.317159    21.951591    9143.5441    3043.1243     1781.676    1836.7129   -277.95202     165.8935    408.35797   -4198.5256 
37081000    67.939467   -4620.6375   -4504.1916   -4620.6375            0    2039.2988    17.982484    23.268171    21.869198    9150.4991    1353.1645    2694.6955    2070.0363    -675.9235    137.35424    34.204856   -4232.0458 
37082000    65.749784   -4623.8767   -4511.1838   -4623.8767            0    1696.3872    17.933541    23.349183    21.892435    9167.0965    2157.3964    1489.5175    1442.2476   -794.33568    486.63402    114.81427   -4284.3892 
37083000    60.697925   -4613.4721   -4509.4379   -4613.4721            0    2316.9398    17.874616    23.357754    21.868085    9130.1636    2736.9113    2591.4947    1622.4135   -251.56827    480.81361   -35.546078   -4200.9279 
37084000    70.725818   -4612.9193   -4491.6977   -4612.9193            0    2986.2003    17.952039    23.279187    21.782301    9103.0167    3714.9078    2972.0037    2271.6894    495.67656    353.49575    351.66179   -4095.2552 
37085000    67.585619    -4620.722   -4504.8826    -4620.722            0    2943.2013    17.937461    23.290764    21.773367    9096.4156    2218.3589    3082.9349    3528.3102   -272.66303    420.10181   -21.400955   -4114.4319 
37086000    67.857431   -4621.2399   -4504.9345   -4621.2399            0    1897.9725    17.928714    23.327694     21.88309    9152.2857     1292.258    1734.0082    2667.6514    161.85464    322.32215     5.331359   -4251.5994 
37087000    66.586939   -4623.3828   -4509.2551   -4623.3828            0    2517.2313     17.92844    23.344763     21.77818    9114.9345    2410.4628    2263.3363    2877.8948    69.575617    -108.9647   -19.836656   -4174.6345 
37088000    73.637274   -4623.2971   -4497.0854   -4623.2971            0    1061.9967    17.983565    23.254901    21.973947    9189.6367    802.51857    1240.7117    1142.7598   -484.45719   -157.80576   -6.5474368    -4354.755 
37089000    66.344996   -4623.8058   -4510.0928   -4623.8058            0    2859.5263    17.946475    23.196237    21.842172    9092.6924    2461.8992    3098.7143    3017.9655   -718.97011   -310.96115   -112.51353   -4130.8979 
37090000    68.107777     -4619.71   -4502.9756     -4619.71            0    2060.1578    17.949313     23.28532    21.884279    9146.6546    2769.3735    1697.2882    1713.8118   -411.64994   -260.37484    76.496671   -4228.1617 
37091000    64.681258   -4624.6126   -4513.7512   -4624.6126            0    1527.6209    17.969831    23.217746    21.949531    9157.7609    1259.6756    1837.1175    1486.0695    -418.4887   -228.56399   -2.5752453   -4309.7274 
37092000    71.988943    -4622.083   -4498.6964    -4622.083            0    1499.8142    17.900612     23.26611    21.962622    9146.9399    1845.8918    1659.4415    994.10922    456.71833   -110.01104    -90.86373   -4298.6231 
37093000    67.482998   -4626.0187   -4510.3552   -4626.0187            0    2286.1936     17.87045     23.31682     21.91556    9131.8208     2703.112    1776.4336    2379.0353   -1.1648995    108.01569   -329.26756   -4205.8839 
37094000    64.139981   -4616.3205   -4506.3868   -4616.3205            0     2314.172    17.932884    23.302552    21.831997    9123.1979    1487.2417    2766.9311    2688.3432    112.45537   -503.84211    195.48768   -4198.4805 
37095000    69.042555   -4630.0005   -4511.6639   -4630.0005            0    1008.1743    17.979589    23.295028    21.938746    9188.7154    943.26467    1015.1662     1066.092   -324.15678    235.73727    136.48563   -4376.5605 
37096000    68.127632   -4616.3842   -4499.6158   -4616.3842            0    600.01267    17.961082     23.26995    22.036133    9210.0786     307.0668    1276.3542      216.617    22.283819   -175.92502    303.67427   -4419.0223 
37097000    68.216326   -4622.9374   -4506.0169   -4622.9374            0     1789.279    17.912225    23.382509    21.873697     9161.421    1928.8623    1558.0614    1880.9132    514.50331   -144.61234    269.68507   -4266.9515 
37098000    63.958128   -4622.6328   -4513.0107   -4622.6328            0    1286.7172    17.979073    23.140952    22.056496    9176.6686    2088.7855    1719.6647    51.701336    459.00913     41.83366    87.105399   -4340.8064 
37099000    66.095483   -4615.4812   -4502.1958   -4615.4812            0    2191.4018     17.91032    23.263347    21.904004    9126.3908    1966.2205    2269.3206    2338.6643   -86.423493    94.327467   -132.57278   -4210.5223 
37100000    65.645159   -4623.0536     -4510.54   -4623.0536            0     1849.389    17.965618    23.383753    21.803013    9159.5238    2311.4867    1504.3084     1732.372   -42.088069    243.32989   -80.515422   -4263.4945 
37101000    64.911163   -4624.4899   -4513.2344   -4624.4899            0    1556.5852    18.031711    23.227966    21.857945    9154.9811    1603.0016    2154.9611    911.79298   -82.634466    25.779567   -143.82883   -4305.4053 
37102000    68.748916   -4618.5979   -4500.7646   -4618.5979            0    2415.4579    17.879623    23.315652    21.883472    9122.6743    2034.3361     2109.379    3102.6587   -563.57465    252.33865    100.46536   -4179.4004 
37103000    69.508111   -4620.9168   -4501.7823   -4620.9168            0    1921.9368    17.821856    23.339073    22.000358    9150.9519    2783.3421    1748.3441    1234.1241    18.374972    33.755168   -270.64671   -4245.2859 
37104000    64.667742   -4614.7998   -4503.9615   -4614.7998            0    1916.6562    17.784662    23.326988    22.062644    9152.9656    2624.9927    2064.4297    1060.5462    -20.41264   -41.978704      -401.17   -4248.1135 
37105000    70.609651   -4620.9165    -4499.894   -4620.9165            0    2149.6395    17.931398    23.299145    21.895022    9147.4389     1745.311    2815.6519    1887.9556   -165.87586   -111.72192    179.35116   -4213.1191 
37106000    68.242619    -4627.721   -4510.7555    -4627.721            0    2735.0837    17.958031    23.249367    21.804778     9103.775      2188.94    2343.1231    3673.1879   -404.92236   -43.574288   -121.05715   -4147.6206 
37107000    68.175858   -4626.6275   -4509.7764   -4626.6275            0    2394.8048    17.945177    23.218823    21.882892    9117.8544    2454.6552    2046.4853    2683.2739    174.70008    45.870581   -154.66771   -4191.3283 
37108000    67.820443   -4621.3407   -4505.0988   -4621.3407            0    2167.7254    17.966167    23.247949    21.840649    9122.3264    2421.9109    2434.7605    1646.5046    130.88665    -417.0418    42.872248   -4216.7051 
37109000    69.076693    -4627.647   -4509.2519    -4627.647            0    1814.5061    17.972409    23.350791    21.819294    9156.9024    1439.0537    1205.0613    2799.4033    -240.1253    46.741497   -5.9587523   -4266.9355 
37110000    66.161437   -4619.3208   -4505.9224   -4619.3208            0    2306.3104    17.895256    23.278636     21.86652    9109.0928    3345.4075     2017.001    1556.5227    535.79618   -137.71723     16.97164   -4199.5365 
37111000    67.402385   -4615.4875   -4499.9621   -4615.4875            0    2639.2761    17.879041    23.323703    21.822786    9100.2202    2621.4974    2573.4903    2722.8407    59.647333    -207.4294    97.111294   -4149.6843 
37112000    67.887604   -4622.0731   -4505.7161   -4622.0731            0    1942.7451    17.972143    23.271981    21.839244    9134.2066    2365.7403    1529.9521     1932.543   -166.87484    8.2024838   -155.11657   -4246.9171 
37113000     64.55969    -4614.198   -4503.5449    -4614.198            0    2695.2297    17.849313    23.199458    21.944211    9086.9745    3230.5603     2034.791    2820.3379    529.47079   -126.55515     97.77063   -4146.3618 
37114000     71.22001   -4615.3269   -4493.2583   -4615.3269            0    2397.1722    18.061114    23.112443    21.826724    9111.2705    2433.8747    2308.2307    2449.4112   -424.20279    372.08373    217.35792   -4174.7255 
37115000     70.41565   -4618.9021    -4498.212   -4618.9021            0    1664.4279    17.926354     23.25808    21.965819     9158.265    1865.7321    928.43168    2199.1198   -206.85607    252.73146   -107.97288   -4275.9046 
37116000    63.621642   -4618.6949   -4509.6496   -4618.6949            0     1390.138    17.975351    23.245311    21.910487    9155.1354    368.03845    1515.9946     2286.381   -484.42879   -232.30621   -120.56954   -4324.0408 
37117000    64.854603   -4621.8238   -4510.6652   -4621.8238            0    2444.7952    17.968428    23.165614    21.888614    9111.1283    2028.5313    2694.1667    2611.6877   -391.04932     33.10171    326.35173   -4185.8095 
37118000    66.528714    -4625.552   -4511.5241    -4625.552            0     1806.291    17.852146     23.29256    21.982081    9140.6367    2258.7872     1476.207    1683.8788    65.927785   -356.82998    422.04853   -4270.7332 
37119000    69.864593   -4620.7812   -4501.0357   -4620.7812            0    1903.7614    17.850737    23.409932    21.871904    9139.9303    1860.0705     975.6166    2875.5971    128.50079    141.29174    112.29868   -4247.2709 
37120000     68.39421   -4625.5121   -4508.2868   -4625.5121            0    2169.2362    17.815008    23.412055    21.850959    9113.7282    1989.3094    2856.7283     1661.671   -206.64236    320.34072   -56.195384   -4219.9641 
37121000    67.646321   -4623.1091   -4507.1657   -4623.1091            0    1757.5987    18.047216    23.235461    21.800697    9141.8036    1824.0619    1494.7814    1953.9527   -953.19769   -39.774205    573.65278   -4272.8359 
37122000    71.282746   -4617.9728   -4495.7966   -4617.9728            0    2607.5294    17.928694    23.208704    21.874893    9102.1814    1893.5904    3024.8344    2904.1634   -614.73937    123.95186    239.23003   -4149.6576 
37123000     65.87151   -4627.3967   -4514.4952   -4627.3967            0    2594.2424    17.868329    23.356523    21.848161    9118.1558     3222.989    2073.7949    2485.9432   -285.63323    95.341989    -186.9273   -4169.5156 
37124000    68.855254   -4617.9497   -4499.9342   -4617.9497            0    1716.1291    17.967141     23.35568    21.832773    9161.7916     1559.627    1412.3155    2176.4449    203.39936    453.16758   -102.29821    -4270.633 
37125000    69.677997   -4613.9613   -4494.5356   -4613.9613            0    2155.3111      17.9479    23.315663    21.811996    9127.6042    2136.8665    2139.5478    2189.5191   -223.11863    213.50669    338.80182   -4207.6276 
37126000    68.850878   -4622.2772   -4504.2691   -4622.2772            0    2197.0693    17.806492    23.324487    22.029102    9149.2872    3494.1269    1175.4929    1921.5881     12.65747    286.80001   -92.891327   -4211.1077 
37127000    68.775899   -4618.7182   -4500.8386   -4618.7182            0    2870.2462      17.9334    23.253069    21.801978    9091.5681    2430.0345    3163.6034    3017.1008    111.48035    520.96714    134.87394   -4120.2693 
37128000    70.616885   -4624.2373   -4503.2024   -4624.2373            0    2028.8338    17.907532    23.183687    21.986251    9127.8696    1860.6854    1908.1634    2317.6525   -382.47409    350.42156   -10.823126   -4233.1228 
37129000    69.103463   -4617.7055   -4499.2646   -4617.7055            0    1586.3952    17.970626    23.327258    21.827399    9150.1641    1794.2905     1340.883     1624.012    1.5145065    196.61179    374.78172   -4287.5669 
37130000    66.834609   -4626.2121   -4511.6599   -4626.2121            0    1631.7799     17.86275    23.258773    22.052427    9162.0257    1483.1616    1433.1122    1979.0658   -484.26896   -257.11071    67.092467   -4293.6235 
37131000    67.825491   -4629.3641   -4513.1136   -4629.3641            0    2040.8469    18.037783    23.141294    21.907876    9144.7336    1425.6353     2851.043    1845.8623   -424.33521    168.09973   -56.941944   -4240.9328 
37132000    68.061342   -4611.3094   -4494.6546   -4611.3094            0     1723.839    17.746433    23.384341    22.065078    9156.7571    2066.4459    1614.7085    1490.3626    127.73378    86.143108   -506.66862   -4264.4499 
37133000    63.227171   -4616.9413   -4508.5721   -4616.9413            0    1921.0108    17.967138    23.349239    21.832272     9159.053    1381.9427     2046.831    2334.2586   -325.26975    -110.3381    179.26149   -4251.9724 
37134000    66.474288   -4625.1586   -4511.2239   -4625.1586            0    2246.7766    17.887694    23.331537    21.872731    9128.5273    2303.0042    2186.5309    2250.7948   -355.36586    -277.8183    274.90293   -4212.1101 
37135000     63.11195   -4624.6707    -4516.499   -4624.6707            0      1406.24    17.864732    23.432279    21.907528    9170.7404    1862.5535    909.90293    1446.2637   -20.110303   -510.79559    330.65573   -4328.4202 
37136000    69.242608   -4622.6592   -4503.9798   -4622.6592            0    2286.7339    17.874531    23.276435    21.919609    9119.7714    2985.6332    1932.2994    1942.2692   -413.00218   -65.615174   -368.51926   -4199.8384 
37137000    68.556987   -4626.6553    -4509.151   -4626.6553            0    2543.4233    17.829724    23.312894    21.924727    9113.2861    2409.5561      3139.23    2081.4838   -406.87245    -163.5252    402.78751   -4171.1098 
37138000    66.754644   -4619.7374   -4505.3222   -4619.7374            0    1583.1439    17.895023    23.391779    21.867499     9153.657     1889.241    1595.2479    1264.9428    482.54545    41.285018    342.46481   -4293.9778 
37139000    62.616329    -4623.586   -4516.2638    -4623.586            0    2276.9168    17.867971    23.361805    21.862949    9126.2083    2524.3098    1691.5167    2614.9239    814.09397   -380.84583    235.57854   -4213.2144 
37140000    67.033365   -4622.0351   -4507.1422   -4622.0351            0    2218.9928    17.957031    23.236411    21.889279    9133.4536    2099.1224    3006.7245    1551.1316    486.86801   -111.75799    378.77971   -4211.5678 
37141000    66.764094   -4626.7799   -4512.3486   -4626.7799            0     2457.489    17.972821    23.217367    21.866357    9124.4279    1517.5418    2593.6543    3261.2709   -199.71402   -346.34744    264.48389   -4185.3295 
37142000     67.99891   -4626.1481   -4509.6003   -4626.1481            0     2492.945    17.893927    23.212014    21.938554    9112.2679    2457.4093    2533.6276     2487.798   -250.10648   -257.79078    285.85612   -4178.3051 
37143000    66.631279   -4622.8876   -4508.6838   -4622.8876            0    3160.0115    17.853397    23.302811    21.824063    9079.5596    2768.5081    3298.8459    3412.6803   -311.80905   -251.76009   -217.29599   -4090.2476 
37144000    66.022296   -4620.1391   -4506.9792   -4620.1391            0    2204.0201    17.973815    23.242787     21.87389    9138.0703    2028.1889    2345.7711    2238.1002   -177.86449    -135.5432    49.913009   -4213.2508 
37145000    67.751172    -4614.218   -4498.0949    -4614.218            0    1010.7384    17.954406    23.374003    21.921891    9199.8798    168.09584    562.79016    2301.3292    368.79692    436.69386    221.97579   -4362.4833 
37146000    64.935054    -4620.667   -4509.3705    -4620.667            0    2354.9473    17.942563    23.284797    21.873445    9138.4834    2696.5403    2420.9224    1947.3793   -334.01959    511.40208   -7.3668922    -4195.514 
37147000    62.372398   -4620.6623   -4513.7582   -4620.6623            0    2073.4863    17.907235    23.244806    21.959493    9140.6434    2927.2473     2070.533    1222.6787    640.29392   -118.98448   -217.55924   -4237.3481 
37148000    65.584794   -4626.1615   -4513.7514   -4626.1615            0    2294.7385    18.008552    23.288731    21.785818     9136.892     1691.513    3200.8689    1991.8336    200.54009   -35.455261     130.5705   -4207.9724 
37149000    68.053014   -4611.6135    -4494.973   -4611.6135            0    2454.2104    17.828338     23.36144    21.920747    9129.8955    3063.7697    1579.5299    2719.3317   -225.92422    -133.9416    20.124346   -4168.1944 
37150000    66.421015    -4620.006   -4506.1626    -4620.006            0    3097.6307    17.966356     23.26791    21.763013    9097.8006    2999.3945    2363.4508    3930.0468   -21.835234   -261.18106    223.29141   -4095.1625 
37151000    70.774788   -4620.1543   -4498.8488   -4620.1543            0    2038.7289    17.930552    23.270597    21.928747    9149.8716    1871.5789    1768.0121    2476.5958   -60.376877    -179.5728     44.58572   -4226.7977 
37152000    64.362757   -4623.6151   -4513.2995   -4623.6151            0    2223.6358    17.895212    23.432525    21.810101      9145.63    2190.4385    2234.6944    2245.7744   -390.77486     14.10308   -60.063271   -4216.7118 
37153000    68.664992   -4622.5187   -4504.8293   -4622.5187            0    1719.3496     17.81943    23.346596     22.01613    9159.2167    1916.8717    2180.6788    1060.4982   -195.00604    238.35916   -395.80592   -4275.1624 
37154000    63.865967   -4620.4012   -4510.9371   -4620.4012            0    2370.3859    18.021384    23.303297    21.750015    9134.0856    2470.4939    2577.6299     2063.034    517.95349    72.235996    -296.3562    -4195.175 
37155000    67.715635   -4623.3217   -4507.2594   -4623.3217            0    1907.2339     17.87839    23.361112     21.92861    9158.6831    1323.9025    1844.2802    2553.5188    263.41107    3.6729343      118.729   -4252.5102 
37156000     63.16374   -4625.6647   -4517.4042   -4625.6647            0    2479.9166    17.901075    23.291884    21.867947    9117.8355    2268.9168    2592.4622    2578.3707   -185.58104    -612.8672    231.58478   -4187.6391 
37157000    66.333763   -4623.0771   -4509.3833   -4623.0771            0    2378.0452    17.985185    23.206425     21.87782     9131.186    2166.7685    3054.8424    1912.5246    377.86309   -360.24054    103.00904   -4192.7014 
37158000    67.087329   -4624.1987   -4509.2133   -4624.1987            0    2610.0772    17.855662    23.293725    21.903485    9110.2045    3261.2423    2207.3117    2361.6777   -144.84625    205.42394    199.23661   -4162.4306 
37159000    66.663151    -4621.327   -4507.0687    -4621.327            0    2254.5808    17.763522    23.299314    22.092889    9143.7579    3465.4848    2025.8939    1272.3637    237.07975   -236.67264    314.41024   -4206.4151 
37160000    67.584037   -4615.3948   -4499.5581   -4615.3948            0    1858.2313    17.915469    23.283719    21.951614     9156.869    1030.0095    1953.1958    2591.4886    321.43016    -90.70017    499.69094   -4251.4033 
37161000    65.701377   -4625.6743   -4513.0644   -4625.6743            0    2148.0363    17.913065    23.308935    21.877876    9134.7674    2560.4259    1595.8527    2287.8303    161.95777   -54.718174    97.595906   -4226.9004 
37162000    67.394626   -4624.3601    -4508.848   -4624.3601            0    1747.8453    17.977916    23.248314    21.862821    9137.7021    1071.0263    2176.1143    1996.3953   -750.68463    5.5022572    188.66961   -4275.9231 
37163000    68.140933   -4621.5948   -4504.8036   -4621.5948            0    2113.8473    17.884396    23.320549    21.906231    9136.5178    2274.6997     1607.665    2459.1772   -5.6341357   -177.78907    615.34491   -4223.1403 
37164000    70.603019   -4628.6093   -4507.5982   -4628.6093            0     2210.603    17.887409    23.353544    21.855212    9129.6739     2265.924    2606.9055    1758.9794    31.550554   -125.59034    -366.5628   -4213.2632 
37165000    69.190766   -4625.7237   -4507.1331   -4625.7237            0    2205.9512    17.877628    23.355436    21.857119    9126.2167    2322.4522    1835.9275    2459.4738    82.485528   -147.58401   -309.38131   -4213.5287 
37166000     66.22372   -4615.8089   -4502.3037   -4615.8089            0    1959.9923     17.93733    23.487969    21.701514    9143.0966    2391.6622     1533.301    1955.0138    239.59863    132.91513   -121.60297   -4240.9531 
37167000    64.916414   -4621.8698   -4510.6053   -4621.8698            0    2433.7265    17.913735    23.201659    21.941502     9119.511    2829.8965    2631.9473    1839.3357   -231.63259    80.855895    19.432498   -4186.9228 
37168000    71.458838   -4617.6108   -4495.1328   -4617.6108            0    2648.8736     17.87017     23.37751    21.829503    9119.4944    1729.7171    2881.2358    3335.6679    261.74573    347.60306    70.777484   -4142.8366 
37169000    69.492677   -4618.5284   -4499.4203   -4618.5284            0    1740.6395    17.881553    23.408536    21.895832    9165.1788     1540.463    1778.7191    1902.7365   -81.965517    289.80425   -402.41043   -4266.7582 
37170000    67.419359   -4621.0869   -4505.5324   -4621.0869            0    2149.5582    17.887794    23.352386    21.863855    9133.0277    2240.9462    1883.1011    2324.6274   -274.64075    25.993068   -201.38964   -4219.2202 
37171000    66.618361   -4621.4184   -4507.2369   -4621.4184            0     2031.911    17.837256    23.317173    21.984248    9143.5648    2684.5991    1946.9653    1464.1685    278.25354    189.41571    -363.2775   -4236.2825 
37172000    70.372845   -4629.8668   -4509.2502   -4629.8668            0    934.89764    18.016157    23.290275    21.911188    9193.9621    989.28895    861.65991    953.74405    47.438405    81.144185    -192.4328   -4383.8949 
37173000    66.656527   -4622.3314   -4508.0844   -4622.3314            0    2113.5778    17.884546    23.296114    21.948354    9144.5715    3272.6007    2012.3483    1055.7844   -144.16386     93.28853    15.795515   -4226.2088 
37174000     67.21059   -4627.6519   -4512.4552   -4627.6519            0     2246.923    17.902755    23.420896    21.782808       9133.5    2251.4781    1597.2177    2892.0732   -264.19301    126.31105    293.48371    -4213.159 
37175000    68.544439   -4618.0412   -4500.5584   -4618.0412            0    2507.0037    17.944459    23.115142    22.010825    9129.8418    2253.7255     2614.986    2652.2995     360.7687    49.669341   -252.93344   -4166.7524 
37176000    65.555603   -4622.1221    -4509.762   -4622.1221            0    1637.4667    17.969913    23.339361    21.850319    9164.1611    1657.7156    2078.4341    1176.2503    247.32707    44.372893    101.03174   -4290.9148 
37177000    69.486677   -4617.6762   -4498.5784   -4617.6762            0    2091.7993    17.924568    23.315021    21.887508    9147.0452    1930.3766    2353.9424    1991.0789   -452.39621     10.93175   -16.616895   -4219.5318 
37178000    66.987559   -4612.7041   -4497.8897   -4612.7041            0    2540.2834    17.901444    23.324461    21.831657    9115.6234    2677.1053    2195.7877    2747.9574   -522.39147    8.9033982    189.55546   -4160.1793 
37179000    66.965825   -4621.8721   -4507.0949   -4621.8721            0    2324.2774    17.961711    23.278987    21.842482    9133.0066     1376.432    1871.7282     3724.672   -82.151557    -81.83673   -130.09231   -4197.5116 
37180000    67.675489    -4622.191   -4506.1975    -4622.191            0    2655.9083    17.829093     23.25381     21.97078     9108.961     2991.598    2933.3123    2042.8146    -631.2679   -82.306619   -146.21597   -4153.3738 
37181000    70.586256   -4624.1239   -4503.1414   -4624.1239            0    1830.5123    17.997395    23.338547    21.798691    9156.1702    973.58766    2405.2931    2112.6561    281.34586   -169.01902   -237.59136    -4258.707 
37182000    67.129539   -4610.2408    -4495.183   -4610.2408            0    2680.7875    17.842275    23.303547    21.936348    9120.8766    3196.4132    1789.2421    3056.7071    333.09391   -50.384437   -214.18205   -4138.5883 
37183000    65.954878    -4621.964   -4508.9196    -4621.964            0    2911.0953    17.986449     23.18446    21.823164    9100.3924    2586.0317    3078.7453    3068.5091    336.27228    306.56823   -119.08933   -4122.5594 
37184000    63.767385   -4621.9377   -4512.6426   -4621.9377            0      1972.03    17.953347    23.232867    21.901299    9135.2006    2249.6205    2142.2519    1524.2176     -346.002   -438.52459    218.92989   -4249.9139 
37185000    68.683883   -4617.3311   -4499.6093   -4617.3311            0     2404.548     17.89094    23.371401    21.824541    9125.6334    2525.1476    2380.6286    2307.8677   -238.26085   -642.12664   -116.58574   -4179.5928 
37186000    68.777883   -4616.6012   -4498.7182   -4616.6012            0     2843.761       17.751    23.329701    21.983369    9103.8742    2557.5485    2894.9572    3078.7773   -609.58321    381.73964    232.92725   -4121.1502 
37187000    66.081245   -4620.7241   -4507.4631   -4620.7241            0    2653.4032    17.911981    23.295531    21.835999    9111.4881    2974.8123    2152.1319    2833.2654    -460.2773   -375.74563    320.25697   -4154.8743 
37188000    70.900307   -4617.9425   -4496.4218   -4617.9425            0    2604.3723    17.836004    23.213014    22.003718    9110.1427    3042.7133    3016.9336    1753.4699   -744.54439    66.471391    360.10934   -4150.3994 
37189000    64.845062   -4623.6422      -4512.5   -4623.6422            0    1637.8043    18.003011    23.312253     21.81207    9154.3242    1544.5229    929.10448    2439.7855    212.65817   -17.645903   -73.209887   -4293.8426 
37190000    67.263962   -4609.0146   -4493.7265   -4609.0146            0    2592.7902    17.761319    23.345818    22.000187     9122.433    2439.8607    2889.2314    2449.2785   -539.10131    638.59031   -513.96745   -4148.7782 
37191000    65.812775   -4615.7595   -4502.9586   -4615.7595            0    1861.1868    17.941119    23.289337     21.91762    9157.9872    2007.4917    1649.0457    1927.0229    40.768467    242.64717    115.15033   -4254.3788 
37192000    69.264925   -4621.5472   -4502.8295   -4621.5472            0    1931.5669    17.912547     23.25111    21.960464     9146.239    2599.3935    2050.6463    1144.6609    829.32279    60.444747   -91.323566   -4245.1807 
37193000    67.795036   -4619.0624   -4502.8641   -4619.0624            0    2170.4053    18.022062    23.270983    21.795888     9141.001    1997.8651    2163.4981    2349.8526   -212.16041   -322.43553      38.4851   -4213.5227 
37194000    69.427709   -4614.5538    -4495.557   -4614.5538            0    2097.1265    17.971943    23.138236    21.968327    9135.2883    2064.0976    2594.6023    1632.6797   -254.18209   -624.87739    312.84768   -4216.1594 
37195000    67.141534   -4620.5274   -4505.4491   -4620.5274            0    2684.5543    17.901819    23.293818    21.858102    9114.8661    3077.0034    2494.9051    2481.7544   -164.08011   -146.42979    91.606375   -4148.5887 
37196000    67.237606   -4619.9124   -4504.6694   -4619.9124            0    2089.6497    17.849134    23.456768    21.809128    9131.1113    2384.7897    1741.9158    2142.2436   -163.71872   -527.65435   -29.242919   -4226.3952 
37197000      65.4021   -4616.5875   -4504.4906   -4616.5875            0    2619.8797    17.855041    23.488606    21.790658    9138.7845    2575.8055    2305.6655    2978.1682    291.44919   -470.98027   -427.19611   -4155.3135 
37198000    67.356165    -4616.426   -4500.9798    -4616.426            0     3074.624    17.848244    23.214786    21.919437    9082.1688    3415.1814    3070.2797     2738.411    -60.06786   -351.06462   -209.75945   -4093.7332 
37199000    67.208434   -4616.9551   -4501.7621   -4616.9551            0    1694.0595    17.958393    23.305278    21.880325    9157.4704    1433.9033    1718.7138    1929.5613    142.93784   -93.017329    52.298007   -4275.5166 
37200000    67.154807   -4621.4468   -4506.3458   -4621.4468            0    1296.9304    17.965956    23.291435    21.903819    9165.7166    1778.3503    820.31716    1292.1238    147.36113   -203.81622    89.075032   -4332.9818 
37201000    67.679189   -4619.0519    -4503.052   -4619.0519            0    1256.1059    17.892324    23.249314    22.056945     9175.342    1628.0122    1881.2603    259.04527    -81.51381    199.56918   -165.03734   -4334.9688 
37202000    66.749256   -4614.7875   -4500.3815   -4614.7875            0    2458.4934    17.789037    23.419926    21.871073    9111.8812    3051.3236     2426.065    1898.0918   -285.14885   -23.513386    131.60166   -4173.6786 
37203000    64.040568   -4617.4928   -4507.7294   -4617.4928            0    2863.6091    17.880778    23.190643    21.956013    9104.4283    3521.8276    2548.1819     2520.818    327.05868     -492.396    17.791209    -4127.503 
37204000    65.563915   -4622.7387   -4510.3644   -4622.7387            0    2085.0976    17.953375     23.24308    21.916601    9145.6165    2052.3496    2034.5057    2168.4375   -87.501036   -181.72594    -395.3375   -4232.2552 
37205000    61.633963   -4617.1587   -4511.5202   -4617.1587            0     2772.699    17.898039    23.245099    21.871286    9099.3668    2616.5127    3309.4789    2392.1052   -687.08004   -48.219657   -496.27464   -4143.5694 
37206000    67.129594   -4624.7489   -4509.6911   -4624.7489            0    2443.8498    17.916813    23.179525    21.955387    9118.1427    2112.7771    2256.2618    2962.5105   -55.088532   -97.792208   -265.99771    -4184.711 
37207000      69.1849   -4626.4535   -4507.8729   -4626.4535            0    2070.3413    17.889038    23.238225    21.970921    9133.5204    2389.6611    2183.0401    1638.3227    16.206924    178.77844    305.03381   -4232.0972 
37208000    69.197337    -4619.461   -4500.8591    -4619.461            0    1646.0929    17.977628    23.124834    22.019729    9154.2541     1844.868    2210.2171    883.19345   -65.981101   -103.00135    288.35969   -4281.0968 
37209000    65.405145   -4614.2922     -4502.19   -4614.2922            0    3225.5771    17.939275    23.293539    21.792263    9106.3158    2684.9263    3119.9468    3871.8581   -153.06322     31.85183    149.88531   -4073.8131 
37210000    69.668992   -4618.5678   -4499.1575   -4618.5678            0    2200.7493    17.941907    23.251405    21.922803    9145.6357    1520.5087    3051.2803    2030.4589   -35.344193   -656.22719    6.0608148   -4205.6222 
37211000    67.252166   -4623.2114   -4507.9435   -4623.2114            0     1478.842    17.918628    23.304467    21.942599      9162.88     1782.964    2144.9055    508.65662    43.598282   -363.45536   -212.83933   -4310.3241 
37212000    70.469988   -4626.4416   -4505.6584   -4626.4416            0    1756.9393    17.840028    23.409068    21.939941    9162.5237    2206.0213    1270.4424    1794.3541   -132.88246   -171.56521    97.240237   -4270.8856 
37213000    71.780589   -4623.4506   -4500.4211   -4623.4506            0    1419.2113    17.940122    23.286691    21.943232    9167.1378    1093.9164     1993.905    1169.8127    318.51786   -168.36515    342.28542   -4310.6821 
37214000    68.016996   -4623.2565   -4506.6777   -4623.2565            0    1658.6383     17.83534    23.285829    22.047912    9156.7332    2402.1029    1287.5556    1286.2564    -44.36861    69.334995    94.147996   -4285.1806 
37215000    66.064276   -4630.8278   -4517.5959   -4630.8278            0    2719.3485    17.964827    23.225452     21.84386    9114.1591    2717.6525     2598.877     2841.516    60.378167   -193.26738    41.063127   -4156.1383 
37216000    67.454394   -4625.0203   -4509.4057   -4625.0203            0    2827.6675    17.864991    23.359949    21.813449    9103.3035    2383.3821    1917.4883    4182.1322   -396.70372    39.501034    91.378169    -4133.998 
37217000    66.973609    -4627.492   -4512.7015    -4627.492            0    1908.7076     17.84741    23.341079    21.966092    9150.5865    2578.8267    2377.8214    769.47458   -144.22197   -376.61921   -423.18778   -4257.9808 
37218000    67.100961   -4619.8853   -4504.8765   -4619.8853            0    2070.5623     17.94695    23.242312    21.919363     9143.193    1839.9281    2364.4316    2007.3274   -12.760517    197.83277   -222.80953   -4228.7793 
37219000    68.304198   -4619.2464   -4502.1754   -4619.2464            0    1579.4256    18.008975    23.262167    21.903555    9176.0079    994.57521    2491.2845    1252.4172   -219.52134    3.7719905    85.236806   -4290.8124 
37220000    66.328265   -4624.5389   -4510.8545   -4624.5389            0    2253.9053    17.941148     23.13888    21.958957    9115.9995     1887.462     2378.675    2495.5789   -2.9985428   -214.65248    133.64591   -4211.2035 
37221000    66.738447   -4618.9234    -4504.536   -4618.9234            0    1957.3865    17.970613    23.307638    21.822096    9140.2403    2115.9194    1226.5974    2529.6426   -448.77103   -248.83853    191.66814   -4243.6144 
37222000    68.016495   -4626.2419   -4509.6639   -4626.2419            0    2398.8965    17.834818    23.392795    21.852739    9117.0993    2530.5517    2366.5375    2299.6004    538.00734    312.48935     357.5718   -4190.6982 
37223000    65.315079    -4620.062   -4508.1142    -4620.062            0    1843.7513    17.955191    23.302111    21.889976    9158.6312    1564.1057     1451.834    2515.3144    296.02511    187.12357    113.52637   -4261.8458 
37224000    67.157596   -4619.5295   -4504.4237   -4619.5295            0    2205.2743    17.882584    23.410194    21.820881     9134.979    2324.9592    2191.5779    2099.2857   -29.848506    447.61461    411.50725   -4210.6276 
37225000    69.552725    -4628.589    -4509.378    -4628.589            0    2561.6181    17.758202    23.349907    21.960595    9106.0123    3218.1495    2207.1123    2259.5925   -331.61373    209.67154    456.10808   -4169.1904 
37226000    67.838808   -4621.4763   -4505.2029   -4621.4763            0     1978.096    17.843231    23.392322    21.884398    9134.4299    2376.4369    1713.3974    1844.4539   -213.38935    81.443826    202.38845   -4241.6883 
37227000    73.212255   -4614.2759   -4488.7926   -4614.2759            0    2286.9026    17.836614    23.282814    21.980245    9128.1004    3130.4025    2384.5147    1345.7905   -378.97532   -182.13249    181.02176    -4184.351 
37228000    71.271524   -4621.8753   -4499.7184   -4621.8753            0    2144.2663    17.967923    23.243644    21.911128    9150.9639    2100.0857    2165.4919    2167.2214   -682.76047    40.729894    109.61604   -4213.5501 
37229000    67.635873   -4618.2859   -4502.3603   -4618.2859            0    1744.7029    17.900861    23.278571    21.956912    9149.5872    2719.6063    1898.8615    615.64096   -165.80708    167.60674    399.71004   -4269.5518 
37230000    67.540618   -4612.7619   -4496.9996   -4612.7619            0    1397.6949    17.808583    23.518097    21.880335    9164.0091    2557.1207     482.0309     1153.933   -145.07278    589.32474   -190.63179   -4310.2009 
37231000    71.373714   -4622.4972   -4500.1651   -4622.4972            0    2079.4943    17.844611     23.34916    21.941746    9142.1751    1650.0428     2585.468     2002.972   -542.67454    349.86329     235.4487   -4222.9077 
37232000    70.695571   -4623.3447   -4502.1749   -4623.3447            0    2875.0289    17.969111    23.109751    21.902587    9095.3047    2261.0853    3273.0033    3090.9979   -865.93776   -89.818279   -11.961922   -4120.8147 
37233000     64.02722   -4619.0636   -4509.3232   -4619.0636            0    1445.1244    17.803628    23.296829    22.087217    9161.0725    1864.5849     1646.767     824.0214    101.68117   -564.49972    311.56358   -4316.2475 
37234000    67.449337   -4616.2476   -4500.6418   -4616.2476            0    1953.6911    17.986723    23.239359    21.918361    9161.8732    1431.4853    2124.9209    2304.6672    378.03135    339.31355    245.40699   -4239.5963 
37235000    63.200923   -4618.2343     -4509.91   -4618.2343            0    2298.2407    17.918027    23.340871    21.819497    9125.4014     2648.929    1402.3031    2843.4899    37.615129    239.35448    478.47427   -4204.0495 
37236000    67.598886   -4622.8787   -4507.0166   -4622.8787            0      1863.15    17.905295    23.300649    21.944345      9155.29    1370.8888    2096.4493    2122.1119   -134.87186    -481.9619   -225.47596   -4258.2478 
37237000     65.13511   -4616.6958   -4505.0564   -4616.6958            0    2132.4224    17.796702    23.356787    21.992388     9141.659    2161.2402    1626.1326    2609.8945    184.73512   -39.566848   -43.153231   -4220.7582 
37238000    70.076418   -4619.8402   -4499.7317   -4619.8402            0    2825.9672    17.827534    23.344924    21.878571    9105.4763    3317.2243    3274.1578    1886.5196   -99.893745    260.09165   -35.819781   -4124.4601 
37239000    65.300623   -4614.2378   -4502.3147   -4614.2378            0    1799.5492    17.974212    23.334402    21.818366    9151.0044    905.60387    1494.3635    2998.6803    230.92545    329.58327   -55.060207   -4262.1505 
37240000    71.646291   -4626.1836   -4503.3843   -4626.1836            0    2251.4807    17.972542    23.237725    21.858676    9129.0789    2112.0796    2920.3023    1722.0601   -38.005292    9.7190606   -200.49949   -4203.6261 
37241000    63.613128   -4621.8312   -4512.8005   -4621.8312            0     1594.627    17.855335    23.310248    21.988148    9151.7374      2238.63      1216.58     1328.671   -523.42873    123.99799    5.1990161   -4299.9677 
37242000    68.150997    -4620.245   -4503.4365    -4620.245            0    2368.4037    17.978954    23.167902    21.887441     9116.877     2071.186    2726.3682    2307.6569    181.78891   -369.32055     180.1428   -4188.5328 
37243000    67.661412    -4613.907   -4497.9377    -4613.907            0    2203.1214    17.860278    23.246637    21.987993     9129.226    2130.7489    2313.6511    2164.9642    343.83309   -68.831276    367.58928   -4204.6132 
37244000    67.535554   -4616.7289   -4500.9753   -4616.7289            0    2428.2802    17.933538    23.280997    21.870765    9131.2773    2356.6366    1868.6121    3059.5917    66.841173   -322.31393    53.392539   -4177.6004 
37245000    69.532833   -4616.6832   -4497.5063   -4616.6832            0    2851.9777    17.960733     23.13479    21.940564    9116.6947    1988.6693    4159.8812    2407.3828    55.179731   -557.05336    113.66946   -4118.3141 
37246000    65.161233   -4619.8603   -4508.1762   -4619.8603            0    1426.3579    18.005989    23.241059    21.894353    9162.3105    2134.0816    1207.2157    937.77635    189.12522   -228.95804    100.71798   -4317.5821 
37247000    67.585981   -4623.5898   -4507.7498   -4623.5898            0    1795.4908    17.919811    23.289303    21.950457    9160.8015    1962.9749     1795.255    1628.2424    768.16153   -315.87184   -149.00243   -4267.8706 
37248000     70.52974   -4616.5586    -4495.673   -4616.5586            0    2440.0495    17.952427    23.135779    21.981127    9129.7157    2201.4306    2830.4976    2288.2203   -436.01237    33.259397    58.939622   -4170.7865 
37249000    65.017286    -4622.068   -4510.6306    -4622.068            0    3148.2156    17.794334     23.40325    21.831185    9091.4938    3154.2275    3327.9961    2962.4231   -360.75459   -79.574979    13.166452   -4093.2084 
37250000    69.153565   -4613.2513   -4494.7245   -4613.2513            0    2074.9517    17.902834    23.365754    21.872692     9149.636    2828.1502    1949.3127    1447.3921    214.30985   -306.01938    23.942478    -4217.847 
Loop time of 332.203 on 64 procs for 250000 steps with 864 atoms

Performance: 130.041 ns/day, 0.185 hours/ns, 752.553 timesteps/s
195.9% CPU use with 32 MPI tasks x 2 OpenMP threads

MPI task timing breakdown:
Section |  min time  |  avg time  |  max time  |%varavg| %total
---------------------------------------------------------------
Pair    | 16.932     | 24.611     | 33.813     | 111.3 |  7.41
Bond    | 0.94282    | 1.1852     | 1.3945     |   9.7 |  0.36
Kspace  | 166.55     | 177        | 187.46     |  44.3 | 53.28
Neigh   | 0.12103    | 0.13011    | 0.14272    |   1.6 |  0.04
Comm    | 47.082     | 50.796     | 54.005     |  22.0 | 15.29
Output  | 0.49227    | 0.49251    | 0.49389    |   0.0 |  0.15
Modify  | 60.958     | 63.647     | 67.867     |  19.0 | 19.16
Other   |            | 14.34      |            |       |  4.32

Nlocal:        27.0000 ave          40 max          17 min
Histogram: 5 5 4 2 4 2 2 2 3 3
Nghost:        2160.31 ave        2267 max        2052 min
Histogram: 8 8 0 0 0 0 0 0 7 9
Neighs:        6642.47 ave        9490 max        4033 min
Histogram: 3 4 7 1 2 5 2 0 3 5

Total # of neighbors = 212559
Ave neighs/atom = 246.01736
Ave special neighs/atom = 2.0000000
Neighbor list builds = 470
Dangerous builds = 0

unfix		3
unfix		2
unfix		1

write_data	data.final.${pid} nocoeff
write_data	data.final.0 nocoeff
System init for write_data ...
PPPM initialization ...
  extracting TIP4P info from pair style
  using 12-bit tables for long-range coulomb (../kspace.cpp:340)
  G vector (1/distance) = 0.37207998
  grid = 24 27 25
  stencil order = 5
  estimated absolute RMS force accuracy = 0.0031160899
  estimated relative force accuracy = 9.3840122e-06
  using double precision FFTW3
  3d grid and FFT values/proc = 4410 672
Last active /omp style is kspace_style pppm/tip4p/omp

write_restart   restart.lmp.${pid}
write_restart   restart.lmp.0
System init for write_restart ...
PPPM initialization ...
  extracting TIP4P info from pair style
  using 12-bit tables for long-range coulomb (../kspace.cpp:340)
  G vector (1/distance) = 0.37207998
  grid = 24 27 25
  stencil order = 5
  estimated absolute RMS force accuracy = 0.0031160899
  estimated relative force accuracy = 9.3840122e-06
  using double precision FFTW3
  3d grid and FFT values/proc = 4410 672
Last active /omp style is kspace_style pppm/tip4p/omp
Total wall time: 0:05:32
