LAMMPS (30 Jul 2021)
  using 1 OpenMP thread(s) per MPI task
package omp 0
using multi-threaded neighbor list subroutines
echo both

include		in.partitions
variable        pid world 0
include		in.temp
variable        temperature equal 288.47
variable	tempDamp equal 100.0
include		in.pressure
variable        pressure equal 12500.0
variable        pressureDamp equal 1000.0 # This is 1 ps
include		in.seed
variable        seed world 745823

units		real
atom_style	full
read_restart	restart.lmp.${pid}
read_restart	restart.lmp.0
Reading restart file ...
  restart file = 30 Jul 2021, LAMMPS = 30 Jul 2021
  restoring atom style full from restart
  orthogonal box = (-0.071523123 -0.13867246 -0.040040054) to (24.801524 24.868673 22.850040)
  4 by 4 by 4 MPI processor grid
  restoring pair style lj/cut/tip4p/long/omp from restart
  restoring bond style harmonic/omp from restart
  restoring angle style harmonic/omp from restart
  1920 atoms
  1280 bonds
  640 angles
Finding 1-2 1-3 1-4 neighbors ...
  special bond factors lj:    0        0        0       
  special bond factors coul:  0        0        0       
     2 = max # of 1-2 neighbors
     1 = max # of 1-3 neighbors
     1 = max # of 1-4 neighbors
     2 = max # of special neighbors
  special bonds CPU = 0.199 seconds
  read_restart CPU = 0.383 seconds
include 	in.setup
variable	out_freq equal 1000
variable	out_freq2 equal 10000
variable	out_freq3 equal 1000

timestep	2.0

neigh_modify    delay 7 every 1

include		in.tip4p
# This is TIP4P/Ice

# create groups ###
group ox type 2
640 atoms in group ox
group hy type 1
1280 atoms in group hy

# set charges - beside manually ###
set group ox charge -1.1794
Setting atom values ...
  640 settings made for charge
set group hy charge 0.5897
Setting atom values ...
  1280 settings made for charge

# ### TIP3P Potential Parameters ###
pair_style lj/cut/tip4p/long/omp 2 1 1 1 0.1577 8.5
pair_coeff 1 1*2 0.000 0.000
pair_coeff 2 2 0.21084 3.1668
bond_style  harmonic
bond_coeff  1 450 0.9572
angle_style harmonic
angle_coeff 1 55 104.52
kspace_style pppm/tip4p/omp 1.0e-5
pair_modify tail yes

thermo          ${out_freq}
thermo          1000
thermo_style    custom step temp pe etotal epair emol press lx ly lz vol pxx pyy pzz pxy pxz pyz enthalpy

restart 	${out_freq3} restart.lmp.${pid} restart2.lmp.${pid}
restart 	1000 restart.lmp.${pid} restart2.lmp.${pid}
restart 	1000 restart.lmp.0 restart2.lmp.${pid}
restart 	1000 restart.lmp.0 restart2.lmp.0


include         in.dump
dump            myDump all atom ${out_freq2} dump.water.${pid}
dump            myDump all atom 10000 dump.water.${pid}
dump            myDump all atom 10000 dump.water.0
dump            myDump2 all dcd ${out_freq2} dump.dcd
dump            myDump2 all dcd 10000 dump.dcd
dump_modify     myDump append yes
dump_modify     myDump2 append yes


variable natoms 	equal  "count(all)"                        # NUMBER ATOMS
variable H      	equal  "enthalpy/v_natoms"                 # ENTHALPY-per-atom
variable Vol      	equal  "vol/v_natoms"                 # volume-per-atom
fix AVG all 		ave/time ${out_freq} 1 ${out_freq} v_Vol v_H file vol_enthalpy.dat
fix AVG all 		ave/time 1000 1 ${out_freq} v_Vol v_H file vol_enthalpy.dat
fix AVG all 		ave/time 1000 1 1000 v_Vol v_H file vol_enthalpy.dat




fix 		1 all shake 1e-6 200 0 b 1 a 1
       0 = # of size 2 clusters
       0 = # of size 3 clusters
       0 = # of size 4 clusters
     640 = # of frozen angles
  find clusters CPU = 0.050 seconds
fix             2 all nph aniso ${pressure} ${pressure} ${pressureDamp}
fix             2 all nph aniso 12500 ${pressure} ${pressureDamp}
fix             2 all nph aniso 12500 12500 ${pressureDamp}
fix             2 all nph aniso 12500 12500 1000
fix             3 all temp/csvr ${temperature} ${temperature} ${tempDamp} ${seed}
fix             3 all temp/csvr 288.47 ${temperature} ${tempDamp} ${seed}
fix             3 all temp/csvr 288.47 288.47 ${tempDamp} ${seed}
fix             3 all temp/csvr 288.47 288.47 100 ${seed}
fix             3 all temp/csvr 288.47 288.47 100 745823


run             250000
PPPM initialization ...
  extracting TIP4P info from pair style
  using 12-bit tables for long-range coulomb (../kspace.cpp:340)
  G vector (1/distance) = 0.37451274
  grid = 30 30 30
  stencil order = 5
  estimated absolute RMS force accuracy = 0.0032667216
  estimated relative force accuracy = 9.8376349e-06
  using double precision FFTW3
  3d grid and FFT values/proc = 3600 512
Last active /omp style is kspace_style pppm/tip4p/omp
Neighbor list info ...
  update every 1 steps, delay 7 steps, check yes
  max neighbors/atom: 2000, page size: 100000
  master list distance cutoff = 10.8154
  ghost atom cutoff = 10.8154
  binsize = 5.4077, bins = 5 5 5
  1 neighbor lists, perpetual/occasional/extra = 1 0 0
  (1) pair lj/cut/tip4p/long/omp, perpetual
      attributes: half, newton on, omp
      pair build: half/bin/newton/omp
      stencil: half/bin/3d
      bin: standard
Per MPI rank memory allocation (min/avg/max) = 9.332 | 9.339 | 9.345 Mbytes
Step Temp PotEng TotEng E_pair E_mol Press Lx Ly Lz Volume Pxx Pyy Pzz Pxy Pxz Pyz Enthalpy 
10250000    291.40979   -8971.3044   -7860.3174   -8971.3044            0    11691.835    24.873047    25.007346     22.89008    14237.833     12197.38    11402.495     11475.63    656.68596    625.61894    528.26998   -5432.5756 
10251000    283.85607   -8987.3955   -7905.2067   -8987.3955            0    11842.729    24.761788    24.972447    23.006236    14226.193    12627.543    10914.926     11985.72    190.70989    99.723951   -597.74731   -5448.1433 
10252000    289.70312   -8986.6776   -7882.1972   -8986.6776            0    12409.687    24.809153    25.045508    22.807678     14171.73    13830.165     10405.11    12993.785   -987.59631   -1430.6083   -606.73253   -5317.3613 
10253000    284.87422   -8967.2261   -7881.1557   -8967.2261            0    13502.635    24.810722    24.872983    22.937038    14154.828    13236.723    14559.061    12712.121   -723.72915    26.451629    626.84752   -5093.7575 
10254000    278.48597   -8995.5562   -7933.8407   -8995.5562            0    13190.411    24.852223    24.881099    22.910535    14166.743    13062.196    13216.186     13292.85    56.137756    -120.3198     1138.543   -5208.6039 
10255000    288.99493    -8967.817   -7866.0366    -8967.817            0     13292.57    24.962425    24.928507    22.751726    14157.853    11851.617    14413.762     13612.33    362.80274   -216.33388    543.79648   -5121.4166 
10256000    292.54348   -8960.8027   -7845.4936   -8960.8027            0    12859.994    24.873785    24.778642    23.038443    14199.482    13218.969    13582.117    11778.896   -351.32181    -51.82859   -246.16361   -5182.3832 
10257000    288.06965   -9017.7167   -7919.4638   -9017.7167            0     12123.41    24.993383    24.954162    22.793287    14215.921    12358.424    11629.567    12382.239     621.9556    555.13699   -819.84056   -5405.9824 
10258000    289.99429   -9038.9726    -7933.382   -9038.9726            0    11446.056    24.846466    24.883529    23.029591    14238.453    10906.916    11893.142    11538.109   -212.09517    -215.7535   -507.39722   -5556.5715 
10259000    285.12791   -8937.3812   -7850.3436   -8937.3812            0    12130.023    24.882563    24.903531    23.010157    14258.559    11591.823    12897.738    11900.509    552.40643    538.00729     466.8222   -5327.9482 
10260000    285.15271   -8952.6792    -7865.547   -8952.6792            0    11541.397    24.971247    25.111939    22.731971    14254.683    11040.508    11018.654    12565.028   -132.28107    889.71402    320.79258   -5466.2067 
10261000     277.0342   -8965.4287    -7909.248   -8965.4287            0    12788.525    24.865107    24.884617    22.938825    14193.596    13275.204    12870.065    12220.307   -1157.0893    1550.0324    1007.4747   -5262.0355 
10262000    292.96201    -8987.173   -7870.2682    -8987.173            0    10160.564    25.030171    25.021451    22.887317    14334.125    11009.098    9854.0867    9618.5068    902.16433    643.13181    312.93738   -5746.2174 
10263000    289.83071   -8978.9317   -7873.9649   -8978.9317            0    12059.093    24.905344     24.91459    22.985068    14262.382    11720.093    12325.726    12131.459    801.95493    279.20785   -194.74673   -5365.6469 
10264000    281.43368   -9022.6254   -7949.6719   -9022.6254            0    12074.656    24.967272       24.828    22.911635    14202.634    11908.285    12248.348    12067.334   -1352.5343   -72.443523   -1291.3904   -5448.6381 
10265000    283.16743   -8972.5522   -7892.9888   -8972.5522            0    11922.919    25.142341    24.869241    22.771057     14238.08    9761.8357     13381.82      12625.1   -762.40832   -1267.3861    661.81002   -5417.2211 
10266000    289.56486   -8980.9833     -7877.03   -8980.9833            0    12947.846    24.922242    24.866773    22.896286    14189.646     13913.04    12729.932    12200.564   -434.64625   -312.86971    217.97267   -5197.5842 
10267000    298.24361   -9010.7268   -7873.6861   -9010.7268            0     12977.67    24.935516    24.726698    22.939653     14143.97    12509.611     15172.35    11251.049    261.38724   -299.46759    403.70845   -5196.7135 
10268000    295.11657   -9059.6967   -7934.5778   -9059.6967            0     11551.53    24.863416    25.024564    22.853668    14219.464    12591.297    10833.908    11229.385     314.5042   -1272.3222   -9.4354379   -5539.0643 
10269000     286.6761   -8998.4905   -7905.5505   -8998.4905            0    12074.421    24.805705    24.987599    22.913892    14202.833    12092.783    11683.746    12446.734   -407.83582   -542.26956    1112.0082   -5404.5304 
10270000    289.97201   -9033.3005   -7927.7949   -9033.3005            0    11936.732    24.760227    25.039197    22.899476     14197.13    12394.383    11534.798    11881.017   -369.30406   -454.74058    277.46687   -5456.2875 
10271000    282.74808   -8982.0365   -7904.0718   -8982.0365            0    12989.056    24.901464    24.869367    22.835992    14141.956    12089.017    13959.159    12918.992   -778.64807   -1129.0679    412.87634   -5225.1319 
10272000    296.69549   -8988.3652   -7857.2267   -8988.3652            0     12636.49     24.97303    24.838888    22.850724    14174.357    12667.886     12848.98    12392.604   -200.81134    87.381404    -267.1025    -5245.031 
10273000    285.13146   -9032.2248   -7945.1736   -9032.2248            0    12637.316    24.849595    24.831505    22.942594    14156.793    13119.173    12776.564    12016.212   -747.07293   -521.29903    -1241.562   -5336.0443 
10274000    302.22494   -8951.9757   -7799.7564   -8951.9757            0    14118.952    24.947396    24.925135    22.787041    14169.374    14810.357    13742.511    13803.989    69.888776   -873.82351    35.334193   -4882.1344 
10275000    289.79304   -8986.5555   -7881.7323   -8986.5555            0    12543.411    24.771259    24.834148    23.102209    14211.858    12290.003    13473.471     11866.76    98.114274    478.58506   -418.98363   -5281.9175 
10276000    290.65222   -8954.8615   -7846.7626   -8954.8615            0    12716.507    24.972279    24.948296    22.813503    14213.172    11116.098     12380.95    14652.474    307.32216    338.94289    1453.6712   -5210.8273 
10277000    281.25481   -8954.7816     -7882.51   -8954.7816            0     11465.24    24.874031    24.904445    23.015203    14257.319    12637.776    11159.798    10598.144   -196.07953    342.64205   -989.67527   -5498.5613 
10278000    286.87723   -9015.4501   -7921.7433   -9015.4501            0    10606.001    24.932774    25.033198     22.87952    14280.186    11464.587    8609.2222    11744.195   -345.61498   -91.086815    -1791.693   -5712.9177 
10279000    283.79453   -9011.6998   -7929.7456   -9011.6998            0    10987.191    24.919886    24.930684    22.963533     14266.55    10924.816    10849.371    11187.386   -537.81361    -384.5111    126.94138   -5643.7177 
10280000    291.81908   -8972.8065   -7860.2591   -8972.8065            0    10405.207    24.891903    24.958688    22.992506    14284.537    11952.663    9811.5671    9451.3893    844.54988   -544.39656   -2.5178349   -5692.5911 
10281000    296.16487   -8984.0926    -7854.977   -8984.0926            0    10840.113    24.981947    25.056549    22.804251    14274.581    12156.983    9725.9233    10637.434   -595.53324   -723.13836    861.60735    -5598.281 
10282000    296.24279   -8993.0388   -7863.6261   -8993.0388            0    11186.809    24.817476    24.987285    23.013837    14271.371     12608.18    10708.058    10244.189    144.67265   -1084.7004     244.2443   -5535.2785 
10283000    295.86815   -9000.3879   -7872.4035   -9000.3879            0    12043.936    24.852278    25.133429    22.750131    14210.254    12392.196      10204.7    13534.913   -349.50445   -1647.7526    270.40909   -5376.3943 
10284000    281.37891   -9023.4554   -7950.7107   -9023.4554            0    11855.686    24.908804    24.870405    22.956892    14221.612    11930.048     11721.97    11915.041   -703.37719   -433.49446   -176.56458    -5491.751 
10285000    293.07569   -9075.2113   -7957.8731   -9075.2113            0    12203.408    24.928493    24.891768    22.863126    14186.896    12307.437    11583.187    12719.599   -751.60365    500.44941   -525.98279   -5432.9718 
10286000    289.86907    -9019.989   -7914.8759    -9019.989            0    11534.378    24.963568    24.930249    22.831931    14209.406    11222.956    10796.093    12584.085    209.35161    483.84962   -274.33883   -5524.6112 
10287000    293.39565   -9015.0006   -7896.4425   -9015.0006            0    12761.803     24.79454    24.796275    23.034748    14162.044    14191.583    12523.096     11570.73    458.97701    585.97478    70.916465   -5260.6339 
10288000      293.117   -8982.8638   -7865.3681   -8982.8638            0    13131.448    24.841818    24.936851     22.86645    14165.233    13703.703    11803.016    13887.624     71.69841     728.5786    1080.1345   -5152.6027 
10289000    278.20227   -8970.2719    -7909.638   -8970.2719            0    13349.884    25.051911    24.775654    22.795424    14148.606    12811.914     13662.11    13575.627   -725.96602    255.87541    667.46602   -5154.9841 
10290000    286.93241   -8996.1836   -7902.2663   -8996.1836            0    13897.071    24.788731    24.941859    22.861458    14134.714    13572.088      14989.5    13129.625   -46.278172    382.20207    1105.6104   -5037.5198 
10291000    288.27411   -9040.6199   -7941.5876   -9040.6199            0    13749.044    24.708572    24.832657    22.975471    14097.278    15484.028    12754.026    13009.076   -352.56519    -11.60479    262.02259    -5114.862 
10292000    283.82384   -8992.7155   -7910.6496   -8992.7155            0    11817.354     24.94573    24.979998    22.811351    14214.763    12051.377    11503.629    11897.057   -158.85876    813.81233    557.01218   -5460.8206 
10293000    288.73578   -8970.6602   -7869.8677   -8970.6602            0    13149.564    24.841712    24.814086    23.004527    14180.551    12417.558    13399.353    13631.781    374.28134    424.00603    642.34843   -5150.4224 
10294000    283.69053   -8971.1187    -7889.561   -8971.1187            0    13840.811    24.957031    24.927195    22.694371    14118.367    12581.769    15093.063    13847.603   -175.68055   -582.35516    -644.1149   -5039.7116 
10295000    272.52006   -9004.8547    -7965.884   -9004.8547            0    13543.357    24.831015    24.750616    22.997146    14133.653    14058.751    13545.461     13025.86   -212.33711   -443.11246   -409.72263   -5174.2617 
10296000    294.58872   -8962.9587   -7839.8521   -8962.9587            0    11808.504    24.971879     24.91004    22.853938    14216.304    11862.939    11596.984     11965.59    754.12116     674.1205   -1128.9892   -5391.5925 
10297000    286.16999   -8994.4888   -7903.4783   -8994.4888            0    13273.937    24.841429    24.802494    22.947658    14138.726    13233.681    13466.562    13121.567    100.06044   -572.32831   -496.35997   -5166.4081 
10298000    287.63764    -9003.965   -7907.3591    -9003.965            0    12554.701    24.877984    24.834605    22.943418    14175.244    13306.109    12235.925    12122.067    411.22884    345.54404   -188.88761   -5311.9083 
10299000    295.57453   -8989.0118   -7862.1469   -8989.0118            0    12580.822    24.871626    24.974866    22.828697    14180.399    12768.644    12393.361     12580.46    317.22592   -1548.5936   -31.834849   -5260.3502 
10300000    295.21743   -8970.4194   -7844.9159   -8970.4194            0    14268.952    24.704823    24.803916    23.035253    14115.458    14813.952     14820.05    13172.854   -1474.1154    562.60385    -466.9462   -4907.5169 
10301000    293.39697   -9005.1021   -7886.5391   -9005.1021            0     12219.54    24.874843    25.014427    22.835411    14208.876     11442.77     11383.19    13832.662   -320.57485    571.43557   -900.98175   -5354.3829 
10302000    294.19063   -9028.2772   -7906.6883   -9028.2772            0     11419.17    24.943971    24.958471    22.814626    14203.551    12244.537    10554.771    11458.202   -424.30448   -1001.5859    1045.0418   -5541.2733 
10303000    285.19583   -8996.8788   -7909.5822   -8996.8788            0     12192.65    24.867489    24.859087    22.983385     14207.94    12617.115    12082.854    11877.981    -135.0714   -253.00015    -698.2512   -5383.1648 
10304000    282.95271   -8962.0953   -7883.3506   -8962.0953            0    11549.212    24.971344    24.967866     22.86058    14253.141    11533.764    11883.433    11230.438    614.25213    699.29866   -141.45549   -5482.6454 
10305000    294.60666   -8995.9183   -7872.7433   -8995.9183            0    11761.262    24.889189    24.778502    23.048653    14214.492    10802.336    13582.495    10898.953    315.02584    171.01326   -1859.7884   -5434.5893 
10306000    290.52989   -8962.8474    -7855.215   -8962.8474            0    12452.007    24.957516    24.943928     22.81348    14202.269    11989.568    11891.207    13475.245   -1210.5852   -119.99835    702.04487   -5276.0865 
10307000    292.72875   -9011.9949   -7895.9794   -9011.9949            0    11987.126    24.895058    24.769242    23.045226    14210.417    10790.118    13235.118    11936.142   -557.69428    1477.8028   -27.164635    -5411.715 
10308000    283.63107   -8982.1672   -7900.8362   -8982.1672            0    13278.821    24.795426    24.871486    22.930093    14140.968    13027.669    13606.154    13202.641     249.5181    389.01368   -803.34632   -5162.3249 
10309000    289.27802   -8983.7076   -7880.8479   -8983.7076            0    13068.075    24.910313    24.945858    22.807609    14172.856    12547.291    12416.502    14240.433     254.6935   -1184.3975   -725.40025   -5179.7215 
10310000    280.17873   -9018.1251    -7949.956   -9018.1251            0    11997.093     24.70256    24.957506    23.005587    14183.273     12464.16    12481.999    11045.119   -348.66181   -318.85743   -695.36349   -5468.3755 
10311000     286.9506   -9009.5242   -7915.5377   -9009.5242            0    12945.385    24.811219    24.973145    22.863964    14166.836    12634.887    12916.297    13284.972   -468.40072    877.47017   -248.62447   -5240.9076 
10312000    290.58772   -8995.1361   -7887.2832   -8995.1361            0    13009.006    24.900724    24.937215    22.823128    14172.129    13848.852    12236.484    12941.683   -880.22937    162.27128     587.8318   -5198.5042 
10313000    294.60885   -8955.5906   -7832.4074   -8955.5906            0    13023.646    24.877956    24.947604    22.887755     14205.18    13900.783     12775.77    12394.384   -427.10822    425.64766    891.81863    -5134.325 
10314000    288.95652   -8978.6752   -7877.0412   -8978.6752            0     13122.63    24.852084    24.970055    22.823179    14163.104        13330    12577.776    13460.114   -1160.6341    1201.5329    280.27122   -5166.5049 
10315000    285.35288   -9051.1843    -7963.289   -9051.1843            0    11160.091    24.981445     24.88568    22.900824     14236.99    11665.074    10830.532    10984.665   -415.41545   -1309.7753    920.95034   -5646.0982 
10316000    291.32651   -8928.1408   -7817.4712   -8928.1408            0     12125.39    24.995235    24.817502    22.970075     14248.78    11674.246    13542.277    11159.648   -344.47118   -357.59232    338.34157   -5297.7684 
10317000    289.81785   -9028.4876   -7923.5698   -9028.4876            0     13547.92    25.019677    24.869498     22.65239    14094.924    11440.414    14405.256    14798.091   -552.67647    289.89082    -6.802699   -5138.6591 
10318000    278.03284   -8987.4879   -7927.4999   -8987.4879            0    13561.548    24.818552    24.756651    23.029574    14149.929    13651.768    14263.298    12769.578   -708.86524    4.0101542    172.60036   -5128.9091 
10319000    288.54985    -9045.451   -7945.3674    -9045.451            0    11539.508    24.963195     25.02291    22.752127    14212.157    10866.315     11458.31    12293.898    435.30254   -400.80282    585.67351   -5553.5767 
10320000    280.18776   -8991.2802   -7923.0766   -8991.2802            0    12341.935    24.818613    24.872177    22.991857    14192.711    12348.262    11820.448    12857.096    29.133929    415.04887    272.85221   -5368.4673 
10321000    285.41708   -8967.9374   -7879.7973   -8967.9374            0    12144.564    24.947662    25.087196    22.718886    14218.999    11823.239    11543.601    13066.851   -382.39423   -551.47531   -246.69631   -5361.3851 
10322000    293.09549   -8968.3708   -7850.9571   -8968.3708            0    13155.462    24.840797    24.899726    22.925097    14179.839    13697.693    12622.053    13146.641    571.98542   -205.47336    477.65417   -5130.4286 
10323000    277.31799        -9026   -7968.7373        -9026            0    12976.456    24.843643    24.889902    22.897475    14158.788    13223.453    13284.697    12421.217   -317.66379    549.72634   -732.33779   -5289.2109 
10324000    300.71283   -9007.8224   -7861.3679   -9007.8224            0    12898.178     24.82373    24.958931    22.858264     14162.38    13138.248    13131.395    12424.891   -818.91064   -1581.9009    267.44988   -5197.3294 
10325000    293.51704   -8958.4914   -7839.4706   -8958.4914            0    13273.576    24.804056    24.817738      23.0529    14190.917    13890.969    13904.312    12025.447   -829.24902   -589.14386   -344.87448   -5092.3717 
10326000     297.0114   -9014.9571   -7882.6142   -9014.9571            0    13376.538    24.988002    24.919575    22.664957     14113.25    11499.946    13181.252    15448.416    220.88959    572.94651   -1084.6048   -5129.3577 
10327000    289.90465   -9047.4599   -7942.2112   -9047.4599            0    12960.017    24.840298     24.78975    22.973933    14146.998    12215.496    14886.523    11778.031   -49.404407    318.80203    251.56195   -5268.3076 
10328000    282.84255   -8928.0032   -7849.6784   -8928.0032            0    12676.975    24.885878    24.930442    22.912668    14215.384    13185.618    12043.701    12801.607    206.42556    627.82795    642.62406   -5221.5284 
10329000    285.16101   -9005.2136   -7918.0498   -9005.2136            0    11639.844    25.071514     24.94339    22.773529    14241.849    8898.8298     12810.44    13210.264    587.59209    17.951108   -1121.6957    -5500.422 
10330000     288.1477   -9000.9728   -7902.4224   -9000.9728            0    11008.761    24.922995    24.885995    22.984828    14255.961    9925.9017    12213.714    10886.668   -189.61707   -803.47888    412.14532   -5613.6066 
10331000    292.28785   -8977.5686    -7863.234   -8977.5686            0    11057.404     24.87123    24.869439    23.014187    14235.047    11158.511    12435.322    9578.3793   -447.76447    221.35875    418.82474   -5567.6776 
10332000    284.69011   -8997.1111   -7911.7426   -8997.1111            0    12050.725    25.008553     25.00375    22.738652    14218.652     11450.87    11614.604    13086.701     135.5224    308.03912   -95.021294   -5412.8506 
10333000    276.36213   -9002.9839   -7949.3654   -9002.9839            0    12970.134    24.779802    24.819401    23.022906    14159.544    13397.461    13333.483    12179.458    -535.2808    1505.8994    1013.0043   -5271.0013 
10334000    290.79518   -8956.9063   -7848.2624   -8956.9063            0    12681.044     24.86095    24.996437    22.882043    14219.706    13820.837    11575.157    12647.138     435.6819    886.20398    913.13202   -5218.4697 
10335000    280.69152   -8975.8966   -7905.7725   -8975.8966            0     13206.01     24.84975    24.932848    22.878701    14175.072    13138.444    13124.368    13355.217   -426.31834   -1492.4905    190.96184   -5175.7089 
10336000    281.64182   -8964.8517   -7891.1046   -8964.8517            0    12860.616    24.953221    24.938537    22.882823    14239.908    14247.743    10548.613    13785.491    166.68391     559.0288   -151.03799   -5220.2832 
10337000    284.75366   -8980.9282   -7895.3174   -8980.9282            0    13463.785    24.886984    24.916692    22.885979    14191.625    12734.473    13446.697    14210.186    -179.9689    278.87792     1219.901   -5108.7138 
10338000    297.82266   -8975.9015   -7840.4657   -8975.9015            0    13254.402    24.911819    24.863271    22.896352    14181.756    11655.819    14281.011    13826.377    300.39906    1732.7681     154.1852   -5099.1059 
10339000    279.00906   -8992.5233   -7928.8136   -8992.5233            0    14880.257    24.837603    24.917765    22.723526    14063.535    13772.921    15265.567    15602.283    125.55992    59.373193    -1174.917   -4876.8396 
10340000    298.42181   -9006.6306   -7868.9106   -9006.6306            0    13124.776    24.889856    24.911864    22.838879    14161.309    12773.016    13774.431     12826.88   -658.95282    1674.9058    -856.2396   -5158.2748 
10341000    286.13633   -9007.0578   -7916.1756   -9007.0578            0    14510.117    24.863779    24.776001    22.894419    14103.535     13224.96    15436.481    14868.908    -792.4869   -55.818546   -473.70726   -4931.6537 
10342000    291.45808   -8982.1866   -7871.0155   -8982.1866            0    13704.174    24.966162    24.840576    22.776533     14125.41    13224.479    12969.829    14918.214   -1171.2058    1592.4642   -949.59926   -5047.8923 
10343000    286.17093   -8951.0748   -7860.0606   -8951.0748            0    13557.598    24.828872    24.832138    22.938721     14142.96    14405.501    12632.721    13634.573    1181.6778   -849.83799    -1221.397   -5063.6628 
10344000    284.76221   -8979.9817   -7894.3383   -8979.9817            0    13083.905    24.808019     24.97506    22.849227    14156.965     13306.28    13733.931    12211.504    140.26595   -276.15814    1171.7261   -5192.9724 
10345000    274.16609   -9005.4901   -7960.2439   -9005.4901            0    13844.687    24.902818    24.900105    22.772147    14120.616    14060.127     13013.44    14460.494   -591.24043    520.66609    256.91742   -5109.1425 
10346000    286.67596   -8993.1425    -7900.203   -8993.1425            0    11060.331    24.863202    24.810851     23.09314    14245.631     10606.48    12107.987    10466.526    477.81387   -261.45142   -149.77032   -5602.3316 
10347000    294.63104   -9000.1401   -7876.8722   -9000.1401            0    12087.331    24.894034    24.921279     22.91833    14218.329     12491.51    12461.711    11308.773   -40.559634    721.08812    -805.7317   -5370.4462 
10348000    271.98047   -9005.6904   -7968.7768   -9005.6904            0    12097.245     24.71777    24.845185    23.098933     14185.46    13694.182    11469.936    11127.617    -900.6451   -348.68583    -10.17401   -5466.0941 
10349000    289.03989   -8981.6296   -7879.6777   -8981.6296            0    12175.542    25.028108    25.039658    22.700177    14226.094    10860.299    11774.137    13892.189   -265.75962    1209.0465   -420.64845   -5353.5818 
10350000    279.98544   -9020.9027   -7953.4705   -9020.9027            0    11457.575    24.875204    24.825959    23.022634    14217.646     10749.42     12604.08    11019.227   -2.9018885    803.99122   -1404.1152   -5577.7447 
10351000    290.92795   -9027.3055   -7918.1555   -9027.3055            0    12458.428    24.957634    24.919942    22.820855    14193.266    11199.562     11881.86    14293.863   -23.608237    748.02861   -161.99388   -5339.3327 
10352000    296.54552   -8988.1501   -7857.5834   -8988.1501            0     11369.24    24.991709    24.841219    22.952927     14249.74    11109.339    11769.248    11229.131    1116.7074    -889.8453    261.71788   -5494.8525 
10353000    289.52804   -8992.0768   -7888.2639   -8992.0768            0    10457.954    25.033234     24.82371    22.991246    14287.168    10090.571    10872.547    10410.743     586.9293    498.82143   -684.29068    -5709.206 
10354000    295.18471   -9030.5713   -7905.1925   -9030.5713            0    11260.352    24.949882    24.872644    22.885729    14202.186    11709.063     12037.82    10034.173   -423.79335    1135.5111   -61.210964   -5572.8998 
10355000     285.6801   -8957.6027   -7868.4599   -8957.6027            0    13338.446     24.97347    24.911298    22.765575    14162.955    11774.935    14409.256    13831.147    48.638008    707.64812   -965.90233    -5113.375 
10356000    292.78942   -9038.0985   -7921.8517   -9038.0985            0    13770.177    24.816844    24.855213    22.904684    14128.249    14102.636     13593.61    13614.284   -449.63296    359.61383   -424.56913   -5084.5615 
10357000    293.09061   -8997.4909   -7880.0958   -8997.4909            0    13689.639    24.934135    24.886565    22.787731    14140.357    12539.014    13530.545    14999.358   -453.92036    589.32558   -1174.4453   -5056.9829 
10358000    292.08086   -9000.9223   -7887.3769   -9000.9223            0    12144.976    24.850624    24.927425    22.949366    14216.261    14100.207    11587.337    10747.384    903.70674    -257.0016   -33.543245    -5369.364 
10359000    289.48869   -9004.3045   -7900.6416   -9004.3045            0    12049.347    24.861955    24.872529    22.964056    14200.506    12015.309    12891.234    11241.498   -525.08265   -573.75673    646.84417   -5405.2242 
10360000    279.57991   -8974.3323   -7908.4462   -8974.3323            0    13602.167    24.937321    24.876836    22.826915    14160.943     12841.81    13751.073    14213.619     -829.388   -339.79049    655.58404   -5099.2882 
10361000    289.04004   -8993.6973   -7891.7448   -8993.6973            0    11479.509    25.011638    24.809933    22.937217    14233.393    10036.419    12770.005    11632.101   -94.019615   -135.89792   -242.56511    -5508.835 
10362000    284.99298   -8963.4523    -7876.929   -8963.4523            0    12710.602    25.074911    24.801508      22.8415    14205.028     11069.43     15072.52    11989.857   -1005.2725   -1188.7921   -1211.2153   -5243.7273 
10363000    289.60736   -8995.3072   -7891.1918   -8995.3072            0    11642.962    24.946534    24.839934    22.971176    14234.554    11712.318    11947.386    11269.181     466.3355   -540.81628   -206.46935   -5474.1551 
10364000    290.21464   -8942.6976    -7836.267   -8942.6976            0    12554.627    24.955017    24.864252    22.938863    14233.285    11590.127    13828.105    12245.649   -445.66308    1002.6819   -701.06287   -5230.2043 
10365000    299.71734   -8981.0934   -7838.4342   -8981.0934            0    12958.871    24.856556    24.929291    22.878674    14176.915    14417.249    11613.185    12846.178    183.52963   -805.33074    890.42199   -5159.1129 
10366000    290.90092   -9015.7823   -7906.7353   -9015.7823            0    14119.961    24.706356    25.006297    22.836059    14108.448     15151.78    12544.982    14663.122   -5.3036723    -701.4809   -1000.9015    -5001.451 
10367000    280.26115   -9031.7546   -7963.2713   -9031.7546            0    12982.966    24.783731    24.980424    22.859372    14152.422    13055.825    12527.379    13365.696   -913.58282   -599.36722    360.78828   -5283.6057 
10368000    282.99563   -9032.9528   -7954.0444   -9032.9528            0    12843.047    24.846312     24.82101    22.934213    14143.771    12823.971    14295.218    11409.951   -443.17566   -1407.0063    261.74596   -5304.8784 
10369000    291.97155   -9004.7423   -7891.6136   -9004.7423            0    13159.389    24.828753    24.927017    22.885604    14164.054    14729.905    12403.555    12344.707   -1105.8106    345.67852    684.41089   -5173.3023 
10370000    287.70957   -9006.3265   -7909.4464   -9006.3265            0    12671.498    24.786806    24.949898    22.913313     14170.24    12653.511    12793.757    12567.225   -44.679854   -2636.0242    200.59368   -5290.7747 
10371000    277.38573   -8972.1978    -7914.677   -8972.1978            0    13755.398    24.817527    24.892486    22.951072    14178.482    15250.209     12010.75    14005.234   -103.90677   -1475.9058    609.22013   -5070.3549 
10372000    288.67929   -8965.2961   -7864.7189   -8965.2961            0    11959.348    24.922292    25.075015    22.729977    14204.572    11626.685        11071    13180.359    341.90689   -695.41135    173.04194    -5387.231 
10373000    287.57214   -9040.7569   -7944.4008   -9040.7569            0    11285.071    24.822096    24.899304    23.046715     14244.09    12589.677    11095.678    10169.857    921.25003    622.62928     -176.401   -5600.0917 
10374000    292.68192   -8964.3694   -7848.5324   -8964.3694            0    12565.003    24.883105    24.980814    22.854411    14206.306    13084.778    11623.014    12987.217   -162.69819    67.218101   -573.84279   -5245.2597 
10375000    296.53737   -8964.5085   -7833.9728   -8964.5085            0    13145.788     24.91961    24.792019    22.934061    14168.834    12537.833    13929.489    12970.042   -789.50306    647.67707   -626.98422   -5117.5546 
10376000    295.19958   -9010.1243   -7884.6889   -9010.1243            0    14741.766    25.022488    24.674119    22.813132    14085.006    14148.904    15759.911    14316.483   -5.5881571   -838.24591    801.75403   -4856.5037 
10377000    292.22205   -8995.2552   -7881.1715   -8995.2552            0    12749.305    24.927987    24.835838    22.877035    14163.343    11547.162    13627.154    13073.598    249.09121    514.93027    1837.5625   -5247.7028 
10378000    293.37009   -9030.6474   -7912.1868   -9030.6474            0    13336.332    24.927402    24.803532    22.883676    14148.694    12002.297    14766.636    13240.064    230.04154   -502.82397   -426.96292   -5160.3122 
10379000    281.61668   -8943.9132    -7870.262   -8943.9132            0    12884.873    24.914728    24.934553    22.825382    14179.985    13700.222    12599.228    12355.169   -420.25335    900.44794    18.746364   -5205.6633 
10380000    287.37795   -9033.8932   -7938.2774   -9033.8932            0    12976.585    24.837885    24.887883     22.91489    14165.123    13230.125    12932.451     12767.18   -846.47108    369.60807   -1231.1375   -5257.5253 
10381000    285.17311   -9018.9011   -7931.6911   -9018.9011            0    13592.594    24.734307     25.02353    22.812179    14119.362    14444.578    12627.626     13705.58   -433.90816    -357.6114   -1139.9847   -5132.7528 
10382000     286.5523   -9004.6679   -7912.1999   -9004.6679            0    10418.104     24.90301     25.02069    22.925272    14284.519    10355.814    9535.0259    11363.471    620.62452    274.84796    310.22712   -5741.8478 
10383000    279.77702   -8977.7856    -7911.148   -8977.7856            0    11150.629    24.792936    25.037396    22.929156    14233.286    12865.711    10110.122    10476.055    775.90759    566.81274    1470.3674   -5596.5241 
10384000    287.73652   -9063.4502   -7966.4673   -9063.4502            0    11014.256    24.789881    25.051363     22.95027    14252.584    12057.421    9752.5027    11232.843     431.2693    402.19211    90.470313   -5677.0516 
10385000    284.11959   -9045.4141   -7962.2206   -9045.4141            0    12312.426    24.907375    24.965764      22.8088    14183.234    13189.851    10845.004    12902.425     67.79059   -76.123658    801.54711   -5415.4208 
10386000    287.56498   -8997.6594   -7901.3305   -8997.6594            0    11087.306    25.075268    24.891049    22.871203    14275.055    10992.417    11006.831    11262.669    21.292206   -305.41823    53.450935   -5593.0972 
10387000    280.31583   -9006.1599   -7937.4681   -9006.1599            0     11917.09    24.966929    24.836914    22.909182    14206.017    12566.748    12097.225    11087.296   -340.17149     141.2911    200.41543   -5468.4832 
10388000    285.33437   -8977.1855   -7889.3608   -8977.1855            0    13004.575     25.06101    24.764291    22.841199    14175.662    11607.022    15000.433    12406.272   -822.97432    555.54752   -25.765852   -5200.8275 
10389000    283.51605   -9022.7828   -7941.8903   -9022.7828            0    13529.573     24.93729    24.746933    22.924354    14147.111    11150.129    15645.118    13793.471    868.00253    256.06452   -734.81771   -5150.4539 
10390000    292.71013   -9009.4418   -7893.4973   -9009.4418            0    13352.751    24.958532    24.889479     22.77009     14144.89     12809.99     12727.11    14521.152   -63.134276    369.81745   -689.69382   -5138.9754 
10391000     285.9241   -9020.6983   -7930.6252   -9020.6983            0     12174.15    24.684882    24.883544      23.1325    14209.077    13749.949    11815.406    10957.094   -850.30861    479.77466   -555.09007   -5407.8394 
10392000    286.88165   -9030.0083   -7936.2846   -9030.0083            0    12033.992    24.906623    24.982609    22.821269    14200.134    11891.441    11478.296    12732.239    724.90611   -1929.4985    619.35251   -5444.1123 
10393000    292.00972   -9006.4643     -7893.19   -9006.4643            0    12329.684    24.906009    24.907777    22.910684    14212.719    11975.191    12259.134    12754.726   -432.26163   -180.05879    1866.2397   -5337.5187 
10394000    291.46184   -9011.3723   -7900.1868   -9011.3723            0    12223.093    24.917221    24.815827    22.949645    14190.716    11948.489    12925.965    11794.824   -178.48214   -560.72342    21.225761   -5370.5317 
10395000    299.75214   -8961.8991   -7819.1072   -8961.8991            0     13223.71    24.932864    24.944245    22.827422    14197.092    11696.296    13063.328    14911.507   -1076.1778     -948.175      922.629   -5081.1376 
10396000    290.02437   -9003.8858   -7898.1806   -9003.8858            0    12437.452    24.630729    24.995378    23.036846    14182.735    14549.399    11033.618     11729.34    -402.8274   -560.68564   -1212.0457   -5325.6099 
10397000    292.16041   -9026.3568   -7912.5081   -9026.3568            0    12185.283    24.777024    25.010589    22.892404    14186.147    13289.275    10546.912     12719.66    865.94422    47.888056   -782.36551     -5391.49 
10398000     286.2174   -9033.1206   -7941.9293   -9033.1206            0    12951.282    24.818346    24.902424    22.913173    14161.188    13572.413    13055.918    12225.516   -231.95638    934.35983    591.19339   -5267.1475 
10399000    297.56111   -9016.5693   -7882.1307   -9016.5693            0    13232.296    24.910149    24.789092    22.956513    14175.646    12538.308    14426.154    12732.426    -448.8797    1016.7377   -892.60428   -5146.5221 
10400000    286.96629   -9023.3004   -7929.2541   -9023.3004            0     11921.17    25.070882    24.842318    22.811198    14207.244    11446.068    11469.174    12848.269    280.87987   -127.96933    246.94392   -5459.2105 
10401000    298.18549   -9009.2646   -7872.4456   -9009.2646            0    13614.974    24.839255    24.840512    22.934646    14151.131    15360.068    12817.174    12667.682   -489.74703    536.86828    1244.0545   -5062.5908 
10402000    290.15934   -9044.5196   -7938.2999   -9044.5196            0    11135.931    24.890539    24.881734    22.955707    14216.923    11419.044    10988.377    11000.371   -294.88512   -555.13219    1199.4393   -5629.3845 
10403000     288.6608    -8989.765   -7889.2584    -8989.765            0    11467.479    24.782104    25.044714    22.953305    14246.215    12369.557    10012.174    12020.708    485.74104   -789.53945    505.83217   -5506.7011 
10404000    281.65791   -9023.9235    -7950.115   -9023.9235            0    10814.482    24.888713    25.000069    22.905057    14251.974    12112.474    9289.4952    11041.477   -1.4376296    114.85069    62.468088   -5702.3203 
10405000    289.20937    -9016.413    -7913.815    -9016.413            0    11221.429    24.777836    25.004897      23.0259    14266.094    12548.988    9765.7994    11349.501    394.10501     1806.545   -4.2030439   -5579.1254 
10406000    278.65016   -9059.1499   -7996.8084   -9059.1499            0    11398.229    24.928297    25.037737    22.734138     14189.47    11506.936     10763.65    11924.099   -393.39629   -23.896096   -770.34628   -5638.0718 
10407000    287.95735   -9017.7263   -7919.9016   -9017.7263            0    11045.752    24.882744    24.914346    22.949555    14227.285    11542.665    10069.182    11525.409    243.19832    31.930193    31.602318   -5628.0145 
10408000    281.15605   -8977.7698   -7905.8747   -8977.7698            0    11329.902    24.941862     25.02784    22.874667    14279.304    10932.397    10843.447    12213.863   -98.739736   -1172.0413    1198.5271   -5546.4338 
10409000    284.24613   -8968.9636   -7885.2877   -8968.9636            0    10989.096    24.895928    24.910754    23.038813    14288.127    10705.532    12035.731    10226.024   -514.49547    53.729694   -151.52213   -5595.4056 
10410000    281.76585   -8986.2447   -7912.0248   -8986.2447            0    10939.957    25.005899    25.001328    22.783752    14243.962    10288.646    11339.781    11191.444   -1237.7181    735.98719      312.046   -5639.4284 
10411000    281.85638   -9035.3084   -7960.7433   -9035.3084            0     12895.14    24.834291    24.872667    22.885952    14136.539    13294.439    13309.092    12081.888   -208.77279   -1001.8385   -917.86461    -5302.192 
10412000    286.90994   -8996.3196   -7902.4881   -8996.3196            0    13184.808    24.999238    24.802685    22.823368    14151.589    12032.738     14389.62    13132.066   -1960.9398    -1170.655   -1511.7859   -5181.3229 
10413000    292.94243   -8984.6373   -7867.8072   -8984.6373            0    12698.597    24.961986    24.869209    22.841796    14179.841    12113.879    12512.728    13469.184    142.90286    106.74503   -637.99293   -5241.7573 
10414000    283.61988   -9012.0951   -7930.8068   -9012.0951            0    12756.218    24.817749    24.761256    23.045067    14161.623    12456.837    13479.016    12332.802    655.43678   -873.13291    502.76131   -5296.2301 
10415000     288.6453   -8998.1893   -7897.7418   -8998.1893            0     12671.53    25.052358     24.88846    22.725211    14169.501     11245.71    12015.066    14753.813     561.3087   -462.93416   -1308.9816   -5279.2001 
10416000    293.46209   -8990.7287   -7871.9174   -8990.7287            0    12140.371    24.927626    24.896454    22.873594     14195.57    11837.703    11089.709    13493.702   -147.42153    510.18794   -103.44794   -5358.5227 
10417000    276.23427    -9033.435    -7980.304    -9033.435            0      10266.2    24.866351    24.882722    23.073022    14276.259    10864.847    9434.5339    10499.218   -883.80152   -701.89916    317.83967    -5842.834 
10418000    293.50704   -8962.9849   -7844.0022   -8962.9849            0     12166.32    24.907917    24.932916    22.904713    14224.445    12421.696    12007.951    12069.313   -478.16182   -308.06015    45.231606   -5320.1119 
10419000    288.79904   -9005.0964   -7904.0627   -9005.0964            0    11039.602    25.067681    24.798537      22.9251    14251.201    9890.5069    11356.449    11871.851     264.6852    130.70126   -1158.7809   -5609.6013 
10420000    281.74323   -8968.3281   -7894.1944   -8968.3281            0    14132.595    24.998307    24.777302    22.815298    14131.581    10690.079    15716.349    15991.357    41.719547   -814.36328    2225.1853   -4981.5427 
10421000    276.96801   -8969.8406   -7913.9123   -8969.8406            0    13087.471    24.940562    24.770216    22.947368    14176.496    13038.162    13343.078    12881.174    838.23861   -1461.6451   -840.60604    -5208.082 
10422000      286.789   -9011.4003   -7918.0298   -9011.4003            0    13165.206    25.000639    24.858537    22.780312    14157.492    11794.367    14039.758    13661.492   -403.10472   -640.12099    613.68303   -5199.7769 
10423000    300.93312   -9034.4452   -7887.1508   -9034.4452            0     14022.89    24.845264    24.795139    22.871696     14089.92    13934.062    14557.435    13577.172    144.86165     952.4007   -763.52187   -5005.6289 
10424000    286.24793   -9015.7523   -7924.4446   -9015.7523            0    13335.146    24.809259    24.922725    22.864141    14137.227    13037.741    13200.676    13767.022   -655.25424     45.16387   -645.28532   -5175.0447 
10425000    285.61702   -8996.8212   -7907.9189   -8996.8212            0    12520.971    24.777901     24.95341    22.960625    14196.397    12995.766    12280.174    12286.972    655.71038    593.84828    1107.7524   -5315.5785 
10426000    294.07542   -9055.7934   -7934.6438   -9055.7934            0    13004.073    24.890535    24.888439     22.79778    14122.919    13024.912    13498.081    12489.226   -869.47245   -308.70815   -34.224194   -5256.2173 
10427000    287.11644   -8997.2314   -7902.6126   -8997.2314            0    11524.448    24.914349    24.800502    23.018245    14222.705    10505.501    13663.743    10404.101    232.00475   -606.15535    449.44546   -5512.1704 
10428000    284.53431   -9004.6264   -7919.8519   -9004.6264            0    11770.727    24.925429    24.858733    22.966557    14230.414    10340.714    12327.072    12644.396    212.65019    228.33981    353.94273   -5477.0024 
10429000    283.25995   -8997.7796   -7917.8635   -8997.7796            0    11563.955    25.067263    24.943137    22.775711    14240.654    10389.701    12200.587    12101.576    1269.9054     999.3507     470.2189   -5516.1996 
10430000    292.53591   -9044.2438   -7928.9635   -9044.2438            0    11608.099    24.884122    24.794025    23.007245    14194.953    11633.162    12441.165     10749.97    1051.6392    568.40501    331.27794   -5525.8685 
10431000    286.29781   -9002.8946   -7911.3968   -9002.8946            0    13323.238    24.974891    24.901361    22.769575    14160.599    12812.271    14437.733    12719.711    -853.3009    108.91082   -877.20215   -5159.9108 
10432000     292.7965   -8966.6708   -7850.3971   -8966.6708            0    13134.398    24.790678    24.923854    22.934055    14170.476    13088.772    13151.047    13163.374   -255.22462    1004.6315    295.68714    -5136.018 
10433000    289.56529   -9008.2769    -7904.322   -9008.2769            0    13548.119    24.845075    24.945821     22.87075    14174.852    14014.074    12286.643     14343.64    -324.5627   -238.26914   -204.68156    -5103.578 
10434000    286.81524   -8974.0494   -7880.5789   -8974.0494            0    13230.465    24.879968    24.913323    22.852571    14164.999     13125.59    12647.915    13917.891   -479.59759     108.4307    462.10545   -5147.4032 
10435000    312.60117   -9022.0942    -7830.316   -9022.0942            0    13154.797    24.923891    24.677502    23.032653    14166.449     12338.93    15208.787    11916.676    13.886611   -1025.0612   -766.81289   -5112.4937 
10436000     298.1434   -9003.7127   -7867.0541   -9003.7127            0    10971.777    25.030012    24.986886    22.817156    14270.353    9996.8021    10506.874    12411.654   -508.27399   -149.21041    955.23927   -5583.6249 
10437000    274.65347   -9018.1106   -7971.0063   -9018.1106            0    11462.848    24.820689    24.876715    23.077349    14249.275    10956.809    11923.036      11508.7    358.74834    981.64226    194.62698   -5588.8996 
10438000    288.05144   -8962.1087   -7863.9253   -8962.1087            0    12932.347    24.873845    24.934512    22.899355    14202.573      13129.7    12370.273    13297.068   -713.39493   -672.26113    272.89438   -5185.2488 
10439000    274.77655   -9013.9862   -7966.4126   -9013.9862            0    12205.977    25.004159    24.791676    22.858837    14170.078     12001.15    12699.647    11917.134    532.90298   -589.74838    146.12091   -5443.9736 
10440000    285.29487    -8945.891   -7858.2168    -8945.891            0    12238.445    24.887118    24.922749     22.92447    14219.026    13426.962    11938.545    11349.829    231.73775   -39.416057    629.89694   -5320.3315 
10441000    294.07115   -9033.2756   -7912.1423   -9033.2756            0    11035.859     24.90124    24.952151    22.945026     14256.65    10728.321    10822.281    11556.973   -365.40182   -256.17813    765.27324   -5617.5817 
10442000    300.15093   -9033.8929   -7889.5807   -9033.8929            0    10059.149    24.919761    24.837101    23.149223    14327.856    10494.036    11406.508    8276.9045   -35.912795    431.66858   -628.33368   -5787.6503 
10443000    285.71546    -8995.961   -7906.6833    -8995.961            0     12184.58    24.968168    24.932089    22.819613    14205.405    11650.704    12924.206    11978.829   -66.154994    879.78526    314.80614   -5382.3885 
10444000    291.40945   -9025.7693   -7914.7836   -9025.7693            0    10643.026    24.760892    24.870313    23.192994    14282.504    12512.267    11785.853    7630.9574    639.47903    68.618982    -358.0757   -5697.8874 
10445000    292.97978   -9002.8852   -7885.9127   -9002.8852            0    12563.353    24.914655    24.972012    22.826136    14201.716    12523.111    12257.383    12909.565    84.722046   -1837.4681      737.251   -5283.8229 
10446000    292.12215   -8989.4161   -7875.7132   -8989.4161            0    12342.064    24.866646    24.860959     23.03617     14241.16    12304.818    12411.848    12309.527    94.364462   -1359.1026    664.36562   -5312.3565 
10447000    284.59449   -8985.6824   -7900.6784   -8985.6824            0    12539.933    24.986652    24.787744    22.916688    14193.743    11991.796    13684.851    11943.152   -1.5743276   -618.56058     621.8548   -5304.8975 
10448000    295.31742    -8999.227   -7873.3423    -8999.227            0    11928.964    25.036504    24.865237    22.741058    14157.186    10134.619    12562.709    13089.566    471.54546     -267.793    472.93049   -5410.3924 
10449000    289.15494   -8958.9352   -7856.5447   -8958.9352            0    13055.313    24.813741    24.777028     23.11302    14210.133    12595.854     12925.61    13644.474    379.05539    461.97106   -582.05771   -5150.9589 
10450000    291.04685   -8997.7753    -7888.172   -8997.7753            0    13630.976    24.920988    24.968676    22.722446    14138.907    12565.678     13394.94    14932.309    206.26296   -317.61151     588.4363   -5077.4449 
10451000    297.80147   -8986.7703   -7851.4153   -8986.7703            0    13454.273    24.768953     24.90994    22.982518    14180.055    15736.461    12397.474    12228.885    94.546622   -60.662707    551.90665   -5069.0505 
10452000    286.93366   -8997.7105   -7903.7885   -8997.7105            0    14055.983    24.851607    24.917701    22.785551    14109.836      14298.4    13327.253    14542.295    452.34962   -1117.4888   -380.21877   -5011.3837 
10453000     282.2579   -9027.4251   -7951.3293   -9027.4251            0     13446.83    24.812256    24.943537    22.825617    14126.899    14171.301    12885.949     13283.24   -56.952886     920.9681    230.92608   -5180.9283 
10454000    287.84554   -8978.4388   -7881.0403   -8978.4388            0      13284.4    24.834926    24.878927    22.980175    14198.676    12880.808    14408.561     12563.83    633.02757   -103.95665   -64.786828   -5130.1981 
10455000    285.45559   -9029.2845   -7940.9976   -9029.2845            0    13178.973    24.881527    24.870914     22.87176    14153.647    13222.701    11805.536    14508.682    233.60129    914.23509     122.8491   -5220.6411 
10456000    279.52413   -9063.3365    -7997.663   -9063.3365            0    11962.776    24.929995    24.867653    22.846752    14163.854    10731.497    12302.195    12854.638   -386.05002    16.273987   -212.60669   -5526.5687 
10457000    288.71041   -9001.0651   -7900.3693   -9001.0651            0    12782.807    24.893434    24.832122    22.952402    14188.184    13050.758    12764.766    12532.899   -244.26698   -1629.2361   -290.03415   -5255.3495 
10458000     294.2435   -9030.5543   -7908.7639   -9030.5543            0    11488.092    24.997396    24.836885     22.91582    14227.458    11220.152    11977.656    11266.469    267.26234     346.9932    204.53832   -5525.0666 
10459000     287.0828   -8971.8383   -7877.3477   -8971.8383            0    11346.723     24.96439    24.853336    23.016026    14280.256    11950.068    10323.317    11766.785   -223.29288   -160.90478   -1034.5571   -5514.2464 
10460000    293.78028    -9003.548   -7883.5236    -9003.548            0    12983.754    24.990979    24.897024    22.776979    14171.859    12044.866    13399.622    13506.775   -766.90645     238.9092   -107.00471    -5200.015 
10461000    293.97806   -8992.9935   -7872.2151   -8992.9935            0    12087.426    24.758084    24.841786    23.114927     14216.49    13404.755    11547.756    11309.768   -55.377805    91.533495     156.4632   -5366.0937 
10462000    291.41496   -9023.7863   -7912.7796   -9023.7863            0    12677.797    24.828896    24.965995    22.822508    14147.173    13008.611    12728.539    12296.242   -210.00261   -1141.7329     46.15405   -5297.0711 
10463000    281.01297   -8984.4981   -7913.1485   -8984.4981            0     12755.48     24.79408     25.08147    22.796135    14176.277    13736.314    11176.099    13354.028     213.5449   -1500.7114    627.86178   -5275.9981 
10464000    294.50866   -8990.2537   -7867.4523   -8990.2537            0     13584.77    24.778452     24.86194    22.951837    14139.259    15058.621    13479.605    12216.086   -565.13971    150.48219    38.506216   -5066.1832 
10465000    289.60836    -9022.113   -7917.9939    -9022.113            0    13477.667    24.896358    24.863792    22.836056    14135.927    12303.763      14002.8    14126.439    387.10919    1097.0117    13.694919   -5139.4651 
10466000    280.65817   -9020.1603   -7950.1634   -9020.1603            0    11570.849     25.03984    24.878666    22.834753    14225.088    9737.4118    12282.344    12692.791   -594.89773    1104.1357    20.117482   -5549.6946 
10467000    292.94334    -8999.038   -7882.2044    -8999.038            0    12296.038    24.919602    24.784342    23.031837    14224.829    12304.011    13190.205      11393.9   -809.56249   -1433.7422    1485.9707   -5331.3353 
10468000    289.23314   -8994.8323   -7892.1437   -8994.8323            0    12654.175    24.856574    24.939605    22.884772     14186.57    13065.735    12623.928    12272.861    388.69574    -687.0115    289.54035   -5274.0382 
10469000    280.77678   -9013.3713   -7942.9222   -9013.3713            0    12948.555    24.863057    24.954282    22.839805    14170.722    13176.218    12256.696    13412.752   -1135.3361    -1087.066    126.05047   -5266.9033 
10470000    282.59641   -8984.9412   -7907.5548   -8984.9412            0    12455.451    24.780638    24.866737    23.027535    14189.881    12380.524    13701.021    11284.807   -279.75395    176.08721   -706.58967   -5329.9634 
10471000    282.04086   -8975.8816   -7900.6132   -8975.8816            0     13664.04    24.804318    25.058437    22.748272    14139.357    13870.611    12865.684    14255.824   -77.868269    506.36853    1343.9077   -5082.9786 
10472000    287.74579    -9000.937   -7903.9188    -9000.937            0    14798.669    24.745641    24.736834    22.962892    14056.248    16255.144     14496.09    13644.774    725.46461   -1267.2012    363.12343   -4870.2513 
10473000    277.40239   -8932.2337   -7874.6493   -8932.2337            0    14161.223    24.882886    24.882378    22.825736    14132.449    15078.771    13361.736    14043.163   -547.79932   -673.92501   -515.91982   -4955.9182 
10474000    304.98978   -8976.8618   -7814.1017   -8976.8618            0    14286.338    24.898802    24.789694    22.900204    14134.778    14282.912    14899.608    13676.494   -14.070464     120.2693   -381.43303   -4869.0984 
10475000    285.52534   -9005.7526   -7917.1998   -9005.7526            0    12707.992    24.901984    24.832695    22.921829    14174.479    10783.224    13999.367    13341.386    49.900716    51.234831   -81.812409   -5290.2007 
10476000    290.90507   -9009.3378    -7900.275   -9009.3378            0    12649.154    24.922956    24.929307    22.802318    14167.354    13300.424    12415.022    12232.015    1216.8765   -297.94826    290.68866   -5286.7532 
10477000    292.35281   -9001.6891   -7887.1068   -9001.6891            0    9168.1536    24.901559    25.063024    23.017761    14365.578    9576.8216    8829.1785    9098.4609    921.74681     -488.531  -0.21301396   -5966.3125 
10478000    289.70105   -8974.5077   -7870.0352   -8974.5077            0    11190.428    24.835494    25.048163    22.922168    14259.503    10999.032    11291.225    11281.027    -564.2667   -592.82264   -798.06266   -5542.8714 
10479000    282.74511   -8996.9059   -7918.9526   -8996.9059            0    11326.439    24.836462    25.019589    22.938983     14254.24    12211.245    11046.116    10721.955   -1555.4943   -655.31797    613.34901   -5564.3732 
10480000    290.01508   -8992.0345   -7886.3648   -8992.0345            0    12424.202    24.905143    24.973965    22.912364    14251.036    12520.271    12507.069    12245.268    348.58852   -151.85816    130.37367    -5304.159 
10481000    298.33508   -9007.6448   -7870.2554   -9007.6448            0    11283.746    24.909722    24.911412    22.984734    14262.863    9565.6952    12444.232    11841.309   -122.99931    1060.3179    1890.5792   -5523.1323 
10482000    281.87224   -8964.7913   -7890.1657   -8964.7913            0     12268.57    24.907933    24.960527    22.877972    14223.582    11663.925    13095.367    12046.419    -668.7107   -1496.9622    497.98243   -5345.2183 
10483000    289.81449   -8970.0512   -7865.1462   -8970.0512            0    12760.564    24.884577    24.830499    22.971819    14194.206    12502.984    13550.614    12228.094   -412.55206    6.8070472    1072.4811   -5223.6083 
10484000    286.12617   -8976.2007   -7885.3572   -8976.2007            0    11843.099    25.004411    24.981052    22.768305    14221.915     11372.18    11501.376    12655.741    836.52631     38.38068    1597.9278   -5428.9559 
10485000    281.69321   -9007.7477   -7933.8047   -9007.7477            0    12224.871    24.865489    24.896764    22.975266    14223.303    12688.472    11125.168    12860.974    287.16517     394.7484    729.42538   -5397.9717 
10486000    292.40152   -8985.6739    -7870.906   -8985.6739            0    13699.599    24.868191    24.894605    22.850173    14146.172    13199.565    14260.177    13639.056    330.44567    298.64168    1297.0994   -5044.5771 
10487000    289.53822   -9021.1685   -7917.3168   -9021.1685            0    13223.153    24.855376    24.924085     22.82651    14140.966    13726.782    12699.582    13243.096   -214.84245   -1131.3138     603.2226   -5190.2862 
10488000    288.58401   -8951.9628   -7851.7489   -8951.9628            0    9932.0774    25.039845    24.967183    22.960816    14354.514    8507.9481    10685.559    10602.725    -432.2101   -86.838051   -518.92799   -5772.5096 
10489000    293.83493   -9028.0332   -7907.8005   -9028.0332            0    10328.372    24.943947    24.996487    22.944216    14305.972    10792.403    10614.894    9577.8181   -307.59341   -450.43841    272.36387   -5752.9104 
10490000    296.31813    -8996.661   -7866.9612    -8996.661            0    11612.004     24.96106    24.877928    22.928049    14237.848    11843.045    11454.518     11538.45    53.686123   -1111.9099   -118.10065   -5455.7935 
10491000     291.6589   -8991.3101   -7879.3734   -8991.3101            0    12241.439    24.900502    24.847383    22.959133    14205.099    11661.596    12186.337    12876.384   -276.74179   -326.56189   -405.51295   -5343.3537 
10492000    296.31266   -8985.3778   -7855.6988   -8985.3778            0    12399.707    24.910555    24.916766    22.885487    14204.803    13164.108    11947.402    12087.611   -46.408853   -566.69147   -172.48058   -5286.9446 
10493000    285.17192   -8984.4526   -7897.2472   -8984.4526            0    12246.815    24.858971    25.025106     22.86082    14221.679    12800.587    11424.098    12515.761    875.64615   -604.26882    106.64606   -5357.1523 
10494000      284.138   -9016.0367   -7932.7731   -9016.0367            0    12607.493     24.88121    24.949828     22.85616    14188.691    12480.887    12066.243     13275.35   -403.26656   -1489.5947    480.98958   -5323.9359 
10495000    294.11608   -9006.4542   -7885.1496   -9006.4542            0    11700.124    24.831737    25.074062    22.822148    14209.811    11751.634    11347.725    12001.012     224.5112    49.633946    51.397146   -5460.4684 
10496000    279.60316   -8984.0253   -7918.0506   -8984.0253            0    11835.964    24.796685    24.998639    22.906563    14199.397    13091.065    10258.848    12157.978     300.6282   -1711.8522   -449.25513   -5467.0161 
10497000    300.35181   -8994.9354   -7849.8574   -8994.9354            0     12798.98    24.899511    24.890568    22.871993    14175.214    12916.234    12937.027     12543.68    66.191829    1146.0627   -975.62835   -5203.9118 
10498000    285.35026   -9039.5747   -7951.6893   -9039.5747            0      12488.5    25.060883    24.807975    22.851061    14206.728     10654.24    13834.193    12977.066    414.78748    462.71277    426.57286   -5364.1901 
10499000    283.01568   -9051.5382   -7972.5533   -9051.5382            0    11649.866    24.995497    24.753133    22.910621    14175.188    10284.114    12781.391    11884.093   -114.75325    1097.6764    945.65294   -5564.1699 
10500000     291.4147   -8958.4191   -7847.4133   -8958.4191            0    12654.823     25.02658    24.773921    22.931958    14217.964    12025.972     13441.94    12496.557    454.92516   -233.88785     317.5814   -5223.3799 
Loop time of 581.881 on 64 procs for 250000 steps with 1920 atoms

Performance: 74.242 ns/day, 0.323 hours/ns, 429.641 timesteps/s
99.1% CPU use with 64 MPI tasks x 1 OpenMP threads

MPI task timing breakdown:
Section |  min time  |  avg time  |  max time  |%varavg| %total
---------------------------------------------------------------
Pair    | 64.553     | 67.38      | 70.6       |  14.4 | 11.58
Bond    | 0.27507    | 0.28899    | 0.30101    |   0.9 |  0.05
Kspace  | 246.59     | 258.13     | 267.6      |  38.5 | 44.36
Neigh   | 7.6657     | 9.1366     | 10.163     |  28.1 |  1.57
Comm    | 103.41     | 114.36     | 127.09     |  64.0 | 19.65
Output  | 1.4747     | 1.476      | 1.4811     |   0.1 |  0.25
Modify  | 116.28     | 123.36     | 128.15     |  30.2 | 21.20
Other   |            | 7.751      |            |       |  1.33

Nlocal:        30.0000 ave          35 max          26 min
Histogram: 2 3 5 16 17 10 4 4 2 1
Nghost:        2846.27 ave        2886 max        2808 min
Histogram: 4 3 6 9 5 17 7 11 0 2
Neighs:        10679.2 ave       12585 max        9065 min
Histogram: 2 3 8 12 16 11 4 2 4 2

Total # of neighbors = 683470
Ave neighs/atom = 355.97396
Ave special neighs/atom = 2.0000000
Neighbor list builds = 14258
Dangerous builds = 2

unfix		3
unfix		2
unfix		1

write_data	data.final.${pid}
write_data	data.final.0
System init for write_data ...
PPPM initialization ...
  extracting TIP4P info from pair style
  using 12-bit tables for long-range coulomb (../kspace.cpp:340)
  G vector (1/distance) = 0.37457693
  grid = 30 30 30
  stencil order = 5
  estimated absolute RMS force accuracy = 0.0032576268
  estimated relative force accuracy = 9.8102463e-06
  using double precision FFTW3
  3d grid and FFT values/proc = 3600 512
Last active /omp style is kspace_style pppm/tip4p/omp
WARNING: Not all mixed pair coeffs generated from mixing. Use write_data with 'pair ij' option to store all pair coeffs. (../write_data.cpp:312)

write_restart   restart.lmp.${pid}
write_restart   restart.lmp.0
System init for write_restart ...
PPPM initialization ...
  extracting TIP4P info from pair style
  using 12-bit tables for long-range coulomb (../kspace.cpp:340)
  G vector (1/distance) = 0.37457693
  grid = 30 30 30
  stencil order = 5
  estimated absolute RMS force accuracy = 0.0032576268
  estimated relative force accuracy = 9.8102463e-06
  using double precision FFTW3
  3d grid and FFT values/proc = 3600 512
Last active /omp style is kspace_style pppm/tip4p/omp
Total wall time: 0:09:43
