LAMMPS (30 Jul 2021)
Processor partition = 0
  using 1 OpenMP thread(s) per MPI task
using multi-threaded neighbor list subroutines
variable        pid world 0 1
variable        phase world IceII IceIII

shell cd ${phase}
shell cd IceII
include Restart.lmp
echo both
log log.lammps
#include		in.partitions
include		in.temp
variable        temperature equal 136.34
variable	tempDamp equal 100.0
include		in.pressure
variable        pressure equal 11668.8
variable        pressureDamp equal 1000.0 # This is 1 ps
include		in.seed
variable        seed equal 745823

units		real
atom_style	full
box tilt large
read_restart	restart.lmp.${pid}
read_restart	restart.lmp.0
Reading restart file ...
  restart file = 30 Jul 2021, LAMMPS = 30 Jul 2021
  restoring atom style full from restart
  triclinic box = (-10.593589 -9.0840633 0.29379445) to (12.573589 12.074061 21.566205) with tilt (-9.4624625 1.8437860 2.4730830)
  4 by 4 by 4 MPI processor grid
  restoring pair style lj/cut/tip4p/long/omp from restart
  restoring bond style harmonic/omp from restart
  restoring angle style harmonic/omp from restart
  1296 atoms
  864 bonds
  432 angles
Finding 1-2 1-3 1-4 neighbors ...
  special bond factors lj:    0        0        0       
  special bond factors coul:  0        0        0       
     2 = max # of 1-2 neighbors
     1 = max # of 1-3 neighbors
     1 = max # of 1-4 neighbors
     2 = max # of special neighbors
  special bonds CPU = 0.009 seconds
  read_restart CPU = 0.019 seconds
include 	in.setup
variable	out_freq equal 1000
variable	out_freq2 equal 10000
variable	out_freq3 equal 1000

timestep	2.0

neigh_modify    delay 7 every 1

include		in.tip4p
# This is TIP4P/Ice

# create groups ###
group ox type 2
432 atoms in group ox
group hy type 1
864 atoms in group hy

# set charges - beside manually ###
set group ox charge -1.1794
Setting atom values ...
  432 settings made for charge
set group hy charge 0.5897
Setting atom values ...
  864 settings made for charge

# ### TIP3P Potential Parameters ###
pair_style lj/cut/tip4p/long/omp 2 1 1 1 0.1577 8.5
pair_coeff 1 1*2 0.000 0.000
pair_coeff 2 2 0.21084 3.1668
bond_style  harmonic
bond_coeff  1 450 0.9572
angle_style harmonic
angle_coeff 1 55 104.52
kspace_style pppm/tip4p/omp 1.0e-5
pair_modify tail yes

thermo          ${out_freq}
thermo          1000
thermo_style    custom step temp pe etotal epair emol press lx ly lz vol pxx pyy pzz pxy pxz pyz enthalpy

restart 	${out_freq3} restart.lmp.${pid} restart2.lmp.${pid}
restart 	1000 restart.lmp.${pid} restart2.lmp.${pid}
restart 	1000 restart.lmp.0 restart2.lmp.${pid}
restart 	1000 restart.lmp.0 restart2.lmp.0


include         in.dump
dump            myDump all atom ${out_freq2} dump.water.${pid}
dump            myDump all atom 10000 dump.water.${pid}
dump            myDump all atom 10000 dump.water.0
dump            myDump2 all dcd ${out_freq2} dump.dcd
dump            myDump2 all dcd 10000 dump.dcd
dump_modify     myDump append yes
dump_modify     myDump2 append yes


variable natoms 	equal  "count(all)"                        # NUMBER ATOMS
variable H      	equal  "enthalpy/v_natoms"                 # ENTHALPY-per-atom
variable Vol      	equal  "vol/v_natoms"                 # volume-per-atom
fix AVG all 		ave/time ${out_freq} 1 ${out_freq} v_Vol v_H file vol_enthalpy.dat
fix AVG all 		ave/time 1000 1 ${out_freq} v_Vol v_H file vol_enthalpy.dat
fix AVG all 		ave/time 1000 1 1000 v_Vol v_H file vol_enthalpy.dat


timer           timeout 10:00:00 every 1000
New timer settings: style=normal  mode=nosync  timeout=10:00:00

fix 		1 all shake 1e-6 200 0 b 1 a 1
Finding SHAKE clusters ...
       0 = # of size 2 clusters
       0 = # of size 3 clusters
       0 = # of size 4 clusters
     432 = # of frozen angles
  find clusters CPU = 0.001 seconds
fix             2 all nph tri ${pressure} ${pressure} ${pressureDamp}
fix             2 all nph tri 11668.8 ${pressure} ${pressureDamp}
fix             2 all nph tri 11668.8 11668.8 ${pressureDamp}
fix             2 all nph tri 11668.8 11668.8 1000
fix             3 all temp/csvr ${temperature} ${temperature} ${tempDamp} ${seed}
fix             3 all temp/csvr 136.34 ${temperature} ${tempDamp} ${seed}
fix             3 all temp/csvr 136.34 136.34 ${tempDamp} ${seed}
fix             3 all temp/csvr 136.34 136.34 100 ${seed}
fix             3 all temp/csvr 136.34 136.34 100 745823


run             250000
PPPM initialization ...
  extracting TIP4P info from pair style
  using 12-bit tables for long-range coulomb (../kspace.cpp:340)
  G vector (1/distance) = 0.37182914
  grid = 30 40 32
  stencil order = 5
  estimated absolute RMS force accuracy = 0.0036255098
  estimated relative force accuracy = 1.0918115e-05
  using double precision FFTW3
  3d grid and FFT values/proc = 5168 640
Last active /omp style is kspace_style pppm/tip4p/omp
Neighbor list info ...
  update every 1 steps, delay 7 steps, check yes
  max neighbors/atom: 2000, page size: 100000
  master list distance cutoff = 10.8154
  ghost atom cutoff = 10.8154
  binsize = 5.4077, bins = 7 5 4
  1 neighbor lists, perpetual/occasional/extra = 1 0 0
  (1) pair lj/cut/tip4p/long/omp, perpetual
      attributes: half, newton on, omp
      pair build: half/bin/newton/tri/omp
      stencil: half/bin/3d/tri
      bin: standard
Setting up Verlet run ...
  Unit style    : real
  Current step  : 38750000
  Time step     : 2
  Walltime left : 9:59:59.93
Per MPI rank memory allocation (min/avg/max) = 9.447 | 9.452 | 9.457 Mbytes
Step Temp PotEng TotEng E_pair E_mol Press Lx Ly Lz Volume Pxx Pyy Pzz Pxy Pxz Pyz Enthalpy 
38750000    137.76981   -6627.4528   -6273.0484   -6627.4528            0    11369.822    23.167178    21.158125     21.27241    10427.183    11798.495    10477.829    11833.143    -262.3926    649.22951    793.28847   -4544.0421 
38751000    138.15591   -6654.8425   -6299.4449   -6654.8425            0    11097.371    22.952923    21.161496    21.436787    10412.237    11898.489    11284.459    10109.164    14.401278   -166.30215   -147.71242   -4614.2891 
38752000     137.7609   -6649.0583   -6294.6768   -6649.0583            0    12025.084    23.025244    21.205259    21.250386    10375.634     11697.48    11729.444    12648.328   -398.23325   -163.20129    46.652644   -4475.0654 
38753000    135.80782   -6654.4737   -6305.1164   -6654.4737            0    10873.031    23.027901    21.106768    21.463457    10432.197     11328.75    10850.376    10439.968    131.51049    179.61535    1176.6954    -4650.862 
38754000    135.40403   -6663.4687   -6315.1501   -6663.4687            0    11266.421    23.058201    21.273881    21.200157     10399.47    10696.184    11577.819     11525.26    1560.9111   -751.25735   -116.20842   -4606.4215 
38755000    136.90912   -6653.1807   -6300.9904   -6653.1807            0    11376.127    23.085485    21.173169    21.298406    10410.509    11572.227    11582.778    10973.374   -76.842847   -35.976379   -655.43084   -4573.7918 
38756000    141.82248   -6657.1149   -6292.2852   -6657.1149            0    10630.834    23.043486    21.173192     21.41555    10448.736    10843.762    10832.602     10216.14    359.42912   -112.12982   -216.34382   -4672.3152 
38757000    136.32999   -6649.1272   -6298.4266   -6649.1272            0    12200.585    22.995248    21.125844    21.307511    10351.062    12984.762     12144.78    11472.214   -53.089742     921.8976    -667.1955   -4456.6309 
38758000    143.70967   -6663.7736   -6294.0892   -6663.7736            0    11660.118    22.951042    21.253303    21.319631    10399.406    12255.112    11028.047    11697.195   -1070.1123   -156.09362   -65.534892   -4525.6614 
38759000    139.23541   -6638.0124   -6279.8378   -6638.0124            0    10722.171     23.01538    21.221984    21.349888    10427.969    11562.295    10331.168    10273.049    238.12863   -136.46571    490.56774   -4649.1969 
38760000    139.91477   -6642.8097   -6282.8874   -6642.8097            0    13297.984    23.117108    21.097393    21.184198     10331.76    12329.233    13274.964    14289.755    1631.9553    466.98278     674.7368   -4279.1721 
38761000    133.63752   -6643.8017   -6300.0273   -6643.8017            0    11563.928    22.906398    21.224948    21.435203    10421.519    12509.188    11535.454    10647.142   -377.84551   -418.68012   -697.37566   -4542.4587 
38762000    139.31602   -6635.7514   -6277.3694   -6635.7514            0    10997.467    23.089891    21.264833    21.199826    10409.171    11992.601    9816.4273    11183.374   -379.73932    729.60683    1348.2208   -4607.8759 
38763000     134.9868   -6634.9544    -6287.709   -6634.9544            0    11038.499    23.046685    21.015697    21.526478    10426.181    11067.444    11687.416    10360.638   -846.08937    135.04801   -368.86359   -4609.2484 
38764000     135.0955   -6666.8727   -6319.3478   -6666.8727            0    11028.276    23.163014    21.221895    21.208949    10425.536      9612.99    11167.977    12303.861    482.89972    762.18584    260.23165   -4642.5453 
38765000    133.34507   -6638.0901    -6295.068   -6638.0901            0    12230.611     23.06059     21.16583    21.293888    10393.473    11221.153    12345.346    13125.335    1211.3014   -218.46815    335.80986   -4441.1747 
38766000    136.31125   -6647.6202   -6296.9678   -6647.6202            0    12244.844     22.87862     21.22359    21.385201    10383.936    12939.527    11228.589    12566.416   -153.53981    -105.2973    773.67297   -4442.6203 
38767000    141.19169   -6657.9169   -6294.7098   -6657.9169            0    11557.222    22.970802    21.210906    21.319148    10387.361    11619.106    10680.434    12372.126   -810.75555    19.820611    199.96861   -4543.9178 
38768000    131.51458    -6649.094   -6310.7807    -6649.094            0    11843.805    23.020201     21.17187    21.287931    10375.327     12506.69    11573.263    11451.461   -1082.8885    882.61716   -696.49773   -4518.6531 
38769000    134.95387   -6646.8025   -6299.6419   -6646.8025            0    12227.762    23.056929    21.093464    21.338491    10377.986    12526.467    12900.618      11256.2     506.6307   -1039.5942   -29.283384   -4448.9423 
38770000    131.53407   -6642.1187   -6303.7553   -6642.1187            0    11715.503    23.188515    21.138133    21.191274    10387.155    11293.221    10931.658    12921.629     924.3254   -805.27723   -595.88306   -4529.0207 
38771000    130.47028   -6650.2433   -6314.6164   -6650.2433            0    12009.422    23.014314     21.11482    21.383261    10391.048    12155.657    11770.006    12102.604   -1533.2697    922.50306   -752.75868   -4494.6753 
38772000    138.42063   -6650.4744   -6294.3958   -6650.4744            0    10960.174    23.118398    21.161667    21.257886    10399.865     9999.657     11437.39    11443.473   -518.78535     1253.901   -220.28628   -4632.0514 
38773000    138.37131   -6667.1858   -6311.2341   -6667.1858            0    10571.934    23.032825    21.260696    21.302428    10431.669    11041.454     9573.797    11100.551    868.54344   -48.390783   -677.99806   -4702.8709 
38774000    148.18289   -6633.5877   -6252.3962   -6633.5877            0    12271.478    22.988637      21.1751    21.293416    10365.352    12518.404    11399.334    12896.696    613.53571    113.17042   -167.90352   -4397.3412 
38775000    144.26916    -6639.381   -6268.2574    -6639.381            0    13266.043    22.974422    21.093341    21.365514    10353.885    13584.626     13354.82    12858.684   -371.27007    474.72852   -294.52662   -4265.0745 
38776000    134.85873   -6620.3201   -6273.4043   -6620.3201            0    12254.686    23.142467    21.124385    21.241274    10384.229    11451.811    11596.875    13715.374   -151.91735   -228.07671   -292.55223   -4417.5137 
38777000    135.48806   -6632.3395   -6283.8047   -6632.3395            0    12594.682    23.109989    20.985186    21.393548    10375.174     12937.47    13066.064    11780.512   -264.67076    673.27982   -736.94753   -4378.0875 
38778000    130.77686   -6649.9146   -6313.4991   -6649.9146            0    11479.766    23.168623    21.051295    21.323104    10399.907    10055.601     13111.79    11271.909    224.17537    -103.7862   -467.03229   -4572.3403 
38779000    136.56774   -6659.7498   -6308.4376   -6659.7498            0    11730.612     23.03443    21.151906     21.31354    10384.428    12263.421    12009.026    10919.391   -1109.5111    468.91483    29.093975   -4531.8806 
38780000     142.8343   -6643.8854   -6276.4528   -6643.8854            0    12076.447    23.023534    21.161492    21.315855    10385.348    12481.306    11525.259    12222.775    -43.93197   -157.95114    1066.4035   -4447.3585 
38781000    138.91352   -6635.3463   -6277.9997   -6635.3463            0    12076.749    22.972188    21.234232    21.272343     10376.58    11889.473     11779.27    12561.505   -249.57426    444.91828     -259.431   -4450.4037 
38782000    140.41418   -6651.2221   -6290.0152   -6651.2221            0    10935.967    22.987322    21.214363    21.373954    10423.252    12133.348    10033.612    10640.942    187.01572     240.9494    571.54857   -4627.6121 
38783000    135.05502   -6642.8507   -6295.4299   -6642.8507            0    11895.638    23.130866    21.167716    21.234682    10397.086    11558.815    12537.169    11590.931    390.67959    325.37803   -735.25176   -4491.6843 
38784000    136.26209    -6648.158   -6297.6321    -6648.158            0    12874.351    23.007456    21.101808    21.312698    10347.292    13030.652    12967.162    12625.238   -69.594234    415.18792   -33.453989   -4354.8329 
38785000    131.74958   -6653.0642   -6314.1464   -6653.0642            0    11023.668    23.196671    21.118073    21.267217     10418.15    10922.398    10506.116     11642.49   -78.329115    127.99498    729.45603    -4639.232 
38786000    137.11614   -6663.4717   -6310.7488   -6663.4717            0    10803.419    22.927194    21.292006    21.341893    10418.386    10536.566    11094.769    10778.922    2.9139335   -47.896749   -193.58661   -4669.2615 
38787000    138.46834   -6642.7539   -6286.5525   -6642.7539            0     12703.92    22.863327    21.233169    21.309909    10345.127    13783.758    12899.468    11428.535   -189.06094    607.85485     -302.934   -4369.8731 
38788000      136.175    -6642.492   -6292.1901    -6642.492            0    12378.745    23.048187    21.144157    21.260096    10360.778    11378.541    11850.969    13906.725    722.52621    438.20163    845.32448   -4421.7454 
38789000    136.86662   -6647.3434   -6295.2624   -6647.3434            0    10993.614    23.072374     21.15587    21.332622    10412.797    11984.798    10904.214     10091.83   -431.80393    -623.2455    498.03288   -4625.7727 
38790000    137.12446   -6651.8882   -6299.1438   -6651.8882            0    12181.763    23.216308    20.915544    21.313459    10349.426    11242.366     13220.97    12081.952    403.09583   -433.04531   -342.07478   -4460.4802 
38791000     134.1239    -6656.104   -6311.0784    -6656.104            0     11117.69    23.201853    21.016581     21.35315    10412.301    10509.845    11999.992    10843.232   -1125.5305    323.30883    488.30182   -4622.8269 
38792000     136.2735   -6656.8078   -6306.2526   -6656.8078            0    11020.994    23.060341    21.147873     21.35973    10416.652    10927.316     11607.94    10527.726   -458.54211   -489.90957    403.31423   -4631.9852 
38793000    139.43605   -6644.2161   -6285.5254   -6644.2161            0    11685.682    22.989654    21.211741    21.280385    10377.392    11641.302    11379.591    12036.152    514.70294    75.046175    467.13965    -4516.972 
38794000    135.63175   -6640.6103   -6291.7058   -6640.6103            0    11400.677    22.965131    21.264103    21.287092    10395.188    12492.879    9835.0818     11874.07    231.88422   -1179.1468   -669.87895   -4563.3273 
38795000    126.21197   -6660.8486    -6336.176   -6660.8486            0    11690.787    22.898507    21.310841    21.283615    10386.115    12594.416    10796.459    11681.488   -201.08626    408.63699   -744.80579   -4565.3626 
38796000    137.94449   -6643.0941   -6288.2403   -6643.0941            0    11857.889    23.024896    21.191842    21.291957    10389.197    12945.491    11175.645    11452.531    -986.9747    439.97503   -187.36033   -4491.5831 
38797000    134.46718   -6659.2255   -6313.3169   -6659.2255            0    10807.525    23.177466    21.073727    21.316763    10411.866    9642.7194    12529.679    10250.177    1150.1769   -1194.3243    105.12979   -4672.2333 
38798000    138.19303   -6644.0461    -6288.553   -6644.0461            0    11941.986    23.223968    21.000943    21.332477    10404.387    11806.074    11629.762    12390.122    334.21222   -394.18086   -46.548294   -4476.5081 
38799000    137.45589   -6638.6735   -6285.0766   -6638.6735            0    11362.935    23.053438    21.107963     21.36697    10397.405    12088.033    10801.133    11199.639   -925.86509    453.06017    333.22858   -4562.0524 
38800000     135.2006   -6653.0142   -6305.2189   -6653.0142            0    10772.017    23.074576    21.157842    21.353223    10424.819    10017.453    11588.902    10709.695   -595.63793    878.53122    63.997887   -4667.4922 
38801000    144.60825   -6651.0564   -6279.0604   -6651.0564            0    12033.633    23.048784    21.236358    21.205225    10379.369    11341.919    11725.335    13033.645     109.2291    941.54908   -871.48173      -4457.5 
38802000     134.7653   -6656.2768   -6309.6013   -6656.2768            0    11697.854    22.888138    21.272968     21.31917    10380.274    11994.547    11744.311    11354.704   -173.27092    890.43608   -343.62894    -4538.714 
38803000    135.38215   -6652.4983    -6304.236   -6652.4983            0    11864.297    23.015824    21.135519    21.310172    10366.363    11447.249    11712.728    12432.914    57.199927    301.18548   -8.6724486   -4510.5587 
38804000    143.65408   -6659.9858   -6290.4445   -6659.9858            0    11166.199    22.934234    21.238326    21.397029    10422.166    12334.396     10029.84    11134.362   -641.63082    -961.4291    421.48495   -4593.2201 
38805000     139.0949   -6652.0921    -6294.279   -6652.0921            0    10393.931    23.265823     21.05008    21.283801    10423.687    8978.2537    11844.871    10358.668    857.48398   -2.0025562   -502.65887   -4714.2062 
38806000    139.18411   -6638.6711   -6280.6285   -6638.6711            0    11196.102    23.169771    21.095258    21.312652    10417.034    10868.717    11236.306    11483.283    201.01519   -488.57247    724.68134   -4579.6971 
38807000    138.76689   -6647.0802   -6290.1109   -6647.0802            0    12501.511    23.011948    21.107489    21.332059    10361.502    12965.186    12555.703    11983.645    -644.1677   -151.64958    1271.0464   -4400.9839 
38808000    138.15273   -6654.2851   -6298.8956   -6654.2851            0    11853.964    23.049748    21.127709    21.329628    10387.281    12173.171    12460.841     10927.88    662.50893   -585.50434   -634.69746   -4503.1643 
38809000    134.35056   -6646.9809   -6301.3723   -6646.9809            0    10322.297    22.959756    21.324959    21.311513    10434.455    11141.413    9132.1907    10693.287    -811.3846   -294.24086    832.63948   -4730.5683 
38810000    130.47558   -6655.4553   -6319.8148   -6655.4553            0    11779.433    23.119596    21.047836    21.380447    10404.099     10946.55    12759.407    11632.342    1430.2938    619.63454   -654.97194   -4532.4848 
38811000     135.4574    -6641.129   -6292.6731    -6641.129            0    13104.842    22.967165    21.196244    21.242911    10341.424    14151.865    11945.231     13217.43   -125.64365    294.22323     28.91402   -4316.2131 
38812000    140.32704   -6662.4273   -6301.4445   -6662.4273            0    10414.486     23.14175    21.088998    21.396759    10442.396    10150.255    11176.759    9916.4428   -147.46295   -68.402517   -167.38984   -4715.4055 
38813000    145.96189   -6651.8668   -6276.3887   -6651.8668            0    11535.267     23.15178    21.032156    21.367099    10404.321    11623.156    11709.904     11272.74     417.1658   -179.45737    576.79489   -4526.0694 
38814000    134.23293   -6649.6535   -6304.3474   -6649.6535            0    11134.664      22.9447    21.366412    21.223685    10404.825    10475.746    10299.794    12628.452   -904.62341    212.34413    137.60202   -4614.7323 
38815000    129.54363   -6657.6599   -6324.4168   -6657.6599            0    11316.269    23.012987    21.165376    21.354983    10401.554    11538.244    10492.756    11917.805   -105.66947    376.50603   -147.14421   -4607.7842 
38816000    141.21467   -6645.2452   -6281.9791   -6645.2452            0    11323.992     23.01015    21.277871    21.247159    10402.758    12255.786    8970.8338    12745.357   -918.50949    36.673319    841.92761   -4563.9761 
38817000     133.9159   -6667.3283   -6322.8378   -6667.3283            0    10706.582    22.966493    21.267497     21.32644    10416.682    10832.369    9835.8516    11451.525    240.68911    2.9744921    -96.55641     -4696.33 
38818000    135.45658   -6651.0025   -6302.5487   -6651.0025            0    12288.917     23.06475    21.074451    21.316868    10361.638    11499.139    12710.914    12656.699   -395.79398    788.52462   -180.53179    -4445.523 
38819000    132.64812   -6659.1975   -6317.9683   -6659.1975            0    12542.814    23.018814    21.065434    21.324936     10340.49    12557.063    11638.535    13432.845   -483.55405   -548.24596    1459.7966   -4426.4438 
38820000    136.90807   -6661.5308   -6309.3432   -6661.5308            0    10543.294    23.160471    21.065155    21.382604    10432.121    9344.1035    11164.191    11121.587   -132.53936    663.20473   -539.30423   -4705.2676 
38821000    138.58239   -6650.5116   -6294.0168   -6650.5116            0     11428.32    23.097757    21.141661    21.269323    10386.341    11178.492    10752.058     12354.41    325.56076   -1069.4276    587.43036   -4562.9219 
38822000    145.06453   -6629.8916   -6256.7219   -6629.8916            0    13182.288    23.021686    21.099481    21.292529    10342.753    13707.185    12422.415    13417.262     987.7323   -199.03723    621.48643   -4268.3261 
38823000    136.52435   -6670.2654   -6319.0648   -6670.2654            0    11203.668    22.944666    21.299698    21.282872    10401.247    11004.392    11497.098    11109.513    491.34823    473.74213   -702.38065   -4619.5635 
38824000    140.36431   -6666.0512   -6304.9725   -6666.0512            0    11423.939    22.961187    21.248306    21.324554    10403.958    12036.298    12222.464    10013.057    347.71287    -530.7303   -705.45382   -4571.6061 
38825000    138.06699   -6651.3092   -6296.1403   -6651.3092            0    12642.181    23.000574    21.111651    21.344447    10364.438    12174.374    12825.259     12926.91    763.62894     63.46301    744.64024   -4385.2152 
38826000    132.30082   -6642.9259   -6302.5901   -6642.9259            0    12621.967    23.041947     21.03987    21.432454    10390.445    13412.954     13341.43    11111.516    108.32237   -1792.9233   -789.47749   -4389.9333 
38827000    131.01805   -6650.5307   -6313.4947   -6650.5307            0    11199.008    23.071657    21.295211    21.217244    10424.367    10550.473    11209.835    11836.715    618.20132   -746.85168    439.71981   -4610.9242 
38828000    136.62916   -6625.7858   -6274.3156   -6625.7858            0    11844.383    22.966534    21.092852    21.442494    10387.381    12065.967    11267.889    12199.294    307.50146    573.23309    1220.0621   -4480.0183 
38829000    131.58069   -6655.8536   -6317.3703   -6655.8536            0    10849.922    23.098546    21.191629    21.285775    10419.298    11664.521    10089.469    10795.775    -1040.237   -189.28446   -303.08481   -4668.6729 
38830000    142.38733   -6644.5275   -6278.2448   -6644.5275            0    11289.142    23.053705    21.236041    21.238227    10397.586    10867.864    11721.747    11277.815    79.076063   -434.51108    -877.3918   -4566.3804 
38831000    134.08225   -6659.8602   -6314.9418   -6659.8602            0    10055.819    23.083986    21.143509    21.376567    10433.399    11042.331    10103.072     9022.053    959.25518   -1265.7693   -96.643977   -4784.8442 
38832000    134.45035   -6645.6087   -6299.7434   -6645.6087            0     12029.86    22.925614    21.301367    21.219688    10362.569    11620.315    12900.664    11568.602   -828.52218    428.22504     126.8339   -4481.7014 
38833000    133.69143   -6635.4792   -6291.5662   -6635.4792            0     12918.52    22.860113    21.138427    21.439479    10360.131    13940.452    13346.314    11468.792    312.58102   -415.45227   -1145.3553   -4339.6826 
38834000    143.45737   -6634.5267   -6265.4913   -6634.5267            0     12066.86      23.1461    21.229601    21.104561    10370.412    10850.403    11238.757     14111.42   -511.38609     899.2965    694.92947   -4440.4775 
38835000    137.11381   -6658.2188   -6305.5019   -6658.2188            0    11774.412    23.030929    21.134306    21.344447    10389.254    11681.052    11956.712    11685.474    174.38242   -81.755655   -70.223169   -4521.4829 
38836000    135.05005   -6653.9522   -6306.5442   -6653.9522            0    11551.748    23.216649    21.026621    21.293789     10394.94    10467.403    12234.965    11952.877    770.47055    275.15387    586.55086   -4555.3045 
38837000    130.82428   -6650.0128   -6313.4753   -6650.0128            0    11785.753    23.069732    21.120068    21.298675    10377.445    11440.124    12683.226    11233.908    -570.3499    397.17579   -350.77914   -4529.7678 
38838000    135.74389   -6645.1973   -6296.0044   -6645.1973            0    11514.115    23.183984    21.137631    21.246701    10412.041    10491.754    11886.076    12164.513   -433.67422    687.53808    1113.2574   -4547.5983 
38839000    134.29066    -6669.343   -6323.8884    -6669.343            0    11431.037    23.056257    21.061296    21.397551    10390.536    12230.296    11627.906    10434.909    1269.2991   -1153.8003   -767.66459   -4591.6827 
38840000    136.47386   -6653.4444   -6302.3738   -6653.4444            0    12390.214    22.966061    21.263027    21.227831    10366.144    12996.896    11211.309    12962.438    63.254399   -906.40919      100.374   -4429.2264 
38841000    132.95997   -6658.3121   -6316.2806   -6658.3121            0    11168.315    23.018758    21.245215    21.271763     10402.71    11891.139    9840.3138    11773.493    371.60215    497.74754   -1018.7304   -4621.9036 
38842000    140.20286   -6644.7943    -6284.131   -6644.7943            0    13249.398     22.88899    21.132813    21.340244    10322.462    13514.849      13807.9    12425.444    46.455208    191.23438   -728.17916   -4289.5332 
38843000    134.87866   -6661.9738   -6315.0066   -6661.9738            0    9508.5472    23.128822    21.273697    21.276153    10468.624    9823.1845    8237.9644    10464.493   -314.37301    211.14868    612.54219   -4863.2974 
38844000    140.29369   -6656.7769     -6295.88   -6656.7769            0    11656.441    23.144611    21.008589    21.389827    10400.496    10597.366    12248.012    12123.946    835.76289   -5.5132875    325.60918   -4527.8244 
38845000    131.91138   -6659.7238   -6320.3898   -6659.7238            0    11705.859      23.1241    21.097872    21.264758    10374.423    12509.942    11871.175    10736.459   -509.45436   -1055.1932    257.50851   -4549.2897 
38846000    140.74073   -6650.8708   -6288.8238   -6650.8708            0    11174.994    23.156278    21.073428    21.358324    10422.481    11602.742    11590.932    10331.308   -988.63197   -512.18941    106.53999   -4590.2114 
38847000    139.29365    -6657.264   -6298.9396    -6657.264            0    12034.716    23.007117    21.223846    21.254046     10378.34    12040.576    11416.822     12646.75     1487.237    -550.4299    -479.0406   -4477.3957 
38848000    129.19274   -6654.6423   -6322.3019   -6654.6423            0    11615.424    22.834464    21.300046    21.368632    10393.171      12477.3    11446.161     10922.81    911.62437    -236.9258    882.02126   -4561.7086 
38849000    135.62429    -6649.297   -6300.4118    -6649.297            0    11327.018    23.103755    21.235946     21.23816    10420.081    11722.885    10506.044    11752.123    827.41065    158.99599   -90.544477    -4579.088 
38850000    135.37118   -6666.8288   -6318.5947   -6666.8288            0     10728.49    22.985239    21.186692      21.4422    10441.948    10754.185    10840.618    10590.668    392.60173    1276.3901    842.50822   -4684.8055 
38851000    132.88104    -6661.825   -6319.9966    -6661.825            0    11124.146    23.181647    21.074687    21.291446     10401.85    10195.754    12057.549    11119.134   -401.91977    1185.3825   -111.56907   -4632.4602 
38852000    132.34663   -6641.3182   -6300.8646   -6641.3182            0    11872.136    23.218024    20.992246    21.314168    10388.493    10939.701    13160.733    11515.973    926.15717   -209.79216     208.6754   -4502.1706 
38853000    136.84034   -6637.5587   -6285.5453   -6637.5587            0    11147.818    23.056206    21.103561    21.405265    10415.118    11232.256    11468.498    10742.699    320.41303   -48.871459    624.82213   -4592.2608 
38854000    138.18009   -6648.2195   -6292.7596   -6648.2195            0    11948.666    23.101014    21.219119    21.156456    10370.539     11635.29    10702.746    13507.962    423.12524   -534.64248    323.35194   -4485.5995 
38855000     138.8031   -6655.5694   -6298.5069   -6655.5694            0    11875.953    22.941967     21.18811    21.430156    10417.133     12455.19    10878.085    12294.585    1626.9997    292.88096   -249.07761    -4494.274 
38856000     135.7764   -6655.2738   -6305.9973   -6655.2738            0    11893.543    22.982863    21.223429    21.273288    10376.581    11224.209    12792.819    11663.603    20.465941    206.22494   -74.830855    -4506.126 
38857000    135.67158   -6647.2602   -6298.2533   -6647.2602            0    13065.357    23.077423    21.012928    21.323648    10340.353    12786.599    13847.046    12562.426    748.03614    356.27959     213.7107   -4327.9524 
38858000    135.78283   -6651.8336   -6302.5405   -6651.8336            0    12466.575    23.042633    21.107588    21.326684    10372.753    11535.461    13620.217    12244.048    211.40896   -92.529903   -876.77192   -4416.6473 
38859000     135.1885   -6667.3855   -6319.6213   -6667.3855            0    10047.137    23.134844        21.19    21.324603    10453.904    9661.1816     9789.339    10690.891    779.26218    256.89334    818.39284   -4787.8402 
38860000    132.80347   -6646.4667   -6304.8379   -6646.4667            0    11618.556    23.086501    21.121618    21.302784    10387.754    10759.562    12024.033    12072.072   -181.92021    1217.4135    531.81569   -4544.6879 
38861000     134.3282   -6642.1755   -6296.6244   -6642.1755            0    10896.772    22.968718    21.246416    21.315093    10401.828    10872.821    11285.049    10532.448    230.85237   -531.45692    912.89221   -4643.5841 
38862000    135.01187   -6648.0631   -6300.7533   -6648.0631            0    10360.035    23.055368    21.130587      21.3896    10420.445    10339.734    10326.824    10413.546   -475.93603    1098.9245    245.53218   -4726.3232 
38863000    135.64747   -6646.4937   -6297.5488   -6646.4937            0    11665.026    23.027914    21.173037    21.311481    10390.857     11461.53    11556.403    11977.145    420.38486   -412.68932    -594.2794   -4529.8308 
38864000    140.21359   -6646.1416   -6285.4507   -6646.1416            0    12131.964    22.942087    21.216246      21.3083    10371.707    12684.598    11516.951    12194.342     998.4257   -240.14187    843.21972   -4450.3612 
38865000    135.25773   -6636.8739   -6288.9316   -6636.8739            0    11769.182    23.108364    21.084063    21.291127    10373.425    11747.518    12379.246    11180.782   -381.41352     308.5898    -1429.979   -4508.4219 
38866000    134.72014   -6670.8947   -6324.3354   -6670.8947            0    11119.641     23.07284    21.167435    21.316373    10410.764    11604.064    11095.589    10659.271   -516.54718   -264.32094   -31.749425   -4636.0367 
38867000    128.18716   -6660.6204   -6330.8667   -6660.6204            0    11966.375    23.046752    21.079009    21.364703     10379.03    11632.294    12868.757    11398.076    162.53443   -77.183449   -600.36426   -4519.5463 
38868000    137.33318   -6664.9806   -6311.6994   -6664.9806            0    11821.045    23.041605    21.261379    21.186996    10379.431    12311.665    11191.942    11959.527   -528.08607   -718.76512   -744.36918   -4522.3082 
38869000    134.55611   -6648.1298   -6301.9924   -6648.1298            0    11931.392    22.927452    21.274918    21.278475    10379.207    11789.178    12200.599    11804.398    445.60706    1263.2597   -732.25795   -4495.9365 
38870000    134.83803   -6654.4009   -6307.5383   -6654.4009            0    11259.422    23.075143    21.085172    21.391793    10408.035    11936.254    10465.781    11376.232    -208.6226     364.6946     117.1268   -4598.4648 
38871000    136.24757   -6659.2973   -6308.8088   -6659.2973            0    11002.545     23.15071    21.175544    21.246281    10415.541    10351.347    11348.634    11307.653   -482.64212   -790.95567    -791.2843   -4637.5225 
38872000    137.21427   -6630.3796   -6277.4042   -6630.3796            0     11667.66    23.153768    21.009347    21.353586    10387.357    11639.456    11719.984    11643.539     630.1116   -1945.6575   -188.77562   -4509.8828 
38873000    133.90832   -6654.7083   -6310.2373   -6654.7083            0    11249.172    23.044822    21.140546    21.330342    10391.719    11314.493    11526.537    10906.486   -273.92027    515.45547   -81.267211   -4605.3964 
38874000    136.56605   -6652.7666   -6301.4588   -6652.7666            0    10763.829    22.998974    21.245412    21.346618    10430.441    10983.227    10077.362    11230.898    347.77312   -346.84935   -105.11388   -4664.0943 
38875000    138.17279   -6639.7717   -6284.3307   -6639.7717            0    11421.953    22.946876    21.274173    21.287289     10391.94    11990.558    10737.822    11537.478   -190.55576    299.41187    802.99982   -4553.2677 
38876000    134.91631   -6648.6775   -6301.6135   -6648.6775            0    11891.072     23.01483    21.229892    21.241836    10378.811     11232.61    11399.093    13041.513    328.11068    180.39612    16.443867   -4501.7295 
38877000    138.50311   -6663.2056   -6306.9148   -6663.2056            0    11000.079    23.120302    21.144142    21.281301    10403.555    10407.271    11531.011    11061.956    250.31775   -555.10242   -714.99991   -4637.9259 
38878000     138.0904   -6651.7062    -6296.477   -6651.7062            0    12132.021    23.081809    21.087281    21.293803    10364.388    12748.927    11990.447    11656.689   -540.51143   -191.22802    99.627173    -4462.674 
38879000    137.56172   -6640.4285   -6286.5594   -6640.4285            0    10347.843    23.122755    21.157106    21.338637    10439.087    10435.319    9402.1724    11206.038    -257.8662    496.31993    307.71253   -4711.1688 
38880000    130.62184   -6665.2719   -6329.2552   -6665.2719            0    11571.102    23.020822     21.18982    21.324142    10402.067    11653.832    10522.345    12537.129    453.68619    47.302657   -686.73745   -4573.8788 
38881000    131.73381    -6656.546   -6317.6688    -6656.546            0    12720.312    22.954718      21.2207    21.244985    10348.755    12684.363    11927.597    13548.976    98.111115    502.90181    886.50461   -4397.8434 
38882000    138.07556   -6632.2015   -6277.0106   -6632.2015            0     12250.13    22.894729    21.214526    21.339532    10364.628    13057.498    11703.518    11989.373    606.85212   -14.049425     448.5317   -4425.3119 
38883000    137.94186    -6648.114    -6293.267    -6648.114            0    11900.228     22.98751    21.203746    21.332211    10397.775      12360.2    11771.522    11568.964   -587.05614   -608.29653   -942.46583   -4488.7059 
38884000    131.44902   -6653.3155   -6315.1709   -6653.3155            0    11899.939    23.060617    21.157449    21.250612    10368.255    11351.162    12144.016     12204.64    275.94289   -322.37407    567.10494   -4515.7768 
38885000    134.20314   -6658.9629   -6313.7335   -6658.9629            0    12497.268    23.154841    20.888358    21.423914    10362.032     11539.32    14453.185    11499.298    101.45943    315.89862   -184.13147   -4425.1514 
38886000    136.64423   -6645.5853   -6294.0763   -6645.5853            0     10073.14    23.233591    21.134681    21.260568    10439.673    9294.4097    10966.776    9958.2346    491.69399    387.67253   -419.15504   -4760.4213 
38887000    137.06226   -6659.8323    -6307.248   -6659.8323            0    11522.567    22.981132    21.170837    21.386429    10405.135    10538.389    12566.467    11462.847   -275.56354    344.02737   -456.02545   -4558.7189 
38888000    131.31723   -6655.5275   -6317.7219   -6655.5275            0     10853.07    22.959938    21.309979    21.248042    10396.153    10803.001    9772.6986    11983.511    770.38934    1232.8818    829.96126   -4672.2096 
38889000    133.67881   -6654.1839   -6310.3033   -6654.1839            0    11503.487    22.915282    21.283698    21.316534    10396.542    12463.954    10715.986    11330.521   -65.441324    251.81215    796.63938   -4566.1113 
38890000    133.59253   -6644.6324   -6300.9737   -6644.6324            0    11321.361    23.075617     21.14031    21.317337    10399.145    11986.493     11523.49    10454.101   -196.78961   -413.41129   -698.00853   -4583.9664 
38891000    131.48657   -6648.3695   -6310.1283   -6648.3695            0    11459.182    23.159743    21.064538    21.290427     10386.52    10788.145    12122.892    11466.509   -571.88854   -408.34228    102.87286   -4574.3288 
38892000    137.99377   -6654.5058   -6299.5253   -6654.5058            0    11504.026    23.109844    21.016197    21.415769    10401.233    11222.883    11636.908    11652.287    712.69789    286.10359    317.96509   -4554.4644 
38893000    138.29543   -6654.1629   -6298.4064   -6654.1629            0    11559.887    23.092006    21.148909     21.28018    10392.617    10553.286     12325.44    11800.934    575.37593   -21.258141   -428.03539   -4546.3244 
38894000    131.07487   -6645.8189   -6308.6368   -6645.8189            0    11062.955     22.95362    21.196869    21.428766    10426.057    11040.058    10937.394    11211.413    415.70334    946.31498    532.91511   -4626.4776 
38895000    140.51202   -6639.7754   -6278.3168   -6639.7754            0    11427.536    22.958199    21.213761    21.343596    10394.966    12042.045    11104.983    11135.581    5.5723048    991.85269    137.22442   -4545.9032 
38896000    138.53927   -6670.9961   -6314.6123   -6670.9961            0    10946.342    23.051344    21.240849    21.267879    10413.394    10920.596    10516.041    11402.388    384.19096    564.35969   -730.00862   -4652.2059 
38897000    135.72226   -6665.9659   -6316.8287   -6665.9659            0    10595.121     23.17726    21.092725     21.31005    10417.877    10483.809     10605.67    10695.885    54.094143   -28.590298    1165.6883    -4707.069 
38898000    134.42944   -6670.0906   -6324.2791   -6670.0906            0    10202.581     23.19101    20.973683    21.458891    10437.624    9256.1777    12023.979     9327.587     278.7099    121.15299    589.48629   -4771.2214 
38899000    138.18222   -6641.5077   -6286.0424   -6641.5077            0     11586.75    23.125868    21.176587    21.256311    10409.788    11269.944    11258.119    12232.187    -278.8724    15.337585   -758.06248   -4526.9873 
38900000    134.69487   -6662.0578   -6315.5635   -6662.0578            0    10783.881    23.041662    21.147299    21.395826    10425.521    10240.647    11372.507    10738.489    48.785653    998.80398    424.46185   -4675.9226 
38901000    138.52347   -6647.1923   -6290.8491   -6647.1923            0    11396.215     22.95784     21.18016    21.402431    10406.948    10907.572    11888.557    11392.517    523.23822    860.67191    518.72926   -4561.1923 
38902000    130.53784   -6655.8346    -6320.034   -6655.8346            0    11483.944    23.033536     21.24184    21.283763    10413.607    12128.752    11354.515    10968.565   -189.47681   -827.20146   -1112.9465    -4575.947 
38903000      136.251   -6634.2817   -6283.7843   -6634.2817            0    12349.666    22.983291    21.234686    21.281426     10386.25     12318.91     12405.21    12324.878   -171.69997   -268.18935   -282.06775   -4413.1458 
38904000    130.59868   -6631.9112    -6295.954   -6631.9112            0    12197.338    23.008061    21.150931    21.330816    10380.469    12799.471    11051.428    12741.116     742.7833   -325.51259    935.88664   -4449.4174 
38905000    128.99773   -6652.1922   -6320.3534   -6652.1922            0    10800.771    23.011724    21.206362    21.348524    10417.972      11509.1    9778.1926     11115.02     33.34613   -355.81808   -199.90559   -4679.3336 
38906000    131.94845   -6672.8091   -6333.3798   -6672.8091            0    10903.187    23.105274    21.223159    21.222468    10406.796     11603.94    10062.859    11042.763   -744.10359   -499.66666    202.84375   -4678.5763 
38907000    131.47508   -6652.1824   -6313.9707   -6652.1824            0    10983.045    23.213128     20.97364    21.401611    10419.669    10538.312     11374.19    11036.632   -269.86593    409.31093    107.38945   -4644.9852 
38908000    134.04055   -6648.6076   -6303.7965   -6648.6076            0    12535.543    22.998764    21.167922    21.246725    10343.671    13939.855    11209.334    12457.441    137.92522   -800.58256    888.52467   -4412.7868 
38909000    140.63639   -6664.9258   -6303.1473   -6664.9258            0     11340.64    22.950324    21.314987    21.249175    10394.796    11764.913    10659.466    11597.542   -1210.9926   -799.02812   -232.69922   -4583.9353 
38910000     137.1275   -6649.8622     -6297.11   -6649.8622            0    12671.291    22.851092    21.221498    21.305788     10331.91    14159.545    11249.167    12605.159    850.01372   -215.85193   -1.0281945   -4387.7961 
38911000    134.13299   -6668.9783   -6323.9294   -6668.9783            0    10780.511    23.008561    21.224267    21.299699    10401.492    11022.809    10288.316    11030.408   -1415.4615    346.73483    162.57799   -4688.5788 
38912000    135.56069   -6643.2493   -6294.5276   -6643.2493            0    12224.107    23.072688    21.104077    21.306648    10374.799    11682.161    12784.814    12205.345    323.39102   -40.740654    127.46589   -4444.9494 
38913000     141.4695   -6659.2822   -6295.3605   -6659.2822            0    11917.576    23.187127    21.012741    21.237837    10347.607    11384.388    12825.925    11542.415    1296.0402    -1112.019   -56.654977   -4496.8883 
38914000    130.90621   -6661.9708   -6325.2226   -6661.9708            0    10263.719    23.074135    21.130946    21.447867    10457.514    10485.788    10185.668    10119.701    458.66409   -320.39573    703.66226    -4759.881 
38915000    135.97085   -6653.6623   -6303.8856   -6653.6623            0     10862.29     23.01565    21.215803    21.343805    10422.083    10823.725    10965.206    10797.938   -148.19444    99.763703   -745.85667   -4652.8675 
38916000    139.11063   -6638.2936     -6280.44   -6638.2936            0    13038.933     22.93147    21.247005    21.264119    10360.412    13626.894    12285.704      13204.2    232.92242   -3.5297218    583.21001   -4310.3097 
38917000    133.74843   -6652.8807    -6308.821   -6652.8807            0    10977.827    22.899372    21.348118    21.302797    10414.054    11495.552    9837.9153    11600.014    1301.3595   -850.13467   -315.23272   -4641.5274 
38918000    141.81441   -6653.8075   -6288.9986   -6653.8075            0    10280.749    23.051626    21.179477    21.363751     10430.24    10949.062    10140.291    9752.8929   -828.35683    302.69616   -435.57675   -4725.1492 
38919000    141.80356   -6636.8656   -6272.0845   -6636.8656            0    12128.653    23.101268    21.067571    21.338884    10385.371    12284.759    12960.486    11140.714   -1918.2953   -1366.4105   -356.09142   -4435.0791 
38920000     131.9813      -6641.7   -6302.1862      -6641.7            0    12211.824    23.147293    21.012236    21.350233    10384.249    12585.537    11460.375    12589.561   -495.54788   -356.59292     672.3197   -4452.7833 
38921000    137.91923   -6654.8435   -6300.0547   -6654.8435            0      11657.5    23.043524    21.115507    21.306236    10367.096     11205.66    12203.652    11563.188    484.23904   -287.01391   -613.27437   -4537.5168 
38922000    138.31951   -6653.6234   -6297.8049   -6653.6234            0     11281.17     23.04165    21.254081    21.206195     10385.29    10711.069    11378.544    11753.898    51.002841    1.0662451   -545.05406   -4589.1723 
38923000    127.67417   -6636.6931   -6308.2591   -6636.6931            0    12120.179    22.901731     21.19301    21.408157    10390.591    12469.426     11954.44     11936.67     1126.086    600.59831    92.386922   -4471.6144 
38924000    137.80169   -6655.6093   -6301.1229   -6655.6093            0    12981.776       22.897     21.28678    21.168236     10317.47    13650.875    12407.223    12887.229   -411.36442    1164.5326    39.943883   -4347.7586 
38925000    132.85515   -6646.3173   -6304.5555   -6646.3173            0    11170.252    23.101199    21.168606    21.298248    10415.273    11624.504    11020.353    10865.898   -975.58101   -28.252282   -733.76267   -4607.8382 
38926000    131.52374   -6652.7114   -6314.3746   -6652.7114            0    11419.984    23.135201    21.027129    21.416449    10418.393    10868.183    12556.091    10835.678   -174.87032   -182.28175   -323.03473   -4579.2042 
38927000    136.70194   -6632.8922   -6281.2348   -6632.8922            0    10715.199    23.134331    21.152356    21.312521    10429.188     10981.26    11115.961    10048.376   -104.62616   -163.15573   -113.59307   -4651.4636 
38928000    128.52373   -6631.2401   -6300.6206   -6631.2401            0    10122.195    23.025802    21.248661    21.367474     10454.41    10219.944        10214    9932.6406    465.91802    365.27202   -418.43869   -4757.3215 
38929000    138.38665   -6655.6822    -6299.691   -6655.6822            0    11533.423    22.852477      21.3402    21.317581    10396.082    11923.086    11403.052    11274.132    1129.4222   -743.67038   -15.784493   -4551.0373 
38930000    133.91932   -6641.7392   -6297.2399   -6641.7392            0    11402.273     22.90119    21.367336    21.263048    10404.805    11183.459    10699.393    12323.968   -508.07534    1494.8593   -123.12353   -4567.0201 
38931000    132.28057   -6643.2596   -6302.9759   -6643.2596            0    12066.667    22.984204    21.182658    21.327913    10383.847    11782.866     12025.49    12391.644   -255.56521    905.53983    382.42899    -4475.627 
38932000    138.44766   -6643.2415   -6287.0934   -6643.2415            0     11866.41    23.094736    21.039025    21.363946    10380.543    11237.925     13291.83    11069.475   -243.31094    691.53594   -100.35842   -4490.6426 
38933000    129.71576   -6650.5374   -6316.8516   -6650.5374            0      10903.5    23.299622     21.12711    21.164744    10418.423     9490.152    11053.667    12166.679     669.2561   -786.22094    356.79499   -4660.1519 
38934000    132.50441   -6654.6487   -6313.7892   -6654.6487            0    11804.722    23.016473    21.118547    21.392927    10398.556     11183.84    13159.848    11070.479    553.57451   -311.59399   -523.08724   -4523.5763 
38935000    136.20066   -6629.1939    -6278.826   -6629.1939            0    12746.338    22.935307    21.242198    21.212885     10334.84    13210.701    11079.717    13948.596    389.57574   -587.62923    1126.2243   -4357.6592 
38936000    138.40148   -6650.9009   -6294.8715   -6650.9009            0    11580.201    22.886058    21.317962    21.345951     10414.35    13279.171    11278.543    10182.889    849.09078   -877.11368   -359.44213   -4536.0404 
38937000    135.23345   -6673.8965   -6326.0167   -6673.8965            0    10406.431    23.054216     21.25748    21.300967    10439.061    11350.531    9053.7956    10814.967     147.6879    468.58526    56.182399   -4741.7104 
38938000    136.95271   -6633.9176   -6281.6151   -6633.9176            0    11459.288    23.045494    21.176152    21.295802    10392.668    11243.259    11245.218    11889.388    1000.9796   -208.99009    630.25305    -4544.772 
38939000    133.05826   -6668.4071   -6326.1228   -6668.4071            0    11131.263    23.097368    21.135682    21.322369    10409.125      11407.1    10509.227    11477.463   -139.24318    118.61976     115.6149   -4636.3257 
38940000    141.48659   -6631.4435   -6267.4779   -6631.4435            0     11538.63    23.174752    21.101128    21.263904    10398.335    11455.348    11561.172    11599.371    587.03278    161.87695   -275.07488   -4517.6556 
38941000    144.64122   -6657.6012   -6285.5205   -6657.6012            0    11430.388    22.981981    21.133074    21.393099    10390.198    11060.896    11711.557     11518.71    -225.1831    705.53425   -248.15646   -4553.4694 
38942000    139.94538   -6657.0899    -6297.089   -6657.0899            0    11068.701    22.981073    21.210585    21.363009    10413.228    11945.089    10798.441    10462.573   -722.62494   -592.23357   -1092.5374   -4616.1268 
38943000    139.36457   -6665.3067   -6306.7999   -6665.3067            0    12211.562    23.021193    21.221631    21.241716    10377.582    11610.967    12355.532    12668.187    347.14141   -161.15705   -204.86634    -4458.624 
38944000    140.52577   -6658.9604   -6297.4665   -6658.9604            0     11842.33    22.899064    21.277697     21.30654    10381.384    12669.165    11301.139    11556.685     -413.644    95.092211    971.41018   -4504.5159 
38945000    139.08944   -6639.4109   -6281.6117   -6639.4109            0    13370.407    22.963895     21.06089    21.407263     10353.41    13650.745    13583.281    12877.194    165.17069   -345.47837   -270.01856   -4262.7623 
38946000     131.7105   -6650.9436   -6312.1264   -6650.9436            0    11011.975    23.108696    21.184987    21.302125    10428.614    11849.111     10173.77    11013.044    354.80342   -620.18057    757.52984   -4637.3082 
38947000    137.77507   -6652.0445   -6297.6265   -6652.0445            0    11864.513    23.104885    21.069331    21.341599    10389.186    11119.249    12368.424    12105.867    255.82148    -496.3853     94.20525   -4499.9674 
38948000    138.35932   -6643.9596   -6288.0386   -6643.9596            0    12240.814    23.150643    21.018861    21.352205    10389.987    12101.714    12561.108    12059.619   -286.43117   -267.81642    102.18593   -4433.2212 
38949000    135.44226   -6643.9534   -6295.5364   -6643.9534            0    10934.731    23.103484    21.146605    21.348884    10430.216    10087.146    11956.237     10760.81    389.98671   -484.15761   -293.93356   -4632.2107 
38950000    134.51818     -6658.49   -6312.4502     -6658.49            0    11385.602    22.913919    21.244007    21.361549    10398.449     11394.66    10597.926    12164.221   -294.54535    860.92339    825.20172   -4585.8155 
38951000    139.73924   -6659.1723   -6299.7016   -6659.1723            0    11361.538    23.040079    21.324444     21.17247    10402.392    11783.016    10245.865    12055.733   -488.33808   -110.45968   -255.43441    -4576.063 
38952000    135.83818   -6652.2829   -6302.8475   -6652.2829            0    12213.959    22.886413     21.19526    21.420147    10390.559    12597.145    12609.422    11435.311      739.475    824.80206    496.50655   -4451.9972 
38953000    130.76815   -6655.3315   -6318.9384   -6655.3315            0    13007.148     23.10073    21.047085    21.250291    10331.956    12796.433    12892.791     13332.22    76.861351   -914.28048    340.16079   -4359.0086 
38954000    135.43081   -6660.4847   -6312.0972   -6660.4847            0    10967.122    23.174946    21.083795    21.322448    10418.485    9686.2566     12438.14    10776.971     62.44508    -789.3896   -82.927783   -4645.7206 
38955000    137.91089   -6669.4966   -6314.7293   -6669.4966            0    11268.344     23.18367    20.962736    21.414968    10407.528    10550.443    13610.519    9644.0688   -569.57036    235.20857   -480.62745   -4604.3849 
38956000    129.90532   -6652.3885    -6318.215   -6652.3885            0    12270.426    23.123641     21.09443     21.24502    10362.897    11784.516    12948.178    12078.583    895.20796   -546.34028    108.65624   -4463.7584 
38957000    135.03056   -6660.9299   -6313.5721   -6660.9299            0     12285.68    22.909615    21.183957    21.372588    10372.465    12856.363    11732.949    12267.727     814.3285   -31.054272   -294.15394   -4455.0956 
38958000    139.78648   -6667.7951   -6308.2029   -6667.7951            0    10285.994    23.050785    21.307669    21.266063    10445.007    10327.835    9466.9305    11063.217    857.56003     140.6946   -475.13955   -4741.3403 
38959000    133.09305    -6637.186   -6294.8123    -6637.186            0    11240.129    22.926256    21.165498    21.452835    10409.894    12188.142    12093.037    9439.2081   -17.572288   -202.56091   -286.96571   -4588.3625 
38960000    137.21079   -6655.0403   -6302.0739   -6655.0403            0    12244.726    23.143885    21.164816    21.171135    10370.386    12070.492    12454.663    12209.023   -514.18243    537.32475   -988.69028   -4450.1639 
38961000    138.84184   -6646.6888   -6289.5266   -6646.6888            0    12324.196    23.070217    21.056037    21.374465    10383.017    12962.942    12367.075    11642.572   -466.69656   -845.79206   -238.20112   -4423.3272 
38962000    136.47738    -6657.363   -6306.2833    -6657.363            0     11859.01    23.127248    21.187003    21.170079    10373.277    11289.523    11376.971    12910.536   -149.26913   -33.813012    360.84873   -4512.2096 
38963000    130.76173   -6650.3585   -6313.9819   -6650.3585            0    11058.206    22.983434    21.178188    21.428692    10430.362    11437.802    10415.555    11321.263   -235.80209    616.36873    -485.4668   -4631.8503 
38964000    137.49954   -6661.8272    -6308.118   -6661.8272            0    10349.779    22.989828    21.349779    21.275134    10442.426    10879.778    9952.3041    10217.255   -376.00142    467.63488    -248.0927   -4731.9287 
38965000    136.13319   -6666.1534   -6315.9591   -6666.1534            0    12229.466    22.909748    21.225029    21.291725    10353.315    12982.487    11277.808    12428.104    1.0500873    63.255516    205.85725   -4469.4016 
38966000    126.48869   -6623.6612   -6298.2767   -6623.6612            0    12777.809    22.986876    21.119201    21.365761    10372.317    13233.748     12663.08    12436.599   -96.939646   -741.78992    625.28269   -4365.3826 
38967000    131.19518   -6641.4685   -6303.9769   -6641.4685            0    11490.675    23.149582    21.175685    21.238234    10411.158    10713.863    11375.848    12382.313   -426.24358    332.67841   -187.42469   -4559.2781 
38968000    143.26317   -6655.4128    -6286.877   -6655.4128            0    12048.928     23.09683    21.016472    21.363737    10370.254    12267.788    12154.218    11724.776   -1048.4232   -611.69188    40.627726    -4464.603 
38969000    135.90505   -6650.0981   -6300.4907   -6650.0981            0    12358.554    23.048417     21.15439    21.256086    10363.941     11431.61    13412.279    12231.775    451.35541   -177.86842    632.32607   -4432.5267 
38970000    131.75188   -6664.9485   -6326.0248   -6664.9485            0    10550.731    23.039352    21.183609    21.334665    10412.525    10339.248    11243.662    10069.282    1774.5476   -478.03631   -381.51765   -4723.8331 
38971000    138.05426   -6667.2329   -6312.0968   -6667.2329            0    10887.609    23.027358    21.210572    21.300934    10403.875    10658.621    10845.243    11158.961    1042.1448    1209.4111    152.35574   -4660.1216 
38972000    136.47476   -6662.2982   -6311.2252   -6662.2982            0    11937.584    22.948952    21.273469    21.265704    10381.998    11531.256    10982.129    13299.367   -345.38076   -5.5523039    856.87743   -4503.7461 
38973000    132.72488   -6650.1852   -6308.7585   -6650.1852            0     12363.68     23.03738    21.113514    21.320472    10370.279    12748.788    12387.822    11954.431   -124.50602     89.80087   -715.86128    -4438.877 
38974000    139.36172   -6644.5633   -6286.0638   -6644.5633            0    11704.131    23.054615    21.074327     21.39728    10396.093    10839.869    12912.389    11360.136   -427.36121    392.34231    -372.0547    -4511.526 
38975000    136.06611   -6663.4956   -6313.4738   -6663.4956            0    11028.914    23.132907    21.182674    21.239647    10407.785     11179.08    10335.889    11571.772   -447.27458   -67.275452    641.97246   -4639.4295 
38976000    134.51594    -6653.326    -6307.292    -6653.326            0    10544.658    23.147577    21.040856    21.389853    10417.817    8986.4151    11331.608    11315.952    181.58974    908.51554   -520.10224   -4705.2085 
38977000     141.5661   -6638.0568   -6273.8867   -6638.0568            0    11552.034    22.988937    21.236169    21.315454     10406.14    11759.938    10914.168    11981.997    242.07251    -577.2893    828.75857   -4520.7167 
38978000    142.97307   -6646.8488   -6279.0593   -6646.8488            0    11712.092    23.027469    21.202219    21.289898     10394.44    10453.515    11629.342    13053.419    402.62192    1018.5313     280.4138   -4503.5969 
38979000     137.1685   -6649.6966    -6296.839   -6649.6966            0    10676.405    23.027019    21.197484     21.34757    10420.066    10874.838    10891.983    10262.394   -331.88775   -240.52922    768.60826   -4674.3887 
38980000    138.29665   -6636.5742   -6280.8144   -6636.5742            0    12009.565     23.01316    21.216559    21.252286    10376.643    12334.675    10925.417    12768.602   -1025.4577    264.60847   -72.221432   -4463.3747 
38981000    139.76146   -6636.0819    -6276.554   -6636.0819            0    12387.347    23.014922    21.127706    21.303839    10359.045    12613.088    12118.896    12430.057   -636.51072    696.19048   -513.68448   -4405.1226 
38982000    137.19216   -6640.5786   -6287.6601   -6640.5786            0    12236.064    22.995734    21.169568    21.286251    10362.355    11635.619    12351.842     12720.73    674.90299    196.32414    122.82758   -4438.4934 
38983000    139.89631   -6667.7656   -6307.8909   -6667.7656            0    12202.291    23.039432    21.139811    21.277276    10363.081    11631.522    12769.735    12205.614   -759.67489    300.72228    258.06428   -4463.6988 
38984000    136.89463   -6652.8334   -6300.6803   -6652.8334            0    11607.072    23.153271    20.991642    21.365028    10383.942    10717.737    12595.901    11507.577    97.160823   -446.72305    393.64041   -4542.9153 
38985000    135.52541   -6647.4616   -6298.8307   -6647.4616            0    12009.558    23.092593    21.182195    21.202835    10371.405    11700.162    11588.423    12740.089    -1322.414   -285.48221    474.92984   -4482.3093 
38986000    134.01532   -6648.9156   -6304.1693   -6648.9156            0    12013.137    23.061846    21.081944    21.325438    10368.183    13069.244    11483.714    11486.453   -994.01415    501.46816   -695.73346    -4487.671 
38987000    133.85392   -6651.5991   -6307.2681   -6651.5991            0    11595.505    22.948162    21.265225    21.238683    10364.431    11455.981    11560.783    11769.751    1150.6125    26.806331   -675.08754   -4554.5542 
38988000    136.29736   -6638.1657    -6287.549   -6638.1657            0    10713.995    22.954858    21.321594    21.303288    10426.557    11443.834    10145.071     10553.08   -881.97015    505.56028    108.49711   -4658.3721 
38989000    134.07733   -6653.7833   -6308.8775   -6653.7833            0    10842.005    23.047326    21.195886    21.315976    10413.035    11695.549    9986.8373     10843.63   -1203.6917   -234.85927   -128.85285   -4662.3734 
38990000     139.5305   -6651.0492   -6292.1155   -6651.0492            0    11427.487    23.134743    21.100384    21.278981    10387.376    11020.375    12249.098    11012.989    40.434055   -786.25203   -29.972679   -4560.9742 
38991000    133.93243   -6648.0871    -6303.554   -6648.0871            0    12584.921    23.090082    21.015938    21.359236    10364.778    12823.714    12501.022    12430.026    409.40578   -40.720488    485.05338   -4401.2218 
38992000    131.21585   -6640.5959   -6303.0511   -6640.5959            0    12207.359    23.125064    21.093688    21.253795     10367.45    12735.267    12401.074    11485.736   -81.538441   -1254.6597    595.59935   -4457.3152 
38993000    137.27222   -6647.4264    -6294.302   -6647.4264            0    11435.502    23.078479    21.093029    21.346339    10391.292     11213.34    12355.977     10737.19    -400.2113   -142.02312    234.44315   -4561.2935 
38994000    134.90318   -6650.3495   -6303.3193   -6650.3495            0    10920.408    23.014675    21.135957    21.394481    10407.071    11130.952    10606.018    11024.253    229.58111    795.25831    -74.93256   -4645.8585 
38995000    138.87455   -6629.9513    -6272.705   -6629.9513            0     12026.81    22.973345    21.349951    21.162029    10379.548    12340.967    10850.948    12888.514    260.16965   -22.210374    43.650378   -4452.1459 
38996000     134.8592   -6662.8659   -6315.9488   -6662.8659            0    10943.244     22.99088    21.277488    21.286268    10412.991     11526.21    10523.475    10780.046   -417.80945   -166.88085   -255.14071   -4654.0773 
38997000    136.78256   -6655.0282   -6303.1634   -6655.0282            0    10446.541     23.02628    21.153665    21.396152    10421.857    10695.524    10415.948    10228.151    474.95309   -67.179762    462.89461   -4715.3718 
38998000    137.47523   -6647.2666     -6293.62   -6647.2666            0    10929.855    23.068567    21.174725     21.30094    10404.882    9374.8787    12094.044    11320.644   -550.10429    895.60995   -120.91738   -4635.0742 
38999000     134.9006   -6649.2534   -6302.2298   -6649.2534            0    12510.897    23.101922    21.036847    21.296447    10349.894    11320.118    13973.696    12238.878    761.27613   -1008.1584    -789.9642   -4413.8026 
39000000    142.12316   -6637.2448   -6271.6416   -6637.2448            0     11347.37    23.189925    21.067042    21.307288    10409.529    11377.968    11471.298    11192.843   -990.25718    434.83594    880.43916   -4548.9713 
Loop time of 542.756 on 64 procs for 250000 steps with 1296 atoms

Performance: 79.594 ns/day, 0.302 hours/ns, 460.612 timesteps/s
99.1% CPU use with 64 MPI tasks x 1 OpenMP threads

MPI task timing breakdown:
Section |  min time  |  avg time  |  max time  |%varavg| %total
---------------------------------------------------------------
Pair    | 31.022     | 42.176     | 53.171     | 109.4 |  7.77
Bond    | 0.28128    | 0.28896    | 0.30125    |   0.7 |  0.05
Kspace  | 275.21     | 286.39     | 297.59     |  42.1 | 52.77
Neigh   | 1.8969     | 1.9232     | 1.9426     |   0.7 |  0.35
Comm    | 91.39      | 93.75      | 96.338     |  15.5 | 17.27
Output  | 0.66001    | 0.66104    | 0.66249    |   0.0 |  0.12
Modify  | 105.77     | 108        | 109.72     |  10.9 | 19.90
Other   |            | 9.566      |            |       |  1.76

Nlocal:        20.2500 ave          26 max          14 min
Histogram: 6 4 7 6 4 9 7 8 8 5
Nghost:        2699.97 ave        2725 max        2670 min
Histogram: 2 1 5 9 4 14 16 7 3 3
Neighs:        6710.08 ave        8617 max        4656 min
Histogram: 6 4 7 7 5 6 8 8 8 5

Total # of neighbors = 429445
Ave neighs/atom = 331.36188
Ave special neighs/atom = 2.0000000
Neighbor list builds = 3436
Dangerous builds = 0

unfix		3
unfix		2
unfix		1

write_data	data.final.${pid}
write_data	data.final.0
System init for write_data ...
PPPM initialization ...
  extracting TIP4P info from pair style
  using 12-bit tables for long-range coulomb (../kspace.cpp:340)
  G vector (1/distance) = 0.37125759
  grid = 30 40 32
  stencil order = 5
  estimated absolute RMS force accuracy = 0.0037417904
  estimated relative force accuracy = 1.1268291e-05
  using double precision FFTW3
  3d grid and FFT values/proc = 5168 640
Last active /omp style is kspace_style pppm/tip4p/omp
WARNING: Not all mixed pair coeffs generated from mixing. Use write_data with 'pair ij' option to store all pair coeffs. (../write_data.cpp:312)

write_restart   restart.lmp.${pid}
write_restart   restart.lmp.0
System init for write_restart ...
PPPM initialization ...
  extracting TIP4P info from pair style
  using 12-bit tables for long-range coulomb (../kspace.cpp:340)
  G vector (1/distance) = 0.37125759
  grid = 30 40 32
  stencil order = 5
  estimated absolute RMS force accuracy = 0.0037417904
  estimated relative force accuracy = 1.1268291e-05
  using double precision FFTW3
  3d grid and FFT values/proc = 5168 640
Last active /omp style is kspace_style pppm/tip4p/omp
Total wall time: 0:09:02
