#include		in.partitions
include		in.temp
variable        temperature equal 85.77
variable	tempDamp equal 100.0
include		in.pressure
variable        pressure equal 8231.2
variable        pressureDamp equal 1000.0 # This is 1 ps
include		in.seed
variable        seed equal 745823

units		real
atom_style	full
read_restart	restart.lmp.${pid}
read_restart	restart.lmp.0
Reading restart file ...
  restart file = 30 Jul 2021, LAMMPS = 30 Jul 2021
  restoring atom style full from restart
  orthogonal box = (0.028292369 0.019156791 0.035688304) to (24.701709 24.710844 22.774312)
  2 by 4 by 2 MPI processor grid
  restoring pair style lj/cut/tip4p/long/omp from restart
  restoring bond style harmonic/omp from restart
  restoring angle style harmonic/omp from restart
  1920 atoms
  1280 bonds
  640 angles
Finding 1-2 1-3 1-4 neighbors ...
  special bond factors lj:    0        0        0       
  special bond factors coul:  0        0        0       
     2 = max # of 1-2 neighbors
     1 = max # of 1-3 neighbors
     1 = max # of 1-4 neighbors
     2 = max # of special neighbors
  special bonds CPU = 0.001 seconds
  read_restart CPU = 0.007 seconds
include 	in.setup
variable	out_freq equal 1000
variable	out_freq2 equal 10000
variable	out_freq3 equal 1000

timestep	2.0

neigh_modify    delay 7 every 1

include		in.tip4p
# This is TIP4P/Ice

# create groups ###
group ox type 2
640 atoms in group ox
group hy type 1
1280 atoms in group hy

# set charges - beside manually ###
set group ox charge -1.1794
Setting atom values ...
  640 settings made for charge
set group hy charge 0.5897
Setting atom values ...
  1280 settings made for charge

# ### TIP3P Potential Parameters ###
pair_style lj/cut/tip4p/long/omp 2 1 1 1 0.1577 8.5
pair_coeff 1 1*2 0.000 0.000
pair_coeff 2 2 0.21084 3.1668
bond_style  harmonic
bond_coeff  1 450 0.9572
angle_style harmonic
angle_coeff 1 55 104.52
kspace_style pppm/tip4p/omp 1.0e-5
pair_modify tail yes

thermo          ${out_freq}
thermo          1000
thermo_style    custom step temp pe etotal epair emol press lx ly lz vol pxx pyy pzz pxy pxz pyz enthalpy

restart 	${out_freq3} restart.lmp.${pid} restart2.lmp.${pid}
restart 	1000 restart.lmp.${pid} restart2.lmp.${pid}
restart 	1000 restart.lmp.0 restart2.lmp.${pid}
restart 	1000 restart.lmp.0 restart2.lmp.0


include         in.dump
dump            myDump all atom ${out_freq2} dump.water.${pid}
dump            myDump all atom 10000 dump.water.${pid}
dump            myDump all atom 10000 dump.water.0
dump            myDump2 all dcd ${out_freq2} dump.dcd
dump            myDump2 all dcd 10000 dump.dcd
dump_modify     myDump append yes
dump_modify     myDump2 append yes


variable natoms 	equal  "count(all)"                        # NUMBER ATOMS
variable H      	equal  "enthalpy/v_natoms"                 # ENTHALPY-per-atom
variable Vol      	equal  "vol/v_natoms"                 # volume-per-atom
fix AVG all 		ave/time ${out_freq} 1 ${out_freq} v_Vol v_H file vol_enthalpy.dat
fix AVG all 		ave/time 1000 1 ${out_freq} v_Vol v_H file vol_enthalpy.dat
fix AVG all 		ave/time 1000 1 1000 v_Vol v_H file vol_enthalpy.dat




fix 		1 all shake 1e-6 200 0 b 1 a 1
       0 = # of size 2 clusters
       0 = # of size 3 clusters
       0 = # of size 4 clusters
     640 = # of frozen angles
  find clusters CPU = 0.000 seconds
fix             2 all nph aniso ${pressure} ${pressure} ${pressureDamp}
fix             2 all nph aniso 8231.2 ${pressure} ${pressureDamp}
fix             2 all nph aniso 8231.2 8231.2 ${pressureDamp}
fix             2 all nph aniso 8231.2 8231.2 1000
fix             3 all temp/csvr ${temperature} ${temperature} ${tempDamp} ${seed}
fix             3 all temp/csvr 85.77 ${temperature} ${tempDamp} ${seed}
fix             3 all temp/csvr 85.77 85.77 ${tempDamp} ${seed}
fix             3 all temp/csvr 85.77 85.77 100 ${seed}
fix             3 all temp/csvr 85.77 85.77 100 745823


run             250000
PPPM initialization ...
  extracting TIP4P info from pair style
  using 12-bit tables for long-range coulomb (../kspace.cpp:340)
  G vector (1/distance) = 0.37529642
  grid = 30 30 30
  stencil order = 5
  estimated absolute RMS force accuracy = 0.0031736837
  estimated relative force accuracy = 9.5574541e-06
  using double precision FFTW3
  3d grid and FFT values/proc = 7920 1800
Last active /omp style is kspace_style pppm/tip4p/omp
Neighbor list info ...
  update every 1 steps, delay 7 steps, check yes
  max neighbors/atom: 2000, page size: 100000
  master list distance cutoff = 10.8154
  ghost atom cutoff = 10.8154
  binsize = 5.4077, bins = 5 5 5
  1 neighbor lists, perpetual/occasional/extra = 1 0 0
  (1) pair lj/cut/tip4p/long/omp, perpetual
      attributes: half, newton on, omp
      pair build: half/bin/newton/omp
      stencil: half/bin/3d
      bin: standard
Per MPI rank memory allocation (min/avg/max) = 12.57 | 12.57 | 12.57 Mbytes
Step Temp PotEng TotEng E_pair E_mol Press Lx Ly Lz Volume Pxx Pyy Pzz Pxy Pxz Pyz Enthalpy 
35500000     91.35078   -9825.2445   -9476.9737   -9825.2445            0    8959.6239    24.673416    24.691687    22.738623    13853.012     8310.871    9834.4567    8733.5439   -337.91048   -661.61805    314.96667   -7666.8432 
35501000    84.697228     -9834.72   -9511.8156     -9834.72            0    7582.2078    24.699271    24.683462    22.812056    13907.678     8276.266     7464.546    7005.8114    301.94593    410.28201   -382.00054   -7973.9223 
35502000    84.906346   -9829.7099   -9506.0081   -9829.7099            0    8681.1307    24.615985    24.706873     22.79124    13861.268    8530.5833    9125.6721    8387.1367   -324.40929   -196.84636    226.95129   -7751.0969 
35503000    85.617634   -9839.1443   -9512.7308   -9839.1443            0    7002.3198    24.667415    24.693886       22.863    13926.638    7968.8359    6810.7369    6227.3865   -141.22898    371.97444   -410.43346   -8090.5196 
35504000    84.772417   -9841.4811     -9518.29   -9841.4811            0    8457.2707    24.641221    24.712289    22.775399    13868.874    7819.5971    8792.4817    8759.7334   -270.96727   -493.01387    641.79862   -7807.6945 
35505000    85.523344   -9827.7228   -9501.6688   -9827.7228            0    8212.3084    24.750882    24.655137     22.74226    13878.155    7726.8116    8394.5931    8515.5205   -34.047363   -213.69229    31.139395   -7839.5087 
35506000    85.722618   -9816.9863   -9490.1726   -9816.9863            0    8666.2763    24.693434    24.729799    22.699703    13861.884    8638.4883    8332.2289    9028.1116   -106.78046   -954.09429    355.13086   -7738.1865 
35507000    83.518563   -9831.0104   -9512.5995   -9831.0104            0    8803.2244    24.662571    24.670265    22.742631    13837.348    8670.2409    8895.6598    8843.7726    364.38176    139.21615   -173.92008   -7736.0777 
35508000    85.935634   -9840.7661   -9513.1402   -9840.7661            0    8524.7028    24.679619    24.689924    22.748415    13861.471    8404.2059    8522.6232    8647.2794    81.916382    307.66645    367.38309    -7789.826 
35509000    88.324232    -9830.634   -9493.9018    -9830.634            0    7934.7432    24.648569     24.71502     22.79429    13886.051     8485.028    7847.5475    7471.6541    -23.21828   -64.364191    654.22666   -7887.0067 
35510000    87.155003   -9831.0475   -9498.7729   -9831.0475            0    8612.9062    24.648022    24.699815    22.759324    13855.912    8692.9007    8482.0879      8663.73   -26.688689   -168.47412     91.44191   -7758.3261 
35511000    84.968087   -9832.3696   -9508.4325   -9832.3696            0    8811.2974    24.576667     24.67419    22.842597    13851.964     9814.439    8948.9829    7670.4702    82.157758   -352.60268    -140.2722   -7728.4034 
35512000    89.860951   -9837.0846   -9494.4937   -9837.0846            0    7650.3477    24.637668    24.719911    22.816104    13895.942    8200.7121    7898.4685    6851.8625   -236.41384    -728.5438    195.93266   -7944.0891 
35513000    86.263836   -9829.9405   -9501.0634   -9829.9405            0    8032.7636     24.63392    24.705203    22.823503    13890.065    9122.4093    7794.1002    7181.7814    376.27397   -177.86341    53.864365   -7873.8477 
35514000    83.212434   -9843.5284   -9526.2846   -9843.5284            0    7681.1671    24.718075    24.682091    22.775871    13895.417    7352.2001    8269.6592    7421.6421   -331.10875   -331.83664    283.68606    -7969.693 
35515000    86.157018   -9836.7845   -9508.3146   -9836.7845            0    8522.7349    24.650262    24.716064    22.742147    13855.822    9222.8334    8523.1879    7822.1835    154.48937    102.93374    473.79945   -7786.1004 
35516000     87.35537   -9838.9591   -9505.9206   -9838.9591            0    7590.7002    24.724456    24.631176    22.831243    13904.054    7813.0744     7486.151    7472.8751     118.4634     8.408443   -166.00301    -7966.706 
35517000    86.099811   -9829.6975   -9501.4457   -9829.6975            0    7953.0184    24.622329    24.757788    22.758304    13873.334    8801.1521    7476.7791    7581.1239    263.48379   -457.67569    189.21465   -7892.3246 
35518000    85.550675   -9846.1254   -9519.9672   -9846.1254            0    7979.4824    24.747336    24.617736    22.792934    13885.989    7130.9715    8356.2926    8451.1831   -100.56603    110.44641    213.96469   -7904.0191 
35519000    85.811041   -9841.0441   -9513.8933   -9841.0441            0    7703.7163    24.656688    24.731844    22.789677    13897.267    8461.3204    7702.1771    6947.6513    322.23907   -54.337634   -1065.0553   -7952.5242 
35520000    84.018926   -9830.1549   -9509.8365   -9830.1549            0    8398.7435    24.734477    24.652519    22.720954    13854.492    7782.8052    8606.0629    8807.3622   -410.31733   -366.02844    187.41735   -7812.8405 
35521000    87.250084   -9844.7038   -9512.0666   -9844.7038            0    8028.3947     24.64297    24.772973    22.730503    13876.509    7508.0718     8283.072    8294.0401   -480.42873   -507.96869    539.62193   -7887.3231 
35522000    88.016751   -9832.7631   -9497.2031   -9832.7631            0    7977.0413    24.717974    24.691066    22.750227    13884.762    8185.4066    7860.8677    7884.8496    -27.60675   -93.399548   -24.419457    -7881.892 
35523000    82.132978    -9836.723   -9523.5947    -9836.723            0    8291.6343     24.73361    24.696791    22.693372    13862.038    7936.1637    8195.5481    8743.1913   -134.43023    365.89044    672.31481    -7847.328 
35524000    88.353196   -9823.6583   -9486.8156   -9823.6583            0     8006.825    24.626358    24.791287    22.746139    13886.953    8275.1287    7574.7696    8170.5766   -46.768759    446.08342    318.82874   -7865.2177 
35525000    85.205374   -9833.6725   -9508.8308   -9833.6725            0    7582.5605    24.732942    24.687101    22.765478    13900.251    7117.0938    7802.0505    7828.5373   -641.39079    -719.1954     907.3936   -7971.6872 
35526000     89.01891   -9835.1927    -9495.812   -9835.1927            0    7970.9363    24.658772    24.715986     22.76973    13877.373    7970.8591    8164.4211    7777.5287    340.41791   -566.38642   -321.39274   -7882.5962 
35527000    84.015461   -9825.9947   -9505.6894   -9825.9947            0    7649.9275    24.676287    24.745186    22.763223    13899.663    7558.1333     7340.385    8051.2642   -648.47872   -349.01871    373.27621   -7954.9548 
35528000    87.357447   -9843.2935   -9510.2471   -9843.2935            0    7859.3979    24.695996    24.696911    22.747935    13874.302    8093.5872    8353.7812    7130.8254     556.4007   -778.32703    730.44301   -7919.9571 
35529000    86.006832   -9842.3351   -9514.4379   -9842.3351            0     8181.755    24.576218    24.736686    22.808872    13866.293    8694.8619    7999.7204    7850.6827   -476.95391   -259.92576    324.98039   -7859.8771 
35530000     87.61642   -9830.1154   -9496.0816   -9830.1154            0    8458.5354    24.678626    24.680239    22.767061    13866.834    8397.2799     8668.681    8309.6454   -656.34636   -147.89053   -18.872973    -7785.482 
35531000    84.963705   -9812.9097   -9488.9893   -9812.9097            0    8727.1705    24.624794     24.72123    22.768126    13860.215     8798.921    8530.4426    8852.1479   -160.74392    -603.3347    243.67847   -7724.9051 
35532000    87.850158   -9830.7306   -9495.8058   -9830.7306            0    8575.9808    24.662796    24.654244    22.802883    13865.125    8767.9798    8647.8981    8312.0646  -0.24811147   -290.28879     74.02135   -7761.6685 
35533000    89.114937   -9845.4922   -9505.7455   -9845.4922            0    7712.8191     24.63013    24.713798    22.829785    13896.583    7715.6636    8180.8871    7241.9066   -131.32204   -200.38756    281.83061   -7942.6084 
35534000    84.880503   -9844.4138   -9520.8106   -9844.4138            0    7940.4541    24.658939     24.66348    22.832405    13886.103    8062.0686    8406.4705    7352.8233   -288.11792    455.81864   -624.72313   -7912.7529 
35535000     83.90128   -9840.7689    -9520.899   -9840.7689            0    8645.2063    24.671822    24.655506    22.770987    13851.506    8444.4692    8800.4227     8690.727   -613.68439   -305.48628    173.17427   -7774.4808 
35536000    84.585878   -9834.0902   -9511.6103   -9834.0902            0      7581.68    24.657183    24.763957    22.764236    13900.057    8139.8223    7037.5514    7567.6663   -329.34611   -433.13026    382.22112   -7974.6667 
35537000    85.068426   -9821.9479   -9497.6283   -9821.9479            0    9533.8657    24.682059    24.635066    22.722215     13816.11    9235.4931    9237.0109    10129.093   -60.420034   -136.32535    799.16182   -7576.6135 
35538000     86.35061   -9826.7205   -9497.5126   -9826.7205            0    8577.4373    24.622393    24.714386     22.78589    13865.836    8415.4982    8832.0656     8484.748   -250.56425   -256.78149    217.31403   -7762.9919 
35539000    82.467203   -9830.4896    -9516.087   -9830.4896            0    8082.4102    24.707898    24.693554    22.763194    13888.413    7603.6117    8001.0814    8642.5374    144.80981    103.60018   -395.98955    -7879.009 
35540000    85.685757   -9831.8058   -9505.1327   -9831.8058            0    9408.6377    24.651366    24.675496    22.715413    13817.438    9103.2478     9793.857    9328.8082   -599.17809   -1011.8564   -28.532973   -7609.1684 
35541000    85.315318   -9845.5135   -9520.2526   -9845.5135            0    8850.6088    24.699552    24.661992    22.709258    13833.121    8945.2554    8904.6246    8701.9465    495.43785   -876.85792   -772.28619   -7734.7142 
35542000    86.125293    -9836.796   -9508.4471    -9836.796            0    8298.9434    24.648634    24.791014    22.690349     13865.27    8367.5208    7485.3741    9043.9354   -313.92604   -776.24676    105.12744   -7830.3117 
35543000    85.155692    -9821.288   -9496.6357    -9821.288            0    8758.1765    24.743339    24.676198     22.67884    13847.054    8455.0945    8823.2376    8996.1974   -147.24522   -435.94125   -15.632595   -7727.9651 
35544000    85.483079   -9836.1379   -9510.2375   -9836.1379            0    7551.1002    24.677324    24.759071     22.75503    13903.042    7497.5274    8052.8897    7102.8837   -81.701858   -392.69121    106.96538   -7979.1642 
35545000    81.512099    -9841.354   -9530.5927    -9841.354            0    7906.3032    24.648814    24.699785    22.796156    13878.765    7329.8442    8388.8931    8000.1723    472.64043   -278.59124   -106.27683   -7930.2973 
35546000    85.614695   -9817.1134   -9490.7112   -9817.1134            0    8272.8392    24.670633    24.632987    22.836069     13877.74    7820.2445    9169.7479    7828.5253    227.89444    341.52324    953.11526   -7816.3498 
35547000    84.127517   -9834.6845    -9513.952   -9834.6845            0    8077.4325     24.69137     24.64144    22.809018    13877.712    7153.4574    9372.9703    7705.8698   -114.38699     337.9715    77.075472   -7879.1428 
35548000    86.870612   -9839.3611   -9508.1707   -9839.3611            0    8596.5941    24.624011     24.70934    22.767364    13852.644    8729.7748    8590.7459    8469.2614    83.316297    399.64686   -325.07979     -7771.43 
35549000    88.203906   -9836.4096   -9500.1361   -9836.4096            0    8114.9209    24.688958    24.688763    22.762069    13874.388    8361.3244    8297.3915    7686.0469   -285.75923   -228.99307   -165.34175   -7858.1328 
35550000    86.212637    -9823.563   -9494.8812    -9823.563            0    8065.0801    24.676717    24.713972    22.747905    13873.031    7659.4255    8592.3178    7943.4969    332.51696   -329.46147   -75.731694   -7863.1225 
35551000    86.320178   -9840.6034   -9511.5115   -9840.6034            0    7035.3506    24.640063    24.750022    22.826635    13920.643    7438.6197    7182.3723    6485.0598    194.44821   -14.875084   -426.46759   -8083.2066 
35552000    86.889944   -9840.2994   -9509.0353   -9840.2994            0    7610.0489    24.719679    24.725749    22.736537    13896.857    6908.3175    7848.9947    8072.8344   -488.52733   -78.057964    328.62063    -7966.696 
35553000    84.846513   -9831.6363   -9508.1627   -9831.6363            0    8371.6271    24.646433    24.769178    22.726849    13874.102    8233.1484    8007.7242    8874.0087    345.60273   -216.02343    -531.4252   -7814.2514 
35554000    84.233323   -9823.1646   -9502.0287   -9823.1646            0    8600.9308    24.691894     24.74069    22.712613    13875.011      8892.58    7985.3442    8924.8682    -334.4752   -857.73794    39.172493   -7761.6063 
35555000    85.323624   -9822.9123   -9497.6197   -9822.9123            0    8256.5807      24.6947     24.68046    22.759037    13871.099    8606.2433    8118.2751    8045.2237    204.99374    -512.8425   -24.988083   -7827.3485 
35556000     85.42125   -9821.6628   -9495.9981   -9821.6628            0    7991.5364    24.711483    24.652073    22.808472    13894.677    8254.9006    8597.7547    7121.9539    -65.49163    -305.4576   -18.368871   -7876.5962 
35557000    86.334202    -9838.811   -9509.6656    -9838.811            0     7720.165    24.634821     24.74975    22.771607    13883.978    8380.7283    7496.2619    7283.5047   -582.67337   -347.17144    10.248224    -7946.459 
35558000    87.257227    -9841.281   -9508.6167    -9841.281            0    8812.8583    24.790603     24.60126    22.702206    13845.623    8082.2694    9731.1763    8625.1294   -114.30071   -44.149687   -53.708236   -7729.0873 
35559000    84.796004   -9826.7839   -9503.5029   -9826.7839            0    9096.8987    24.599553    24.775681    22.716625    13845.117    9675.8665    8885.5726    8729.2571    159.40589   -91.549592    1119.3519    -7666.686 
35560000     84.84348   -9846.4717   -9523.0096   -9846.4717            0    8411.6067    24.725664    24.655895    22.731778     13858.05    7801.4425    8930.6756     8502.702   -336.73039   -127.73916    559.17002   -7822.9781 
35561000    85.313613   -9840.0963   -9514.8419   -9840.0963            0    8085.7898    24.622663    24.787275    22.735159    13875.921    8688.6208    7111.2914     8457.457    191.05689   -549.55744    25.501292   -7878.5524 
35562000    84.596853   -9831.7485   -9509.2267   -9831.7485            0     8333.118    24.738756    24.696666      22.6999     13868.84    7164.8953    9180.3159    8654.1429   -15.657433   -146.50212   -603.92248    -7823.747 
35563000    89.804821    -9834.534   -9492.1571    -9834.534            0     8200.249     24.67719    24.730981    22.718353    13864.809    7983.4506    8427.3638    8189.9327    -144.5778    501.45284    211.60416   -7834.0338 
35564000    88.093039   -9839.4179    -9503.567   -9839.4179            0    8897.7572    24.638968    24.658867     22.77837    13839.432    9411.4154    9010.9952     8270.861   -278.87815   -707.15484    300.85305   -7707.6978 
35565000    82.481593   -9836.8907   -9522.4333   -9836.8907            0    8258.1161    24.655749    24.648256    22.808255     13861.06    8496.6296    8748.3554    7529.3632   -22.075811   -553.16287    342.64969   -7853.0605 
35566000    88.147161   -9822.8636   -9486.8064   -9822.8636            0    8016.8032    24.579184    24.769541    22.815094    13890.174    8337.0152    8345.5486    7367.8457   -348.98887    76.430059    318.90794    -7862.811 
35567000    84.234938   -9840.0733   -9518.9313   -9840.0733            0    8622.3362    24.700007       24.581    22.808948    13848.473    7851.1409    9265.6333    8750.2344   -191.37618   -105.50269    92.634744   -7777.5145 
35568000    82.757302   -9833.8757   -9518.3671   -9833.8757            0    8173.8731    24.647446    24.708991    22.778591     13872.47    7802.3471    8670.6673     8048.605   -21.666841   -174.54975   -278.67837   -7864.6639 
35569000    85.708191   -9849.3743   -9522.6156   -9849.3743            0    7943.5484    24.727873    24.664572    22.752985      13877.1    7647.4894     8331.995    7851.1608    141.82289   -936.32065    201.85331   -7914.9743 
35570000    83.847037   -9832.3366   -9512.6734   -9832.3366            0    8589.4184    24.667272    24.708239    22.721464    13848.388    8798.3744    8186.5186     8783.362   -456.02289   -1102.0922    377.73297   -7777.9155 
35571000    87.776496   -9844.5065   -9509.8624   -9844.5065            0    7578.3551    24.717957    24.756592     22.69925    13890.406    7227.8091    7489.4555    8017.8006   -515.47925   -317.94076    -237.0673   -7974.6595 
35572000    87.735561   -9829.6335   -9495.1455   -9829.6335            0    7870.1191    24.667507    24.801372    22.683558    13877.529    8443.4933    7386.0969    7780.7671   -62.666576    59.013391    582.60049   -7902.3159 
35573000    83.838212   -9848.2885    -9528.659   -9848.2885            0    8489.5286    24.684407    24.723001    22.693739    13849.368    8331.5369    7988.7307    9148.3182   -105.49336    404.00698    574.51705    -7813.954 
35574000    88.234183   -9837.5786   -9501.1897   -9837.5786            0    7761.9025    24.719372    24.698074    22.742113    13884.535    7800.4021    7619.2748    7866.0306     208.8834    -779.6588  -0.47184005   -7929.4688 
35575000    85.707776   -9824.8146   -9498.0575   -9824.8146            0    7624.6974    24.616452    24.791363    22.798003    13913.061    8671.9754    6601.3652    7600.7516   -505.52372   -116.50801    569.26495   -7950.9475 
35576000    87.466375   -9838.5927    -9505.131   -9838.5927            0    8444.3633    24.703694    24.662675    22.754647    13863.478    8477.0306    8450.3907    8405.6686    133.43123   -344.74518    1.7016071   -7797.8108 
35577000    84.800649   -9839.9835   -9516.6848   -9839.9835            0    8656.8854     24.59488     24.69188     22.80801    13851.163    9294.6323    8535.9495    8140.0744    671.27369   -118.10779    1070.1997   -7767.9506 
35578000    87.906311   -9830.2484   -9495.1094   -9830.2484            0    8096.8243     24.65112    24.698151    22.814297    13890.191    8069.7865    7725.2131    8495.4733   -677.14462    133.21871    128.31501   -7854.9019 
35579000    82.642678   -9829.1035   -9514.0319   -9829.1035            0    7862.1174    24.671073    24.702919     22.79723    13893.715    7846.8446    7639.7884    8099.7194   -121.09175    493.40166    -15.55457   -7920.9658 
35580000    86.872757   -9836.2266    -9505.028   -9836.2266            0    8609.4861    24.628009    24.669598    22.807274    13856.858    8346.8336    9489.2984    7992.3262    15.821931    31.976155    65.950802   -7765.1537 
35581000    87.219387   -9832.8094   -9500.2893   -9832.8094            0    7561.1255    24.687697    24.716119    22.782901    13901.763    7694.5895    6945.5022    8043.2847    79.772608    264.78432   -453.69079   -7967.3245 
35582000    88.014513   -9840.6444    -9505.093   -9840.6444            0      8934.38    24.598403    24.685831    22.797192    13843.185    9361.8093    9129.8462    8311.4846    82.573339   -752.86051   -720.92981    -7701.343 
35583000    81.927722   -9837.9106   -9525.5648   -9837.9106            0    8348.7951    24.666896    24.646055     22.80082    13861.568    8145.4155    8808.2177    8092.7522    -16.43351    74.533465    85.159798   -7837.7994 
35584000    87.872761   -9825.9475   -9490.9365   -9825.9475            0    8295.5205    24.636622    24.666851    22.820715    13868.329    8977.7194    8254.4961     7654.346   -534.69222    109.06445   -943.71293   -7813.1231 
35585000    85.949531   -9840.1077   -9512.4289   -9840.1077            0    8312.9589    24.680879    24.694877    22.738732    13859.059    7625.9826    8716.1841      8596.71   -660.01983    412.56635    39.789256   -7832.2124 
35586000    85.084149   -9828.6926    -9504.313   -9828.6926            0    8590.6874    24.686861    24.668411    22.770292    13866.781    8043.6419    9256.4478    8471.9726   -693.15074   -396.45339   -133.99999   -7766.9944 
35587000    85.922535   -9839.5372   -9511.9613   -9839.5372            0    7970.1934    24.612741    24.761747    22.776204    13881.059    8699.5706    7383.3118    7827.6978   -537.77678    94.514695    746.93142   -7898.4673 
35588000    87.062422    -9829.331   -9497.4093    -9829.331            0    7849.7508    24.669633    24.726329    22.783574     13897.74    7788.7242    7743.6271     8016.901   -978.49507   -204.92376   -597.85282   -7906.3882 
35589000    83.840698   -9847.8561   -9528.2171   -9847.8561            0    7429.5535    24.659687    24.699574     22.81332    13895.223    7814.7768    7403.1447    7070.7391    118.78055   -237.81056    780.52014   -8022.6361 
35590000    87.003167   -9831.2369   -9499.5411   -9831.2369            0    8558.0686    24.691237     24.64546    22.817183    13884.869     8168.565    9047.9653    8457.6753   -323.33768   -529.78069   -76.834314   -7766.5615 
35591000    83.245074   -9833.7382     -9516.37   -9833.7382            0    8688.3017    24.631261    24.687155    22.778746    13851.204    8598.7716    8730.9587    8735.1749   -185.99421   -800.02249    328.40575   -7761.2845 
35592000    84.307352   -9824.7235   -9503.3054   -9824.7235            0    8713.4292      24.6346    24.723927    22.758552    13861.416    8952.8335    8311.0498    8876.4043    140.34047   -353.08275    166.21785   -7741.8462 
35593000    84.095184    -9820.055   -9499.4458    -9820.055            0    8861.7624    24.678479    24.684869    22.725114      13843.8     8548.273    8798.0996    9238.9146   -155.18233     -45.2946   -209.46976   -7710.2771 
35594000    84.301936    -9831.876   -9510.4785    -9831.876            0    8144.9855    24.663728    24.753143    22.734699    13879.643     8275.641    8142.8201    8016.4954   -234.31598   -443.80319   -154.13819   -7861.7677 
35595000    81.767298   -9841.1608   -9529.4265   -9841.1608            0     8021.185    24.704396    24.659795    22.771554    13872.553    7824.4955    8248.2148    7990.8447   -296.82934   -567.75434    304.79539   -7906.6048 
35596000    86.331488   -9835.1205   -9505.9855   -9835.1205            0    8610.1773    24.656146    24.676756    22.781958    13861.311     7972.712    9468.4091    8389.4108   -459.11398   -557.32471    801.93458   -7765.4123 
35597000    87.301558   -9834.8877   -9502.0543   -9834.8877            0    8034.5846     24.71742     24.68585    22.739058    13874.703    8064.0419    8221.3362    7818.3756   -827.16625   -197.37137    22.456461   -7876.2698 
35598000    84.692252   -9852.2776   -9529.3921   -9852.2776            0    7351.8487     24.63991    24.801034    22.721252    13884.849    7937.7727    6743.5575    7374.2158   -78.496386    139.31436   -234.81332   -8040.6701 
35599000     85.06633   -9824.6128   -9500.3011   -9824.6128            0    8359.3617    24.739032    24.674787    22.716692    13866.959     8209.767    8422.7223    8445.5958     126.7819   -384.75906   -153.40112   -7809.7425 
35600000    85.313027   -9841.7643   -9516.5121   -9841.7643            0    8925.7803    24.632491    24.712638    22.740831    13843.113    9112.0452    8800.3351    8864.9606   -540.99581   -85.510916    100.86155   -7714.5076 
35601000    84.036362    -9838.474   -9518.0891    -9838.474            0    7725.8965    24.666908    24.706932     22.78694    13887.355    8736.8333    7693.5954    6747.2607   -549.09991   -102.97472    700.48568   -7953.3414 
35602000    87.146356   -9830.2073   -9497.9657   -9830.2073            0    8306.6456    24.630822    24.707079    22.793393    13871.048    9125.0079    7817.0552    7977.8738    46.846116    582.04978    440.25765   -7817.5727 
35603000    85.576471     -9831.52   -9505.2634     -9831.52            0    8090.3856    24.667177    24.692811    22.792295    13882.831    7921.7057    7867.0327    8482.4184    299.14032   -114.88984    8.7737424   -7867.2285 
35604000    85.631252   -9836.1206   -9509.6552   -9836.1206            0    8134.9643    24.577957    24.742541    22.809272      13870.8    8715.4407    8053.1711    7636.2811   -553.53894   -366.29514   -281.12013    -7864.022 
35605000    85.283408    -9827.642   -9502.5027    -9827.642            0    8086.5708    24.675084    24.661738    22.808188    13879.477    8116.0191    8591.0597    7552.6337   -496.43767    893.69922    385.13422   -7865.6357 
35606000     85.42492   -9843.5991   -9517.9204   -9843.5991            0    8115.3506     24.67549    24.664059    22.788957    13869.308    7865.3374    8016.5238    8464.1907    495.44342   -43.055895    25.040269   -7876.4314 
35607000    88.531929   -9845.3772   -9507.8531   -9845.3772            0    7740.3648    24.647997    24.719605    22.790663    13886.095    8164.1242    7400.2859    7656.6842   -35.677246   -1407.5154    841.23851   -7940.3175 
35608000    86.616011   -9838.0761   -9507.8564   -9838.0761            0    8148.6089    24.657973    24.621508    22.852872    13874.355    8155.2539    8711.7692    7578.8036   -67.824091   -209.52751    101.58417   -7859.0405 
35609000    84.498672   -9836.7552   -9514.6077   -9836.7552            0    7984.2156     24.67586    24.675931    22.801233    13883.667    7421.9037    8788.2388    7742.5043    191.97585   -85.712418    192.49719   -7897.9714 
35610000    84.345877   -9837.4161   -9515.8511   -9837.4161            0    8417.2454    24.648479     24.72338     22.75805    13868.612    8406.3639    8189.8913     8655.481   -130.05784   -526.98996    650.60172   -7813.3834 
35611000    84.951324   -9829.6536   -9505.7804   -9829.6536            0    8478.2891    24.667018    24.713609    22.734581    13859.252    8061.0301    8349.4592    9024.3779     171.1892    203.70873     107.5648   -7792.1234 
35612000    87.104446   -9827.2716   -9495.1898   -9827.2716            0    9301.5429    24.618175    24.684346    22.742761    13820.402     10088.97     8763.689    9051.9696   -843.44018   -92.545306    733.11996   -7620.4044 
35613000    87.029893   -9841.3611   -9509.5635   -9841.3611            0    7566.2852    24.716596    24.623884    22.820705    13889.105    7615.8146    8301.6971    6781.3439    234.95347      232.385    115.75655   -7976.9492 
35614000    92.738155   -9840.1172    -9486.557   -9840.1172            0    7806.8901    24.614964    24.759002    22.775491    13880.339    8730.0082    7447.8591    7242.8029   -369.86451     633.5075    665.91425   -7906.2043 
35615000    89.734615   -9831.2447   -9489.1355   -9831.2447            0    8459.2665    24.682829    24.688531    22.741462    13858.255    8163.1453    8791.7106    8422.9436   -824.07549    70.494207    498.76041   -7779.4463 
35616000    85.781171   -9843.1408   -9516.1039   -9843.1408            0    8051.6668    24.707525    24.726708    22.696666    13866.205     7200.287    8739.0076    8215.7058    199.91762    -659.7304    966.16388   -7887.8606 
35617000    83.192707   -9841.9209   -9524.7524   -9841.9209            0    7827.3813    24.696885    24.729691    22.703595    13866.137    7445.3513    8268.4189    7768.3736   -355.68979   -21.557603    125.06739   -7941.8728 
35618000    81.563679   -9832.8551   -9521.8972   -9832.8551            0    8535.4012     24.68316    24.751951    22.666105    13848.001     8170.896    8511.3882    8923.9195    290.57467    229.05652    441.19375    -7798.097 
35619000     84.91531   -9830.8204   -9507.0846   -9830.8204            0    8065.0355    24.705609    24.727812    22.702262    13869.167    7427.1115    8473.7329    8294.2621   -543.38578    518.74136   -143.72238   -7875.7893 
35620000    86.734602    -9844.049   -9513.3772    -9844.049            0    8332.0294    24.669788    24.673953    22.765103    13857.145    8524.4609    8606.7586    7864.8688   -465.53998   -378.70681   -45.986881   -7829.5386 
35621000    87.648754   -9844.6915   -9510.5345   -9844.6915            0    8522.2947    24.704222    24.681906    22.706356    13845.139    8156.4124    8720.5189    8689.9527    172.39568   -18.540411    383.00701    -7789.737 
35622000    87.755592   -9833.6845   -9499.1202   -9833.6845            0    7918.2192    24.641902    24.786014    22.731399    13883.759    8087.9742    7776.3883    7890.2951   -213.63766    141.38422    385.24286   -7895.8361 
35623000    85.268784   -9848.2358   -9523.1523   -9848.2358            0    7028.4948    24.670828    24.726594    22.807031    13912.872    7655.1158    6746.4262    6683.9424   -28.452925   -715.77752   -688.80464   -8097.0358 
35624000    88.700838   -9833.5885   -9495.4204   -9833.5885            0     8584.311    24.691698     24.66159    22.757684    13857.985    8310.0948    8900.2678    8542.5705   -85.168558   -526.59708    221.83381   -7760.4926 
35625000    87.247367   -9829.3486   -9496.7219   -9829.3486            0    7373.4889    24.633862    24.686109    22.870558    13907.911    7786.7457    7684.5718    6649.1492    119.18592    81.144817     -225.692   -8001.1378 
35626000    86.732405   -9837.4512   -9506.7878   -9837.4512            0    8116.8922    24.708436    24.686326    22.731967    13865.602    8108.8986    7890.7251    8351.0527   -675.26797   -281.82842     97.82058   -7865.4257 
35627000    86.322098   -9833.0684   -9503.9692   -9833.0684            0    8031.9761    24.681766    24.722752    22.740972    13876.568    8047.8837     8184.586    7863.4586    248.51708    114.49131   -171.95968   -7878.4939 
35628000    83.995483   -9834.7439   -9514.5148   -9834.7439            0    8174.7794    24.734221    24.665962    22.754887    13882.606    7190.9848    8700.1475     8633.206    388.60418    334.97378   -102.20871   -7859.4199 
35629000    86.424531   -9834.5401   -9505.0504   -9834.5401            0    7759.5546    24.685118    24.757599    22.712472    13880.597     7479.165    7776.0783    8023.4206    122.88615    109.13205    22.955065   -7934.2506 
35630000    83.371974   -9836.3602   -9518.5082   -9836.3602            0    7998.0379    24.723664    24.755693    22.669434     13874.86     7534.288    7848.5735    8611.2522   -140.31956   -857.81964   -113.91104   -7900.1005 
35631000    84.027861   -9841.6358   -9521.2833   -9841.6358            0    7855.2943    24.735046    24.720046    22.693846    13876.186    7485.4173     7975.539    8104.9268    -102.3352   -497.98714   -474.87131   -7931.6079 
35632000    86.548691   -9833.8662   -9503.9031   -9833.8662            0    9223.6501    24.636021    24.760682     22.66956    13828.538    9091.3532    8529.6831    10049.914    353.67912   -710.46799     214.6185   -7643.7231 
35633000    84.702516   -9838.4706   -9515.5459   -9838.4706            0    7727.8423    24.741141    24.691662    22.735176    13888.917    7346.6135    8265.6023    7571.3111   -457.62829    -1157.267    973.11102   -7950.2282 
35634000    85.605252   -9849.0121   -9522.6459   -9849.0121            0    8364.7854    24.661605    24.722364    22.722242    13853.596    8367.1669    8609.7237    8117.4656   -151.14993   -557.49625   -318.04167   -7832.6206 
35635000     83.39845   -9846.4527   -9528.4998   -9846.4527            0    7797.7548    24.756353    24.691655    22.716504    13886.038    6975.2842    8288.0484    8129.9319    87.007956   -240.83766   -770.53699   -7949.3482 
35636000    85.782314   -9833.2506   -9506.2093   -9833.2506            0    8221.6979    24.704181    24.736641    22.729589    13890.017    7657.8804    7383.7739    9623.4394   -254.81124   -611.81976    215.20711   -7840.7263 
35637000    86.075551   -9842.6072    -9514.448   -9842.6072            0     8588.073    24.694515    24.686584    22.726398     13854.54    7935.4064    8924.2063    8904.6063    -86.19907   -292.36755    225.79487   -7779.1913 
35638000    85.057479   -9830.5681   -9506.2902   -9830.5681            0    8400.2301    24.667066    24.672582     22.79401    13872.439    8234.1267    8762.6368    8203.9269    60.232035   -770.06777   -78.671897   -7806.7952 
35639000    85.279407   -9842.1839   -9517.0599   -9842.1839            0    8188.2181    24.651489    24.655541    22.803139    13859.652    8117.5705    8397.2807    8049.8032     226.9115   -131.43492    423.56869   -7861.9851 
35640000    88.323773   -9840.1431   -9503.4126   -9840.1431            0    8716.0563    24.644437    24.633366    22.786474    13833.108    8915.1645    8882.0654    8350.9389    192.47115   -72.931793   -381.95488   -7745.0207 
35641000     84.64493   -9842.7653   -9520.0602   -9842.7653            0     8267.462    24.651512    24.684742    22.786093    13865.707    8224.2737    8631.6751    7946.4372   -485.42103   -1120.3523   -172.10488   -7848.2379 
35642000    85.751807   -9842.9043   -9515.9793   -9842.9043            0    8506.0104    24.635735    24.651925    22.809513    13852.634    9404.1035    8460.7096    7653.2182    50.130232   -10.453811    135.60015   -7797.5401 
35643000    86.392839   -9836.8165   -9507.4476   -9836.8165            0    8232.5392     24.61386    24.653588    22.847705    13864.444    9222.6602    8103.5637    7371.3937   -185.64002   -574.67035    -6.261674    -7842.839 
35644000    86.961424   -9843.5655   -9512.0289   -9843.5655            0    8163.1973    24.674976    24.667686     22.78299    13867.427    8228.4179     8463.613    7797.5611    89.776154    403.98239   -136.00543   -7861.0859 
35645000    89.127602    -9824.423    -9484.628    -9824.423            0    9212.4537    24.572655    24.710201    22.782249    13833.273    10175.286    8791.8251    8670.2503   -643.46175   -157.61103   -530.25565   -7626.0698 
35646000    86.667824   -9839.6373   -9509.2201   -9839.6373            0    8765.2852    24.712915    24.658371    22.734312     13853.84    8147.4159    9375.6904    8772.7491   -254.67441   -639.04073    212.66141   -7738.2463 
35647000    86.492642   -9840.6596   -9510.9102   -9840.6596            0    8344.4734    24.605345    24.766081    22.750138    13863.433    8878.1631    8070.6788    8084.5783    677.94597    -40.29174    142.47767   -7823.7916 
35648000    82.981917   -9840.5692   -9524.2043   -9840.5692            0    7824.9561    24.699397    24.652829    22.790429    13877.321    8140.4837     8270.532    7063.8528   -559.33768   -860.01569   -71.784526   -7940.5389 
35649000    86.662997   -9837.2831   -9506.8842   -9837.2831            0    8126.4215    24.605038    24.759674    22.778039    13876.671    8825.7806     7542.841     8010.643   -249.18944    2.9987081    90.021376   -7862.2833 
35650000    82.647278   -9829.7151    -9514.626   -9829.7151            0    8179.1774    24.651945     24.74085    22.739485    13869.041    8527.0816    7543.0004    8467.4501   -129.65599   -697.07406    -473.9252   -7860.2587 
35651000    85.194941   -9822.9311   -9498.1291   -9822.9311            0      9331.49    24.637532    24.647306    22.756039    13818.577    9971.6564     9094.492    8928.3218   -13.006467    200.97877   -394.17464    -7617.556 
35652000    85.981398   -9843.3942   -9515.5939   -9843.3942            0    8703.6259    24.585764    24.696939    22.822339    13857.567    9754.6885    7859.3289    8496.8605   -321.45925   -236.39658    581.68198   -7756.6051 
35653000    85.464339   -9831.8871   -9506.0581   -9831.8871            0    7510.5429    24.722784    24.629488    22.834294    13904.019    6894.6462    8877.0296    6759.9528   -814.72927   -342.67184   -899.79686   -7983.1013 
35654000    82.802507    -9833.641     -9517.96    -9833.641            0    8321.9377    24.614564    24.715039    22.777681      13856.8    8468.2522    8035.1631    8462.3978   -414.96496    213.56178   -259.54468   -7836.2029 
35655000    85.702637   -9835.5111   -9508.7735   -9835.5111            0    8370.7695    24.789781    24.640143    22.695592    13863.007    7024.2261     9194.798    8893.2845   -302.75903   -490.99864    78.906642   -7816.3903 
35656000     80.41717   -9843.3547   -9536.7677   -9843.3547            0    8399.9873    24.637603    24.759546    22.703939    13849.763    8265.1946    8295.0008    8639.7666   -255.04163   -978.01262    438.11594   -7840.0998 
35657000    83.761621   -9830.0055    -9510.668   -9830.0055            0     8316.292    24.672384    24.677282    22.784125    13872.055     7823.789    8957.5268      8167.56   -174.69737   -95.547228    1294.1732   -7828.2015 
35658000    86.308158   -9837.4509   -9508.4049   -9837.4509            0    8602.7887    24.644779    24.695474    22.766507    13856.026    8678.0489    9245.0613    7885.2557   -213.35502    131.79565     274.8326   -7769.9884 
35659000    87.163478   -9830.1963   -9497.8894   -9830.1963            0    8429.5584    24.691335    24.649892    22.791317    13871.679    7574.6954    9210.3715    8503.6084   -133.29822    52.791928   -314.40694   -7792.5543 
35660000    84.874056   -9835.6896    -9512.111   -9835.6896            0    8280.1993    24.662254    24.725054    22.744588    13869.094    8834.9573    7752.5785    8253.0621    260.65177    472.12416    200.73128   -7837.3041 
35661000    83.287024    -9848.246   -9530.7179    -9848.246            0    7353.0954    24.736287    24.674169    22.786285    13907.548    7290.0552    7828.0367    6941.1944   -283.12121   -114.32585   -768.29879   -8039.3093 
35662000    86.869672   -9839.9389   -9508.7521   -9839.9389            0    8976.2321    24.645942    24.674441    22.751161    13835.547    9178.5073    9345.7769    8404.4121   -281.15581   -574.22553    1468.2509   -7697.5527 
35663000    85.445816   -9835.0983   -9509.3399   -9835.0983            0     7355.275    24.709643    24.750426    22.723112    13896.869    7329.2763      7194.34    7542.2087   -169.28381   -47.925299    803.31443   -8018.6347 
35664000      83.2882   -9841.8746    -9524.342   -9841.8746            0    7606.7836    24.714289    24.774618    22.687609     13891.33    6864.7132    8080.1645    7875.4731    385.38667    487.47901   -339.40378   -7983.2776 
35665000    83.639868   -9829.9442   -9511.0709   -9829.9442            0    8009.0057    24.729718    24.703175    22.727401    13884.227    7381.9831    8187.9454    8457.0886   -121.30262    366.76817    86.870965   -7889.3497 
35666000    90.415684   -9843.0742   -9498.3683   -9843.0742            0    8067.3777    24.642159     24.79152    22.722113    13881.315    9017.6393    6742.2454    8442.2485   -488.33792   -313.25721    5.1831723   -7865.1701 
35667000    83.153669   -9843.5461   -9526.5264   -9843.5461            0    8764.5754    24.758117    24.661239    22.671043    13842.164     7842.121    9291.9624    9159.6427   -561.32059    627.38328    849.11407   -7757.1886 
35668000    86.702822   -9824.4057    -9493.855   -9824.4057            0    7605.5641    24.726164    24.742547    22.714682    13896.576    7216.9496    7635.5331    7964.2095   -278.18798   -303.16873    -169.5137   -7952.4558 
35669000    86.272584   -9835.2412   -9506.3307   -9835.2412            0    8591.6954    24.646572     24.74629    22.695966    13842.524    9681.3511    7720.2915    8373.4437   -371.31687    71.427249    448.74065   -7771.8477 
35670000    82.802109   -9834.4069   -9518.7275   -9834.4069            0    7955.6571      24.7579    24.692163    22.710694    13883.641    7018.1052    8298.8523    8550.0138   -508.52775   -287.39205    615.29214   -7907.8767 
35671000    84.493159   -9828.8699   -9506.7435   -9828.8699            0     9125.019    24.665195     24.75192    22.654563    13830.858    8930.7743    8514.6307     9929.652    144.34133    330.52626    594.25311   -7666.1462 
35672000    84.521814   -9834.5326   -9512.2969   -9834.5326            0    7841.3218      24.7151    24.705644    22.732618    13880.593    7674.4392    7959.4592     7890.067    363.91944    -25.56079   -418.79975   -7924.9452 
35673000    87.250333   -9839.6741    -9507.036   -9839.6741            0    9309.2988    24.700547    24.690961    22.660463    13820.168     8957.973     9556.368    9413.5553   -258.34325      52.7943    109.47596   -7630.7191 
35674000    84.870756   -9840.0769   -9516.5109   -9840.0769            0     8344.063    24.694866    24.720752    22.689763    13851.548    8430.5847    7989.3535    8612.2508   -100.41853   -704.54683   -53.221526   -7830.9216 
35675000    85.052229    -9829.869   -9505.6111    -9829.869            0    8857.6717    24.687579    24.708041    22.682945    13836.182    8866.1295     8679.951    9026.9345   -121.90561   -359.90377   -267.20935   -7718.2524 
35676000    85.879358    -9846.389   -9518.9777    -9846.389            0    7537.5307    24.717607    24.722911     22.73882    13895.493     7949.643    6840.1946    7822.7545    214.32014    168.97026   -273.01734   -7991.4858 
35677000    86.595709   -9838.9511   -9508.8088   -9838.9511            0    8032.3991    24.684088    24.754828    22.717584    13881.588    8740.5591    7387.4373    7969.2009   0.45906168    848.80602    1015.7503   -7882.6599 
35678000    86.836627   -9843.9874   -9512.9266   -9843.9874            0    7909.9145    24.691263    24.713661     22.74368    13878.455      7875.99    7359.1428    8494.6109   -366.66574   -167.73344    127.12641   -7911.9359 
35679000    85.042725   -9835.6813   -9511.4596   -9835.6813            0    9088.6093    24.644995    24.717724    22.701418    13828.982    9106.8123    9145.9181    9013.0974    259.16998    111.97078    72.492726   -7678.4552 
35680000     85.61759   -9844.3136   -9517.9003   -9844.3136            0     8411.879    24.693504    24.691679    22.731212    13859.767    8008.3836    8696.0247    8531.2285    375.11058   -337.11159     346.2796   -7817.6032 
35681000    84.853433   -9831.9506   -9508.4506   -9831.9506            0    8400.0852    24.615061    24.736942     22.75253    13854.046    9478.0375    7727.8205    7994.3975   -245.45952   -59.298141    -275.1534   -7811.2382 
35682000     87.28266   -9832.2492   -9499.4879   -9832.2492            0      8118.46    24.738336    24.650956    22.764021    13882.038    7722.4076    8718.7606    7914.2119    600.82161    374.23975     212.7669   -7855.8628 
35683000    87.008852   -9840.1806   -9508.4632   -9840.1806            0    8111.7281    24.668637    24.749591    22.727698    13876.138     8449.584    7326.2084    8559.3918   -179.87934   -331.75478   -71.880396   -7866.8989 
35684000    87.846487   -9838.4498   -9503.5389   -9838.4498            0    8910.1768     24.66936    24.671249    22.721658    13828.945    8334.8858    9753.2697     8642.375   -77.634269    607.60466   -12.224976   -7706.5258 
35685000    87.344275   -9824.4248   -9491.4286   -9824.4248            0    8320.8353    24.675008    24.666261    22.793449    13873.009     7964.469    8724.9302    8273.1068   -142.58723    30.484874    449.57679   -7807.9272 
35686000     90.65124   -9841.6199   -9496.0161   -9841.6199            0    7964.6342    24.677486    24.728107    22.742718    13878.232    7756.2931    8168.0399    7969.5695    -21.66572    171.81552   -9.8796715   -7883.9759 
35687000    84.962194   -9849.3057   -9525.3911   -9849.3057            0     8378.972    24.762711    24.661702    22.677388    13848.868    8046.2942    8570.9319    8519.6899    334.20333    -540.3324    644.45909   -7833.0772 
35688000    86.173223   -9824.0842   -9495.5526   -9824.0842            0    8397.2495    24.654644    24.787876    22.696553    13870.687    8804.5085    7345.4059    9041.8342   -540.41089   -60.716855   -192.93181   -7796.8752 
35689000    82.904156   -9839.8762   -9523.8077   -9839.8762            0    8901.2142    24.670631    24.663862    22.738746    13835.914    9073.1966    9023.5289    8606.9172   -236.96975    78.048678    71.690082   -7727.6974 
35690000    86.057493   -9826.1898   -9498.0994   -9826.1898            0    7917.3758    24.694852    24.706543     22.76306    13888.299    7895.3793    8011.9408    7844.8072   -424.85675   -509.13862    1054.2635   -7894.4619 
35691000    84.949648   -9831.3087   -9507.4419   -9831.3087            0    7671.8229    24.693522    24.794989    22.690488    13892.832    7534.9509    7478.7968    8001.7211    359.27449   -691.44497   -3.4229765   -7953.0331 
35692000    87.808032   -9834.4441   -9499.6799   -9834.4441            0    8604.2896    24.709296    24.710024    22.701475    13860.778    7864.2009    9042.8837    8905.7843   -675.13638   -214.04295    -400.4186   -7760.3637 
35693000    87.562546   -9843.6971   -9509.8687   -9843.6971            0     8439.081    24.630676    24.781303    22.714432    13864.441    8326.6902    7637.5681    9352.9848   -105.47728   -708.71769    579.80258    -7803.498 
35694000    84.336567    -9830.425   -9508.8956    -9830.425            0     8580.664    24.734982    24.720503    22.658058    13854.524     8255.139    8410.6716    9076.1815   -206.26236    133.09509    166.96887   -7775.1379 
35695000    86.738435   -9843.1748   -9512.4884   -9843.1748            0    7469.0626    24.704716    24.729532    22.761368    13905.741    7446.1373    7585.3579    7375.6925   -337.55818   -425.79771    681.87503   -7997.7553 
35696000     84.99391   -9827.6823   -9503.6467   -9827.6823            0    8775.1626     24.70788    24.667072    22.739506    13859.071    8209.1506    9303.8714    8812.4659   -274.02268    -200.6532    543.06902   -7730.0079 
35697000    86.037288   -9839.2901   -9511.2768   -9839.2901            0    7962.0546    24.644974    24.738714    22.771279    13883.306    8511.3137    7450.5676    7924.2824    37.781583   -548.54512   -312.93156   -7899.1695 
35698000    89.241102   -9841.7632   -9501.5354   -9841.7632            0    8229.2712    24.665475    24.675126    22.782262    13865.825    8441.8659    8781.8036    7464.1441   -335.23177    -677.7624    875.77296   -7837.4218 
35699000     86.24258   -9827.1794   -9498.3833   -9827.1794            0    8117.1425    24.720772    24.615907     22.81301     13882.27    8123.0594    8902.3411     7326.027    434.20332    183.47194    -210.4497   -7854.9975 
35700000    86.431655   -9835.8197   -9506.3028   -9835.8197            0    8754.2825    24.638326    24.685763    22.762536    13844.536    8913.2309    9045.9002    8303.7163    257.12799   -798.00225    408.70935     -7738.74 
35701000    86.476451   -9827.0559   -9497.3682   -9827.0559            0    8209.1023    24.667574    24.639493    22.836924    13880.203    8627.2981    8101.8323    7898.1763    193.37737   -204.16123    -298.0638   -7835.6118 
35702000     85.03127   -9837.9249    -9513.747   -9837.9249            0    8125.4528    24.610197    24.734307    22.788331    13871.625    8935.5173    7563.3566    7877.4844    241.16579   -1.4891685   -21.602144     -7869.94 
35703000    87.509108   -9862.2498   -9528.6252   -9862.2498            0    8176.8835    24.609623    24.645024    22.863163    13866.618    8741.2461     8394.523    7394.8814   -26.747479   -100.76166   -87.612672   -7875.0108 
35704000    86.100024   -9830.1689   -9501.9164   -9830.1689            0    8281.1549    24.632409    24.700786     22.79855    13871.547    8505.4927    8286.8895    8051.0825    544.75879     230.9949    1131.9761   -7826.6198 
35705000    82.566297   -9833.7328   -9518.9524   -9833.7328            0    8288.8443    24.682564    24.625166    22.805257    13861.314      7487.78    9537.7408    7841.0121   -129.17918   -393.15975    497.25696   -7843.3373 
35706000    79.916932   -9836.4527   -9531.7729   -9836.4527            0     8801.315    24.555831    24.702029    22.817189    13840.424    9854.3614    8281.5542    8268.0295   -47.996896   -799.36598    273.58027   -7755.2417 
35707000      84.1991   -9827.2433   -9506.2379   -9827.2433            0    8217.5484    24.673956    24.647204    22.791623    13860.589    8387.8242    9243.5514    7021.2698    339.05094   -452.86631     56.76966   -7845.1223 
35708000    83.489067   -9819.4283   -9501.1299   -9819.4283            0    9037.9489    24.660894    24.730296    22.680056    13831.913    9418.1358    8438.9984    9256.7125    -201.0026   -687.21214   -66.652212   -7677.9563 
35709000    88.385847   -9834.7308   -9497.7636   -9834.7308            0    8289.8731    24.680098    24.736205      22.7169    13868.485    8734.0284    7771.5613    8364.0296   -630.83632   -173.27334    323.68262   -7821.0735 
35710000    85.019034   -9828.8064   -9504.6751   -9828.8064            0    7954.6066    24.756444    24.771762     22.62898    13877.465    7528.6694    8241.8766    8093.2737   -474.79607   -627.21295   -233.33558   -7894.7535 
35711000    85.477198   -9824.6572   -9498.7791   -9824.6572            0    8412.2245    24.705954    24.725413    22.693225    13862.495    8003.3889    8019.9691    9213.3156   -324.20113   -432.93074    668.14142   -7798.0775 
35712000    84.613618   -9836.7493   -9514.1636   -9836.7493            0    7654.5436    24.736338    24.734882    22.698529    13888.104    7925.9662     7218.062    7819.6026    134.50159   -840.26969    235.58849   -7963.7836 
35713000    85.028276   -9837.1349   -9512.9684   -9837.1349            0    8554.9433    24.663165    24.738187    22.683241    13839.544    8127.4128    9093.9041    8443.5129     85.30697   -188.34294    459.06227   -7786.2766 
35714000    87.906043   -9836.3921   -9501.2542   -9836.3921            0    8462.4525    24.761951    24.649446    22.715828    13865.024    7714.4119    8993.3859    8679.5598   -834.48707   -335.15579   -173.96274   -7790.0858 
35715000    82.504266   -9830.8286   -9516.2847   -9830.8286            0    7982.1522    24.632256    24.788945    22.731753    13880.181    8463.0962    7524.0035     7959.357   -154.95492   -125.61703   -20.531523   -7900.4719 
35716000     84.41034   -9843.7845   -9521.9738   -9843.7845            0    7501.0624    24.760205    24.681476    22.732993    13892.551    6909.5446    7570.7722    8022.8705   -188.08827   -607.46868    249.00099    -8002.194 
35717000    86.897568   -9829.0452    -9497.752   -9829.0452            0    8509.8355    24.638095    24.768569    22.718542    13863.998    8648.9131    8028.3924     8852.201    322.17934   -127.15282    665.18459   -7777.1298 
35718000    86.548869   -9838.5783   -9508.6146   -9838.5783            0    8049.6858    24.775331    24.628517    22.752845    13883.323    7098.4135    9251.9684    7798.6754    608.14714   -257.61997   -307.31278   -7878.7623 
35719000    83.167352   -9840.4852   -9523.4133   -9840.4852            0    8256.7183    24.653276     24.73829    22.731268    13863.343    8375.8056    8117.8353     8276.514   -181.60488    217.29518    824.09654   -7854.0482 
35720000    84.915847    -9824.302   -9500.5641    -9824.302            0     9865.784    24.642954    24.688283    22.671233    13793.002    9491.7125    9693.0322    10412.607    315.13705   -350.82458    304.72363   -7515.9947 
35721000    84.843807   -9836.5566   -9513.0933   -9836.5566            0    8060.3786    24.749433    24.653492    22.737544    13873.539    7162.8069    9082.8917    7935.4371    203.70066   -457.61307    167.74407   -7882.2261 
35722000    84.981208   -9843.1404   -9519.1532   -9843.1404            0    7519.5816    24.630715    24.742738    22.805137    13898.165    8221.1871    7041.2521    7296.3055   -151.79849   -113.73762    351.12404   -7995.0057 
35723000    85.396513    -9836.163   -9510.5925    -9836.163            0    8394.0864    24.686721    24.687277    22.759354    13870.641    8434.7541    8522.6067    8224.8983   -586.94746    505.01102    687.34889   -7812.5606 
35724000    89.059907   -9827.7835   -9488.2465   -9827.7835            0    8079.9147    24.685407    24.712477    22.760025     13884.47    7631.1367    8716.5061    7892.1013    374.39455    113.99688   -91.333157   -7852.1386 
35725000    85.272895   -9836.4648   -9511.3657   -9836.4648            0    9114.5292    24.698418    24.745529    22.622262     13826.17    8539.0038    9144.6285    9659.9553   -121.98132   -576.71356    547.03226   -7673.5073 
35726000    86.682821   -9843.4396   -9512.9651   -9843.4396            0    7565.2334    24.695421    24.765953    22.718705    13894.889    7551.6948     7455.354    7688.6515    80.790853   -540.52688   -737.14465   -7979.9258 
35727000     87.89166   -9838.6732   -9503.5901   -9838.6732            0    7764.9631    24.791434    24.736716    22.634999    13881.109    7331.4304    7374.4936    8588.9654   -153.50207     93.20051     26.09081   -7931.6375 
35728000     85.69731   -9827.9254   -9501.2082   -9827.9254            0    8316.9652    24.683368    24.739859    22.709668    13867.955    8401.0659    7911.0717    8638.7579   -424.47429    109.74112   -219.32683   -7819.1029 
35729000    83.701178    -9838.387   -9519.2799    -9838.387            0    7844.0861      24.6958    24.704454    22.763266    13887.784    8441.8351    8047.2532      7043.17   -117.61767    238.61305   -18.538644   -7930.5459 
35730000    87.512254   -9839.1435   -9505.5069   -9839.1435            0    8127.4509    24.658599    24.765569    22.715426    13871.952    8715.2276     7321.655    8345.4701   -105.87094    -107.6345    477.65325   -7861.2569 
35731000    89.592923   -9837.0296   -9495.4605   -9837.0296            0    7809.5789    24.757352    24.719358     22.67992     13879.79    7145.0616     7817.292     8466.383    436.49585    -223.5007    114.77627    -7914.626 
35732000    89.360437   -9840.5781   -9499.8954   -9840.5781            0    8383.4344    24.724898    24.748163    22.638046    13852.125    7889.7991    8143.5571    9116.9469     38.97726   -817.85975    275.10497    -7806.282 
35733000    86.708664   -9828.0342   -9497.4612   -9828.0342            0    7677.3777     24.72055    24.819928    22.637094    13889.267    7236.1564    7066.9982    8728.9784   -122.65257   -89.090283   -81.703431   -7942.3261 
35734000     89.54307   -9840.6865   -9499.3074   -9840.6865            0    8668.4362    24.643826    24.778383    22.684547    13851.959     9150.975    7968.7876    8885.5461    900.62742   -119.47614    345.48289   -7748.1393 
35735000     85.53786   -9849.8054   -9523.6961   -9849.8054            0    7424.8313    24.744518     24.68782    22.735631    13888.929    7055.4732    7667.6886    7551.3321   -97.267161    -882.6251    136.68588   -8019.7536 
35736000    85.056421   -9830.7039     -9506.43   -9830.7039            0    7536.7499    24.706595    24.742668    22.744142    13903.655    7398.9527    7711.6262    7499.6706   -55.943146   -70.465293   -190.36598   -7978.1991 
35737000    83.705729   -9833.8045   -9514.6801   -9833.8045            0     8059.048    24.690918    24.704083    22.742921    13872.419    8353.3426    7995.2132    7828.5881    182.89992    560.78445     154.3759   -7884.2138 
35738000     90.23858   -9831.9157   -9487.8851   -9831.9157            0    8373.4092    24.680267    24.681567    22.762769    13865.888     8275.225    8527.1503    8317.8523    103.58988   -668.42476    243.87152   -7794.6164 
35739000    85.623324   -9827.4397   -9501.0045   -9827.4397            0    8526.2625    24.608225    24.739013    22.770278    13862.163    8666.4744    8189.2983    8723.0148   -24.510126   -368.96038   -36.157467    -7777.289 
35740000    88.868014    -9836.275   -9497.4696    -9836.275            0    8331.6833    24.708109    24.646699    22.777785    13871.063    8231.5483    8787.2803    7976.2213    22.615339     229.0177    265.39893   -7812.0098 
35741000    87.437889   -9837.7735   -9504.4204   -9837.7735            0    8060.9111    24.638629    24.787045    22.704969    13866.352     8602.066    7076.5729    8504.0944   -24.360632     610.3701    188.31634   -7874.2904 
35742000    87.048159   -9827.0915   -9495.2242   -9827.0915            0    8774.2795    24.700317     24.65888    22.727882    13843.147    8518.1064    9539.4086    8265.3235   -184.31263    587.94515   -535.09958   -7723.8016 
35743000    83.449271   -9832.6191   -9514.4724   -9832.6191            0    7655.9985    24.626365    24.763308    22.778257    13890.871    7748.2349    7847.1814    7372.5792    -737.5115   -82.834954    685.34037   -7963.4889 
35744000    83.670853   -9834.8066   -9515.8151   -9834.8066            0    8348.7583    24.722439    24.662683    22.742124    13866.366    7340.3363    8774.9701    8930.9687   -1266.4179   -298.32547    443.74332   -7827.4731 
35745000    86.406369   -9835.0637   -9505.6432   -9835.0637            0     8129.815    24.707702    24.694986    22.738265    13873.897    7800.5609    8322.8936    8265.9903   -27.081251   -452.38543     -146.663   -7860.6844 
35746000    84.880661   -9842.7772   -9519.1734   -9842.7772            0    7488.3876    24.736454    24.728519    22.713615    13893.825    7258.3141    7858.4363    7348.4125   -545.53669   -553.47089    -346.8668   -8001.8226 
35747000    87.176908   -9823.9925   -9491.6344   -9823.9925            0    8065.9955    24.765154    24.676667    22.704181    13875.012    7382.3489     8074.412    8741.2255   -908.51476    59.247003   -245.86756   -7859.4574 
35748000    83.415473   -9840.2032   -9522.1854   -9840.2032            0    8646.2086    24.599979    24.763988    22.739196    13852.573    9330.5156    8089.9759    8518.1344   -770.72307   -272.99404   -64.676733   -7775.4302 
35749000    83.276312   -9852.8201   -9535.3328   -9852.8201            0    7328.9719    24.765811    24.669741    22.759043    13905.004    6687.5058    7607.2975    7692.1126   -2.2713043   -343.86909    206.50405    -8049.089 
35750000    88.018647   -9832.7877   -9497.2204   -9832.7877            0    8796.5669    24.636398    24.677228    22.785753    13852.781    8954.1181     9205.875    8229.7077      66.4141   -161.57626   -210.25221   -7720.0623 
Loop time of 530.451 on 64 procs for 250000 steps with 1920 atoms

Performance: 81.440 ns/day, 0.295 hours/ns, 471.298 timesteps/s
385.5% CPU use with 16 MPI tasks x 4 OpenMP threads

MPI task timing breakdown:
Section |  min time  |  avg time  |  max time  |%varavg| %total
---------------------------------------------------------------
Pair    | 72.475     | 75.137     | 81.68      |  27.7 | 14.16
Bond    | 1.5585     | 1.8681     | 2.9084     |  26.1 |  0.35
Kspace  | 256.57     | 264.63     | 269.98     |  24.2 | 49.89
Neigh   | 0.15814    | 0.17119    | 0.18615    |   1.8 |  0.03
Comm    | 70.421     | 77.714     | 84.503     |  43.9 | 14.65
Output  | 0.73958    | 0.74008    | 0.74163    |   0.1 |  0.14
Modify  | 83.913     | 91.51      | 98.091     |  43.7 | 17.25
Other   |            | 18.68      |            |       |  3.52

Nlocal:        120.000 ave         122 max         118 min
Histogram: 2 0 3 0 0 5 0 5 0 1
Nghost:        4340.62 ave        4369 max        4305 min
Histogram: 2 1 0 2 3 1 0 2 2 3
Neighs:        43891.9 ave       44691 max       42998 min
Histogram: 1 0 1 2 4 2 3 0 2 1

Total # of neighbors = 702270
Ave neighs/atom = 365.76562
Ave special neighs/atom = 2.0000000
Neighbor list builds = 253
Dangerous builds = 0

unfix		3
unfix		2
unfix		1

write_data	data.final.${pid}
write_data	data.final.0
System init for write_data ...
PPPM initialization ...
  extracting TIP4P info from pair style
  using 12-bit tables for long-range coulomb (../kspace.cpp:340)
  G vector (1/distance) = 0.37532284
  grid = 30 30 30
  stencil order = 5
  estimated absolute RMS force accuracy = 0.0031691397
  estimated relative force accuracy = 9.5437701e-06
  using double precision FFTW3
  3d grid and FFT values/proc = 7920 1800
Last active /omp style is kspace_style pppm/tip4p/omp
WARNING: Not all mixed pair coeffs generated from mixing. Use write_data with 'pair ij' option to store all pair coeffs. (../write_data.cpp:312)

write_restart   restart.lmp.${pid}
write_restart   restart.lmp.0
System init for write_restart ...
PPPM initialization ...
  extracting TIP4P info from pair style
  using 12-bit tables for long-range coulomb (../kspace.cpp:340)
  G vector (1/distance) = 0.37532284
  grid = 30 30 30
  stencil order = 5
  estimated absolute RMS force accuracy = 0.0031691397
  estimated relative force accuracy = 9.5437701e-06
  using double precision FFTW3
  3d grid and FFT values/proc = 7920 1800
Last active /omp style is kspace_style pppm/tip4p/omp
Total wall time: 0:08:50
