LAMMPS (30 Jul 2021)
Processor partition = 0
  using 2 OpenMP thread(s) per MPI task
using multi-threaded neighbor list subroutines
variable        pid world 0 1
variable        phase world IceV IceIII

shell cd ${phase}
shell cd IceV
include Restart.lmp
echo both
log log.lammps
#include		in.partitions
include		in.temp
variable        temperature equal 128.97
variable	tempDamp equal 100.0
include		in.pressure
variable        pressure equal 7083.3
variable        pressureDamp equal 1000.0 # This is 1 ps
include		in.seed
variable        seed equal 745823

units		real
atom_style	full
read_restart    restart.lmp.${pid}
read_restart    restart.lmp.0
Reading restart file ...
  restart file = 30 Jul 2021, LAMMPS = 30 Jul 2021
  restoring atom style full from restart
  triclinic box = (-3.1351556 -0.056008955 -0.0092531568) to (14.745155 22.636008 19.239251) with tilt (-0.29648698 -6.3522286 0.13598897)
  2 by 4 by 4 MPI processor grid
  restoring pair style lj/cut/tip4p/long/omp from restart
  restoring bond style harmonic/omp from restart
  restoring angle style harmonic/omp from restart
  1008 atoms
  672 bonds
  336 angles
Finding 1-2 1-3 1-4 neighbors ...
  special bond factors lj:    0        0        0       
  special bond factors coul:  0        0        0       
     2 = max # of 1-2 neighbors
     1 = max # of 1-3 neighbors
     1 = max # of 1-4 neighbors
     2 = max # of special neighbors
  special bonds CPU = 0.002 seconds
  read_restart CPU = 0.007 seconds

include 	in.setup
variable	out_freq equal 1000
variable	out_freq2 equal 10000
variable	out_freq3 equal 1000

timestep	2.0

neigh_modify    delay 7 every 1

include		in.tip4p
# This is TIP4P/Ice

# create groups ###
group ox type 2
336 atoms in group ox
group hy type 1
672 atoms in group hy

# set charges - beside manually ###
set group ox charge -1.1794
Setting atom values ...
  336 settings made for charge
set group hy charge 0.5897
Setting atom values ...
  672 settings made for charge

# ### TIP3P Potential Parameters ###
pair_style lj/cut/tip4p/long/omp 2 1 1 1 0.1577 8.5
pair_coeff 1 1*2 0.000 0.000
pair_coeff 2 2 0.21084 3.1668
bond_style  harmonic
bond_coeff  1 450 0.9572
angle_style harmonic
angle_coeff 1 55 104.52
kspace_style pppm/tip4p/omp 1.0e-5
pair_modify tail yes

thermo          ${out_freq}
thermo          1000
thermo_style    custom step temp pe etotal epair emol press lx ly lz vol pxx pyy pzz pxy pxz pyz enthalpy

restart 	${out_freq3} restart.lmp.${pid} restart2.lmp.${pid}
restart 	1000 restart.lmp.${pid} restart2.lmp.${pid}
restart 	1000 restart.lmp.0 restart2.lmp.${pid}
restart 	1000 restart.lmp.0 restart2.lmp.0


include         in.dump
dump            myDump all atom ${out_freq2} dump.water.${pid}
dump            myDump all atom 10000 dump.water.${pid}
dump            myDump all atom 10000 dump.water.0
dump            myDump2 all dcd ${out_freq2} dump.dcd
dump            myDump2 all dcd 10000 dump.dcd
dump_modify     myDump append yes
dump_modify     myDump2 append yes


variable natoms 	equal  "count(all)"                        # NUMBER ATOMS
variable H      	equal  "enthalpy/v_natoms"                 # ENTHALPY-per-atom
variable Vol      	equal  "vol/v_natoms"                 # volume-per-atom
fix AVG all 		ave/time ${out_freq} 1 ${out_freq} v_Vol v_H file vol_enthalpy.dat
fix AVG all 		ave/time 1000 1 ${out_freq} v_Vol v_H file vol_enthalpy.dat
fix AVG all 		ave/time 1000 1 1000 v_Vol v_H file vol_enthalpy.dat



fix 		1 all shake 1e-6 200 0 b 1 a 1
Finding SHAKE clusters ...
       0 = # of size 2 clusters
       0 = # of size 3 clusters
       0 = # of size 4 clusters
     336 = # of frozen angles
  find clusters CPU = 0.000 seconds
fix             2 all nph tri ${pressure} ${pressure} ${pressureDamp}
fix             2 all nph tri 7083.3 ${pressure} ${pressureDamp}
fix             2 all nph tri 7083.3 7083.3 ${pressureDamp}
fix             2 all nph tri 7083.3 7083.3 1000
fix             3 all temp/csvr ${temperature} ${temperature} ${tempDamp} ${seed}
fix             3 all temp/csvr 128.97 ${temperature} ${tempDamp} ${seed}
fix             3 all temp/csvr 128.97 128.97 ${tempDamp} ${seed}
fix             3 all temp/csvr 128.97 128.97 100 ${seed}
fix             3 all temp/csvr 128.97 128.97 100 745823


run             250000
PPPM initialization ...
  extracting TIP4P info from pair style
  using 12-bit tables for long-range coulomb (../kspace.cpp:340)
  G vector (1/distance) = 0.3801174
  grid = 24 27 32
  stencil order = 5
  estimated absolute RMS force accuracy = 0.0023555807
  estimated relative force accuracy = 7.0937613e-06
  using double precision FFTW3
  3d grid and FFT values/proc = 5355 672
Last active /omp style is kspace_style pppm/tip4p/omp
Neighbor list info ...
  update every 1 steps, delay 7 steps, check yes
  max neighbors/atom: 2000, page size: 100000
  master list distance cutoff = 10.8154
  ghost atom cutoff = 10.8154
  binsize = 5.4077, bins = 5 5 4
  1 neighbor lists, perpetual/occasional/extra = 1 0 0
  (1) pair lj/cut/tip4p/long/omp, perpetual
      attributes: half, newton on, omp
      pair build: half/bin/newton/tri/omp
      stencil: half/bin/3d/tri
      bin: standard
Setting up Verlet run ...
  Unit style    : real
  Current step  : 26750000
  Time step     : 2
Per MPI rank memory allocation (min/avg/max) = 10.31 | 10.32 | 10.33 Mbytes
Step Temp PotEng TotEng E_pair E_mol Press Lx Ly Lz Volume Pxx Pyy Pzz Pxy Pxz Pyz Enthalpy 
26750000    130.87793    -5110.978   -4849.2059    -5110.978            0    7146.3252     17.88031    22.692017    19.248504     7809.894    6494.4275    7958.3576    6986.1904   -253.03536   -306.56778    1362.9746   -4035.2446 
26751000    128.15561   -5120.4709   -4864.1439   -5120.4709            0    7278.5734    17.863444    22.868566    19.043216    7779.3698    8045.7911    6623.7033    7166.2256    98.421572   -133.49069     1025.922   -4038.3597 
26752000    128.08889   -5116.5941   -4860.4005   -5116.5941            0    7671.4281    18.022236    22.672156    19.056979    7786.7378    6752.2895    6879.0495    9382.9453   -131.34621    380.23555    -1080.617    -3989.221 
26753000    125.80393   -5121.2554    -4869.632   -5121.2554            0    6937.6932    17.916791    22.743777    19.093104    7780.3538    5147.5123    7398.3127    8267.2547   -850.53669    768.87236   -323.93777   -4082.4225 
26754000    124.57267   -5134.0073   -4884.8466   -5134.0073            0    6861.3094    17.933546    22.587286    19.244303    7795.2928      5239.46    7803.1078    7541.3605    1002.8134    -554.3374    229.40545   -4104.8094 
26755000    131.20498   -5124.7873   -4862.3612   -5124.7873            0    7536.5243    17.722096    22.807002    19.211418    7765.0224    8436.6457    7966.6673    6206.2599    527.08325    -161.1938   -81.290662   -4008.8883 
26756000    138.12767   -5127.3366   -4851.0641   -5127.3366            0     7401.268    17.914064    22.645282    19.185306    7782.8847    7771.1039    8138.6713    6294.0288    341.43059    404.94667     540.4025   -4010.9803 
26757000    128.41767   -5124.2338   -4867.3826   -5124.2338            0    7506.4898    17.886024    22.774536    19.113816    7785.9347    7484.8527     7404.329    7630.2876    716.14238    451.84265    -709.5717   -4015.0217 
26758000    132.72212   -5126.5671   -4861.1065   -5126.5671            0    6885.4984    17.925405    22.594499    19.254553    7798.3936    7255.6303    7280.8568    6120.0083    524.96332    766.46382    563.45235    -4078.008 
26759000    129.96576   -5105.4715   -4845.5239   -5105.4715            0    8886.5255    17.716963    22.888405    19.150177    7765.6462    10445.643    8025.7036    8188.2295   -1148.5664   -217.21977   -716.94529   -3839.0895 
26760000    129.36724   -5113.5988   -4854.8483   -5113.5988            0    6459.9362    17.959283    22.614949    19.249911     7818.318    4267.0568    7888.2449    7224.5069   -858.41876   -753.91158   -342.29826   -4118.2725 
26761000    123.36823   -5114.2574   -4867.5057   -5114.2574            0    7161.4786    17.847703    22.784452    19.210551    7811.9731    8104.2169    6121.5842    7258.6348   -621.34669   -219.00717    214.21926   -4051.6012 
26762000    128.36199   -5098.1362   -4841.3964   -5098.1362            0    6981.6638    17.812222    22.748389    19.240906    7796.4024    7782.0803    6914.9003    6248.0109    1052.8172   -664.64842   -504.97967   -4047.5635 
26763000    131.76766   -5114.3246    -4850.773   -5114.3246            0    5364.0377    17.911826    22.721133     19.28751    7849.5723     4755.318    5299.9529    6036.8422   -112.33446   -355.46636    107.42601   -4236.7089 
26764000     131.0698    -5127.741   -4865.5852    -5127.741            0    6855.3199    17.976575    22.758592    19.098951     7813.792    6066.7979      7146.82    7352.3418   -640.58887    550.58554   -997.61714   -4084.3794 
26765000    130.74004   -5121.6336   -4860.1374   -5121.6336            0     7826.033    17.898646    22.709645    19.128678      7775.27    8046.5312    7637.9108     7793.657    687.44816    313.83441    173.65135   -3972.7095 
26766000     127.9926    -5112.534    -4856.533    -5112.534            0    8137.1208    17.812944    22.668018    19.232848     7765.919    7599.9457    9240.4519    7570.9649    246.44179    188.34605    354.52348   -3934.9393 
26767000    124.96081   -5107.0838   -4857.1468   -5107.0838            0    7674.3707    17.708619    22.880342    19.206822    7782.2059    8128.7362     7700.896    7193.4799   -360.77153     245.9806   -26.689358   -3986.1403 
26768000    124.82931   -5123.6167   -4873.9426   -5123.6167            0    6683.9083    17.883711    22.611377    19.268299    7791.6248    7254.3396    6885.1955    5912.1897    819.09219    33.600133    -517.0371    -4114.431 
26769000    130.93744   -5126.0274   -4864.1364   -5126.0274            0    6936.8913    17.895459    22.758418     19.10953    7782.7827    7464.8429    6623.0541     6722.777   -725.29312    120.12156   -138.90899   -4076.7721 
26770000     127.5559    -5122.214   -4867.0864    -5122.214            0    6505.0242    17.821293     22.71714     19.25661    7796.0158      5219.61     7187.772    7107.6906    323.14439    31.341335    357.36776   -4127.4853 
26771000    124.64732   -5120.6226   -4871.3126   -5120.6226            0      8388.03    17.913194    22.664393    19.107777    7757.5984    9251.7448    7409.0735    8503.2719    547.47907   -1032.4924    1852.7185   -3922.3192 
26772000     123.7359   -5106.4171     -4858.93   -5106.4171            0    7934.0004    17.744869    22.829443    19.154664    7759.6593    8624.0138    7182.3422    7995.6451   -835.81206   -576.56752    37.165565   -3961.0656 
26773000    126.38474   -5130.9342   -4878.1491   -5130.9342            0    7455.7047    17.823415    22.529112    19.373425    7779.3157    7864.6349    8238.0882     6264.391    1446.3415    188.27865    450.49987   -4032.2745 
26774000    131.30367   -5104.5523   -4841.9287   -5104.5523            0     5905.159    17.838117    22.830288     19.19715    7818.0268    5427.2817    5530.6362    6757.5591    1185.7143   -742.52345    611.49535   -4168.6349 
26775000    136.36873   -5124.2137   -4851.4594   -5124.2137            0    6786.1768    18.009641    22.590462    19.183791    7804.8508    5924.3319    7085.6771    7348.5214   -15.054234    176.93332    563.97961   -4079.0178 
26776000    133.99336   -5118.7606   -4850.7573   -5118.7606            0    7139.4412    17.735514    23.019598    19.034299    7771.0267     7015.845    6663.3125    7739.1661   -375.05625    159.15998   -700.18927   -4041.6269 
26777000    128.34226   -5105.9815   -4849.2811   -5105.9815            0    6573.2754     17.88973    22.663104    19.295773    7823.2167    7065.1662    6318.4555    6336.2044   -53.035649   -852.60324    1015.2724   -4099.3125 
26778000    131.45018   -5134.1115   -4871.1949   -5134.1115            0    6586.0472    17.931357    22.794817    19.076274    7797.2743    4201.0225    7537.2571    8019.8621    809.39065    218.36263   -1552.1741   -4122.2609 
26779000    132.50783   -5130.3569   -4865.3249   -5130.3569            0    6414.6889    17.899318    22.701985    19.259754    7826.2018    5831.3308    6550.1134    6862.6225   -177.23371    601.38456    -927.5602   -4133.1707 
26780000    135.41342   -5118.7814   -4847.9379   -5118.7814            0      8261.03       17.753    22.773998    19.192367    7759.6043    8037.7374    7938.4382    8806.9143     381.1516   -329.10377   -1025.5303   -3913.0712 
26781000    132.43855   -5110.9992   -4846.1058   -5110.9992            0    6873.6121    17.894048    22.791025    19.128341    7800.9909    5893.8579    7462.7657    7264.2128   -511.76191    619.56643    120.32539   -4064.0987 
26782000    127.64006   -5114.4577   -4859.1618   -5114.4577            0    7016.9291    17.843229    22.630871     19.31028    7797.6419    6935.9531    7999.8819    6114.9521    1342.0837    530.54484   -454.90964   -4061.1924 
26783000    130.27466   -5124.5017   -4863.9363   -5124.5017            0    6059.6648    17.745718    22.802155    19.328942    7821.2748    6876.0144    6349.4759    4953.5042   -575.35686   -55.274151   -524.60568    -4172.739 
26784000     122.5527   -5118.6648   -4873.5443   -5118.6648            0     8323.741    17.874379    22.572601    19.248424    7766.1854    9371.3628    8122.3979    7477.4623    152.86556   -649.66573   -562.37512    -3930.782 
26785000    124.76639   -5125.6429   -4876.0948   -5125.6429            0    7846.6583    17.849201    22.722188    19.155698    7769.0319    7610.6786    8272.5372    7656.7592    124.58922   -60.660021    388.80227    -3987.042 
26786000    125.43259   -5126.0611   -4875.1804   -5126.0611            0    7177.7055    17.843473    22.710984     19.24457    7798.7237    7661.2108     7115.284    6756.6218   -567.57559   -367.23307    154.77036   -4058.8141 
26787000    129.53084   -5127.0511   -4867.9734   -5127.0511            0    5028.8198    17.953325    22.907417    19.097148    7853.9752    4667.2737    4144.1382    6275.0475    129.85524   -300.15407    475.09534   -4291.9615 
26788000    122.54147   -5110.9546   -4865.8565   -5110.9546            0    6382.9336    17.991811    22.672804    19.165688    7818.1594     6429.585    5883.5967    6835.6191   -219.52332   -247.03568    299.44803   -4138.0754 
26789000    126.48791    -5121.834   -4868.8425    -5121.834            0     7332.006    17.942721    22.675075    19.197853    7810.6951     6000.866    7957.0399     8038.112    211.46053    420.21183    736.37132   -4033.6465 
26790000    129.33811    -5121.601   -4862.9088    -5121.601            0    6605.1786    17.768611    22.867141    19.247274    7820.5011    6923.6769    6459.2373    6432.6216   -883.23397   -555.70204    1058.5308   -4109.5618 
26791000    128.11544   -5118.7357    -4862.489   -5118.7357            0    7450.5661     17.93229    22.633954     19.21509    7798.9944    8175.9226    7038.0842    7137.6915   -209.26859     301.0418   -527.35337   -4015.0591 
26792000     133.6114   -5130.3163    -4863.077   -5130.3163            0    7009.3088    17.925223    22.770424    19.078399    7787.1332    6406.6891    7067.6501    7553.5872   -313.34837    117.18361    451.36039   -4067.0484 
26793000    131.99998   -5120.5515   -4856.5352   -5120.5515            0    7058.2711    17.798331    22.756802    19.267639    7804.0315    8103.3719    7367.1497    5704.2916   -935.02201   -449.57181    -220.2335   -4053.2066 
26794000    126.69326   -5129.1896   -4875.7875   -5129.1896            0    7626.4565    17.895033    22.588148    19.224326    7770.7735    7261.6688    8369.8507      7247.85   -112.77114   -339.00622    2522.9238   -4011.4906 
26795000    128.27478   -5137.8292   -4881.2638   -5137.8292            0    7074.2762    17.864154    22.937599    19.032307    7798.6934    8399.4414    5096.2505    7727.1366    847.19275   -187.21736   -935.14951   -4076.6644 
26796000    127.51951   -5131.0281   -4875.9734   -5131.0281            0    7212.7858    17.952069    22.700715    19.191666    7821.0798    7558.0738    7112.9025     6967.381   -416.24898    506.24518    312.71517   -4053.2655 
26797000    124.30005   -5114.3763   -4865.7608   -5114.3763            0    7120.5739    17.870528    22.817207    19.103204    7789.4377    6802.7621    6794.0031    7764.9565   -874.04431   -147.69568    97.100999   -4056.8568 
26798000    125.61479   -5124.6684   -4873.4233   -5124.6684            0    6915.2635    17.850943    22.757197    19.205864    7802.1408    7519.0733    6489.9674    6736.7499   -46.744365   -177.23861    890.85651   -4086.5616 
26799000    134.87696   -5119.7363   -4849.9657   -5119.7363            0    7798.2865     17.95621    22.613241    19.145303     7773.914    7518.6671    8014.9438    7861.2486     10.62144   -73.701464   -39.998591   -3965.8384 
26800000     126.6773   -5127.0091   -4873.6389   -5127.0091            0    7822.0758    17.784298    22.855357    19.107777    7766.6705    9323.8675    6231.1497    7911.2103    825.86369   -1725.9798     683.4258   -3987.6408 
26801000     140.3673   -5112.3164   -4831.5645   -5112.3164            0    7075.8187    17.887919    22.616846    19.244219    7785.6009    6660.6873    7745.3929    6821.3759     300.6766    183.58185    337.81065   -4028.1406 
26802000    126.73131   -5125.1829   -4871.7046   -5125.1829            0     7658.588    17.735443    22.872932    19.175051    7778.5813    7931.4495    8006.9738    7037.3406    1354.5636    548.11334    436.11304   -4002.8942 
26803000     126.4823   -5136.0173    -4883.037   -5136.0173            0    7246.9662    18.083299    22.486934    19.164753    7793.1161    6946.0325    8138.7638    6656.1024   -1380.1933    1179.5896   -1050.7206    -4059.386 
26804000    136.90878   -5123.9357   -4850.1012   -5123.9357            0    6093.6701    17.878478    22.871572    19.147435    7829.5565    5965.9188    6232.5137    6082.5778    179.49069     1218.714    488.50748   -4154.2891 
26805000    132.37205   -5116.4015    -4851.641   -5116.4015            0    8054.2506    17.865155    22.626105    19.257738    7784.3414     7182.699    8698.0618    8281.9908   -514.70285    942.48341    218.27316   -3937.2691 
26806000     137.2619   -5111.8578    -4837.317   -5111.8578            0    8473.1684    17.887536    22.896717    18.961536    7765.9975    7690.5735    8230.5712    9498.3605    134.39639   -986.40666   -677.55391   -3877.6535 
26807000    121.71903   -5123.9528   -4880.4997   -5123.9528            0    6982.3807    17.872156    22.612578     19.26432    7785.3957    7048.6811    7349.4017    6549.0592   -203.38636    239.55498    761.66317   -4087.7061 
26808000     133.3586   -5128.3943   -4861.6606   -5128.3943            0    7808.0343    17.821702    22.836051     19.10163    7773.9296    6001.1499    8571.8236    8851.1295    714.02125    106.45832    75.356841   -3976.4264 
26809000    125.36454   -5114.1254   -4863.3809   -5114.1254            0    7946.5765    17.986689    22.441388    19.280626    7782.5523    7452.2505    7890.2869    8497.1921    451.58893    450.23236    719.85994   -3961.4401 
26810000    130.52852    -5126.212   -4865.1388    -5126.212            0    7541.1384    17.769349    22.918199    19.101073    7778.7492    9778.5658    6584.2888    6260.5607    179.44478   -112.88114   -1046.6036   -4009.6338 
26811000    129.86489   -5112.3636   -4852.6177   -5112.3636            0    7728.4761    17.884011    22.628112      19.1973    7768.7903    6868.7249    8428.4768    7888.2265   -1311.4447    560.41967    228.32514   -3976.9827 
26812000    135.50648   -5108.5539   -4837.5242   -5108.5539            0    7519.6411    17.767423    22.753756    19.276059    7792.8408    8270.9271    7899.2273    6388.7689     25.26975   -127.14242   -1053.8569   -3982.9125 
26813000    134.09975   -5118.8225   -4850.6064   -5118.8225            0    5827.1615    17.909904    22.665716    19.278105    7825.7688    5636.0632    5206.3173    6639.1041    898.66667   -840.57273    19.014727   -4185.5478 
26814000     129.2453   -5126.7171   -4868.2106   -5126.7171            0    7304.2583     17.86189    22.815936     19.08904     7779.466    6902.1692    7979.4799    7031.1257   -107.70923    3.2140042     345.5791   -4039.5021 
26815000    119.14932   -5111.7414   -4873.4281   -5111.7414            0     7868.051    18.031455    22.588929     19.12535    7789.9706    7239.3508    8738.1962    7626.6061   -988.02665    741.88079   -956.98815   -3979.5488 
26816000    130.41691    -5106.155    -4845.305    -5106.155            0     6772.957    17.830408    22.816849    19.144386    7788.5817     6477.928    6875.8027    6965.1403   -500.12744    389.66679   -505.73163   -4075.9752 
26817000    126.13262   -5120.3394   -4868.0585   -5120.3394            0    7860.8818    17.928106    22.588929    19.197237    7774.4341    7173.2045    7413.3126    8996.1282   -297.80622   -718.19837   -425.05539   -3976.7749 
26818000    130.78894   -5124.1865   -4862.5925   -5124.1865            0    7486.8611    17.811583    22.879999    19.111328    7788.4205    6627.3664    6419.8327    9413.3841    31.159883   -557.83396   -133.53274    -4012.189 
26819000    128.25078   -5135.2646   -4878.7472   -5135.2646            0    8689.7005    17.994456    22.484577    19.191611    7764.8822    8226.5926    8772.6735    9069.8354      14.9562    138.82063    1035.4973   -3894.7008 
26820000    130.75043   -5119.4806   -4857.9636   -5119.4806            0    6778.6974    17.809526    23.001437    19.023331    7792.8066    6397.9179    5846.5948    8091.5795   -617.74497   -130.74454     1136.348    -4087.564 
26821000    124.29057    -5108.939   -4860.3425    -5108.939            0    7890.7265    17.988958      22.5197    19.220516    7786.3451    6635.0592    8839.9517    8197.1686    413.42646    166.43151    1215.2337   -3964.3043 
26822000    140.21413    -5120.282   -4839.8365    -5120.282            0    6841.9915    17.744645    22.981302    19.185431    7823.7235    6962.8112    6489.6325    7073.5307   -434.40989   -807.88608   -44.719129   -4059.1585 
26823000    124.92499   -5135.9166   -4886.0512   -5135.9166            0    5967.1593    17.945242    22.441079    19.420409     7820.804      3915.18    7897.7376    6088.5603   -489.33975    889.90072    1471.9681   -4205.4465 
26824000    123.27955     -5128.24   -4881.6657     -5128.24            0    7084.9049     17.80396    22.814393    19.180981    7791.0564    6881.5876    7186.7973    7186.3299    1511.6475   -410.24641    797.44867   -4076.6464 
26825000    125.88366   -5120.3908   -4868.6079   -5120.3908            0    6419.6323    17.900553    22.642131    19.269473    7810.0463    7188.5183    6135.0799    5935.2989   -732.68518   -1039.0602   -1542.0989   -4137.4021 
26826000    132.35282   -5127.8419   -4863.1199   -5127.8419            0    6907.3042    17.877222    22.833951    19.132811    7810.1594    6006.0805    6582.8195    8133.0126   -910.46226    232.92553   -550.75345   -4076.3561 
26827000    118.68202   -5123.1323   -4885.7536   -5123.1323            0    7787.7295    17.913198    22.628786     19.17688    7773.4233    7004.0309    8385.1929    7973.9648   -360.13117    558.42868   -28.403582   -4002.8789 
26828000     136.7711    -5109.609   -4836.0499    -5109.609            0    8508.7203    17.772221    22.846952      19.0993    7755.1004    8590.1569    7932.7267    9003.2772    746.14612    722.15624    507.57302   -3873.7121 
26829000    127.97401   -5128.4998    -4872.536   -5128.4998            0    7390.8485    17.871663    22.716001     19.14281    7771.4588     6485.582    8069.7771    7617.1864    286.32278    643.30418    1918.0863   -4034.8664 
26830000    131.78346   -5116.1244   -4852.5412   -5116.1244            0    5014.7942    17.940443    22.708959    19.290991    7859.3189    5507.5902    4803.8695    4732.9228    357.18646   -9.6138865    967.45488   -4277.7449 
26831000    131.38467   -5124.6035   -4861.8179   -5124.6035            0    6726.5146    17.743515    22.929383    19.190245    7807.5099    7530.8738    5886.9745    6761.6956    582.09878    512.64439    179.43174   -4095.9066 
26832000    124.76139   -5128.3799   -4878.8417   -5128.3799            0    7276.0659    17.998356    22.511954    19.264334    7805.4872    6631.3897    7147.0516    8049.7563    981.79825     612.5195    2588.4255   -4050.5706 
26833000    133.03825   -5126.7824   -4860.6895   -5126.7824            0    5885.3681    17.904076    22.757885    19.209939    7827.2605     5873.693    6507.2394    5275.1719      1179.34    373.15368    587.10124   -4188.8596 
26834000    133.62683   -5114.6059   -4847.3357   -5114.6059            0    6183.9538    17.929219    22.664133    19.255397    7824.4341    5560.0951    6429.4085    6562.3579    1324.4069   -741.24532    866.55338   -4141.6764 
26835000    123.33815   -5118.5294   -4871.8378   -5118.5294            0    7568.1582    17.856117    22.791975    19.099774     7773.153    6945.8235    7718.2085    8040.4428    906.08918   -187.52987   -1247.3638   -4013.8852 
26836000    128.36024   -5129.4013   -4872.6649   -5129.4013            0    6440.1585      17.9218    22.736393    19.162765    7808.3876    6692.9724    6599.6509    6027.8522    685.04207   -405.58749    1133.0157   -4139.2769 
26837000    128.00743   -5121.5725   -4865.5419   -5121.5725            0    7881.9029    17.777623    22.669361    19.262062    7762.7524    8795.5838     8161.334    6688.7909    788.20062    725.31506    752.71868   -3973.2176 
26838000    130.54007   -5125.9422    -4864.846   -5125.9422            0    7126.6328    17.935589    22.681906     19.16219    7795.4346    5101.7048     7297.777    8980.4167    -347.7836   -279.31282     548.4267   -4054.6303 
26839000    119.33885   -5121.8374   -4883.1449   -5121.8374            0    8171.4336    17.825273    22.657725     19.15078    7734.6197    8035.6412    8299.2356    8179.4241    755.18762   -237.97231   -651.86437    -3961.395 
26840000    126.79878   -5124.0921   -4870.4789   -5124.0921            0    6660.0506    17.808495    22.717049    19.289735    7803.7868    7629.4759    6615.1817    5735.4943    46.181207   -411.91705   -539.20927    -4112.497 
26841000     124.2359   -5122.5928   -4874.1057   -5122.5928            0    6789.5543    17.809429    22.857645    19.175539    7806.0092    8092.6292    6991.4581    5284.5755    850.92469   -8.6349258    487.53069   -4101.1649 
26842000     130.6488   -5130.6631   -4869.3494   -5130.6631            0    6080.1881      18.0003    22.667112    19.146031    7811.8641    5132.7668    6460.6754    6647.1219   -471.46918   -628.84692    169.42216   -4176.6456 
26843000    132.57857   -5121.5365    -4856.363   -5121.5365            0    6465.3522    17.882463    22.833189     19.17904     7831.064    7441.9472    6211.0172    5743.0923   -209.78476    515.79471   -384.86938   -4117.9678 
26844000    128.74145   -5126.1676   -4868.6688   -5126.1676            0    7184.8216    17.954468    22.681324     19.16992    7806.5876    7670.3812    6701.4754    7182.6081    987.46326    811.34931    1383.4849   -4050.6692 
26845000    123.25957   -5137.0808   -4890.5465   -5137.0808            0    5522.3952    17.870346    22.833499    19.206342    7837.0045    5048.4795    4670.8904    6847.8159   -13.247126   -625.37169   -636.99348   -4259.3661 
26846000    128.28257   -5121.4422   -4864.8612   -5121.4422            0    6730.5199     17.86297    22.695267     19.32029    7832.5396    6849.1249    6973.3464    6369.0884   -711.02909    270.99092   -1399.7916   -4096.0369 
26847000     125.4557   -5120.3135   -4869.3866   -5120.3135            0    6226.5756    17.773154     22.71163     19.32747    7801.6748    5514.1591    6317.0076    6848.5601    386.15161   -605.13033    17.549039   -4160.9304 
26848000    128.10239   -5123.4495   -4867.2289   -5123.4495            0    6504.8043    17.816112    22.723993    19.298457     7813.042     7634.762    6913.8537    4965.7972    -79.53819    624.71403    862.62847   -4126.0377 
26849000    119.15619   -5107.6566   -4869.3295   -5107.6566            0    6582.1374    17.909372    22.742809      19.1872    7815.1271    6795.0852    6392.5881    6558.7389    567.74159    411.42054   -626.49564   -4119.1263 
26850000    129.93883    -5125.489   -4865.5953    -5125.489            0    7857.0433    18.009864    22.578724    19.145324    7785.2497    6731.3642    7499.9825    9339.7832   -1194.0663   -690.32196    -719.8359   -3973.5075 
26851000    121.17955   -5121.4066   -4879.0325   -5121.4066            0     8180.386    17.774252    22.850007    19.064598    7742.9298    7816.2654    8322.9482    8401.9446    397.62207   -323.55099    1351.8887   -3955.2813 
26852000     127.8756   -5119.0279   -4863.2609   -5119.0279            0    6142.3305    17.998264    22.699852     19.13402    7817.3556    6066.1719    6074.7051    6286.1144    400.22012   -626.30784   -100.39758   -4162.9854 
26853000     133.2428   -5124.3942   -4857.8922   -5124.3942            0    6790.7124    17.920715    22.828847    19.109756    7817.9781    7154.8419    6648.8923    6568.4029    671.42522    262.13358    839.29382   -4083.6342 
26854000    130.22801   -5118.9414   -4858.4693   -5118.9414            0    7113.5679    17.969036    22.686145    19.175512     7816.862     6867.829     6667.781    7805.0938    95.843273   -36.108051   -796.98621    -4047.516 
26855000     135.1829   -5112.6295    -4842.247   -5112.6295            0     7638.282    17.870755    22.794206    19.169909    7808.8557    6732.3406    8144.2011    8038.3043   -141.56425    703.06889   -217.21259   -3972.3677 
26856000    125.47178    -5131.311    -4880.352    -5131.311            0    7288.8689    17.906915    22.746498     19.11572    7786.2072    7205.8774     7259.585    7401.1443    1170.9788   -413.39988    771.17231   -4052.6729 
26857000    129.87362   -5119.7819   -4860.0186   -5119.7819            0    7354.4469    17.880164    22.792557    19.116153    7790.4951    6673.2026    7904.4872    7485.6508   -71.136805   -723.92641   -431.77805    -4024.433 
26858000    128.44689   -5115.3728   -4858.4631   -5115.3728            0     7461.858    17.770692    22.774334    19.277178    7801.7762    7382.3225    7387.5003    7615.7512    908.52318    274.07198    141.00531   -4009.4462 
26859000    129.65496   -5131.0462   -4871.7202   -5131.0462            0    7716.5844    17.874162    22.757179    19.115911     7775.693    7209.2499    7575.6637    8364.8394    -535.7892    366.74679   -706.20076   -3996.6557 
26860000    129.79776   -5115.8183   -4856.2068   -5115.8183            0    7150.5242    17.930775    22.687742    19.209905    7814.7585    7553.9102    6568.0171    7329.6454    262.42997    370.32772   -46.995378   -4041.2598 
26861000     130.9357   -5101.9136   -4840.0261   -5101.9136            0    8369.3691    17.882325    22.684043    19.148552    7767.4845    8878.7029    8797.4521    7431.9523    561.69238    146.74529    1099.0047   -3891.9373 
26862000    129.70568   -5122.1288   -4862.7014   -5122.1288            0    6688.0773     17.89767     22.70084    19.214167    7806.5653    6869.7762    6692.2117    6502.2439    110.27834   -300.10687   -92.259299   -4101.2588 
26863000    129.90505   -5133.2116   -4873.3854   -5133.2116            0    6371.1404    17.831079    22.834822    19.191712    7814.2802    5130.8868    7466.5778    6515.9566    637.80659    274.93765    612.04874   -4147.3095 
26864000    130.01422   -5111.7065    -4851.662   -5111.7065            0    7842.8474    17.810825    22.633601    19.298889    7779.8284    8334.3686    7360.2796    7833.8939    627.59937   -335.54603    384.39463   -3961.8061 
26865000    127.21204   -5120.3443   -4865.9045   -5120.3443            0    7564.6163    17.898818    22.858593    19.068949    7801.9041    7290.9847    7196.7995    8206.0647    345.18979   -686.40821   -1027.1949   -4005.1815 
26866000    126.25908   -5133.2515   -4880.7177   -5133.2515            0    6807.2823    17.955425     22.66713    19.165094    7800.1538    6444.9849    6491.2453    7485.6168   -894.73839   -643.19421   -251.07294     -4106.34 
26867000    127.37342   -5137.7626        -4883   -5137.7626            0    6453.6925    17.934492    22.633319    19.197836    7792.7296     6116.987    6461.9044    6782.1862    436.60611    523.34139    48.519469   -4149.5445 
26868000    125.69524   -5129.9331   -4878.5271   -5129.9331            0     6553.945    17.889104    22.693869    19.250694    7815.2615    6863.8292    6617.5135    6180.4924   -153.69656    323.55247    665.52178   -4131.5244 
26869000     133.8148   -5146.4945   -4878.8483   -5146.4945            0    6687.6393    17.867797    22.824712    19.133126    7803.0116    6676.3452    6639.8639    6746.7089   -29.113813    292.98149    107.75211   -4117.8022 
26870000    126.19509     -5122.96   -4870.5542     -5122.96            0    6887.9669    17.927594    22.614906    19.279536    7816.5186     5621.407    8049.2295    6993.2641   -250.27341    499.35353   -685.06392   -4085.3542 
26871000    125.71615   -5126.8208    -4875.373   -5126.8208            0    6544.0624    17.744892     22.81977    19.260135    7799.0903    6121.2139    6013.3434    7497.6298     341.9543    -837.3973     313.5441     -4131.04 
26872000    134.07125   -5118.4885   -4850.3295   -5118.4885            0    6551.8742    17.840411    22.886926    19.134421    7812.8168    6514.6221    6170.4571    6970.5433    123.71105    455.52496    115.07069   -4103.7964 
26873000    125.74709   -5114.9953   -4863.4856   -5114.9953            0    8051.1597    17.891147    22.671703    19.119086    7755.1366    8895.1679    7990.0185    7268.2928   -598.82926   -468.36304   -103.96983   -3952.8937 
26874000    130.01196   -5119.1191   -4859.0791   -5119.1191            0    7524.2901    17.871417    22.644775    19.232884    7783.4374    7618.0642    7930.8987    7023.9074    287.35717    472.65779   -171.34405    -4004.971 
26875000    133.33758   -5116.4121   -4849.7205   -5116.4121            0    7587.6468    17.972101    22.539638    19.261907    7802.7028    7209.2154    7960.2693    7593.4556    -481.1965    577.66923   -665.18022   -3986.2887 
26876000    127.47282   -5127.2159   -4872.2546   -5127.2159            0    7142.6416    17.815798    22.765481    19.170692     7775.349    7258.8948    7262.3564    6906.6736   -648.77591    821.84362    996.98275   -4062.3112 
26877000    126.56547   -5123.1854   -4870.0388   -5123.1854            0    8395.8802     17.78691    22.718726    19.187689    7753.6668    8428.2449    8580.8802    8178.5156    663.17113   -236.38144    507.74625   -3920.6388 
26878000    124.88728   -5122.9009    -4873.111   -5122.9009            0    7547.3686     18.01168    22.437147     19.27954    7791.4543    6719.8653    8332.3956    7589.8449   -450.37119    -176.2125   -923.60226   -4015.5007 
26879000    133.56175   -5110.1204   -4842.9804   -5110.1204            0    6646.6559      17.9256    22.870057    19.077032    7820.8104    6184.7903    5872.3992     7882.778      374.369   -870.80582   -786.42839   -4084.8729 
26880000    123.24185   -5125.4864   -4878.9875   -5125.4864            0    8501.3209    17.919362     22.58168    19.200794    7769.5878    8580.5187    9200.6899    7722.7541    1329.3317    1249.3052    1278.2911   -3915.6903 
26881000    123.35184   -5125.4097   -4878.6908   -5125.4097            0    8536.3241    17.815605    22.834775    19.056242    7752.3716    8446.7526    9009.0021    8153.2177    239.28017   -298.54075   -479.09354   -3913.5707 
26882000    138.11801   -5126.2614   -4850.0083   -5126.2614            0    6742.7309     18.00221    22.595198    19.194896    7807.7833    6253.3947    6878.8119     7095.986   -465.23055   -201.77236    326.50775   -4082.2236 
26883000    135.11183   -5123.2421   -4853.0017   -5123.2421            0    6395.3526    17.813824    22.939955    19.079191    7796.6793    7356.7007    5436.3359    6393.0211    117.00905   -1142.5888    323.07947   -4125.8081 
26884000    124.81999   -5130.7791   -4881.1237   -5130.7791            0    6229.0654    17.925185    22.548668    19.329149    7812.6301    5248.7586    7272.9257    6165.5119   -105.97436   -79.524404   -677.04584    -4171.389 
26885000    127.80576   -5124.9216   -4869.2943   -5124.9216            0    6376.6453    17.760375    22.906798    19.115386    7776.7759    6199.9243    6484.1143    6445.8973    333.56745    44.042266    596.32348   -4146.0788 
26886000    135.10861   -5124.7303   -4854.4964   -5124.7303            0    6221.9051    17.963718    22.550213    19.281046    7810.4752    6146.5804    6151.2832    6367.8516    88.352849   -967.70915   -233.62496    -4145.773 
26887000    132.61876   -5128.5548   -4863.3009   -5128.5548            0     8262.752    17.828385    22.970309    18.942959    7757.5872    9277.7642    6652.8447    8857.6471    43.403895   -543.66661    50.408501   -3928.4824 
26888000    123.71081   -5111.6565   -4864.2196   -5111.6565            0    7801.1455    17.953667    22.636925    19.165289    7789.0765    8043.7599       8005.1    7354.5765    300.68686      392.619   -330.27284   -3978.0431 
26889000     127.2639   -5134.9645    -4880.421   -5134.9645            0     7125.299    17.745502    22.898612    19.140308    7777.6138    6687.2637    7034.3322    7654.3012    468.60236   -88.975565   -88.582346   -4072.2089 
26890000    127.42872   -5112.7582    -4857.885   -5112.7582            0    7207.7903    17.999774    22.607705     19.18098    7805.3847    6417.3407    7388.3146    7817.7156   -52.575276   -728.62764    727.22079   -4037.3968 
26891000    131.00915    -5132.901   -4870.8665    -5132.901            0    6385.7425    17.953155     22.76989    19.125267    7818.2442    6706.8675    5125.7377    7324.6222    836.31175   -953.59969    1400.7037   -4142.7573 
26892000    126.52294   -5124.3544   -4871.2929   -5124.3544            0    6028.9106    17.820831    22.794808    19.294086    7837.6902    6843.2429    5909.9859    5333.5031   -1126.3755     394.3009   -103.23615   -4182.1603 
26893000      126.883    -5127.652   -4873.8703    -5127.652            0    6828.6291    17.915441    22.632514    19.242152    7802.1438    6171.5433     7812.383    6501.9611   -526.20959    685.39623   -1238.8428   -4096.8661 
26894000    129.73932   -5123.1522   -4863.6576   -5123.1522            0    6783.7625    17.823208    22.955401    19.060456    7798.3741    8000.9892    5731.1477    6619.1507   -699.20819    227.91403    381.06223   -4092.1315 
26895000    131.41883   -5132.5071   -4869.6532   -5132.5071            0    6516.5792    17.993353    22.508396    19.290908    7812.8471    5747.2083    6418.9291    7383.6002    113.55268    286.35923   -740.70813   -4127.1387 
26896000    129.53204   -5127.5432   -4868.4631   -5127.5432            0    6742.7535    17.730004    22.920012     19.15204    7782.8507    7173.8918    5720.6475    7333.7213   -306.08704   -417.76287    -466.6154   -4103.1276 
26897000    121.24986   -5128.0988    -4885.584   -5128.0988            0    5553.5067    17.945625     22.62773    19.284025    7830.6399     6175.739    5434.6966    5050.0846    447.02676   -176.82108     1338.225   -4251.3633 
26898000    123.27142   -5120.8586   -4874.3006   -5120.8586            0    6588.4096    17.867415     22.89681    19.074484    7803.5012    6175.4977    5404.0338    8185.6973    607.47797    -490.0491    571.21771   -4124.4996 
26899000    138.12625    -5124.961   -4848.6914    -5124.961            0    7551.3701    18.058166    22.514716    19.199481    7806.0187    9069.7503    7585.8385    5998.5217   -87.180762   -392.76424    1143.1726   -3989.0225 
26900000    125.81406   -5123.9392   -4872.2955   -5123.9392            0    6879.3673    17.868617    22.867855    19.077536     7795.404    7156.4661    6196.2255    7285.4104   -0.8018596    17.536873    492.76886   -4090.1942 
26901000    133.46304    -5112.411   -4845.4685    -5112.411            0    6282.5483    17.935836    22.650327    19.246885    7819.0964    6321.1063    6865.1295    5661.4091    302.27576    943.13063    371.61601   -4129.0475 
26902000    130.50069   -5120.6892   -4859.6717   -5120.6892            0    6663.3501    17.810027    22.997911    19.010721    7786.6659     6700.958    6627.3711    6661.7211    379.54122    177.69503    654.03267   -4102.9781 
26903000    126.49641   -5109.0444   -4856.0359   -5109.0444            0    7501.7637    17.948551    22.615764     19.17755    7784.5545    6413.1216    8839.3564     7252.813    3.7621726   -800.55542   -311.31192   -4004.3626 
26904000    130.46204   -5132.4819   -4871.5417   -5132.4819            0    6122.4698    17.746042    22.949836    19.172374    7808.3091    5945.1255    6514.4558    5907.8281   -180.45341    625.55988   -693.73088   -4174.3383 
26905000    126.29158   -5130.3381   -4877.7393   -5130.3381            0    6174.2958    17.926243    22.712933    19.240395    7833.8723     7407.848    5697.6736    5417.3657    1265.5786   -418.29425    1505.8403   -4172.3323 
26906000    127.71132   -5139.8701   -4884.4317   -5139.8701            0     6295.205    17.919965    22.826467    19.122578    7822.0807     6359.619    5452.2418    7073.7541    547.38205    287.36831    1201.0354   -4166.2934 
26907000    130.14719   -5132.2944   -4871.9839   -5132.2944            0    5623.5138    17.922804    22.736288    19.204448    7825.7746    6864.0147    4668.8632    5337.6635    11.507498    -290.7127    546.84596   -4230.1673 
26908000    122.08158   -5127.6037   -4883.4255   -5127.6037            0    6593.4028    17.809773    22.638561    19.394215    7819.5077     7851.675    6246.6706    5681.8629   -371.47244    262.93756    1050.7754   -4131.5171 
26909000    124.50312   -5128.1719   -4879.1503   -5128.1719            0    6196.9263    17.903156    22.741546    19.203655     7818.681    6298.8119    5767.1165    6524.8504    1352.4006   -849.64068    1666.6017   -4172.5307 
26910000    129.21893     -5122.28   -4863.8262     -5122.28            0    6441.9759    17.975006    22.833203    19.095977    7837.5036    5997.5658    5900.2911    7428.0709    710.71287   -80.000166    103.50744   -4127.4958 
26911000        124.8   -5126.6619   -4877.0465   -5126.6619            0    7076.9578    17.892674    22.759479    19.151868    7799.1758    6411.1584    7717.1103    7102.6048   -355.28837      992.306    514.86696   -4072.0922 
26912000    132.23366   -5132.0943   -4867.6106   -5132.0943            0    6113.3352     17.99022    22.683837    19.165627    7821.2477    6289.6985    6327.1408    5723.1663   -807.21556      204.033    8.9844445   -4170.2938 
26913000    129.23607   -5127.6994   -4869.2113   -5127.6994            0    7793.4721    17.868774    22.870207     19.01936    7772.5004    6571.0564    7941.4331    8867.9268   -173.47901    29.630139    -920.7555   -3985.7904 
26914000    127.08104   -5129.3062   -4875.1284   -5129.3062            0    6049.0922    17.912831     22.62543    19.323697    7831.6142    7616.7283    5909.9944    4620.5537   -429.03467   -340.15191   -205.23189   -4184.2249 
26915000    129.35646   -5130.0366   -4871.3077   -5130.0366            0    7228.5658    17.712237    22.934983    19.165544    7785.6159    7730.0082    7027.5498    6928.1393   -357.08116    736.90191   -302.48683   -4050.5386 
26916000    131.66114   -5115.6037   -4852.2651   -5115.6037            0     5761.726    17.969608    22.692927    19.248947    7849.3934    5391.1298    5808.1931    6085.8551    751.18994   -803.63428   -718.24557   -4192.6895 
26917000    131.15534   -5130.3851   -4868.0583   -5130.3851            0    7880.9036    17.825039       22.808    19.122956    7774.5042    8096.4857    8134.7928    7411.4323   -232.71455   -333.88034   -1203.1656   -3974.4964 
26918000    131.38203   -5121.9471   -4859.1668   -5121.9471            0    5840.7707    18.022828    22.752011    19.117151    7839.0944    4190.7658       6059.5    7272.0465    500.00023   -124.32563   -271.45236   -4191.4199 
26919000    136.45095   -5121.2495   -4848.3307   -5121.2495            0    7024.8588     17.90198    22.794304    19.148822    7813.9294    5613.4619    7097.9913    8363.1233   -717.76308    78.209795   -325.01283   -4047.7909 
26920000     128.3322   -5115.1298   -4858.4496   -5115.1298            0    7799.4603    17.866775    22.670737     19.17893    7768.4827    7940.0705    8207.5297    7250.7806    -20.77346   -30.316376    -61.97249    -3974.807 
26921000    130.15627     -5117.86   -4857.5314     -5117.86            0    7113.5413    17.893576    22.735735    19.157401     7793.683    5686.6766     6929.793    8724.1544    1192.9148   -816.05076    412.92886   -4048.9859 
26922000    123.28326    -5121.076   -4874.4943    -5121.076            0    7050.2464    17.831322    22.844098     19.14159    7797.1442    7117.1762     6918.644    7114.9191   -737.32715     44.06176    1160.8187   -4072.7871 
26923000    122.38359   -5126.8987   -4882.1164   -5126.8987            0    7057.4327    17.876147    22.681254    19.242237    7801.8309    7423.5348    6926.8163    6821.9471   -329.98593     558.6951    958.34097   -4079.1097 
26924000    131.77867   -5140.3605   -4876.7869   -5140.3605            0    5876.7248    17.853377    22.832114    19.150902    7806.4883    5859.1711    5776.8193     5994.184   -349.69952     428.0431    -379.8697    -4207.724 
26925000    127.10809   -5128.4355   -4874.2036   -5128.4355            0    5936.4972    17.878892    22.672402    19.303702    7824.8989    6494.3048    6649.0398     4666.147   -746.90575    163.40797    441.68562   -4196.7416 
26926000    131.43583   -5126.4672   -4863.5793   -5126.4672            0    8102.8636    17.811645    22.650725    19.209676    7750.0802    7829.4228    8582.4727    7896.6952    340.75123   -122.65928    342.72449   -3947.7372 
26927000    131.45297   -5117.6258   -4854.7036   -5117.6258            0    7070.0844    17.835301    22.641533    19.328184    7805.0792    7654.6491    7591.5667    5964.0375   -330.01106    201.09637   -311.68915   -4049.9224 
26928000    127.94864   -5122.0499   -4866.1368   -5122.0499            0    6897.6754    17.909168    22.779963    19.147573    7811.6392    6775.2594    6955.2292    6962.5377    557.08744    380.52795     -700.252   -4080.3209 
26929000    130.14448   -5122.7277   -4862.4226   -5122.7277            0    5060.4581    18.093039    22.637133     19.20276    7864.9614    3836.1642    5441.9088    5903.3014   -981.72989   -2.3958427   -562.13232    -4281.976 
26930000    133.24042   -5128.3513    -4861.854   -5128.3513            0    7799.2716    17.744468    22.802613    19.208666    7772.2152    8352.1429    7597.6073    7448.0645   -662.56027    275.16652   -732.14344   -3977.8082 
26931000    126.69895    -5128.012   -4874.5984    -5128.012            0    6646.5882    17.958857    22.697801    19.170951    7814.5889    6602.8523    5826.0642    7510.8482   -1426.5739   -212.99539   -605.12647   -4117.1016 
26932000    127.94781   -5118.6609   -4862.7494   -5118.6609            0    6939.9419      17.8369    22.841717    19.158207      7805.54    7497.3708    6491.8721    6830.5829     286.0009   -437.09289    1323.5444   -4072.7356 
26933000    122.55874   -5123.8285   -4878.6958   -5123.8285            0    6014.8814      17.8228    22.702974    19.336481    7824.1315    6306.5451    7234.9723    4503.1268    1077.9506    932.19555    851.33206   -4192.3562 
26934000     124.5479   -5127.4728   -4878.3616   -5127.4728            0    7352.3012    17.843539    22.807415    19.123843    7782.7347    6049.4999    7904.3862    8103.0176    732.57878    390.69222    145.71049   -4043.8519 
26935000    128.45063    -5113.283   -4856.3659    -5113.283            0    7264.5392    17.993168    22.638602    19.180653    7813.0508    5944.8427    7638.9716    8209.8034   -1007.0065   -324.58615    -138.3395   -4028.6055 
26936000    127.55327   -5112.1115   -4856.9892   -5112.1115            0    6696.6537     17.79509    22.736458     19.26539    7794.7251    7603.1894    6492.5533    5994.2183    116.42725   -276.44194   -1109.6698   -4095.7265 
26937000    124.97017   -5120.7385   -4870.7827   -5120.7385            0    6698.1581    17.854727    22.699361    19.261394    7806.4677    5567.4662    6762.5424    7764.4656   -571.25931      74.3138   -994.13846   -4108.2019 
26938000    131.76803   -5114.6406   -4851.0882   -5114.6406            0    7435.3714    17.855446    22.739655    19.163865    7781.0404    7479.1248     7889.271    6937.7185     221.7228    373.08599   -335.29284   -4007.3335 
26939000    126.59592   -5131.8015    -4878.594   -5131.8015            0    7441.9407    17.899605    22.634335    19.200097    7778.8357    6509.0731    8239.8066    7576.9425    1459.0859    768.23875    1224.6512   -4034.3331 
26940000    131.39494   -5109.0183   -4846.2122   -5109.0183            0    7107.4221    17.879865    22.764622     19.20567    7817.2523    7203.2491    7413.9072      6705.11   -297.42419    1007.5628   -163.41666   -4035.9191 
26941000    130.93976   -5120.4397    -4858.544   -5120.4397            0    7149.7609    17.776305    22.806282    19.228094     7795.289    8738.9858    6460.6984    6249.5984    203.70895   -1227.9925   -339.70842   -4045.7142 
26942000    134.79721    -5129.086   -4859.4749    -5129.086            0    6685.6728    17.845579    22.827433    19.114074    7786.4769    7101.1302    6233.3841     6722.504    -141.9522   -436.64919    1834.1232   -4100.2648 
26943000    128.03976   -5125.2567   -4869.1614   -5125.2567            0    6049.5146    17.938834    22.728789    19.163845    7813.6355    6015.1892    5413.5123    6719.8423   -69.277874   -320.85599   -1052.2698   -4179.7958 
26944000    126.53941   -5116.1432   -4863.0487   -5116.1432            0    7265.3803    17.884135    22.765843    19.140883    7793.1608    7198.5946     6728.729    7868.8174   -16.438171    461.41295    509.37434   -4037.3001 
26945000    128.01021    -5118.715   -4862.6788    -5118.715            0    7647.0253    17.837451    22.659216    19.253439    7781.9061    7894.7258    7542.4268    7503.9234    331.84676   -501.69933   -519.49257   -3994.8093 
26946000    128.40146   -5134.4745   -4877.6557   -5134.4745            0    5741.5948    17.908182    22.720937     19.23577    7826.8553    4874.9161    5819.4266    6530.4416    112.45566     790.5178   -559.88371   -4222.2718 
26947000    125.87235   -5113.6122   -4861.8519   -5113.6122            0    7643.2483    17.892703    22.841238    19.099367    7805.7488    7784.5718    6254.2141    8890.9589    -695.7515   -569.24151    1258.7832   -3991.7534 
26948000    126.91243   -5122.0227   -4868.1821   -5122.0227            0    7255.7618    17.829339    22.698453    19.287855    7805.7642    8036.8388    6932.9885     6797.458    536.37522    -268.5191    460.87217    -4042.193 
26949000    132.38655   -5124.9152   -4860.1257   -5124.9152            0    5128.6905    17.856168    22.892263    19.201397    7848.9183    5575.7525    4769.7726    5040.5464   -829.58162    637.62559    543.93695   -4273.0526 
26950000    126.77919   -5127.1553   -4873.5812   -5127.1553            0    5964.3052    17.993796    22.688371     19.18428    7831.9805    6699.5122    5392.0601    5801.3431   -218.19328   -803.30974   -187.48641     -4192.33 
26951000    129.75032   -5130.1245   -4870.6078   -5130.1245            0    6248.8547     17.84289    22.835389    19.184835    7816.8484     6739.251    5665.6144    6341.6986    358.47711   -180.99446    1529.4143   -4158.2339 
26952000    127.17659   -5126.7261   -4872.3572   -5126.7261            0    6726.9968    17.910153     22.68086    19.240802    7815.9537    6477.3644     7292.029     6411.597    1326.8013    138.16757    1400.4919   -4105.5626 
26953000    121.96467   -5126.2514    -4882.307   -5126.2514            0    6696.5226    17.935253    22.669958    19.216564      7813.29    6452.6095    7450.2847    6186.6737   -270.64393    305.53985    46.158429   -4119.2461 
26954000    127.32729   -5132.4978   -4877.8275   -5132.4978            0    8751.4359    17.892238    22.724487    19.072578    7754.7561    8437.1675    8873.3125    8943.8276   -607.44368   -421.67816   -725.26468   -3888.0824 
26955000    133.22166   -5148.0955   -4881.6357   -5148.0955            0    6682.7479    17.893065    22.759566     19.15085    7798.9612    6630.4906    6238.1654    7179.5878   -607.65064   -248.63907   -616.51202   -4121.5409 
26956000    132.48617   -5138.1493   -4873.1606   -5138.1493            0    7291.1784     17.84005    22.800388    19.152967    7790.6619    7221.3049    7116.2913     7535.939    815.43505    424.99979    223.03042   -4044.7456 
26957000      129.858   -5126.0357   -4866.3036   -5126.0357            0    6841.6414    17.819773    22.769626    19.237943    7805.7868    7436.6914    6950.7607    6137.4722    158.23382    572.70817    983.06573   -4087.4553 
26958000    130.36667    -5118.758   -4858.0086    -5118.758            0    6619.5046    17.869478    22.784361    19.186633    7811.7347    8090.7596    6204.6428    5563.1114    475.12605    418.69261    439.39401    -4103.874 
26959000    129.37192   -5122.2093   -4863.4495   -5122.2093            0    6935.0036    17.953119    22.642135    19.178372    7795.9494    6631.2369    7738.9265    6434.8473   -232.39571    295.08235   -944.18923   -4074.9679 
26960000    132.04466   -5114.2435   -4850.1378   -5114.2435            0    7459.5436    17.757054    22.710099    19.233387    7756.1414    8969.7811    6787.5898    6621.2599    1001.5066   -54.594075    1652.8258   -4006.3488 
26961000    124.58731   -5111.2534   -4862.0634   -5111.2534            0     7103.192    17.909628    22.708959    19.144883    7786.3962    6106.1463    7026.9122    8176.5174    682.48562   -657.75401    543.15056   -4055.4491 
26962000    128.11738    -5118.797   -4862.5464    -5118.797            0    8118.7177    17.868573    22.691239    19.157736    7767.6969    7801.7992    8114.3383    8440.0157    589.58419   -39.621673    619.96763   -3942.8265 
26963000    123.11015   -5113.9552   -4867.7197   -5113.9552            0    7916.5796    17.862529    22.671561    19.244333    7793.4045    7858.3295    8030.8581    7860.5511    101.61418   -232.49074    1967.8889   -3967.9307 
26964000    126.40295    -5124.895   -4872.0735    -5124.895            0    7350.2523    17.921888    22.710902    19.162975     7799.757    8510.4371    7319.8973    6220.4227   -627.37835    192.38264   -242.61383   -4035.9716 
26965000    124.75867   -5139.3998    -4889.867   -5139.3998            0    8174.1467    17.878797    22.711039    19.122901    7764.7784    9726.7007    7022.9704     7772.769    1294.6314   -888.74029    649.76735   -3964.2158 
26966000     125.3485   -5125.4372   -4874.7247   -5125.4372            0    6043.0309    17.954943     22.66185    19.269352    7840.5496    5948.2109    5447.1837     6733.698   -426.62994   -240.90591    704.92788    -4183.726 
26967000    125.72663   -5136.3095   -4884.8408   -5136.3095            0    7643.3409    17.743029    22.778273    19.229085    7771.5418    8176.7813    8005.3337    6747.9076    1073.3184    226.86549   -752.86868   -4018.5448 
26968000    134.71264    -5125.185   -4855.7431    -5125.185            0    7139.6526    17.976533    22.464779    19.297336    7793.0136    7068.0817    7442.7348    6908.1412    262.97638   -486.34694   -37.594436   -4044.2994 
26969000     123.2943   -5112.5744   -4865.9706   -5112.5744            0    8259.4121    17.712812    22.818375    19.154688    7741.8955     8647.444    7570.1452     8560.647    700.68642    -252.2392   -186.81137   -3933.4202 
26970000    122.63158   -5123.6774   -4878.3991   -5123.6774            0    8761.7194    17.802825    22.578882    19.329083    7769.6702    9223.8271    8970.9634    8090.3678    123.63917   -469.51061   -1250.9244   -3885.5853 
26971000    131.84508   -5135.9643   -4872.2579   -5135.9643            0    7035.0346    17.892476    22.685771    19.187814    7788.4221    7615.5458    7428.4401     6061.118   -763.92598   -326.70503   -731.98102   -4073.1754 
26972000    127.86688   -5139.7513   -4884.0018   -5139.7513            0     7662.585    17.952819     22.66371    19.045873    7749.3367    5649.3863     8584.647    8753.7216    58.616797    485.01877   -538.79605   -4018.0061 
26973000    122.68551   -5128.5918   -4883.2057   -5128.5918            0    7466.4442    17.775961    22.881238    19.114159    7774.4165    6760.5846    7389.1968    8249.5513    154.97885     898.7024    1632.9538   -4036.6461 
26974000    126.89249   -5117.6532   -4863.8525   -5117.6532            0    7078.7591    17.945393    22.643624    19.212387     7806.929    7113.9279     7242.112    6880.2374    1215.8428    579.09921    465.42671    -4057.893 
26975000    122.16187   -5124.4027   -4880.0638   -5124.4027            0    6044.4618    17.904872    22.766956    19.213276     7832.089    6979.4128    6344.7983    4809.1743   -249.28675    15.643794    1190.6403   -4189.6474 
26976000    126.63454   -5121.4182   -4868.1335   -5121.4182            0    7220.1137    17.907971    22.625001    19.232994    7792.5914    7901.0326    6721.5173     7037.791   -33.816571    276.73301    603.73662   -4047.5895 
26977000    134.83766   -5104.5904   -4834.8984   -5104.5904            0    7877.8232    17.737662    22.873992    19.187284    7784.8781    7932.2193     6884.298    8816.9522    27.593267   -387.69552   -422.57116    -3940.494 
26978000    128.61256   -5115.7216   -4858.4805   -5115.7216            0    6729.4042    17.958665    22.641799     19.23136    7819.7878    6316.5038    6199.5269    7672.1819   -445.74627    -506.4407    563.43221   -4091.0352 
26979000    132.44168   -5122.9477    -4858.048   -5122.9477            0    6769.4329    17.893099     22.84642     19.09131    7804.3986     7688.599    6633.7665    5985.9331   -1086.9046    611.96977   -1046.1668   -4087.5569 
26980000    134.84922   -5115.6315   -4845.9164   -5115.6315            0    7108.2777    17.959774    22.605266    19.265825    7821.6452    7541.0149    7737.5251    6046.2931    275.56236   -203.16793     244.9572   -4035.0703 
26981000    131.25666    -5118.185   -4855.6555    -5118.185            0    5630.5199    17.906542    22.803212    19.209603    7843.7935    5638.5548    5718.8175    5534.1874   -511.26377     527.1103    1033.8444   -4211.5596 
26982000    133.15382   -5129.3013   -4862.9772   -5129.3013            0    8200.9841    17.856946    22.611517    19.257824    7775.7826    8218.3351    7618.3363    8766.2807   -1604.1562      210.738    -543.3635   -3932.9707 
26983000    124.98182   -5127.5891     -4877.61   -5127.5891            0     5129.396      17.8515    22.881652    19.143325    7819.5086    4967.9457    5114.0296    5306.2127   -302.12252     154.6875   -2511.0632   -4292.6562 
26984000    131.75912   -5119.2489   -4855.7144   -5119.2489            0    6908.0927    17.884985    22.693232    19.236788    7807.5988    5700.4649    8176.3133    6847.4998   -618.29033    305.10953   -972.16883   -4069.1187 
26985000    122.70535   -5126.6492   -4881.2233   -5126.6492            0    6080.1931    17.858204    22.757783    19.236528    7817.9777    7017.8241       6119.1    5103.6551    1730.6163    107.34843    1070.9687   -4187.9768 
26986000    128.38838   -5131.2983   -4874.5057   -5131.2983            0     6621.291    17.739274    22.921737    19.173215    7796.1162    8308.7084    5029.0378    6526.1268    185.77019   -317.34929    271.76439   -4121.6758 
26987000    121.68421   -5118.4902   -4875.1067   -5118.4902            0    5662.2048    17.993866    22.651102    19.221958     7834.503    5687.1838    5812.8004    5486.6304   -327.67857    31.471073   -652.38029   -4228.1534 
26988000    129.11829   -5112.8072   -4854.5547   -5112.8072            0    6675.2421    17.906609    22.835326    19.089296    7805.6755    6169.8615    6732.0782    7123.7865   -435.46924   -677.25223    826.98209     -4094.66 
26989000     131.8861   -5130.8499   -4867.0614   -5130.8499            0    6071.6287    17.886111    22.717471    19.243815    7819.2856    6456.7719    5454.6041    6303.5101    234.17516   -710.69389   -610.46952   -4174.6756 
26990000    131.34218   -5119.0218   -4856.3212   -5119.0218            0    7746.7262    17.898787    22.698465    19.152235     7781.074    7030.4065    8304.6214    7905.1507   -1353.6884    28.219696    603.86426   -3977.2306 
26991000    123.33926   -5123.2395   -4876.5457   -5123.2395            0    6728.6396    17.893697     22.72598    19.196051    7806.1086    6267.3793    7308.4575    6610.0821   -161.31469    609.66538   -799.15999   -4110.5299 
26992000    127.88864   -5131.6788   -4875.8857   -5131.6788            0    6536.8637    17.913606    22.716964    19.207888    7816.5108     6708.994    6421.5964    6480.0008   -205.36199    472.66599   -227.55617   -4130.7108 
26993000    135.27572   -5124.7119   -4854.1437   -5124.7119            0    7889.1704    17.760474    22.853458    19.176633    7783.5701    7993.4037    7284.7331    8389.3745    1177.6954   -475.11234    864.11434   -3958.6015 
26994000    135.71818   -5122.9724   -4851.5193   -5122.9724            0    8146.7558    17.856674    22.606281    19.217934    7757.7612    7269.6593    8424.1235    8746.4845   -2.7283514    157.82714    596.60468   -3929.8036 
26995000    134.99684   -5113.8646   -4843.8543   -5113.8646            0    7501.3618    17.623355    23.037651    19.146589    7773.5283    8095.0271    7530.4667    6878.5916   -1586.5662    298.43827    60.442446   -3993.4328 
26996000    124.85816   -5117.3729   -4867.6412   -5117.3729            0    6798.5442    17.956701    22.438641    19.363394    7801.9755    8065.1927     6843.009    5487.4309    353.37228    87.995208    -1424.694   -4094.0769 
26997000      130.275    -5132.162   -4871.5959    -5132.162            0    5360.2094    17.781885    22.902201    19.278244    7850.9549    6390.5036    4730.1489    4959.9757    1134.6325    393.12779    609.88863    -4257.862 
26998000    132.90484   -5123.1125   -4857.2864   -5123.1125            0    6571.4552    17.928027    22.602266    19.291049     7817.004    6332.0329    7274.3216    6108.0111    510.38718    330.79503    1781.6693   -4108.1209 
26999000    130.73183    -5133.327   -4871.8472    -5133.327            0    5790.2367    18.014844    22.769917    19.076686      7825.19    4853.9571    5944.0543    6572.6985   -1374.2741   -649.53452   -1022.2115   -4211.0517 
27000000    135.24472   -5119.3996   -4848.8935   -5119.3996            0    7051.6186    17.902828    22.750399    19.184042    7813.5927    5298.0765     7286.076    8570.7032   -15.671204    675.24711    436.46105   -4045.3387 
Loop time of 434.493 on 64 procs for 250000 steps with 1008 atoms

Performance: 99.426 ns/day, 0.241 hours/ns, 575.384 timesteps/s
194.7% CPU use with 32 MPI tasks x 2 OpenMP threads

MPI task timing breakdown:
Section |  min time  |  avg time  |  max time  |%varavg| %total
---------------------------------------------------------------
Pair    | 36.802     | 40.322     | 45.519     |  26.5 |  9.28
Bond    | 1.0242     | 1.2235     | 1.4748     |   8.6 |  0.28
Kspace  | 210.11     | 215.57     | 220.83     |  20.8 | 49.61
Neigh   | 1.3935     | 1.5173     | 1.6249     |   6.8 |  0.35
Comm    | 68.772     | 73.581     | 78.919     |  31.5 | 16.93
Output  | 0.54488    | 0.54529    | 0.54682    |   0.0 |  0.13
Modify  | 85.734     | 88.222     | 89.851     |   9.7 | 20.30
Other   |            | 13.52      |            |       |  3.11

Nlocal:        31.5000 ave          35 max          28 min
Histogram: 2 2 5 0 8 7 0 2 4 2
Nghost:        2939.28 ave        2965 max        2921 min
Histogram: 3 2 2 10 3 8 2 1 0 1
Neighs:        10692.4 ave       11940 max        9450 min
Histogram: 2 2 1 6 6 7 1 1 4 2

Total # of neighbors = 342157
Ave neighs/atom = 339.44147
Ave special neighs/atom = 2.0000000
Neighbor list builds = 3462
Dangerous builds = 0

unfix		3
unfix		2
unfix		1

write_data	data.final.${pid}
write_data	data.final.0
System init for write_data ...
PPPM initialization ...
  extracting TIP4P info from pair style
  using 12-bit tables for long-range coulomb (../kspace.cpp:340)
  G vector (1/distance) = 0.37908974
  grid = 24 27 32
  stencil order = 5
  estimated absolute RMS force accuracy = 0.0024915452
  estimated relative force accuracy = 7.5032144e-06
  using double precision FFTW3
  3d grid and FFT values/proc = 5355 672
Last active /omp style is kspace_style pppm/tip4p/omp
WARNING: Not all mixed pair coeffs generated from mixing. Use write_data with 'pair ij' option to store all pair coeffs. (../write_data.cpp:312)

write_restart   restart.lmp.${pid}
write_restart   restart.lmp.0
System init for write_restart ...
PPPM initialization ...
  extracting TIP4P info from pair style
  using 12-bit tables for long-range coulomb (../kspace.cpp:340)
  G vector (1/distance) = 0.37908974
  grid = 24 27 32
  stencil order = 5
  estimated absolute RMS force accuracy = 0.0024915452
  estimated relative force accuracy = 7.5032144e-06
  using double precision FFTW3
  3d grid and FFT values/proc = 5355 672
Last active /omp style is kspace_style pppm/tip4p/omp
Total wall time: 0:07:14
