LAMMPS (30 Jul 2021)
  using 1 OpenMP thread(s) per MPI task
package omp 0
using multi-threaded neighbor list subroutines
echo both

include		in.partitions
variable        pid world 0
include		in.temp
variable        temperature equal 248.71
variable	tempDamp equal 100.0
include		in.pressure
variable        pressure equal 7750.0
variable        pressureDamp equal 1000.0 # This is 1 ps
include		in.seed
variable        seed world 745823

units		real
atom_style	full
read_restart	restart.lmp.${pid}
read_restart	restart.lmp.0
Reading restart file ...
  restart file = 30 Jul 2021, LAMMPS = 30 Jul 2021
  restoring atom style full from restart
  orthogonal box = (0.55829283 1.7491265 0.68111595) to (17.649280 21.880051 21.532080)
  4 by 4 by 4 MPI processor grid
  restoring pair style lj/cut/tip4p/long/omp from restart
  restoring bond style harmonic/omp from restart
  restoring angle style harmonic/omp from restart
  864 atoms
  576 bonds
  288 angles
Finding 1-2 1-3 1-4 neighbors ...
  special bond factors lj:    0        0        0       
  special bond factors coul:  0        0        0       
     2 = max # of 1-2 neighbors
     1 = max # of 1-3 neighbors
     1 = max # of 1-4 neighbors
     2 = max # of special neighbors
  special bonds CPU = 1.320 seconds
  read_restart CPU = 1.657 seconds
include 	in.setup
variable	out_freq equal 1000
variable	out_freq2 equal 10000
variable	out_freq3 equal 1000

timestep	2.0

neigh_modify    delay 7 every 1

include		in.tip4p
# This is TIP4P/Ice

# create groups ###
group ox type 2
288 atoms in group ox
group hy type 1
576 atoms in group hy

# set charges - beside manually ###
set group ox charge -1.1794
Setting atom values ...
  288 settings made for charge
set group hy charge 0.5897
Setting atom values ...
  576 settings made for charge

# ### TIP3P Potential Parameters ###
pair_style lj/cut/tip4p/long/omp 2 1 1 1 0.1577 8.5
pair_coeff 1 1*2 0.000 0.000
pair_coeff 2 2 0.21084 3.1668
bond_style  harmonic
bond_coeff  1 450 0.9572
angle_style harmonic
angle_coeff 1 55 104.52
kspace_style pppm/tip4p/omp 1.0e-5
pair_modify tail yes

thermo          ${out_freq}
thermo          1000
thermo_style    custom step temp pe etotal epair emol press lx ly lz vol pxx pyy pzz pxy pxz pyz enthalpy

restart 	${out_freq3} restart.lmp.${pid} restart2.lmp.${pid}
restart 	1000 restart.lmp.${pid} restart2.lmp.${pid}
restart 	1000 restart.lmp.0 restart2.lmp.${pid}
restart 	1000 restart.lmp.0 restart2.lmp.0


include         in.dump
dump            myDump all atom ${out_freq2} dump.water.${pid}
dump            myDump all atom 10000 dump.water.${pid}
dump            myDump all atom 10000 dump.water.0
dump            myDump2 all dcd ${out_freq2} dump.dcd
dump            myDump2 all dcd 10000 dump.dcd
dump_modify     myDump append yes
dump_modify     myDump2 append yes


variable natoms 	equal  "count(all)"                        # NUMBER ATOMS
variable H      	equal  "enthalpy/v_natoms"                 # ENTHALPY-per-atom
variable Vol      	equal  "vol/v_natoms"                 # volume-per-atom
fix AVG all 		ave/time ${out_freq} 1 ${out_freq} v_Vol v_H file vol_enthalpy.dat
fix AVG all 		ave/time 1000 1 ${out_freq} v_Vol v_H file vol_enthalpy.dat
fix AVG all 		ave/time 1000 1 1000 v_Vol v_H file vol_enthalpy.dat


timer           timeout 23:50:00 every 1000
New timer settings: style=normal  mode=nosync  timeout=23:50:00

fix 		1 all shake 1e-6 200 0 b 1 a 1
       0 = # of size 2 clusters
       0 = # of size 3 clusters
       0 = # of size 4 clusters
     288 = # of frozen angles
  find clusters CPU = 0.358 seconds
fix             2 all nph iso ${pressure} ${pressure} ${pressureDamp}
fix             2 all nph iso 7750 ${pressure} ${pressureDamp}
fix             2 all nph iso 7750 7750 ${pressureDamp}
fix             2 all nph iso 7750 7750 1000
fix             3 all temp/csvr ${temperature} ${temperature} ${tempDamp} ${seed}
fix             3 all temp/csvr 248.71 ${temperature} ${tempDamp} ${seed}
fix             3 all temp/csvr 248.71 248.71 ${tempDamp} ${seed}
fix             3 all temp/csvr 248.71 248.71 100 ${seed}
fix             3 all temp/csvr 248.71 248.71 100 745823

run             250000
PPPM initialization ...
  extracting TIP4P info from pair style
  using 12-bit tables for long-range coulomb (../kspace.cpp:340)
  G vector (1/distance) = 0.37369914
  grid = 24 24 24
  stencil order = 5
  estimated absolute RMS force accuracy = 0.0032257749
  estimated relative force accuracy = 9.7143252e-06
  using double precision FFTW3
  3d grid and FFT values/proc = 2535 216
Last active /omp style is kspace_style pppm/tip4p/omp
Neighbor list info ...
  update every 1 steps, delay 7 steps, check yes
  max neighbors/atom: 2000, page size: 100000
  master list distance cutoff = 10.8154
  ghost atom cutoff = 10.8154
  binsize = 5.4077, bins = 4 4 4
  1 neighbor lists, perpetual/occasional/extra = 1 0 0
  (1) pair lj/cut/tip4p/long/omp, perpetual
      attributes: half, newton on, omp
      pair build: half/bin/newton/omp
      stencil: half/bin/3d
      bin: standard
Per MPI rank memory allocation (min/avg/max) = 9.236 | 9.238 | 9.242 Mbytes
Step Temp PotEng TotEng E_pair E_mol Press Lx Ly Lz Volume Pxx Pyy Pzz Pxy Pxz Pyz Enthalpy 
27500000    248.47049    -3883.919   -3458.0491    -3883.919            0    5829.6805    17.090987    20.130925    20.850964    7173.9278    6943.2888    4550.8988    5994.8541    1011.8482    1451.7818    324.02022   -2848.1224 
27501000    245.98366   -3894.0414   -3472.4339   -3894.0414            0    7994.8979    16.969547    19.987885    20.702808    7022.0896    6745.9585    8834.6123     8404.123    286.31545    43.881265   -546.37048   -2653.6766 
27502000     247.0339   -3928.1489   -3504.7413   -3928.1489            0     4600.578    17.057281    20.091224    20.809843    7131.5678    5535.3586    3147.6872    5118.6883   -1043.5455    446.05573   -159.97059   -3026.2508 
27503000    255.16228   -3926.2805   -3488.9411   -3926.2805            0    7163.4712    17.036124    20.066303    20.784031    7105.0631    6625.2003    8927.8969    5937.3165    832.26514    -453.4271   -152.74519   -2746.6618 
27504000     239.3022   -3937.8996   -3527.7439   -3937.8996            0     7525.821    17.030788    20.060019    20.777521    7098.3892    5827.7356    8095.6482    8654.0791   -1075.7197   -1506.3824    1107.2275   -2748.6504 
27505000    242.70572   -3900.9792   -3484.9899   -3900.9792            0    6170.1528    17.098295    20.139533    20.859879    7183.1341    6934.3441    7177.5545    4398.5598    958.00227     817.3594    581.53931   -2838.6131 
27506000    255.13379   -3891.4683   -3454.1777   -3891.4683            0    8024.8334    17.057993    20.092063    20.810712    7132.4612    8678.5118    5681.9515     9714.037   -9.6955984   -1074.3672   -924.55126   -2619.4375 
27507000    238.59068   -3891.8618   -3482.9255   -3891.8618            0    9121.3493    17.011643    20.037468    20.754164     7074.477    8935.4848     7961.157    10467.406   -208.77765    1314.9477    292.31531   -2541.8395 
27508000    251.25277   -3897.3264   -3466.6877   -3897.3264            0    5921.8283    17.068071    20.103933    20.823007    7145.1098    5778.4805    7378.2126    4608.7918   -930.63684   -120.21959   -687.40164   -2849.6089 
27509000    257.00161   -3898.8302   -3458.3383   -3898.8302            0    8149.6907    17.037013    20.067351    20.785116    7106.1756    9522.5744    7192.4026    7734.0951    843.06477     920.7576   -883.02265   -2613.7346 
27510000    251.14337   -3913.0944   -3482.6432   -3913.0944            0    6739.2471    17.116957    20.161515    20.882648    7206.6808    6136.1172     7215.823     6865.801    403.01606   -305.83219    508.60759   -2774.3345 
27511000    249.50048   -3910.0016   -3482.3663   -3910.0016            0     6795.855    17.088912    20.128481    20.848432    7171.3152    6464.5344    6804.8615    7118.1689   -712.53032   -88.398231   -1043.7872   -2771.6132 
27512000    266.85107   -3896.0423   -3438.6687   -3896.0423            0    8349.1358    17.014942    20.041354    20.758189    7078.5936    10296.272    7511.3869    7239.7485   -938.42043   -276.32371    791.50853   -2576.7538 
27513000    260.14442   -3923.1107   -3477.2321   -3923.1107            0     8694.984    17.054701    20.088185    20.806695    7128.3317    8042.4128    8191.4543     9851.085   -1456.3297    2062.3151   -811.89266   -2573.3067 
27514000    232.39955   -3899.6076   -3501.2827   -3899.6076            0     9050.173    16.987431     20.00895    20.724626    7044.3142    8774.0897    10046.439    8329.9907   -890.52921   -339.26257    993.29091   -2571.5214 
27515000    247.14133   -3901.2247   -3477.6329   -3901.2247            0    6904.4669    17.008219    20.033435    20.749987    7070.2065    6908.8848    7443.0208    6361.4951    -306.4925    417.53065   -2629.0833   -2765.7016 
27516000    250.80466   -3923.9741   -3494.1035   -3923.9741            0    9085.7499     17.03384    20.063613    20.781245    7102.2058    10672.433    9309.7422    7275.0746   -31.057819   -1312.4714    978.57238   -2553.0162 
27517000    243.72393   -3913.0755   -3495.3411   -3913.0755            0    8425.3135    16.977798    19.997604    20.712874    7032.3374    9710.5094    8092.0494    7473.3817     1270.018   -243.61516    106.78796   -2631.2457 
27518000    246.05954    -3951.937   -3530.1994    -3951.937            0    6530.8235     17.01848    20.045522    20.762506    7083.0112      8581.03     6177.605    4833.8354    549.89122   -294.32884    1446.4647   -2855.5754 
27519000    251.59534   -3924.7953   -3493.5695   -3924.7953            0    8258.1146    16.992636    20.015081    20.730976    7050.7913    9544.1566     7500.741    7729.4462    1555.4512    724.45786    -159.8103   -2644.3995 
27520000    240.68394   -3928.4498   -3515.9258   -3928.4498            0    6415.5107    17.014548     20.04089    20.757709    7078.1026    7952.8172    4811.1576    6482.5573    849.21477    427.31212      7.49133   -2853.6727 
27521000    242.53468   -3940.3137   -3524.6175   -3940.3137            0     10357.68    17.011178     20.03692    20.753597    7073.8972    11074.552    9231.3712    10767.116    346.42403    -1220.949    761.01949    -2456.062 
27522000    254.49383   -3930.7067    -3494.513   -3930.7067            0    8053.7339    17.067786    20.103597    20.822659    7144.7515     9650.725    6091.3693    8419.1075   -971.09822    425.04186    150.05541    -2655.323 
27523000    246.43894   -3943.2696   -3520.8817   -3943.2696            0    7852.7939    17.022159    20.049855    20.766994    7087.6051    7579.5022    8329.6834     7649.196    1100.2775    215.08373     112.8469   -2709.1741 
27524000    261.42686   -3893.1018   -3445.0251   -3893.1018            0    6030.6496    17.023197    20.051078    20.768261    7088.9023    5066.0445    7485.2882    5540.6163   -682.28295     1236.453   -514.09355   -2821.5502 
27525000    241.07641    -3910.472   -3497.2753    -3910.472            0    6957.8793    16.998724    20.022252    20.738404    7058.3722    7501.5891    7470.3785    5901.6704    1126.6329   -1538.7765    541.38279   -2781.0374 
27526000    255.49418   -3899.2381   -3461.3298   -3899.2381            0    8586.4077    16.981631    20.002119    20.717551    7037.1015    7856.5396    10199.654    7703.0296   -1031.6723    61.698116    330.25467   -2580.1162 
27527000     255.7407   -3914.3691   -3476.0383   -3914.3691            0     6219.698    17.045088    20.076862    20.794967    7116.2845    5075.7389     8232.418    5350.9372   -804.27371    126.10699     996.4947    -2830.535 
27528000    240.74692   -3913.1747   -3500.5427   -3913.1747            0    8242.6703    17.024898    20.053082    20.770336    7091.0277    8860.6148    8220.4023    7646.9937    752.43945     1530.057   -313.02696   -2648.1239 
27529000     244.8917   -3940.3202   -3520.5842   -3940.3202            0    8420.5918    16.985914    20.007163    20.722775    7042.4269    10305.488    6653.1617    8303.1259   -474.07037   -667.08906   -361.41754   -2655.7341 
27530000      244.806   -3880.0735   -3460.4844   -3880.0735            0    7466.6137    17.015821     20.04239    20.759262    7079.6912    9996.7946    5716.9603    6686.0862    707.49476    675.12343   -639.14437   -2689.5563 
27531000    250.60468   -3897.0597   -3467.5318   -3897.0597            0    7795.5085     17.03822    20.068773    20.786589    7107.6867     8346.758    7248.2396     7791.528   -755.67448   -987.98372   -393.22793   -2659.4625 
27532000    251.00416   -3903.9655    -3473.753   -3903.9655            0    7444.2868    17.003841    20.028279    20.744646    7064.7485    7554.5437    7593.8447    7184.4721    733.29108   -400.78628    40.395003   -2706.7524 
27533000    249.65101   -3888.6759   -3460.7826   -3888.6759            0    8014.3225    16.982553    20.003204    20.718675    7038.2471    9318.4367    7348.6821    7375.8488   -1738.6239      1238.16    576.39392   -2638.1476 
27534000    250.24939   -3931.8904   -3502.9716   -3931.8904            0    9607.9171    16.940998    19.954258    20.667978    6986.7072    9483.8867    9035.1422    10304.723   -448.85077   -277.31734   -39.798582   -2523.9829 
27535000    237.49272   -3928.3208   -3521.2664   -3928.3208            0     8383.271    16.946575    19.960827    20.674782    6993.6104    8831.9181    7903.3463    8414.5486    1536.7917    1110.8577    39.158167   -2666.2178 
27536000     241.5883   -3903.1811    -3489.107   -3903.1811            0    7688.0606    16.955161     19.97094    20.685257     7004.245    7704.0543    7187.4392    8172.6883   -552.91793    835.49742   -1839.9689   -2703.7737 
27537000    245.11178   -3890.4972    -3470.384   -3890.4972            0    7629.9069    16.985817    20.007049    20.722657    7042.3067    7393.5694    8685.3056    6810.8457    171.85778    477.27634   -371.78638   -2686.7558 
27538000    259.04536   -3921.3595   -3477.3646   -3921.3595            0    8334.8221    17.006488    20.031397    20.747876    7068.0483    7274.5597    8833.4536     8896.453    447.57558    194.87419    641.91938   -2618.2092 
27539000    246.01875   -3907.2628   -3485.5951   -3907.2628            0    6436.2076    17.055329    20.088925    20.807461    7129.1194    6563.8302     6048.686    6696.1065    718.97551     114.1835   -1085.2597   -2816.4168 
27540000    243.86646   -3927.6291   -3509.6503   -3927.6291            0    8380.8396    17.030301    20.059445    20.776927      7097.78    7164.6117    7160.8936    10817.013    401.37469   -173.78412   -110.98043   -2642.1174 
27541000     234.8234   -3914.2787   -3511.7994   -3914.2787            0    8297.0793    17.000928    20.024848    20.741092     7061.118    7950.4552     10461.88    6478.9029    1923.4731    890.78143   -514.01801   -2657.3731 
27542000     251.3017   -3910.7455    -3480.023   -3910.7455            0    10320.764    16.960928    19.977733    20.692293    7011.3951    8790.7975    11448.113    10723.382    1400.8825   -68.033839    1312.1364   -2424.6835 
27543000    239.49584   -3891.9092   -3481.4216   -3891.9092            0    6399.8314    17.043042    20.074452    20.792471    7113.7227    7843.9819    4451.6967    6903.8157    658.57588     850.2784   -143.64834   -2817.4624 
27544000    246.82676   -3910.5991   -3487.5465   -3910.5991            0    7520.7044    17.025999    20.054378    20.771679    7092.4033    6668.9273    9272.2609     6620.925    1214.8845    -754.0313   -800.57681   -2709.6392 
27545000    239.50592   -3950.6523   -3540.1473   -3950.6523            0    7141.4422    16.974753    19.994017    20.709159    7028.5542    5874.8656    7185.5925    8363.8684   -403.37189   -480.37336   -1784.4803   -2808.1191 
27546000    250.99496   -3922.0251   -3491.8283   -3922.0251            0    7656.4171    16.993217    20.015765    20.731685    7051.5145     6326.646    8261.0004     8381.605   -625.37583    1093.2887   -315.08533   -2704.4492 
27547000     247.3559   -3946.5731   -3522.6136   -3946.5731            0    8803.8892    16.982707    20.003386    20.718863     7038.439    7411.7355    8997.6782    10002.254   -254.94001   -967.64083   -845.63149   -2618.9083 
27548000    248.04109   -3911.7767   -3486.6428   -3911.7767            0    9083.0665      16.9902    20.012211    20.728004     7047.759     10317.56    9342.5388    7589.1011    1583.1082     593.2134    -654.4024   -2553.0458 
27549000    256.57706   -3924.0123    -3484.248   -3924.0123            0    9600.1829    16.948455    19.963041    20.677075    6995.9372    9279.1588    9255.3244    10266.066    2705.5264   -1540.5479   -347.42416    -2504.755 
27550000     252.1578   -3944.3905   -3512.2006   -3944.3905            0    6981.2873    17.065454     20.10085    20.819814    7141.8235    6951.0012     7787.409    6205.4515   -542.48033    -430.6759   -518.19476   -2785.0565 
27551000    245.33716   -3891.7575    -3471.258   -3891.7575            0     7251.167    16.996907    20.020111    20.736186    7056.1084    7370.4342    7754.4348    6628.6318    1.4679425    101.72854   -77.622066   -2725.0686 
27552000    249.01698   -3928.8333   -3502.0267   -3928.8333            0    8016.9425    16.943509    19.957216    20.671042    6989.8151    8844.2465    7863.1974    7343.3834   -614.89488   -76.702596   -1084.3966   -2684.7854 
27553000    253.66001   -3954.6309   -3519.8663   -3954.6309            0    7807.0515    16.983643    20.004489    20.720005    7039.6032    6130.3286    9750.9954    7539.8305    492.63499    168.33909   -390.92284   -2718.3523 
27554000    245.90644   -3903.3623   -3481.8871   -3903.3623            0    8249.7217    16.939951    19.953024      20.6667    6985.4119    5726.0096    10625.742    8397.4129   -205.19111    20.815246   -136.47814   -2641.4461 
27555000    258.65065   -3966.1614   -3522.8431   -3966.1614            0    8733.3367    16.930734    19.942169    20.655456    6974.0166     8622.102     9634.493     7943.415    453.86828    380.57332   -608.27464   -2634.5852 
27556000    253.59633   -3909.4861   -3474.8307   -3909.4861            0    6890.2519    16.979353    19.999435    20.714771    7034.2699    7013.7337    7709.8677    5947.1543   -366.68135    146.27379    63.474684   -2767.9762 
27557000    240.74213    -3928.057   -3515.4332    -3928.057            0    5632.9965    17.018362    20.045382    20.762362    7082.8633    6238.0681    5162.2656    5498.6558   -454.30942    324.03483   -333.61448   -2933.5655 
27558000    246.31382   -3916.1098   -3493.9364   -3916.1098            0    6748.8547    16.969544    19.987882    20.702804    7022.0857    6686.0482    6525.6474    7034.8685     41.08521   -1345.1115   -200.00932   -2802.7867 
27559000    244.18991   -3894.7979   -3476.2647   -3894.7979            0    7653.7244    16.949619    19.964412    20.678496    6997.3794    5958.8152    8492.8302    8509.5278   -283.46339   -197.17505    2283.3739   -2695.2052 
27560000    236.27103   -3931.2164    -3526.256   -3931.2164            0    5932.2892    16.975101    19.994427    20.709584    7028.9865    5946.4358    5901.9707    5948.4611   -459.85784   -82.271196     307.6647   -2918.1337 
27561000    245.68811   -3892.2504   -3471.1494   -3892.2504            0    8658.5144    16.916458    19.925353     20.63804      6956.39    7999.1876     10352.64    7623.7156   -744.11191    102.44979   -253.66593   -2592.7274 
27562000    250.79252    -3895.031   -3465.1812    -3895.031            0    7266.3256    16.924643    19.934993    20.648024    6966.4914     7690.466    8143.7569     5964.754   -146.44011   -1090.8004   -988.66339   -2726.9288 
27563000    259.93666   -3870.4391   -3424.9166   -3870.4391            0    8697.0299     16.91004    19.917793    20.630209    6948.4746     9324.161    8560.8944    8206.0344   -375.16399    2143.0085    313.32313   -2543.5911 
27564000     244.0409   -3890.0965   -3471.8187   -3890.0965            0    8097.9514    16.958646    19.975045    20.689508    7008.5648    7326.4396      8512.47    8454.9446    56.107515    220.81026    950.71651    -2644.105 
27565000    245.36615   -3920.7213   -3500.1721   -3920.7213            0    6234.3434     16.95034    19.965262    20.679376    6998.2728    7311.4108    4784.3267    6607.2927    567.47336    125.61403    119.13693   -2863.8786 
27566000    261.79046   -3899.8155   -3451.1157   -3899.8155            0    7074.2868     17.01673    20.043461    20.760371    7080.8264    7301.0471    6375.6896    7546.1237   -1065.8999    673.49362   -834.31713   -2720.5782 
27567000    236.57439   -3906.2632   -3500.7828   -3906.2632            0    4778.5819    17.073689    20.110551    20.829861     7152.168    4793.7788    4420.0841    5121.8828   -144.49269   -93.182344   -121.49531   -3002.3431 
27568000    244.29447   -3888.8488   -3470.1365   -3888.8488            0    8504.0826    16.924746    19.935116    20.648151    6966.6196     8494.877    7096.5974    9920.7734   -739.52498     711.3706    259.65598   -2606.1132 
27569000    235.06336   -3906.0328   -3503.1422   -3906.0328            0    8353.7036     17.00253    20.026735    20.743047    7063.1147     9005.305    7726.2801    8329.5258    528.87279   -308.79232    638.96717   -2642.6415 
27570000    253.60215   -3909.3752   -3474.7098   -3909.3752            0    7086.2455    17.041232    20.072321    20.790264     7111.457     5152.721    5420.4985    10685.517    -130.4173    480.02274    1245.0871   -2739.7719 
27571000    242.87299   -3892.7075   -3476.4315   -3892.7075            0    7686.2807    17.003498    20.027875    20.744228    7064.3207     9704.147    5087.8091    8266.8859    1992.7482    537.50957    332.50294   -2684.5458 
27572000    266.06043   -3888.0492   -3432.0307   -3888.0492            0    7043.3904    17.034331    20.064192    20.781844    7102.8204    7166.0081    6707.9673    7256.1958    308.16277    338.30171     1185.494   -2702.4246 
27573000    232.59193   -3914.9584   -3516.3038   -3914.9584            0    9877.1446    16.955253    19.971049     20.68537    7004.3598     10082.42    7974.4854    11574.529   -146.52532   -10.710644    910.33413   -2507.3397 
27574000    257.11795   -3945.4192   -3504.7278   -3945.4192            0     9324.818    16.960038    19.976684    20.691207    7010.2911     7574.312    10150.329    10249.813   -1079.1541   -1756.2946   -1133.3592   -2551.3779 
27575000    250.66313   -3942.8293   -3513.2013   -3942.8293            0    8515.2076    16.975602    19.995017    20.710195    7029.6089    8916.9175    7989.1764    8639.5289    61.059723    1100.4316    1361.8286   -2640.2253 
27576000    244.55439    -3929.749   -3510.5911    -3929.749            0    9045.0068    16.982432    20.003061    20.718527    7038.0967    10893.562    8184.0265     8057.432   -991.10489   -341.76159    -80.43673   -2582.1807 
27577000    246.60581   -3942.1989    -3519.525   -3942.1989            0    7206.3617     16.99695    20.020162    20.736239    7056.1625    8626.8355    6563.6309    6428.6188   -768.98569   -1285.7153   -324.09522   -2777.9407 
27578000    257.01429   -3889.7363   -3449.2226   -3889.7363            0    7456.1216    16.977704    19.997493     20.71276    7032.2207    9289.8644    6142.2892    6936.2112   -247.91042    1277.9152    15.103017   -2684.5397 
27579000    254.63519   -3947.2656   -3510.8296   -3947.2656            0    8422.0438    16.957166    19.973301    20.687702    7006.7297    11026.816     7538.716    6700.5998    -17.81083    171.46898    1421.6827   -2650.2149 
27580000    263.41646   -3926.5673   -3475.0805   -3926.5673            0    7710.4392    16.956193    19.972156    20.686516    7005.5249    7284.4807    8659.3718    7187.4652    711.98648   -607.99766    862.56163   -2687.3173 
27581000    252.00766   -3951.9987   -3520.0662   -3951.9987            0    6459.7313    16.990139     20.01214     20.72793     7047.684    7961.6285     5333.245    6084.3205    322.37398    -538.9851    617.22507    -2856.114 
27582000    241.19802   -3942.8707   -3529.4656   -3942.8707            0    9117.2602    16.973767    19.992856    20.707956    7027.3294    9193.7609    8602.0295    9555.9904    908.70169    1044.9285   -594.09404   -2595.0705 
27583000     243.2529   -3955.3323   -3538.4051   -3955.3323            0    8592.2874    16.935488    19.947768    20.661256    6979.8931    8877.1678    7976.3806    8923.3139    1096.8356    1317.8813     1150.662   -2663.7568 
27584000     260.0834   -3928.2704   -3482.4963   -3928.2704            0    5842.9737    17.023835    20.051829    20.769039    7089.6988    6512.2396    4789.9277    6226.7538    924.30552     240.9995    388.93341   -2878.3563 
27585000    241.36146   -3913.8768   -3500.1915   -3913.8768            0    9176.2148    16.929262    19.940434     20.65366    6972.1972    8351.5592    8224.1898    10952.895    103.57422    1635.7693    766.58759   -2567.1324 
27586000    244.29007   -3931.0417   -3512.3369   -3931.0417            0     7672.508    16.960048    19.976696    20.691219    7010.3032     6654.386    7521.8824    8841.2557   -1277.9872   -193.74044    1019.5524   -2727.9144 
27587000    237.54216   -3939.3603   -3532.2211   -3939.3603            0    8940.6592     16.91582    19.924601    20.637261    6955.6021    7938.9951     8811.091    10071.892    778.12499   -816.33697   -1059.4759   -2625.2778 
27588000    248.17845   -3907.0285   -3481.6591   -3907.0285            0    9737.9226    16.936042     19.94842    20.661932    6980.5776    10233.173    11011.729    7968.8659    2035.6797   -157.76938    303.73816   -2490.2942 
27589000    251.02589   -3968.5424   -3538.2926   -3968.5424            0    8367.3792    16.911771    19.919832    20.632321    6950.6085    8669.2149    7961.3674    8471.5552   -1636.7984    1953.7368    1090.9605   -2690.1124 
27590000    248.20736   -3942.4606   -3517.0416   -3942.4606            0    7771.3221    16.991649    20.013918    20.729772    7049.5621    5847.6164    8245.5874    9220.7626   -557.65871   -1061.0596    333.46343   -2718.0671 
27591000    236.18288   -3945.9793   -3541.1699   -3945.9793            0    8176.6008    16.963207    19.980417    20.695072     7014.221    10066.934    7053.8099    7409.0587    1164.2791   -510.49136   -790.35395   -2704.7428 
27592000    254.16889   -3940.2563   -3504.6195   -3940.2563            0    9660.3873    16.937321    19.949927    20.663492    6982.1591    9179.8447    10795.193    9006.1237    2001.6046    1029.0948   -666.68473   -2520.9252 
27593000    244.63773   -3965.3327    -3546.032   -3965.3327            0    7728.3162    17.016328    20.042987    20.759881    7080.3244    7841.6646    7447.0848    7896.1991   -167.71632   -872.55576    2290.7213   -2748.0117 
27594000    255.97524   -3965.9384   -3527.2056   -3965.9384            0     7935.803    16.968095    19.986174    20.701036    7020.2864    6589.0118    9080.9569    8137.4402    1177.2138   -685.04157    242.90961   -2714.7089 
27595000    242.68394   -3951.3592   -3535.4072   -3951.3592            0      6816.79    16.942178    19.955647    20.669417    6988.1672    5826.1714    7104.3544    7519.8442     988.8087    114.35577    1308.5128   -2840.6723 
27596000    259.31005    -3933.415   -3488.9665    -3933.415            0    7688.7749    16.976524    19.996103    20.711319    7030.7538    6940.4751     8349.006    7776.8435    1099.5437   -618.72863    7.7887495   -2700.5877 
27597000    257.16027   -3954.8404   -3514.0765   -3954.8404            0    7582.5111    16.967954    19.986009    20.700864    7020.1118    7584.0262    7543.1134    7620.3937    197.74381    645.91376   -1302.5433   -2737.7705 
27598000    241.60865   -3975.1346   -3561.0257   -3975.1346            0    7344.6451    17.019145    20.046305    20.763317    7083.8409    7706.2894    7488.1169    6839.5291    -2195.791    1135.7305   -481.62091   -2802.2463 
27599000    256.14059   -3965.6459   -3526.6297   -3965.6459            0    6079.0472    17.008385    20.033631     20.75019     7070.414    7012.8553    6624.0773    4600.2091   -979.00287   -801.38335    485.23321   -2899.7904 
27600000    247.70848   -3974.8234   -3550.2596   -3974.8234            0    7266.6892    16.968541      19.9867     20.70158    7020.8399    6889.9881    7363.8143    7546.2653   -1008.0895    -458.1867     1034.972   -2806.2106 
27601000    240.78402   -3965.6673   -3552.9717   -3965.6673            0    7286.1264    17.012628    20.038629    20.755367    7075.7068    9175.6011     7735.525     4947.253    302.09291   -834.54313     414.6552   -2801.1023 
27602000    255.55598   -3947.7886   -3509.7744   -3947.7886            0    6197.1867    17.017003    20.043782    20.760704    7081.1667    7170.1632    7288.9114    4132.4856   -1775.1079   -33.557162    1268.1958   -2869.7813 
27603000    242.16578   -3903.6124   -3488.5485   -3903.6124            0    9227.6731    16.946974    19.961297    20.675269    6994.1042    9726.1672    8100.0798    9856.7722   -328.80635    91.458437    1230.6003   -2547.3089 
27604000    240.54249   -3900.7012   -3488.4196   -3900.7012            0    8983.2283    16.969331     19.98763    20.702544    7021.8207    8818.8128     8405.863    9725.0092     981.2284   -912.91307    -1434.045   -2568.4826 
27605000    260.56082   -3927.3655   -3480.7731   -3927.3655            0    5637.2635    17.013057    20.039134     20.75589    7076.2414    3094.5059    8161.1838    5656.1008   -1394.1008     1636.524    673.20192   -2899.0091 
27606000    240.76868   -3935.8425   -3523.1732   -3935.8425            0    6023.9004    17.026848    20.055378    20.772715    7093.4639    4952.4103     6251.082    6868.2088    1073.2963    534.28953   -578.19348   -2899.9953 
27607000    241.95382   -3918.8224   -3504.1219   -3918.8224            0    7499.9793    16.994273    20.017009    20.732974    7052.8295    8098.7854    7888.5025    6512.6501    1588.4395   -196.35931   -894.26921   -2732.6869 
27608000    251.97213   -3915.2767   -3483.4051   -3915.2767            0    6985.8902    17.020614    20.048035     20.76511    7085.6759    6472.1574      8605.88    5879.6332   -888.16335   -1181.4202    1713.6226    -2761.502 
27609000    249.36048   -3906.5541   -3479.1588   -3906.5541            0    7185.5407    17.012851    20.038892    20.755639    7075.9851    6973.9588    8290.1665     6292.497    45.917905    2029.7315    496.08336   -2737.6398 
27610000    249.59727   -3897.2607   -3469.4595   -3897.2607            0    5867.7621    17.094087    20.134577    20.854746    7177.8325    5394.3235    6265.1912    5943.7714    135.70407    -696.4844    1290.0857   -2855.2144 
27611000    254.14779   -3889.4435   -3453.8429   -3889.4435            0    8237.1042    17.003629    20.028028    20.744387    7064.4836    7096.9469    8261.9775    9352.3883    825.89318    76.226966    139.20817   -2605.1885 
27612000    259.76879   -3912.9083   -3467.6735   -3912.9083            0     7930.621    17.044693    20.076397    20.794486    7115.7903    9773.0639    7287.9973    6730.8019   -402.79685   -52.285999   -293.59788   -2644.6614 
27613000    241.04255   -3894.6526   -3481.5139   -3894.6526            0    8026.3857    17.034835    20.064786    20.782459     7103.451    8964.0981     7595.031    7520.0279   -125.53219    1047.6711    151.06982    -2650.008 
27614000    261.07597   -3894.6213    -3447.146   -3894.6213            0     8471.756    17.016993     20.04377    20.760692    7081.1545    7441.6997    9012.0846    8961.4838    588.30596   -920.84937    1321.1077   -2572.2561 
27615000    246.58515   -3885.7213   -3463.0828   -3885.7213            0    7986.2207    17.017155    20.043961     20.76089     7081.357    7582.8256    7944.8342    8431.0024    -863.3413   -258.96288    259.66612   -2638.3112 
27616000    238.81253   -3925.7079   -3516.3914   -3925.7079            0    6114.3498    17.033088    20.062728    20.780328    7101.2658    4757.4613     5391.698      8193.89    1478.5957   -1447.9621    135.24868   -2883.1608 
27617000    243.97709   -3941.7258   -3523.5575   -3941.7258            0     6906.522    17.038165    20.068708    20.786522    7107.6177    4936.8835    8566.1862    7216.4964    2273.2947   -1811.3103    1000.6365   -2807.6459 
27618000     242.7641   -3935.7215   -3519.6321   -3935.7215            0    8266.2881    16.984684    20.005714    20.721275    7040.8971    7638.1043    7889.1096    9271.6506     96.08022   -843.88311   -521.02435   -2670.8144 
27619000    249.59604   -3908.3795   -3480.5805   -3908.3795            0    8549.7481    16.972711    19.991611    20.706668    7026.0175    6316.9351    10335.073    8997.2362    530.11835    263.46794    113.32581   -2604.5112 
27620000    241.55933   -3915.2364    -3501.212   -3915.2364            0    5753.3836    17.040301    20.071223    20.789127    7110.2905    4233.2962     7558.897    5467.9574   -715.13288   -2005.1518    525.62275   -2904.6074 
27621000    253.49541   -3924.8464   -3490.3639   -3924.8464            0    9252.6859    16.867671    19.867888    20.578519    6896.3763    11006.689    9148.6466    7602.7217   -409.56563    443.68086   -1149.6087   -2559.7605 
27622000     263.0916   -3925.3207   -3474.3907   -3925.3207            0    7947.9746    16.963915    19.981252    20.695937    7015.1003    7794.7062    7792.1609    8257.0567    128.62863    1041.8224   -1545.7145    -2661.249 
27623000    231.70762   -3930.1631   -3533.0242   -3930.1631            0    8004.9056    16.939268    19.952221    20.665868    6984.5679    7421.9561    7699.4023    8893.3583    201.12998    1248.4306    1369.8936   -2717.6224 
27624000    261.52078   -3940.7825   -3492.5448   -3940.7825            0    7027.6877    16.970157    19.988604    20.703552    7022.8467    6630.7565    6686.2189    7766.0876    485.74967    188.09777   -89.032194   -2772.7619 
27625000    257.06692   -3898.4778   -3457.8738   -3898.4778            0    8143.2042    16.990299    20.012328    20.728125    7047.8821    7489.5087    9397.3691    7542.7348   -206.45201    -1669.734    359.31416   -2620.8654 
27626000    261.48108   -3946.1959   -3498.0263   -3946.1959            0      7119.41    16.970528     19.98904    20.704005    7023.3071    6307.5083    9146.6811    5904.0406    680.97506   -589.66313   -1732.0259   -2768.8013 
27627000    252.90398    -3909.218   -3475.7492    -3909.218            0    9155.4954    16.877064    19.878952    20.589979    6907.9038    11349.372    7775.8874    8341.2264    185.00419   -56.136517   -426.15159   -2553.3816 
27628000     252.8634   -3932.4497   -3499.0505   -3932.4497            0    7590.6341    16.955217    19.971006    20.685325    7004.3147    6927.3192     6791.516    9053.0671    218.29696   -304.02499   -144.82062   -2723.6615 
27629000    252.60584   -3905.6609   -3472.7031   -3905.6609            0    7554.3691    16.994784     20.01761    20.733596     7053.465    9443.7411    4856.5184    8362.8477   -26.312098   -350.92878    94.416537   -2695.6037 
27630000    239.76724   -3949.6944   -3538.7416   -3949.6944            0    10088.453    16.887522    19.891271    20.602738    6920.7539    8625.2391    10371.064    11269.057   -1860.9967   -2135.1756     95.72115   -2520.4928 
27631000    241.56355   -3942.5097   -3528.4781   -3942.5097            0    6846.2292    16.991071    20.013238    20.729067    7048.8436    8670.3779    5639.3592    6228.9505   -649.60619    -294.7257    56.812776   -2824.6847 
27632000    260.01757   -3920.6865   -3475.0253   -3920.6865            0    8382.1831    16.978751    19.998725    20.714036    7033.5208    8621.6012    9849.3192     6675.629     982.5794   -435.22915    957.51624   -2615.2088 
27633000    248.29036   -3947.1557   -3521.5945   -3947.1557            0    6241.3334    16.991783    20.014076    20.729936    7049.7297    5954.1241    6141.3012    6628.5748   -148.01853    76.951024   -218.73643   -2879.9038 
27634000    235.87379   -3935.9389   -3531.6593   -3935.9389            0     6699.361    17.022317    20.050041    20.767187    7087.8021    7934.3075    4013.9949    8149.7806   -773.63697   -312.83525    877.93368   -2839.1576 
27635000    237.46171   -3956.4563   -3549.4551   -3956.4563            0    7084.1625    17.021381    20.048939    20.766045    7086.6335    7267.3019     6526.256    7458.9296    139.62406   -875.70708   -77.028089   -2817.2978 
27636000    250.02555    -3933.979   -3505.4438    -3933.979            0    5376.9306    17.075336    20.112491    20.831871    7154.2382    4112.1924    5934.6553    6083.9439     1026.931   -1814.5701     -264.762   -2944.4297 
27637000    248.95143   -3933.0745   -3506.3803   -3933.0745            0    6891.9575    17.018591    20.045652    20.762641    7083.1494    8357.9312    6117.8851    6200.0563    349.48011    556.10562    774.32471   -2794.4379 
27638000    240.35543   -3882.7929    -3470.832   -3882.7929            0    8682.2842    17.017391    20.044239    20.761177    7081.6512    9567.5156    9755.1029     6724.234    1382.9764   -1014.0514    483.74506   -2574.1376 
27639000    226.96426   -3923.1701   -3534.1612   -3923.1701            0    7657.7426    17.045496    20.077343    20.795465    7116.7962    6406.9913     7022.403    9543.8335   -162.31612    319.92993   -324.83259   -2739.3551 
27640000    251.43248   -3907.7573   -3476.8107   -3907.7573            0    6313.6971    17.041978    20.073199    20.791173    7112.3905    5061.5665    7669.9525    6209.5722   -610.94396    1355.1104   -169.09038   -2821.9103 
27641000     241.8894   -3936.7434   -3522.1532   -3936.7434            0    7151.3325    16.976229    19.995755     20.71096    7030.3876    7339.1781    8606.3262    5508.4931   -170.85268    551.71978   -615.33104     -2788.92 
27642000    240.38367   -3911.3011   -3499.2917   -3911.3011            0    8062.4233    16.947418     19.96182     20.67581    6994.6537    7548.8675    8641.7548    7996.6474   -375.18139    330.37385   -527.22494   -2676.8451 
27643000    246.01446   -3931.0175   -3509.3572   -3931.0175            0    8765.5323    16.962493    19.979576    20.694202    7013.3359    7910.2296    7759.9309    10626.436   -50.088177    589.22572   -1040.8447   -2612.7983 
27644000    244.43495     -3941.59   -3522.6369     -3941.59            0    5801.7816    17.045666    20.077543    20.795673    7117.0089    6288.8311    4630.7871    6485.7267   -173.78607    407.07326   -2148.9564   -2920.4452 
27645000    258.94253   -3913.2224   -3469.4037   -3913.2224            0    8516.7048    17.029894    20.058966    20.776431    7097.2718    7428.4939    8573.7099    9547.9107   -425.60487    332.33256   -704.03019     -2587.87 
27646000    243.22999   -3908.0437   -3491.1558   -3908.0437            0    8916.7041    16.943711    19.957453    20.671287    6990.0642     8601.773    9171.5125     8976.827    1827.9732    175.61979    736.28535    -2582.161 
27647000    240.36929   -3925.8535   -3513.8687   -3925.8535            0    8010.0369    16.973406     19.99243    20.707516    7026.8808     9555.792    6358.0313    8116.2873    1553.1209    343.21309    969.55949   -2693.0014 
27648000    241.92709   -3959.9591   -3545.3043   -3959.9591            0    7187.3171    17.012702    20.038715    20.755456    7075.7985    8173.8139     6715.256    6672.8814    902.53078    1291.6139   -273.41973   -2803.6216 
27649000    269.47276   -3924.3284   -3462.4614   -3924.3284            0    7736.6697    17.040655    20.071641     20.78956    7110.7346     7923.079    7360.9445    7925.9857    551.35936    732.98306   -590.87718   -2660.1473 
27650000    243.15637   -3926.0615   -3509.2998   -3926.0615            0    7323.6524    17.063451    20.098492    20.817371    7139.3098    6174.6547    8206.0632    7590.2392     1176.078    303.72854   -656.77149   -2746.7647 
27651000    252.58661   -3928.1673   -3495.2425   -3928.1673            0    6221.3385    17.033132     20.06278    20.780381    7101.3207    6027.3827     5788.714    6847.9189    471.85121   -1089.5869   -329.01521   -2850.9266 
27652000    241.48231   -3947.0027   -3533.1103   -3947.0027            0     8241.592    16.992889    20.015379    20.731285    7051.1061    7606.6979    8096.8033    9021.2749   -1586.2408   -502.13156    578.85847   -2685.6014 
27653000    251.27407    -3921.309   -3490.6339    -3921.309            0    6250.9706    17.038044    20.068566    20.786374    7107.4666    6212.7709    6756.9684    5783.1725    568.17762   -698.97727    333.61217   -2842.6888 
27654000    239.48221   -3934.8145   -3524.3502   -3934.8145            0    9382.2297    16.997718    20.021066    20.737176     7057.119    10965.479    6983.3037    10197.906    -1655.904   -1166.1663     287.4112   -2558.7232 
27655000    234.31541   -3914.0959   -3512.4873   -3914.0959            0    8859.1646    17.022966    20.050805    20.767979    7088.6132     10390.82    7911.3605    8275.3136   -1811.1567   -696.68941   -905.39731   -2596.6255 
27656000    228.43837   -3935.5464   -3544.0109   -3935.5464            0    7939.4251    17.006894    20.031874     20.74837    7068.5538    6962.4611    8176.1429    8679.6714   -585.78062    321.98562    55.647428   -2725.5546 
27657000    244.07629     -3915.18   -3496.8416     -3915.18            0    7576.7489    16.976365    19.995915    20.711126    7030.5564    6975.4733    7712.2274     8042.546   -233.77781   -1777.8741   -213.95365   -2719.9713 
27658000    244.54312   -3913.5826    -3494.444   -3913.5826            0    7549.5385    16.961074    19.977905    20.692471    7011.5757    7643.9636    7892.6907     7111.961  0.052353222    -614.3276   -177.78668   -2722.4536 
27659000     245.1521   -3919.6983    -3499.516   -3919.6983            0    7552.1924     16.97196    19.990727    20.705751    7025.0846    8728.4297    6010.7705    7917.3768    -1084.317   -316.07261   -1579.1207   -2725.7663 
27660000    254.54846   -3902.1061   -3465.8188   -3902.1061            0    7334.5937    17.010764    20.036433    20.753093    7073.3811    6531.8765    7768.5181    7703.3863    546.49921   -1495.7679    900.25295   -2709.1967 
27661000    239.04458   -3937.2144   -3527.5002   -3937.2144            0    8620.2253     16.98825    20.009914    20.725625    7045.3327    6041.0301     8310.904    11508.742    6.7857606    763.34755   -614.52667    -2641.781 
27662000    247.72923   -3938.9859   -3514.3865   -3938.9859            0    6651.1026    16.990549    20.012622     20.72843    7048.1931    7620.6172    7358.1003    4974.5905   -1024.9623   -1053.9143    -504.9103   -2830.7153 
27663000    251.21165   -3917.6583   -3487.0901   -3917.6583            0    8988.5571    16.981683     20.00218    20.717614    7037.1658    7575.9352     10802.68    8587.0567   -5.0556648   -1828.9464    -1270.274   -2564.5959 
27664000    241.06372   -3918.4352   -3505.2602   -3918.4352            0    6942.0002    17.027705    20.056387     20.77376    7094.5352    7173.9064     6011.736    7640.3582    521.00541    1088.6734    741.74701   -2786.9956 
27665000    248.59459   -3920.4484   -3494.3658   -3920.4484            0    6230.2509    17.048478    20.080856    20.799104    7120.5322    5547.4281     7977.473    5165.8516   -1326.0764    264.21147    67.802922   -2847.3813 
27666000    250.63685   -3884.4978   -3454.9148   -3884.4978            0    9198.0676     17.01933    20.046523    20.763543    7084.0723    8007.5706     11555.56    8031.0717   -689.45846    2283.4913    205.38833   -2504.6263 
27667000    243.00282   -3946.4596   -3529.9611   -3946.4596            0     7633.037    17.020059    20.047382    20.764433    7084.9827    7423.3825    6957.8973    8517.8312     -1329.57    1452.9671   -1547.4401   -2741.2607 
27668000    261.05131   -3916.2799   -3468.8469   -3916.2799            0    8374.9322    16.973788     19.99288    20.707982    7027.3552    6701.3948    8996.5108    9426.8909    81.391369    2523.3951    1910.8092   -2610.5272 
27669000    267.65454   -3935.1648   -3476.4141   -3935.1648            0    7450.9305    16.998334    20.021792    20.737927     7057.886    4921.1573    9013.0146    8418.6196    611.94378    949.51626    295.70593   -2709.4747 
27670000    244.04313   -3918.2849   -3500.0033   -3918.2849            0    8654.3102    16.962617    19.979722    20.694353    7013.4893    8570.6574    9281.7459    8110.5274    -139.2378    431.90195     831.0258   -2614.8011 
27671000    241.91016   -3925.8976   -3511.2719   -3925.8976            0    7322.7923    17.002069    20.026191    20.742484    7062.5394    7962.1381    6015.2011    7991.0376   -1229.8915   -467.11607    816.34299    -2757.025 
27672000    240.94589   -3915.1328   -3502.1598   -3915.1328            0    8813.3778    16.958894    19.975337    20.689812    7008.8731    9895.6131    8166.2054    8378.3148   -2762.4276   -1511.2633    1693.9596   -2601.2808 
27673000    234.93496   -3912.9127   -3510.2423   -3912.9127            0    7832.3506    16.962815    19.979955    20.694594    7013.7348     6877.085    8467.4267    8152.5401   -223.42928    749.73542   -402.16401   -2709.0858 
27674000    242.87557   -3919.8846   -3503.6042   -3919.8846            0    7779.4182    17.011449     20.03724    20.753928    7074.2351    8152.1355    7219.2408    7966.8784    875.81106    -989.0415    163.86833    -2700.998 
27675000    254.71558   -3917.9256   -3481.3519   -3917.9256            0    8197.4774    17.013074    20.039154    20.755911     7076.263     8787.547    7597.1188    8207.7664   -367.15726    893.19811   -229.97408   -2635.3719 
27676000    238.73384   -3923.8732   -3514.6916   -3923.8732            0    7536.3284    16.972836    19.991759     20.70682    7026.1731    7852.5971    6102.1352    8654.2529    1689.2736    1576.1958   -983.10022   -2742.4476 
27677000    259.25381   -3928.2826   -3483.9304   -3928.2826            0    7852.3498    17.021288    20.048829    20.765931    7086.5169    7321.8394    10692.052    5543.1578    16.598058   -528.40741   -243.30287   -2672.3934 
27678000    245.75469   -3903.4414   -3482.2263   -3903.4414            0    6205.7907    17.031254    20.060568    20.778091    7098.9726    4820.6751    6507.4539    7289.2431      1807.09    308.07557    770.50958   -2839.7331 
27679000    229.39339   -3906.3347   -3513.1623   -3906.3347            0    6027.4208    17.037127    20.067485    20.785255    7106.3182    4884.9751    6354.1355    6843.1519    686.15068   -937.88383    672.60428   -2888.4902 
27680000        241.7   -3925.6336   -3511.3681   -3925.6336            0    6491.8588    17.060811    20.095382    20.814149    7135.9959    5959.2392    6049.9617    7466.3756    321.48177    719.21003    345.88818   -2835.7527 
27681000     254.9656   -3947.5151   -3510.5128   -3947.5151            0    7844.6579    17.021913    20.049565    20.766694    7087.2979    10200.043    7524.8291    5809.1013   -158.53891     538.8062   -2838.7036   -2699.6813 
27682000    254.90276   -3919.8856    -3482.991   -3919.8856            0    7683.2062    17.028106    20.056859    20.774249    7095.0359    7764.6426    8213.1258    7071.8501    570.87984    -662.5385    1803.3105   -2687.9803 
27683000    244.79464   -3939.1052   -3519.5355   -3939.1052            0    8145.0142    16.963082     19.98027    20.694921    7014.0665    7146.4607    9805.4671    7483.1149   -0.3480148     1009.836   -70.048404   -2686.3579 
27684000     242.3303   -3950.3319   -3534.9861   -3950.3319            0    5941.9029     17.02008    20.047407    20.764458    7085.0091    4625.2079    5992.9122    7207.5887    88.473189   -194.44425    149.59328   -2921.0236 
27685000    244.34123   -3906.3802   -3487.5877   -3906.3802            0    7443.6898     17.02699    20.055545    20.772888    7093.6417    8767.2755    6519.6504    7044.1437    1254.6671   -118.79839   -1905.6163    -2717.512 
27686000    252.63877   -3894.0219   -3461.0077   -3894.0219            0    8820.9816    16.943616    19.957341    20.671172     6989.947    10202.805    7753.1859    8506.9539   -832.82871   -561.14235   -148.29584   -2561.7862 
27687000     240.2835   -3910.6727    -3498.835   -3910.6727            0    7980.3758    17.014918    20.041326     20.75816    7078.5641    6717.5057    9385.1874    7838.4343    260.94693   -648.36812    202.93737   -2674.9921 
27688000    263.44315   -3926.4126   -3474.8801   -3926.4126            0    7925.6815    16.995799    20.018806    20.734835    7054.7293     9276.697    7053.7341    7446.6135    613.99998    960.82329      -69.529   -2659.4385 
27689000    243.86515   -3943.5657   -3525.5892   -3943.5657            0    7778.1631    16.998786    20.022325     20.73848    7058.4499    6793.6947    9111.9905    7428.8039    1759.2464    185.09854   -106.58389   -2724.9031 
27690000    261.41268   -3898.4421   -3450.3897   -3898.4421            0    9551.8739    16.931286    19.942819     20.65613    6974.6989    8356.4698    10228.014    10071.138    724.05274   -181.25827   -276.16694   -2478.7843 
27691000    248.24835   -3921.1091   -3495.6199   -3921.1091            0    7710.6618    17.011588    20.037404    20.754098    7074.4094    8763.3131    7235.6141    7133.0581    -205.4456    1413.4588   -625.91632   -2700.0878 
27692000    248.13443   -3925.2619    -3499.968   -3925.2619            0    6757.5632    17.017403    20.044253    20.761192    7081.6661    6161.9413    5224.6047    8886.1436   -686.49556    895.46638    144.24361   -2802.0547 
27693000    235.42162   -3902.5559   -3499.0513   -3902.5559            0    7377.6041    16.991023    20.013181    20.729009     7048.784    6182.4808    6654.9589    9295.3726   -522.64883    573.02406   -1498.4365   -2740.6389 
27694000    248.81837   -3894.3255   -3467.8594   -3894.3255            0    8754.9937    16.942455    19.955974    20.669755    6988.5101    8384.5713    8504.4214    9375.9885     1083.679    39.042477    368.95978   -2575.5482 
27695000    252.40943   -3934.0865   -3501.4654   -3934.0865            0    8070.5058    16.971259    19.989901    20.704896    7024.2141    9141.1152    7479.1161    7591.2861   -1622.1965   -1032.9753    773.79373    -2674.715 
27696000    241.74307   -3900.7181   -3486.3788   -3900.7181            0    6229.0357    16.992044    20.014383    20.730253    7050.0538    6422.6877    5759.9397    6504.4797    236.05829   -355.01917   -498.63085    -2845.923 
27697000    235.52769   -3885.7765   -3482.0901   -3885.7765            0    7208.9304    16.942994    19.956609    20.670413    6989.1773    7218.7217    6749.7382    7658.3313   -1519.4023   -653.21346   -84.331762   -2747.2839 
27698000    254.18109    -3906.393   -3470.7353    -3906.393            0    7568.4727    16.937796    19.950487    20.664072    6982.7468    9420.5433    7508.0234    5776.8514    434.93157     415.4116    310.87496   -2699.9908 
27699000    257.16218   -3922.1934   -3481.4263   -3922.1934            0     7271.058    16.992503    20.014924    20.730814    7050.6259    6984.1647    7511.3491    7317.6602    238.23497    1197.3622    -801.1596   -2733.7714 
27700000    249.53174   -3893.1619   -3465.4731   -3893.1619            0    7526.3826    16.947854    19.962333    20.676342    6995.1934    7554.9626    9405.2752    5618.9099      345.332   -648.86221    1246.1891   -2697.6487 
27701000    257.45999   -3919.0716    -3477.794   -3919.0716            0    9056.6394    16.966996     19.98488    20.699695    7018.9225    9572.8682    9502.4845    8094.5656    384.95399   -87.172105    303.79535   -2550.7221 
27702000    241.51093   -3883.8512   -3469.9098   -3883.8512            0       7075.8    17.028988    20.057898    20.775325    7096.1383    7296.7476    7793.7224    6136.9301      796.855    827.79617    1619.2419   -2737.6359 
27703000    247.64323   -3927.3685   -3502.9165   -3927.3685            0    8014.0951    17.053531    20.086807    20.805269    7126.8656    8781.6314    7292.4242    7968.2296   -225.78407   -1950.6146   -270.99945   -2669.9472 
27704000    238.61006   -3920.2271   -3511.2576   -3920.2271            0    6923.5534    17.057577    20.091573    20.810204    7131.9389    8346.4129    5669.6151    6754.6323   -219.04383    941.43237    97.615606   -2791.1249 
27705000    244.19885   -3927.8617   -3509.3132   -3927.8617            0    6762.2829     17.04375    20.075286    20.793335    7114.6092    7538.6342    5231.1541    7517.0604    2104.7411    953.88596   -1235.1551   -2807.6636 
27706000    241.31335   -3906.2897   -3492.6869   -3906.2897            0    8127.1957    16.984629    20.005649    20.721208    7040.8288    6534.2014    8083.9274    9763.4583    708.64759    1298.3822   -1316.8955   -2658.1599 
27707000    234.17819   -3895.6045   -3494.2311   -3895.6045            0    7463.8845    17.079136    20.116966    20.836506    7159.0149    8401.6417    6047.1568    7942.8549   -166.09323   -1312.9361    280.88338   -2714.9501 
27708000    247.53326   -3901.6893   -3477.4258   -3901.6893            0    7721.0694    17.071548    20.108029    20.827249     7149.478    7108.9151    8058.3484    7995.9448    1609.3689   -156.47643    1018.7738   -2672.3668 
27709000    237.67801   -3896.7536   -3489.3816   -3896.7536            0    7334.9142    17.050569    20.083318    20.801655    7123.1524     5533.894    7726.6682    8744.1805    806.78724    113.28399    1262.6847   -2727.4023 
27710000    252.12431   -3894.3217   -3462.1893   -3894.3217            0    8086.4166     17.02265    20.050433    20.767593    7088.2179    9088.8505    7671.8949    7498.5046    669.39585    115.42233    1662.8822   -2626.2609 
27711000    252.80479   -3926.2327    -3492.934   -3926.2327            0    7483.5135    17.039463    20.070237    20.788106    7109.2426     7784.538    8112.0932    6553.9094    1388.2427    1493.5156    2015.0073   -2717.0357 
27712000    251.50891   -3928.5108   -3497.4331   -3928.5108            0    8770.7208    17.070252    20.106502    20.825667    7147.8491    9263.4884    7718.2354    9330.4386    767.55015    1667.9462   -449.26431   -2583.1377 
27713000    260.26297   -3916.4623   -3470.3805   -3916.4623            0    7752.6342    16.988685    20.010427    20.726156     7045.874    6089.9401    8762.7712    8405.1913   -933.06286   -79.897893    492.31146   -2673.7443 
27714000    238.11863   -3889.9038   -3481.7766   -3889.9038            0    6925.7568    17.032328    20.061832      20.7794    7100.3146    6827.8539    7741.5072    6207.9093   -226.49192    439.48972   -428.54996   -2764.6089 
27715000    232.96495   -3946.5384   -3547.2445   -3946.5384            0    7279.6132    17.014997    20.041419    20.758257    7078.6633    7013.5063    7904.6589    6920.6743   -417.80662     103.5574     227.8389   -2795.7333 
27716000    248.20082   -3933.1156   -3507.7079   -3933.1156            0    7641.3937    17.054941    20.088468    20.806988    7128.6332    6222.1486    7464.5147    9237.5178    1107.8299    22.953743   -265.97368   -2713.2795 
27717000    246.47036   -3947.6125   -3525.1707   -3947.6125            0    7397.4537    17.013518    20.039677    20.756453    7076.8173    8153.3209    7038.4928    7000.5475   -537.28308   -2148.8337   -1101.0741   -2761.6934 
27718000    249.18954   -3899.0563   -3471.9539   -3899.0563            0    5986.9571    17.045908    20.077828    20.795968    7117.3117    4632.9977    7343.3694    5984.5042    931.57048    1300.3866   -898.29277   -2850.5156 
27719000    252.48764   -3896.4539   -3463.6987   -3896.4539            0    8543.3139    17.001433    20.025443    20.741709    7061.7475    8347.5117    9343.5736    7938.8566    2236.0913    -1122.598   -414.64051   -2583.8369 
27720000    242.75298   -3936.2213    -3520.151   -3936.2213            0    7033.8668    17.013808    20.040018    20.756806    7077.1788    7908.3706    6132.7789    7060.4508   -36.708908   -461.00018    746.02822   -2794.1617 
27721000    239.23469   -3896.2585   -3486.2184   -3896.2585            0    6572.4141    17.040437    20.071384    20.789293    7110.4613      7474.98    6258.3466    5983.9157    430.52249    614.75833   -889.04124   -2804.6671 
27722000    233.40506   -3911.4057   -3511.3574   -3911.4057            0    6969.2263    17.069987     20.10619    20.825344    7147.5164    6460.9023    7887.1751    6559.6016   -1054.1626   -150.45566    644.91529   -2784.8909 
27723000       234.26   -3918.7046    -3517.191   -3918.7046            0    6635.0019    17.053712    20.087021    20.805489    7127.0925    7180.6991    7399.3849    5324.9216   -430.13052   -1.3191192   -325.01346   -2827.5401 
27724000    246.95567   -3904.2728   -3480.9993   -3904.2728            0     7044.686    17.038799    20.069455    20.787295    7108.4113    7293.2476    8481.5901    5359.2203   -1857.5668    1436.6487   -49.591462   -2750.6845 
27725000    256.72605   -3944.6836   -3504.6639   -3944.6836            0    7314.8165    16.999586    20.023266    20.739455    7059.4456    6644.6521    7687.8468    7611.9504   -441.09888   -766.96667   -691.53922   -2751.5686 
27726000     256.6752   -3910.3565   -3470.4239   -3910.3565            0    9699.8454    16.943333    19.957009    20.670827    6989.5973    9748.1985    9547.3168    9804.0209    540.39757    865.64866   -1500.0592   -2481.6595 
27727000    257.23146   -3861.5851   -3420.6992   -3861.5851            0     9438.415    16.946021    19.960174    20.674106    6992.9238     8683.261    10220.081    9411.9033    1145.8657     2249.561    -1795.509    -2458.126 
27728000    251.23954   -3887.8138   -3457.1978   -3887.8138            0    7944.6064    16.985431    20.006594    20.722186    7041.8261    8284.9915    7718.6639    7830.1639    932.85301    585.08598    410.00747   -2641.3041 
27729000    240.59105   -3867.5241   -3455.1592   -3867.5241            0    6485.7205    17.078516    20.116236     20.83575    7158.2359    8169.7131    6662.2073    4625.2411   -2281.6103    137.96769   -456.09033    -2778.079 
27730000    256.02255   -3892.4245   -3453.6106   -3892.4245            0    5575.8794    17.092324      20.1325    20.852595    7175.6117    5503.0089    5548.3327    5676.2964    1095.4295   -1823.8576   -216.43026   -2870.1008 
27731000    257.07203    -3900.162   -3459.5494    -3900.162            0    9677.0354    17.005679    20.030444    20.746889    7067.0399    11487.582    8275.6859     9267.838    129.83363   -1466.9037   -1.1957058   -2462.1806 
27732000    253.22495   -3902.4126   -3468.3937   -3902.4126            0    8651.6313    17.026571    20.055052    20.772377    7093.1183    7948.5188    8355.4188    9650.9562    589.77464    1502.9573   -575.28126   -2573.4183 
27733000    239.04639   -3891.2711   -3481.5538   -3891.2711            0    8016.2769    17.042965    20.074362    20.792378    7113.6266     9593.643    6909.6327     7545.555   -1640.3951    356.97283     452.3906   -2649.9056 
27734000     266.0018   -3916.0402   -3460.1222   -3916.0402            0    7185.7644    16.988885    20.010662    20.726399    7046.1224    7212.1622    7469.8691    6875.2619   -1065.2145    1081.1157   -851.37761   -2721.7097 
27735000    252.36341   -3936.2199   -3503.6776   -3936.2199            0    7437.9992     16.92658    19.937276    20.650389    6968.8846    7761.0802    7474.8075    7078.1099    919.82393   -303.40787   -1650.9669   -2747.7237 
27736000    249.27849   -3912.2025   -3484.9477   -3912.2025            0    8406.8279    17.006703    20.031649    20.748138     7068.316    8252.6563    8634.9505    8332.8771    1442.7528   -486.94819    1633.3005    -2618.337 
27737000    231.39701   -3888.0455   -3491.4389   -3888.0455            0    6972.3718     17.06626    20.101801    20.820798    7142.8363    7803.8929    7182.3582    5930.8642   -61.610459   -564.62062    984.51046   -2765.1204 
27738000    258.98261   -3914.4351   -3470.5478   -3914.4351            0    7642.0107    17.049346    20.081878    20.800163    7121.6197    8863.6314    7007.3642    7055.0365     459.7334    2743.3932    739.10411    -2676.837 
27739000     240.9145   -3901.4987   -3488.5795   -3901.4987            0    8971.8421    17.019748    20.047015    20.764053    7084.5939    8949.0643    9352.8949     8613.567   -595.75817   -457.99394   -766.21135    -2561.595 
27740000    257.51115   -3917.6153     -3476.25   -3917.6153            0    7756.2015    16.932073    19.943745    20.657089    6975.6708    8275.4334    7876.3716    7116.7995    215.03002    1264.8572    656.32984   -2687.1883 
27741000    254.33889   -3935.0274   -3499.0993   -3935.0274            0    6498.7399    17.036076    20.066247    20.783973    7105.0035    8409.7565     4955.102    6131.3612    147.03237    886.88131    549.94849   -2825.7051 
27742000    260.27109   -3915.7076   -3469.6119   -3915.7076            0    6882.6615     17.03759     20.06803     20.78582    7106.8977    6326.7184    6846.5091    7474.7571    133.64147    429.32227   -660.52286   -2756.2459 
27743000    258.65961   -3912.0552   -3468.7215   -3912.0552            0    8081.4445    17.047468    20.079666    20.797872    7119.2668    8530.4526    8232.8751    7481.0058    323.98082    -540.1615   -797.56943   -2629.6477 
27744000    256.55053   -3884.0103   -3444.2915   -3884.0103            0    9014.1115    16.952007    19.967225    20.681409    7000.3373    9391.6447    8040.3068     9610.383    1056.3327    1653.6102   -475.81765   -2524.0162 
27745000    256.79016   -3861.8409   -3421.7113   -3861.8409            0     9265.883    16.958342    19.974687    20.689138    7008.1884    10037.384    9028.2929    8731.9725     1506.354    1262.8745    1582.6427    -2474.671 
27746000    248.75244   -3877.0767   -3450.7235   -3877.0767            0    6091.7533    16.997208    20.020465    20.736554    7056.4834    7224.3304    4465.7019    6585.2275   -1199.7102    355.03499   -144.93992   -2823.8116 
27747000    243.39881   -3920.4582   -3503.2809   -3920.4582            0    6640.8491    16.997513    20.020825    20.736926    7056.8641      4954.45    7143.6921    7824.4054   -578.07296    -508.5951    638.84925   -2819.8238 
27748000    243.52787   -3868.8215   -3451.4231   -3868.8215            0    7664.5912    16.974891    19.994179    20.709327    7028.7252     6724.159    7741.7024    8527.9123    1175.2453    499.93819   -1873.7183   -2665.7508 
27749000    242.55041   -3903.1987   -3487.4756   -3903.1987            0    8696.8942    16.951675    19.966834    20.681004    6999.9259    8321.4556    7241.7466     10527.48    1449.4879    2033.6668   -670.57485    -2599.638 
27750000    263.42468   -3900.8799    -3449.379   -3900.8799            0    8460.6376    17.010145    20.035704    20.752338    7072.6094    8316.3488    8508.0212    8557.5428   -1253.9644   -2700.7294    540.30487   -2576.6917 
Loop time of 480.642 on 64 procs for 250000 steps with 864 atoms

Performance: 89.880 ns/day, 0.267 hours/ns, 520.137 timesteps/s
99.0% CPU use with 64 MPI tasks x 1 OpenMP threads

MPI task timing breakdown:
Section |  min time  |  avg time  |  max time  |%varavg| %total
---------------------------------------------------------------
Pair    | 21.172     | 26.697     | 31.772     |  47.4 |  5.55
Bond    | 0.27448    | 0.28336    | 0.29732    |   1.0 |  0.06
Kspace  | 211.78     | 219.18     | 228.68     |  29.9 | 45.60
Neigh   | 5.0135     | 5.72       | 6.549      |  18.1 |  1.19
Comm    | 97.519     | 108.71     | 119.7      |  47.0 | 22.62
Output  | 0.97684    | 0.97968    | 0.98845    |   0.1 |  0.20
Modify  | 111.05     | 113.9      | 118.78     |  22.2 | 23.70
Other   |            | 5.17       |            |       |  1.08

Nlocal:        13.5000 ave          19 max          10 min
Histogram: 4 6 14 6 17 8 1 7 0 1
Nghost:        2255.75 ave        2297 max        2211 min
Histogram: 2 1 7 8 8 15 11 7 2 3
Neighs:        4366.66 ave        6353 max        2772 min
Histogram: 4 4 6 11 14 13 8 2 1 1

Total # of neighbors = 279466
Ave neighs/atom = 323.45602
Ave special neighs/atom = 2.0000000
Neighbor list builds = 12604
Dangerous builds = 0

unfix		3
unfix		2
unfix		1

write_data	data.final.${pid}
write_data	data.final.0
System init for write_data ...
PPPM initialization ...
  extracting TIP4P info from pair style
  using 12-bit tables for long-range coulomb (../kspace.cpp:340)
  G vector (1/distance) = 0.37409087
  grid = 24 24 24
  stencil order = 5
  estimated absolute RMS force accuracy = 0.0031805375
  estimated relative force accuracy = 9.5780942e-06
  using double precision FFTW3
  3d grid and FFT values/proc = 2535 216
Last active /omp style is kspace_style pppm/tip4p/omp
WARNING: Not all mixed pair coeffs generated from mixing. Use write_data with 'pair ij' option to store all pair coeffs. (../write_data.cpp:312)

write_restart   restart.lmp.${pid}
write_restart   restart.lmp.0
System init for write_restart ...
PPPM initialization ...
  extracting TIP4P info from pair style
  using 12-bit tables for long-range coulomb (../kspace.cpp:340)
  G vector (1/distance) = 0.37409087
  grid = 24 24 24
  stencil order = 5
  estimated absolute RMS force accuracy = 0.0031805375
  estimated relative force accuracy = 9.5780942e-06
  using double precision FFTW3
  3d grid and FFT values/proc = 2535 216
Last active /omp style is kspace_style pppm/tip4p/omp
Total wall time: 0:08:03
