#include		in.partitions
include		in.temp
variable        temperature equal 0.49
variable	tempDamp equal 100.0
include		in.pressure
variable        pressure equal 9178.3
variable        pressureDamp equal 1000.0 # This is 1 ps
include		in.seed
variable        seed equal 745823

units		real
atom_style	full
box tilt large
read_restart	restart.lmp.${pid}
read_restart	restart.lmp.0
Reading restart file ...
  restart file = 30 Jul 2021, LAMMPS = 30 Jul 2021
  restoring atom style full from restart
  triclinic box = (-10.480404 -9.0527585 0.29675037) to (12.460404 12.042757 21.563249) with tilt (-9.0908507 1.7476693 2.6697746)
  2 by 4 by 4 MPI processor grid
  restoring pair style lj/cut/tip4p/long/omp from restart
  restoring bond style harmonic/omp from restart
  restoring angle style harmonic/omp from restart
  1296 atoms
  864 bonds
  432 angles
Finding 1-2 1-3 1-4 neighbors ...
  special bond factors lj:    0        0        0       
  special bond factors coul:  0        0        0       
     2 = max # of 1-2 neighbors
     1 = max # of 1-3 neighbors
     1 = max # of 1-4 neighbors
     2 = max # of special neighbors
  special bonds CPU = 0.003 seconds
  read_restart CPU = 0.010 seconds
include 	in.setup
variable	out_freq equal 1000
variable	out_freq2 equal 10000
variable	out_freq3 equal 1000

timestep	2.0

neigh_modify    delay 7 every 1

include		in.tip4p
# This is TIP4P/Ice

# create groups ###
group ox type 2
432 atoms in group ox
group hy type 1
864 atoms in group hy

# set charges - beside manually ###
set group ox charge -1.1794
Setting atom values ...
  432 settings made for charge
set group hy charge 0.5897
Setting atom values ...
  864 settings made for charge

# ### TIP3P Potential Parameters ###
pair_style lj/cut/tip4p/long/omp 2 1 1 1 0.1577 8.5
pair_coeff 1 1*2 0.000 0.000
pair_coeff 2 2 0.21084 3.1668
bond_style  harmonic
bond_coeff  1 450 0.9572
angle_style harmonic
angle_coeff 1 55 104.52
kspace_style pppm/tip4p/omp 1.0e-5
pair_modify tail yes

thermo          ${out_freq}
thermo          1000
thermo_style    custom step temp pe etotal epair emol press lx ly lz vol pxx pyy pzz pxy pxz pyz enthalpy

restart 	${out_freq3} restart.lmp.${pid} restart2.lmp.${pid}
restart 	1000 restart.lmp.${pid} restart2.lmp.${pid}
restart 	1000 restart.lmp.0 restart2.lmp.${pid}
restart 	1000 restart.lmp.0 restart2.lmp.0


include         in.dump
dump            myDump all atom ${out_freq2} dump.water.${pid}
dump            myDump all atom 10000 dump.water.${pid}
dump            myDump all atom 10000 dump.water.0
dump            myDump2 all dcd ${out_freq2} dump.dcd
dump            myDump2 all dcd 10000 dump.dcd
dump_modify     myDump append yes
dump_modify     myDump2 append yes


variable natoms 	equal  "count(all)"                        # NUMBER ATOMS
variable H      	equal  "enthalpy/v_natoms"                 # ENTHALPY-per-atom
variable Vol      	equal  "vol/v_natoms"                 # volume-per-atom
fix AVG all 		ave/time ${out_freq} 1 ${out_freq} v_Vol v_H file vol_enthalpy.dat
fix AVG all 		ave/time 1000 1 ${out_freq} v_Vol v_H file vol_enthalpy.dat
fix AVG all 		ave/time 1000 1 1000 v_Vol v_H file vol_enthalpy.dat


timer           timeout 10:00:00 every 1000
New timer settings: style=normal  mode=nosync  timeout=10:00:00

fix 		1 all shake 1e-6 200 0 b 1 a 1
       0 = # of size 2 clusters
       0 = # of size 3 clusters
       0 = # of size 4 clusters
     432 = # of frozen angles
  find clusters CPU = 0.001 seconds
fix             2 all nph tri ${pressure} ${pressure} ${pressureDamp}
fix             2 all nph tri 9178.3 ${pressure} ${pressureDamp}
fix             2 all nph tri 9178.3 9178.3 ${pressureDamp}
fix             2 all nph tri 9178.3 9178.3 1000
fix             3 all temp/csvr ${temperature} ${temperature} ${tempDamp} ${seed}
fix             3 all temp/csvr 0.49 ${temperature} ${tempDamp} ${seed}
fix             3 all temp/csvr 0.49 0.49 ${tempDamp} ${seed}
fix             3 all temp/csvr 0.49 0.49 100 ${seed}
fix             3 all temp/csvr 0.49 0.49 100 745823


run             250000
PPPM initialization ...
  extracting TIP4P info from pair style
  using 12-bit tables for long-range coulomb (../kspace.cpp:340)
  G vector (1/distance) = 0.37247397
  grid = 30 36 32
  stencil order = 5
  estimated absolute RMS force accuracy = 0.0035247221
  estimated relative force accuracy = 1.0614596e-05
  using double precision FFTW3
  3d grid and FFT values/proc = 7344 1080
Last active /omp style is kspace_style pppm/tip4p/omp
Neighbor list info ...
  update every 1 steps, delay 7 steps, check yes
  max neighbors/atom: 2000, page size: 100000
  master list distance cutoff = 10.8154
  ghost atom cutoff = 10.8154
  binsize = 5.4077, bins = 7 5 4
  1 neighbor lists, perpetual/occasional/extra = 1 0 0
  (1) pair lj/cut/tip4p/long/omp, perpetual
      attributes: half, newton on, omp
      pair build: half/bin/newton/tri/omp
      stencil: half/bin/3d/tri
      bin: standard
Per MPI rank memory allocation (min/avg/max) = 10.63 | 10.63 | 10.63 Mbytes
Step Temp PotEng TotEng E_pair E_mol Press Lx Ly Lz Volume Pxx Pyy Pzz Pxy Pxz Pyz Enthalpy 
16250000    0.5507375   -7002.1611   -7000.7443   -7002.1611            0     9165.747    22.940808    21.095515    21.266498    10291.883    9014.7912    9492.0233    8990.4264    64.932946    89.054356    27.620823   -5624.9973 
16251000   0.57283296   -7002.3478   -7000.8742   -7002.3478            0    9164.4587    22.985151     21.11539    21.200156    10289.293    9134.4104     9190.906    9168.0596    -58.07719   -80.897259    13.527008   -5625.6667 
16252000   0.39517537   -7002.3955    -7001.379   -7002.3955            0    9179.3344    22.987807    21.036918    21.282888    10292.247    9210.0404    9155.1303    9172.8323   -62.224636    12.362081    14.127638   -5623.5438 
16253000   0.46078402   -7002.2665   -7001.0812   -7002.2665            0    9175.0897    22.925243    21.134913    21.241331    10291.914    9155.0731    9181.2048    9188.9911    49.062599    -4.949875   -59.929726   -5623.9277 
16254000   0.42906964   -7002.0992   -7000.9954   -7002.0992            0    9173.4235     23.02058    21.039161    21.247365    10290.814    9173.2329    9182.6292    9164.4084   -20.244339   -8.4276301    34.057243   -5624.2391 
16255000   0.45201116   -7002.2921   -7001.1294   -7002.2921            0    9179.2642    22.928302    21.129294    21.245445    10292.544    9200.2306    9154.0318    9183.5303    30.401713   -6.2897255   -5.3836792    -5623.265 
16256000   0.54068314    -7002.134   -7000.7432    -7002.134            0    9183.1092    22.955583    21.085918     21.25924    10290.313    9180.3539     9199.096    9169.8776   -28.422876    21.349878    4.3206239   -5622.6004 
16257000    0.5403347   -7002.3742   -7000.9843   -7002.3742            0    9181.2351    23.032868    21.054542    21.220334    10290.726    9150.8431    9180.2363    9212.6259    13.763522   -43.793956   -23.641803   -5623.0673 
16258000   0.53738928   -7002.3283   -7000.9459   -7002.3283            0    9173.8272     22.91024    21.117376     21.27241     10291.68    9203.3671    9167.8874    9150.2271    5.8396877    42.117176    15.046681   -5624.0132 
16259000   0.49087818   -7002.1764   -7000.9136   -7002.1764            0    9175.7697    22.992662    21.063312    21.249618    10291.224    9165.9057    9174.8308    9186.5724   -26.382127    -22.47264    1.0614319   -5623.7504 
16260000   0.51087786   -7002.3138   -7000.9996   -7002.3138            0    9182.2711    22.993231    21.077822    21.236373    10292.149    9166.6191    9197.7384    9182.4558    7.4044912   -8.5614618   -11.967366   -5622.7366 
16261000   0.47124699   -7002.2569   -7001.0446   -7002.2569            0    9176.0289    22.918156    21.107657    21.275081     10291.79    9206.9915    9161.1385    9159.9566    16.277133    23.131948    8.9453122   -5623.7667 
16262000   0.49739105   -7002.3937   -7001.1142   -7002.3937            0    9175.1884    23.029815    21.047593    21.230901    10291.089    9138.3204     9189.878    9197.3668   -25.308874    -35.78233   -5.5769063   -5624.0563 
16263000    0.5271596   -7002.2532   -7000.8971   -7002.2532            0    9177.1595    22.942622    21.092398    21.267233    10291.532    9196.7873    9165.6511    9169.0402    15.677079    30.187078 -0.071221928   -5623.4841 
16264000   0.49192588   -7002.2713   -7001.0058   -7002.2713            0    9176.5661     22.94787    21.101362    21.253033    10291.384    9188.3926    9159.2397     9182.066    13.443872   0.17400089   -2.5498618   -5623.7017 
16265000   0.43401129   -7002.3943   -7001.2778   -7002.3943            0    9176.7319    23.028694    21.032074    21.249323    10291.923    9133.6373    9217.3221    9179.2365   -30.791706   -24.165277    10.144807   -5623.8766 
16266000   0.45509201   -7002.1666    -7000.996   -7002.1666            0    9179.6526    22.915554    21.127916    21.257061    10291.774    9228.3105    9137.4583    9173.1891    31.584019    33.116583   -13.800643   -5623.1763 
16267000   0.57354779   -7002.2782   -7000.8028   -7002.2782            0    9180.1824    22.975285     21.06191    21.267518    10291.424    9161.8806    9205.1628    9173.5039   -22.645143   -13.582482    22.787535   -5622.9505 
16268000   0.49256694   -7002.2869   -7001.0198   -7002.2869            0    9177.5399    23.010317    21.068488    21.228522     10291.43    9156.3615    9180.7727    9195.4855    8.1461012   -13.890105   -27.032054   -5623.5633 
16269000     0.430804   -7002.1441   -7001.0359   -7002.1441            0    9181.1029    22.904531    21.115922     21.27835     10291.28    9223.0053    9160.7323     9159.571     11.85114    43.590541    23.194917   -5623.0647 
16270000   0.50683998   -7002.3473   -7001.0435   -7002.3473            0    9178.0823    23.008377    21.056565     21.24283     10291.67    9135.8077    9207.1517    9191.2874   -14.315535   -40.886733   -8.8377853   -5623.4734 
16271000   0.55347971   -7002.4477   -7001.0239   -7002.4477            0    9177.7886    22.964497    21.090471     21.24949    10291.809      9190.22     9164.064    9179.0816    4.9939432     3.155338   -5.0778122   -5623.4793 
16272000   0.44581189   -7002.1438    -7000.997   -7002.1438            0    9179.8102     22.92093     21.11229    21.267505    10291.629    9193.4818    9173.1548    9172.7939    4.3348645    23.222052    1.0149331   -5623.1731 
16273000   0.45061374   -7002.1869   -7001.0277   -7002.1869            0    9178.3319    23.021563    21.049308    21.237898     10291.63    9139.9502    9208.4641    9186.5812   -15.370283   -28.834146   -5.3505404   -5623.4256 
16274000   0.55453739   -7002.3145   -7000.8879   -7002.3145            0    9177.8642    22.925971    21.115432     21.25971    10291.651    9213.3233    9147.5144    9172.7549    18.503561    17.919563  -0.71956463   -5623.3532 
16275000   0.55971081   -7002.2822   -7000.8423   -7002.2822            0    9179.2957    22.942833    21.099009    21.260661    10291.671    9179.4724    9184.7925    9173.6223   -5.5646393    6.4885941  -0.26249143   -5623.0901 
16276000   0.46300915   -7002.1431   -7000.9521   -7002.1431            0    9179.1201    23.018407    21.050317    21.239763    10291.616    9142.0528     9202.401    9192.9067   -13.944017   -27.586742   -1.1108355   -5623.2335 
16277000   0.49308429   -7002.1806   -7000.9121   -7002.1806            0    9177.9807    22.910247    21.130338    21.259394      10291.7    9217.7977    9146.5423    9169.6021    27.095871    35.004677   -8.8303743   -5623.3534 
16278000   0.51914396   -7002.3306   -7000.9951   -7002.3306            0    9177.5866    22.972112    21.071019    21.261738    10291.655    9163.5496    9195.2974    9173.9129   -25.762644   -13.790818    16.165595   -5623.5015 
16279000   0.50106046   -7002.2883   -7000.9994   -7002.2883            0    9178.2344    22.996439    21.079369    21.230815    10291.646    9163.5416    9181.0923    9190.0693    8.0853875   -12.109236   -14.586698   -5623.4097 
16280000   0.46479801   -7002.3096   -7001.1139   -7002.3096            0    9177.3332     22.90126    21.122535    21.275632    10291.719    9211.0634    9158.6522    9162.2841    16.360251    25.927698    16.884954   -5623.6498 
16281000   0.48868887   -7002.1937   -7000.9365   -7002.1937            0    9178.0919    23.004989    21.060328    21.242323    10291.748    9144.8398    9198.6811    9190.7549   -22.458737   -25.680815   -15.376377   -5623.3546 
16282000   0.56131843   -7002.3949    -7000.951   -7002.3949            0    9177.7863    22.960412    21.095952    21.247562    10291.719    9193.4347    9165.4846    9174.4395    11.958825    9.3425234  -0.32820557   -5623.4189 
16283000   0.46631737   -7002.1713   -7000.9718   -7002.1713            0     9178.882    22.915694    21.116761    21.267622    10291.514    9198.2104    9166.7503    9171.6854    9.4226223    19.303427    9.0564557   -5623.3026 
16284000   0.44785764   -7002.1959   -7001.0438   -7002.1959            0    9178.1891    23.020577    21.051337    21.236565    10291.535    9136.8688    9206.6325     9191.066   -25.706908   -35.066258   0.29274589   -5623.4757 
16285000   0.53385625    -7002.379   -7001.0057    -7002.379            0    9177.6197    22.928448    21.115022    21.257881    10291.678      9210.37     9151.256    9171.2331    21.535596    27.386709   -4.9665336    -5623.504 
16286000   0.51870767   -7002.3483   -7001.0139   -7002.3483            0    9178.3678    22.947097    21.094585    21.261424    10291.794    9177.5736    9184.0053    9173.5244   -2.4103932  -0.95281776      11.6222   -5623.3845 
16287000   0.47734146   -7002.2717   -7001.0438   -7002.2717            0    9178.3195    23.014004    21.056641    21.237793    10291.784    9149.3377    9192.7673    9192.8535    -15.56966   -25.621333   -9.5717139   -5623.4229 
16288000   0.46841698   -7002.2379   -7001.0329   -7002.2379            0    9178.2291    22.909729    21.127976    21.261505    10291.339    9213.4275    9151.0171    9170.2427    23.166322    33.394533    3.5367999   -5623.4852 
16289000   0.53272332   -7002.2903   -7000.9199   -7002.2903            0    9178.7278    22.983776    21.066568    21.255182    10291.531    9156.7764     9198.844     9180.563   -19.198665   -18.606723    6.7763449   -5623.2716 
16290000   0.51649097   -7002.3586     -7001.03   -7002.3586            0    9178.4907    22.992504    21.079471    21.234211    10291.581    9174.9542    9177.9022    9182.6159    3.6264949   -11.432455   -9.7201096   -5623.4105 
16291000    0.4580248   -7002.3485   -7001.1702   -7002.3485            0    9178.3152    22.902956    21.123216     21.27336    10291.713    9213.1914    9155.7188    9166.0355    10.456155    30.532182    10.026079   -5623.5595 
16292000   0.48169788   -7002.4034   -7001.1642   -7002.4034            0    9177.7975    23.013837    21.054079    21.240754    10291.892    9139.2598    9205.8578    9188.2749   -18.653072   -32.451709   -6.5859555   -5623.6073 
16293000   0.53529419   -7002.2778   -7000.9008   -7002.2778            0    9178.7899    22.948749    21.101023     21.25285    10291.524    9202.0538    9160.3413    9173.9745     13.47168    14.883909   -2.3657413   -5623.2441 
16294000   0.49931633    -7002.246   -7000.9615    -7002.246            0    9178.1621    22.927869    21.111278    21.261492    10291.341    9195.6079    9166.2249    9172.6534     6.880287    17.408064  -0.22035548   -5623.4236 
16295000     0.389027    -7002.281   -7001.2803    -7002.281            0    9178.5187    23.023975    21.047341     21.23684    10291.234    9138.6778    9208.9617    9187.9164   -19.256411   -29.967274    -1.119007   -5623.7032 
16296000   0.52926908   -7002.3781   -7001.0166   -7002.3781            0    9178.4062    22.915381    21.125621    21.259362    10291.692    9215.3175    9146.6077    9173.2934    27.830994    30.247654   -7.4004538    -5623.395 
16297000   0.52523389   -7002.4247   -7001.0736   -7002.4247            0    9178.2796    22.970295    21.077791    21.256381    10291.555    9157.2777    9197.2951    9180.2659   -16.373503   -14.957761    9.2814465   -5623.4893 
16298000   0.48381771   -7002.3743   -7001.1297   -7002.3743            0    9178.6435    23.003895    21.065136    21.237845    10291.438    9162.7716    9187.5034    9185.6556   -5.0095914   -11.326241   -7.1743059   -5623.5065 
16299000   0.47484723   -7002.3816   -7001.1601   -7002.3816            0     9178.479    22.896858    21.134957    21.267103    10291.664    9220.5957    9148.2206    9166.6208    24.268166    29.393261    3.4474391   -5623.5313 
16300000   0.48136139   -7002.4304   -7001.1921   -7002.4304            0    9178.2081    23.012409     21.05074    21.244886    10291.623     9134.373    9212.5117    9187.7398   -28.581247   -34.273202   -2.2048232   -5623.6095 
16301000   0.53057865    -7002.211   -7000.8461    -7002.211            0    9178.4467    22.958686     21.09857     21.24412    10290.555    9199.8098    9159.6877    9175.8426    19.747673     14.74697   -2.9573916   -5623.3706 
16302000   0.46406423    -7002.308   -7001.1142    -7002.308            0    9177.7199    22.919762    21.116652    21.262733    10290.921    9193.6752    9169.0615    9170.4231    9.5287542    19.111775    11.187739   -5623.6988 
16303000   0.47247092   -7002.6163   -7001.4009   -7002.6163            0    9178.9064    23.028785    21.040972    21.240876    10292.225    9135.2258    9212.2354    9189.2582   -28.525682   -37.659657   -6.4916222   -5623.6329 
16304000   0.52213667   -7002.5121   -7001.1689   -7002.5121            0    9178.4723    22.910568    21.129875    21.259739    10291.786    9222.8554     9141.015    9171.5465     26.88599    29.583683   -10.132662   -5623.5249 
16305000   0.50230201   -7002.2094   -7000.9173   -7002.2094            0    9178.5838    22.969337    21.079939    21.253683    10290.869    9157.1553    9199.4787    9179.1173   -11.938528   -9.5788835    12.480414   -5623.3792 
16306000   0.49968833   -7002.2794   -7000.9939   -7002.2794            0    9178.3019    23.008827    21.062393    21.235901    10291.363    9164.6794    9184.3273    9185.8991   -4.2043728    -16.25993   -3.3438076    -5623.432 
16307000    0.4337306   -7002.3123   -7001.1966   -7002.3123            0    9178.4878    22.889351    21.140202    21.268822    10291.675    9222.7797    9146.2594    9166.4242    21.854478    36.919355    1.1008789    -5623.565 
16308000   0.52942827   -7002.5334   -7001.1715   -7002.5334            0    9178.6969    23.020361    21.043496    21.244342    10291.373    9130.8443    9216.1149    9189.1314   -34.967581   -41.307952    2.5422918    -5623.549 
16309000   0.48174812   -7002.2259   -7000.9866   -7002.2259            0    9178.9696    22.951424     21.10444    21.246366     10291.25    9200.6091    9157.6191    9178.6806    25.994518    20.091035   -4.6899647   -5623.3397 
16310000   0.48059758   -7002.4413    -7001.205   -7002.4413            0    9178.4933    22.919398    21.114447    21.266762    10291.633    9191.3624    9174.6184    9169.4991  -0.82951723    11.443358    11.138857   -5623.5782 
16311000   0.43660998   -7002.3794   -7001.2562   -7002.3794            0     9178.147    23.031887    21.040984    21.236798     10291.64     9136.293    9210.2381    9187.9097   -21.404229   -37.045324   -4.6191202   -5623.6804 
16312000   0.52194669   -7002.3564   -7001.0137   -7002.3564            0    9178.8195    22.902785    21.136459    21.259172     10291.22     9228.052    9135.4061    9173.0004    30.477544    37.210761   -13.781813   -5623.3932 
16313000   0.51990387   -7002.2321   -7000.8947   -7002.2321            0    9178.4465      22.9768    21.074283    21.253189     10291.21    9155.6472    9199.2121    9180.4801   -22.042665     -14.2696    12.227371   -5623.3315 
16314000   0.46025918   -7002.3062   -7001.1222   -7002.3062            0    9177.5726    22.997559    21.068511    21.240725    10291.648    9167.7951    9182.2242    9182.6984   0.93804334   -11.974895   -3.6696904   -5623.6316 
16315000   0.43140536   -7002.4074   -7001.2976   -7002.4074            0    9178.1872    22.895323    21.135697    21.267859      10291.7    9218.7604    9150.3824    9165.4188    23.448956    29.238649  0.064213428   -5623.7078 
16316000    0.5346796   -7002.4981   -7001.1226   -7002.4981            0    9178.5049    23.025874    21.041381    21.241139    10291.251     9127.838    9217.4827     9190.194   -37.502623   -40.147275   -1.6216433   -5623.5452 
16317000   0.46394043   -7002.2144    -7001.021   -7002.2144            0    9178.5776    22.945402    21.109807    21.246167     10291.07    9207.5997    9150.3941    9177.7392    23.914061    19.164613   -5.2011715   -5623.4569 
16318000   0.48850596   -7002.3248   -7001.0681   -7002.3248            0    9177.6557    22.929119    21.107133    21.265052    10291.604    9185.3606    9174.3094    9173.2972  -0.63094124    6.3902606    8.2327747    -5623.571 
16319000   0.46139805   -7002.5173   -7001.3304   -7002.5173            0    9178.0915    23.026679     21.04493    21.237476    10291.571    9142.0728    9202.7392    9189.4626   -19.771909    -29.82898   -7.2075391   -5623.7721 
16320000   0.49487821     -7002.44   -7001.1669     -7002.44            0    9178.8017       22.898     21.13863    21.261464    10291.236    9228.6252    9138.1792    9169.6006    30.045187    35.102589   -3.6453832    -5623.547 
16321000   0.50062488   -7002.2694   -7000.9816   -7002.2694            0    9178.0275    22.989491    21.066185    21.249709    10291.253     9141.339    9208.3758    9184.3678   -23.317221   -25.112228    9.0170493   -5623.4757 
16322000   0.50797871   -7002.2147    -7000.908   -7002.2147            0    9177.3497    22.983615     21.07833    21.243897    10291.738    9181.7138    9170.5142     9179.821    5.2943333  0.029933446    -7.810226   -5623.4388 
16323000   0.46780421   -7002.3638   -7001.1604   -7002.3638            0    9177.3608    22.901129    21.130865    21.266679    10291.386    9209.7321    9157.0581    9165.2921    15.030799     25.95515    3.2087435   -5623.7367 
16324000   0.49505321   -7002.3903   -7001.1168   -7002.3903            0    9178.5549    23.028323    21.042489    21.237304    10291.029    9130.2857    9215.0453    9190.3337    -33.81588   -39.291604    2.8060568   -5623.5616 
16325000   0.52290607   -7002.3727   -7001.0276   -7002.3727            0    9178.5268    22.928614    21.119597    21.251583    10290.933    9213.6971    9145.2396    9176.6438    29.312024    30.175931   -6.9672149   -5623.4895 
16326000     0.448808   -7002.3071   -7001.1525   -7002.3071            0    9177.9088    22.941912    21.096507     21.26491    10292.093    9175.4915    9184.5497    9173.6854   -11.114363   -7.2561797    5.5320957   -5623.5519 
16327000   0.47783104    -7002.382   -7001.1528    -7002.382            0    9178.5364     23.01723    21.053407    21.237164    10291.341    9149.7695    9199.5777     9186.262   -12.856164   -25.178459   -1.5145944   -5623.5587 
16328000   0.48189143   -7002.1971   -7000.9575   -7002.1971            0     9178.414    22.897074    21.140932    21.259141    10290.817    9225.3393    9140.0959    9169.8068    24.421222     36.13187   -4.0856858   -5623.4519 
16329000    0.5158092   -7002.3548   -7001.0279   -7002.3548            0    9178.3462    23.002477    21.057021    21.246089    10290.833    9137.7074    9211.0096    9186.3215   -30.105665   -28.087389    9.9809114   -5623.5303 
16330000   0.49420402    -7002.232   -7000.9607    -7002.232            0    9177.4485    22.971516    21.086648    21.247341    10292.048    9189.8765    9163.4527    9179.0165    11.707288    1.6041074   -9.3639053   -5623.4352 
16331000   0.46517779   -7002.4079   -7001.2113   -7002.4079            0    9177.7864    22.909078    21.123999    21.266443    10291.498    9198.4835       9165.3    9169.5755    8.1718375    21.022289    3.5955225   -5623.7086 
16332000   0.44591492   -7002.3327   -7001.1856   -7002.3327            0     9178.831    23.032537    21.041106    21.234863    10291.053    9132.5176    9211.4048    9192.5705   -31.048138   -37.112776   -1.3212013   -5623.5857 
16333000   0.51633735   -7002.3612    -7001.033   -7002.3612            0      9178.59    22.917271    21.126281    21.255664    10291.072    9218.4081    9146.0485    9171.3135    30.087576    30.714867   -2.0631409   -5623.4668 
16334000   0.51824717   -7002.2283   -7000.8951   -7002.2283            0    9177.6614    22.960426    21.084475    21.258899    10291.614    9162.4829    9192.8741    9177.6272   -17.514676   -10.457517    7.1170617   -5623.3957 
16335000   0.48055426   -7002.3398   -7001.1036   -7002.3398            0    9178.2792    23.006454    21.062703    21.237915    10291.429     9162.628    9187.4392    9184.7705   -7.6939177   -17.879528   -6.3369048   -5623.5363 
16336000   0.50002594   -7002.3791   -7001.0928   -7002.3791            0    9178.6541    22.897394    21.137617    21.262359    10290.904    9219.7908     9143.898    9172.2736    23.572418    32.564455   0.61027117   -5623.5395 
16337000   0.50496755   -7002.5306   -7001.2316   -7002.5306            0    9178.4453    23.012545    21.048788     21.24616    10291.346     9136.278    9212.4176    9186.6405   -30.434121    -30.06366    5.4987711   -5623.6504 
16338000   0.50886362   -7002.3465   -7001.0375   -7002.3465            0    9178.1037    22.948902    21.102229    21.252235    10291.883    9206.3439    9154.4169    9173.5502    22.711784    15.690881   -8.3253389   -5623.4357 
16339000   0.45422848   -7002.2775   -7001.1091   -7002.2775            0    9178.2271    22.926462    21.112094    21.261798    10291.255    9187.8148    9175.5006     9171.366    1.9714486    8.4609069    9.2959867   -5623.5729 
16340000   0.48506266   -7002.3971   -7001.1493   -7002.3971            0    9178.1525    23.030372    21.043944    21.233465    10290.795    9139.9971     9204.071    9190.3893   -23.245368   -31.996565    -3.228268   -5623.6858 
16341000   0.47848604   -7002.3612   -7001.1304   -7002.3612            0    9178.6457    22.904722    21.134574    21.259017    10291.098     9224.258    9140.8821     9170.797    32.723833     36.98358   -3.8438029   -5623.5524 
16342000   0.50793997   -7002.4506    -7001.144   -7002.4506            0    9177.6791    22.980861    21.066738    21.258844    10292.082    9152.6106    9202.4405    9177.9861   -23.502496   -21.634861      7.11229   -5623.5793 
16343000   0.45963535    -7002.309   -7001.1266    -7002.309            0    9178.1558    22.991639    21.073265    21.241188    10291.545    9176.0738    9177.1462    9181.2474    2.4055155   -7.3096405   -6.7506311   -5623.5624 
16344000   0.50659032   -7002.3424   -7001.0392   -7002.3424            0    9178.7867    22.903863    21.130402    21.263497    10290.849    9211.2465    9157.5164    9167.5974     18.38045    31.333716    8.0544637   -5623.4734 
16345000   0.47487359   -7002.3934   -7001.1718   -7002.3934            0    9178.4357    23.024527    21.043235    21.240292    10291.145    9133.1784    9214.5768     9187.552   -27.307793   -34.349921    2.1895283   -5623.6189 
16346000   0.54325206   -7002.3773   -7000.9798   -7002.3773            0    9178.1825    22.933678    21.112515    21.255234    10291.521    9215.2302    9149.0884    9170.2288     23.78404    28.563451   -5.1005742   -5623.4146 
16347000   0.48247456   -7002.2996   -7001.0584   -7002.2996            0    9178.4026    22.941183    21.099455    21.261428    10291.519    9175.6958    9183.4498     9176.062   -6.4801875   -2.0176317    8.5564805   -5623.4605 
16348000   0.44426976   -7002.4042   -7001.2613   -7002.4042            0    9177.7963    23.019538    21.049973    21.237957    10291.078    9147.8277    9200.1424    9185.4187   -14.913786   -19.664072   -2.6536001   -5623.8134 
16349000   0.49961053   -7002.3712   -7001.0859   -7002.3712            0    9178.7944    22.898881    21.135369    21.263858    10291.203    9222.4011    9142.8235    9171.1586    30.466366    34.048422   -1.9390563   -5623.4715 
16350000   0.48593478   -7002.3451   -7001.0951   -7002.3451            0    9178.3718    22.999117    21.056086    21.251266     10291.38     9143.935    9207.5702    9183.6103   -27.725402   -26.633685    6.6920181   -5623.5204 
16351000   0.47620215    -7002.248    -7001.023    -7002.248            0    9177.9526    22.972301    21.087562    21.244015    10291.235    9189.5097     9167.139     9177.209    15.504799    6.1192701   -7.4201018   -5623.5307 
16352000   0.48680921   -7002.2739   -7001.0216   -7002.2739            0    9178.7427    22.914361    21.120122    21.264314    10290.952    9199.3981    9166.1607    9170.6692    10.572707    20.500696     7.705304   -5623.4485 
16353000   0.50099772     -7002.47   -7001.1812     -7002.47            0    9178.3267    23.031864    21.039369    21.237264    10291.066    9130.6418    9212.7484    9191.5899     -24.9205    -38.62838    3.0515467   -5623.6553 
16354000   0.51345049    -7002.486   -7001.1652    -7002.486            0    9178.3047    22.915979    21.122464    21.262413      10291.9     9219.719    9145.3498    9169.8454    27.375634    31.863815   -8.6802493    -5623.531 
16355000   0.52358973   -7002.3186   -7000.9717   -7002.3186            0    9178.1832    22.965608    21.080344    21.258026    10291.498    9159.1074    9195.6625    9179.7796   -16.346808   -13.910419    5.9710089   -5623.4096 
16356000   0.45072422   -7002.2055    -7001.046   -7002.2055            0    9178.3238     23.00736    21.060917    21.237546    10290.782    9159.2409    9191.1673    9184.5633   -4.3514109   -12.271088   -5.0808246   -5623.5585 
16357000   0.48824802   -7002.2829   -7001.0269   -7002.2829            0    9178.3978    22.900685    21.134953    21.261568    10290.703    9217.9192    9145.8578    9171.4164     23.58426    33.281043    3.6679072    -5623.539 
16358000   0.49713033   -7002.4673   -7001.1885   -7002.4673            0    9178.0287    23.013115     21.04777    21.247257    10291.635    9133.2155    9215.7754    9185.0952   -29.504136   -33.744221    3.2732985   -5623.6312 
16359000   0.48114849   -7002.3921   -7001.1544   -7002.3921            0    9178.4287    22.953793    21.098093    21.251336    10291.623    9196.9229    9161.3757    9176.9874    17.677538    14.743224   -10.709479   -5623.5386 
16360000   0.47024366    -7002.298   -7001.0883    -7002.298            0    9178.7276    22.926023    21.110158    21.264066    10291.212    9190.0082    9174.9574    9171.2174     4.525463    11.790893    9.8992932   -5623.4828 
16361000   0.46926205   -7002.3944   -7001.1873   -7002.3944            0    9178.4112    23.027226    21.043754    21.237436    10291.222    9138.2877    9205.6194    9191.3264   -21.382345   -31.349589   -4.0789346   -5623.6279 
16362000   0.50217466   -7002.3517   -7001.0599   -7002.3517            0    9178.0824    22.905027     21.13241    21.261305    10291.288     9224.976    9140.7466    9168.5246    31.080385    34.118721   -6.4302302   -5623.5409 
16363000   0.51800681   -7002.2886   -7000.9561   -7002.2886            0    9178.3789    22.982835     21.06847    21.253611    10291.278    9147.7876    9206.9408    9180.4085   -21.652287   -16.258823    6.8845485    -5623.394 
16364000   0.49499136   -7002.2462   -7000.9729   -7002.2462            0    9177.9673     22.99104    21.074061    21.239652    10290.921    9178.7484    9172.5854    9182.5681    8.8071414   -1.7180877   -4.9658993   -5623.5204 
16365000   0.46919156   -7002.3172   -7001.1103   -7002.3172            0    9178.1458    22.901916     21.12948    21.267167      10291.3    9211.6115    9155.1657    9167.6603    17.601794    32.402497    5.4041953   -5623.5802 
16366000   0.46742937   -7002.5392   -7001.3368   -7002.5392            0    9178.6429     23.02037    21.043623    21.244671    10291.598    9133.4015    9213.7982     9188.729   -28.680458   -34.591479    1.1446633   -5623.6922 
16367000   0.47757379   -7002.3814   -7001.1529   -7002.3814            0    9178.5955    22.937968    21.108387    21.255145     10291.39    9204.0229    9157.6818    9174.0817    20.769849    18.691224   -4.1466696   -5623.5432 
16368000   0.46912079   -7002.1807   -7000.9739   -7002.1807            0    9178.5128    22.945759    21.097475    21.257794    10290.847    9175.6051    9181.7358    9178.1975   -8.9319981   -0.1637638    8.0556221   -5623.4495 
16369000   0.48933097   -7002.3549   -7001.0961   -7002.3549            0    9178.7267    23.017954    21.052445    21.236634    10290.937    9151.8536    9195.5572    9188.7693   -11.482677   -21.097611   -3.4129831   -5623.5275 
16370000   0.47834947   -7002.3749   -7001.1443   -7002.3749            0    9178.6901     22.90189    21.130479    21.266454     10291.43    9219.7598    9146.9652    9169.3453     27.12369    34.138119    -3.767136   -5623.5151 
16371000   0.51383314   -7002.4476   -7001.1258   -7002.4476            0    9177.9264    22.996683    21.058191     21.25195    10291.651     9144.508    9207.4227    9181.8485    -26.56475   -25.207997    2.9921069   -5623.5818 
16372000   0.49730284   -7002.2459   -7000.9667   -7002.2459            0     9177.799    22.973348    21.086441    21.244386    10291.336    9185.4012    9167.2768     9180.719    11.305503    5.8129922   -7.1982137   -5623.4839 
16373000   0.46628364    -7002.272   -7001.0725    -7002.272            0    9178.1979    22.912039    21.121278    21.265595    10291.092    9199.4583    9165.2175     9169.918     11.63208    24.866723    5.8619174   -5623.5625 
16374000   0.47772993   -7002.3323   -7001.1034   -7002.3323            0    9178.3145     23.02617    21.042326    21.239781    10291.187    9137.8171    9208.5368    9188.5895   -25.661097   -33.381738   -3.4831476   -5623.5631 
16375000   0.52391141   -7002.3419   -7000.9941   -7002.3419            0    9178.4734    22.919518    21.122562    21.257838    10291.322     9216.383    9147.8022    9171.2349    26.075075    29.595007   -6.6792068    -5623.412 
16376000   0.48584409   -7002.2839   -7001.0341   -7002.2839            0    9178.6435    22.962277    21.082841     21.25807    10291.245    9162.3885    9195.6861    9177.8559   -14.796982   -8.1495357    11.039909   -5623.4367 
16377000   0.47152924   -7002.4007   -7001.1877   -7002.4007            0    9178.7916     23.00825    21.059596    21.239464    10291.464    9159.2959     9189.902    9187.1768   -6.3085594   -20.515475   -1.2791456   -5623.5387 
16378000   0.47379805   -7002.3094   -7001.0906   -7002.3094            0    9178.1326    22.898608    21.131777     21.26792    10291.297    9218.2099    9149.4973    9166.6906    23.351473    33.541167  0.048264588    -5623.563 
16379000      0.52864   -7002.3991   -7001.0392   -7002.3991            0    9178.4571    23.014297    21.047798    21.245513    10291.332    9137.7977    9210.5945    9186.9791   -28.080276    -34.58743    1.3986466   -5623.4581 
16380000   0.46379565     -7002.23   -7001.0369     -7002.23            0    9178.4924    22.954583    21.100341    21.246838    10290.896    9197.4154    9160.2585    9177.8033    19.547369    14.657078   -2.5604612   -5623.5089 
16381000   0.47684222   -7002.3088   -7001.0822   -7002.3088            0    9178.2161    22.928324    21.108129    21.263864    10291.158     9187.447    9175.5462    9171.6551    5.6412845    7.8799675    10.250962   -5623.5606 
16382000   0.47832288   -7002.4207   -7001.1902   -7002.4207            0    9177.5446    23.027741    21.041599    21.239704    10291.496    9138.2224    9206.2511    9188.1605   -23.860794   -31.504442   -4.5110594   -5623.7241 
16383000    0.4946038   -7002.4163    -7001.144   -7002.4163            0    9178.1376    22.905509    21.130899    21.263582    10291.871    9224.0505    9142.8497    9167.5126      29.2232    32.986595   -5.9899693   -5623.5387 
16384000   0.49117197   -7002.2561   -7000.9926   -7002.2561            0    9178.5328    22.983393    21.069451    21.251498    10290.984    9150.2237    9202.5478    9182.8267    -23.04894   -16.212612    10.483732   -5623.4467 
16385000   0.45143118    -7002.213   -7001.0517    -7002.213            0    9177.9879    22.991494    21.073235    21.240335    10291.052    9171.5378    9179.0989    9183.3269    4.3366109   -10.106621   -3.9886105   -5623.5786 
16386000   0.48716744   -7002.2805   -7001.0273   -7002.2805            0    9178.6728    22.901628     21.12946    21.267474     10291.31    9213.3327    9153.6734    9169.0124    16.268967     31.02866 -0.081099262   -5623.4168 
16387000   0.51073119   -7002.5676   -7001.2537   -7002.5676            0    9178.4506     23.02245    21.043058    21.243333    10291.604    9133.9512    9213.6514    9187.7492   -30.001853   -37.969878   0.33003439   -5623.6373 
16388000   0.48541855   -7002.3645   -7001.1158   -7002.3645            0    9178.2321    22.933848    21.114029    21.252869    10291.191    9208.0122    9150.5396    9176.1444    25.822445    24.730823   -6.6739958   -5623.5874 
16389000    0.4705166   -7002.2073   -7000.9969   -7002.2073            0    9178.2382     22.94465    21.097269    21.259647    10291.146    9177.2982    9182.8036    9174.6129   -5.0770467   0.31458751    10.369094   -5623.4736 
16390000   0.47935487   -7002.3813   -7001.1482   -7002.3813            0    9178.2768     23.01755    21.051417    21.239211    10291.503    9149.7928    9199.1489    9185.8886   -15.902996   -25.062249   -6.7978271   -5623.5713 
16391000   0.46917312   -7002.3369     -7001.13   -7002.3369            0    9178.3209    22.899565    21.135157    21.263559    10291.263    9223.7802    9141.1439    9170.0387    26.531204    34.568656   -3.1793923   -5623.5786 
16392000   0.52882588   -7002.3972   -7001.0368   -7002.3972            0     9178.473    23.000742    21.057908    21.247313    10291.083    9138.7902    9209.9535    9186.6754    -29.12925   -25.062469    4.8116146   -5623.4867 
16393000   0.48622105   -7002.2415   -7000.9907   -7002.2415            0    9177.9289    22.968981    21.089205    21.245427    10291.232    9190.0151    9162.8984    9180.8732    12.363956    6.9935382   -6.5830008   -5623.5023 
16394000    0.4714633   -7002.3765   -7001.1637   -7002.3765            0    9178.3173    22.911295    21.120956    21.267848    10291.691    9201.3222    9164.2274    9169.4024    14.016687    19.295749    4.9862892   -5623.5555 
16395000   0.48097159   -7002.4012   -7001.1639   -7002.4012            0    9178.4149    23.027774    21.040747    21.240418    10291.441    9134.4859    9211.6992    9189.0595   -26.036081   -33.450742   -3.1700761   -5623.5746 
16396000   0.51371624    -7002.366   -7001.0445    -7002.366            0    9178.8143    22.921197    21.124347     21.25376    10290.971    9217.5745    9144.2039    9174.6645    24.781765    26.130333   -4.2314999   -5623.4581 
16397000   0.49342947   -7002.2557   -7000.9864   -7002.2557            0    9178.3705    22.965815    21.081462    21.255817    10291.066    9157.9328    9198.6135    9178.5653   -15.833471   -9.1710341    10.564954   -5623.4539 
16398000   0.46876087   -7002.4025   -7001.1966   -7002.4025            0    9177.9809    23.001017    21.065047    21.241066    10291.669    9166.4166    9183.3506    9184.1756   -2.8334403   -16.509737   -6.3845739    -5623.642 
16399000   0.47497751   -7002.3495   -7001.1276   -7002.3495            0    9177.6014    22.897512    21.133593    21.267865    10291.662    9217.2643    9149.7572    9165.7826    21.106733     35.89145  -0.90688575   -5623.6308 
16400000   0.48527514   -7002.4133    -7001.165   -7002.4133            0    9178.4546    23.016351    21.048953    21.242241     10291.23    9135.0111     9210.648    9189.7046   -30.280425   -37.400533    3.7314521   -5623.5979 
16401000   0.50424546   -7002.1921    -7000.895   -7002.1921            0    9178.4889    22.950238    21.103433    21.247829    10290.935    9204.4292    9154.7095    9176.3278    18.883403     17.55256   -4.1760644   -5623.3623 
16402000   0.45992909   -7002.2566   -7001.0734   -7002.2566            0    9178.3949     22.92735    21.110491    21.262561    10291.241    9185.7014     9177.699    9171.7842   0.91383539     7.203001    6.7071965   -5623.5139 
16403000    0.4769178   -7002.3481   -7001.1212   -7002.3481            0    9178.5705    23.024242    21.045645    21.238333    10291.247    9143.1316    9203.2351    9189.3448   -23.539346    -31.32569   -4.1133178   -5623.5346 
16404000   0.50103742   -7002.3638   -7001.0749   -7002.3638            0    9178.1582    22.908211    21.131724    21.258884    10291.213    9217.5842    9145.3595    9171.5309    24.727501    29.013593   -8.8678993   -5623.5546 
16405000   0.49816928   -7002.3909   -7001.1094   -7002.3909            0    9178.3339    22.983746    21.069908    21.251104    10291.175    9154.6809    9199.2571    9181.0635   -24.198113   -15.645733    8.0109106   -5623.5679 
16406000   0.46142767   -7002.3706   -7001.1836   -7002.3706            0    9177.9861    22.986386    21.075728    21.243895    10291.707    9177.4931    9175.7458    9180.7195    4.1333207   -9.5622787    -6.143571   -5623.6231 
16407000    0.4464222   -7002.2776   -7001.1292   -7002.2776            0    9178.1637    22.905429    21.128459    21.265096     10291.38    9210.3886    9155.3041    9168.7983    13.091553    31.068407    -1.026843   -5623.5857 
16408000   0.49994278   -7002.4126   -7001.1265   -7002.4126            0    9178.6719    23.022182    21.046899    21.238554    10291.047    9137.2646    9209.4278    9189.3234   -28.512817   -35.615281    2.0979204   -5623.5514 
16409000   0.52347896   -7002.3306    -7000.984   -7002.3306            0    9178.6169    22.933198    21.115817    21.251141    10290.933    9211.9992    9149.5019    9174.3495    25.494008    26.182112   -3.3088235   -5623.4324 
16410000   0.49551117   -7002.3888   -7001.1141   -7002.3888            0    9178.1535    22.947311    21.092356    21.263501    10291.807    9175.4091    9184.6923     9174.359   -10.768624   -6.6900202    9.1370664    -5623.515 
16411000    0.4494342   -7002.3785   -7001.2224   -7002.3785            0     9177.978    23.010821    21.057111    21.239829    10291.577    9156.5628    9193.6084    9183.7627   -10.666082   -19.247579   -7.1864505   -5623.6805 
16412000   0.46455346   -7002.3097   -7001.1146   -7002.3097            0    9178.0174    22.899038      21.1375    21.261337    10291.091    9222.5105    9141.9181    9169.6236    26.805083    35.705688   -2.8155781   -5623.6318 
16413000   0.51785287    -7002.334   -7001.0019    -7002.334            0    9178.1202     23.00268    21.058298     21.24455    10290.803    9139.3881    9209.6053    9185.3671   -26.507503   -29.278599    8.8593622   -5623.5422 
16414000   0.46031938   -7002.2395   -7001.0554   -7002.2395            0    9177.6087    22.963641    21.093124    21.246973    10291.501    9189.9564    9165.4689    9177.4009    11.348996    6.1774348   -6.6918033   -5623.5791 
16415000   0.47062599   -7002.3358   -7001.1251   -7002.3358            0    9178.2226    22.918616    21.116972    21.265058    10291.688    9194.9885    9168.8934     9170.786    5.3597719     14.98598    4.0822849   -5623.5316 
16416000   0.47384027   -7002.4175   -7001.1985   -7002.4175            0    9178.1077    23.024802    21.045614    21.238113    10291.376    9138.8376    9207.4663    9188.0192   -29.196702   -31.823107   -2.4465098   -5623.6641 
16417000   0.50502237   -7002.4135   -7001.1144   -7002.4135            0     9178.378    22.912636    21.130278    21.255688    10290.949    9220.3427    9140.4155    9174.3759    30.185031    33.301812   -6.4214255   -5623.5964 
16418000   0.52338551   -7002.2821   -7000.9357   -7002.2821            0    9178.1791    22.971568    21.075682    21.257159    10291.472      9158.66    9197.9982     9177.879   -18.225787   -17.478013    3.7765603   -5623.3776 
16419000   0.50138192   -7002.2156   -7000.9259   -7002.2156            0    9178.0318    22.997231    21.070769     21.23828    10291.419    9167.1767    9183.0314    9183.8872   0.72177571   -10.167085   -6.4170925    -5623.397 
16420000    0.4642908   -7002.2749   -7001.0805   -7002.2749            0    9178.3223    22.904965    21.132083    21.260959    10290.934    9213.1354    9151.7796     9170.052    17.307747    31.637957   0.48309736    -5623.573 
16421000   0.51138965   -7002.5221   -7001.2066   -7002.5221            0    9178.3051    23.017411    21.046431    21.243964    10291.305    9133.1837    9214.2242    9187.5073   -29.211025   -36.938272    4.3417007   -5623.6519 
16422000   0.50516421   -7002.3931   -7001.0936   -7002.3931            0    9178.3521    22.941654    21.109014    21.251785    10291.723    9206.5461    9151.1884    9177.3219    21.203295     16.31551   -9.9482081    -5623.476 
16423000   0.47436234   -7002.3684   -7001.1482   -7002.3684            0    9177.9663    22.934337    21.103709    21.263683    10291.613     9182.624    9181.1871    9170.0879  -0.23683512    5.6802529    8.5888457   -5623.6031 
16424000    0.4649869    -7002.289   -7001.0929    -7002.289            0    9177.8283    23.019782    21.052327    21.234784      10290.8    9149.3383    9196.9155    9187.2312   -15.356376   -22.387386  -0.79479062   -5623.6773 
16425000   0.48126731   -7002.2957   -7001.0576   -7002.2957            0    9178.6095    22.902688    21.134907    21.260397    10291.014    9222.9425    9141.8037    9171.0824    28.120042    30.406061   -1.5483741   -5623.4963 
16426000   0.50685942   -7002.3971   -7001.0932   -7002.3971            0    9178.2185    22.989806    21.064236    21.251919    10291.512    9149.1788    9205.2549    9180.2219   -27.096495   -21.434508    5.4465832   -5623.5239 
16427000   0.49550598   -7002.3323   -7001.0577   -7002.3323            0    9177.7902    22.975377    21.085105    21.245038    10291.909     9187.756    9165.6218    9179.9928    8.8637831   -2.7438947   -6.7573964   -5623.4995 
16428000   0.47881802   -7002.3251   -7001.0934   -7002.3251            0    9178.3608    22.909122    21.126497    21.263326    10291.227    9203.0051    9160.3705    9171.7068    12.009444    22.454662    6.2649447   -5623.5409 
16429000   0.48403371   -7002.4311    -7001.186   -7002.4311            0    9178.3104    23.023676    21.043672    21.240535    10291.096    9136.2426    9209.4865    9189.2023   -26.418705   -34.522776   -2.4047026   -5623.6585 
16430000   0.51863247    -7002.324   -7000.9898    -7002.324            0    9178.6151    22.924037    21.120964     21.25495    10291.174    9215.5047    9146.9287    9173.4119    27.807951    26.169175   -6.3133798   -5623.4062 
16431000    0.4884407   -7002.2271   -7000.9706   -7002.2271            0    9177.8942     22.95676     21.08875     21.25714    10291.206    9167.5661    9191.0747    9175.0419   -14.446194   -8.2838064    7.8491281   -5623.4909 
16432000   0.47547221   -7002.2292   -7001.0061   -7002.2292            0    9178.6961    23.009548    21.059929    21.237139    10291.081     9157.954    9190.9002    9187.2341   -8.6322548   -17.274744   -2.6080754   -5623.4228 
16433000   0.46302229   -7002.3816   -7001.1905   -7002.3816            0    9178.8393    22.899065    21.134907    21.264708    10291.473    9217.9148    9147.9106    9170.6925    22.835887    32.866439   -2.8054025   -5623.5333 
16434000   0.52732494   -7002.5552   -7001.1987   -7002.5552            0    9178.4493    23.004792    21.053624    21.249135    10291.684    9142.4027    9208.8814    9184.0637     -27.7434   -29.345778    4.8966615   -5623.5718 
16435000   0.51733877   -7002.3019   -7000.9711   -7002.3019            0    9177.6437    22.955704    21.099073    21.248074    10291.379     9197.768    9159.0037    9176.1594    18.148441    13.223065    -8.273757   -5623.5058 
16436000    0.4898805   -7002.2219   -7000.9617   -7002.2219            0    9178.4369    22.927591     21.11161    21.260573    10290.933    9189.3176    9173.7286    9172.2646    2.9153373    11.098257    7.9443475   -5623.4371 
16437000   0.46176534   -7002.4522   -7001.2643   -7002.4522            0    9178.3036    23.022567    21.046423    21.238906    10291.157     9143.688    9203.3817    9187.8412   -21.138837   -29.904276   -2.5234442   -5623.7298 
16438000   0.50871854   -7002.4083   -7001.0997   -7002.4083            0    9177.8516    22.910416    21.128748    21.260566    10291.568    9215.7773    9148.7192    9169.0584    28.486007    34.118591   -5.1755168   -5623.5779 
16439000   0.50424561   -7002.4172   -7001.1201   -7002.4172            0     9178.438    22.980545    21.070381    21.254085    10291.416     9152.362    9203.0466    9179.9053   -20.984234   -19.419724    5.6104643   -5623.5306 
16440000   0.49686853   -7002.2313   -7000.9531   -7002.2313            0     9177.489    22.985278    21.076794    21.242843    10291.222    9177.1723    9174.8738    9180.4208    6.9472741   0.41272683   -4.4762576   -5623.5321 
16441000   0.48049126    -7002.295   -7001.0589    -7002.295            0    9178.8492    22.907365    21.127794    21.263479    10291.143    9209.9936    9157.0667    9169.4873    16.992486    27.660555    2.5385389   -5623.4443 
16442000   0.50458812   -7002.4106   -7001.1125   -7002.4106            0    9178.4152    23.019979    21.044664    21.242873    10291.061    9137.3089    9210.6171    9187.3196   -26.255967   -33.826737  -0.93439074    -5623.574 
16443000   0.51636152   -7002.3571   -7001.0288   -7002.3571            0    9178.7729    22.935255    21.113208    21.252443    10291.215    9209.2204    9152.6652     9174.433    26.649301     24.00988   -7.1285254   -5623.4159 
16444000   0.50515026   -7002.3774   -7001.0779   -7002.3774            0    9177.3362     22.94763    21.094928     21.25997    10291.497    9172.4131    9186.8964    9172.6989   -6.9356761   -4.5519014     10.09824    -5623.643 
16445000    0.4722055   -7002.3733   -7001.1586   -7002.3733            0     9178.374    23.011821    21.054656    21.241321    10291.547    9154.5232    9194.9734    9185.6254   -9.9926671   -19.198169   -1.5566265   -5623.5612 
16446000   0.48182735   -7002.3973   -7001.1578   -7002.3973            0    9178.6933    22.900738    21.132643    21.265599    10291.553    9219.4235    9147.8333    9168.8233    27.126935     36.81998   -1.0894125   -5623.5117 
16447000   0.52057797   -7002.3905   -7001.0513   -7002.3905            0    9178.2666    23.005033    21.054684    21.246825    10291.191    9141.1727    9209.4706    9184.1565   -26.990214   -29.093619    5.3272905   -5623.5178 
16448000   0.50191625   -7002.2268   -7000.9357   -7002.2268            0    9178.3488    22.963906    21.094143     21.24473     10291.03    9193.2695      9161.55    9180.2268    18.662248    10.253398   -6.3440835   -5623.4113 
16449000   0.49072027   -7002.2871   -7001.0248   -7002.2871            0    9178.7478    22.922271    21.113863    21.263558    10291.088    9193.2729    9170.8977    9172.0729    6.7849263    14.041396    10.452578   -5623.4328 
16450000   0.48125012   -7002.5011   -7001.2631   -7002.5011            0    9178.7029     23.02269    21.044016    21.241533    10291.308    9140.0334    9207.3948    9188.6805   -21.887173    -27.44227   -4.4029979   -5623.6485 
16451000   0.50633917   -7002.3785    -7001.076   -7002.3785            0    9178.4463    22.912145    21.127179     21.26013     10291.37     9222.197    9143.0248    9170.1172    27.464562    30.939626   -4.6808283   -5623.4915 
16452000   0.50842246   -7002.3128    -7001.005   -7002.3128            0    9177.8371    22.976563     21.07539    21.252006    10291.072    9153.5977    9200.1347    9179.7789   -19.882003    -16.31378    8.4856164   -5623.5518 
16453000   0.46355865   -7002.2692   -7001.0767   -7002.2692            0     9178.174    22.993232    21.069787    21.242226    10291.062    9172.4305    9179.0084     9183.083    1.5846865   -2.8094347   -4.2533079   -5623.5743 
16454000   0.48792209   -7002.4106   -7001.1554   -7002.4106            0    9177.9551    22.903507    21.129588    21.265712    10291.364    9213.2137    9151.4252    9169.2264    17.954098    26.374811  -0.64805625   -5623.6455 
16455000   0.50396261   -7002.5198   -7001.2234   -7002.5198            0    9178.5102    23.019128     21.04454    21.244388    10291.354    9136.2305    9213.4703    9185.8299   -29.338342   -32.019625    4.4996525   -5623.6314 
16456000   0.50359529     -7002.42   -7001.1245     -7002.42            0    9178.2991    22.938991    21.110364    21.252151    10291.364    9208.8879     9150.288    9175.7215    22.993399     22.21336   -7.0698576    -5623.563 
16457000   0.47365652   -7002.3419   -7001.1235   -7002.3419            0     9177.669    22.944905    21.096283    21.260909     10291.39    9175.5933     9183.325    9174.0888   -6.4610289   -1.4799187    9.0271128   -5623.6529 
16458000   0.48172903   -7002.4001   -7001.1609   -7002.4001            0    9178.6204    23.016851    21.049634    21.241433    10291.395    9149.7627    9199.8126    9186.2859   -16.485194   -24.929952   -4.2392085   -5623.5468 
16459000   0.49360887   -7002.2832   -7001.0134   -7002.2832            0    9178.1855    22.902524    21.134604    21.260786    10290.981    9221.0418    9144.6222    9168.8924    29.266753    30.449904   -2.6139054   -5623.5202 
16460000     0.518385   -7002.3776   -7001.0441   -7002.3776            0    9178.8826    22.999334    21.058392    21.247814    10290.932    9142.0308    9209.1252    9185.4919   -26.477603   -25.164842    8.5735837   -5623.4527 
16461000   0.49813292   -7002.2908   -7001.0094   -7002.2908            0    9177.6995    22.967933    21.088049    21.248308    10291.595    9187.4111     9169.614    9176.0734    12.696854    6.3057116   -4.0217391   -5623.5068 
16462000   0.44734015   -7002.3795   -7001.2287   -7002.3795            0    9177.8092    22.915733    21.118145     21.26663    10291.726    9198.1818    9166.2224    9169.0234    11.574509    16.406087    1.0355055   -5623.6922 
16463000   0.49648006   -7002.4976   -7001.2204   -7002.4976            0     9178.237    23.025519    21.043138    21.239657    10291.233     9136.987    9207.9908    9189.7333    -25.85644   -33.141034   -1.9420014   -5623.6856 
16464000    0.5012907   -7002.2819   -7000.9923   -7002.2819            0    9178.4442    22.918789    21.125092    21.254838    10290.775    9218.1342    9145.2112    9171.9873    27.046031    29.134021   -3.6718705   -5623.4878 
16465000   0.49930236   -7002.3654    -7001.081   -7002.3654            0    9178.1325    22.969486    21.078475    21.256092    10291.387    9159.4154    9198.0742    9176.9079   -14.761839   -13.417478    8.9913779   -5623.5413 
16466000   0.45927857   -7002.3026   -7001.1211   -7002.3026            0    9177.6512    22.998349    21.064451    21.244233    10291.718    9167.7011    9184.9357    9180.3169    -3.122763   -11.245077    -3.094641   -5623.6094 
16467000   0.47663302   -7002.3789   -7001.1528   -7002.3789            0    9178.4287     22.90416     21.13073    21.264035    10291.402    9212.2941    9153.3357    9169.6562    20.054268     30.60451   -1.9409099   -5623.5667 
16468000   0.51290982   -7002.4388   -7001.1194   -7002.4388            0    9178.6609    23.018602    21.044555    21.244479    10291.171    9135.9907    9212.9164    9187.0756   -29.184462   -30.716309    5.0281217   -5623.5293 
16469000   0.49226376   -7002.2979   -7001.0316   -7002.2979            0    9178.1535     22.93967     21.10857     21.25319    10291.297    9207.6347    9153.3904    9173.4355    24.495195    19.481382   -7.0123377   -5623.5008 
16470000   0.45970723    -7002.231   -7001.0485    -7002.231            0    9177.7448    22.941012     21.10077    21.259446    10291.124    9178.8599    9180.8376     9173.537   -4.0639577    1.7666935    3.4342971   -5623.6022 
16471000   0.45962304   -7002.3461   -7001.1638   -7002.3461            0    9178.3307    23.020246    21.048652    21.238349    10290.939    9149.1008    9200.2646    9185.6267   -14.334751   -23.247976   -2.6752281   -5623.6544 
16472000   0.48436894    -7002.418    -7001.172    -7002.418            0     9178.229    22.903189    21.133477    21.261887    10291.264    9220.7287    9143.0633     9170.895    26.212857    36.617109   -6.0686253   -5623.6343 
16473000   0.50703005   -7002.5166   -7001.2123   -7002.5166            0     9178.403    22.994586    21.059999    21.252203    10291.719     9145.092     9207.899     9182.218   -24.397556   -25.165628      4.06544   -5623.5876 
16474000   0.49365628   -7002.3342   -7001.0643   -7002.3342            0    9177.6571    22.972337    21.083737    21.249096    10291.845    9188.6264    9167.6764    9176.6684     9.707194    5.6439813   -6.6635691   -5623.5346 
16475000   0.46737059   -7002.2479   -7001.0456   -7002.2479            0    9178.3894    22.915649    21.122611    21.260696    10290.992     9200.927    9161.6721    9172.5692    11.166486    19.064634   0.92941301   -5623.5203 
16476000   0.48902642    -7002.377    -7001.119    -7002.377            0    9178.4893    23.025687    21.042398    21.239469    10290.856    9134.9559    9210.7645    9189.7476   -28.681657   -31.950932  -0.86919986   -5623.5969 
16477000   0.53310062   -7002.3311   -7000.9597   -7002.3311            0    9178.9242    22.920557    21.123147    21.255726    10291.051    9217.4188    9145.6481    9173.7055    28.027713    30.047956    -8.406205   -5623.3461 
16478000   0.53451409   -7002.4008   -7001.0258   -7002.4008            0    9177.4971    22.963084     21.08206    21.259306    10291.824    9162.4452    9194.4675    9175.5785    -15.30799    -11.56707    3.8715385    -5623.523 
16479000   0.45723065   -7002.2848   -7001.1086   -7002.2848            0    9178.3743    23.002158    21.063211     21.24149    10291.487    9162.3378    9187.4614    9185.3237   -2.5500364   -12.975594   -1.6944893   -5623.5192 
16480000   0.49022319   -7002.3193   -7001.0583   -7002.3193            0    9178.4088    22.902177    21.133251    21.262711    10291.098    9215.7129    9148.2602    9171.2534     23.47539    29.562502    1.2414954   -5623.5158 
16481000   0.49705307   -7002.2982   -7001.0196   -7002.2982            0    9178.2333    23.016206    21.047647    21.243197     10290.99    9135.3612    9213.3787    9185.9599   -31.838611   -35.108959    4.7683043   -5623.5178 
16482000   0.50473112   -7002.2552   -7000.9568   -7002.2552            0    9178.4842    22.947918    21.103956    21.250027    10291.215    9203.4283    9157.1132    9174.9109    15.811287    16.200357   -4.7150719   -5623.3874 
16483000   0.48407719   -7002.3565   -7001.1113   -7002.3565            0     9178.351    22.934687    21.105328    21.261169    10291.343    9182.7711    9178.1208    9174.1611   0.23893479    7.5717963    8.5008289   -5623.5446 
16484000   0.46842137   -7002.4372   -7001.2322   -7002.4372            0    9178.4147    23.018681     21.04881    21.240733    10291.472    9146.8372    9200.7461    9187.6609   -17.067497   -27.725392  -0.43136855   -5623.6388 
16485000   0.49730449   -7002.4849   -7001.2056   -7002.4849            0    9178.1661     22.90392    21.132005    21.263574    10291.692    9222.2653     9144.816    9167.4169     27.80307    33.044879   -6.5580922     -5623.62 
16486000   0.50861521    -7002.395   -7001.0866    -7002.395            0    9177.8069    22.994227    21.061555    21.250337    10291.414    9143.9792    9207.6726    9181.7688   -25.823273   -25.102249    6.4352301   -5623.5921 
16487000   0.45997688   -7002.2183    -7001.035   -7002.2183            0    9178.0398    22.980295    21.080865    21.243159    10291.132    9178.7868    9173.2542    9182.0783    5.4592403   -1.9710315   -5.3093639   -5623.5434 
16488000   0.50238925   -7002.2968   -7001.0045   -7002.2968            0    9178.3439    22.911423    21.124106    21.263164    10291.017    9202.7989    9162.1197    9170.1131    12.716559    19.655917    1.6952298   -5623.4826 
16489000   0.48966538   -7002.5244   -7001.2647   -7002.5244            0    9178.2994    23.023788    21.042434    21.242002    10291.252    9134.6514    9211.2589    9188.9879   -28.958796   -33.429631   0.57834383   -5623.7181 
16490000   0.49916056   -7002.3954   -7001.1113   -7002.3954            0    9178.7256    22.922863    21.119909     21.25811    10291.663    9216.6787     9147.022    9172.4762    25.510943     25.24712   -7.3697787   -5623.4457 
16491000   0.49733204   -7002.2975   -7001.0181   -7002.2975            0    9177.9493    22.959689    21.087618      21.2556     10291.22    9165.7001    9191.2348    9176.9129   -10.972215   -8.2572005    7.9765696   -5623.5282 
16492000    0.4704003   -7002.3328   -7001.1227   -7002.3328            0    9178.2029    23.007409    21.059245    21.240096    10291.223    9162.0928    9188.7669     9183.749    -6.509578   -13.031583   -3.1739451   -5623.5944 
16493000   0.48472889   -7002.2932   -7001.0462   -7002.2932            0     9178.616    22.900414    21.134887    21.262813    10291.152    9218.8964    9147.9062    9169.0455    23.694784    34.745537   -1.6409661   -5623.4654 
16494000   0.49694401   -7002.3932   -7001.1148   -7002.3932            0    9178.9949     23.00917    21.052498    21.245593    10291.376    9138.9715    9210.6721    9187.3413   -31.325026   -29.912061   0.78794746   -5623.4472 
16495000    0.4970527   -7002.2881   -7001.0095   -7002.2881            0    9178.2846    22.954803    21.098137    21.250115    10291.507    9199.5876     9158.116      9177.15    19.990891    13.062038   -5.0587829    -5623.431 
16496000    0.4591986   -7002.3542    -7001.173   -7002.3542            0    9178.3294    22.925729    21.111891    21.263257    10291.533    9190.3989    9171.9988    9172.5906    2.5145739    7.3460255     6.853865   -5623.5842 
16497000    0.4646345   -7002.3946   -7001.1993   -7002.3946            0      9178.16    23.024072    21.044806    21.239641    10291.395    9142.8403    9204.4441    9187.1955   -23.168011   -30.299442   -4.0123592   -5623.6545 
16498000   0.50378846   -7002.2914   -7000.9954   -7002.2914            0    9178.4474    22.908258    21.130568     21.25941    10290.926    9221.7475     9143.977    9169.6177    28.540655    33.735572   -5.2736153   -5623.4702 
16499000    0.5118034    -7002.347   -7001.0304    -7002.347            0    9177.9335    22.982582    21.071009    21.251108    10291.193    9152.6302    9200.1289    9181.0415   -21.744929   -17.487167    6.2157169   -5623.5465 
16500000    0.4946605   -7002.2484   -7000.9759   -7002.2484            0    9177.7044    22.990899     21.07329    21.241692     10291.47    9173.3759    9177.4967    9182.2406    4.3068805   -7.0831218   -3.6829193   -5623.4894 
Loop time of 605.295 on 64 procs for 250000 steps with 1296 atoms

Performance: 71.370 ns/day, 0.336 hours/ns, 413.022 timesteps/s
194.5% CPU use with 32 MPI tasks x 2 OpenMP threads

MPI task timing breakdown:
Section |  min time  |  avg time  |  max time  |%varavg| %total
---------------------------------------------------------------
Pair    | 36.089     | 47.905     | 59.554     |  94.8 |  7.91
Bond    | 0.8496     | 1.0774     | 1.828      |  19.5 |  0.18
Kspace  | 311.61     | 324.04     | 338.44     |  39.7 | 53.53
Neigh   | 0.15131    | 0.16108    | 0.168      |   1.1 |  0.03
Comm    | 85.355     | 90.605     | 94.829     |  23.0 | 14.97
Output  | 0.65726    | 0.65772    | 0.66       |   0.1 |  0.11
Modify  | 113.85     | 116.9      | 119.4      |  11.7 | 19.31
Other   |            | 23.95      |            |       |  3.96

Nlocal:        40.5000 ave          50 max          30 min
Histogram: 2 0 4 2 6 6 4 1 3 4
Nghost:        3239.41 ave        3257 max        3229 min
Histogram: 3 9 7 3 1 1 0 4 2 2
Neighs:        13563.0 ave       16813 max       10039 min
Histogram: 2 0 4 2 8 6 2 3 3 2

Total # of neighbors = 434015
Ave neighs/atom = 334.88812
Ave special neighs/atom = 2.0000000
Neighbor list builds = 250
Dangerous builds = 0

unfix		3
unfix		2
unfix		1

write_data	data.final.${pid}
write_data	data.final.0
System init for write_data ...
PPPM initialization ...
  extracting TIP4P info from pair style
  using 12-bit tables for long-range coulomb (../kspace.cpp:340)
  G vector (1/distance) = 0.37227975
  grid = 30 36 32
  stencil order = 5
  estimated absolute RMS force accuracy = 0.0035618946
  estimated relative force accuracy = 1.072654e-05
  using double precision FFTW3
  3d grid and FFT values/proc = 7344 1080
Last active /omp style is kspace_style pppm/tip4p/omp
WARNING: Not all mixed pair coeffs generated from mixing. Use write_data with 'pair ij' option to store all pair coeffs. (../write_data.cpp:312)

write_restart   restart.lmp.${pid}
write_restart   restart.lmp.0
System init for write_restart ...
PPPM initialization ...
  extracting TIP4P info from pair style
  using 12-bit tables for long-range coulomb (../kspace.cpp:340)
  G vector (1/distance) = 0.37227975
  grid = 30 36 32
  stencil order = 5
  estimated absolute RMS force accuracy = 0.0035618946
  estimated relative force accuracy = 1.072654e-05
  using double precision FFTW3
  3d grid and FFT values/proc = 7344 1080
Last active /omp style is kspace_style pppm/tip4p/omp
Total wall time: 0:10:05
