#include		in.partitions
include		in.temp
variable        temperature equal 143.97
variable	tempDamp equal 100.0
include		in.pressure
variable        pressure equal 7186.3
variable        pressureDamp equal 1000.0 # This is 1 ps
include		in.seed
variable        seed equal 745823

units		real
atom_style	full
read_restart    restart.lmp.${pid}
read_restart    restart.lmp.0
Reading restart file ...
  restart file = 30 Jul 2021, LAMMPS = 30 Jul 2021
  restoring atom style full from restart
  triclinic box = (-3.1926276 -0.065458900 0.020144575) to (14.802627 22.645458 19.209853) with tilt (-0.22557849 -6.8049744 -0.024306810)
  2 by 4 by 4 MPI processor grid
  restoring pair style lj/cut/tip4p/long/omp from restart
  restoring bond style harmonic/omp from restart
  restoring angle style harmonic/omp from restart
  1008 atoms
  672 bonds
  336 angles
Finding 1-2 1-3 1-4 neighbors ...
  special bond factors lj:    0        0        0       
  special bond factors coul:  0        0        0       
     2 = max # of 1-2 neighbors
     1 = max # of 1-3 neighbors
     1 = max # of 1-4 neighbors
     2 = max # of special neighbors
  special bonds CPU = 0.002 seconds
  read_restart CPU = 0.007 seconds

include 	in.setup
variable	out_freq equal 1000
variable	out_freq2 equal 10000
variable	out_freq3 equal 1000

timestep	2.0

neigh_modify    delay 7 every 1

include		in.tip4p
# This is TIP4P/Ice

# create groups ###
group ox type 2
336 atoms in group ox
group hy type 1
672 atoms in group hy

# set charges - beside manually ###
set group ox charge -1.1794
Setting atom values ...
  336 settings made for charge
set group hy charge 0.5897
Setting atom values ...
  672 settings made for charge

# ### TIP3P Potential Parameters ###
pair_style lj/cut/tip4p/long/omp 2 1 1 1 0.1577 8.5
pair_coeff 1 1*2 0.000 0.000
pair_coeff 2 2 0.21084 3.1668
bond_style  harmonic
bond_coeff  1 450 0.9572
angle_style harmonic
angle_coeff 1 55 104.52
kspace_style pppm/tip4p/omp 1.0e-5
pair_modify tail yes

thermo          ${out_freq}
thermo          1000
thermo_style    custom step temp pe etotal epair emol press lx ly lz vol pxx pyy pzz pxy pxz pyz enthalpy

restart 	${out_freq3} restart.lmp.${pid} restart2.lmp.${pid}
restart 	1000 restart.lmp.${pid} restart2.lmp.${pid}
restart 	1000 restart.lmp.0 restart2.lmp.${pid}
restart 	1000 restart.lmp.0 restart2.lmp.0


include         in.dump
dump            myDump all atom ${out_freq2} dump.water.${pid}
dump            myDump all atom 10000 dump.water.${pid}
dump            myDump all atom 10000 dump.water.0
dump            myDump2 all dcd ${out_freq2} dump.dcd
dump            myDump2 all dcd 10000 dump.dcd
dump_modify     myDump append yes
dump_modify     myDump2 append yes


variable natoms 	equal  "count(all)"                        # NUMBER ATOMS
variable H      	equal  "enthalpy/v_natoms"                 # ENTHALPY-per-atom
variable Vol      	equal  "vol/v_natoms"                 # volume-per-atom
fix AVG all 		ave/time ${out_freq} 1 ${out_freq} v_Vol v_H file vol_enthalpy.dat
fix AVG all 		ave/time 1000 1 ${out_freq} v_Vol v_H file vol_enthalpy.dat
fix AVG all 		ave/time 1000 1 1000 v_Vol v_H file vol_enthalpy.dat



fix 		1 all shake 1e-6 200 0 b 1 a 1
       0 = # of size 2 clusters
       0 = # of size 3 clusters
       0 = # of size 4 clusters
     336 = # of frozen angles
  find clusters CPU = 0.006 seconds
fix             2 all nph tri ${pressure} ${pressure} ${pressureDamp}
fix             2 all nph tri 7186.3 ${pressure} ${pressureDamp}
fix             2 all nph tri 7186.3 7186.3 ${pressureDamp}
fix             2 all nph tri 7186.3 7186.3 1000
fix             3 all temp/csvr ${temperature} ${temperature} ${tempDamp} ${seed}
fix             3 all temp/csvr 143.97 ${temperature} ${tempDamp} ${seed}
fix             3 all temp/csvr 143.97 143.97 ${tempDamp} ${seed}
fix             3 all temp/csvr 143.97 143.97 100 ${seed}
fix             3 all temp/csvr 143.97 143.97 100 745823


run             250000
PPPM initialization ...
  extracting TIP4P info from pair style
  using 12-bit tables for long-range coulomb (../kspace.cpp:340)
  G vector (1/distance) = 0.3797331
  grid = 24 27 32
  stencil order = 5
  estimated absolute RMS force accuracy = 0.0024007655
  estimated relative force accuracy = 7.2298341e-06
  using double precision FFTW3
  3d grid and FFT values/proc = 5355 672
Last active /omp style is kspace_style pppm/tip4p/omp
Neighbor list info ...
  update every 1 steps, delay 7 steps, check yes
  max neighbors/atom: 2000, page size: 100000
  master list distance cutoff = 10.8154
  ghost atom cutoff = 10.8154
  binsize = 5.4077, bins = 5 5 4
  1 neighbor lists, perpetual/occasional/extra = 1 0 0
  (1) pair lj/cut/tip4p/long/omp, perpetual
      attributes: half, newton on, omp
      pair build: half/bin/newton/tri/omp
      stencil: half/bin/3d/tri
      bin: standard
Per MPI rank memory allocation (min/avg/max) = 10.31 | 10.32 | 10.33 Mbytes
Step Temp PotEng TotEng E_pair E_mol Press Lx Ly Lz Volume Pxx Pyy Pzz Pxy Pxz Pyz Enthalpy 
23500000     150.7618   -5079.9216   -4778.3794   -5079.9216            0    6607.6611    17.995254    22.710917    19.189709    7842.6176    5307.6499     7033.926    7481.4072    1025.4025    960.68273    268.46251    -4022.618 
23501000    144.16054   -5098.7382   -4810.3994   -5098.7382            0    6247.8863    17.941823    22.898955    19.088234     7842.382    6120.7273    6174.1353    6448.7964    492.17809    193.53463   -155.82389   -4095.8092 
23502000     142.9019   -5088.7741   -4802.9527   -5088.7741            0    7185.0618    17.957894    22.667261     19.18612    7809.8303    7461.0171    6994.3149    7099.8536    1009.0738   -625.45722   -394.94362   -3984.5859 
23503000    143.51216   -5090.5905   -4803.5484   -5090.5905            0    8363.0476    17.868698    22.893408     19.01944    7780.3848    9122.1036    7029.8297    8937.2094    492.01597   -295.56391    120.85274   -3854.6024 
23504000    136.30789   -5097.0241   -4824.3915   -5097.0241            0    5862.3442    17.848957    22.739071    19.351298    7854.0862     6613.239    5965.0184    5008.7751   -175.10156    360.89277    1085.9977   -4152.8963 
23505000    142.80901    -5089.659   -4804.0234    -5089.659            0    6870.6066     17.82651    22.824234    19.238111    7827.5343    6865.4758     6697.865     7048.479    630.22202   -169.32777   -101.27947   -4019.6986 
23506000    148.46875   -5086.0431   -4789.0872   -5086.0431            0    8883.1649    17.835624    22.563194    19.326495    7777.5355    9459.8132    8873.6108    8316.0707    -753.1321   -384.46813    516.86332   -3781.4931 
23507000    141.33336   -5093.4228   -4810.7386   -5093.4228            0    5344.1878     17.86085    23.095689    19.142631    7896.5006    4518.8308    5295.6497    6218.0828     1242.025    600.21294   -1113.5378   -4195.2893 
23508000     142.5876   -5089.5893   -4804.3964   -5089.5893            0    7001.9584    17.856186    22.796174    19.214882    7821.4702    6886.9963     7195.261     6923.618   -963.53296   -586.47708   -338.78247   -4005.6962 
23509000    148.50383   -5082.8577   -4785.8317   -5082.8577            0    7849.1306    17.873967    22.575161    19.342121    7804.6944    7504.7429    8825.5761    7217.0727   -1540.8233    313.49586   -549.40369   -3892.4164 
23510000    146.97067    -5087.123   -4793.1635    -5087.123            0    5626.5274    17.839972    22.851982    19.309458    7872.0551    6382.0761    5549.2678    4948.2384    537.65102   -946.38635   -2081.2089   -4147.2052 
23511000    147.18009   -5101.7972   -4807.4188   -5101.7972            0    6350.4136    17.823609    22.810698    19.256507    7829.0978    5760.1401     6411.912    6879.1886    -813.4455    318.70839   -1010.5234   -4082.3326 
23512000    149.97146   -5076.0567   -4776.0952   -5076.0567            0    6945.2688    17.932248    22.589644    19.328626    7829.6993    7473.9999    7685.4531    5676.3535    91.324547    568.61646     1263.641   -3983.0279 
23513000    147.29238   -5075.9663   -4781.3633   -5075.9663            0    6882.2922    17.856169    22.765878     19.25431    7827.0959    8132.5219    6177.9043    6336.4506   -536.97987   -415.86871   -614.80032   -3995.7485 
23514000    145.49345   -5096.1438   -4805.1389   -5096.1438            0    6561.8227    17.775395    22.760817    19.371637    7837.4254    7679.5296    6863.1643    5142.7741    282.59569    990.31572    342.38608   -4055.1173 
23515000    147.19626   -5095.7276   -4801.3169   -5095.7276            0    7515.6464    17.909269    22.793828    19.116898    7803.9151    7336.5131     7123.893    8086.5332    976.33835   -361.69374    913.07666   -3945.9454 
23516000    139.74489   -5076.6948   -4797.1877   -5076.6948            0    7219.6647    17.973253    22.636511     19.22337    7821.0614    5176.5351    8711.8892    7770.5697    1080.3771    67.747555    828.58318   -3973.6972 
23517000    146.59974   -5091.7606    -4798.543   -5091.7606            0    8644.2469    17.871047    22.749665    19.161539    7790.3215    8031.2445     9229.962    8671.5341    311.91638    755.68883    1312.2567   -3816.4369 
23518000    145.71889   -5102.1245   -4810.6687   -5102.1245            0    6947.6268    17.830619    22.891233    19.107724    7799.1013    5524.5628    7244.8975    8073.4201    50.014805   -172.57915   -31.950731   -4020.4324 
23519000    138.00346   -5077.2823   -4801.2584   -5077.2823            0    7487.7248     17.97751    22.645585    19.182555    7809.4332    6211.5837    8137.4714    8114.1193    -382.5409     81.72445    2272.0425   -3948.4621 
23520000    142.12929    -5079.511   -4795.2349    -5079.511            0    7726.1801    17.830906    22.884063    19.057059    7776.1104      6843.14    7501.0572     8834.343    501.10037   -713.82863    496.10854   -3919.0351 
23521000    142.76608   -5103.6258    -4818.076   -5103.6258            0    6995.3308    17.851292    22.744391    19.243713    7813.2703    7302.7352    6940.7955    6742.4618   -1686.4216    -710.2358    567.84452   -4020.9683 
23522000    144.72553   -5082.1913   -4792.7223   -5082.1913            0     9377.904    17.875774     22.73392    19.100913    7762.3515     7993.439    9573.9087    10566.364   -842.72236    438.57548    1104.5538   -3731.0879 
23523000    137.66357    -5093.508   -4818.1638    -5093.508            0    6657.3285    17.961066    22.674386    19.208722    7822.8701    5656.6327    6965.1916    7350.1613   -378.75127    1114.1046   -1132.3161    -4058.639 
23524000    149.89584   -5076.8914   -4777.0812   -5076.8914            0    6398.6253    17.908885    22.882959    19.214818    7874.3914    6893.5709    6088.9942    6213.3108    390.40549    1583.3456   -1567.9404   -4042.2636 
23525000    146.63979   -5082.3675   -4789.0698   -5082.3675            0    6326.2586    17.928105    22.865913    19.185462     7864.936    6154.2115    6268.4656    6556.0988    -139.9845    87.108926   -2474.9255   -4063.4351 
23526000    153.39947   -5096.9831   -4790.1652   -5096.9831            0    7015.7666    17.995524    22.632192    19.199305    7819.4578    6292.6622    7592.0381    7162.5994    168.77133   -110.11499   -389.23542   -3990.0958 
23527000    146.28198   -5073.8933   -4781.3112   -5073.8933            0    7477.2019    17.877583    22.935524    19.065445    7817.4376    5964.9795    7415.6934    9050.9329    465.74914   -314.40223    1157.3424   -3928.8406 
23528000    147.03293   -5098.5449   -4804.4609   -5098.5449            0    7791.9214     17.90444    22.602303     19.24605     7788.522    6996.2048    9205.4076    7174.1518   -29.994704   -505.75367    1145.8513   -3919.3952 
23529000    146.02058   -5083.7007   -4791.6415   -5083.7007            0    9349.2712    17.797873    22.728141    19.167186    7753.3679      10997.9    9269.3943     7780.519   -313.35779   -880.65427     543.5598   -3734.4734 
23530000    153.29501   -5089.7924   -4783.1835   -5089.7924            0    8025.1918    17.894273    22.601454    19.250973     7785.798    7439.1543    8815.0813    7821.3397   -96.185971   -228.76676    217.49946     -3871.94 
23531000     155.8495   -5095.4474   -4783.7291   -5095.4474            0    7996.0093    17.850005    22.771246    19.215573    7810.4935    8986.9357    7037.3366    7963.7555    1791.0418    -26.91186    917.07725   -3872.9194 
23532000    146.38772   -5087.2062   -4794.4127   -5087.2062            0    6438.9299    17.930308    22.833535    19.167087    7847.2414    4635.8674    6782.8848    7898.0375    674.93331    390.99412   -984.72466    -4057.516 
23533000    143.58268    -5093.682   -4806.4989    -5093.682            0    6514.2168    17.912286    22.789034    19.250209    7858.0068    7815.9841    6257.6416    5469.0245     616.1389   -28.308083    110.27443   -4059.9633 
23534000    139.37019   -5094.7588   -4816.0012   -5094.7588            0    7188.6192    17.916373    22.777156    19.137445    7809.6855    7324.3619    7057.1363    7184.3595   -400.93478   -449.84361    -2729.479   -3997.2445 
23535000    141.48634    -5103.147   -4820.1568    -5103.147            0    7255.1717    18.041004     22.61715    19.199669    7834.1578    6209.7561    7201.6872    8354.0717   -225.37804    -494.2695   -2397.6392   -3991.2306 
23536000    140.78359   -5096.7685   -4815.1839   -5096.7685            0    6537.3036    17.747085    23.088969    19.094611    7824.2438    6358.8617    6178.6859    7074.3633   -1269.1967   -68.385484    99.732155   -4069.2216 
23537000    150.18448   -5095.1248   -4794.7373   -5095.1248            0    8036.6309    17.913366    22.688634    19.198342    7802.7781    7772.7647    8832.4567    7504.6711    458.93686    352.34373   -1600.8257   -3880.2048 
23538000    144.86352   -5090.9995   -4801.2545   -5090.9995            0    8259.0512    17.834176    22.706797    19.215769    7781.5603     8259.221    8264.3817    8253.5509    710.01452    460.59275    749.45976   -3863.9672 
23539000    144.15266   -5086.6304   -4798.3073   -5086.6304            0    8729.4241    17.786708    22.796787     19.14719    7763.7988    7795.9622    8783.0126    9609.2976    285.64124    49.014008    -44.75496   -3809.9004 
23540000    142.42071   -5082.7606   -4797.9016   -5082.7606            0    7670.7106    17.884963    22.720661    19.204677    7803.9776    7872.2234    7964.5277    7175.3806    317.72964    36.937704    223.93933   -3924.8749 
23541000    149.41546   -5096.8407   -4797.9914   -5096.8407            0    7593.2481    17.892416    22.769639    19.146196    7800.2342    7262.5552    7357.6033    8159.5857    -75.91871      -8.9086   -1029.0566   -3934.1955 
23542000    149.61286   -5096.5727   -4797.3285   -5096.5727            0     7684.248    17.918705    22.768947    19.144653    7810.8275    5846.9858    8429.3017    8776.4565    -725.1589    727.76855    838.02468   -3921.9935 
23543000    153.61349   -5099.0625   -4791.8165   -5099.0625            0    6816.6985    17.981418    22.726686     19.14197    7822.5201    6444.2897     6982.936    7022.8697     1159.787   -21.178296    166.02632   -4014.1442 
23544000    139.03394   -5092.1205   -4814.0354   -5092.1205            0    8339.5844     17.77551    22.732642    19.237975    7773.7639    9322.1232    8594.7304    7101.8995   -1101.3207    840.17436   -316.28112    -3868.557 
23545000     142.7084   -5107.8763   -4822.4419   -5107.8763            0     7333.588    17.882898     22.73868    19.182039    7800.0597    7967.4317    6669.6542    7363.6782   -225.77705    894.47563    1187.1046   -3988.2032 
23546000    146.89965   -5102.0317   -4808.2143   -5102.0317            0    8607.0572    17.847777    22.525652    19.298149    7758.4889    9061.5065    8121.6219    8638.0431    136.85369   -524.86418   -1165.6121   -3834.3292 
23547000    143.46031   -5084.6923   -4797.7539   -5084.6923            0    8948.7415    17.685139    22.821312    19.217173    7756.0137    9799.5405    8189.3201     8857.364    -699.9937    51.522703    72.439155   -3785.5304 
23548000    139.99539   -5095.6354   -4815.6273   -5095.6354            0     6547.403    17.907067     22.73895    19.227179    7829.0747    6487.6135    6265.1174    6889.4781   -451.34531   -90.418599   -571.10809   -4068.0513 
23549000    152.28765   -5089.3521   -4784.7579   -5089.3521            0    7943.8513    17.811137    22.763956    19.204822    7786.6324    7884.1984    7654.5252    8292.8301    928.95562   -8.6313067   -960.46142   -3882.6538 
23550000    145.23744   -5108.4506   -4817.9578   -5108.4506            0    6852.4313    17.883331    22.828916    19.184206    7832.0874     6830.565    6950.3391    6776.3897   -412.02725    971.58542   -816.39756   -4035.2528 
23551000    157.37397   -5086.2617   -4771.4943   -5086.2617            0    6979.1671    17.896742     22.65942     19.32149    7835.4397    6124.3499    6901.1318    7912.0194    455.32791    919.65699    545.29184    -3973.972 
23552000     144.1957   -5101.0664   -4812.6572   -5101.0664            0    8740.2779    17.846832    22.707217    19.203645    7782.3134    8574.3282    8762.4112    8884.0943   -146.64301    754.71696   -520.39555   -3820.6614 
23553000    139.72024   -5103.8668   -4824.4091   -5103.8668            0    6977.9121    17.911622    22.737912    19.137071    7794.0104     7870.827    6106.0424    6956.8667   -732.77917   -847.99175    25.893056   -4031.2463 
23554000    145.48818    -5074.027   -4783.0327    -5074.027            0     6715.962    17.906097    22.735036    19.265416    7842.8689    7665.6093    6465.7424    6016.5343    -378.3467    238.39952   -463.52031   -4014.8596 
23555000    140.87397   -5074.6679   -4792.9026   -5074.6679            0    7112.8835    17.819892    22.912897    19.177095    7830.1105    7903.3309    6882.0284    6553.2912    818.41064   -585.25674     637.9653    -3980.653 
23556000    144.52149   -5058.9346   -4769.8738   -5058.9346            0    9164.9146    17.887875     22.52179    19.294212    7773.0007    8693.2597    9293.8402    9507.6439   -492.68444    -550.3089   -1193.3054   -3730.9277 
23557000    137.38932   -5091.6821   -4816.8865   -5091.6821            0    8782.1472     17.67256    22.938676    19.169072    7770.8565    9141.0241    7865.6534    9339.7642    432.17708   -161.34749   -646.77299    -3821.606 
23558000    147.96924   -5096.0953   -4800.1385   -5096.0953            0    7353.8999    17.745213    22.877664    19.253484    7816.3183    9520.3999    6162.6644    6378.6354   -117.20568   -930.47293     799.1859   -3961.8455 
23559000    141.36062   -5082.6287     -4799.89   -5082.6287            0    8947.1404    17.826503    22.611115    19.267643    7766.3456    8744.6334    10081.128      8015.66    550.73333    181.32017   -579.89311   -3786.4994 
23560000    140.76992    -5086.028   -4804.4708    -5086.028            0    6386.0794    17.816027    22.897735    19.229199    7844.4875    6445.7253    6144.7507    6567.7622   -298.52639    51.463911    1233.4831    -4073.879 
23561000    154.15474   -5095.3412   -4787.0127   -5095.3412            0    7776.0418    17.962283    22.390243    19.370794    7790.5432    7482.4689    8028.7033    7816.9531    156.31214   -129.97512    1502.1098   -3903.5215 
23562000    152.94912   -5074.5583   -4768.6411   -5074.5583            0    7214.3709     17.65509    23.099758    19.124584    7799.5465    8211.2884    6454.8356    6976.9888   -262.10962   -294.50501   -864.69542   -3948.0181 
23563000    148.71488   -5075.7155   -4778.2673   -5075.7155            0    8891.6251    17.900019    22.584355    19.203209    7763.0964    6567.8698    10076.504    10030.502   -662.07267   -181.69845   -39.040393    -3771.586 
23564000     147.9498   -5103.3597   -4807.4419   -5103.3597            0    6759.1111    17.801415    22.645457    19.400984    7820.9474    7858.1443    6451.1413    5968.0477   -552.83801   -986.47978   -215.38526   -4036.4943 
23565000    139.71355   -5095.6409   -4816.1966   -5095.6409            0    6359.1077    17.752386    22.930271    19.223586    7825.2883    5839.3107    7081.4378    6156.5747   -329.15091   -216.97031   -433.28055    -4090.471 
23566000    152.06596   -5088.5979   -4784.4472   -5088.5979            0    6157.7428     17.94093    22.480167    19.470508    7852.7499     7530.039     6689.134    4254.0556   -1401.3341   -427.54837   -247.54969    -4079.236 
23567000    135.70388   -5078.0717   -4806.6472   -5078.0717            0    8174.7773    17.757034    22.804243    19.257696    7798.1289    9030.1288    8728.5703     6765.633    879.76405    83.636373    958.92894   -3876.9485 
23568000    148.52938   -5093.6908   -4796.6137   -5093.6908            0    7233.1601    17.791475    22.846497     19.21276     7809.466    7436.4104    7588.2103    6674.8597   -497.50048    847.21134    137.17243   -3972.8071 
23569000    147.06428   -5112.9191   -4818.7723   -5112.9191            0    7227.0629    17.967508    22.483614    19.283688    7790.1189    6976.3804    8074.1834     6630.625    9.4543642   -376.74716   -589.45202   -3997.6993 
23570000    145.01195   -5082.4401   -4792.3983   -5082.4401            0    7868.4575     17.69471    23.131328    19.041511    7793.7313    8748.1037    7468.5837    7388.6851    877.34411    1050.6039    507.72997   -3898.0413 
23571000    142.10562    -5088.559   -4804.3302    -5088.559            0    6660.2378    18.027865    22.598064    19.325144    7872.9641    4766.7416    7226.0452    7987.9267    1060.5081    872.80712    598.36688   -4039.6077 
23572000    152.38641   -5078.4788   -4773.6872   -5078.4788            0    6694.9247    17.821611    22.887341    19.122966    7800.0532    7790.3157    6703.7712    5590.6872    197.39713   -65.202163   -87.825125   -4012.1008 
23573000    139.79538   -5100.9497   -4821.3416   -5100.9497            0    7644.8036    17.852555    22.645043    19.274334    7792.0712    7983.4403    8151.4602    6799.5103    1230.6054    341.79773    964.08398    -3952.591 
23574000    139.11038   -5092.7728   -4814.5349   -5092.7728            0      9448.35    17.855698    22.618815    19.178345    7745.6489    9573.8926    9592.0191    9179.1385   -447.48373   -196.11776    778.14783   -3747.2271 
23575000    142.73288   -5089.5603   -4804.0769   -5089.5603            0    7495.0964    17.793017    22.825292    19.190734    7793.9485    8366.8566    7349.9977     6768.435     1441.035    -1034.737    261.00311   -3952.1337 
23576000    146.16338   -5093.6274   -4801.2825   -5093.6274            0    6335.2405    17.854374    22.885163    19.201668    7845.8066     6865.985    5280.4669    6859.2696    169.49638   -938.34234     1668.507   -4076.3851 
23577000    138.68298   -5103.4578   -4826.0747   -5103.4578            0    8111.4918    17.935419    22.631681    19.191299    7789.9145    6718.4805    9056.2843    8559.7107    863.74542    693.71331    1243.2893   -3904.5451 
23578000    151.41682   -5080.2216   -4777.3693   -5080.2216            0    6382.0613    17.909334    22.855889    19.179056    7850.6353    4106.6209    6909.2922    8130.2708   -47.086131    51.698013    192.14937   -4046.6649 
23579000     143.1676   -5096.5539    -4810.201   -5096.5539            0    7876.4162    17.883219    22.771366    19.174971    7808.5336    8186.5967    7130.1589    8312.4929   -305.96199   -319.05491    994.69061    -3913.239 
23580000    145.31633    -5080.614   -4789.9634    -5080.614            0     6352.698    17.895513    22.751416    19.303788    7859.5037    6473.5475    6810.4112    5774.1352    54.406479   -200.17556    1738.0761   -4061.7994 
23581000    147.52296    -5093.549   -4798.4848    -5093.549            0     7023.104    17.879106    22.732593    19.252978    7825.1502    6250.2247    7785.5196    7033.5676    1412.2789    233.40456   -442.35475   -3996.9956 
23582000    144.77412   -5103.6863   -4814.1201   -5103.6863            0    8451.1266    17.809935     22.76786    19.188585    7780.8583    8703.9081    7802.3793    8847.0923   -1176.7947    274.24044    1711.8309   -3855.1215 
23583000     143.6334   -5082.1564   -4794.8718   -5082.1564            0     6977.144    17.938954    22.603486    19.272632    7814.7228    7595.1019    6721.5269    6614.8032    -15.92206   -18.627528   -1777.3326   -3999.6887 
23584000    155.09539   -5093.8022   -4783.5922   -5093.8022            0    7179.0135    17.838117    22.745759    19.285389     7824.883    8438.6706    7496.2147    5602.1551   -538.61101    322.62136    726.83913   -3964.3384 
23585000    138.51849   -5091.4208   -4814.3667   -5091.4208            0    7439.9878    17.804937    22.811461    19.217576     7805.346    7767.1148    7633.6484    6919.2004   -672.24176    777.51551    526.72973   -3967.4508 
23586000    142.10016   -5094.8567   -4810.6388   -5094.8567            0    6183.7028    17.832243    22.787236    19.304508    7844.3388    6507.3489    6775.7987    5267.9607    1564.8748    659.29822   -442.29639   -4103.2131 
23587000    137.01539   -5080.3457    -4806.298   -5080.3457            0    7948.4828    17.894467    22.677056     19.18477    7785.0613    7540.8226    8195.8787    8108.7472    69.723426   -910.19101   -605.41699     -3903.85 
23588000    147.00075   -5093.6291   -4799.6095   -5093.6291            0    6888.7349    17.858812    22.855749    19.164037    7822.3102     8045.559    6374.0765    6246.5692   -24.024908   -1090.2761    1237.0525   -4013.7401 
23589000    142.15861   -5117.2155   -4832.8807   -5117.2155            0    7041.9557     17.91272    22.768157    19.129254    7801.6679    5049.6695    8084.2498    7991.9479   -864.63693    259.95013   -56.035519   -4031.6517 
23590000    140.47873    -5087.598   -4806.6232    -5087.598            0    6294.6761     17.94522    22.760924    19.163753    7827.4309    6151.4373    6134.3736    6598.2173    199.10788   -1870.5258    23.721862   -4088.0542 
23591000    145.10457   -5098.7928   -4808.5657   -5098.7928            0    6260.3539    17.858814    22.881329    19.100999     7805.306    4912.4255    6804.8081    7063.8282   -349.52635   -509.20118   -453.28278   -4095.9347 
23592000    148.91799   -5106.2086   -4808.3542   -5106.2086            0     7136.096    17.988757    22.824517    19.062099    7826.6062    6519.8246    7237.0929    7651.3705   -932.02726     771.0711   -817.16518   -3993.8187 
23593000    144.31348    -5079.142   -4790.4972    -5079.142            0    8106.9236    18.010614    22.644161     19.15475    7811.9822    6844.5601    8898.4974    8577.7134    971.40045     1354.851    1839.1032   -3866.8775 
23594000    144.12851   -5085.2095   -4796.9347   -5085.2095            0    8364.5553    17.954064    22.718426    19.087848    7785.7058     7935.868    8363.8075    8793.9905   -1411.1333    447.53989    79.188033   -3847.1684 
23595000    142.43381    -5107.267   -4822.3818    -5107.267            0    8411.3856    17.757227     22.90821    19.080344    7761.6223     8506.706    7641.0311    9086.4197    942.77701   -728.38625    -23.04185   -3870.2525 
23596000    140.92232   -5083.8236   -4801.9615   -5083.8236            0    5685.4374     17.94419    22.633776    19.379231    7870.7736    5814.2878    6387.0893    4854.9351   -317.96924   -1450.0859   -269.94251   -4149.3463 
23597000    141.47529   -5085.9846   -4803.0165   -5085.9846            0    8336.3454    17.896618    22.736009    19.156059    7794.5555    6620.1897     9259.688    9129.1587   -346.03628   -268.58476    30.057089   -3855.3775 
23598000    147.25706   -5097.8615   -4803.3292   -5097.8615            0    8737.0556    17.841383    22.837316    19.143493    7800.0028    8557.2706    8779.5538    8874.3425   -457.27703    591.14035   -60.714554   -3809.4451 
23599000     136.6441   -5082.7549   -4809.4498   -5082.7549            0    6121.6282     18.03363    22.565841    19.281355    7846.4324    5643.2792    6956.1092    5765.4961    856.67242   -241.90547    310.11128   -4108.9386 
23600000    139.54509   -5084.8516   -4805.7442   -5084.8516            0    7115.6734    17.872784    22.789901    19.281643    7853.7792    8639.8982    6888.9654    5818.1566     439.5056    952.59633    131.69405   -3990.7199 
23601000    135.91683   -5097.1696   -4825.3192   -5097.1696            0    7791.6122    17.880642    22.721914    19.209987    7804.6795    7858.1319    7300.5678    8216.1368   -561.88405    262.09787    757.81341   -3938.4526 
23602000    141.39225   -5082.6177   -4799.8157   -5082.6177            0    7101.9394    18.012612    22.475925    19.317949     7820.874    6932.8962    7859.1312    6513.7908    1954.2024     354.6904    1133.8667   -3989.7726 
23603000    144.19361   -5081.6179   -4793.2129   -5081.6179            0    7221.8086    17.820233    23.068109    19.037694    7825.9972    6435.2577     7339.934    7890.2341   -939.25722    -383.0473    87.954822   -3968.9579 
23604000    146.51508   -5088.9159   -4795.8676   -5088.9159            0    6837.9841    17.905236    22.808705     19.15928    7824.5586    7560.4304    6359.7369    6593.7849   -280.83632   -73.604543    451.58062   -4015.5637 
23605000    148.50266   -5075.6416   -4778.6179   -5075.6416            0    6970.0633    17.921036    22.579324    19.404207     7851.813    7237.2753    7878.8738    5794.0409    41.206728   -56.099037   -1635.7601   -3980.4715 
23606000    141.07697   -5100.5424    -4818.371   -5100.5424            0    6776.6254    17.844096     22.94144    19.065182    7804.6995    5487.3846    6727.8261    8114.6655   -315.79245    410.60437    -1526.214   -4047.0315 
23607000    144.32699   -5086.7351   -4798.0633   -5086.7351            0    7141.0336    17.913039    22.814903    19.153442      7827.71    8142.8731    6302.5066    6977.7211   -1721.6739   -884.36576   -737.35169   -3982.8492 
23608000    144.93864   -5087.8433   -4797.9481   -5087.8433            0    7128.2686    17.938699    22.682659    19.300547    7853.3421     6385.016    7983.9861    7015.8038    845.66117   -427.99401   -30.114956   -3981.5265 
23609000     142.5121   -5094.6922   -4809.6503   -5094.6922            0    6847.0907    17.859346    22.717195    19.246533    7808.5928    7634.2008     7247.418    5659.6532    516.75407     157.1042    1160.7483   -4029.9015 
23610000    144.79031   -5076.8446   -4787.2461   -5076.8446            0    8007.8525     17.81648     22.90508    19.128911    7806.2771    9695.5426    6797.4821     7530.533    -339.3954   -240.89231   -3138.9229   -3875.5798 
23611000    152.21288   -5085.4943   -4781.0497   -5085.4943            0    6292.4436    18.021878    22.772076    19.144889    7856.9777    4979.1652    7159.6444    6738.5212    217.63694    891.01625    354.77352    -4060.024 
23612000     144.0216   -5093.1928   -4805.1319   -5093.1928            0    6303.8561    18.082699    22.633187    19.170262     7845.796    5775.9484    6803.3152    6332.3046    230.24081    256.46979   -22.071356   -4083.8265 
23613000    144.12267   -5097.9875   -4809.7243   -5097.9875            0    7518.4551    17.740679    22.982965    19.119456    7795.6407    9881.8753    6423.9268    6249.5632   -134.09807   -193.15181      1145.37   -3954.9405 
23614000    148.30087   -5086.0891   -4789.4691   -5086.0891            0    8422.0646    17.862854    22.605316    19.278695    7784.6496    8766.2025    8873.4319    7626.5593    1271.8132   -385.57604     485.4351   -3833.3026 
23615000    142.59776   -5088.5374   -4803.3242   -5088.5374            0    6651.0491    17.843746     22.71026    19.311762    7825.8233    7410.7405    7103.8671    5438.5396    1296.3877   -300.59005    2124.6406   -4044.2293 
23616000     142.9234   -5099.5291   -4813.6646   -5099.5291            0    7888.4185    17.894808    22.657553    19.169291     7772.238    8035.1661      8144.95    7485.1394    582.11738   -599.66584   -79.936769   -3919.5115 
23617000    138.38684    -5099.289   -4822.4982    -5099.289            0    7538.5518    17.905503    22.806941     19.12423    7809.7571    7294.3092    7240.8135    8080.5328   -13.724884    329.89242   -98.424258   -3963.8775 
23618000    136.98738   -5092.0543   -4818.0626   -5092.0543            0    6057.1049    17.945962    22.779191    19.152177    7829.3047    4989.2726    6397.2518    6784.7904    735.30209    412.61111    521.37342    -4126.448 
23619000    147.75316    -5114.894   -4819.3694    -5114.894            0    5460.4115    17.935762    22.782026    19.190714    7841.5754    5746.1288    5321.1386     5313.967    403.88549    120.48404    1428.0535   -4194.9095 
23620000     142.9381   -5094.9393   -4809.0454   -5094.9393            0    5560.6191    17.860116    22.934855    19.176855    7855.2076    5152.4297    5590.4261    5939.0015    333.95399   -629.56624    46.192819   -4172.0201 
23621000    142.50485   -5100.2233    -4815.196   -5100.2233            0    7248.4207    17.983333    22.539199    19.301661    7823.5407    6554.0838     8687.079    6504.0995    40.258486    1141.9766   -887.91442   -3988.1634 
23622000    149.89753   -5081.4885    -4781.675   -5081.4885            0    8602.7763    17.765397    22.861508    19.116124    7763.8944    9601.1952    6968.6871    9238.4466    108.81232   -940.22488   -323.20491   -3807.5961 
23623000    138.99326   -5078.4326   -4800.4289   -5078.4326            0    6977.4587    17.880222    22.610407    19.323418    7812.0541    6192.9913     8201.013    6538.3718    89.704247   -42.098781   -291.27527   -4005.4815 
23624000    143.58988   -5084.2811   -4797.0836   -5084.2811            0     6678.206    17.839366    22.731595    19.308506    7829.9319    6976.4568    6288.5783    6769.5828   -602.54216    -576.2893    -1382.406   -4034.4891 
23625000    149.03118   -5085.2694   -4787.1886   -5085.2694            0    7988.5043    17.870343    22.861204    19.095069    7801.0527    6582.3678    7913.7485    9469.3966     792.3007   -638.35832    740.50663   -3878.3337 
23626000    150.19329   -5111.3752   -4810.9701   -5111.3752            0    7781.7302    17.972613    22.572021    19.222109    7797.9909    6470.6167    8490.6468     8383.927    295.47885    66.432965    1654.6171   -3925.9874 
23627000    138.95185   -5083.7968    -4805.876   -5083.7968            0    8070.6186    17.696072    22.790349    19.264437    7769.3406    8920.0774    7808.2907    7483.4877    722.78827   -1376.5162   -699.47975   -3891.4114 
23628000    141.54595   -5098.8232   -4815.7138   -5098.8232            0    6893.7319    17.842476    22.721532    19.304145    7826.0625    6448.8902    7597.3994    6634.9062   -623.51671    875.68711   -292.10654   -4028.8971 
23629000    156.23758   -5089.4193   -4776.9248   -5089.4193            0    7062.8428    17.796429     22.71006    19.346553    7819.0634    9191.3876    6557.4621    5439.6788   -117.57882    35.238596    1124.0191   -3971.5276 
23630000    135.81177   -5093.9097   -4822.2694   -5093.9097            0    6214.0644    17.792977    22.842672    19.263292     7829.356    6015.3423    6233.9111    6392.9399    471.09706    941.76483    762.07335   -4112.7281 
23631000    139.29874   -5104.1314   -4825.5167   -5104.1314            0    6351.2449    17.969322    22.576591    19.317369    7836.7868    5954.0288    6589.9058       6509.8   -2.6014324    256.40169   -326.42721   -4099.6235 
23632000    153.28172   -5091.3508   -4784.7684   -5091.3508            0    7839.2415     17.96016    22.792451    19.023306    7787.3058    6637.2136    7969.9724    8910.5383   -529.90895   -102.65818   -212.54272   -3894.4668 
23633000     146.0286   -5078.3015   -4786.2262   -5078.3015            0    8964.9908    17.945926    22.739075    19.072736    7783.0831    6346.2264    9648.5251    10900.221     557.7513    175.27142   -604.47419   -3768.6255 
23634000    141.39401   -5095.3718   -4812.5663   -5095.3718            0    7000.1643    17.943034    22.660687    19.198322    7806.0663    5722.8847    8011.1877    7266.4205    1364.4772   -595.31361    949.40301   -4015.6433 
23635000    136.77945   -5083.8163   -4810.2405   -5083.8163            0    7318.3177    17.865922    22.958145    19.003901       7794.8    7082.9954    7024.6602    7847.2975   -578.42012   -267.98998    108.72493   -3978.3002 
23636000    144.64837   -5076.4824   -4787.1678   -5076.4824            0    8216.0477    17.927133    22.683698    19.158034    7790.6846    7984.7419    8514.0337    8149.3674      1326.26    126.70127   -518.78594   -3853.6675 
23637000    140.53325   -5094.0798   -4812.9959   -5094.0798            0    6235.1665    18.014204    22.662706    19.202027     7839.239    5480.7803     7077.174    6147.5453    -387.9564   -178.54416      253.104   -4100.1464 
23638000    147.30529   -5101.2095   -4806.5807   -5101.2095            0    7168.1886    17.866814    22.949992     19.05069    7811.6066    5475.4643    7616.6752    8412.4263     79.97363    782.35835    1600.1428     -3989.95 
23639000    137.94591   -5097.5227   -4821.6138   -5097.5227            0    7398.9993    17.978333    22.689094    19.161191    7816.0811     8545.726    6751.6852    6899.5866    488.63644   -148.23798    1124.0423   -3978.2054 
23640000    146.82822   -5083.7302   -4790.0557   -5083.7302            0    9218.0841    17.949228    22.572658     19.18815     7774.305    8130.8465    10514.596    9008.8096     776.1383    1786.2685    1816.3355   -3744.9068 
23641000     147.2902   -5095.3129   -4800.7143   -5095.3129            0    8991.8938    17.659376    22.903263    19.187848    7760.6661     10156.79    8948.3984     7870.493   -625.03828    292.58301   -807.65174   -3782.9996 
23642000    146.45932   -5091.4825   -4798.5458   -5091.4825            0    7753.1605    17.793135    22.554774    19.411199    7790.1049    8254.9421     7911.086    7093.4534    475.90899   -555.22388   -348.20475   -3917.7039 
23643000    137.84934   -5089.3544   -4813.6387   -5089.3544            0    6671.1194     17.85799    22.736092    19.272724    7825.1288     5317.618    7442.1763     7253.564   -625.64451    69.895093    342.76061   -4052.3207 
23644000    148.34841   -5099.2502    -4802.535   -5099.2502            0    6861.4401    17.810357    22.821579    19.240932    7820.6779    7233.1304    6258.0823    7093.1077   -5.6624656   -284.55088    290.64653   -4019.9427 
23645000    147.63272   -5098.8292   -4803.5455   -5098.8292            0    7261.1373    17.811788    22.698972    19.316167    7809.7052    7597.0826    7683.4505    6502.8787    614.55383    407.54112   -606.91853   -3976.5271 
23646000    146.36553   -5099.3382    -4806.589   -5099.3382            0    8218.0862    17.795269    22.767529    19.208495    7782.4041    7626.8612    8549.9223    8477.4752   -1196.0029   -123.62606   -670.48957   -3873.8496 
23647000    141.56016   -5102.8633   -4819.7255   -5102.8633            0    7503.4406    17.786625    22.686558    19.293373    7785.2101     9215.531    7632.9744    5661.8164   -882.49951   -421.87772   -1342.7026     -3967.79 
23648000    139.15355   -5088.0074   -4809.6831   -5088.0074            0    7421.2911    17.883316     22.75383    19.229657    7824.8155    6872.2029    7816.2562    7575.4143   -192.49297    376.92285   -932.24301   -3962.7883 
23649000    144.24034   -5076.8643   -4788.3658   -5076.8643            0    8225.4821    17.912048    22.737286    19.146862    7797.9684    9335.4223    7286.3885    8054.6355   -719.46755    92.525177   -701.24868   -3852.9198 
23650000    147.63288   -5108.0359   -4812.7519   -5108.0359            0    6322.3778    17.922098     22.78111    19.122694    7807.5147    6024.2532    6113.1511    6829.7292   -806.90618    99.224171    -2024.032   -4092.8569 
23651000    148.58706   -5077.3727   -4780.1803   -5077.3727            0    6784.1589    18.000511    22.591085    19.294008    7845.9293     8167.789    6866.8081    5317.8795   -406.82855    517.27134    -1431.523    -4003.904 
23652000    144.93664   -5093.5747   -4803.6836   -5093.5747            0    6754.9197    17.909522    22.804653    19.164381    7827.1247    6463.6265    6892.3353    6908.7973   -416.89023    187.16493   -921.50698   -4032.6055 
23653000    150.42217   -5100.2537   -4799.3908   -5100.2537            0    6336.4982    17.845724     22.72197    19.357801    7849.3948    5474.5805    7489.8503    6045.0638   -1009.1332    546.11504   -1597.6589   -4074.0178 
23654000    140.93826   -5090.7917   -4808.8978   -5090.7917            0    7063.9201    17.946208    22.662204     19.21647    7815.3504     6125.696    7374.9068    7691.1574    -677.3217   -417.17559    475.28639   -4003.7602 
23655000    142.28182   -5100.1202    -4815.539   -5100.1202            0    6081.6077    17.877947    22.781362    19.224102    7829.6688    5243.0103    6575.4496    6426.3631   -2077.4492    206.34141    641.03171   -4121.0943 
23656000    141.97869   -5102.4423   -4818.4674   -5102.4423            0    8474.3272    17.788343    22.797425    19.200132    7786.1991    8091.6558     9105.161    8226.1648   -1596.6197    1141.5394   -36.432729   -3856.1759 
23657000    150.07129   -5107.8221    -4807.661   -5107.8221            0    6897.6885    17.750303    22.772865    19.328702    7813.1493    7113.0224    7291.3036    6288.7396   -1483.7803   -41.458791   -322.63911   -4021.6917 
23658000     136.6728   -5099.5207   -4826.1582   -5099.5207            0    7393.6572    17.892542    22.706654    19.238464    7816.1987    7943.2088    7439.8747    6797.8882    227.03078   -179.43441    159.73205   -3983.3461 
23659000    141.34082   -5094.8716   -4812.1725   -5094.8716            0    7093.9213    17.843724    22.692612    19.291572    7811.5568    7064.3703    7142.1133    7075.2803   -830.79552     245.6008    -2061.721   -4004.0079 
23660000     144.6511   -5085.9721    -4796.652   -5085.9721            0    7559.7154     17.85127    22.751127    19.243217    7815.3732    7951.0719    7992.3795    6735.6948   -965.68928      589.009    1200.9068   -3935.0017 
23661000    140.98922   -5099.7586   -4817.7627   -5099.7586            0    6756.9436    17.844418    22.878078    19.195284    7836.3977    8504.3087    5688.7197    6077.8024   -956.33087   -102.82848    83.794626   -4045.5398 
23662000    146.99557   -5100.1795   -4806.1702   -5100.1795            0    6942.5791    17.905289    22.827064     19.19979    7847.4376    6220.4357     6900.863    7706.4385    210.03618     446.2267   -1252.0259    -4011.614 
23663000    139.44365   -5090.9352   -4812.0307   -5090.9352            0    6173.7431    18.009051    22.633072    19.237697     7841.288     4394.289    6726.5622     7400.378   -173.59005   -932.55561    1389.1332    -4106.019 
23664000    137.13972    -5092.547   -4818.2506    -5092.547            0    5777.6164    17.801002    23.081044    19.124664    7857.6687    6158.1384    5443.6255    5731.0854   -41.577588    649.68475   -455.59183   -4156.1586 
23665000    138.29178   -5082.8338   -4806.2332   -5082.8338            0    8695.8947      17.8817        22.59    19.215452    7762.0359    9886.5659    8602.8193    7598.2988    1032.3628    151.70088    153.23758   -3821.8463 
23666000    147.98974   -5072.0436   -4776.0459   -5072.0436            0    8070.7171    18.036751     22.65881     19.07701    7796.6082    7721.2451    8121.3849    8369.5213    64.847647   -386.04392    2995.0423   -3858.3607 
23667000    143.60304   -5093.6751   -4806.4513   -5093.6751            0    7424.1075    17.796015    22.961979    19.094633    7802.6727    8198.1905    6883.9125    7190.2196    164.57047   -587.94658    564.52753   -3961.6325 
23668000    147.01869   -5082.1238   -4788.0683   -5082.1238            0    7829.3888    17.968172    22.501259    19.259327    7786.6709    8516.9664    7826.0926    7145.1073    821.93695   -562.25303    218.57383   -3898.9581 
23669000    150.69104   -5083.2384   -4781.8377   -5083.2384            0    8028.7217    17.815812    23.101394    18.996714    7818.4796    6790.7835    7144.7661    10150.616     486.1556    331.72248    -616.7913   -3866.3667 
23670000    137.08403   -5076.4356   -4802.2507   -5076.4356            0    6428.4903    17.988351    22.760051    19.182717    7853.7072    5482.8281    6038.3423    7764.3004    1227.1393    -801.5153    846.27406   -4065.9425 
23671000    141.70622   -5081.8441   -4798.4142   -5081.8441            0    7373.9062    17.982645    22.647644    19.230375      7831.85    6516.0404    7815.4964    7790.1819    1360.5177    724.54162   -159.14317   -3956.1703 
23672000    141.77773   -5094.0499   -4810.4769   -5094.0499            0    8565.6383    17.743065    22.871298    19.173044    7780.5538    9066.7152     8397.382    8232.8178    341.17906    1314.7707    176.16321    -3838.522 
23673000    140.41101   -5101.8657   -4821.0263   -5101.8657            0    8004.8628    17.856108    22.667373    19.272046    7800.3812    8258.2849    7848.8194     7907.484    23.948557   -19.098384   -35.664418   -3910.3887 
23674000    139.56318   -5090.6089   -4811.4653   -5090.6089            0    6884.1544    17.822765    22.802504      19.2397    7819.0851    7426.0347    7092.7063    6133.7222   -598.66808    438.74136   -1067.7286   -4026.4422 
23675000    143.19604   -5095.3536   -4808.9438   -5095.3536            0    7204.9597    17.896841    22.778139    19.137198    7801.4074    5755.2172    7328.9435    8530.7184    637.65824    541.20414   -1619.9868   -3989.1957 
23676000    145.03403   -5102.1305   -4812.0445   -5102.1305            0    6315.2508    17.955858    22.801568    19.152516     7841.456    5873.5983    6517.6171    6554.5371   -773.74368   -888.72598   -1309.3997    -4089.835 
23677000    144.09568   -5078.8439   -4790.6348   -5078.8439            0    6670.4366     17.78779    22.948025    19.161737    7821.7185    7720.9786    5389.6222    6900.7089   -45.381184   -791.25397    441.05023   -4029.7264 
23678000    151.07355   -5099.8258     -4797.66   -5099.8258            0    7705.9231    17.850506     22.74892    19.246796    7815.7339    6679.7973    7937.1839    8500.7882   -34.824628   -410.42326    639.58492   -3919.3045 
23679000     142.6404   -5074.9833   -4789.6848   -5074.9833            0    8401.9629    17.990348    22.638082    19.115522    7785.1206    7061.7152    9111.9523    9032.2213   -1604.6967   -674.93173   -262.87812   -3835.7428 
23680000    140.74878   -5086.0184   -4804.5035   -5086.0184            0    5773.6341    17.893488    22.861093    19.203936    7855.6517    4492.8411    5966.3901    6861.6712    312.24297     130.4125    182.75892   -4143.0377 
23681000    140.06389    -5090.699   -4810.5539    -5090.699            0    6888.8622    17.848709    22.626115    19.328245    7805.6528    8116.6671    6332.8837    6217.0359   -986.56793   -338.83256   -228.29903   -4026.3435 
23682000    147.40781   -5092.6178    -4797.784   -5092.6178            0    6414.4998    17.767785    22.955923    19.132418    7803.6526    4806.8165    6712.0184    7724.6645    15.777318    1125.9883   -972.67282   -4067.7608 
23683000    142.17163   -5102.4801   -4818.1192   -5102.4801            0    7199.6878    17.858326    22.753698     19.21908    7809.5375    6826.9086    7825.3065    6946.8483    670.78276    580.36383    192.48045   -3998.1173 
23684000    138.43128   -5095.4216    -4818.542   -5095.4216            0    7767.7637    17.881938    22.654721    19.225991    7788.6472     7909.338    7456.3211    7937.6321   -506.53664    347.14134    1102.4253   -3936.2061 
23685000    143.14759   -5073.9858    -4787.673   -5073.9858            0    7498.7395    17.851485    22.828896    19.163745    7809.7951    7014.9444    7707.0416    7774.2324   -428.74966   -44.043631    898.90183   -3933.5826 
23686000    145.21929    -5089.738   -4799.2815    -5089.738            0    5794.0625    17.952044    22.819975    19.169372    7853.0245    4735.4359    6012.3652    6634.3864    931.72648   -998.94326    2076.0667   -4135.6973 
23687000    144.67774   -5103.5659   -4814.1925   -5103.5659            0    6476.9273    17.910943     22.76026    19.207953    7830.2704    6633.3123     6237.288    6560.1815   -270.74759   -55.292863    1142.4444   -4074.5504 
23688000    147.25705   -5081.6848   -4787.1525   -5081.6848            0    9005.1594    17.879111     22.71616    19.117679    7764.5453    9000.9276     9436.597    8577.9536    951.81875    972.85147    629.09403   -3767.4269 
23689000    141.35076    -5100.407    -4817.688    -5100.407            0    8420.8576    17.928482    22.603811    19.097557    7739.3236     6981.492    9171.8883    9109.1925   -228.38573    15.402637   -414.24219    -3867.225 
23690000     153.9343   -5087.3238   -4779.4362   -5087.3238            0    7396.5225    18.055643    22.566771    19.205712    7825.5124    6872.3809    8304.6599    7012.5266   -1079.4141     1306.245   -474.39584   -3935.2927 
23691000    141.88156   -5077.4155   -4793.6349   -5077.4155            0    8048.3072    17.811493    22.861549    19.148871     7797.388    7816.5742    8561.2095    7767.1378    235.74858     1461.267    719.24178   -3878.4063 
23692000    144.54193   -5088.1491   -4799.0474   -5088.1491            0    7343.0778     17.98708    22.533267    19.355598    7844.9725    7802.2514    8266.0278    5960.9541   -331.31149   -505.93499    310.89133   -3958.9194 
23693000    144.18811   -5091.9159   -4803.5219   -5091.9159            0    7427.4552    17.808296    22.869622    19.098103    7778.0651    8084.8506    6620.7211    7576.7938    502.45128   -913.81033   -118.36635   -3960.9877 
23694000    144.29834   -5091.7419   -4803.1274   -5091.7419            0    5470.6306    18.002938    22.687915    19.244329    7860.3293    4196.9505    6356.5221    5858.4192   -1313.6959    747.02709   -644.96355   -4176.0025 
23695000    147.23367   -5097.6805   -4803.1949   -5097.6805            0    6307.2065     17.96228    22.626214    19.248215    7822.8286    6349.1253    6684.1617    5888.3325   -626.04581   -485.37669    572.99491   -4083.6188 
23696000     137.7079   -5084.5199   -4809.0871   -5084.5199            0    6131.0048    17.794354    22.981234    19.164861    7837.2057    6052.8793    5987.5525    6352.5826    344.23363    711.73726   -383.49031   -4108.3279 
23697000    145.57001   -5093.1612   -4802.0032   -5093.1612            0    6474.9625    17.948485    22.572312    19.376025    7849.9799    6122.1219    7138.5804    6164.1853   -558.21505   -28.892674    439.03104   -4060.7242 
23698000    143.09658   -5091.3821   -4805.1712   -5091.3821            0    7596.5645    17.802156    22.803513     19.23713    7809.3457    6707.1774     7700.073    8382.4432  -0.92850062     780.9103   -989.67873   -3939.9887 
23699000    149.60214   -5088.9988   -4789.7761   -5088.9988            0    7282.2573    17.722176    22.724483    19.390696    7809.1625    9111.9461    7351.6438    5383.1821     328.8326   -154.78918   -926.66262   -3960.4098 
23700000    142.22213   -5096.0636   -4811.6017   -5096.0636            0    5876.0338    17.874508     22.75239    19.347931    7868.5671    6182.5559    5976.3037    5469.2417   -829.03113    439.61423   -18.619341   -4137.2976 
23701000    143.44305   -5085.7905   -4798.8866   -5085.7905            0      8403.48    17.744808    22.750754    19.251343    7771.9165    9186.6377    8255.9727    7767.8296   -720.83953    596.80371    307.28284   -3846.3906 
23702000    144.37724   -5096.3094   -4807.5371   -5096.3094            0    6995.9375    17.941303    22.589112    19.304849    7823.8326    6455.0065    7476.9281    7055.8779    282.25891   -34.549131   -516.55404   -4009.2826 
23703000    131.90511    -5082.416   -4818.5895    -5082.416            0    6502.0355    17.894311    22.876904    19.106619    7821.6084    5953.7391    6658.8581    6893.5093    249.74944    135.82573    965.19625   -4076.9014 
23704000     139.8631   -5096.7907   -4817.0472   -5096.7907            0    8865.5985    17.894784    22.714033    19.067203    7750.1069    8476.3045    8314.6977    9805.7933    -122.4318     53.78941   -537.00594    -3814.992 
23705000    142.74234   -5109.4694   -4823.9671   -5109.4694            0    6580.3837    17.959911    22.694566    19.214767    7831.7928    6240.4395    7082.5873    6418.1241    488.78263   -143.79724    352.09276   -4072.3645 
23706000    141.34416   -5095.8929   -4813.1871   -5095.8929            0    7260.9627    17.839215     22.94664    19.083224    7811.7182    7152.2974    7106.9361    7523.6545   -697.62591    741.50382    457.30253   -3985.9754 
23707000    144.62442   -5094.0432   -4804.7765   -5094.0432            0    6512.5686    17.974321    22.614075    19.220717    7812.6957    6117.3541    7327.9782    6092.3734    1145.2366    106.46518    145.08117   -4062.7334 
23708000    147.11188   -5091.7363   -4797.4943   -5091.7363            0    6409.3208    17.879731    22.896544    19.163703     7845.314    5565.2837    7158.2704    6504.4084   -692.48986     1528.069    880.46218   -4064.1664 
23709000    144.78533   -5093.8918   -4804.3033   -5093.8918            0     6881.285    17.956945    22.731298    19.163454    7822.2284     6872.545    6742.7972    7028.5128   -625.50161    11.139026     1978.834   -4019.2919 
23710000    143.45103   -5082.6587   -4795.7389   -5082.6587            0    7002.8199    17.969516    22.652751    19.244352    7833.5863    6968.5888    7034.1451    7005.7259    1536.1589    101.38777    188.01909    -3995.703 
23711000    151.26007   -5105.9077   -4803.3689   -5105.9077            0    6016.6264     17.87231    22.936057     19.16094    7854.4588    5971.9945     6109.024    5968.8607    304.67538   -361.90474     631.7883    -4114.169 
23712000    147.02474   -5098.9317    -4804.864   -5098.9317            0    5803.5181    17.977191    22.639269    19.268063    7841.9175    5409.5841    5874.3057    6126.6643    1410.9697   -709.49665    1706.1464    -4141.137 
23713000    142.01093   -5089.8621   -4805.8227   -5089.8621            0    6530.3086    17.833032    22.788904    19.224952     7812.929    6957.8019    6036.9161    6596.2079    719.27069   -915.19588    484.00697   -4061.7361 
23714000    138.42699    -5082.262   -4805.3909    -5082.262            0    8146.4798    17.785591    22.803147    19.236088    7801.5313    8580.3479    7153.2145    8705.8771   -536.69417    100.23192     726.7291   -3878.5062 
23715000    135.36081   -5100.6061   -4829.8677   -5100.6061            0    6622.0746    17.857639    22.694026    19.293715    7819.0046    6022.5902    7592.5632    6251.0703    282.71755    569.38146    -537.0699   -4074.7382 
23716000     142.3003   -5096.4053   -4811.7871   -5096.4053            0    6287.9153    17.970888    22.677499    19.249353    7844.7809    5518.9002    6673.9523    6670.8935   -121.58381    282.03439   -951.49095   -4092.3988 
23717000    139.55653   -5102.6986   -4823.5683   -5102.6986            0    6910.1461    17.732012    23.039841    19.125812    7813.7113    8016.4584    6439.5723    6274.4075   -779.87297    389.05391    1841.8403   -4036.1228 
23718000    149.11536   -5098.9094   -4800.6603   -5098.9094            0     6334.936    17.985771    22.647566    19.282106    7854.2562    5415.2284     7339.883    6249.6967    320.40427    970.60469   -168.94659    -4075.017 
23719000    142.57367    -5092.192    -4807.027    -5092.192            0    7502.7306    17.913639    22.646449    19.234781     7803.172    7472.2163    8373.8512    6662.1242    406.31001   -148.91522   -183.33447   -3953.2068 
23720000    138.54389   -5100.5596   -4823.4547   -5100.5596            0    7292.7125    17.778491    22.959749     19.12096    7804.9789    7772.8503    6150.4197    7954.8675    -596.6772    400.13669    540.58818   -3993.3426 
23721000    142.87998   -5096.3729   -4810.5952   -5096.3729            0    6061.1711    17.958926    22.527326    19.388872    7844.0895    5940.3942    7333.2834    4909.8358    897.67921    711.41585   -767.88437   -4117.2094 
23722000    143.36051   -5112.2829   -4825.5442   -5112.2829            0    6242.3373    17.828219    22.770965    19.235032    7808.7641    7910.4745     5975.698    4840.8396   -482.86169   -832.83998    1193.4075   -4114.6492 
23723000    140.12777   -5103.7802   -4823.5074   -5103.7802            0    6287.6628     17.82347    22.826136    19.231828    7824.2953    7894.5534    6295.5466    4672.8882   -754.27805   -144.91479    701.10405   -4106.0264 
23724000    139.73739   -5083.3573   -4803.8652   -5083.3573            0    8359.4046    17.837088    22.662372    19.244676     7779.289    8096.8362    8392.6314    8588.7462    1429.0955   -389.15009   -439.23351   -3855.4661 
23725000    143.82073    -5103.643   -4815.9837    -5103.643            0    6585.3583    17.784431    22.753109    19.337583    7824.9744    7811.4903    6884.6605    5059.9242   -1301.9819    320.58034    215.54558   -4064.4677 
23726000     144.1041   -5095.9752   -4807.7492   -5095.9752            0    7712.6958    17.763283    22.819105     19.26625    7809.4248    7998.1513    7421.1661    7718.7702     165.4133   -229.98429     -114.419   -3929.3314 
23727000    154.93516   -5081.6928   -4771.8034   -5081.6928            0    6815.1748    17.867583    22.776333    19.246412    7832.4816    5892.5845    6904.2099      7648.73    396.45471    760.87124   -593.57934   -3993.3147 
23728000    145.39869    -5078.045   -4787.2297    -5078.045            0    8136.9005    17.946504    22.652917    19.169902     7793.345    8185.4624    7372.2806    8852.9584   -171.61903    31.657982    330.44438   -3862.4063 
23729000    151.29751    -5099.276   -4796.6623    -5099.276            0    7011.4081    17.933898     22.78945     19.14207    7823.4339    5700.3938    7633.0938    7700.7365    1714.6536    1024.7105    708.04679   -3996.6834 
23730000    150.68083   -5083.2007   -4781.8205   -5083.2007            0    7739.6106    17.969237    22.644742    19.211047    7817.1429    7089.0471    8350.6141    7779.1706    990.50307    1442.0175   -68.693507   -3899.4661 
23731000    143.03016   -5072.5384   -4786.4604   -5072.5384            0     7155.958    17.686061    22.858732    19.319326    7810.4349    8583.2511    6344.7038    6539.9192   -389.03447   -759.80718   -277.70316   -3971.3454 
23732000    144.94827   -5095.1052   -4805.1907   -5095.1052            0     7497.012    17.921571    22.616788    19.307956    7826.0625    7574.9645    7085.4168    7830.6547   -525.35153   -529.63769   -594.37297   -3949.5186 
23733000    134.54066   -5081.9546   -4812.8566   -5081.9546            0    7632.9898    17.847737    22.844616    19.124161    7797.3928    8100.3164    7939.2104    6859.4425   -630.20926   -273.34317    1275.4452   -3944.8561 
23734000    148.10958   -5090.7484   -4794.5109   -5090.7484            0    7527.6885    17.953141    22.651339    19.240382    7824.3456    6917.2331    7936.3893    7729.4431   -478.22075    13.061839   -562.82793    -3935.526 
23735000    138.21803   -5093.5801    -4817.127   -5093.5801            0    7954.1541    17.931191    22.561334     19.29916    7807.5061    8192.9404    8875.2244    6794.2976   -395.43758    1157.8937   -622.99481   -3911.4314 
23736000    142.91917   -5101.0988   -4815.2428   -5101.0988            0    5878.8301    17.925244    22.920334    19.105877    7849.6991    5782.3367    5156.3947     6697.759    691.63448   -239.73234    1495.8755   -4142.2354 
23737000    137.21854   -5089.8504   -4815.3964   -5089.8504            0    6992.7251    17.984829    22.607965    19.241891    7823.7606      7003.18    7220.9253    6754.0701   -61.965655    750.25025    819.23379   -4017.5158 
23738000    143.71374   -5079.6908   -4792.2456   -5079.6908            0    7545.8502     17.80199    22.841361    19.186199    7801.5245    8751.5451    6402.6103    7483.3953    1087.2942   -684.00876   -212.75116   -3933.6996 
23739000    142.83564   -5087.3412   -4801.6523   -5087.3412            0    6960.5302    17.823664    22.630566    19.358964     7808.624    8020.4378    7398.1058     5463.047   -1026.4812    52.271428   -660.06104   -4008.9817 
23740000    149.01155   -5087.4461   -4789.4046   -5087.4461            0    9188.5094    17.717776    22.803359    19.207366    7760.2523    9381.4175    8999.3883    9184.7222   -1239.3421    326.55421   -444.22282   -3749.4921 
23741000    144.81808   -5101.3891   -4811.7351   -5101.3891            0    8803.9061    17.829761    22.803553    19.125098    7775.9187    8252.3483    9278.3876    8880.9824   -625.27412    438.93178   -841.05932   -3813.3387 
23742000    136.40023   -5083.9097   -4811.0924   -5083.9097            0    5329.3247    18.024192    22.621518     19.28042     7861.294    5205.9746    5312.3866    5469.6129    1061.8442   -15.002431   -1142.2004   -4200.0911 
23743000    148.57125   -5093.4967   -4796.3358   -5093.4967            0    4570.8546    17.931265    22.869442    19.265349    7900.2961    4467.1122    3908.3265    5337.1252   -583.88013   -326.53136    173.82916   -4269.6924 
23744000     148.2508   -5086.2993   -4789.7794   -5086.2993            0    7524.7204    17.772435    22.816147    19.251647    7806.5142    10072.922    6471.0172    6030.2215   -83.755536   -911.65865   -68.347423     -3933.09 
23745000    145.85935   -5078.4359   -4786.6992   -5078.4359            0    8066.2592    17.959035    22.667678    19.196305     7814.617    8968.1434    8501.9073    6728.7269    493.45786    1408.4505    249.34663   -3867.4024 
23746000    140.68338   -5090.2752   -4808.8911   -5090.2752            0      5906.51    17.758532     23.10061    19.146316    7854.4491    6783.9558    4540.5792     6394.995    356.02506    251.08352   -1322.6256   -4132.3058 
23747000    139.40651   -5081.7823   -4802.9521   -5081.7823            0    7624.8321    17.905292    22.712126    19.167579    7794.8269    6608.1302    8524.0859    7742.2803    35.795213    235.43956   -2189.7492   -3936.1646 
23748000    147.85806   -5089.6127   -4793.8783   -5089.6127            0    6707.2991    17.985343    22.563994    19.357207    7855.5646    5379.3286    8359.5484    6383.0202    -240.6838   -111.72045   -435.15925   -4025.4542 
23749000    147.64813   -5106.9903   -4811.6758   -5106.9903            0    4939.5849    17.788147    22.909119    19.227043    7835.2272    4379.1267    4843.1758    5596.4521   -541.91739    -198.3657   -180.53291   -4247.2356 
23750000    148.72986    -5083.766   -4786.2879    -5083.766            0      7972.99    17.839687    22.510847    19.356757    7773.4117    8494.7741    8417.8404    7006.3554    -130.7105   -143.51736     1016.574   -3882.4121 
Loop time of 469.883 on 64 procs for 250000 steps with 1008 atoms

Performance: 91.938 ns/day, 0.261 hours/ns, 532.047 timesteps/s
195.4% CPU use with 32 MPI tasks x 2 OpenMP threads

MPI task timing breakdown:
Section |  min time  |  avg time  |  max time  |%varavg| %total
---------------------------------------------------------------
Pair    | 37.756     | 40.692     | 45.186     |  32.0 |  8.66
Bond    | 0.98872    | 1.2688     | 1.7969     |  13.7 |  0.27
Kspace  | 230.32     | 236.55     | 240.35     |  16.7 | 50.34
Neigh   | 1.6222     | 1.7578     | 1.8563     |   4.9 |  0.37
Comm    | 77.382     | 80.889     | 87.279     |  25.9 | 17.21
Output  | 0.50738    | 0.50767    | 0.50915    |   0.0 |  0.11
Modify  | 91.036     | 94.67      | 97.301     |  12.8 | 20.15
Other   |            | 13.54      |            |       |  2.88

Nlocal:        31.5000 ave          37 max          28 min
Histogram: 1 3 6 7 7 4 2 1 0 1
Nghost:        2955.56 ave        2977 max        2937 min
Histogram: 2 2 8 3 1 5 1 5 4 1
Neighs:        10748.6 ave       12588 max        9511 min
Histogram: 2 2 6 7 7 4 1 1 1 1

Total # of neighbors = 343954
Ave neighs/atom = 341.22421
Ave special neighs/atom = 2.0000000
Neighbor list builds = 3875
Dangerous builds = 0

unfix		3
unfix		2
unfix		1

write_data	data.final.${pid}
write_data	data.final.0
System init for write_data ...
PPPM initialization ...
  extracting TIP4P info from pair style
  using 12-bit tables for long-range coulomb (../kspace.cpp:340)
  G vector (1/distance) = 0.3803935
  grid = 24 27 36
  stencil order = 5
  estimated absolute RMS force accuracy = 0.0023255624
  estimated relative force accuracy = 7.003362e-06
  using double precision FFTW3
  3d grid and FFT values/proc = 5670 1296
Last active /omp style is kspace_style pppm/tip4p/omp
WARNING: Not all mixed pair coeffs generated from mixing. Use write_data with 'pair ij' option to store all pair coeffs. (../write_data.cpp:312)

write_restart   restart.lmp.${pid}
write_restart   restart.lmp.0
System init for write_restart ...
PPPM initialization ...
  extracting TIP4P info from pair style
  using 12-bit tables for long-range coulomb (../kspace.cpp:340)
  G vector (1/distance) = 0.3803935
  grid = 24 27 36
  stencil order = 5
  estimated absolute RMS force accuracy = 0.0023255624
  estimated relative force accuracy = 7.003362e-06
  using double precision FFTW3
  3d grid and FFT values/proc = 5670 1296
Last active /omp style is kspace_style pppm/tip4p/omp
Total wall time: 0:07:50
