LAMMPS (30 Jul 2021)
Processor partition = 1
  using 4 OpenMP thread(s) per MPI task
using multi-threaded neighbor list subroutines
variable        pid world 0 1
variable        phase world IceVI IceV

shell cd ${phase}
shell cd IceV
include Restart.lmp
echo both
log log.lammps
#include		in.partitions
include		in.temp
variable        temperature equal 193.27
variable	tempDamp equal 100.0
include		in.pressure
variable        pressure equal 8320.2
variable        pressureDamp equal 1000.0 # This is 1 ps
include		in.seed
variable        seed equal 745823

units		real
atom_style	full
read_restart    restart.lmp.${pid}
read_restart    restart.lmp.1
Reading restart file ...
  restart file = 30 Jul 2021, LAMMPS = 30 Jul 2021
  restoring atom style full from restart
  triclinic box = (-3.1832459 0.14690940 -0.15159550) to (14.793245 22.433090 19.381593) with tilt (-0.21956411 -6.6080238 0.31674289)
  2 by 4 by 2 MPI processor grid
  restoring pair style lj/cut/tip4p/long/omp from restart
  restoring bond style harmonic/omp from restart
  restoring angle style harmonic/omp from restart
  1008 atoms
  672 bonds
  336 angles
Finding 1-2 1-3 1-4 neighbors ...
  special bond factors lj:    0        0        0       
  special bond factors coul:  0        0        0       
     2 = max # of 1-2 neighbors
     1 = max # of 1-3 neighbors
     1 = max # of 1-4 neighbors
     2 = max # of special neighbors
  special bonds CPU = 0.001 seconds
  read_restart CPU = 0.006 seconds

include 	in.setup
variable	out_freq equal 1000
variable	out_freq2 equal 10000
variable	out_freq3 equal 1000

timestep	2.0

neigh_modify    delay 7 every 1

include		in.tip4p
# This is TIP4P/Ice

# create groups ###
group ox type 2
336 atoms in group ox
group hy type 1
672 atoms in group hy

# set charges - beside manually ###
set group ox charge -1.1794
Setting atom values ...
  336 settings made for charge
set group hy charge 0.5897
Setting atom values ...
  672 settings made for charge

# ### TIP3P Potential Parameters ###
pair_style lj/cut/tip4p/long/omp 2 1 1 1 0.1577 8.5
pair_coeff 1 1*2 0.000 0.000
pair_coeff 2 2 0.21084 3.1668
bond_style  harmonic
bond_coeff  1 450 0.9572
angle_style harmonic
angle_coeff 1 55 104.52
kspace_style pppm/tip4p/omp 1.0e-5
pair_modify tail yes

thermo          ${out_freq}
thermo          1000
thermo_style    custom step temp pe etotal epair emol press lx ly lz vol pxx pyy pzz pxy pxz pyz enthalpy

restart 	${out_freq3} restart.lmp.${pid} restart2.lmp.${pid}
restart 	1000 restart.lmp.${pid} restart2.lmp.${pid}
restart 	1000 restart.lmp.1 restart2.lmp.${pid}
restart 	1000 restart.lmp.1 restart2.lmp.1


include         in.dump
dump            myDump all atom ${out_freq2} dump.water.${pid}
dump            myDump all atom 10000 dump.water.${pid}
dump            myDump all atom 10000 dump.water.1
dump            myDump2 all dcd ${out_freq2} dump.dcd
dump            myDump2 all dcd 10000 dump.dcd
dump_modify     myDump append yes
dump_modify     myDump2 append yes


variable natoms 	equal  "count(all)"                        # NUMBER ATOMS
variable H      	equal  "enthalpy/v_natoms"                 # ENTHALPY-per-atom
variable Vol      	equal  "vol/v_natoms"                 # volume-per-atom
fix AVG all 		ave/time ${out_freq} 1 ${out_freq} v_Vol v_H file vol_enthalpy.dat
fix AVG all 		ave/time 1000 1 ${out_freq} v_Vol v_H file vol_enthalpy.dat
fix AVG all 		ave/time 1000 1 1000 v_Vol v_H file vol_enthalpy.dat



fix 		1 all shake 1e-6 200 0 b 1 a 1
Finding SHAKE clusters ...
       0 = # of size 2 clusters
       0 = # of size 3 clusters
       0 = # of size 4 clusters
     336 = # of frozen angles
  find clusters CPU = 0.000 seconds
fix             2 all nph tri ${pressure} ${pressure} ${pressureDamp}
fix             2 all nph tri 8320.2 ${pressure} ${pressureDamp}
fix             2 all nph tri 8320.2 8320.2 ${pressureDamp}
fix             2 all nph tri 8320.2 8320.2 1000
fix             3 all temp/csvr ${temperature} ${temperature} ${tempDamp} ${seed}
fix             3 all temp/csvr 193.27 ${temperature} ${tempDamp} ${seed}
fix             3 all temp/csvr 193.27 193.27 ${tempDamp} ${seed}
fix             3 all temp/csvr 193.27 193.27 100 ${seed}
fix             3 all temp/csvr 193.27 193.27 100 745823


run             250000
PPPM initialization ...
  extracting TIP4P info from pair style
  using 12-bit tables for long-range coulomb (../kspace.cpp:340)
  G vector (1/distance) = 0.38046968
  grid = 24 27 36
  stencil order = 5
  estimated absolute RMS force accuracy = 0.002308121
  estimated relative force accuracy = 6.9508377e-06
  using double precision FFTW3
  3d grid and FFT values/proc = 8505 1944
Last active /omp style is kspace_style pppm/tip4p/omp
Neighbor list info ...
  update every 1 steps, delay 7 steps, check yes
  max neighbors/atom: 2000, page size: 100000
  master list distance cutoff = 10.8154
  ghost atom cutoff = 10.8154
  binsize = 5.4077, bins = 5 5 4
  1 neighbor lists, perpetual/occasional/extra = 1 0 0
  (1) pair lj/cut/tip4p/long/omp, perpetual
      attributes: half, newton on, omp
      pair build: half/bin/newton/tri/omp
      stencil: half/bin/3d/tri
      bin: standard
Setting up Verlet run ...
  Unit style    : real
  Current step  : 14000000
  Time step     : 2
Per MPI rank memory allocation (min/avg/max) = 12.48 | 12.52 | 12.57 Mbytes
Step Temp PotEng TotEng E_pair E_mol Press Lx Ly Lz Volume Pxx Pyy Pzz Pxy Pxz Pyz Enthalpy 
14000000    202.09932   -4954.4937   -4550.2701   -4954.4937            0    9827.1899    17.976491     22.28618    19.533189     7825.529    11017.162    9840.3139    8624.0936    -58.90651    590.51309   -2024.3748   -3428.7193 
14001000    192.30794   -4989.1058   -4604.4662   -4989.1058            0     7971.658    17.915717    22.675569    19.344046    7858.5006    8835.4916    8237.6094    6841.8731    472.44534    -38.96726   -1277.7013   -3690.8491 
14002000     190.8805   -4975.6782   -4593.8936   -4975.6782            0    6939.8447    17.878872    22.934277    19.148975    7851.8265     6547.519    6223.1395    8048.8757    465.37709   -506.29916    2211.3626   -3799.2062 
14003000    201.17766    -4999.088   -4596.7079    -4999.088            0    8435.1259    17.785318    23.017273    19.030368    7790.4524    8807.3136    7692.6345    8805.4295   -88.971264   -796.57409    47.397424   -3638.3446 
14004000    186.51684   -4998.3849   -4625.3282   -4998.3849            0    6590.4864    17.992926     22.64853    19.275896    7855.1844    7432.8841    6893.8739     5444.701    210.98171   -2010.0837    237.54361   -3870.3233 
14005000    196.37535   -4980.3871   -4587.6121   -4980.3871            0    8670.9414     17.95698     22.58608    19.263581    7812.8807     8239.413    9133.9722    8639.4389    267.13923    -1735.087   -2171.9686   -3599.6204 
14006000    192.87546   -4968.2307    -4582.456   -4968.2307            0    8904.7979    17.944535    22.634825    19.296987    7837.8846    8448.1675    8658.2405    9607.9857    2558.2027    107.40236    1588.2999   -3564.5707 
14007000    196.49133   -4990.5662   -4597.5592   -4990.5662            0     8832.204    17.962269    22.784684    19.148206    7836.6832    7520.9101    8568.1967    10407.505   -1430.8453   -445.66567   -132.59438   -3588.1268 
14008000    192.17594   -4977.4355   -4593.0599   -4977.4355            0     7570.429    17.920358    23.009521    19.085596    7869.7327    6810.5224    7215.8436    8684.9211   -579.91078     231.3526   -1138.2105   -3724.1868 
14009000    195.51287   -4967.8955   -4576.8457   -4967.8955            0    7207.0732     17.90808    22.866891    19.212013    7867.3601    7711.5697    6132.1807    7777.4693    1764.7284   -775.10615    1258.2321    -3749.925 
14010000     205.4245   -4997.3436   -4586.4693   -4997.3436            0     8215.726    17.944313    22.575268    19.433499    7872.4654    6449.9749    9554.6294    8642.5736    -1339.945    398.67096    804.00155   -3643.2067 
14011000    188.60708   -4980.5425   -4603.3051   -4980.5425            0    8003.0146    18.091156    22.638045    19.239308    7879.4279    7074.3002      8969.96    7964.7836   -540.73298    1187.6517    287.19062   -3683.6516 
14012000    195.50672   -4948.0021   -4556.9645   -4948.0021            0     8714.769    18.022965    22.877601     19.02708    7845.2874    7988.7016     9034.981    9120.6246   -411.73581    1034.6541    552.47947   -3559.8601 
14013000    201.51273   -4971.2174    -4568.167   -4971.2174            0    7573.9643    17.891709    22.945726    19.183481    7875.5528    6919.3339    7676.5492    8126.0098    4.0569668    592.47776   -428.45941   -3698.2452 
14014000    194.02751   -4985.4208   -4597.3418   -4985.4208            0    9031.4436    17.884859    22.993537    19.074565    7844.1511    7420.3528    8781.1393    10892.839    911.09723    902.58175    1780.0084   -3564.1546 
14015000    194.34074   -4980.3763   -4591.6709   -4980.3763            0    8293.8486    18.017394    22.601438    19.301977    7860.1322    10199.326    6670.8715    8011.3482   -155.95529   -319.06902    432.20669   -3640.9307 
14016000    197.77404   -4984.1995   -4588.6269   -4984.1995            0    8212.8745     18.03447    22.570007    19.293048    7853.0059    8451.1496    8241.3042    7946.1698    457.44146   -304.71095    -2015.236   -3648.0226 
14017000    198.04293   -4978.6393    -4582.529   -4978.6393            0    10673.378    17.901835    22.600268    19.238836    7783.7688    12173.667    10761.706    9084.7622    684.88466    950.14627    2401.8357   -3370.9054 
14018000    190.69926   -4992.7597   -4611.3376   -4992.7597            0    7586.9655    17.870682    22.841365    19.227709    7848.5733    8455.6651    7363.3071    6941.9242    1204.3655    157.58618   -674.37196   -3742.9078 
14019000    188.95001   -4965.5119   -4587.5886   -4965.5119            0     8881.182    17.731132    23.040764    19.102987    7804.3118    7883.2977    9408.5279    9351.7205    -1169.151    158.19873   -1610.0155   -3576.7513 
14020000    200.11842   -4987.8677   -4587.6062   -4987.8677            0    10195.956    17.718509    22.969599    19.064955    7759.1898    11376.565     9178.655    10032.647    542.00684    483.29216   -1090.0834   -3433.8336 
14021000    199.07238    -5005.885   -4607.7156    -5005.885            0    8326.5321    17.606157    23.168204    19.184689    7825.4929    9275.1008    7725.6608    7978.8347   -173.78076   -519.63911    382.72027   -3657.4353 
14022000    186.48265   -4967.6471   -4594.6587   -4967.6471            0    7697.4476    17.959287    22.896582    19.130184    7866.4521    6593.0425     7959.116    8540.1844   -219.75346    553.71706    1008.6712   -3711.5757 
14023000    190.40085   -4999.0315   -4618.2063   -4999.0315            0    8169.5273    17.914657    22.776615    19.220241     7842.536    7731.2958    7846.8307    8930.4553   -371.82091   -573.45533    82.340926   -3683.8138 
14024000    196.27045   -4955.1075   -4562.5423   -4955.1075            0    7769.1033    17.964114     22.65453    19.366118    7881.4012    7911.9639     7850.987     7544.359    -41.86628    184.08922    1305.8379   -3669.5449 
14025000    195.65547   -4969.9907   -4578.6556   -4969.9907            0    7118.6217    18.020454    22.613084    19.349041     7884.696    5555.6247    7661.7012     8138.539   -149.67739    1135.7843    360.51606   -3760.0839 
14026000    195.43605   -4969.2384   -4578.3422   -4969.2384            0    6590.9347    18.029219    22.655869    19.299883    7883.3778    5269.8267    7752.0224    6750.9549    515.77614   -404.81383   -828.69978    -3820.576 
14027000     194.3217   -4951.0738   -4562.4064   -4951.0738            0    9605.7356    17.953612    22.806925    19.094478    7818.5528    9936.4539    9221.8385    9658.9144    580.82794    966.29451   -89.702887   -3467.1069 
14028000     189.8948   -4988.6528   -4608.8398   -4988.6528            0    7676.6669    17.838049    22.809125    19.292159    7849.4064    8856.7965    7237.3414    6935.8628   -1191.2121   -403.45412    81.099673   -3730.0492 
14029000    193.32345   -4978.1206   -4591.4498   -4978.1206            0    7740.5929    17.737682    23.002724    19.248446    7853.6546    9232.5649     6325.138    7664.0757   -975.64533    206.48065   -23.196991   -3704.8617 
14030000    196.47016   -4967.4852   -4574.5206   -4967.4852            0    8046.6093    17.842306    23.140549    19.005816    7847.1357    8632.3646     7800.391    7707.0723   -40.315905   -766.04235   -505.66849   -3653.6471 
14031000    195.59727    -4958.653   -4567.4343    -4958.653            0    7417.0088    17.832691    22.844996    19.310823    7866.9929    6960.8882    7332.1093     7958.029   -278.30647   -731.38224    248.98833   -3716.4659 
14032000    189.91417   -4958.7325   -4578.8807   -4958.7325            0    9136.7242    18.046702    22.579466    19.196838    7822.4216    7474.2173    10140.245    9795.7101    714.71682    -109.4626   -2143.2106    -3536.545 
14033000    195.66275   -4977.7939   -4586.4442   -4977.7939            0    9551.1883    18.028901     22.64677    19.136016    7813.1658    8653.8654    10976.569    9023.1307    286.82837    474.79927    59.155198   -3498.1149 
14034000    187.98844   -4987.0636   -4611.0634   -4987.0636            0    9822.9884    17.902962    22.761901    19.170325    7812.0117     9957.988    9118.3044    10392.673    704.79441    40.551744     2052.731   -3491.9286 
14035000    189.75824   -4998.3695   -4618.8296   -4998.3695            0    9118.1817    17.814052    22.871873    19.233487    7836.5059    10487.131    9096.6647    7770.7497    182.42228    1169.5682    1475.4612   -3576.7363 
14036000    191.06898   -4994.5058   -4612.3443   -4994.5058            0    9016.9109     17.87929    22.915585    19.127623    7836.8625    8317.5843    9267.2655    9465.8829   -502.33542    1292.2062   -1670.2396   -3581.7781 
14037000    194.15132     -4985.89   -4597.5634     -4985.89            0    8015.1296    17.895544    22.726951     19.30495    7851.5383    7461.9885    8524.9607    8058.4395    724.79053    1233.7991    957.08238   -3679.7779 
14038000    196.77636   -4991.8204   -4598.2434   -4991.8204            0    7419.8579    17.924036    22.766337    19.263261    7860.6557    6375.8829    7609.9542    8273.7366    1876.6655    1322.5088    457.94865   -3747.6338 
14039000    194.88121   -4990.7838   -4600.9973   -4990.7838            0    6559.5337    18.017073     22.66676    19.349033     7901.926    6283.9306    7348.5692    6046.1014   -1737.8549    29.201063      515.464   -3845.0669 
14040000    195.69664   -4979.4676   -4588.0502   -4979.4676            0    8809.6888     18.00901    22.823063    19.096151    7848.9146    6524.7203    8991.8746    10912.472   -636.75957   -337.17904   -1245.2111   -3579.6195 
14041000    197.98175     -4979.03    -4583.042     -4979.03            0    7762.8331    17.759279    22.993976    19.226861    7851.4121    7967.1964    7140.6443    8180.6587   -528.56649   -167.14722   -1478.5965   -3694.1604 
14042000    195.09907   -4974.3933    -4584.171   -4974.3933            0    10226.209    17.815923    22.894201    19.075443    7780.5171    9901.9803    10206.912    10569.734    566.06678   -537.83439    1615.5327   -3423.7943 
14043000    200.17656   -4975.4237   -4575.0459   -4975.4237            0    8660.9334    17.897591    22.776456    19.216443    7833.4617    7750.4505    9230.4997    9001.8501    816.72974    215.18633   -1255.2266   -3585.5948 
14044000    189.52764   -4989.1153   -4610.0366   -4989.1153            0     9701.958    17.808811    22.613694    19.304314    7774.2913    10770.854     9974.721    8360.2989   -1519.8683   -385.47758   -829.72456    -3510.028 
14045000    191.51855   -5004.0968   -4621.0361   -5004.0968            0    7515.4598     17.83737    22.642868    19.446196    7854.1092    8662.1936    7571.7514    6312.4343   -166.65487   -304.97823   -839.44197   -3760.1843 
14046000    195.55974   -5002.9869   -4611.8433   -5002.9869            0    7323.6063    17.821842     22.87841    19.240578     7845.065    6684.8704    7865.5266    7420.4218    1208.6844    1244.1011   -868.42669   -3773.9332 
14047000    191.72169   -4981.9341    -4598.467   -4981.9341            0    7234.4173     17.91869    22.987336    19.117167    7874.4169    6688.4989    6892.5853    8122.1677   -26.731271    73.577869     974.9158   -3767.6644 
14048000    182.84541   -4980.5104   -4614.7969   -4980.5104            0    7653.7392    18.009351    22.883207    19.045595    7848.9127    6557.2807    8317.6027    8086.3342   -439.45051    250.02808   -742.74625   -3738.6861 
14049000    201.21449   -4985.6039   -4583.1501   -4985.6039            0    8017.4434    17.854526    22.770858    19.340199    7863.0069    8478.3911    8511.5554    7062.3838   -2014.7309    1266.1072   -2053.9732   -3663.7586 
14050000    199.55741   -5011.3158   -4612.1764   -5011.3158            0    7857.0962    17.920065    22.613405    19.360744    7845.6257    8077.8396      8135.67    7357.7788   -731.80411    325.61948    614.08143   -3713.1642 
14051000    199.49137   -4944.5327   -4545.5253   -4944.5327            0    9916.9905    18.040571    22.607137    19.189252    7826.2533    8381.6078    10354.486    11014.878    788.96949    714.01469   -275.91669   -3413.6211 
14052000    190.82445   -4980.1529   -4598.4805   -4980.1529            0    8378.8374     17.97012    22.779635    19.064211     7803.988      8313.21    8845.3823    7977.9199    195.44253   -398.38395    635.51062   -3644.8585 
14053000    183.18448   -4992.4511   -4626.0595   -4992.4511            0    6195.7764    17.872751    22.909735    19.226051    7872.2987    5534.8487    6694.1385    6358.3419    6.5064713     162.1733   -1915.8299   -3914.7261 
14054000    201.00731   -4967.1439   -4565.1044   -4967.1439            0    9049.2465     17.68585    22.974965    19.202754    7802.6891    10748.984    8786.0658    7612.6894   -1250.4225   -630.43048   -128.96777   -3535.3525 
14055000    193.29381   -4967.6446   -4581.0331   -4967.6446            0     7456.402    17.794432    23.016251     19.16965     7851.143    8884.7095    6086.6565    7397.8401   -709.50208   -493.01183    2491.2225   -3727.2686 
14056000    204.12224   -4971.3806   -4563.1109   -4971.3806            0    6666.9856    18.039354    22.819604     19.17925     7895.156     6265.177    6729.4313    7006.3486   -624.42845   -102.49692    572.74692   -3795.4558 
14057000      193.153   -5012.4268    -4626.097   -5012.4268            0    8221.5754    18.006556    22.578993    19.308292    7850.1703    6490.7342    8464.6841    9709.3079     1331.601     697.3314    324.73601   -3684.8361 
14058000    197.80765   -4996.6427   -4601.0029   -4996.6427            0    6879.9319    18.021618    22.732487    19.255378      7888.47    7555.3876    6322.7365    6761.6717   -1550.0037   -826.41987   -1757.5699   -3809.4995 
14059000    189.85096   -4972.2261   -4592.5008   -4972.2261            0    9355.3764    17.765097    23.077179    19.051541    7810.5286    10018.175    7531.5762    10516.378   -1310.7362   -299.57205    -462.6829   -3526.8434 
14060000    190.75161   -4981.9743   -4600.4476   -4981.9743            0    8054.0881    17.942406    22.829315    19.140956    7840.3814    7674.0436    8961.6053    7526.6156   -990.46137    91.982204     265.0545   -3679.5115 
14061000    193.14291    -4964.807   -4578.4973    -4964.807            0    7446.9855     18.08851    22.549112    19.316631    7878.8643    6610.9568     9796.416    5933.5837    182.00575      135.592    753.68552   -3722.8002 
14062000    205.34021    -4973.168   -4562.4622    -4973.168            0    7596.2362    17.959479    22.770007    19.335829    7907.1447    9195.2836    7051.0163    6542.4087    978.32784    975.99263    928.42416   -3686.4825 
14063000    202.42638   -4981.8043   -4576.9265   -4981.8043            0    7621.4625    17.853201    22.895843    19.276602    7879.5828    7247.7185    7546.4844    8070.1845   -1406.6983    -22.97989    309.98558   -3701.1014 
14064000    192.09432   -4983.2682   -4599.0558   -4983.2682            0     8322.252    17.771704    22.950413    19.201662    7831.7425    8104.4587    8691.7777    8170.5197    197.73491    132.19117   -2362.8284   -3648.5054 
14065000     182.4687   -4976.4293   -4611.4694   -4976.4293            0    8852.7989    17.822276    22.956124    19.157157    7837.7753    9204.0459     8124.666    9229.6849    -1.506235    608.05223    1194.9382   -3599.5421 
14066000    194.71827   -4958.5435   -4569.0829   -4958.5435            0    6799.9614    17.957891    22.556342    19.487441    7893.6672    6732.8868    7390.2455    6276.7519   -307.31215   -292.01653   -1017.3548   -3786.2642 
14067000     192.8761   -4988.2005   -4602.4245   -4988.2005            0    9788.8616    17.830026    22.740133    19.281838    7817.9593    9232.2908    10631.255    9503.0387   -1165.0459    670.65299    447.79536   -3486.3287 
14068000    196.95169   -4982.1797   -4588.2519   -4982.1797            0    9641.4282    17.793645    22.970659    19.135228    7821.1754    10742.504    9962.1698    8219.6105    -1520.424    2178.2858   -128.58995   -3488.5138 
14069000    180.38161   -4977.9095    -4617.124   -4977.9095            0    9555.4468    17.794453    23.017492    19.069353    7810.4957    9104.8219    9146.4158    10415.103   -270.82415   -117.32809   -683.10451   -3528.6815 
14070000    200.56504   -4989.5327   -4588.3779   -4989.5327            0    8272.8548    17.953322    22.825564    19.198101      7867.28    8515.7341    8193.5499    8109.2804    568.28217    131.40948    1074.7495   -3639.1819 
14071000    187.80186   -4963.8018   -4588.1749   -4963.8018            0    8462.3547    18.001408    22.618377    19.278666    7849.5523    8075.3438    8739.0047    8572.7154    1284.0234   -322.11668   -393.25951   -3619.4242 
14072000    206.72131   -4964.9427   -4551.4746   -4964.9427            0    8209.6282    17.890249    22.900598    19.181803     7858.735    9403.0206    7939.7366    7286.1273    544.63726    504.30241    -2444.088    -3610.556 
14073000    191.79944   -4995.1597   -4611.5371   -4995.1597            0    9290.4564    17.708494    23.082504     19.06692     7793.725     9808.851    8640.5736    9421.9446   -586.26709   -974.17763     432.4374   -3555.5515 
14074000    183.43757   -4988.8261   -4621.9283   -4988.8261            0    5739.1312    17.751949    23.125621    19.239642    7898.3511    6388.9503    4492.9025    6335.5406   -52.928124   -988.39861    570.45825   -3960.8415 
14075000     192.5246   -4982.7199   -4597.6469   -4982.7199            0    9175.1246    17.860623    22.811456    19.163592    7807.7612    8279.5924    8258.7346    10987.047   -460.81798    518.65223    655.19261   -3552.8921 
14076000     199.1535   -4982.5744   -4584.2428   -4982.5744            0    9748.2241    18.062548    22.424347    19.226167    7787.3828    6346.6445    11208.289    11689.739    1048.6384    -407.5974    526.92234   -3477.1273 
14077000    184.60853   -5005.5674   -4636.3275   -5005.5674            0    7855.6349    17.892646    22.737858    19.277728    7842.9595    9537.6311    7378.4148    6650.8588   -876.64948   -892.43997    1418.7919   -3737.7881 
14078000     208.3704    -4977.392   -4560.6254    -4977.392            0    8971.2351    17.707019    22.794617    19.379692    7822.1227    10294.692    8925.3036    7693.7095    182.72914   -464.89918   -194.95725   -3537.2081 
14079000    191.24078   -4993.5436   -4611.0384   -4993.5436            0    7517.0933    17.887551    22.822936    19.204271    7840.0751    7719.4594    7673.1971    7158.6234    1229.9347    55.911949    1220.3544   -3751.5381 
14080000    199.99965   -4980.1835   -4580.1595   -4980.1835            0     6809.828    18.054087    22.721509    19.230874    7888.8138     6465.823    6609.9975    7353.6634   -46.320143    475.94536    419.13234    -3796.687 
14081000    188.70631   -4966.1214   -4588.6855   -4966.1214            0    7908.4354    17.909588    22.676735    19.348031    7857.8349     7758.897    8224.8648    7741.5445   -467.25912    636.26724   -1317.1181    -3682.391 
14082000     190.2444   -4996.2755   -4615.7632   -4996.2755            0    8010.3736     17.88841    22.840327    19.227145    7855.7716    9027.5632    7553.7102    7449.8474    -415.1036    551.69743   -1861.3782   -3698.0277 
14083000    190.70024   -4959.4986   -4578.0746   -4959.4986            0    9698.5493     17.90545    22.800123    19.204755    7840.2734    8017.9243    9867.3834     11210.34    1031.2097    525.01236   -2284.9853   -3469.1197 
14084000     201.8475   -4972.9478   -4569.2278   -4972.9478            0    7054.1372    17.934459    22.746928      19.2987     7872.979    6688.5557    6929.2319    7544.6242   -594.77381   -490.81747   -581.52271   -3759.2766 
14085000    190.19429   -4989.5344   -4609.1223   -4989.5344            0    6635.2681    17.905633    22.749799    19.333161    7875.3544    5362.5283     6141.535     8401.741    1074.7232   -182.96211    761.69414   -3847.0355 
14086000    188.31846   -4977.1896   -4600.5295   -4977.1896            0    9676.9624    17.795122    22.771483    19.253779    7802.0415    11105.885    8525.4963    9399.5062   -588.40654    154.15593   -321.87157   -3499.4385 
14087000      192.056    -4979.337   -4595.2013    -4979.337            0    10163.134    17.756799    23.043239    18.983562    7767.5833    10702.992    8581.9298    11204.482   -1280.8278    95.999382    633.03864   -3443.8987 
14088000    195.68056   -4985.7735   -4594.3882   -4985.7735            0    7328.2308    17.892009    23.080906    19.029117    7858.3359      5280.18     7584.096    9120.4163    1443.6054     366.9432    1741.2581   -3754.5307 
14089000    183.89157   -4999.7531   -4631.9472   -4999.7531            0    9177.7457    17.885385    22.794345     19.15276    7808.3053     9558.181    8797.5561    9177.4999    49.552459   -309.22494   -734.31384   -3586.8211 
14090000    193.84052   -4990.0019   -4602.2969   -4990.0019            0      8588.03    18.134396    22.419951    19.275743    7836.9824    6945.6114    9062.0259    9756.4527    1154.6831   -552.99712   -1577.1378   -3620.7336 
14091000    188.87618   -4982.5915   -4604.8158   -4982.5915            0    9158.6641    17.994664    22.628001    19.238218    7833.4807    7460.9519    9464.2368    10550.804   -136.93156   -630.03651    67.759925      -3558.5 
14092000    188.03603   -4977.7969   -4601.7016   -4977.7969            0    8838.3246    17.790229     22.87677    19.243544    7831.7947    10063.163     7864.594    8587.2167     336.9521    592.43962    424.47308   -3592.1997 
14093000    199.81402   -4973.2344   -4573.5817   -4973.2344            0    9680.2492    17.788744    22.960604    19.142621    7818.6177    11258.003    9074.0324     8708.712   -145.65044   -1228.4348   -233.40798   -3469.7766 
14094000    190.40181   -4977.9775   -4597.1504   -4977.9775            0    7963.2961    17.829565    23.133759     19.03094    7849.5942    7976.6842    7711.4768    8201.7272   -632.82405   -695.21837   -383.09386   -3685.5259 
14095000    189.69354   -4998.1379   -4618.7274   -4998.1379            0    9374.2837    17.751941    22.742236    19.293317    7789.0752    9315.6291    9814.8673    8992.3548    615.77281    101.91242    297.47523   -3553.8493 
14096000    206.28899   -5002.6853   -4590.0818   -5002.6853            0    8544.1747    17.886779    22.617748    19.362135    7833.1193    7300.4035    9680.0078    8652.1126   -179.13696    303.43548   -558.60458   -3614.0123 
14097000    198.85733    -4996.466   -4598.7268    -4996.466            0    6915.6013    17.961204    22.734789    19.242995    7857.7653    8433.9409     6126.537    6186.3261   -138.67343   -73.127069   -233.95313   -3806.2166 
14098000    195.48466   -4984.0932   -4593.0997   -4984.0932            0    9521.9712    17.893646    22.839877    19.116131    7812.5461    10042.279    8043.3514    10480.283    2.9840989    576.11857    519.78738   -3508.1856 
14099000    186.08739   -4976.1017   -4603.9039   -4976.1017            0    7518.5503    17.887468     22.96615    19.110329    7850.6432    6874.5822    7876.1451    7804.9237    109.97776    508.64481    1782.7845   -3743.0781 
14100000    195.29151   -4984.6894   -4594.0822   -4984.6894            0    7415.5195    17.956813    22.803158    19.172497    7850.6017    7061.1176    6893.9874    8291.4533   -1165.2747   -613.21067   -1608.4573   -3745.0573 
14101000    194.42707   -5014.6595   -4625.7813   -5014.6595            0    8580.4499    17.899252    22.728856    19.237062    7826.2048      7565.96    9053.6665    9121.7234   -1080.6752    1209.1632    -430.5656    -3646.433 
14102000    195.88747   -4983.9464   -4592.1473   -4983.9464            0    9410.2637    18.008761    22.553952    19.295857    7837.3736     7623.618    10340.431    10266.742    983.95648    299.99311    1189.5102   -3516.5536 
14103000    195.75934   -4977.6505   -4586.1076   -4977.6505            0     7355.326    17.994756    22.602041    19.403653    7891.8191    6078.8384    7812.0799    8175.0598   -96.451143    1369.6254    1110.2186   -3739.5531 
14104000    200.92149   -4990.7572   -4588.8894   -4990.7572            0     7029.965    17.929975    22.808791    19.331792    7905.9498    7625.1501    6046.5166    7418.2282    179.32185   -1289.6356    211.84577   -3778.3333 
14105000    206.90417   -4972.6074   -4558.7735   -4972.6074            0    8298.6352    17.905369    22.894771    19.215161      7877.05    8507.5364    7797.7217    8590.6474   -1326.1351   -435.43693   -515.30277   -3605.4371 
14106000    180.28508   -4981.8486   -4621.2562   -4981.8486            0    7922.5803    17.924659    22.996959    19.027159    7843.2358    6450.1373    8434.1235      8883.48    303.28764    635.35011   -372.25704   -3715.0275 
14107000    197.24411   -4980.6169   -4586.1043   -4980.6169            0    8668.9791    17.795322    22.947258    19.206786    7843.1649    10136.274    7549.6268    8321.0368   -308.13203   -961.48393    553.26933   -3594.5074 
14108000    197.58681   -4977.4093   -4582.2113   -4977.4093            0    7663.0142    17.823644    22.803617    19.342305     7861.555    7393.2185    8490.8012    7105.0229   -813.24148   -183.89669   -811.50826   -3703.6259 
14109000    187.18961   -4976.1473   -4601.7449   -4976.1473            0      7919.59    17.972991    22.785809    19.195053    7860.9335    7306.4437     8322.713    8129.6134   -795.23532   -150.79498   -1363.6266   -3693.8142 
14110000     193.1139   -4958.0505   -4571.7989   -4958.0505            0    9614.2137    18.095717      22.5497    19.174787    7824.3289    8050.3475    9798.8819    10993.412   -1686.3662    297.43103   -1139.2208   -3474.7228 
14111000    205.03997   -4971.0331   -4560.9278   -4971.0331            0    9371.4541    17.889772    22.599569    19.358499    7826.6634      8819.72    10800.837    8493.8053    85.860284   -67.710791    -394.5773   -3491.2339 
14112000    190.68093   -4977.4933   -4596.1079   -4977.4933            0    7958.7611    17.782058    22.804171    19.359793    7850.4944    8372.0561    8330.4265    7173.8008    28.116238    827.20127   -331.18193   -3684.8981 
14113000    195.45664   -4994.6492   -4603.7118   -4994.6492            0    8196.0159    17.795885    22.994259    19.117735    7823.0381    8994.6853    6861.0553    8732.3072   -211.24137   -712.11129    87.753478   -3668.6203 
14114000    198.51187   -4977.4831   -4580.4349   -4977.4831            0    8857.5869    17.974916    22.882209    19.060394    7839.6499    8870.5109    8298.3103    9403.9394    834.13355   -860.55742    773.46371   -3567.7182 
14115000    184.81356   -4965.1517   -4595.5017   -4965.1517            0     7732.227    18.051537    22.586348    19.385591      7903.86    8085.1664    7644.5661    7466.9485    1291.9541    352.86981    1556.6667   -3704.2103 
14116000    188.75057   -4991.4414    -4613.917   -4991.4414            0    8516.3933    17.996699    22.547126    19.260737    7815.5032    7834.5692    9605.1858    8109.4249   -2324.1496    221.82392    415.67707   -3643.2091 
14117000    184.92566   -5004.5917   -4634.7176   -5004.5917            0    7375.3151    17.981415    22.744484    19.231503    7865.2617    7581.6645    7527.5025    7016.7782   -450.77467   -772.07882   -753.41712    -3788.719 
14118000    185.22813   -4976.3788   -4605.8996   -4976.3788            0    10611.824     17.83332    22.826641    19.193497    7813.1889    10573.409     10574.25    10687.813    871.36068     124.2381    927.80284   -3396.7104 
14119000    195.78136   -5001.4184   -4609.8315   -5001.4184            0    7934.5658    17.797614    22.844924    19.266903    7833.6367    8335.8699    7631.2975    7836.5302    1024.4471   -555.10015   -168.16789   -3703.3426 
14120000    193.62705   -4989.6912   -4602.4131   -4989.6912            0    8015.2933    17.871505    22.818534    19.238997    7845.6926    9901.8501    7478.4493    6665.5805    261.04855   -435.79697   -1580.1008   -3685.2922 
14121000    191.69795   -5000.6474   -4617.2278   -5000.6474            0    6099.7562    17.885201    22.886943    19.295992    7898.5749    7357.5455    5053.0599    5888.6633   -465.59339   -1842.2094     -1432.34    -3914.581 
14122000    199.34365   -4968.6156   -4569.9037   -4968.6156            0    9450.4841    17.923274    22.660381    19.263841    7823.9746    9558.3019    9758.3067    9034.8436   -68.834835    -71.16979   -160.66728   -3491.5595 
14123000    189.76519   -4979.5749   -4600.0211   -4979.5749            0    7754.4569    17.991293    22.700261    19.265623     7868.216    8058.3041    8622.2644    6582.8023   -175.21067    322.16325   -509.20364   -3710.1982 
14124000    194.13986   -4966.2572   -4577.9535   -4966.2572            0    10165.605    17.779415    22.768485    19.272311    7801.6307    11766.022    9776.1055    8954.6879     373.6102     205.7418    774.12613   -3421.3233 
14125000    194.57413   -4961.8922   -4572.7199   -4961.8922            0    9875.4159    17.701359    22.995351    19.212097    7820.2642    10041.639     9745.318    9839.2909   -748.33575    305.94846    582.42643   -3446.4235 
14126000    191.88627   -4990.0162   -4606.2199   -4990.0162            0    8178.6876    17.753987    22.950605    19.235223    7837.6754    7370.8199     8718.164     8447.079    1207.4632    181.14215   -103.92909   -3671.3595 
14127000    183.60397   -4966.7082   -4599.4776   -4966.7082            0    8087.6547    17.940512    22.864619     19.11515    7841.0912    7143.7388    7891.7376    9227.4877    3572.6031   -1195.1021    1441.1117   -3674.6197 
14128000    196.42024   -5000.3293   -4607.4645   -5000.3293            0    9111.7308    18.022679     22.60907    19.227593    7834.7831    8074.7248    9678.3104    9582.1573    46.477063   -567.35406   -759.69227   -3566.3374 
14129000    203.93313   -4967.1611   -4559.2696   -4967.1611            0    8319.3507    17.983711    22.648589    19.319518    7868.9496    7416.0746    8237.8802    9304.0974   -81.355816   -1026.7098    1161.5876   -3604.5363 
14130000    188.83429   -4995.3748   -4617.6829   -4995.3748            0    8580.4605    17.993709    22.408497    19.418323    7829.7003     7920.047    9330.3967    8490.9378   -332.77866   -863.30736    837.93417    -3637.896 
14131000    184.04915   -4999.4128   -4631.2918   -4999.4128            0    7501.1932    17.991988    22.783593    19.207988    7873.7794    8340.0274    6743.8521       7419.7   -523.75784   -261.73956    1412.7252   -3769.9223 
14132000    205.15693   -4984.6871   -4574.3479   -4984.6871            0    6781.8725    17.912957    22.902912    19.328634    7929.7438    7452.6769    6415.4589    6477.4816   -1712.8796    1016.6719   -1618.9048   -3790.0435 
14133000     196.4231   -4963.9544   -4571.0839   -4963.9544            0    8287.2765    17.676582    23.230556    19.047426    7821.5748    8720.6444    8365.3627    7775.8223    1948.4479    2031.2285    692.16596   -3625.7573 
14134000    197.84961   -5015.0068   -4619.2831   -5015.0068            0    7982.6453    17.764519    22.964789    19.192347      7829.68    8572.7971    6966.9125    8408.2261   -829.45193     279.8789   -712.17864    -3707.762 
14135000     185.1217   -4976.7149   -4606.4486   -4976.7149            0    9086.8712    17.817331    22.885567    19.141238    7805.0257    10841.225    8455.8364    7963.5523    1242.7723   -201.59573    138.45833   -3572.1056 
14136000    203.50884   -4991.5575   -4584.5146   -4991.5575            0    7589.4424    17.993728    22.576273    19.347671    7859.6299    6629.0499    7624.3996    8514.8777   -1033.7753   -503.99056   -1176.5506   -3714.5775 
14137000    191.40485    -4978.599   -4595.7657    -4978.599            0    10169.326    17.936039     22.74082    19.121134    7799.1331    10247.058    9253.0604    11007.858     -505.889    163.77362   -1355.0098   -3439.0826 
14138000    195.83655   -4989.8926   -4598.1953   -4989.8926            0    7780.9656     18.01512    22.799845    19.114576    7851.1578    7069.0718    7805.3696    8468.4555   -10.375564   -751.11355    949.21067   -3707.2663 
14139000    186.73611   -4994.7791   -4621.2838   -4994.7791            0     8070.635     17.99669     22.80188    19.061567    7822.0735    7727.0901    7607.0334    8877.7815   -99.339277    -191.4276   -2111.0313   -3700.6106 
14140000    198.41596   -4979.8743   -4583.0179   -4979.8743            0    7565.8105    17.901997    22.720891    19.300451    7850.4453    7521.1106    8233.5258    6942.7951   -895.74458   -58.494745   -1251.0353    -3716.803 
14141000      188.482   -4981.0419   -4604.0546   -4981.0419            0    6507.7503     17.94904    22.891627    19.187874     7883.966    7056.6433    6138.9689    6327.6388    502.27683   -175.65738    326.37839   -3855.7964 
14142000    192.69948   -4978.6995   -4593.2767   -4978.6995            0    8242.2514    17.908273    22.906025    19.073257    7823.9903    8287.5873    7978.8199    8460.3471   -946.82906   -533.45477   -2047.5617   -3652.7956 
14143000    186.26208   -4978.8823   -4606.3351   -4978.8823            0    7682.4466    17.924556    22.995549    19.088354    7867.9335     7375.969    7551.2975    8120.0735    133.18803    197.29797    883.19853   -3724.8071 
14144000     196.9544   -4986.0104   -4592.0773   -4986.0104            0    8947.3075     17.85855    22.735247    19.253651    7817.3398    9245.1626    9346.4961    8250.2639     316.8889    233.81304   -911.82184   -3572.0137 
14145000    194.22671   -4988.9037   -4600.4263   -4988.9037            0       8440.1    17.908178      22.7458    19.296986     7860.354    8971.1816    8017.4543    8331.6641    685.99547   -985.19565    828.26831   -3632.8937 
14146000    193.98824   -4993.6286   -4605.6281   -4993.6286            0    8711.9953    17.828112    22.689194    19.384214    7841.0213    9374.4561    9342.2062    7419.3237   -597.13227    -244.2965   -912.10695   -3609.3831 
14147000    190.62909   -5004.6916   -4623.4099   -5004.6916            0    8366.6487    17.848778     22.84354    19.246608    7847.4051    8253.8461    9321.1589    7524.9413    1074.3715   -414.20259    -476.7146   -3665.8774 
14148000    187.93578   -4986.5548     -4610.66   -4986.5548            0    7546.6571    17.900355    22.868232    19.181568     7851.965    6691.2203    6919.5637    9029.1872   -228.27506   -317.91469    4.8683139   -3746.4708 
14149000     198.6493   -4970.0277   -4572.7045   -4970.0277            0    7433.2744    17.849351    22.782017    19.422389    7898.0022    7186.7726    7815.7278    7297.3229     796.4719    190.74229    364.31103   -3716.5083 
14150000    194.39931   -4991.0491   -4602.2264   -4991.0491            0    9010.3867    18.082859    22.458323    19.198478    7796.7072    7622.3937    10029.217     9379.549    1257.3844      472.986     1752.878   -3577.6826 
14151000    202.97253   -4961.4894   -4555.5193   -4961.4894            0    9578.7207    17.951724    22.582201     19.32772    7835.2533    10490.179    9781.1601    8464.8227    1066.3103   -172.14982     751.3144   -3460.9672 
14152000    194.37624   -4979.5657   -4590.7892   -4979.5657            0    9400.5518    17.732975    22.830522    19.307021    7816.5068     9333.574    9715.8424     9152.239   -627.15698    29.527115   -1621.7191   -3519.1664 
14153000    198.27205   -4987.8588   -4591.2902   -4987.8588            0    8060.9707    17.812094    23.041274    19.184534    7873.5886    7591.2526    8118.0105    8473.6491   -523.73209    1305.8901   -366.80907   -3665.6633 
14154000    189.37629   -4983.7415   -4604.9656   -4983.7415            0    6782.4338    17.960729    22.810811    19.241416    7883.1847    6604.5036    6574.4409    7168.3568    907.19795    -319.8242   -533.51839   -3825.2016 
14155000    188.15457    -4985.926   -4609.5936    -4985.926            0    7151.3387    17.978874    22.819449    19.221939    7886.1464    6049.7221    7095.7511    8308.5428    65.755176    627.24595   -2687.9225   -3787.1085 
14156000    177.30521   -4976.0804    -4621.448   -4976.0804            0    8226.6335    17.923246    22.844715    19.226681    7872.3925    8654.5345    7266.5019    8758.8641    740.34841    154.35745    -1077.236   -3676.9419 
14157000      201.509   -5002.7839    -4599.741   -5002.7839            0    8837.5936    17.953899    22.677031    19.215866    7823.5695       9162.2    9011.4906    8339.0903    885.08333    1007.5306    454.69924   -3591.3827 
14158000    186.31907   -4988.8419   -4616.1807   -4988.8419            0    9896.7374    17.875159    22.719403    19.230659    7809.8194    8913.0495    10169.651    10607.512   -128.13466    509.38789   -1426.4082   -3488.9601 
14159000    197.41263   -5014.0709   -4619.2212   -5014.0709            0    6942.0922    17.869853    22.791557    19.343346    7878.1921    7321.9445    6717.8852     6786.447    7.2845634   -135.98467   -1366.8479   -3821.6071 
14160000     195.6235   -4977.4749   -4586.2038   -4977.4749            0    8747.4476    17.762753    23.070863    19.097009    7825.9932    8406.1508    7863.1364    9973.0556    271.66057    2281.1898    449.52183   -3587.8219 
14161000    192.02357   -4995.2873   -4611.2164   -4995.2873            0    8280.4916    17.815341    22.934053    19.167439    7831.3934    9040.7457    7493.8124    8306.9168   -1050.7846    31.370011   -707.55323    -3665.478 
14162000    190.89382    -4977.573   -4595.7618    -4977.573            0    7417.7578    17.957208    22.832432    19.215775    7878.5968    6806.1864     7761.906    7685.1809    230.23448    923.27784    142.15628   -3743.4521 
14163000    185.08859   -4967.9436   -4597.7436   -4967.9436            0    9558.3034    18.041081    22.639422    19.159162    7825.3615    9992.6499    9077.0859    9605.1744    421.71629   -328.52676    279.72418   -3506.9034 
14164000    197.35964   -5007.2002   -4612.4565   -5007.2002            0     6683.903    17.897501    22.920151    19.216477    7882.8569    6583.8245    5992.4291    7475.4552   -189.52808    493.03846   -461.58155   -3844.0524 
14165000    186.82199   -4974.8282   -4601.1611   -4974.8282            0    9189.4065    17.801019     22.84334    19.201345    7807.9338    7963.5635     10183.49     9421.166    11.528284    135.29502   -136.30986   -3554.7569 
14166000    198.65692   -4965.7095   -4568.3711   -4965.7095            0     8756.618    17.866605    22.807595    19.252459    7845.2673    8349.2316    8396.4892    9524.1331     1429.597    -126.1235    899.77309   -3566.4811 
14167000    193.16492   -4994.5702   -4608.2165   -4994.5702            0    8148.7854    18.062784    22.664827    19.215289    7866.5444    6727.2625    9329.0541    8390.0397   -263.57868    970.43325    977.07474   -3673.3432 
14168000    195.45576   -4969.8608   -4578.9252   -4969.8608            0    8322.1202    17.924912    22.760583    19.217197    7840.2599    8458.1884    8424.5831    8083.5893   -1281.1333    163.08498   -1083.3853   -3627.3561 
14169000    202.32865   -4978.8479   -4574.1656   -4978.8479            0    7394.4977    17.704896    23.005239    19.360504    7885.6372    7853.0736    7812.9368    6517.4826   -1234.7733    304.84382    505.08556   -3723.7693 
14170000     196.4298   -4982.3276   -4589.4437   -4982.3276            0    8298.7145     17.80795    22.819621    19.296773    7841.6427    8343.0404    7733.2678    8819.8355    1110.3071   -762.55526   -323.08453   -3640.3835 
14171000    191.55855   -4969.4031   -4586.2623   -4969.4031            0    9145.7126    17.989003    22.760955    19.162114     7845.868    6930.0543    10404.911    10102.172    448.39541    1036.9169    720.10284   -3539.7739 
14172000     188.0845   -4986.3787   -4610.1864   -4986.3787            0    8337.4649    18.064435    22.670333    19.127926    7833.3976    8009.8872    8612.7499    8389.7576    458.04255   -174.28614   -831.76114   -3657.6972 
14173000    180.78329   -4988.5595   -4626.9706   -4988.5595            0    7289.2946    17.828055      22.8622    19.301511    7867.0747    8131.9722    6936.6524    6799.2592    1329.2359   -135.40989    3264.0803   -3790.6464 
14174000    193.38921   -4989.4348   -4602.6325   -4989.4348            0    8113.0743    17.822526    22.696186    19.363259    7832.5034    8378.0186     9436.943    6524.2614   -742.09042    422.58906    1868.7861   -3675.8839 
14175000    187.69762   -4976.7834   -4601.3649   -4976.7834            0    8431.4695    17.855341    22.859265    19.210171    7840.8229    10486.018    7050.3307    7758.0596    928.82446   -464.06675   -410.76331   -3637.2234 
14176000    196.24577   -4989.3832   -4596.8674   -4989.3832            0    8823.3879    17.825225    22.859021    19.181307    7815.7533    9386.2468     8296.717    8787.1998    906.66556    342.79107   -834.50671   -3591.1358 
14177000    199.63368   -4970.8731   -4571.5811   -4970.8731            0    8191.6865    17.723663    22.792553    19.442602    7854.1796    9506.2996    7711.7954    7356.9645    816.78418    128.27435   -768.24508   -3633.2631 
14178000    197.85964   -4988.2355   -4592.4917   -4988.2355            0    6619.2813    17.946074    22.707875     19.33757    7880.3926    4857.8493    8569.5633    6430.4314    1026.7539    138.32022    28.269452   -3831.7546 
14179000    200.29419   -4986.2786   -4585.6654   -4986.2786            0     7896.821    17.969717    22.758166    19.243811    7869.9065    8933.7806    8225.3212    6531.3612    385.66029   -289.66091    943.90975   -3679.3116 
14180000    190.73879   -4976.6692    -4595.168   -4976.6692            0    7291.9696    17.904588     22.79153    19.319506    7883.7677    7647.9557    6903.5185    7324.4347   -88.524437    85.041587    836.25122   -3756.7617 
14181000    188.24617   -4976.6141   -4600.0985   -4976.6141            0    10630.994    17.803834    22.621931    19.347805    7792.4664    11503.106    10625.706    9764.1695    576.66539     1151.717    439.15179   -3391.9378 
14182000    200.27798   -4988.8059   -4588.2252   -4988.8059            0      9236.49    17.705963    22.973793     19.17637     7800.432    8903.1814    8234.6955    10571.593    1415.7831    949.74987     313.2133   -3537.4701 
14183000    193.84017   -5002.8099   -4615.1056   -5002.8099            0    7331.1611    17.851544    23.050469    19.076607    7849.7657    8033.4846    5770.8246    8189.1743   -1621.4348   -490.41842   -636.68223   -3775.8285 
14184000    192.00935   -4999.6844    -4615.642   -4999.6844            0    8581.0007    17.869488    22.909876     19.09836    7818.6351    6798.5051    8913.5136    10030.983    854.25898    1230.8155   -1050.8893   -3637.1782 
14185000    201.89953   -4976.6248   -4572.8008   -4976.6248            0    8588.4363    17.941901    22.514772    19.433988    7850.5108    8619.9637    11192.655    5952.6907   -524.29773     1273.933    171.47199   -3589.4966 
14186000    193.10519   -4966.7047   -4580.4705   -4966.7047            0    8405.1971    17.885039    22.598827    19.427167      7852.09    8048.9386    8740.5128    8426.1398    555.32011    135.03022    2077.3201   -3617.9521 
14187000    193.89073   -4995.2027   -4607.3973   -4995.2027            0    6623.5569    18.011044    22.625424    19.333421    7878.5143    5379.6304    8108.4523     6382.588     -505.075    79.538432    -2187.356   -3846.3503 
14188000    196.31224   -4970.3036   -4577.6549   -4970.3036            0    8618.0458    17.867305    22.822657    19.184249     7822.941    8256.8719    9345.2378    8252.0278    -762.9105    715.56787    -1198.714   -3594.4257 
14189000    185.22503   -4989.4272   -4618.9543   -4989.4272            0      7819.62    17.848592    23.032972    19.043396    7828.8567    9607.7606    6977.4437    6873.6557    145.15655   -520.14687   -96.543826   -3726.1426 
14190000    195.54876   -4950.7106   -4559.5889   -4950.7106            0    8585.6437    17.774846    23.021166    19.192005    7853.3241    8991.7331    8907.4654    7857.7327    376.19092    848.82309    279.43458   -3576.2522 
14191000    191.75616   -4978.9928   -4595.4567   -4978.9928            0    7775.2177    17.898788    22.740384    19.334354    7869.5711    7661.1435    8494.5424    7169.9671   -470.24594    604.10355    521.87103    -3703.098 
14192000    193.74929   -4977.8478   -4590.3253   -4977.8478            0     7793.671     17.91349    22.692547    19.301178    7845.9809    6223.1508    8520.3103    8637.5519    110.10395   -390.71071     969.7806   -3698.5299 
14193000    197.33814   -4993.9693   -4599.2686   -4993.9693            0     9055.115    17.797379    22.918876    19.199926    7831.5715    11047.172    8778.1676     7340.005   -832.44182    178.30999    1343.0062   -3565.0347 
14194000    196.99628   -4972.8694   -4578.8525   -4972.8694            0    10955.967    17.692858    22.768928    19.300589     7775.192    11266.955    10334.969    11265.976    1050.3797    654.54637   -230.63763   -3336.5204 
14195000    198.46223   -4990.5342   -4593.5852   -4990.5342            0    8464.1321    17.874025    22.942238    19.112176    7837.3327    9961.1198    6965.9193    8465.3573   -94.548067   -893.41041   -1214.6834   -3626.1395 
14196000    196.36437   -5000.1327   -4607.3798   -5000.1327            0    6877.9636    17.969083    22.733958    19.275099    7874.0392    5832.5166    7557.5434    7243.8307   -1293.2737   -395.49686   -3165.7534   -3817.5503 
14197000    194.39464   -4983.6357   -4594.8224   -4983.6357            0    8462.0561     17.92396    22.783276    19.199968    7840.6243    8099.5662    7906.8164    9379.7857    486.53676   -664.43975    387.33835   -3627.2077 
14198000    191.55291   -4975.2422   -4592.1128   -4975.2422            0    9325.6681    17.684524    22.862244    19.310104    7807.2277    10631.076    9087.8329    8258.0957   -1799.1707    510.91731   -103.47187   -3530.2884 
14199000    197.14396   -4974.5407   -4580.2284   -4974.5407            0    7919.0594    17.922019    22.817063    19.193067    7848.5796      8075.51    8382.6482    7299.0201    366.54457    375.41724     -1102.75   -3673.7853 
14200000    190.63626   -4985.4362   -4604.1401   -4985.4362            0    7374.8071    17.994048    22.863921    19.082232    7850.7069     6656.362    8163.0843    7304.9748    999.70588    397.78354    206.49611   -3759.7652 
14201000     196.4061    -4990.003   -4597.1665    -4990.003            0    9028.8595    17.957374    22.708832    19.207156    7832.5053    9128.6353    9109.7602    8848.1831   -126.50575    -550.7558   -944.60291   -3565.8084 
14202000    196.65296   -4992.3205   -4598.9903   -4992.3205            0    9044.1937     17.82231    22.608692    19.445855    7835.4956    10655.296    9080.2825    7397.0028   -845.04265   -726.12006   -707.99129   -3565.4862 
14203000    190.14567   -5003.6759   -4623.3611   -5003.6759            0    8012.7197    17.952152    22.529272    19.439663    7862.3509    9340.4973    8869.7069    5827.9548   -1231.0185    471.30362    759.26003    -3704.588 
14204000    181.33017   -4991.0951   -4628.4123   -4991.0951            0    7296.9829    17.877208    22.982685    19.156811    7870.8868    6973.9428    6674.8852    8242.1206    -384.0589   -268.56234   -150.85371   -3790.8003 
14205000    189.50926   -4990.1953   -4611.1533   -4990.1953            0    9983.1323    17.796539    22.968473    19.054938    7788.8837    11066.908      10201.5    8680.9888    804.99084    527.99103    324.06241   -3477.1406 
14206000    192.63398   -4998.5854   -4613.2936   -4998.5854            0    8372.8186    17.852583    22.892323    19.168184    7833.7893    9037.0928    7541.1314    8540.2316    97.978552    701.42371    678.95339   -3656.7177 
14207000    191.91488   -4985.4375    -4601.584   -4985.4375            0     6542.812    17.960587    22.521837    19.487379    7882.7504    7654.6158    7006.1834    4967.6368   -715.07609   -456.41416    -825.0861   -3849.4104 
14208000    189.85534   -4965.2654   -4585.5313   -4965.2654            0    7229.0622    17.902753    22.596816    19.464263    7874.1747    7594.6399    7612.7474    6479.7993   -1024.1767    113.70508    596.82948   -3755.3692 
14209000    186.50459   -4968.3848   -4595.3526   -4968.3848            0    8198.0534    18.046375      22.7593    19.162083    7870.3054    5324.4629    8274.0725    10995.625   -1269.9522    28.614859   -41.647685   -3654.3773 
14210000    189.91901   -4962.8439   -4582.9824   -4962.8439            0    7554.6512    17.854342    22.930215    19.196804    7859.2466    7646.6793    7169.0804    7848.1939    -17.85221   -532.50034    593.62911   -3717.0755 
14211000    196.15279   -4978.3613   -4586.0315   -4978.3613            0    9425.5997    17.658149    23.023878     19.17857    7797.2216    10202.088    8264.6617    9810.0497    144.55657   -487.08751      829.495   -3514.2044 
14212000    184.80995   -4969.3752   -4599.7325   -4969.3752            0    7817.5679    17.846271     22.92173    19.249375    7874.2917    9601.9893    7183.2942    6667.4201   -644.75809    25.755969   -488.48068   -3701.9749 
14213000    190.46262   -4978.7094   -4597.7606   -4978.7094            0    8626.5239    17.854278    22.746415    19.319289    7845.9655     9920.232    8409.6826    7549.6573    727.96773    230.47312   -1358.3172   -3610.6675 
14214000    190.03853    -4983.104   -4603.0034    -4983.104            0    8440.3531    18.064072     22.47001    19.307478     7836.903    9389.6676    9306.0378     6625.354   -338.19545    231.42353   -879.21908   -3638.3285 
14215000    186.51627   -5003.6343   -4630.5787   -5003.6343            0    9069.0171    17.940461    22.676382    19.212893    7816.2805    9092.8351    8656.0835    9458.1328   -1588.7034   -726.03702   -722.42932   -3596.7794 
14216000     193.5461   -4988.7422   -4601.6261   -4988.7422            0    8676.9096    17.908898    22.824747    19.174975    7838.0791    8586.9585    9024.6794    8419.0909    -1454.283    378.16599    188.99336   -3609.7656 
14217000     193.0125     -5005.88   -4619.8311     -5005.88            0    9435.1213    17.868174    22.892218    19.093385    7809.9993    9707.4361    8971.4431    9626.4847   -480.19224     118.7566    752.97913    -3545.163 
14218000    194.73192   -4973.8372   -4584.3493   -4973.8372            0    8248.6188    17.924627     22.87156    19.169152    7858.6659    10003.928    7214.7259    7527.2025   -6.3603013   -459.09764   -1201.2574   -3638.9703 
14219000     196.9542   -4988.7489   -4594.8162   -4988.7489            0     9509.284    17.963583    22.757492    19.100656    7808.4647    10123.363    9414.7667    8989.7223    654.83131    535.13358    199.82496   -3511.9137 
14220000    183.73938   -4985.4136   -4617.9121   -4985.4136            0    8877.3905     17.85877    22.806469    19.229572    7832.1181    8960.6426    9177.8401    8493.6888    1999.4926    1481.6253    1344.9232   -3603.9063 
14221000    194.80852   -4989.6576   -4600.0165   -4989.6576            0    8761.4152    17.843552     22.92912    19.148746    7834.4593    8885.3618    8117.8388    9281.0449   -348.98387    248.60443   -652.69818   -3598.9587 
14222000    179.90837   -4988.0185   -4628.1795   -4988.0185            0     8048.716    17.838027     23.08793    19.043694    7843.0148    9963.6152    7131.4264    7051.1063   -291.32999    854.20623    37.081258   -3707.5487 
14223000    184.22782    -4994.532   -4626.0536    -4994.532            0    7502.2996    17.956725    22.696259     19.32204    7874.7066    5595.8282    9388.6874    7522.3833   -1010.8146     1202.732   -561.98413   -3764.4557 
14224000    192.57084   -4983.5431   -4598.3776   -4983.5431            0    8027.8501    18.050731    22.506398    19.331807    7853.6806     7979.054    7909.0347    8195.4616   -1.5457443   -320.43159   -66.682744   -3678.8847 
14225000    193.45238   -4990.3715   -4603.4429   -4990.3715            0     10044.09    18.009395    22.553729    19.185029    7792.5558    9561.4066    10479.389    10091.474   -1108.9844   -486.11842   -194.50226   -3461.9679 
14226000    188.65361    -4973.525   -4596.1945    -4973.525            0    9026.9705    17.746083    23.000884    19.175803    7827.0951     10148.37    7604.5262    9328.0151    1742.8183   -564.71461    1274.2431   -3565.7644 
14227000    195.79001   -4946.4068   -4554.8026   -4946.4068            0    6974.4407    17.794769    23.087812    19.213754    7893.8227    6562.5487     6590.074    7770.6994    58.903835    288.58943    1676.0382    -3751.882 
14228000    192.42312   -4959.2191   -4574.3491   -4959.2191            0    8563.9529     17.84926    22.846321     19.18713    7824.3181    7909.7648    8507.3326    9274.7612    469.27299   -915.78833   -220.86488   -3597.1194 
14229000    198.41582   -4979.7245   -4582.8683   -4979.7245            0    8514.0853    17.952401    22.656952    19.218643    7817.1195    10057.958    7752.2515    7732.0468    1598.9947   -1413.8246   -609.34543   -3612.2228 
14230000    199.95032     -4973.29   -4573.3646     -4973.29            0    6957.5747    17.964936    22.853245    19.243663    7900.6221    5213.8516    7397.2954    8261.5771   -91.454083    211.73023   -537.80577   -3771.6957 
14231000     204.0056   -4987.6043   -4579.5679   -4987.6043            0    8475.2126    17.996003     22.72443    19.133395     7824.581    7492.6833    8377.3418    9555.6127   -1889.7295   -906.42447   -2106.6221   -3612.4319 
14232000    193.01304   -4981.1961   -4595.1462   -4981.1961            0    8640.8688    18.051842    22.769115    19.103881    7852.1628    6870.9106    8838.0227    10213.673   -1016.6017   -86.330679    1360.3389   -3605.6307 
14233000    198.45468   -5000.4627   -4603.5289   -5000.4627            0    10024.713    17.859191    22.782787    19.135876    7786.0459    9928.1893    9923.5743    10222.375    876.06429     192.2639    1158.8693   -3465.2077 
14234000    198.75174   -4980.6207   -4583.0927   -4980.6207            0    8550.7595      17.9158    22.779092    19.194512    7833.3889     7678.173    9510.5288    8463.5766    499.72781   -144.18638     522.4386   -3606.2373 
14235000    193.35474   -5005.2809   -4618.5475   -5005.2809            0    7138.0897    17.861895    22.979805    19.120214     7848.138    7121.2077    6454.3221    7838.7392    584.21571    509.05942    1423.3108   -3801.5429 
14236000    188.56973   -4982.0345   -4604.8718   -4982.0345            0    9825.5457    17.866995    22.800603    19.184632    7815.4021    10107.521    9679.4302    9689.6858    396.66869    235.47878     1277.431   -3484.9598 
14237000    195.85164    -4998.192   -4606.4645    -4998.192            0    7910.1795    17.948475    22.764903    19.200127    7845.0814    6408.4288    9641.7315    7680.3782   -1901.5422    1257.8028    1615.7137   -3701.4414 
14238000    200.48686   -4978.3574   -4577.3589   -4978.3574            0    8569.4007    18.030933    22.412101     19.36956    7827.4539    10108.812    9219.1005    6380.2898    -1086.735    42.273355    231.59174   -3599.1156 
14239000    192.18731   -4982.1054    -4597.707   -4982.1054            0     7050.536    17.969824    22.613782    19.404129    7885.1723    6289.6865    7703.1909    7158.7305   -125.93452    966.46773   -132.67548   -3786.9155 
14240000    200.40595    -4977.452   -4576.6153    -4977.452            0    9797.3585    17.919376    22.655013    19.210372    7798.7139    9621.0213    10247.992    9523.0623    2026.8025   -257.91359   -989.97096   -3462.3005 
14241000     187.6707   -4985.2777   -4609.9131   -4985.2777            0     8767.269    17.946428    22.917959    19.011108     7819.183    7908.2194    10008.339    8385.2487    325.75478    799.58121   -2487.8318   -3610.1397 
14242000    188.25651   -4992.4605   -4615.9242   -4992.4605            0    5567.0808    17.951588    22.948674    19.254032      7931.99    4832.4086     5636.397    6232.4368    453.80664    51.942194   -73.201161   -3971.9247 
14243000    203.99453   -4976.2828   -4568.2685   -4976.2828            0    9150.8276    17.643852    22.762583    19.451729    7812.1963    11780.267    7901.8784     7770.337   -345.58917   -1953.5292    957.19171   -3525.6885 
14244000    196.47333   -4975.5148   -4582.5439   -4975.5148            0    7626.6268    17.848084    22.863341    19.293036    7872.8484    8484.2949    7056.3658    7339.2196    166.77532    80.828751    1508.2354   -3706.8743 
14245000    199.16782   -4963.6363    -4565.276   -4963.6363            0    8963.5841    17.936512    22.888312     19.09375    7838.6809    8090.8163    8933.5404    9866.3957    -441.1439    423.78934    1963.8346    -3540.567 
14246000    195.12264   -4990.4997   -4600.2303   -4990.4997            0    9391.4248     17.83893    22.920168    19.105667    7811.7583     8030.678    9996.6682    10146.928    -1633.989    649.87947   -971.14205   -3530.2983 
14247000    197.85897   -4990.9251   -4595.1827   -4990.9251            0    8948.1579    17.746479     22.87223    19.255593    7815.8752    10837.409     6523.613    9483.4518   -1484.1846   -997.31826   -716.27868   -3575.2133 
14248000    196.47965   -4969.3234   -4576.3398   -4969.3234            0    8124.4492    17.962661    22.728673    19.235779    7853.3423     8684.779    8380.4779    7308.0907    874.22539    284.32956   -157.82597   -3645.8227 
14249000    187.32742   -4980.7316   -4606.0536   -4980.7316            0    10270.716    17.936209     22.64862    19.245075    7817.9342    9322.5323    10797.454    10692.161   -1680.0818    1509.5824    -2196.227    -3435.022 
14250000    196.67563    -4959.677   -4566.3015    -4959.677            0    9952.9088    17.905448    22.689013    19.241757    7817.0974    8426.1629    11351.557    10081.007    916.38834    2075.2204   -192.59907   -3431.6266 
Loop time of 638.665 on 64 procs for 250000 steps with 1008 atoms

Performance: 67.641 ns/day, 0.355 hours/ns, 391.441 timesteps/s
369.5% CPU use with 16 MPI tasks x 4 OpenMP threads

MPI task timing breakdown:
Section |  min time  |  avg time  |  max time  |%varavg| %total
---------------------------------------------------------------
Pair    | 42.27      | 44.576     | 46.504     |  20.7 |  6.98
Bond    | 1.6971     | 1.904      | 2.5463     |  18.2 |  0.30
Kspace  | 309.32     | 314.69     | 326.73     |  26.9 | 49.27
Neigh   | 2.6178     | 2.7237     | 3.0428     |   7.1 |  0.43
Comm    | 80.965     | 95.062     | 103.75     |  52.3 | 14.88
Output  | 0.48735    | 0.48763    | 0.48898    |   0.1 |  0.08
Modify  | 125.27     | 135.16     | 151.79     |  71.5 | 21.16
Other   |            | 44.07      |            |       |  6.90

Nlocal:        63.0000 ave          65 max          59 min
Histogram: 1 0 0 2 0 3 3 0 3 4
Nghost:        3466.50 ave        3488 max        3438 min
Histogram: 3 0 0 2 1 0 3 2 3 2
Neighs:        21400.6 ave       22150 max       19987 min
Histogram: 1 0 0 3 1 1 2 2 2 4

Total # of neighbors = 342409
Ave neighs/atom = 339.69147
Ave special neighs/atom = 2.0000000
Neighbor list builds = 5512
Dangerous builds = 0

unfix		3
unfix		2
unfix		1

write_data	data.final.${pid}
write_data	data.final.1
System init for write_data ...
PPPM initialization ...
  extracting TIP4P info from pair style
  using 12-bit tables for long-range coulomb (../kspace.cpp:340)
  G vector (1/distance) = 0.38044161
  grid = 24 27 32
  stencil order = 5
  estimated absolute RMS force accuracy = 0.0023129314
  estimated relative force accuracy = 6.9653242e-06
  using double precision FFTW3
  3d grid and FFT values/proc = 7875 1344
Last active /omp style is kspace_style pppm/tip4p/omp
WARNING: Not all mixed pair coeffs generated from mixing. Use write_data with 'pair ij' option to store all pair coeffs. (../write_data.cpp:312)

write_restart   restart.lmp.${pid}
write_restart   restart.lmp.1
System init for write_restart ...
PPPM initialization ...
  extracting TIP4P info from pair style
  using 12-bit tables for long-range coulomb (../kspace.cpp:340)
  G vector (1/distance) = 0.38044161
  grid = 24 27 32
  stencil order = 5
  estimated absolute RMS force accuracy = 0.0023129314
  estimated relative force accuracy = 6.9653242e-06
  using double precision FFTW3
  3d grid and FFT values/proc = 7875 1344
Last active /omp style is kspace_style pppm/tip4p/omp
Total wall time: 0:10:38
