LAMMPS (30 Jul 2021)
  using 1 OpenMP thread(s) per MPI task
package omp 0
using multi-threaded neighbor list subroutines
echo both

include		in.partitions
variable        pid world 0
include		in.temp
variable        temperature equal 257.96
variable	tempDamp equal 100.0
include		in.pressure
variable        pressure equal 9250.0
variable        pressureDamp equal 1000.0 # This is 1 ps
include		in.seed
variable        seed world 745823

units		real
atom_style	full

read_restart	restart.lmp.${pid}
read_restart	restart.lmp.0
Reading restart file ...
  restart file = 30 Jul 2021, LAMMPS = 30 Jul 2021
  restoring atom style full from restart
  orthogonal box = (0.021812452 -0.0026498685 0.24067060) to (19.978189 20.002651 20.459327)
  4 by 4 by 4 MPI processor grid
  restoring pair style lj/cut/tip4p/long/omp from restart
  restoring bond style harmonic/omp from restart
  restoring angle style harmonic/omp from restart
  972 atoms
  648 bonds
  324 angles
Finding 1-2 1-3 1-4 neighbors ...
  special bond factors lj:    0        0        0       
  special bond factors coul:  0        0        0       
     2 = max # of 1-2 neighbors
     1 = max # of 1-3 neighbors
     1 = max # of 1-4 neighbors
     2 = max # of special neighbors
  special bonds CPU = 1.615 seconds
  read_restart CPU = 1.914 seconds
include 	in.setup
variable	out_freq equal 1000
variable	out_freq2 equal 10000
variable	out_freq3 equal 1000

timestep	2.0

neigh_modify    delay 7 every 1

include		in.tip4p
# This is TIP4P/Ice

# create groups ###
group ox type 2
324 atoms in group ox
group hy type 1
648 atoms in group hy

# set charges - beside manually ###
set group ox charge -1.1794
Setting atom values ...
  324 settings made for charge
set group hy charge 0.5897
Setting atom values ...
  648 settings made for charge

# ### TIP3P Potential Parameters ###
pair_style lj/cut/tip4p/long/omp 2 1 1 1 0.1577 8.5
pair_coeff 1 1*2 0.000 0.000
pair_coeff 2 2 0.21084 3.1668
bond_style  harmonic
bond_coeff  1 450 0.9572
angle_style harmonic
angle_coeff 1 55 104.52
kspace_style pppm/tip4p/omp 1.0e-5
pair_modify tail yes

thermo          ${out_freq}
thermo          1000
thermo_style    custom step temp pe etotal epair emol press lx ly lz vol pxx pyy pzz pxy pxz pyz enthalpy

restart 	${out_freq3} restart.lmp.${pid} restart2.lmp.${pid}
restart 	1000 restart.lmp.${pid} restart2.lmp.${pid}
restart 	1000 restart.lmp.0 restart2.lmp.${pid}
restart 	1000 restart.lmp.0 restart2.lmp.0


include         in.dump
dump            myDump all atom ${out_freq2} dump.water.${pid}
dump            myDump all atom 10000 dump.water.${pid}
dump            myDump all atom 10000 dump.water.0
dump            myDump2 all dcd ${out_freq2} dump.dcd
dump            myDump2 all dcd 10000 dump.dcd
dump_modify     myDump append yes
dump_modify     myDump2 append yes


variable natoms 	equal  "count(all)"                        # NUMBER ATOMS
variable H      	equal  "enthalpy/v_natoms"                 # ENTHALPY-per-atom
variable Vol      	equal  "vol/v_natoms"                 # volume-per-atom
fix AVG all 		ave/time ${out_freq} 1 ${out_freq} v_Vol v_H file vol_enthalpy.dat
fix AVG all 		ave/time 1000 1 ${out_freq} v_Vol v_H file vol_enthalpy.dat
fix AVG all 		ave/time 1000 1 1000 v_Vol v_H file vol_enthalpy.dat


timer           timeout 02:55:00 every 1000
New timer settings: style=normal  mode=nosync  timeout=02:55:00

fix 		1 all shake 1e-6 200 0 b 1 a 1
       0 = # of size 2 clusters
       0 = # of size 3 clusters
       0 = # of size 4 clusters
     324 = # of frozen angles
  find clusters CPU = 1.078 seconds
fix             2 all nph aniso ${pressure} ${pressure} ${pressureDamp}
fix             2 all nph aniso 9250 ${pressure} ${pressureDamp}
fix             2 all nph aniso 9250 9250 ${pressureDamp}
fix             2 all nph aniso 9250 9250 1000
fix             3 all temp/csvr ${temperature} ${temperature} ${tempDamp} ${seed}
fix             3 all temp/csvr 257.96 ${temperature} ${tempDamp} ${seed}
fix             3 all temp/csvr 257.96 257.96 ${tempDamp} ${seed}
fix             3 all temp/csvr 257.96 257.96 100 ${seed}
fix             3 all temp/csvr 257.96 257.96 100 745823


run             250000
PPPM initialization ...
  extracting TIP4P info from pair style
  using 12-bit tables for long-range coulomb (../kspace.cpp:340)
  G vector (1/distance) = 0.37210883
  grid = 24 24 24
  stencil order = 5
  estimated absolute RMS force accuracy = 0.0035151136
  estimated relative force accuracy = 1.058566e-05
  using double precision FFTW3
  3d grid and FFT values/proc = 2197 216
Last active /omp style is kspace_style pppm/tip4p/omp
Neighbor list info ...
  update every 1 steps, delay 7 steps, check yes
  max neighbors/atom: 2000, page size: 100000
  master list distance cutoff = 10.8154
  ghost atom cutoff = 10.8154
  binsize = 5.4077, bins = 4 4 4
  1 neighbor lists, perpetual/occasional/extra = 1 0 0
  (1) pair lj/cut/tip4p/long/omp, perpetual
      attributes: half, newton on, omp
      pair build: half/bin/newton/omp
      stencil: half/bin/3d
      bin: standard
Per MPI rank memory allocation (min/avg/max) = 9.223 | 9.225 | 9.228 Mbytes
Step Temp PotEng TotEng E_pair E_mol Press Lx Ly Lz Volume Pxx Pyy Pzz Pxy Pxz Pyz Enthalpy 
21250000    258.94504   -4662.5794   -4163.1821   -4662.5794            0    7790.2215    19.956376    20.005301    20.218657    8071.9612    6087.1549    10014.449    7269.0604    39.728057   -73.808241   -25.019632   -3246.1073 
21251000    260.80435    -4711.351   -4208.3678    -4711.351            0      8816.14    19.858485    19.863458     20.40755    8049.9247     8792.539     9016.405     8639.476    690.57213    531.82923    805.68072   -3173.3539 
21252000     260.3261   -4707.3858    -4205.325   -4707.3858            0    8675.4203    19.933416    19.604518    20.795886    8126.7208    9216.2017    8522.2491    8287.8102    -834.6723   -534.50052    2314.8725   -3177.1151 
21253000    249.66646   -4689.2863   -4207.7835   -4689.2863            0    9553.9784    19.798301     19.84419    20.437799     8029.628     9816.662    10816.807    8028.4666   -17.228436    1165.1687    166.72976   -3088.9755 
21254000    249.19539    -4716.061   -4235.4667    -4716.061            0    10516.447    20.019614    19.753106    20.078667       7940.1    9923.3133    11396.355    10229.673    54.478545     101.5009   -212.05602    -3017.681 
21255000    252.51002   -4695.0269   -4208.0401   -4695.0269            0    8542.8759    19.780108    19.849837    20.549167    8068.2587    8564.1623    10163.726    6900.7399   -479.23448    1128.8551    272.38407   -3202.8231 
21256000     253.9924    -4683.411   -4193.5653    -4683.411            0    8855.0846    19.940901    19.886917     20.38906    8085.5474     9468.747    8526.0262    8570.4805   -223.30925    530.21612   -1825.3785   -3149.3789 
21257000    257.77264   -4695.7597   -4198.6235   -4695.7597            0    10443.604    19.808651    19.887481    20.335775    8011.1597    11756.251    7957.7029    11616.858    -106.5107    596.82957   -1251.1239   -2978.4498 
21258000    269.04962   -4709.8482   -4190.9634   -4709.8482            0    11524.052     19.79979    19.673555     20.40266    7947.4944    10602.502     12308.03    11661.622    789.68544    784.52894    281.45079    -2855.256 
21259000    264.00188   -4688.8226   -4179.6728   -4688.8226            0    9686.9862    19.609102     20.08054    20.447705    8051.5163    10650.493    7561.2601    10849.206    664.80847    1647.8901    1939.7245   -3042.1968 
21260000    258.62943   -4697.4298   -4198.6412   -4697.4298            0    7587.1034    19.764368    20.113155    20.475059    8139.3232    8082.0318    5591.0457    9088.2326   -180.67829   -410.25523    420.95464   -3298.0241 
21261000    248.93246   -4681.3686   -4201.2815   -4681.3686            0    10620.502    20.029247    19.678435    20.270942    7989.6751    11375.202    10206.791    10279.514   -173.57436    1551.0929    244.23295   -2963.7676 
21262000     256.0495   -4651.0732   -4157.2602   -4651.0732            0    10185.169    19.714645    19.862402    20.550951    8047.3454    9276.5141    12019.391    9259.6005    1345.8771    744.41771   -1292.7896   -2961.9056 
21263000    263.61027   -4669.8819   -4161.4873   -4669.8819            0    9791.8746    20.096329    19.637433    20.358459    8034.2688    10269.555    9478.4048     9627.664   -72.032334    293.70467     587.2335    -3014.158 
21264000    258.81259   -4707.4258    -4208.284   -4707.4258            0    10977.119    19.972051    19.697877    20.340926    8002.2626    8926.7628    12683.579    11321.016   -56.614648     350.9279   -501.38533   -2927.2015 
21265000     251.4293   -4701.9542   -4217.0517   -4701.9542            0    7154.9076    19.639379    19.946748    20.765257    8134.6183    8207.7217    6893.9029    6363.0981    82.500354    711.67425   -576.76654   -3368.2288 
21266000    252.55531   -4690.4184   -4203.3442   -4690.4184            0     7767.449     19.75343    19.796649    20.617141    8062.3683    8823.9298     7661.278    6817.1393   -596.35866   -217.15968   -96.984498   -3290.0369 
21267000    266.37632   -4715.6637   -4201.9346   -4715.6637            0     11237.72    20.129857    19.719962    20.136038    7993.2017    9217.1191     11973.38    12522.662    495.99853    1351.2308    1201.9292   -2891.9237 
21268000    249.60324   -4713.4761   -4232.0952   -4713.4761            0    9002.8887    19.836068     19.79457     20.55538     8070.997    9234.4019    8808.6146    8965.6495   -195.55033   -997.82366    168.30468   -3172.3903 
21269000    246.09243   -4690.9277   -4216.3178   -4690.9277            0    7141.5416     19.85914    19.763543     20.63635    8099.4985    6783.9429    9461.7182    5178.9638    322.78522     834.1127   -1397.7673   -3372.7383 
21270000    259.78797   -4725.3133   -4224.2903   -4725.3133            0    8663.1274    20.059951    19.872366     20.31609    8098.7796    8455.6019    8977.0994    8556.6809    714.71625    1444.8812   -245.48676   -3201.0676 
21271000    260.02626   -4731.8504   -4230.3679   -4731.8504            0    9971.4644    19.773629    19.836476    20.512919    8045.9692    10356.784    9935.8808    9621.7279    182.07433    1235.5606    458.95178   -3060.2943 
21272000     260.4114     -4715.48   -4213.2547     -4715.48            0    8621.4319    19.784281    19.977417    20.507204    8105.2437    9180.7124    8091.8434    8591.7398   -405.59422    517.91523   -569.08482    -3194.144 
21273000    245.43863   -4705.0452   -4231.6962   -4705.0452            0    8653.6972    19.696721    19.790203    20.629765    8041.5254    7135.5793    10995.557    7829.9551     629.6137   -2005.1936   -1713.6322   -3216.8131 
21274000    279.95229   -4709.8843   -4169.9728   -4709.8843            0    7166.4909    19.852857    19.850667    20.718322    8164.9343    7879.7425    7748.6637    5871.0666    364.14553    948.27809   -1621.6297   -3316.6071 
21275000     261.0522   -4668.8049   -4165.3438   -4668.8049            0    10782.683    19.700702    19.919062    20.354355    7987.4458    10152.705    12359.949    9835.3947    900.54518   -232.77636   -2549.7196    -2909.283 
21276000    268.20448   -4692.9672   -4175.7123   -4692.9672            0    9116.1392      19.7143    19.735074    20.695867    8051.9998    8162.8844    10903.688    8281.8451   -135.79433    1195.2217    793.50347   -3105.2026 
21277000    279.45583   -4701.3833   -4162.4293   -4701.3833            0    10817.784    19.670248     19.89062    20.497729    8019.8067    9744.0718    11336.385    11372.894    89.515954    796.50954    1028.1745   -2897.1742 
21278000    248.92359   -4698.6229   -4218.5528   -4698.6229            0    9254.0729     20.00526    19.632439    20.394125    8009.8343    7497.3861    8921.5148    11343.318   -368.66839    1045.1661    1367.2948   -3137.5363 
21279000    252.40216   -4686.0298    -4199.251   -4686.0298            0    10434.395    19.935624     19.86512    20.344724      8056.99    8425.3716    11625.153    11252.659    684.79336   -17.238582   -426.04508    -2973.179 
21280000    250.58265   -4680.1443   -4196.8746   -4680.1443            0    7567.6672    19.817439     19.85459    20.671043    8133.3759    7356.8689    8854.9253    6491.2074    122.17221   -619.91183    1478.7264   -3299.2211 
21281000    265.88069   -4681.6674   -4168.8941   -4681.6674            0    10405.248    19.881371    19.867943    20.408821    8061.5241    10554.294    10236.242    10425.207    490.87074    375.48378    1416.8146   -2945.5589 
21282000    253.76091    -4677.974   -4188.5747    -4677.974            0    9834.9683    19.887309    19.852274    20.401918    8054.8464    11276.294      7660.94    10567.671    1195.8566    1168.9578   -2070.1218   -3033.2446 
21283000    260.54796   -4697.3882   -4194.8996   -4697.3882            0    9059.7948    20.017413    19.957625    20.121841    8038.6759    7976.8078    9063.5168     10139.06   -606.47851   -643.90672    1048.6798   -3132.7669 
21284000     242.9823   -4691.0779   -4222.4661   -4691.0779            0     9113.847    19.804316    19.862457    20.470754    8052.4246     11265.25    8871.3653    7204.9258   -639.29053      144.605    1257.9074   -3152.1691 
21285000     244.6867   -4723.0367   -4251.1378   -4723.0367            0     9171.365    19.689961    19.827676    20.648763    8061.4045    10309.341    7354.0432    9850.7106    861.08712    -825.5889   -416.01458    -3172.885 
21286000    252.95677   -4712.7588   -4224.9104   -4712.7588            0    9040.6784    19.664331    19.695023    20.482525    7932.6656    9263.9396    8243.8691    9614.2265   -307.33557   -1383.2711   -1220.9815   -3178.9962 
21287000    259.95596    -4711.889   -4210.5421    -4711.889            0    9308.5528    19.772155    19.915513    20.467616    8059.5862    10837.225    7898.3603    9190.0736    76.010965   -209.40678   -1280.1477   -3116.4074 
21288000    270.45839   -4696.9571   -4175.3554   -4696.9571            0    11595.258     19.87706    19.711592    20.269768    7941.8672     12629.17     10892.98    11263.624    535.06317   -580.87076    35.885228   -2832.3464 
21289000    248.76395   -4703.3322     -4223.57   -4703.3322            0    9376.0092    19.947835    19.829167     20.30589    8031.9732    9912.7335    8458.3752    9756.9189    416.42327    -322.6219    240.75122   -3125.2822 
21290000    259.19745    -4725.815   -4225.9309    -4725.815            0    8840.5749    19.962955    19.930979    20.366789    8103.5634    8555.7833    9436.6901    8529.2512   -585.53605    1136.5996    645.79567   -3181.1327 
21291000    249.88805   -4682.5082   -4200.5781   -4682.5082            0    9576.5489    19.608852    20.054865    20.369642    8010.4202    10161.759    8174.4077     10393.48    110.05931    61.015664    1289.6926   -3081.8096 
21292000    254.51818   -4705.4918   -4214.6321   -4705.4918            0     8934.923    19.927519    19.818548    20.388039    8051.9396    9473.0247    8918.5124    8413.2317   -526.88226    468.35741   -1583.8126   -3165.4105 
21293000    263.23591   -4694.5002   -4186.8276   -4694.5002            0    8052.7081    19.863312    19.876601    20.444202    8071.6806    7769.3759    6943.8081    9444.9402   -21.653393   -53.944262    420.67692   -3238.8855 
21294000    244.33193   -4707.3465   -4236.1319   -4707.3465            0    10608.192     19.63597    19.841754    20.483575    7980.6483    10001.243    11334.588    10488.745    246.50779    2058.3578    63.709334    -3001.449 
21295000     247.0754   -4722.3998   -4245.8941   -4722.3998            0    9348.4392    19.468643    20.074556    20.668402    8077.7152    11205.054    9058.8953    7781.3682    681.51226    938.45689    522.59619   -3144.5995 
21296000    249.90612   -4701.9439    -4219.979   -4701.9439            0     9104.394    20.009498    19.668555    20.442713    8045.3914    8524.5743    9938.0206     8850.587   -234.55818   -428.74323   -626.60049    -3151.726 
21297000    262.04635   -4714.8629   -4209.4845   -4714.8629            0    9551.4291    19.848344    20.064023    20.219769    8052.2726    10279.263    9154.7925    9220.2321    699.92048    372.31386     658.6093   -3087.8207 
21298000    237.92165   -4692.5302   -4233.6783   -4692.5302            0    10746.383    20.014596    19.771634    20.249711    8013.2412    9388.6323    12568.111    10282.404    422.51269    1095.9086   -717.51244   -2977.8033 
21299000    264.50486   -4696.8204   -4186.7005   -4696.8204            0    11104.415    19.808371    19.762791    20.494763     8023.058     11842.33    10940.974    10529.942    877.23056   -364.22089    17.590026   -2887.3943 
21300000    253.04832   -4715.6314   -4227.6064   -4715.6314            0    7741.8856    20.078912    19.692248    20.437311    8080.8905    5063.4228     8325.628     9836.606    317.80208   -801.95205   -1143.0108   -3315.2136 
21301000     272.5032   -4663.7975   -4138.2522   -4663.7975            0    9948.6101    19.735365    20.002627    20.489096    8088.2581    10624.091    9097.7563    10123.984    566.53573   -786.25602    2419.5758   -2964.7246 
21302000    253.04022   -4719.9889   -4231.9796   -4719.9889            0    7847.0648    20.061398     19.67285    20.499381    8090.3854    9180.8028    6783.7095     7576.682    600.14047    402.72037    -812.8194   -3306.1046 
21303000     256.2925   -4736.5406   -4242.2589   -4736.5406            0    8026.4639    19.757136     19.94388    20.443996    8055.6284    9506.4716    7470.3834    7102.5365    341.73516    213.52649    631.46318   -3299.2853 
21304000    281.05932   -4713.3906   -4171.3441   -4713.3906            0    11550.501    19.804053    19.488239    20.600175    7950.5575    10359.454    13680.631    10611.417    163.00586     485.8551    215.24487   -2832.0551 
21305000    259.75179    -4702.833   -4201.8798    -4702.833            0    8480.0803      19.9046    19.994803    20.333886     8092.654    8772.4074    6715.2297    9952.6037   -140.39069   -85.792793   -660.35658   -3201.0348 
21306000    281.75641   -4701.0976   -4157.7067   -4701.0976            0    11238.369    19.759034     19.88511    20.382326    8008.4313    8981.0576    12453.764    12280.285     471.1895    277.72494   -473.23338   -2845.1242 
21307000    257.57548    -4740.619    -4243.863    -4740.619            0    8524.7705    19.961682    19.723588     20.49638    8069.7524    6516.9073    10013.212    9044.1919     977.7134    1998.4261   -2705.7529   -3240.5908 
21308000    268.44641   -4727.3959   -4209.6744   -4727.3959            0    8945.9316     19.99559    19.962946     20.26349    8088.5954     7685.667    8230.7116    10921.416    121.93029    423.58283   -1107.2473   -3154.3777 
21309000    244.02452   -4695.7515   -4225.1297   -4695.7515            0    8604.4267    19.608029    20.004778    20.587457    8075.5182    9428.2736    8985.6606    7399.3458    -797.2092   -1265.3005   -1420.1683   -3211.7593 
21310000    262.52659   -4719.9926    -4213.688   -4719.9926            0    9334.5127    19.791036    19.813684    20.593487    8075.3928    10217.778    10542.155    7243.6051   -144.50526      1226.18   -429.27711   -3114.3501 
21311000    249.02213   -4670.4842    -4190.224   -4670.4842            0    10917.894     19.64223    20.069701    20.310279    8006.5902    11720.722    10910.669    10122.293   -490.87529    301.43935    1404.6187   -2915.3644 
21312000    277.65798   -4701.7657   -4166.2789   -4701.7657            0    7725.5963    19.798283      19.7832     20.62549    8078.4554    7965.4774    8375.0536    6836.2579    275.15624     823.8701    527.63226   -3256.0801 
21313000    267.77458   -4694.9567   -4178.5309   -4694.9567            0    8714.0828    19.851332     19.76533    20.514969    8049.4197    10364.041    7323.6173    8454.5902   -35.964211    2596.9181     864.1907   -3155.5627 
21314000    259.96933   -4709.3177    -4207.945   -4709.3177            0    7618.6779    19.854781    19.936846    20.460687    8099.1931    9244.4311    5855.6051    7755.9975   -286.48172    177.79483   -1678.8521   -3308.0387 
21315000    266.13802   -4717.9156   -4204.6461   -4717.9156            0    11624.686    19.645957    19.875681    20.411216    7970.1058    11868.716    10831.132     12174.21   -521.79047   -2367.9571    1654.5389   -2853.4412 
21316000    265.96072    -4674.862   -4161.9344    -4674.862            0    8371.5943    20.063041    19.881376    20.155473     8039.632    6788.1531    8226.1621    10100.468   -128.94055   -1116.3179     851.3729   -3180.3667 
21317000    254.64438   -4709.0891    -4217.986   -4709.0891            0    9896.5867    19.823729    19.779209    20.441395    8015.0238    8500.9047    12382.461    8806.3942    39.315211    631.46445    1028.5129   -3061.1651 
21318000    257.11541   -4697.1511   -4201.2824   -4697.1511            0    10078.262    19.774268    19.815814    20.346501    7972.6381    12379.812    7361.0591    10493.916    1052.8782    1081.9802    396.26669   -3029.4551 
21319000    262.28166   -4750.1215   -4244.2892   -4750.1215            0    9425.1371    19.908072    19.649092    20.533924    8032.3688     9028.008      10070.1    9177.3038    660.87238   -1752.0961    1602.2068   -3140.1923 
21320000     261.1548   -4692.5268   -4188.8678   -4692.5268            0    10022.229    19.667173    19.799947    20.636016      8035.85    11966.444    8106.8274     9993.416   -723.87195    1034.4454     331.9433   -3014.3164 
21321000    261.54557   -4704.4467   -4200.0341   -4704.4467            0    9778.2925    19.983837    19.776653    20.298841    8022.3742    9649.8082    9292.7087    10392.361   -389.77239    1205.9654    664.59488   -3055.9925 
21322000    261.18503   -4651.6056   -4147.8883   -4651.6056            0    9037.0427    19.752512    19.616929    20.797208    8058.5777    8260.9577    10093.906    8756.2639    368.18834    2998.3395    265.57016      -3085.8 
21323000    252.65673   -4739.6057   -4252.3359   -4739.6057            0    9683.6037    19.798702    19.896348    20.444854    8053.6747    9445.4673    10268.314    9337.0295    661.05536    431.57304    -188.9136   -3114.9523 
21324000    238.80368   -4701.9759   -4241.4229   -4701.9759            0    9598.1856    19.899761    19.900913    20.368923    8066.5706      8351.81    10497.631    9945.1155   -277.98901   -582.86288   -1364.7606   -3112.2669 
21325000    251.69945   -4705.1707   -4219.7472   -4705.1707            0    9137.9781    19.915004    19.930053    20.410988    8101.2655    8500.0055     10301.94    8611.9886    416.66149    1337.1339   -131.48475   -3140.1074 
21326000    260.33331   -4695.0174   -4192.9427   -4695.0174            0    10626.309    19.680632    19.627255    20.552149     7938.818    7426.4288    14067.845    10384.654   -27.967674   -932.23291    1243.7308   -2962.6337 
21327000    252.30636   -4740.6546   -4254.0605   -4740.6546            0    8802.2989    19.908176    19.848895    20.417111    8067.9296     7068.341    9856.5245    9482.0311    356.11073   -424.39507    238.58473   -3218.3603 
21328000    277.93803   -4717.0825   -4181.0556   -4717.0825            0    8902.6692    19.939045    19.864352    20.469181    8107.3555    9537.4313    7859.5193    9311.0571   -376.57812   -191.44541    2.5340045   -3128.4266 
21329000    252.00555   -4715.3321   -4229.3182   -4715.3321            0      8407.56    19.740325    20.045936    20.477781    8103.3303    7773.0845    7735.2761    9714.3194   -482.17019   -76.810966    94.033881   -3235.7232 
21330000     254.6614   -4667.5797   -4176.4438   -4667.5797            0    10499.182    19.863548    19.827195    20.369604    8022.3327    11090.972    10304.199    10102.374    314.61406    625.46855     881.0664   -2948.0659 
21331000    257.49711   -4689.9631   -4193.3582   -4689.9631            0    9217.9341    19.856824    19.767437    20.617822     8092.877    10066.781    8965.6323    8621.3893    129.64688    721.39238   -506.28731   -3105.3995 
21332000    256.55629   -4726.2829   -4231.4925   -4726.2829            0    9615.6237    19.971387    19.659688    20.488888    8044.5773    12042.932    7344.1177     9459.821 -0.098440026   -562.72842    601.44247   -3103.3692 
21333000    257.04153   -4695.8736   -4200.1473   -4695.8736            0    7442.7632    20.028472    19.959898    20.378784    8146.7501    6921.3798    8109.6497    7297.2601    281.26014    1386.9549    -516.5414   -3315.8578 
21334000    265.04607   -4679.5171   -4168.3535   -4679.5171            0    9076.7551    19.807606    19.952555     20.47778    8093.0719     9362.701    8181.0119    9686.5525    1172.2638    1018.3989   -625.41749   -3097.0318 
21335000    244.21499   -4696.4554   -4225.4663   -4696.4554            0    9465.6794    19.884319     19.70575    20.438748    8008.6254    9241.3625    10086.501    9069.1747   -257.63102    1510.6714   -772.97396   -3119.8978 
21336000    249.26084   -4708.2659   -4227.5454   -4708.2659            0    8273.2271    19.945657    20.035018    20.317171    8118.9772    6076.2121    9059.4638    9684.0056    578.86619   -699.96626    74.132097   -3247.9377 
21337000    245.87836   -4700.9832   -4226.7861   -4700.9832            0    9449.9098    20.041075    19.780713    20.352049     8068.097    8734.1034    9333.5695    10282.057   -90.208378    300.36106   -511.76304   -3114.8633 
21338000    248.40056   -4683.3456   -4204.2842   -4683.3456            0    9774.1575    19.722352    19.714878    20.707701    8051.6462    11399.196    9132.1664    8791.1102    487.87372   -493.41818   -984.73486   -3056.5537 
21339000    242.50774   -4732.4734   -4264.7769   -4732.4734            0    7660.5882    19.785224    19.827159    20.585072    8075.2102    7750.6297    7864.9339     7366.201    342.04494     1343.894   -477.52092   -3362.5997 
21340000    252.67987   -4699.6314    -4212.317   -4699.6314            0    9877.6829    19.287108    19.979891    20.713158    7981.9047    13009.994     7160.286    9462.7683    454.27182    331.51162    1350.1503   -3062.4768 
21341000    256.49994   -4720.3362   -4225.6545   -4720.3362            0    8630.5879     19.95455    19.659622    20.557091    8064.5246    8752.1721    9197.4224    7942.1691    207.01981   -481.64345   -412.53931   -3210.5868 
21342000    263.82144   -4726.3315   -4217.5296   -4726.3315            0    10867.588    20.045229    19.787057     20.36904    8079.0963    9213.0645    12713.366    10676.335   -78.279951    1588.5034    959.10171   -2937.0524 
21343000    271.20113   -4719.2632    -4196.229   -4719.2632            0    8585.8138    19.808101    20.021207    20.492141    8126.8162    7566.7551    9538.5814     8652.105    950.99875    -123.6204   -812.13386   -3178.6273 
21344000    261.58898   -4714.9705   -4210.4742   -4714.9705            0    9124.2758    19.850001    19.854215    20.456189    8061.9106    8195.3274    9135.2109    10042.289     525.0796   -883.71317   -1351.1242   -3137.6902 
21345000    250.92435   -4735.5914   -4251.6626   -4735.5914            0    8615.0159    20.152732    19.527172    20.443137     8044.903    8588.8173    9187.0314     8069.199    127.63679    930.33397   -1022.7209   -3240.8916 
21346000    266.67188   -4707.5665   -4193.2674   -4707.5665            0    9850.2254    19.556826    20.087877    20.359121    7998.1847    9711.7851    9994.7497    9844.1413    148.69072    985.95026    114.78235   -3044.2847 
21347000    269.49956   -4727.0309   -4207.2784   -4727.0309            0    8936.6895    20.025149    19.554059    20.634641    8079.9675    7526.6931    11268.777    8014.5981    671.68207    479.52209   -131.66529   -3154.1964 
21348000    257.42686   -4693.0074    -4196.538   -4693.0074            0    10633.708     19.95006    19.809017    20.164477    7968.8212    10207.225    9741.3951    11952.502    1292.6422   -862.25879    46.174057   -2960.7196 
21349000    253.97451   -4712.5934   -4222.7822   -4712.5934            0    8397.8018    19.734514    19.844202    20.593803    8064.8563    8177.4964    9292.5521    7723.3571   -234.89171    1206.8714   -1470.6737   -3235.0524 
21350000    247.53216    -4681.238   -4203.8514    -4681.238            0    9558.1722    19.793575    19.868144    20.474847    8051.9708    7791.5907    10835.797    10047.129   -392.75304    2539.5381   -949.59625   -3081.4378 
21351000    238.55304   -4716.4715   -4256.4019   -4716.4715            0    9466.9139     19.84941    19.964429    20.263246    8029.9622    10030.881    8540.7876    9829.0736   -227.45355    339.40813   -1814.0653   -3147.7433 
21352000    260.76314   -4702.5551   -4199.6515   -4702.5551            0    9143.3829    20.035186    19.803906    20.220114    8022.8345    9473.8262    9053.1396    8903.1829    827.44507    1130.4186   -221.58366   -3129.8317 
21353000    268.29331   -4718.0037   -4200.5774   -4718.0037            0    7029.5976    20.092144    19.943794    20.403166    8175.8254    5157.6775    7967.4318    7963.6834   -294.99567   -384.62059    -438.1166   -3362.3962 
21354000    260.44402   -4681.0872    -4178.799   -4681.0872            0    9715.2007    19.841918     19.71652    20.498109    8019.1385     9603.517    10340.272    9201.8131   -608.02451   -537.60949   -2500.2346   -3042.5974 
21355000    271.76785   -4696.4535   -4172.3264   -4696.4535            0    7804.7209    19.839319    20.312833    20.298222    8180.0366    6198.6479    7872.9494    9342.5653   -726.46442    196.95788    1207.7999   -3241.2431 
21356000    254.97945   -4733.8595   -4242.1102   -4733.8595            0    8351.4722    20.127878    19.704183    20.454072    8112.1539    8679.6895    7937.5094    8437.2177   -189.88917    715.06597    1955.8972   -3254.0689 
21357000    260.86453   -4711.3062    -4208.207   -4711.3062            0    9394.1005    19.791584    19.736303    20.710625    8089.8328    9525.7559    8126.9888    10529.557    631.77141   -1403.8515    838.19678   -3099.8731 
21358000    257.09361   -4675.2765   -4179.4498   -4675.2765            0    9620.4759    19.659484    19.832137    20.599425    8031.5012    10636.338    10217.008    8008.0817   -1628.1961    259.88022    732.96394   -3052.5919 
21359000    262.48147      -4713.3   -4207.0824      -4713.3            0    9863.0632    19.899377    20.032114    20.315833    8098.4312    9340.6559    9420.2299    10828.304    178.96991    933.86974   -1656.0278   -3042.1825 
21360000    272.96968    -4709.366    -4182.921    -4709.366            0     8345.929    19.903113    19.883542    20.414717    8079.0096    7771.3945    9631.3888    7635.0037    250.38465   -155.20661   -652.47052   -3199.5697 
21361000    259.06231   -4677.3982   -4177.7748   -4677.3982            0    10536.836    19.869783    19.731738    20.541375    8053.5617    11701.155    9204.3056    10705.048   -379.61855     339.9032   -2142.3525   -2940.1924 
21362000    267.56417   -4713.2993   -4197.2793   -4713.2993            0    8913.7087    19.854983    19.762815    20.572409    8072.4152    9528.5189    8447.9003     8764.707    844.09155    -321.8377    1378.1091   -3147.8871 
21363000    251.31023   -4719.6623   -4234.9894   -4719.6623            0     9794.168    19.792368    19.975676    20.269358    8013.8136     9943.925    8550.5539    10888.025   -97.747543    1088.1655    538.54666   -3090.3131 
21364000    255.25719   -4691.2097   -4198.9247   -4691.2097            0    9346.4183     19.83778      19.8072    20.449587    8035.2742    9355.6102    9790.6324    8893.0123   -757.88823    555.51628    629.55374   -3103.6532 
21365000    253.86793   -4695.9879   -4206.3822   -4695.9879            0    9046.4037    19.610132    19.886879    20.694841     8070.664    9042.6839    8852.7444    9243.7827   -100.93367    620.14408    570.69287   -3141.5992 
21366000    234.80533   -4696.9677   -4244.1259   -4696.9677            0    7948.0212    20.025093     19.94345    20.336239    8121.6727    8790.1294    6650.9237    8403.0106   -742.52937    231.40412    1160.8093   -3302.7124 
21367000    247.93776   -4721.0677   -4242.8989   -4721.0677            0    8453.7609    19.846417    19.616451    20.695671    8057.1616    11423.305    6075.8641    7862.1141    -434.3711    365.69414    524.14676    -3249.536 
21368000     256.0895   -4714.9319   -4221.0417   -4714.9319            0    9626.9726    19.929022    19.588298    20.439931    7979.2505    8952.1776    11385.247    8543.4933    226.28424    148.44721   -243.68871   -3100.7588 
21369000    239.30608   -4706.5788   -4245.0569   -4706.5788            0    9522.2107      19.9384    19.873348    20.382839    8076.5524    9309.2403    10034.391    9223.0005    821.25418   -60.712813   -1462.0457   -3123.4525 
21370000    258.65738   -4706.1538   -4207.3113   -4706.1538            0     8126.766    20.114919    19.694922    20.365738    8068.1267    5809.9172    10104.114    8466.2663   -208.85509    188.73076     1182.742   -3251.0725 
21371000    242.20044   -4702.0576   -4234.9537   -4702.0576            0     9757.218    19.848301     19.73595    20.437288    8005.7984     9639.417    10272.979    9359.2582    170.03188   -242.03434   -957.40296   -3095.7364 
21372000    274.45041   -4696.1371   -4166.8364   -4696.1371            0    11310.701    19.999235    19.569692    20.507979    8026.3898    10330.437    14085.071    9516.5965    306.87935   -966.60967     318.6511   -2842.8434 
21373000    259.30733   -4707.4772   -4207.3813   -4707.4772            0     9928.344     19.74026    19.979604    20.332916    8019.3544    10431.785    8910.8496    10442.397   -44.878173   -1826.2699   -483.43849   -3046.2211 
21374000    253.86814   -4684.1943   -4194.5882   -4684.1943            0    11412.147     19.72427    19.741345    20.564948     8007.654    11100.004    11727.791    11408.647    1006.4387   -352.84968   -1673.8945   -2861.8386 
21375000    265.51531   -4687.7348   -4175.6662   -4687.7348            0    9583.2945    19.981211    19.815827    20.363608    8062.8531    7105.0118    11659.607    9985.2648    196.11879    668.09166    977.28515   -3048.7815 
21376000    245.11352   -4697.0473   -4224.3253   -4697.0473            0    11243.754    19.629699    19.752263    20.588644    7982.8547    12277.679    11422.257    10031.324   -652.43363    79.886603   -1636.4449   -2915.3079 
21377000    263.58682   -4725.4013   -4217.0519   -4725.4013            0    8917.3458    19.781351    19.865685    20.479303    8047.7537     10373.83    8059.2694    8318.9375    295.45389    712.01873    305.50469   -3170.4388 
21378000    252.64566   -4709.1698   -4221.9214   -4709.1698            0    9460.8373    19.673473    19.932398    20.520772    8047.0047     10309.41    8349.1795    9723.9225   -149.31615   -380.28532   -1178.2616    -3111.623 
21379000     263.2516   -4664.1132   -4156.4103   -4664.1132            0    10656.147    19.869135    19.562628    20.513273    7973.3553     10806.97    10199.557    10961.916   -530.68338   -156.32956    462.01815   -2917.2793 
21380000    247.01961   -4719.8478   -4243.4497   -4719.8478            0    7940.4761    19.755657    19.938237    20.356835    8018.4143    8160.6074    6963.3729    8697.4478   -298.33885   -736.70866   -262.15165   -3314.8877 
21381000     239.9175   -4706.1174   -4243.4164   -4706.1174            0    11055.431    19.982006    19.757198    20.307691    8017.2417    9216.6465    12065.835    11883.811     630.4698    189.60163   -1215.9929   -2950.7795 
21382000    268.77987   -4687.3442   -4168.9796   -4687.3442            0    10303.769    19.763966    19.805264    20.540959    8040.3591    10397.605    10892.732    9620.9721   -489.22219    385.51287    531.77066   -2960.7556 
21383000    262.58432   -4683.7348   -4177.3188   -4683.7348            0    7764.4442    19.920553    19.968695    20.435555    8129.0071    6931.8012    8688.4101    7673.1212    830.68725    111.65881    -235.6533   -3256.8189 
21384000    242.25128   -4701.7347   -4234.5327   -4701.7347            0    9351.9572    19.842955    19.851672    20.460728    8059.8049    8675.5157    11228.058    8152.2976    207.38849    384.82502    -358.2812   -3135.2664 
21385000    264.02393   -4731.1237   -4221.9313   -4731.1237            0    9520.2131    19.800928    19.759883    20.637232    8074.6061    8755.2714    10561.417    9243.9504    464.63232    238.59621    1812.5009   -3100.8325 
21386000    267.33255   -4714.0705   -4198.4972   -4714.0705            0     9880.797    19.890878    19.686568    20.436048    8002.4118    10681.957    10250.257     8710.177   -1039.7712    -1644.527    556.69673   -3045.3394 
21387000    262.78639   -4736.8577   -4230.0521   -4736.8577            0    8797.1287    19.852131    19.998443    20.357515    8082.1719    8827.3127    9063.8895    8500.1841   -212.62491   -1489.9976    394.56763   -3193.1329 
21388000    253.88725   -4710.7102   -4221.0673   -4710.7102            0    9855.9665    19.694554    19.743198    20.626008    8020.0825    10467.322    10314.312     8786.266    193.00276   -1083.9422    633.06038   -3068.2673 
21389000    244.78409    -4727.667   -4255.5803    -4727.667            0    9375.1347    19.830925     19.72868    20.601451    8060.0702    9454.8396    9542.0188    9128.5457   -523.61502   -530.89693     256.6131   -3153.5533 
21390000    273.09399   -4718.4834   -4191.7987   -4718.4834            0    9233.1161    19.860052    19.980913    20.319675    8063.2932    9452.4546    8695.8707     9551.023   -485.47855    1311.3089   -1371.8848   -3106.0317 
21391000    258.59181   -4708.4557   -4209.7396   -4708.4557            0    10678.531    19.677232    20.008475    20.324764    8002.0911    11931.878    8188.2303    11915.484     -8.21225   -102.29656    949.65597   -2963.5307 
21392000    244.80201   -4690.8537   -4218.7324   -4690.8537            0    10031.806    19.797092    19.816387    20.640204    8097.2932    13744.175    7615.9205    8735.3234   -889.45404    373.37887    376.23655   -3034.0693 
21393000    254.93817   -4718.5547    -4226.885   -4718.5547            0    9464.2055    20.145241    19.862631    20.182924    8075.9444    7866.9299    10014.246    10511.441   -73.698173    176.80579    1982.8846   -3112.1969 
21394000    264.75524   -4717.7889   -4207.1862   -4717.7889            0    9468.3308    19.770855    19.831494     20.47464    8027.8111    10379.571    9966.9771    8058.4447   -1265.0364    279.05269    57.493957   -3098.6587 
21395000    257.20226   -4708.5316   -4212.4954   -4708.5316            0    9918.9548    19.802758    19.724707    20.613988    8051.8979    10747.145    9184.5469    9825.1729    686.23004    2386.1244   -1174.1694   -3047.7257 
21396000    252.66921   -4726.3282   -4239.0344   -4726.3282            0    6754.0893    19.954435    19.909559    20.371498    8093.2703    8692.5356    3659.3525    7910.3799   -359.26705    1578.0259    1863.2124   -3441.8354 
21397000    244.98685   -4715.2986   -4242.8208   -4715.2986            0    9933.5302    19.757342      19.8873    20.426343    8025.9223    10893.055    8198.2018    10709.334    18.202869    1441.3495    677.68516   -3080.1027 
21398000    257.62166   -4731.4466   -4234.6015   -4731.4466            0    7553.1355    19.954941    19.814297    20.561557    8129.8983    9008.7388    6120.2735    7530.3942    434.07481    1548.6643   -12.687992   -3339.0548 
21399000    261.85198   -4699.5217   -4194.5181   -4699.5217            0    8367.8209    19.822126    20.034127    20.388743    8096.7567    9698.4559    6818.5715    8586.4353    146.44424   -668.65667    913.34406   -3206.4217 
21400000    251.22842   -4696.8994   -4212.3843   -4696.8994            0    10090.273    19.945986    19.829128     20.27845    8020.3602    10057.352    9097.4455    11116.023   -58.474407    977.09687   -924.03725   -3032.1378 
21401000    264.73218    -4675.902   -4165.3438    -4675.902            0    10303.093     19.68131     20.10445    20.283894    8025.9699    11055.402    9354.3331    10499.542    652.44883    623.21813    704.05457   -2959.3612 
21402000    267.74886   -4715.6801   -4199.3039   -4715.6801            0    9115.6587    20.018184    19.824273    20.425063    8105.6033    8232.0497    10301.652    8813.2748    440.63261   -1962.2237    868.39863   -3121.7245 
21403000     254.1829   -4705.3412   -4215.1281   -4705.3412            0    10003.257     19.66203    19.887462    20.572428    8044.3929    10198.906    11841.406    7969.4576    240.34995    236.47071   -22.046758   -3041.5538 
21404000    250.14629   -4684.9759   -4202.5478   -4684.9759            0    12145.953    19.737827    19.651102    20.543678    7968.2777    13066.011    12041.122    11330.726   -205.80566    1439.6531   -689.88736   -2791.0768 
21405000    260.37413   -4716.8523   -4214.6989   -4716.8523            0    7847.5869    19.564465    19.920909    20.608969    8032.1792    7029.6386    8715.5397    7797.5823    359.35561    1062.3293      1049.17    -3295.424 
21406000    246.87633   -4702.5735   -4226.4517   -4702.5735            0    10179.037    20.091011    19.669688    20.371486    8050.4839    9959.8478    10312.165    10265.098   -164.32616    1690.9667   -260.43488   -3031.3508 
21407000    262.57291   -4706.9572   -4200.5633   -4706.9572            0    9107.4643    19.789294    19.966935    20.305036    8023.1603    8689.1378    7379.2979    11253.957    1059.5561    639.89494   -367.28176   -3134.9029 
21408000    244.70248   -4716.1761   -4244.2468   -4716.1761            0    8641.8122    19.700227    19.824093    20.631444     8057.386    10001.074    9175.7255     6748.637    918.24217   -23.430389    1067.4895   -3228.7586 
21409000    248.18876   -4710.3147   -4231.6618   -4710.3147            0    7150.0632    19.847238    19.835956     20.67009     8137.586    8301.9999    6321.2003    6826.9895   -641.55047    1073.6323    217.35308   -3383.1041 
21410000    254.37865   -4684.1925   -4193.6018   -4684.1925            0    8281.4954     19.71198    20.013119    20.324469     8017.967    7025.7032    9099.0597    8719.7233     375.8055   -985.29902    440.84495   -3225.2149 
21411000    256.38846   -4733.6132   -4239.1465   -4733.6132            0    8521.5224    19.838084    19.801387    20.656784    8114.4303    7815.4636    9172.3385    8576.7651    45.610344    462.04298   -783.46003    -3230.704 
21412000    261.09404   -4697.6146   -4194.0728   -4697.6146            0    8519.7625    19.967883    19.642158    20.490179    8036.5001     8097.295    8905.5404     8556.452    531.09073    210.99355   -158.65838   -3195.5216 
21413000    259.97138   -4698.3918   -4197.0152   -4698.3918            0    11327.899    19.697061    19.821446    20.572726    8032.0909    11919.366    11237.968    10826.363   -106.40549    2987.2216    1020.0489   -2870.0672 
21414000    263.39329   -4735.1712   -4227.1951   -4735.1712            0    9125.7501    19.883151     19.88356     20.39975    8064.9965    10177.137    9338.9077     7861.206    692.20927   -780.41195   -1452.9608   -3153.8271 
21415000    260.37134   -4714.5861    -4212.438   -4714.5861            0    10037.101    19.778491    19.838971    20.470535     8032.329    10970.704    8160.1739    10980.426    721.50162     506.2493   -747.65862   -3036.6591 
21416000    261.11402   -4689.5509   -4185.9706   -4689.5509            0     9693.396    19.873327    19.600975    20.532446    7998.1386    10905.814    9491.8832    8682.4905    256.38169     1827.985   -2041.4221   -3055.2878 
21417000    268.55573   -4714.6751   -4196.7428   -4714.6751            0    10818.631    19.803051    19.573996    20.607733    7988.0689    10843.738     11670.04     9942.114   -111.68617    85.569411    2213.0306   -2936.3962 
21418000     269.3308   -4688.4976   -4169.0705   -4688.4976            0    8997.5729    19.924171    19.903225    20.252363    8031.1809    7878.2552      9637.45    9477.0136    132.00859    1462.9921   -140.16787   -3115.2159 
21419000    263.23855   -4683.5101   -4175.8325   -4683.5101            0    9464.1246    19.662948    19.909452    20.578173    8055.9127    10182.729    8145.0321    10064.613    698.71773    970.80542   -246.41672   -3063.9187 
21420000     271.4507    -4714.304   -4190.7885    -4714.304            0    8576.5687    19.676879    19.905374    20.451866    8010.4979    9386.5503    7523.8148    8819.3412    488.19502   -59.501152   -814.07906   -3188.8318 
21421000    247.94178    -4684.272   -4206.0954    -4684.272            0    7641.3066    19.935984    19.902868    20.529526    8145.7722    7161.9024    9077.8306    6684.1867    83.779208    1134.4997    6.0927675   -3298.3255 
21422000    250.81385   -4699.9264   -4216.2108   -4699.9264            0     10366.18    19.597973    20.019132    20.497556    8041.8963    12855.849    9516.7783    8725.9126    219.97058    1047.1887    37.706979   -3000.4361 
21423000    249.83124   -4713.1588   -4231.3382   -4713.1588            0    9708.7594    19.835394    19.786877    20.371204    7995.3003    10912.848    9737.9579    8475.4724    10.946384   -431.82788     -1315.29   -3099.2653 
21424000    264.18956   -4716.7905   -4207.2788   -4716.7905            0    9429.1294    19.678283    20.111675    20.345919    8052.1667    10597.076    7996.1643    9694.1474    -1153.078    219.62971   -1431.2304   -3099.9917 
21425000    248.73736   -4704.3933   -4224.6824   -4704.3933            0    8765.9769    20.017578    19.615517    20.549756    8068.9674    8566.6231     9623.657    8107.6504    -353.0057    812.66012   -407.82761   -3193.1231 
21426000    251.85697   -4720.1846   -4234.4572   -4720.1846            0    10451.946    19.752001     19.95696    20.310954    8006.3723     10411.24    11246.562    9698.0357     1318.421   -885.84133   -1451.7797   -3014.0386 
21427000    252.08378   -4691.7186   -4205.5539   -4691.7186            0    8005.3528    19.871528    19.849517       20.365    8032.7757    7975.3729    7355.0322    8685.6533    -724.2995    854.13756   -869.07657   -3267.7284 
21428000    258.29847   -4708.6538   -4210.5035   -4708.6538            0    8686.5762    19.696972     19.71062    20.733076    8049.3995    10226.788    8334.5739    7498.3663   -543.85557    11.528355    47.085562   -3190.7669 
21429000    262.70086   -4689.7421   -4183.1014   -4689.7421            0    9834.8805    19.985433    19.823335     20.35895    8065.7671    9819.9636    11079.783    8604.8948    151.96627    328.35214   -1038.8585   -3026.2152 
21430000    264.20809   -4711.3914   -4201.8438   -4711.3914            0     8604.095    20.020532    19.861126    20.426131    8122.0486    9655.9226    7306.5819    8849.7805     283.0274    812.47644   -576.38432   -3182.6737 
21431000    259.04614   -4721.7237   -4222.1315   -4721.7237            0      9137.17    19.674735    19.943852    20.579083    8075.0264    8986.7911    9836.1138    8588.6052    164.92669    27.444187    -295.9325   -3146.0837 
21432000    267.26937   -4736.3373   -4220.8858   -4736.3373            0    8639.1846    19.860145    19.824334    20.558419    8094.1405    6758.6008    9841.3781    9317.5748    162.70986   -646.29089   -1260.8852   -3201.0756 
21433000    256.70388   -4737.7709   -4242.6959   -4737.7709            0    8979.6254    19.783816    19.932461    20.424621    8054.2477     7620.374    9446.8422    9871.6599    56.586779     357.7337   -416.02673   -3187.9227 
21434000    242.16647   -4701.6964    -4234.658   -4701.6964            0     9370.411    19.691271    19.991174    20.418781    8037.8863    10515.908    8573.7058    9021.6192    601.48414    231.60269    306.70965   -3136.2179 
21435000     267.4424   -4703.9194   -4188.1342   -4703.9194            0    10165.633    19.904792    19.807612      20.5196    8090.1888    10532.691     10445.61    9518.5988    239.61735    810.01157    172.22878   -2988.7206 
21436000    262.16339    -4680.722   -4175.1179    -4680.722            0    10410.737    20.032505    19.792654    20.304971    8050.8486    11611.789    8748.8768    10871.546    214.97592    397.52707     862.5847   -2952.7581 
21437000    241.82159   -4685.3369   -4218.9636   -4685.3369            0    10586.034    19.991241    19.711041    20.345862    8017.2496    8935.1043    11952.104    10870.895   -518.58563    289.15086   -1019.4254   -2981.2089 
21438000    263.30683   -4693.5268   -4185.7174   -4693.5268            0    10274.538    19.707083    19.600788    20.584946    7951.4365    12458.297    9479.7685    8885.5486   -449.43712    1133.3997    564.70745   -2994.2455 
21439000    248.47851    -4715.737   -4236.5253    -4715.737            0    11550.661    19.845831    19.589195    20.614167     8014.043     10871.98    13792.489    9987.5151    329.44294   -1082.8139   -850.49603   -2886.5233 
21440000    267.43549   -4670.8626   -4155.0907   -4670.8626            0     11051.77    19.821751    19.855324    20.268733    7977.1106    10855.655    11707.339    10592.314    677.44554    -178.4588   -1167.0412   -2869.3502 
21441000    254.07971   -4686.8307   -4196.8166   -4686.8307            0    7567.2993    19.650775     19.91882    20.613211    8068.4281    8029.1381    7120.1381    7552.6216     279.5379   -1240.7158    1516.9675   -3306.3744 
21442000    250.03633   -4676.2344   -4194.0183   -4676.2344            0    9185.6721    19.760885    19.951682    20.310079    8007.5106    9133.0766    8032.2389    10391.701    283.00484    -543.6029    70.966026   -3121.3033 
21443000    257.42897   -4693.7637   -4197.2903   -4693.7637            0    9759.9697    19.845659    19.826152    20.376194    8017.2797    9015.7905    10928.919    9335.1994    933.82977    53.921925   -627.73801   -3056.1175 
21444000    261.46846   -4678.8809    -4174.617   -4678.8809            0    9883.6144    19.712275    19.680822    20.602909    7992.9762    8897.8547    12039.599    8713.3892     524.7202    476.08946   -273.86429   -3022.4904 
21445000    257.61338   -4707.2292   -4210.4001   -4707.2292            0    10790.038    19.753552    19.927664    20.421495     8038.761    11804.407    9372.2506    11193.458    38.842659    1770.7219   -365.16474   -2945.4075 
21446000    253.20205   -4702.4534    -4214.132   -4702.4534            0    8106.5585    20.142056    19.641394    20.406077    8073.0128    5941.4057    10573.703    7804.5664   -226.38681    774.03333    -22.97846   -3259.6933 
21447000    251.96804   -4694.0922   -4208.1506   -4694.0922            0    7713.4513    19.908707    19.701451    20.603565    8081.3453    7607.5868    6618.0878    8914.6793   -328.27614   -925.50554   -758.84695   -3299.0577 
21448000    252.44772   -4679.8512   -4192.9845   -4679.8512            0     11638.18    19.747308    19.632278    20.633237    7999.1892    9393.4925     13466.37    12054.678   -52.362633    -899.2702   -1553.4877   -2835.2748 
21449000    265.76037   -4685.9389   -4173.3977   -4685.9389            0    7950.4109    20.144244    19.836924    20.270139    8099.9438    8872.7713    7353.5944    7624.8669    -318.1717   -537.62389   -636.10853   -3234.2206 
21450000    255.21175   -4711.6906   -4219.4932   -4711.6906            0    9843.2305    19.761483    19.946687    20.375605    8031.5768    9868.0709    9330.2072    10331.413    611.20698   -1127.7881   -18.706142   -3066.5329 
21451000     249.5421   -4695.3247   -4214.0618   -4695.3247            0     10094.05    19.815215    19.749439    20.489202    8018.2317    9219.1617    10797.572    10265.415    337.05111    712.44537    463.89944    -3033.687 
21452000    256.46232   -4696.2295   -4201.6203   -4696.2295            0    8810.2571    19.887355    19.831375    20.493338    8082.4411    10695.804    7167.7609    8567.2058    25.513904    797.72805   -421.87525   -3163.1191 
21453000    254.14903   -4727.7141   -4237.5663   -4727.7141            0    9283.3547    20.007494    19.821799    20.268688    8038.2483    9162.4362     9767.588    8920.0398    137.39592   -565.62103   -550.71921   -3149.2823 
21454000    261.61058   -4736.1806   -4231.6426   -4736.1806            0    9841.6766    19.651929    19.829363    20.555309    8010.1002    10563.742    9640.2599    9321.0282     226.6974   -697.47205     1025.024   -3081.9468 
21455000    247.84471   -4717.5412   -4239.5518   -4717.5412            0    9320.1198    20.030132    19.824028    20.211587    8025.5747    7074.8112    11691.258    9194.2899   -210.97618    376.94975   -136.08643   -3148.6805 
21456000    246.47323   -4714.1483    -4238.804   -4714.1483            0    9179.2158    19.702416     19.86532     20.51996    8031.4056    9555.9168    7830.0295    10151.701   -278.37039   -845.46437   -1092.0727   -3163.6442 
21457000    258.11424   -4713.8851   -4216.0901   -4713.8851            0    8201.9765     19.75493    19.740886    20.620311    8041.5047    6363.9702    9342.8073     8899.152    146.09228   -1064.4615    217.57143   -3254.1861 
21458000    257.07222   -4695.4429   -4199.6575   -4695.4429            0    10052.614    19.927584    19.873934    20.355922    8061.7488    9675.7964    9896.3437    10585.703    187.63909   -440.87083    -993.8132   -3017.7481 
21459000    265.95308   -4737.7707   -4224.8578   -4737.7707            0    8151.9806    19.925057    20.015295    20.324852    8105.6709    9105.1621    8140.6397    7210.1401   -900.28797   -216.17618    925.01703   -3261.1885 
21460000    263.25387    -4689.436   -4181.7288    -4689.436            0    10051.103    19.974053    19.862283    20.332806    8066.6404    10721.286    8304.8117    11127.212    101.11457    358.98237   -470.01173     -2999.28 
21461000    256.87096   -4693.1477   -4197.7505   -4693.1477            0     10993.88    19.845163    19.648268    20.470804    7982.0388      9216.63    12177.735    11587.276   -125.66779   -500.34415    129.60747   -2917.9545 
21462000    253.86296   -4684.7922   -4195.1962   -4684.7922            0    11181.759    19.591277    19.798196     20.60688    7992.8307    12552.532     11557.47    9435.2746   -91.842298    45.607716    447.65605   -2891.7694 
21463000    270.22752   -4700.3596   -4179.2031   -4700.3596            0    9705.5302    19.978525    19.688587    20.384769    8018.3272    10498.427    9273.3211    9344.8428   -840.67817    208.76403    1041.9226   -3044.2473 
21464000    262.81389   -4708.3592   -4201.5005   -4708.3592            0    8589.0411    19.802727    19.910405    20.414464    8049.0215    9048.0981    7884.3261     8834.699    548.42929    345.30536    666.51108   -3193.2612 
21465000    252.56019   -4749.5246   -4262.4411   -4749.5246            0    9169.7996    19.935539    19.575404    20.755283     8099.671    9883.1956    8924.8083     8701.395   -755.74682    445.85154   -1626.4353   -3179.2549 
21466000    256.92394   -4712.3355   -4216.8361   -4712.3355            0    9888.4463    19.745561     19.71403    20.411327    7945.4066    10928.384    9335.5571    9401.3975   -506.80564   -665.24043    50.142116   -3071.0064 
21467000    245.27831   -4719.9426   -4246.9028   -4719.9426            0    10127.192    20.023911    19.503891     20.59758    8044.2651     8307.784    11459.726    10614.066      511.872    -293.5306    1185.1675   -3058.8074 
21468000    254.58232   -4672.7551   -4181.7717   -4672.7551            0     9710.058    19.819472    19.872001     20.49079    8070.3502    11592.956    10047.529    7489.6898   -738.68979   -10.669132   -29.280078   -3038.9194 
21469000    265.27067   -4714.6273   -4203.0305   -4714.6273            0    7777.9914    19.812232    20.127094    20.318423    8102.2281    6582.2949    7824.4029    8927.2763    118.82781   -137.66777     452.1213   -3283.9621 
21470000    257.99769    -4739.045   -4241.4748    -4739.045            0    7053.5642    19.990231    19.911924     20.24847    8059.7813    5216.9087    7220.3346    8723.4493   -311.58531    835.49469   -533.21634   -3412.3732 
21471000    252.97888   -4707.7499   -4219.8588   -4707.7499            0    9181.0185    19.804877    19.829216    20.578565     8081.515    8072.1728    10176.905    9293.9779    25.331626     -376.358    181.71298   -3137.7784 
21472000    249.12809   -4706.9203   -4226.4558   -4706.9203            0    10851.893    20.088418    19.734905    20.212002     8012.907    8434.1854    11949.023    12172.471     78.58737   -780.41376    1913.3502   -2958.3032 
21473000    254.58055   -4726.4797   -4235.4997   -4726.4797            0    6771.9439    19.793067    19.929138    20.499653    8086.2678    6653.5555    6969.5414     6692.735   -272.72768   -380.87415    1091.8987   -3436.8849 
21474000    248.71793   -4695.1542   -4215.4808   -4695.1542            0     9549.645    19.805257    19.901276    20.451745    8061.0529     9257.572    9799.8731      9591.49   -238.87333    475.07622   -70.634405   -3092.8036 
21475000    255.57156   -4712.4323   -4219.5411   -4712.4323            0    10990.346    19.461785    19.881426    20.593283    7968.1188    12323.035    11673.053    8974.9496   -543.52947   -636.24721   -454.31465   -2942.3877 
21476000     268.2521   -4726.2087    -4208.862   -4726.2087            0    9842.9224     19.87517    19.702874    20.483536    8021.3113    9626.3536    10736.622    9165.7913    293.84834   -689.44664   -657.92392   -3057.4114 
21477000    271.26687   -4659.3799   -4136.2189   -4659.3799            0    10430.523    19.587787    20.108243    20.299257    7995.3897    11698.377    8749.3209     10843.87    554.82004    1363.4608     216.6911   -2919.9724 
21478000    264.46216   -4690.0873   -4180.0497   -4690.0873            0    9940.9639    19.972104    19.631441     20.48976    8033.6492    8251.5508     10369.08    11202.261     22.92869   -718.37505   -205.87974   -3015.3412 
21479000    267.97889   -4719.0946   -4202.2748   -4719.0946            0    8921.9063    19.810873    19.722391    20.844354      8144.26    9611.3335    9207.1127    7947.2728    -379.9658   -641.65614   -1193.3679   -3142.5693 
21480000    268.93887   -4692.2378   -4173.5666   -4692.2378            0     8845.523    19.635927    20.024227    20.515389    8066.5332    8363.8825    8269.1452    9903.5414     -974.325    1058.1455    75.428119   -3132.9606 
21481000    272.03742   -4721.1049   -4196.4578   -4721.1049            0    9294.5581     20.03774    19.876131    20.235421    8059.2166    9492.4225    7449.3113    10941.941    109.21629    756.53979   -199.98515   -3104.0182 
21482000    262.68481   -4716.4061   -4209.7964   -4716.4061            0    7170.3644    19.939466    19.708951    20.561841    8080.5149    8024.2779      5593.79    7893.0252   -436.70827    1890.2911    7.4204829   -3364.7975 
21483000     257.3794   -4710.7656   -4214.3878   -4710.7656            0    9334.1895     19.58612    19.922386    20.611975    8042.8392     9897.368    8056.1082    10049.092    299.83733    277.78263     275.5261   -3119.5195 
21484000    275.31653   -4728.0912   -4197.1202   -4728.0912            0    9458.7965    19.990828    19.854739     20.42273    8106.0403    8588.2362    9702.3714    10085.782    340.18917    82.099083   -653.19345   -3078.9175 
21485000    252.94085   -4719.0038   -4231.1861   -4719.0038            0    9692.0009    19.849031    19.993861    20.322574     8065.192    9113.7783    9976.8448    9985.3797   -157.18198    696.12421   -1590.6659   -3091.1882 
21486000    251.59918   -4734.3678   -4249.1377   -4734.3678            0    6199.2687    19.856212    19.876588    20.766505     8195.994     6711.632    7959.0133    3927.1609    -355.3413    449.36299   -1235.7868    -3508.138 
21487000    258.67834   -4701.5907   -4202.7078   -4701.5907            0    8955.4436    19.775373    19.904634    20.387599    8024.9984    7155.8132    10968.421    8742.0967    317.52833    562.24704   -82.806924   -3154.5952 
21488000    257.69305   -4671.7651   -4174.7824   -4671.7651            0    9700.2356    19.680727    19.906676     20.31347    7958.3676    8572.8529    10586.259    9941.5952   -141.73349   -708.27959   -852.00226   -3048.9281 
21489000    246.88129   -4674.8215   -4198.6901   -4674.8215            0    11460.743    19.846714    19.547122    20.509053    7956.4082    11986.532    12042.177    10353.519    155.60183     1846.211   -637.08041   -2868.8308 
21490000    254.14629   -4688.7423   -4198.5998   -4688.7423            0    8848.9761    19.926901     19.68896    20.608521    8085.5464     9929.203    8311.9475    8305.7777     913.4564    188.05891    1874.9555   -3155.1338 
21491000    236.63699   -4686.0494    -4229.675   -4686.0494            0    7642.9654    19.774194    19.713958     20.57018    8018.8247    8335.4575    7229.7412    7363.6975   -515.69327   -70.049582    951.85417   -3335.8582 
21492000    258.43333   -4703.5912   -4205.1808   -4703.5912            0    9644.0761    19.795122    19.745971    20.566794    8039.0228    11136.449    9263.8204    8531.9585    953.66758    -307.4446   -1034.6325   -3074.5006 
21493000    260.78308   -4687.1838   -4184.2417   -4687.1838            0    9568.1836    19.875329    19.980093    20.289507    8057.1849    9491.0935    9719.2683    9494.1891   -379.97639    -744.8073    436.47577   -3059.9249 
21494000    261.74265   -4698.2235   -4193.4308   -4698.2235            0    10280.269    19.725719    19.766603    20.552616    8013.6802    9999.6495    10304.199    10536.958    168.22704   -1649.9867     1644.603   -2991.9623 
21495000    270.24055   -4681.7325   -4160.5509   -4681.7325            0    9448.3889    19.793055     19.74835    20.577722    8043.4236    10319.563    8577.4684    9448.1352   -710.08794    1434.2926   -1334.5802   -3052.2068 
21496000    257.12445   -4686.0801    -4190.194   -4686.0801            0    9227.3754    19.736844    19.970761    20.447207    8059.4667    10541.933    7531.4886    9608.7048    383.97577   -439.04129   -781.01232    -3105.617 
21497000    254.00877   -4697.6568   -4207.7795   -4697.6568            0    8412.5853    19.861791    19.560329    20.672361    8031.2775    7498.9831    9850.1811    7888.5917   -1020.4127     2287.843    358.20034   -3222.4307 
21498000    256.35586   -4683.5445   -4189.1406   -4683.5445            0    8076.3151    19.901809     20.08694    20.314429    8121.0271    7947.3174    6743.7246    9537.9033   -597.28235    976.76243    922.74862   -3232.6073 
21499000    242.24434   -4700.1228   -4232.9342   -4700.1228            0    9016.3068    19.955446    19.789742    20.462203    8080.7924    7921.3345    9661.6434    9465.9424   -410.72905   -1287.5469    1122.4792   -3170.3618 
21500000    256.11033   -4653.6107   -4159.6804   -4653.6107            0     10338.69    19.669554    19.575935    20.805973    8011.3379    10797.761    9810.2135    10408.096   -861.87659   -1583.0748   -1564.4263   -2951.7373 
Loop time of 520.215 on 64 procs for 250000 steps with 972 atoms

Performance: 83.043 ns/day, 0.289 hours/ns, 480.571 timesteps/s
99.2% CPU use with 64 MPI tasks x 1 OpenMP threads

MPI task timing breakdown:
Section |  min time  |  avg time  |  max time  |%varavg| %total
---------------------------------------------------------------
Pair    | 21.129     | 29.115     | 38.144     |  77.8 |  5.60
Bond    | 0.272      | 0.28081    | 0.30828    |   1.3 |  0.05
Kspace  | 205.12     | 220.82     | 241.86     |  58.5 | 42.45
Neigh   | 2.7223     | 3.5921     | 4.4346     |  24.9 |  0.69
Comm    | 116.93     | 130.96     | 145.09     |  70.4 | 25.17
Output  | 1.1074     | 1.1078     | 1.1207     |   0.2 |  0.21
Modify  | 127.2      | 129.05     | 131.44     |   7.6 | 24.81
Other   |            | 5.282      |            |       |  1.02

Nlocal:        15.1875 ave          19 max          10 min
Histogram: 1 1 6 6 12 10 9 9 4 6
Nghost:        2328.42 ave        2369 max        2298 min
Histogram: 3 8 8 10 11 10 3 7 3 1
Neighs:        4895.31 ave        6831 max        3597 min
Histogram: 5 9 10 11 7 8 5 5 2 2

Total # of neighbors = 313300
Ave neighs/atom = 322.32510
Ave special neighs/atom = 2.0000000
Neighbor list builds = 7623
Dangerous builds = 0

unfix		3
unfix		2
unfix		1

write_data	data.final.${pid}
write_data	data.final.0
System init for write_data ...
PPPM initialization ...
  extracting TIP4P info from pair style
  using 12-bit tables for long-range coulomb (../kspace.cpp:340)
  G vector (1/distance) = 0.37344595
  grid = 24 24 25
  stencil order = 5
  estimated absolute RMS force accuracy = 0.0032825047
  estimated relative force accuracy = 9.8851656e-06
  using double precision FFTW3
  3d grid and FFT values/proc = 2366 288
Last active /omp style is kspace_style pppm/tip4p/omp
WARNING: Not all mixed pair coeffs generated from mixing. Use write_data with 'pair ij' option to store all pair coeffs. (../write_data.cpp:312)

write_restart   restart.lmp.${pid}
write_restart   restart.lmp.0
System init for write_restart ...
PPPM initialization ...
  extracting TIP4P info from pair style
  using 12-bit tables for long-range coulomb (../kspace.cpp:340)
  G vector (1/distance) = 0.37344595
  grid = 24 24 25
  stencil order = 5
  estimated absolute RMS force accuracy = 0.0032825047
  estimated relative force accuracy = 9.8851656e-06
  using double precision FFTW3
  3d grid and FFT values/proc = 2366 288
Last active /omp style is kspace_style pppm/tip4p/omp
Total wall time: 0:08:43
