LAMMPS (30 Jul 2021)
  using 1 OpenMP thread(s) per MPI task
package omp 0
using multi-threaded neighbor list subroutines
echo both

include		in.partitions
variable        pid world 0
include		in.temp
variable        temperature equal 263.30
variable	tempDamp equal 100.0
include		in.pressure
variable        pressure equal 8500.0
variable        pressureDamp equal 1000.0 # This is 1 ps
include		in.seed
variable        seed world 745823

units		real
atom_style	full
read_restart	restart.lmp.${pid}
read_restart	restart.lmp.0
Reading restart file ...
  restart file = 30 Jul 2021, LAMMPS = 30 Jul 2021
  restoring atom style full from restart
  orthogonal box = (0.62418521 1.8267390 0.76150449) to (17.583387 21.802439 21.451691)
  4 by 4 by 4 MPI processor grid
  restoring pair style lj/cut/tip4p/long/omp from restart
  restoring bond style harmonic/omp from restart
  restoring angle style harmonic/omp from restart
  864 atoms
  576 bonds
  288 angles
Finding 1-2 1-3 1-4 neighbors ...
  special bond factors lj:    0        0        0       
  special bond factors coul:  0        0        0       
     2 = max # of 1-2 neighbors
     1 = max # of 1-3 neighbors
     1 = max # of 1-4 neighbors
     2 = max # of special neighbors
  special bonds CPU = 0.847 seconds
  read_restart CPU = 1.032 seconds
include 	in.setup
variable	out_freq equal 1000
variable	out_freq2 equal 10000
variable	out_freq3 equal 1000

timestep	2.0

neigh_modify    delay 7 every 1

include		in.tip4p
# This is TIP4P/Ice

# create groups ###
group ox type 2
288 atoms in group ox
group hy type 1
576 atoms in group hy

# set charges - beside manually ###
set group ox charge -1.1794
Setting atom values ...
  288 settings made for charge
set group hy charge 0.5897
Setting atom values ...
  576 settings made for charge

# ### TIP3P Potential Parameters ###
pair_style lj/cut/tip4p/long/omp 2 1 1 1 0.1577 8.5
pair_coeff 1 1*2 0.000 0.000
pair_coeff 2 2 0.21084 3.1668
bond_style  harmonic
bond_coeff  1 450 0.9572
angle_style harmonic
angle_coeff 1 55 104.52
kspace_style pppm/tip4p/omp 1.0e-5
pair_modify tail yes

thermo          ${out_freq}
thermo          1000
thermo_style    custom step temp pe etotal epair emol press lx ly lz vol pxx pyy pzz pxy pxz pyz enthalpy

restart 	${out_freq3} restart.lmp.${pid} restart2.lmp.${pid}
restart 	1000 restart.lmp.${pid} restart2.lmp.${pid}
restart 	1000 restart.lmp.0 restart2.lmp.${pid}
restart 	1000 restart.lmp.0 restart2.lmp.0


include         in.dump
dump            myDump all atom ${out_freq2} dump.water.${pid}
dump            myDump all atom 10000 dump.water.${pid}
dump            myDump all atom 10000 dump.water.0
dump            myDump2 all dcd ${out_freq2} dump.dcd
dump            myDump2 all dcd 10000 dump.dcd
dump_modify     myDump append yes
dump_modify     myDump2 append yes


variable natoms 	equal  "count(all)"                        # NUMBER ATOMS
variable H      	equal  "enthalpy/v_natoms"                 # ENTHALPY-per-atom
variable Vol      	equal  "vol/v_natoms"                 # volume-per-atom
fix AVG all 		ave/time ${out_freq} 1 ${out_freq} v_Vol v_H file vol_enthalpy.dat
fix AVG all 		ave/time 1000 1 ${out_freq} v_Vol v_H file vol_enthalpy.dat
fix AVG all 		ave/time 1000 1 1000 v_Vol v_H file vol_enthalpy.dat


timer           timeout 23:50:00 every 1000
New timer settings: style=normal  mode=nosync  timeout=23:50:00

fix 		1 all shake 1e-6 200 0 b 1 a 1
       0 = # of size 2 clusters
       0 = # of size 3 clusters
       0 = # of size 4 clusters
     288 = # of frozen angles
  find clusters CPU = 0.273 seconds
fix             2 all nph iso ${pressure} ${pressure} ${pressureDamp}
fix             2 all nph iso 8500 ${pressure} ${pressureDamp}
fix             2 all nph iso 8500 8500 ${pressureDamp}
fix             2 all nph iso 8500 8500 1000
fix             3 all temp/csvr ${temperature} ${temperature} ${tempDamp} ${seed}
fix             3 all temp/csvr 263.3 ${temperature} ${tempDamp} ${seed}
fix             3 all temp/csvr 263.3 263.3 ${tempDamp} ${seed}
fix             3 all temp/csvr 263.3 263.3 100 ${seed}
fix             3 all temp/csvr 263.3 263.3 100 745823

run             250000
PPPM initialization ...
  extracting TIP4P info from pair style
  using 12-bit tables for long-range coulomb (../kspace.cpp:340)
  G vector (1/distance) = 0.3743383
  grid = 24 24 24
  stencil order = 5
  estimated absolute RMS force accuracy = 0.0031522628
  estimated relative force accuracy = 9.4929456e-06
  using double precision FFTW3
  3d grid and FFT values/proc = 2535 216
Last active /omp style is kspace_style pppm/tip4p/omp
Neighbor list info ...
  update every 1 steps, delay 7 steps, check yes
  max neighbors/atom: 2000, page size: 100000
  master list distance cutoff = 10.8154
  ghost atom cutoff = 10.8154
  binsize = 5.4077, bins = 4 4 4
  1 neighbor lists, perpetual/occasional/extra = 1 0 0
  (1) pair lj/cut/tip4p/long/omp, perpetual
      attributes: half, newton on, omp
      pair build: half/bin/newton/omp
      stencil: half/bin/3d
      bin: standard
Per MPI rank memory allocation (min/avg/max) = 9.238 | 9.240 | 9.244 Mbytes
Step Temp PotEng TotEng E_pair E_mol Press Lx Ly Lz Volume Pxx Pyy Pzz Pxy Pxz Pyz Enthalpy 
18250000    273.15764    -3849.725   -3381.5422    -3849.725            0    9305.6495    16.959202      19.9757    20.690187    7009.2545    7528.9319    11970.856    8417.1608    987.80407   -758.93269   -771.77292   -2430.2927 
18251000    261.22212   -3847.2722   -3399.5464   -3847.2722            0    10456.652    16.924289    19.934577    20.647593    6966.0548    11899.362    11550.824    7919.7687   -874.49117       1600.6    486.61318   -2337.2263 
18252000    251.12467   -3869.8392   -3439.4201   -3869.8392            0    7186.0483    16.990292     20.01232    20.728117     7047.874    7341.1014    7294.5468    6922.4966    393.41147   -184.85188    1526.2105   -2700.7949 
18253000    271.07424   -3898.8507   -3434.2388   -3898.8507            0    7319.2823    16.946379    19.960597    20.674543    6993.3678    8855.7961    8584.5256    4517.5253   -600.96444    518.90714   -673.54957   -2687.7371 
18254000    249.05977   -3887.6959    -3460.816   -3887.6959            0    9943.2466    16.865239    19.865023    20.575552    6893.3932    9866.5935    12110.729    7852.4172    1574.0646   -707.20342    1641.0049   -2461.1909 
18255000    270.01391   -3855.3426    -3392.548   -3855.3426            0    9051.6019    16.913655    19.922052     20.63462    6952.9323    9384.2878    11006.749    6763.7688    1042.3125    1043.8237   -850.82817    -2474.703 
18256000    276.94552   -3852.6816   -3378.0065   -3852.6816            0      9568.98    16.910105     19.91787    20.630288    6948.5545    11331.787    7799.8823    9575.2709   -1082.7101   -327.87794   -53.813527   -2408.3096 
18257000    265.62878    -3849.756   -3394.4774    -3849.756            0    7869.1204    16.961606    19.978532     20.69312    7012.2359    7259.8963    9393.4334    6954.0316   -325.51175   -996.71412   -80.307082   -2589.7318 
18258000    262.50232      -3832.8     -3382.88      -3832.8            0    8094.5608    16.971527    19.990217    20.705223    7024.5472    8333.4077    7935.5329    8014.7418   -391.69656   -615.98109   -1624.2652   -2553.6261 
18259000    283.85993   -3853.9025   -3367.3763   -3853.9025            0    9778.2646    16.880138    19.882573    20.593729    6911.6791    9671.7088    10873.419    8789.6655   -1317.8244    380.88511   -630.45148   -2381.7297 
18260000    256.89341   -3830.1647   -3389.8582   -3830.1647            0    10446.373    16.951003    19.966042    20.680183    6999.0928    9344.4757    13607.525    8387.1184    516.31003    720.81525   0.50817744   -2323.5489 
18261000    257.97801   -3834.8807   -3392.7152   -3834.8807            0    8819.8712     17.01967    20.046923    20.763957    7084.4963    9245.3892    8759.1834     8455.041   -1548.2333   -1289.9802    867.50478   -2481.4451 
18262000    265.35743   -3832.5221   -3377.7085   -3832.5221            0    6018.1452    17.091337    20.131337    20.851391    7174.3685    5886.7785    5240.6102    6927.0469     1585.482   -36.034917   -379.59309   -2748.0251 
18263000    259.47428   -3826.2718   -3381.5418   -3826.2718            0    7392.1666    17.041655    20.072818    20.790779    7111.9856    7127.4239    6588.9406    8460.1354    -581.1195   -434.22516     622.5672   -2614.8187 
18264000    252.87611   -3866.8521   -3433.4311   -3866.8521            0    10278.007    16.908838    19.916378    20.628743    6946.9938    10998.083    11157.305    8678.6343   -494.10833   -910.18001   -33.076283   -2392.1171 
18265000    255.63655   -3850.9262   -3412.7739   -3850.9262            0    9388.6323    16.963067    19.980252    20.694902     7014.048    10293.536    9354.9674    8517.3937   -265.74555   -596.15398    63.004405   -2452.3854 
18266000    256.48037   -3844.6725    -3405.074   -3844.6725            0    7869.5859    16.998942    20.022509     20.73867    7058.6442    8171.6707     8529.846    6907.2409    1235.3617    -1003.866    1096.4787   -2594.9545 
18267000    266.56256   -3842.4731    -3385.594   -3842.4731            0    9046.4526    16.955096    19.970863    20.685177    7004.1644    8633.6031    9433.4029    9072.3519    461.99113    1662.7266   -2330.5533   -2461.5119 
18268000    244.10278   -3844.4012   -3426.0174   -3844.4012            0    8565.2092    16.963616    19.980899    20.695572    7014.7288    6911.3923    8464.1523    10320.083    684.02186    524.56954    721.68188    -2549.774 
18269000    260.48695   -3834.6208   -3388.1551   -3834.6208            0      8899.88    17.003728    20.028146    20.744508    7064.6074    8977.7251    9278.3376    8443.5773     -381.558   -51.226586    603.71446      -2471.2 
18270000    256.54475   -3872.5181   -3432.8092   -3872.5181            0     8471.268    17.000098     20.02387     20.74008    7060.0836    8186.2639    9251.0014    7976.5386    2634.5027   -1341.3238   -1111.6495   -2560.5729 
18271000    267.97025   -3898.7644   -3439.4725   -3898.7644            0    7070.7669    17.015722    20.042273    20.759142    7079.5682    5709.9963    7662.6578    7839.6466   -879.25828   -40.688357     1085.174   -2709.4283 
18272000    266.65281   -3835.2843   -3378.2505   -3835.2843            0    8234.4229    17.002469    20.026663    20.742973    7063.0386    7097.3277    8979.6481     8626.293    286.92261   -931.65585   -540.48695   -2530.0458 
18273000    261.32083   -3861.8543   -3413.9593   -3861.8543            0    7863.7268    17.003681     20.02809     20.74445    7064.5483    8556.0332    8719.6613    6315.4858    171.83863    427.40987    481.31036   -2603.7659 
18274000    275.43248   -3811.0225   -3338.9407   -3811.0225            0    6966.3018    17.065739    20.101186    20.820162    7142.1817    7628.1064     6329.819    6940.9798   -1984.5128    1200.8528    1052.4687    -2613.321 
18275000    247.16682   -3785.6067   -3361.9713   -3785.6067            0    8996.7242    16.945499    19.959559    20.673469    6992.2773    10862.433    7635.5667    8492.1726    60.997561    3014.8735   -948.23604   -2444.5286 
18276000    264.76823   -3830.0462   -3376.2425   -3830.0462            0    8929.0083    17.018937    20.046059    20.763063    7083.5809    8735.3786    7993.8356    10057.811    791.72927    187.54015    474.79268   -2453.8156 
18277000    270.39064   -3879.4944   -3416.0541   -3879.4944            0    6784.6264    17.065746    20.101194     20.82017      7142.19    8250.7828    6332.3714     5770.725   -1338.8481   -101.14543    711.55407   -2709.3571 
18278000    252.19062   -3862.2472   -3430.0011   -3862.2472            0    8871.4877    16.967725    19.985739    20.700585    7019.8281    9130.1118     9919.362    7564.9894   -847.71369   -1966.5182   -257.84387   -2521.7649 
18279000    257.91997    -3863.195    -3421.129    -3863.195            0     7975.359    17.038679    20.069313    20.787149    7108.2609    9589.2829    6677.9544    7658.8398    1349.1685    440.17991    197.19553   -2594.3499 
18280000    279.48465   -3841.5237   -3362.4966   -3841.5237            0    9163.6298    16.960078    19.976731    20.691255    7010.3402    10653.702    6002.5376    10834.649   -308.03736    699.06101   -1503.2358   -2425.6197 
18281000    260.19505   -3793.3431   -3347.3777   -3793.3431            0    8330.0357     17.04978    20.082389    20.800692    7122.1639    8295.4036    9726.0379    6968.6657    145.14567   -1957.7692   -575.92227   -2482.1415 
18282000    265.92366   -3850.1179   -3394.3338   -3850.1179            0    6891.5588    17.042857    20.074235    20.792246    7113.4912     5431.317    7603.1465    7640.2128    1699.0876   -430.40185   -1153.2366    -2679.383 
18283000    264.07718    -3873.223   -3420.6037    -3873.223            0    7654.8078    17.057746    20.091772    20.810411    7132.1511    7774.6134    7544.2442    7645.5659   -95.758907   -709.06581    1251.1818    -2624.388 
18284000    261.72102   -3912.9179    -3464.337   -3912.9179            0    7904.2473    16.997272    20.020542    20.736633    7056.5641    6407.9853    9419.8358    7884.9209   -610.34942   -63.128972    1947.8519   -2650.8892 
18285000    247.07865   -3855.7813   -3432.2969   -3855.7813            0    8998.9173    16.980858    20.001207    20.716607    7036.1396    8572.7692    8630.6486     9793.334    765.89225   -263.16602   -312.93864   -2508.8741 
18286000    253.73179   -3851.0542   -3416.1666   -3851.0542            0     8290.245    17.031408    20.060749    20.778278    7099.1648    7754.6277    7623.7498    9492.3575    266.10662    1088.4654   -950.31705   -2557.8441 
18287000    260.70715   -3856.9346   -3410.0915   -3856.9346            0    8104.7267    17.083193    20.121744    20.841455    7164.1176     7944.818    8856.0515    7513.3106   -1777.7953   -12.192741     1164.697   -2563.2991 
18288000    264.17865   -3861.4691   -3408.6759   -3861.4691            0    6636.1356    17.056214    20.089967    20.808541    7130.2291    8196.9795    5381.0814    6330.3458    2195.7392    1186.0702   -68.261232   -2718.6035 
18289000    255.25132    -3847.797    -3410.305    -3847.797            0     9183.306    17.001494    20.025514    20.741783    7061.8233    10821.187    6732.4738    9996.2575    108.68824   -186.35389   -601.08315   -2464.5213 
18290000    260.61526   -3873.7978   -3427.1121   -3873.7978            0    7606.2358    17.032404    20.061923    20.779494    7100.4108    7526.7186    8661.8299    6630.1588   -1292.0617   -338.00397    -331.0947   -2639.4696 
18291000    251.70071   -3833.3342   -3401.9278   -3833.3342            0    11066.736    16.973934    19.993053     20.70816     7027.537    9058.4846    12661.469    11480.253    22.831421    -690.5559    2045.9393   -2267.7045 
18292000     260.0193   -3834.2713   -3388.6072   -3834.2713            0    12057.236    16.919347    19.928756    20.641564     6959.954    11309.011    13592.426    11270.271   -649.03519   -223.58786    37.439272    -2164.752 
18293000    270.75036   -3824.4997   -3360.4429   -3824.4997            0    9436.6681    16.990426    20.012478     20.72828    7048.0406    5803.4975    10682.633    11823.874    471.89985    -1029.018    251.22004   -2390.4625 
18294000    264.66319   -3845.3363   -3391.7127   -3845.3363            0    8600.5939    16.958419    19.974777    20.689231    7008.2832    9539.4271    8799.4054     7462.949   -81.398217   -837.16182   -791.14647   -2512.6578 
18295000    247.51899    -3881.148   -3456.9089    -3881.148            0    7114.3421    16.919619    19.929077    20.641896    6960.2903    7286.2453    6493.5677    7563.2134   -575.90026    240.58502    -744.3938   -2734.7413 
18296000    266.61893   -3831.3595   -3374.3837   -3831.3595            0    8053.8495    16.942651    19.956204    20.669994    6988.7524    8022.0333    7919.7904    8219.7249   -477.71251    598.41096    418.75613   -2553.5049 
18297000    255.41055   -3843.7027   -3405.9378   -3843.7027            0    6784.2162    16.998697    20.022219     20.73837     7058.338    6432.0768    7652.3373    6268.2344    313.25274    349.43645   -428.28765   -2707.5799 
18298000     258.2778   -3800.7949   -3358.1156   -3800.7949            0    8960.3964    16.962826    19.979968    20.694608    7013.7488    9710.5096    9481.0181    7689.6614     -218.784     947.0531   -760.05807   -2441.5716 
18299000    269.51113   -3844.3744   -3382.4416   -3844.3744            0    9937.7624    17.026922    20.055465    20.772805    7093.5562    9111.8488     10002.56    10698.878    793.47114    1333.4988   -465.28014   -2354.3578 
18300000    268.65486   -3867.4475   -3406.9822   -3867.4475            0    10129.807    16.972132     19.99093    20.705962    7025.2993    10332.994    9847.1887     10209.24    464.71836   -1364.2028   -1017.4155   -2369.1147 
18301000     277.4785   -3867.8187     -3392.23   -3867.8187            0    6217.0952    17.005862    20.030659    20.747112    7067.2674    6125.7445    5851.0977    6674.4433    606.74648    773.97379   -719.49465   -2751.4412 
18302000    261.89141    -3875.779   -3426.9061    -3875.779            0    8751.1852    16.958936    19.975387    20.689862    7008.9247    8519.5665     9064.636    8669.3531    2444.2515   -1476.6519    -1149.049   -2532.3777 
18303000    246.43557   -3833.0576   -3410.6754   -3833.0576            0    9771.0377    16.957343     19.97351    20.687919    7006.9501    9727.1427    11262.702     8323.268    915.63673    1771.8653    31.103889   -2412.1811 
18304000    265.87953   -3858.0386   -3402.3302   -3858.0386            0    5614.4263    17.133898    20.181469    20.903315    7228.0994    5548.2744    7132.2886    4162.7157    857.84228    1178.1581    28.534956   -2810.4887 
18305000    261.31646   -3833.7449   -3385.8574   -3833.7449            0    9103.7688    16.941503    19.954852    20.668593    6987.3317    7865.1787    8854.2997    10591.828    1158.1094    1260.2675    1216.8795   -2458.1555 
18306000    274.16513    -3832.915   -3363.0053    -3832.915            0    10549.822    16.974777    19.994046    20.709189    7028.5843     10082.66    11348.684    10218.123    808.87302    1818.0386    863.05436    -2281.599 
18307000    268.75163    -3844.038   -3383.4069    -3844.038            0    10117.208    16.961935    19.978919    20.693521    7012.6435    11314.941    9698.3214    9338.3609    631.57318     88.31523   -399.34283   -2348.6977 
18308000    259.13718   -3832.6692    -3388.517   -3832.6692            0    8134.1315    16.996797    20.019982    20.736053    7055.9723    5700.5435    10333.836    8368.0154    -240.3094   -499.88128    866.12547   -2551.4814 
18309000     257.4545   -3837.5679   -3396.2997   -3837.5679            0    7382.9136    16.980011     20.00021    20.715574    7035.0877    8722.0939    6703.8488    6722.7982   -266.22316    141.32738    2250.8111   -2638.8161 
18310000     258.4409   -3867.6919    -3424.733   -3867.6919            0    8784.4997    16.946766    19.961052    20.675015    6993.8461    7214.5243    7765.1222    11373.853    918.49969   -1139.6241   -1543.6032    -2528.731 
18311000    257.37523   -3862.6027   -3421.4704   -3862.6027            0    7933.3181    17.044536    20.076212    20.794294    7115.5939    7177.6861    9136.4986    7485.7695    768.67177    1722.6833    1808.1623   -2598.2011 
18312000    262.47671   -3855.8045   -3405.9284   -3855.8045            0    9459.4756    17.014348    20.040654    20.757464    7077.8524    9368.4443    10280.487    8729.4953   -1163.5542    87.608955   -602.88647   -2429.4909 
18313000     272.7309   -3832.8948   -3365.4434   -3832.8948            0    8991.3067    16.953814    19.969354    20.683614    7002.5762    8557.4158    9975.3609    8441.1432   -491.40411   -1075.9211    361.65595   -2447.2027 
18314000    271.37928   -3866.5154   -3401.3806   -3866.5154            0    7580.3521    16.921782    19.931624    20.644535    6962.9598    7084.4783    8183.5789    7472.9992   -1231.2289    16.164818   -384.72772   -2631.6138 
18315000    257.74426   -3886.6052   -3444.8403   -3886.6052            0    6737.2658    16.988541    20.010257     20.72598     7045.695    6239.6264    5567.6365    8404.5345    183.62727    -189.6327   -1383.8035   -2752.5578 
18316000    283.88349   -3875.2235    -3388.657   -3875.2235            0    7693.3169    16.967365    19.985314    20.700145    7019.3803    7578.4884    7135.4041    8366.0582    1070.5726    46.571845    159.51739   -2601.0886 
18317000     261.8155   -3905.1998    -3456.457   -3905.1998            0    9971.3346    16.910766    19.918649    20.631095    6949.3699    9198.5645     9527.503    11187.936    711.42226   -304.77041   -303.46822   -2445.8679 
18318000    267.16536   -3857.9017   -3399.9894   -3857.9017            0    7787.0013     16.91687    19.925838    20.638542    6956.8976    6742.7624    6361.0424    10257.199   -601.24755   -1229.7114    688.33193   -2609.9264 
18319000     254.3925   -3884.7436   -3448.7235   -3884.7436            0    7260.0111    16.950001    19.964862    20.678962    6997.8526    4849.6408    7821.9686    9108.4238   -1909.1746   -187.95913    1227.8462   -2707.7922 
18320000    261.48305   -3839.6424   -3391.4694   -3839.6424            0    8155.2686    16.976812    19.996442    20.711671     7031.112    6098.5276    8389.3312    9977.9471    1179.5886   -571.94851   -1039.1088   -2555.2155 
18321000    272.60906    -3892.636   -3425.3934    -3892.636            0    8245.2141    17.072371    20.108998    20.828253    7150.5119    8615.5165    9201.4324    6918.6935    -917.5671    252.72345    213.14408   -2565.5587 
18322000    265.88971   -3801.3329    -3345.607   -3801.3329            0    7448.6623    17.078605    20.116341    20.835858    7158.3472    6089.9121    7207.1522    9048.9226   -131.26674    756.00987    1053.1374   -2567.9879 
18323000    251.11866   -3864.3356   -3433.9268   -3864.3356            0    9345.4558    16.954309    19.969937    20.684217    7003.1895    7937.9635     10816.16    9282.2435   -1790.7469   -177.51369    584.85079   -2479.4349 
18324000    263.65372   -3837.5573   -3385.6639   -3837.5573            0     9423.537    16.964785    19.982276    20.696998    7016.1795    8625.1479     9094.084    10551.379   -662.29739   -761.83648    1342.1189    -2421.412 
18325000    273.01492   -3853.2309   -3385.2926   -3853.2309            0    10132.928    16.933705    19.945668    20.659081    6977.6886    9080.1579    10445.139    10873.489    919.89631   -559.33923    678.65628   -2354.1412 
18326000    253.40603   -3822.8251   -3388.4958   -3822.8251            0    9252.9159     16.97313    19.992105    20.707179    7026.5383    7783.7843    9324.9352    10650.028    853.20053   -631.49713    4.4061279   -2440.3046 
18327000    252.73976    -3852.373   -3419.1857    -3852.373            0    8161.4142    16.998377    20.021842     20.73798    7057.9394    6287.2569    8495.8365    9701.1493   -283.08772    637.55418     381.8449   -2579.1085 
18328000    288.46803   -3866.5172   -3372.0929   -3866.5172            0    8742.4838    16.978381     19.99829    20.713585    7033.0611    6873.4695    9901.5119    9452.4701   -287.85116    1412.2962   -901.92501   -2475.3765 
18329000    267.37594   -3868.2156   -3409.9424   -3868.2156            0    6912.6724    16.985547     20.00673    20.722327    7041.9701    6939.8202    7412.9946    6385.2025   -754.62347   -224.83095   -979.17542   -2700.0115 
18330000    278.50398   -3849.7762   -3372.4299   -3849.7762            0    8487.1125    16.964653     19.98212    20.696837    7016.0154    7446.3417    9105.6549    8909.3408    945.41421    567.19359   -1386.3704   -2504.0168 
18331000    264.40591   -3842.1385   -3388.9559   -3842.1385            0    9320.8916    16.920708    19.930359    20.643224    6961.6336    8570.2617     8289.284    11103.129    1490.3959    475.18792   -893.98148   -2442.6217 
18332000    258.29289   -3842.4572    -3399.752   -3842.4572            0    8621.8229    16.948112    19.962637    20.676657    6995.5124    7526.9511    7369.4542    10969.063    273.28719    1328.4097    439.02657   -2520.1332 
18333000      254.763   -3842.5292   -3405.8741   -3842.5292            0    7068.3538    17.028033    20.056773     20.77416    7094.9449    7841.0367    6904.0059    6460.0189     1545.375    -395.2604   -268.98287   -2674.4939 
18334000    265.42964   -3790.2041   -3335.2668   -3790.2041            0    8774.8503    17.036122    20.066301    20.784029     7105.061    9340.2366    8272.8432    8711.4712    231.06986    516.10609   -1120.9152   -2426.0165 
18335000    271.14685   -3837.2578   -3372.5214   -3837.2578            0    8729.8358    16.948168    19.962703    20.676725    6995.5818    9212.8534    9561.7621     7414.892   -825.44821    348.17697    192.56187    -2481.874 
18336000    268.11782   -3834.2314   -3374.6866   -3834.2314            0    9785.5679    16.899143    19.904958    20.616915    6935.0505    8054.0042    11552.102    9750.5977   -1403.7138      175.177   -335.50874   -2384.9684 
18337000     263.5156   -3882.2833   -3430.6266   -3882.2833            0     8692.451    16.955442    19.971271      20.6856    7004.5939    7878.2095    10647.406    7551.7372    44.193622   -139.38653    617.00862   -2542.6508 
18338000    277.70178   -3852.1058   -3376.1345   -3852.1058            0    7572.0673    17.002673    20.026903    20.743222    7063.2931    8091.6608    6736.6498    7887.8912    340.62168   -1762.5228    595.16492   -2596.1291 
18339000     250.6127   -3893.3333   -3463.7917   -3893.3333            0    9324.8958    16.938339    19.951126    20.664734    6983.4182    8251.0709    9385.0072    10338.609   -1045.1306    1027.1823    1412.9787   -2514.0884 
18340000    260.07924   -3874.1951   -3428.4282   -3874.1951            0    8947.5052    16.968462    19.986607    20.701484     7020.742    8945.7504    10797.496    7099.2692    2463.9596    1453.6346   -44.976913   -2512.2903 
18341000    261.09209   -3905.2639    -3457.761   -3905.2639            0    9290.0209    16.909497    19.917154    20.629547     6947.806    8235.5432    10635.434    8999.0855    1420.6155    2.0759486   -591.88633   -2516.4345 
18342000    276.74002   -3872.1623   -3397.8393   -3872.1623            0    9847.1988    16.949169    19.963882    20.677946    6996.8217    8645.9296    11141.548    9754.1185    169.32283    457.99048   -1665.8789   -2393.0167 
18343000    262.63346   -3913.2933   -3463.1485   -3913.2933            0    8723.0743     16.97171    19.990433    20.705447    7024.7748    10946.969     7320.943    7901.3111    450.25379   -1572.4149    223.84722   -2569.4771 
18344000    266.82082   -3882.6055   -3425.2837   -3882.6055            0    11183.666     16.85907    19.857758    20.568027    6885.8326    11372.116    10923.729    11255.153    -538.9266    51.179331    1060.9885   -2302.1886 
18345000    265.42799   -3910.8038   -3455.8693   -3910.8038            0    8145.9798     16.98584    20.007075    20.722685    7042.3345    6713.0228    8663.4429    9061.4739    1268.4744    731.08574    234.58038   -2619.2346 
18346000    252.08588   -3842.8922   -3410.8256   -3842.8922            0    8419.3221    17.010072    20.035618    20.752248    7072.5176    8031.2423    8122.5326    9104.1914   -990.13598    870.91207    1119.2932   -2542.4112 
18347000    269.81869   -3890.8199   -3428.3599   -3890.8199            0    9676.3019    16.928002     19.93895    20.652122    6970.6401    8771.5652    10019.571     10237.77    1290.6271   -83.916551    1451.2986   -2444.6706 
18348000    253.97303   -3889.1967   -3453.8956   -3889.1967            0     9104.991    16.928268    19.939263    20.652447    6970.9689    9895.5847    8225.4858    9193.9024    385.39903    116.51096   -680.34473   -2528.2419 
18349000    264.79917   -3876.4557    -3422.599   -3876.4557            0    9310.4578    16.900598    19.906673    20.618691    6936.8425    10342.932    9147.3852    8441.0562    -10.97191    629.65137   -312.94734   -2480.6904 
18350000    255.01095   -3904.2286   -3467.1485   -3904.2286            0    10774.601     16.89591     19.90115    20.612971    6931.0712    10385.188    11975.136    9963.4786   -86.751645   -1863.1408    217.69067   -2378.0243 
18351000    251.16572    -3894.961   -3464.4716    -3894.961            0     7667.517    16.947645    19.962087    20.676087    6994.9342    7506.7295    7648.1024    7847.7191   -1816.8984   -764.31492    -259.0858    -2682.278 
18352000    263.64483   -3868.4595   -3416.5812   -3868.4595            0    7262.9342    17.004031    20.028503    20.744879    7064.9857    7463.9003    5754.0536    8570.8486   -1221.2657    465.51314   -869.88577   -2668.2407 
18353000    263.26587   -3874.6279   -3423.3993   -3874.6279            0    7202.5481    16.999676    20.023373    20.739565    7059.5579    8415.1358     4992.608    8199.9005    531.67136    786.41922    334.54938   -2681.8508 
18354000    269.05379   -3888.9998   -3427.8508   -3888.9998            0    6653.1585    17.011526    20.037331    20.754022     7074.332    7237.1814    5005.8728    7716.4212   -141.06459    210.64461    530.33992   -2741.4319 
18355000    263.99341   -3857.2205   -3404.7449   -3857.2205            0    8278.2068     17.02558    20.053884    20.771167    7091.8787    9329.7191    8542.3476    6962.5538   -1524.1497    243.59284   -20.153381   -2548.5483 
18356000    277.04348   -3924.7764   -3449.9334   -3924.7764            0    7528.3723    16.994362    20.017113    20.733081    7052.9394    7814.4253    6531.7237    8238.9678    1335.5666     284.9771    -1615.451   -2675.5658 
18357000    259.80003   -3906.3926   -3461.1043   -3906.3926            0    8587.3655    16.966013    19.983722    20.698496    7017.7025     8823.461    7695.2881    9243.3473    16.355995   -458.28443   -919.20013   -2582.2218 
18358000    259.19839   -3863.8896   -3419.6324   -3863.8896            0    7626.7647    16.963756    19.981064    20.695743    7014.9026    8290.3997    6941.5577    7648.3369    -821.9833   -1147.9672    -2012.399    -2639.375 
18359000    264.42863   -3890.0215   -3436.7999   -3890.0215            0    10067.173    16.910564    19.918411    20.630849    6949.1211     9176.376    11482.983    9542.1609    1226.0107    1297.3936    -276.3266   -2416.5342 
18360000    258.94715   -3885.4814   -3441.6548   -3885.4814            0    7105.0213     17.05487    20.088385    20.806902    7128.5444    6729.1602     6756.745    7829.1586    576.60458   -1021.9571   -809.70613    -2702.999 
18361000    260.18073   -3862.3606   -3416.4197   -3862.3606            0    8141.5318    16.983661    20.004509    20.720027     7039.625      8925.49    9227.3583    6271.7471   -702.42919    173.21975   -779.09077   -2580.5636 
18362000    266.31486    -3890.524   -3434.0695    -3890.524            0    7625.3047    16.961868     19.97884    20.693439    7012.5602    7418.2019    7877.6609    7580.0512    400.26086   -394.05115     783.2474   -2654.2219 
18363000    269.47885   -3905.9843   -3444.1067   -3905.9843            0    10046.734    16.976292    19.995829    20.711036    7030.4652    11592.879     8956.825     9590.498   -1683.8142    588.96654   -382.17042   -2413.9938 
18364000     276.8183   -3876.7011    -3402.244   -3876.7011            0    10007.179    17.014221    20.040505     20.75731    7077.6944    9022.3356    10025.166    10974.035   -1346.0283    1467.5744    197.90781   -2369.2939 
18365000    268.54398   -3875.4611   -3415.1859   -3875.4611            0    9413.4539    16.995446    20.018391    20.734405    7054.2901    12356.946    8530.2992    7353.1165   -191.88229    220.00197    619.16867   -2446.7337 
18366000    252.84155   -3862.9572   -3429.5954   -3862.9572            0    8829.5303    16.950904    19.965926    20.680063    6998.9709    8021.3345     9407.425    9059.8315   -261.62028   -1442.2761    553.75612   -2528.3404 
18367000    263.81934    -3911.837   -3459.6597    -3911.837            0    7833.0059    16.927039    19.937816    20.650948     6969.451    9675.3894    7833.0949    5990.5333    1092.3247    -246.6755   -816.56615    -2663.495 
18368000    268.74897   -3914.8206   -3454.1941   -3914.8206            0    6330.3572    16.998661    20.022177    20.738327    7058.2938    7765.8284    5727.3236    5497.9198   -1200.8447   -275.43963   -182.37317   -2802.5599 
18369000    265.89986   -3872.4382    -3416.695   -3872.4382            0    9155.2951    16.971582    19.990282    20.705291     7024.616    8705.6179    10023.122    8737.1454    1983.9075    255.44395   -1030.9518   -2478.7641 
18370000    255.94919   -3871.8187   -3433.1305   -3871.8187            0    9022.2154     16.91686    19.925827     20.63853    6956.8859    9354.0956    10214.505    7498.0461    155.84299   -1986.6247   -134.29077   -2517.7451 
18371000    260.52445   -3886.6923   -3440.1623   -3886.6923            0    8192.0932    16.977756    19.997555    20.712823    7032.2854    9329.9798    6909.7861    8336.5138    845.29218     374.7245   -187.85094   -2599.9921 
18372000    279.65345   -3876.3522   -3397.0357   -3876.3522            0    6010.7881    16.991842    20.014145    20.730007    7049.8024     5060.168    5151.9292     7820.267    1052.4625   -291.33955   -508.53098   -2779.0418 
18373000    269.68035    -3906.678   -3444.4552    -3906.678            0     7862.871    16.975571    19.994981    20.710157    7029.5703    9771.1078    6444.2085    7373.2968    1415.1725   -114.55838     86.61112   -2638.3609 
18374000    259.56392   -3822.0833   -3377.1996   -3822.0833            0    9565.0105    16.966064    19.983782    20.698558    7017.7659    9077.8867    9523.7025    10093.442   -829.64401    466.22614    84.816023   -2398.2502 
18375000    282.60406    -3836.381   -3352.0073    -3836.381            0    9210.4636    16.971605    19.990309    20.705319    7024.6447    8828.0337    9026.1516    9777.2055   -976.52337    2404.3864   -1390.8713   -2408.4208 
18376000    266.20966   -3856.4639   -3400.1897   -3856.4639            0     8226.787    16.970416    19.988908    20.703868    7023.1678    9343.4711    8638.0756    6698.8142   -1597.4592   -34.180745   -19.284171   -2557.5553 
18377000    277.10641   -3860.2121   -3385.2612   -3860.2121            0    7519.8749    16.977283    19.996997    20.712246    7031.6971    7976.7698    7173.4664    7409.3885   -57.975349   -661.60226    642.60863   -2614.0973 
18378000    265.52787   -3837.7709   -3382.6652   -3837.7709            0     10316.81    16.983793    20.004665    20.720188    7039.7891    10640.542    9553.0881    10756.801     601.8489   -707.15476    1551.2994   -2323.4578 
18379000    268.15489   -3818.8893    -3359.281   -3818.8893            0    6140.3956    17.042455    20.073761    20.791755    7112.9877    5198.0898    5409.1821    7813.9149   -622.77579   -1608.8671    1514.7881   -2722.3032 
18380000     260.1095   -3852.9405   -3407.1217   -3852.9405            0    7034.3905    17.013854    20.040073    20.756862    7077.2364    8924.2537    6152.1459    6026.7718    1802.1261   -105.46501   -57.936069   -2681.0725 
18381000    248.57484   -3848.5519   -3422.5031   -3848.5519            0    7075.9908     16.98371    20.004567    20.720086    7039.6856    7035.1366     8014.921    6177.9149    6.2880087    946.00635    958.06479   -2696.0352 
18382000    274.08491   -3852.2662    -3382.494   -3852.2662            0     8626.864    17.069439    20.105545    20.824676    7146.8283    9066.5549    6991.3641    9822.6731    1230.0533    49.876023   -227.73629   -2483.3232 
18383000    256.58725   -3895.3227    -3455.541   -3895.3227            0    7696.2849    17.031273     20.06059    20.778114    7098.9961    7883.6521    7152.0758    8053.1268   -1011.1622   -739.12669    310.80139   -2658.7325 
18384000    260.72389   -3908.6185   -3461.7467   -3908.6185            0    8246.4524    17.000455    20.024291    20.740516    7060.5292    8563.4498    7799.9294    8375.9779     206.8414    -644.1825    1449.2115   -2612.6047 
18385000    254.18893   -3896.1021    -3460.431   -3896.1021            0    7106.0757    16.978137    19.998003    20.713287    7032.7581    6608.6281    6425.8977    8283.7014   -959.96166    812.99396   -617.95572   -2731.5923 
18386000    252.00314   -3857.8706   -3425.9459   -3857.8706            0    8895.2694    16.954431    19.970081    20.684367    7003.3409    9413.7189    6884.1745    10387.915   -1147.5397   -818.59617    730.11293   -2517.4138 
18387000    252.32616   -3882.4222   -3449.9438   -3882.4222            0    8176.5584    16.985688    20.006897      20.7225     7042.146    7959.3578    8820.3653    7749.9522     1489.768   -682.28471   -404.18321   -2610.1911 
18388000    264.11554   -3886.5443   -3433.8593   -3886.5443            0    10048.864    16.931899    19.943541    20.656877    6975.4561    9125.7079    9570.4684    11450.416   -1564.7731   -832.01275    162.68384   -2411.5897 
18389000    246.17951    -3913.875   -3491.9317    -3913.875            0    8046.6524    16.971324    19.989978    20.704975     7024.295    9459.7912    6963.1543    7717.0118   -919.96121    248.39208   -805.06399   -2667.6155 
18390000    254.27592   -3875.1576   -3439.3374   -3875.1576            0    6903.7896    17.033901    20.063686     20.78132    7102.2828    6265.4783     5891.054    8554.8364    625.58445   -431.65237    1101.7244   -2724.2463 
18391000    254.45889    -3888.025   -3451.8912    -3888.025            0     7388.603    17.009784    20.035278    20.751896    7072.1582    7880.0913    6418.6466     7867.071   -223.60435    909.73309   -934.56651   -2689.8294 
18392000    244.14981   -3842.2891   -3423.8246   -3842.2891            0     7619.388    17.014636    20.040993    20.757816    7078.2117    7550.5558    6881.0378    8426.5706     116.5781    991.69127    -538.6834    -2637.287 
18393000    251.43416   -3876.6747   -3445.7252   -3876.6747            0    8646.9562    16.949048     19.96374    20.677799     6996.672    10038.881    7649.9487    8252.0387   -185.58867    863.85413    32.583496    -2563.396 
18394000    260.86889    -3885.059   -3437.9387    -3885.059            0    8669.0839    17.012124    20.038035    20.754752    7075.0777    8205.7917    9309.0242    8492.4358    657.49774    1587.6072    650.73182   -2543.4388 
18395000    276.89955   -3884.7341   -3410.1377   -3884.7341            0    9403.3066    16.956633    19.972674    20.687053    7006.0701     9729.523    9383.5359    9096.8608   -853.10354    1962.3652    100.09782   -2449.3422 
18396000    249.65018   -3895.8128   -3467.9209   -3895.8128            0    6452.9574    17.038518    20.069123    20.786952    7108.0591    6139.7616    6193.2732    7025.8374   -604.65504   -1099.4063   -73.290762   -2798.9832 
18397000    267.74446   -3893.7739   -3434.8691   -3893.7739            0    10502.278    16.938239    19.951008    20.664612    6983.2944    9403.2066    10824.258     11279.37    1501.4081    1267.4691   -19.726703   -2365.2731 
18398000    249.89733   -3890.3484   -3462.0329   -3890.3484            0    10141.446    16.953263    19.968704    20.682941    7001.8932    9385.6094    10610.367    10428.362    552.77213    132.75154   -856.01598   -2426.4348 
18399000      278.807   -3871.9581   -3394.0925   -3871.9581            0    7585.2076    17.038851    20.069516    20.787359    7108.4763    6294.1079    8727.7091    7733.8057   -230.89822   -74.078706   -1593.9399   -2607.7353 
18400000    254.45767   -3865.6869   -3429.5551   -3865.6869            0    10412.262    16.915271    19.923955    20.636591    6954.9253    10238.724      11055.1    9942.9632    44.527282    1972.7523   -197.49639   -2373.4347 
18401000    258.92512   -3833.7585   -3389.9697   -3833.7585            0    7981.6989    16.994367     20.01712    20.733089    7052.9467    6317.4217    9525.0837    8102.5914    1267.3352    556.01897   -873.19701   -2568.9722 
18402000    255.50026   -3901.7549   -3463.8362   -3901.7549            0    7873.6936    16.995075    20.017954    20.733952    7053.8279    8163.3222    9074.0692    6383.6893    317.30026   -497.67381       15.446    -2653.847 
18403000    272.50373   -3882.1367   -3415.0746   -3882.1367            0    8061.1548    16.981671    20.002166    20.717599    7037.1512    6831.0772    8998.0897    8354.2975   -1159.8191   -2445.5706   -519.39461   -2587.7612 
18404000     265.3977   -3891.6126     -3436.73   -3891.6126            0    7361.6683    16.981229    20.001644    20.717059     7036.601    6850.2324    6681.2719    8553.5007    102.64528    31.919064    1964.5284   -2681.2638 
18405000    267.54771    -3859.589   -3401.0214    -3859.589            0    8086.7704    16.921117    19.930841    20.643723    6962.1385    7844.5569    8769.0795    7646.6748     791.7503   -66.583708   -196.06258   -2579.9259 
18406000    243.56187   -3880.0401   -3462.5834   -3880.0401            0    8654.0502    16.995293     20.01821    20.734218    7054.0989    7605.9257    10019.582    8336.6428    76.396732    493.16905    1736.2634   -2572.2825 
18407000    259.54948   -3873.9502   -3429.0913   -3873.9502            0    7372.7902    16.920371    19.929962    20.642813    6961.2175    7633.3947    7373.4986    7111.4774   -934.69398    904.43388    1868.7461   -2680.5893 
18408000    260.93529   -3864.3677   -3417.1335   -3864.3677            0     10201.05    16.956825      19.9729    20.687286    7006.3071    10903.318    9674.4898    10025.343    654.32096    779.89248    1103.3883   -2374.7922 
18409000    254.70725   -3852.8699   -3416.3103   -3852.8699            0    8696.5142    16.941138    19.954423    20.668149    6986.8808    10280.877    7184.5164    8624.1496    -84.85958   -727.73782   -2219.5589   -2530.1661 
18410000    274.20452   -3839.4975   -3369.5203   -3839.4975            0    8592.8485    16.943822    19.957584    20.671423     6990.202      8467.29    9266.6581    8044.5975    93.370768   -1062.8529    445.57096    -2493.523 
18411000    254.02948   -3870.4342   -3435.0364   -3870.4342            0    8733.6011    16.942089    19.955542    20.669309    6988.0569    9715.5992    9838.8258    6646.3784    400.33213   -800.52076    1231.2739   -2544.9633 
18412000    247.65114   -3845.6365   -3421.1709   -3845.6365            0    7923.7716    17.022578    20.050349    20.767506     7088.129    6177.6409    7366.4169    10227.257    431.02475   -249.49904     839.7937   -2602.0661 
18413000    254.72147   -3832.0117   -3395.4278   -3832.0117            0    9075.7575    16.936574    19.949047    20.662581    6981.2357    9816.9235    6812.7448    10597.604    582.10498    619.98078    624.21341   -2471.3872 
18414000    266.32441   -3865.9224   -3409.4515   -3865.9224            0    7861.0098    16.990467    20.012526     20.72833     7048.092    7768.6765    7521.7812    8292.5717    251.88115    371.54769    986.75585   -2601.4247 
18415000    262.31397   -3855.5744   -3405.9772   -3855.5744            0    9046.8377     16.96864    19.986816    20.701701    7020.9628    8773.3742    7434.5616    10932.577   -853.79072     287.8087   -73.258884   -2479.6394 
18416000    268.83156   -3854.6067   -3393.8386   -3854.6067            0    7623.6416    16.976684    19.996291    20.711515    7030.9529    7146.4813    8245.6741    7478.7693     327.6939   -162.26933    782.61935   -2612.1163 
18417000     249.9422   -3877.0132   -3448.6209   -3877.0132            0    7870.9491    16.916674    19.925607    20.638303     6956.656    8499.8016    7894.5493    7218.4964   -367.60716    298.20752    223.40602   -2650.0683 
18418000    274.46047   -3858.1181   -3387.7023   -3858.1181            0    9716.3852    16.925471    19.935969    20.649035    6967.5141    8950.4615    12015.444    8183.2505    92.443245   -103.51302    1103.4975   -2400.3811 
18419000     280.3322   -3860.4545   -3379.9747   -3860.4545            0    8457.6172    16.963143    19.980342    20.694995    7014.1419    8643.0697     6007.305    10722.477    -1496.061    655.73395   -1369.4198   -2514.8106 
18420000    250.43337   -3843.4286   -3414.1944   -3843.4286            0    7711.2106    16.969539    19.987875    20.702798    7022.0791    8177.5949    8199.5244    6756.5126   -892.33391    218.69933    317.31659   -2624.4907 
18421000    271.84571   -3891.4759   -3425.5417   -3891.4759            0    7701.5122    16.923159    19.933246    20.646215    6964.6598    8252.4716    6942.2275    7909.8376   -575.96949   -413.22036    731.19942   -2643.2805 
18422000    254.67521   -3873.1385    -3436.634   -3873.1385            0    9754.9733    16.920213    19.929776    20.642621    6961.0235    9240.8642    8716.6047    11307.451   -233.79117    1396.5864    966.12715    -2446.315 
18423000    260.65937   -3886.4536   -3439.6923   -3886.4536            0     7408.313    16.998843    20.022391    20.738548    7058.5202     8299.514     6484.208    7441.2169   -60.797594   -426.17341      849.887   -2677.0711 
18424000    252.22572   -3876.1367   -3443.8305   -3876.1367            0    10568.882    16.948989    19.963671    20.677727    6996.5993    12706.082    9600.2902    9400.2738    39.783427    303.94035    931.80254   -2365.4005 
18425000    262.89803   -3856.9418   -3406.3435   -3856.9418            0    6287.4769    17.023843    20.051839    20.769049    7089.7092    4670.7517    5293.7631     8897.916    771.85127    1752.4773   -1785.3961   -2756.2427 
18426000    259.49023   -3890.1221   -3445.3647   -3890.1221            0     8999.142    17.032162    20.061637    20.779198    7100.1078    8881.9199    7445.9355    10669.571    427.24748    213.18402   -602.25459   -2513.5234 
18427000    275.38221    -3869.994   -3397.9983    -3869.994            0    9671.7873    16.995196    20.018096    20.734099    7053.9781    9730.4694    8813.0994    10471.793   -2152.4836   -79.461924    -673.1742   -2403.0129 
18428000    268.96948   -3876.6499   -3415.6454   -3876.6499            0    9703.7515    17.047908    20.080184    20.798408    7119.8174    9015.3616    10498.553    9597.3404   -192.07233    261.74041     757.9137   -2408.0541 
18429000    262.31251   -3875.2124   -3425.6177   -3875.2124            0     7458.866    17.040591    20.071565    20.789481    7110.6537    5973.9444    8287.9378    8114.7158   -1500.7492   -987.84181    1648.5827   -2652.1215 
18430000    264.61171   -3900.4465    -3446.911   -3900.4465            0    6679.2603    17.108321    20.151342    20.872111    7195.7779     6741.602    7197.6534    6098.5256    1036.0161    251.93798    1040.2634   -2745.9692 
18431000    272.47659   -3871.9606    -3404.945   -3871.9606            0    10430.165    17.003346    20.027695    20.744042     7064.131     10007.63    8710.2918    12572.574   -350.45205     2946.594   -758.76525    -2330.397 
18432000    258.89257   -3838.7497   -3395.0167   -3838.7497            0    8079.2202    17.104209    20.146499    20.867095    7190.5907    7072.6883    6695.2146    10469.758    -471.0705   -395.10999    1101.6603   -2547.7699 
18433000    252.56809   -3862.0271   -3429.1341   -3862.0271            0    9399.4931    16.990012     20.01199    20.727775    7047.5252    9403.9973    8339.8148    10454.667   -1393.6501   -1387.0854   -895.16659   -2463.0455 
18434000    251.11577   -3877.2036   -3446.7998   -3877.2036            0    6609.2185    17.066454    20.102029    20.821035    7143.0799    6421.4141    7596.2293    5810.0121   -362.07988   -493.50761   -264.65208   -2758.2878 
18435000    277.84267   -3869.8431   -3393.6303   -3869.8431            0    9009.9024    17.046753    20.078823    20.796999    7118.3705    7691.6164    12420.427    6917.6642   -363.85495    228.54011    1909.6253   -2458.2751 
18436000    266.17432   -3818.7297   -3362.5161   -3818.7297            0    8516.3415    17.055981    20.089693    20.808257    7129.9377    9178.2379    10994.708    5376.0792   -1295.8808    1887.1488   -311.00775   -2476.9628 
18437000     275.0447   -3863.6626   -3392.2454   -3863.6626            0    10891.323    16.993516    20.016117     20.73205    7051.8865    12021.925    9808.1213    10843.923    522.41659    -382.9294   -1184.9072   -2272.1324 
18438000    267.53482   -3802.3898   -3343.8443   -3802.3898            0    12143.362    16.934381    19.946464    20.659905    6978.5235    9440.8126    14300.942    12688.331     -1291.32    1123.2971   -102.28831   -2107.9584 
18439000    258.85082   -3854.8883   -3411.2268   -3854.8883            0    7521.1168    16.960694    19.977457    20.692006     7011.104    8879.6051    6859.9123    6823.8331    904.08019    337.35251    472.39756   -2642.1944 
18440000    275.01611   -3811.7253   -3340.3571   -3811.7253            0    6354.8133     17.02488    20.053059    20.770313    7091.0041    6795.9797     6835.493    5432.9673   -685.60723    599.05177   -440.63566    -2683.174 
18441000    267.62917   -3832.0123    -3373.305   -3832.0123            0    7622.7929    16.977793    19.997598    20.712868    7032.3312    8878.8833    7423.7482    6565.7472   -462.91358   -89.897714   -1259.3777   -2591.5164 
18442000    267.42915   -3844.5625   -3386.1981   -3844.5625            0    9489.9708    16.970512    19.989022    20.703985    7023.2872    8265.6344    11013.681    9190.5968   -607.16647   -353.54252   -137.09507   -2414.1647 
18443000    261.44408   -3839.8996   -3391.7934   -3839.8996            0     7391.985    16.996351    20.019456    20.735508    7055.4164    8757.5058    5835.8176    7582.6316   -1137.1576   -9.2169492    -151.5341   -2631.1877 
18444000    280.75833   -3837.7997   -3356.5896   -3837.7997            0    11098.398    16.928965    19.940085    20.653298     6971.831    10826.992    9449.0668    13019.135    942.36212    332.27024     894.2284   -2228.1377 
18445000    261.85704   -3865.7999   -3416.9859   -3865.7999            0    8325.8737    16.987301    20.008797    20.724467    7044.1521     8445.887    6985.5818    9546.1523   -4.4118578   -684.47975    199.86032   -2561.6544 
18446000    268.01146   -3856.5036   -3397.1411   -3856.5036            0    6237.5375    16.994329    20.017075    20.733042    7052.8987    6136.3147    7120.3214    5455.9765    432.10006    214.37302    601.43129   -2755.5524 
18447000    256.11482   -3816.2198   -3377.2478   -3816.2198            0    10346.583    16.930804    19.942251    20.655542    6974.1029    9624.9929    9978.2261    11436.529    -698.3966   -1066.1295    1030.2131   -2324.8955 
18448000    264.44332   -3850.3155   -3397.0687   -3850.3155            0    8227.8948    17.045819    20.077723    20.795859    7117.2007    8760.6014    6365.5335    9557.5496   -366.98565   -1330.0014   -594.19516   -2543.0373 
18449000    263.29051   -3845.3468   -3394.0759   -3845.3468            0    8786.4286    17.013651    20.039834    20.756614    7076.9829    9777.9617    9863.7237    6717.6003    809.43682    787.45145    1148.1009   -2487.2239 
18450000    254.62712    -3850.743   -3414.3208    -3850.743            0    10370.499    16.986588    20.007957    20.723598    7043.2656    8492.5472    12579.798    10039.151    236.54795   -441.80682    795.92508   -2349.0756 
18451000    257.48437   -3851.3811   -3410.0617   -3851.3811            0    7337.7874    17.030262    20.059399    20.776879    7097.7311       8664.6    7316.9774    6031.7847   -2457.1974    1211.8713    678.02596   -2650.5043 
18452000    270.06034   -3865.5207   -3402.6465   -3865.5207            0    7389.7939    17.005214    20.029896    20.746321    7066.4598    8331.6588     6726.281    7111.4418   -572.95959   -176.87395   -1029.7207    -2641.076 
18453000    256.45597   -3881.7145   -3442.1577   -3881.7145            0    8438.9983     16.94712    19.961469    20.675447    6994.2845    8617.7783    9140.2722    7558.9444    1363.1193   -191.82976     591.6364   -2581.3422 
18454000    261.85575   -3886.1708    -3437.359   -3886.1708            0    8466.4606    16.965038    19.982574    20.697307    7016.4934    7205.8727    9092.1781     9101.331    807.95272   -66.642423   -768.22932        -2571 
18455000    250.91484   -3885.8457   -3455.7862   -3885.8457            0    6878.3445    16.970286    19.988755    20.703709     7023.006    7163.9701     5781.668    7689.3955   -826.25142    1299.4918   -220.42873   -2751.2832 
18456000    264.84182   -3865.9419    -3412.012   -3865.9419            0    8572.2793    16.890322    19.894569    20.606154    6924.1968     9101.748    7776.4468    8838.6433    239.67187    263.99489    1322.1836   -2546.3635 
18457000    260.61138   -3849.4639   -3402.7849   -3849.4639            0    8527.4093    16.923055    19.933123    20.646087    6964.5307    7666.1403    8767.0843    9149.0033    411.34034   -54.145947    1413.0353   -2536.6514 
18458000    268.54391   -3851.3749   -3391.0998   -3851.3749            0    9705.5814    16.966434    19.984219     20.69901    7018.2257    10275.104     8276.015    10565.625    115.25252    697.03314   -180.53161   -2397.6984 
18459000    261.94021   -3859.1462   -3410.1896   -3859.1462            0    10027.458    16.931135    19.942641    20.655945    6974.5117    8570.9996     8670.637    12840.738    991.78886    331.70539    1538.4042   -2390.2357 
18460000    269.78207   -3829.0366   -3366.6394   -3829.0366            0    7044.8205    17.000845     20.02475    20.740991    7061.0149    7278.9788     6935.166    6920.3167    -723.2382    1113.1323   -630.99372   -2641.1802 
18461000    260.84217   -3856.7782   -3409.7037   -3856.7782            0    7481.5081    16.973825    19.992924    20.708027    7027.4012    8793.7791    4099.7992    9550.9459    1016.9473    -1974.191   -2208.5638   -2642.9431 
18462000    249.36683    -3838.603   -3411.1968    -3838.603            0    7222.0876    16.990106      20.0121    20.727889    7047.6419    7914.7114    6036.3676    7715.1838    288.61217   -266.08305    1320.5716   -2668.8916 
18463000    269.12534    -3844.995   -3383.7234    -3844.995            0    6049.5781    17.054502    20.087951    20.806453    7128.0826    6468.9353    6669.4886    5010.3103    448.64806    1251.2905    610.34447   -2754.8349 
18464000    266.40421   -3873.4117    -3416.804   -3873.4117            0    7364.6732    16.957422    19.973604    20.688016    7007.0482    7791.5383    6796.5327    7505.9485   -950.90215   -399.77807    455.17845   -2664.2036 
18465000    256.02004   -3930.0956    -3491.286   -3930.0956            0    6108.9172    16.977531    19.997289    20.712548    7032.0056     6940.017    4231.1367    7155.5979    969.26411    195.83971   -208.35577   -2864.7885 
18466000    253.37711   -3865.6607    -3431.381   -3865.6607            0     9075.234    16.985875    20.007118    20.722728    7042.3789    11651.193    6767.7462    8806.7631   -1368.5283    1109.6527    463.70872   -2499.3012 
18467000    246.22634   -3860.9604   -3438.9369   -3860.9604            0    9730.9201    16.953567    19.969062    20.683312    7002.2698    8857.4272    10280.245    10055.088   -2159.7467    541.00276   -603.18633   -2445.2063 
18468000    258.61683   -3866.0485   -3422.7881   -3866.0485            0    7179.0488    16.973416    19.992442    20.707528    7026.8931    8883.8294    6551.5042    6101.8129   -792.71651    1767.3676    342.49277   -2687.0789 
18469000    259.21131    -3837.991   -3393.7117    -3837.991            0    7844.1889    16.980667    20.000983    20.716374    7035.9026    7571.4923    10267.839    5693.2358   -331.98571    527.48705    1646.4139   -2588.8083 
18470000     267.1276   -3903.9726    -3446.125   -3903.9726            0    11270.461    16.875732    19.877384    20.588354    6906.2689    10086.422    14277.697    9447.2649    1039.5097    348.19903   -40.593066   -2310.9546 
18471000    268.38889   -3870.3643    -3410.355   -3870.3643            0     10177.34    16.866953    19.867043    20.577643     6895.496    10492.942    11520.933    8518.1464   -1600.3966   -67.520942   -626.07996   -2386.8836 
18472000    258.65486   -3888.7313   -3445.4057   -3888.7313            0    8382.1487    16.904433    19.911189    20.623368     6941.565     8494.826    11226.587    5425.0333   -178.91989    1746.1706   -117.03264   -2596.8338 
18473000    263.29069   -3873.1873    -3421.916   -3873.1873            0    8599.6818    16.881689      19.8844    20.595621    6913.5844    8324.4835    8377.2461     9097.316   -643.46119    817.57352   -1332.3332   -2554.8313 
18474000    267.68943   -3875.2601   -3416.4495   -3875.2601            0    9771.0531    16.887452    19.891188    20.602652    6920.6678    9837.0418    9871.9076    9604.2098     110.0722    487.35056      540.313   -2430.2489 
18475000    257.34178   -3890.3281   -3449.2531   -3890.3281            0    9674.2056    16.936194    19.948599    20.662117    6980.7655    10526.059     9206.244    9290.3138   -580.49685    87.407531    1120.9983   -2464.3483 
18476000    261.80686   -3869.9322   -3421.2042   -3869.9322            0    7827.3038    17.008679    20.033977    20.750549    7070.7803    7247.4303    7191.3458    9043.1352    1698.1334    623.10017    669.13196   -2614.0521 
18477000    263.76302    -3798.505   -3346.4242    -3798.505            0    8369.3515    17.041391    20.072508    20.790457    7111.6557    8108.7792    7512.6073    9486.6681    1732.5032   -372.65155    684.96091   -2478.3869 
18478000    264.86659   -3847.7933   -3393.8211   -3847.7933            0    8279.1389    16.981751     20.00226    20.717697    7037.2505    8500.0926    6596.0196    9741.3045    814.43119   -298.69295   -114.73753   -2544.1241 
18479000    264.97036   -3853.6235   -3399.4733   -3853.6235            0     6472.694    17.056307    20.090077    20.808655    7130.3462    5858.3772    7736.5832    5823.1217   -1163.9213     306.1484   -940.56134   -2726.3857 
18480000    268.40713   -3840.1158   -3380.0751   -3840.1158            0    7935.4793    17.002897    20.027167    20.743494    7063.5716    8719.3784    7703.8475    7383.2119    335.51157    193.71502    318.84517   -2562.6022 
18481000    277.07913   -3892.9947   -3418.0905   -3892.9947            0    8238.8116     16.94253    19.956063    20.669847    6988.6033    8231.6372    8259.3713    8225.4262   -503.69713     1185.269    6.5705683   -2578.3776 
18482000    269.69073   -3897.5724   -3435.3317   -3897.5724            0    6788.5585    16.960058    19.976709    20.691232    7010.3165     7237.253    6783.2153    6345.2072    1083.3579    944.07757     1871.355   -2741.2812 
18483000    256.31848   -3867.5099   -3428.1888   -3867.5099            0    9844.1749     16.88351    19.886544    20.597843    6915.8218    8120.3221    9340.6947    12071.508    328.54625    1524.7986    649.64746   -2435.3037 
18484000    262.97485   -3849.1934   -3398.4635   -3849.1934            0     8643.096    16.960229    19.976909    20.691439    7010.5275     8277.733    8957.6896    8693.8653    463.58468    1924.9851     897.4458   -2514.7817 
18485000    260.20036   -3898.7249   -3452.7504   -3898.7249            0    6411.6984    17.018965    20.046093    20.763097    7083.6162    5893.9215    6768.0506    6573.1231   -402.78583    2664.0002    301.16831   -2790.3753 
18486000    258.83621   -3862.2602   -3418.6238   -3862.2602            0    9191.7122     16.97292    19.991858    20.706923    7026.2776    9240.3397    8117.2935    10217.503    1026.1503    46.824415    444.24103   -2476.7394 
18487000    259.82008   -3839.8413   -3394.5186   -3839.8413            0    10115.254    17.001802    20.025876    20.742158    7062.2065    10739.586    7954.5097    11651.667   -44.732105    1885.2702    720.42331   -2352.6976 
18488000    256.66461   -3831.0215   -3391.1072   -3831.0215            0    6905.9727    17.032579    20.062128    20.779706    7100.6285    8026.3438    6562.0713    6129.5029    1008.8056    726.95586   -336.54677   -2675.9565 
18489000     267.1878   -3856.8676   -3398.9168   -3856.8676            0    7873.6129    17.009437     20.03487    20.751473    7071.7255    6705.1312    7119.1886     9796.519   -341.37308    290.16122   -577.70497   -2586.8807 
18490000    263.94213   -3846.8885   -3394.5007   -3846.8885            0    8327.1636    17.015671    20.042213    20.759079    7079.5041    8879.2432    5193.8884    10908.359    450.67268   -372.62745   -1624.0206   -2534.7435 
18491000    256.58725   -3844.9382   -3405.1564   -3844.9382            0    8323.4624    17.004005    20.028472    20.744846    7064.9526    5299.1998    9165.2418    10505.945    1789.3016   -1534.3658   -977.76862   -2547.5478 
18492000    265.38984    -3854.827   -3399.9579    -3854.827            0     7434.479    17.015909    20.042494     20.75937    7079.8014    6563.7328    9159.0444    6580.6598    800.40914    345.31013    377.94201   -2632.3357 
18493000    272.47872   -3837.3738   -3370.3546   -3837.3738            0    8892.4655    16.969274    19.987563    20.702474    7021.7498    8277.9232    8925.6662     9473.807   -782.71525    763.08076   -2990.0942   -2459.7215 
18494000     261.7405    -3826.247   -3377.6327    -3826.247            0    8596.9874    17.004126    20.028614    20.744994    7065.1034    7770.3746    9276.5094    8744.0782   -785.14088   -230.44287    1124.7123   -2491.8225 
18495000     283.9901   -3848.3013    -3361.552   -3848.3013            0    7833.9134    16.973093    19.992062    20.707134    7026.4926    8758.7951    7721.5045    7021.4405   -270.93432   -1777.8689   -2830.1243   -2558.7781 
18496000     258.5005   -3849.4828   -3406.4217   -3849.4828            0    6197.0275    17.004742     20.02934    20.745745     7065.871     6483.348    5648.6431    6459.0914    1024.6938    710.77529    448.21715   -2767.8275 
18497000    262.76692   -3879.6029   -3429.2294   -3879.6029            0    8956.0582    16.967051    19.984945    20.699763     7018.991    8833.0608    9754.5682    8280.5455    103.48115   -211.85293   -802.60935   -2512.4445 
18498000    277.21754   -3852.9892   -3377.8479   -3852.9892            0    8399.6219    16.903318    19.909875    20.622008    6940.1913    8168.1516    8435.1427    8595.5714   -211.21683   -368.42899    21.826529   -2527.6753 
18499000    245.13855   -3858.9198   -3438.7607   -3858.9198            0    7233.8762    16.925688    19.936225      20.6493    6967.7824    6743.0654    7624.8812    7333.6818    1331.9223   -2129.4158   -389.66169    -2703.669 
18500000    276.40777   -3850.1709   -3376.4174   -3850.1709            0    6641.9996    16.955581    19.971434    20.685769    7004.7654    5719.6277    5866.2135    8340.1578     206.6526   -2097.5819   -866.12514   -2697.8885 
Loop time of 474.139 on 64 procs for 250000 steps with 864 atoms

Performance: 91.112 ns/day, 0.263 hours/ns, 527.271 timesteps/s
99.0% CPU use with 64 MPI tasks x 1 OpenMP threads

MPI task timing breakdown:
Section |  min time  |  avg time  |  max time  |%varavg| %total
---------------------------------------------------------------
Pair    | 21.926     | 27.229     | 32.444     |  49.3 |  5.74
Bond    | 0.25989    | 0.28533    | 0.30221    |   1.2 |  0.06
Kspace  | 202.49     | 209.67     | 217.93     |  24.1 | 44.22
Neigh   | 5.8271     | 6.4368     | 7.4661     |  17.9 |  1.36
Comm    | 103.19     | 111.61     | 117.3      |  36.3 | 23.54
Output  | 1.2154     | 1.2183     | 1.2304     |   0.4 |  0.26
Modify  | 111        | 112.65     | 114.48     |   8.6 | 23.76
Other   |            | 5.04       |            |       |  1.06

Nlocal:        13.5000 ave          20 max           9 min
Histogram: 4 5 14 11 9 10 7 3 0 1
Nghost:        2266.75 ave        2299 max        2223 min
Histogram: 1 4 6 2 9 11 14 4 8 5
Neighs:        4401.11 ave        6525 max        2726 min
Histogram: 2 4 12 10 12 10 9 2 1 2

Total # of neighbors = 281671
Ave neighs/atom = 326.00810
Ave special neighs/atom = 2.0000000
Neighbor list builds = 14229
Dangerous builds = 2

unfix		3
unfix		2
unfix		1

write_data	data.final.${pid}
write_data	data.final.0
System init for write_data ...
PPPM initialization ...
  extracting TIP4P info from pair style
  using 12-bit tables for long-range coulomb (../kspace.cpp:340)
  G vector (1/distance) = 0.3743559
  grid = 24 24 24
  stencil order = 5
  estimated absolute RMS force accuracy = 0.0031502597
  estimated relative force accuracy = 9.4869135e-06
  using double precision FFTW3
  3d grid and FFT values/proc = 2535 216
Last active /omp style is kspace_style pppm/tip4p/omp
WARNING: Not all mixed pair coeffs generated from mixing. Use write_data with 'pair ij' option to store all pair coeffs. (../write_data.cpp:312)

write_restart   restart.lmp.${pid}
write_restart   restart.lmp.0
System init for write_restart ...
PPPM initialization ...
  extracting TIP4P info from pair style
  using 12-bit tables for long-range coulomb (../kspace.cpp:340)
  G vector (1/distance) = 0.3743559
  grid = 24 24 24
  stencil order = 5
  estimated absolute RMS force accuracy = 0.0031502597
  estimated relative force accuracy = 9.4869135e-06
  using double precision FFTW3
  3d grid and FFT values/proc = 2535 216
Last active /omp style is kspace_style pppm/tip4p/omp
Total wall time: 0:07:56
