#include		in.partitions
include		in.temp
variable        temperature equal 120.04
variable	tempDamp equal 100.0
include		in.pressure
variable        pressure equal 4668.8
variable        pressureDamp equal 1000.0 # This is 1 ps
include		in.seed
variable        seed equal 745823

units		real
atom_style	full

read_restart	restart.lmp.${pid}
read_restart	restart.lmp.1
Reading restart file ...
  restart file = 30 Jul 2021, LAMMPS = 30 Jul 2021
  restoring atom style full from restart
  orthogonal box = (0.10778855 0.059311479 0.0075118752) to (19.892212 19.940690 20.692486)
  4 by 4 by 4 MPI processor grid
  restoring pair style lj/cut/tip4p/long/omp from restart
  restoring bond style harmonic/omp from restart
  restoring angle style harmonic/omp from restart
  972 atoms
  648 bonds
  324 angles
Finding 1-2 1-3 1-4 neighbors ...
  special bond factors lj:    0        0        0       
  special bond factors coul:  0        0        0       
     2 = max # of 1-2 neighbors
     1 = max # of 1-3 neighbors
     1 = max # of 1-4 neighbors
     2 = max # of special neighbors
  special bonds CPU = 0.006 seconds
  read_restart CPU = 0.018 seconds
include 	in.setup
variable	out_freq equal 1000
variable	out_freq2 equal 10000
variable	out_freq3 equal 1000

timestep	2.0

neigh_modify    delay 7 every 1

include		in.tip4p
# This is TIP4P/Ice

# create groups ###
group ox type 2
324 atoms in group ox
group hy type 1
648 atoms in group hy

# set charges - beside manually ###
set group ox charge -1.1794
Setting atom values ...
  324 settings made for charge
set group hy charge 0.5897
Setting atom values ...
  648 settings made for charge

# ### TIP3P Potential Parameters ###
pair_style lj/cut/tip4p/long/omp 2 1 1 1 0.1577 8.5
pair_coeff 1 1*2 0.000 0.000
pair_coeff 2 2 0.21084 3.1668
bond_style  harmonic
bond_coeff  1 450 0.9572
angle_style harmonic
angle_coeff 1 55 104.52
kspace_style pppm/tip4p/omp 1.0e-5
pair_modify tail yes

thermo          ${out_freq}
thermo          1000
thermo_style    custom step temp pe etotal epair emol press lx ly lz vol pxx pyy pzz pxy pxz pyz enthalpy

restart 	${out_freq3} restart.lmp.${pid} restart2.lmp.${pid}
restart 	1000 restart.lmp.${pid} restart2.lmp.${pid}
restart 	1000 restart.lmp.1 restart2.lmp.${pid}
restart 	1000 restart.lmp.1 restart2.lmp.1


include         in.dump
dump            myDump all atom ${out_freq2} dump.water.${pid}
dump            myDump all atom 10000 dump.water.${pid}
dump            myDump all atom 10000 dump.water.1
dump            myDump2 all dcd ${out_freq2} dump.dcd
dump            myDump2 all dcd 10000 dump.dcd
dump_modify     myDump append yes
dump_modify     myDump2 append yes


variable natoms 	equal  "count(all)"                        # NUMBER ATOMS
variable H      	equal  "enthalpy/v_natoms"                 # ENTHALPY-per-atom
variable Vol      	equal  "vol/v_natoms"                 # volume-per-atom
fix AVG all 		ave/time ${out_freq} 1 ${out_freq} v_Vol v_H file vol_enthalpy.dat
fix AVG all 		ave/time 1000 1 ${out_freq} v_Vol v_H file vol_enthalpy.dat
fix AVG all 		ave/time 1000 1 1000 v_Vol v_H file vol_enthalpy.dat


timer           timeout 02:55:00 every 1000
New timer settings: style=normal  mode=nosync  timeout=02:55:00

fix 		1 all shake 1e-6 200 0 b 1 a 1
       0 = # of size 2 clusters
       0 = # of size 3 clusters
       0 = # of size 4 clusters
     324 = # of frozen angles
  find clusters CPU = 0.002 seconds
fix             2 all nph aniso ${pressure} ${pressure} ${pressureDamp}
fix             2 all nph aniso 4668.8 ${pressure} ${pressureDamp}
fix             2 all nph aniso 4668.8 4668.8 ${pressureDamp}
fix             2 all nph aniso 4668.8 4668.8 1000
fix             3 all temp/csvr ${temperature} ${temperature} ${tempDamp} ${seed}
fix             3 all temp/csvr 120.04 ${temperature} ${tempDamp} ${seed}
fix             3 all temp/csvr 120.04 120.04 ${tempDamp} ${seed}
fix             3 all temp/csvr 120.04 120.04 100 ${seed}
fix             3 all temp/csvr 120.04 120.04 100 745823


run             250000
PPPM initialization ...
  extracting TIP4P info from pair style
  using 12-bit tables for long-range coulomb (../kspace.cpp:340)
  G vector (1/distance) = 0.37301247
  grid = 24 24 25
  stencil order = 5
  estimated absolute RMS force accuracy = 0.0033344511
  estimated relative force accuracy = 1.00416e-05
  using double precision FFTW3
  3d grid and FFT values/proc = 2366 288
Last active /omp style is kspace_style pppm/tip4p/omp
Neighbor list info ...
  update every 1 steps, delay 7 steps, check yes
  max neighbors/atom: 2000, page size: 100000
  master list distance cutoff = 10.8154
  ghost atom cutoff = 10.8154
  binsize = 5.4077, bins = 4 4 4
  1 neighbor lists, perpetual/occasional/extra = 1 0 0
  (1) pair lj/cut/tip4p/long/omp, perpetual
      attributes: half, newton on, omp
      pair build: half/bin/newton/omp
      stencil: half/bin/3d
      bin: standard
Per MPI rank memory allocation (min/avg/max) = 9.230 | 9.233 | 9.240 Mbytes
Step Temp PotEng TotEng E_pair E_mol Press Lx Ly Lz Volume Pxx Pyy Pzz Pxy Pxz Pyz Enthalpy 
10500000    127.27329   -5004.2266   -4758.7694   -5004.2266            0    4361.1824    19.784424    19.881378    20.684974    8136.2611    5950.2671    4566.5259    2566.7541     -248.582    111.42428   -80.707051   -4241.2758 
10501000    122.66163   -5019.0969   -4782.5337   -5019.0969            0    4189.5934    19.866133     19.85163    20.700226    8163.6546    4760.0136    4422.4577     3386.309    35.580226    207.99116    489.20201   -4283.7269 
10502000    118.67105   -5006.5758   -4777.7087   -5006.5758            0    4849.3051    19.961782    19.805031    20.610203    8148.1146    4559.3732    4852.6388    5135.9032    59.407274   -877.53032    535.28953   -4201.4566 
10503000     119.5651   -5012.8176   -4782.2262   -5012.8176            0    4406.1303    20.056587    19.901703    20.415067    8148.8831    4116.7334    4601.3727    4500.2849   -397.20909    51.643786   -299.28911    -4258.588 
10504000    112.17709   -5012.7342   -4796.3912   -5012.7342            0    4109.3166    19.785296     19.94694    20.636669    8144.3872    4457.2232    3575.9885    4294.7379    99.275078   -580.89885    532.43831   -4308.2968 
10505000    115.27065   -4999.7834   -4777.4743   -4999.7834            0    4239.1549    19.953096    19.889771    20.507542    8138.6747    3629.2605    5200.7431    3887.4611   -188.19185   -398.28953    1096.7135   -4274.3111 
10506000    125.33257   -5010.9196   -4769.2052   -5010.9196            0    3811.6819    19.921969    19.928945    20.620008    8186.6346    3498.4267    4129.8894    3806.7295    155.86277    729.72519   -285.90758   -4314.1145 
10507000    116.88788    -5000.443   -4775.0149    -5000.443            0     5658.773    19.835016    19.918722    20.467571    8086.4952    4405.7934    7098.0199    5472.5059   -319.57571    959.87051   -540.18545   -4107.6575 
10508000    121.08288   -5004.9952   -4771.4767   -5004.9952            0     4111.977    19.945121    19.927167    20.488622    8143.1976    4180.1637    3657.0615    4498.7059   -232.13518   -150.03769    -53.63887   -4283.1375 
10509000    125.33185   -5000.8623   -4759.1493   -5000.8623            0    5547.0091     19.83863    19.977279    20.451453    8105.3574    5939.1935    4344.4558    6357.3779     237.4672    254.44106    646.20223   -4103.4466 
10510000    120.66665   -4999.7209   -4767.0052   -4999.7209            0     4281.666    19.807523    19.885755    20.614887    8119.9473    4576.0783    3997.7149    4271.2049    171.56419   -422.53649    418.96165   -4259.9655 
10511000    117.76922   -5005.1296   -4778.0018   -5005.1296            0    3440.7176    19.889503    19.869911    20.602886     8142.315    3934.7235    2944.0174    3443.4119   -242.77629    7.9624845   -221.45507   -4369.4258 
10512000    128.07213   -5009.8419    -4762.844   -5009.8419            0    3365.8821    19.967318    19.806684     20.78012    8218.2537    2272.8475    4197.4324    3627.3663    162.45373    15.700693   -85.415636   -4359.4269 
10513000    123.48647     -4999.14    -4760.986     -4999.14            0    3554.7289    19.935665    19.863524      20.6287    8168.8119    3473.9644    3913.4394    3276.7829    -235.4514    654.90442   -44.478792   -4337.4978 
10514000    119.26785   -5008.5467   -4778.5286   -5008.5467            0    5559.7187    19.989509    19.772208    20.474409    8092.2386    4616.5319    5450.4353    6612.1889    126.40847   -919.78718    309.70055   -4122.3873 
10515000    115.24037   -5003.5818   -4781.3311   -5003.5818            0    4598.6322    19.878036     19.92553    20.549577    8139.2846    4285.5219    4779.3943    4730.9803    -347.2775    1501.5628   -210.51695   -4235.4591 
10516000    120.86853   -5006.6815   -4773.5764   -5006.6815            0    5024.1112    19.806784    20.032547    20.472911    8123.2483    4217.2563    6063.1229    4791.9544   -125.81266    714.52819    661.21263   -4178.3737 
10517000    115.07312   -4999.1457   -4777.2175   -4999.1457            0    3757.0611    19.899325    19.894259    20.632775     8168.151    4041.9553    3436.3527    3792.8751   -445.69158    992.14674    509.58838   -4329.6609 
10518000    115.84293   -5012.2993   -4788.8865   -5012.2993            0    3436.3728    19.791638    19.948781    20.726675    8183.2862    3678.5416    2893.2993    3737.2775    -218.0384    21.107031   -214.66666   -4378.7732 
10519000    118.34816   -5006.0896   -4777.8452   -5006.0896            0    3269.1551    19.954648    19.962249    20.503491    8167.3535    2803.7645    3155.7455    3847.9553   -431.70002    350.32561    887.98618    -4388.448 
10520000    121.40546   -5014.9764   -4780.8357   -5014.9764            0    2972.6656    20.072958    19.910548    20.437506     8168.127    2648.7941     2798.273    3470.9297   -239.72477    33.427163   -307.67829   -4426.7206 
10521000     121.3523    -5022.247   -4788.2089    -5022.247            0    4793.1975    19.799671    19.908756    20.612856    8125.3161    4366.3196    5068.9167    4944.3562   -101.99404    47.811646   -362.46735   -4220.2178 
10522000    119.73905    -5005.275   -4774.3482    -5005.275            0    4984.1999    19.924242     19.85787    20.487219    8105.8296    4102.6952    5609.8194    5240.0852    147.82594   -30.918906   -102.17689   -4185.1399 
10523000    117.04466   -5011.7906   -4786.0601   -5011.7906            0    4996.0898    19.848741    19.932375    20.505778    8112.7531    5102.0518     5002.556    4883.6615    24.724713   -815.65448    213.22299   -4194.9419 
10524000    128.39177   -5000.1588   -4752.5445   -5000.1588            0     3889.604    19.883643    19.973355    20.540282    8157.4305    4957.9133    2300.2996    4410.5991   -404.32447    396.15234    687.13164    -4289.807 
10525000    124.94145   -5006.2836   -4765.3235   -5006.2836            0    3637.7724    19.822018    19.936418    20.647471    8159.4685    3378.9973    3692.2776    3842.0423    142.26832    160.23911   -254.41489   -4332.4378 
10526000    125.89115   -5006.0729   -4763.2812   -5006.0729            0    3844.5862    20.028637    19.759404    20.654125    8173.9511    2873.7166    5093.7389     3566.303    40.299601    364.76252   -822.89553   -4304.9731 
10527000    123.80525   -5002.7183   -4763.9494   -5002.7183            0    3516.9304    19.985476    19.904783    20.623254    8204.0656    3587.5273    3730.4974    3232.7664    152.20445   -5.8863448    353.80286   -4343.1562 
10528000    118.00594   -5008.8229   -4781.2386   -5008.8229            0    5128.3246    19.687207    19.819226    20.798103    8115.1122    6116.9826    5213.6696    4054.3215    175.31134    271.11838    1134.4779   -4174.2983 
10529000    125.37747   -5012.2695   -4770.4685   -5012.2695            0    5794.9272    19.759309    19.866524    20.619656    8094.2214    4560.4314    6464.3909    6359.9592     33.42131   -192.50069   -592.30218    -4086.401 
10530000    120.12712   -4998.6542    -4766.979   -4998.6542            0    5323.2778     19.83558     19.87776    20.590167    8118.4327    6768.1001    3816.5426    5385.1906    -41.36046   -571.81707    73.532695   -4136.7081 
10531000    125.62164   -5008.6982   -4766.4263   -5008.6982            0    3717.6253    19.886463    19.945625    20.615211    8176.9806    3044.6239    3867.2806    4240.9713   -346.71208   -438.01244   -139.58734   -4323.0888 
10532000    118.81115   -4996.3959   -4767.2587   -4996.3959            0    4112.4923    19.804097    19.927191    20.559992    8113.7955    5167.4376    2984.2127    4185.8266   -465.90778    888.69242     620.5842   -4280.6217 
10533000    116.55181   -5000.0679   -4775.2879   -5000.0679            0    5129.5305    19.996552    19.939132    20.431505    8146.3246     5266.256    5281.8776     4840.458    -250.8898   -830.12885    461.37022     -4165.87 
10534000    116.02713   -5007.2791    -4783.511   -5007.2791            0    4030.0818    19.900897    19.995912    20.493997     8155.311    4021.4905    4185.2916    3883.4632   -453.84594    316.30163    62.046941   -4304.1858 
10535000    115.87048   -5024.6202   -4801.1542   -5024.6202            0    3055.4293    19.769168    20.017713    20.668561    8179.2426    3151.2443    3310.4894    2704.5543   -355.47609    908.11843    -200.6336   -4436.6847 
10536000    120.49379   -5019.3771   -4786.9947   -5019.3771            0    4970.3398    19.797823    19.870014    20.553301    8085.3195    5129.0201    4671.2029    5110.7965   -493.54872   -143.40234   -253.15391   -4200.9117 
10537000      119.067   -5003.9801   -4774.3494   -5003.9801            0    4432.6203    19.977117    19.843904    20.470881    8115.1484    6012.8258    3303.6877    3981.3473   -71.436842   -125.66602    155.51497   -4249.7438 
10538000    124.53986   -5002.6582   -4762.4726   -5002.6582            0    5490.0055    20.022144    19.726085    20.469699    8084.6821    4561.7907    6146.0537    5762.1722    269.29199   -733.50576    105.31817   -4115.1637 
10539000    118.58294   -5009.6808   -4780.9836   -5009.6808            0    4541.1634    19.833203    20.064823      20.4324    8131.0676    5286.4305    3526.7742    4810.2855   -295.51065     835.9897    621.72441   -4242.4775 
10540000    120.45372    -5013.573   -4781.2679    -5013.573            0    4326.7429    19.978629     19.94135    20.480984    8159.6413    4437.2983     3981.046    4561.8844   -398.00365   -260.36836   -227.34179   -4266.3855 
10541000    116.74053   -5005.9908   -4780.8468   -5005.9908            0    3827.5252    19.929514    19.956916    20.668422    8220.4856    3377.5239    4383.8245    3721.2271   -124.46892     92.57821   -202.62995    -4321.975 
10542000    119.85078   -5015.5857   -4784.4433   -5015.5857            0    4160.6529    19.821147     19.85769    20.636466    8122.5585    4784.0082    3578.2685     4119.682   -296.65076    403.53594   -432.47457   -4291.5758 
10543000    124.66281   -5006.6713   -4766.2486   -5006.6713            0    5254.9544    19.839156    19.789154    20.676849    8117.7333    5986.0769    5114.8337    4663.9528   -785.20655    620.81698   -1226.8301   -4144.1208 
10544000    117.08823   -5017.9114   -4792.0969   -5017.9114            0    4241.2428    19.992092    19.782578     20.63077    8159.3688    3439.4005    4873.6748    4410.6533   -142.26628     387.0806   -539.53612   -4287.4059 
10545000    118.52118   -5022.3565   -4793.7785   -5022.3565            0     4410.305    19.863843    19.951078    20.452411    8105.3941    5881.2416    2807.9371    4541.7364    -849.1868    56.419843    669.68327   -4272.4414 
10546000    120.49688   -5014.3404    -4781.952   -5014.3404            0    3815.8407    19.835917    19.962757     20.54324    8134.7036     3565.697    4085.7067    3796.1184    -249.0076   -61.841213   -1156.0905   -4329.2548 
10547000    116.81713   -5004.2368   -4778.9452   -5004.2368            0    4619.8146     19.85043     19.94468    20.555617    8138.1842    4803.3401    4553.3829    4502.7206   -87.420559   -215.47107    209.42003   -4230.6329 
10548000    114.51459   -5009.5411   -4788.6901   -5009.5411            0    5256.1116    19.910187    19.898724    20.430868    8094.4509    5963.4997    4289.4582     5515.377    755.28626   -624.89714   -38.951756     -4168.21 
10549000    120.09528   -5006.0207   -4774.4068   -5006.0207            0    3077.7406    19.874567    20.037714     20.51486    8169.8561    3087.4101    2276.9584    3868.8534   -55.519005    277.34703   -853.16936   -4407.6972 
10550000    118.31391   -5015.4473   -4787.2689   -5015.4473            0    4643.2345    19.863047    19.927479    20.617045    8160.6479    5316.1529    4533.3021    4080.2485     70.41513   -364.91709    306.02714   -4234.6559 
10551000    123.17174   -4980.7256   -4743.1785   -4980.7256            0    4240.7102    19.936562    19.709462    20.721964     8142.466    3072.6034    6674.7903    2974.7367   -293.58811   -374.50201   -225.87274   -4239.5962 
10552000    117.99627   -5012.9202   -4785.3544   -5012.9202            0    5135.6028    19.880457    19.884233    20.494997    8101.8289    5346.1998    5169.3073    4891.3012    268.64293    151.40502    107.37361   -4178.5477 
10553000    118.54294   -5027.6736   -4799.0536   -5027.6736            0    4220.2732    19.931499      20.0074     20.42409    8144.6672    3803.3882    4220.2926    4637.1389    -234.8763    162.55051    797.47981   -4297.7627 
10554000    126.92764   -5010.4685   -4765.6778   -5010.4685            0    3622.7205    20.000461    19.986454    20.483447    8188.0184    1759.3372    4453.0892     4655.735   -545.08201    600.60948   -150.87737   -4333.0748 
10555000    119.40704   -5007.1335    -4776.847   -5007.1335            0    5183.0448    19.885684    19.907772    20.514595    8121.3111     5184.585    4762.0937    5602.4558   -495.95901     568.4825    231.95012    -4162.962 
10556000    124.57366   -4997.5655   -4757.3147   -4997.5655            0    4773.5686     19.93709    19.851632    20.589818     8149.116    3668.8655    5759.9342    4891.9061   -214.75819    219.03316    303.52084   -4189.9928 
10557000     118.0805   -5021.0802    -4793.352   -5021.0802            0    4261.5103    20.032768    19.929693    20.426334     8155.151    3882.5757    3601.3627    5300.5926   -121.85148   -144.91933   -567.05583   -4286.5113 
10558000    118.78327   -5000.6365    -4771.553   -5000.6365            0    5114.7964    19.891055    19.899938    20.476782    8105.3402    5718.2215    5031.1234    4595.0442   -120.40849    970.23469     163.4489   -4166.9428 
10559000    120.20509   -5013.9531   -4782.1275   -5013.9531            0    4709.5988    19.801916    19.978121    20.541668    8126.3882    5134.9297    4110.0971    4883.7697   -352.93435   -821.11647    647.85381   -4223.9692 
10560000     115.9112   -5003.1644   -4779.6199   -5003.1644            0    4551.8533    19.821368    20.046232    20.471586    8134.2567    4925.9115    3452.7402    5276.9082   -224.24088    850.95412   -526.70421   -4239.6345 
10561000    122.87594   -5001.8782   -4764.9016   -5001.8782            0    6083.3654    19.911905    19.786193    20.460616    8061.0897    5980.8857    6632.7056    5636.5048   -429.08673   -726.04104    161.09975   -4049.7246 
10562000    122.91927   -4994.9494   -4757.8892   -4994.9494            0    3341.9858    19.963851    19.996519    20.525922    8194.1025    2977.9166    2908.7977     4139.243   -401.24749   -290.92898    527.95788   -4358.5133 
10563000    122.93557   -5001.5818   -4764.4902   -5001.5818            0    3585.6765    19.968906     19.77408    20.598294    8133.5809    2289.8347    4737.1038     3730.091   -206.54654    311.53626    550.47797   -4339.1575 
10564000    119.62843   -5005.7797   -4775.0662   -5005.7797            0    5116.8366    19.748869    20.050608     20.50715    8120.3562    4400.7703    5941.3682    5008.3712    -143.3166   -133.72453    704.56606   -4169.0943 
10565000    123.29064   -5017.9974    -4780.221   -5017.9974            0    5018.9253     19.95646    19.938637    20.425205    8127.2836    5687.4165    3477.8921    5891.4671   -154.17313    -523.0453    564.49216   -4185.3373 
10566000    123.19923   -4994.4459   -4756.8458   -4994.4459            0    4219.5597    19.974417    20.016695    20.366066    8142.7975    4438.0204    2972.8368    5247.8219   -170.23126     1027.153    976.29574   -4255.7547 
10567000     113.1903   -5003.4823   -4785.1853   -5003.4823            0    4780.8613    19.928393    19.922758    20.542531    8155.9714    5672.2659     3775.616    4894.7019   -272.03514    1871.3785    840.76529   -4216.5187 
10568000    126.34372   -5023.7353   -4780.0708   -5023.7353            0    4342.5282    19.804067    20.039997    20.555824    8158.0607    4862.0869    3168.9354    4996.5625    122.43245    36.859149    424.93798     -4263.41 
10569000    114.97018   -5015.9894   -4794.2598   -5015.9894            0    3613.1434    19.914368    19.914769    20.558652    8153.3567    1986.0783      4490.77    4362.5819   -343.57911   -323.49357   -630.79155   -4364.6269 
10570000    121.94124    -5008.963   -4773.7891    -5008.963            0    3947.0088    19.933174    19.859885    20.640915      8171.13    4130.8175    3758.8306    3951.3781   -49.249694    566.90282    525.16322   -4303.4337 
10571000    124.05714   -5016.3857    -4777.131   -5016.3857            0    3629.9278    19.957883    19.936628    20.567889    8183.8167    3246.9397    3957.2859    3685.5578    91.973397   -298.98808    285.11813   -4343.8898 
10572000    124.18327   -4988.1172   -4748.6193   -4988.1172            0    4326.0868    19.806575    19.979746    20.616182    8158.4487    4319.4089    3484.2948    5174.5565   -420.62668    767.07701    1078.6825   -4233.8903 
10573000    115.49092   -5017.1773   -4794.4433   -5017.1773            0    3444.0695    19.958793    19.835599    20.555306     8137.735    2911.8638    3926.6836    3493.6611   -647.63822     171.5728   -158.41212   -4385.6994 
10574000    115.36067   -5007.9167   -4785.4339   -5007.9167            0    5244.0705    19.968319    19.823912    20.458684    8098.5744    3930.4305     6061.924    5739.8571    203.37357    1281.4077    636.25699   -4166.0599 
10575000    116.53782   -5002.8748   -4778.1219   -5002.8748            0     5051.159    19.937096    19.852663    20.421382    8082.8743    5050.9879    6166.4993    3935.9898   -606.41554    453.92242    122.61627   -4182.6891 
10576000    121.38342   -5013.7142   -4779.6161   -5013.7142            0    4627.7551    19.847368    19.914644     20.65452    8163.7662    5129.6201    4176.3971    4577.2481   -2.8662021    667.75814    498.90149   -4228.6348 
10577000    115.21371   -5018.9678   -4796.7684   -5018.9678            0     4542.143    19.780648    19.949314    20.601123    8129.4165    4736.3373    4606.6769    4283.4149    197.49114   -745.94881   -873.45231   -4258.2556 
10578000    120.99469   -4993.4809   -4760.1325   -4993.4809            0    4978.0317    19.883407    19.996175    20.528686    8162.0434    5362.2003    4895.7776    4676.1173   -56.447365    25.789509   -190.60651   -4167.5723 
10579000    120.25233   -5014.2543   -4782.3375   -5014.2543            0    5934.0465    19.844612    19.841948    20.518578    8079.3083     6438.932    5746.1477    5617.0599   -297.51156    1313.0668   -195.65481   -4083.1382 
10580000    123.19722   -5003.5502    -4765.954   -5003.5502            0    4660.5861    19.992694       19.784    20.540525    8124.5057    4028.7365     5794.227    4158.7948   -271.58159    450.02929    1209.4106   -4213.7325 
10581000    124.14429   -5012.3617    -4772.939   -5012.3617            0    4224.2842    19.802072    19.867083    20.681994    8136.4905    6385.4927    2789.2942    3498.0658   -341.83765   -212.59101    299.68882   -4271.6754 
10582000    123.07714   -5020.1695   -4782.8049   -5020.1695            0    5405.4245    19.593117    19.866685    20.735656      8071.36    6080.8136    5724.2138     4411.246    253.82463   -246.36339   -218.05643   -4146.5188 
10583000    121.01716    -5005.609   -4772.2172    -5005.609            0    3957.1719     19.91162    19.888374    20.596532    8156.4275    3601.7112    4394.8729    3874.9318   -571.52399    770.05532   -820.11862   -4301.4993 
10584000    128.37613   -5010.5843   -4763.0001   -5010.5843            0    3218.8823    20.013826     19.79083    20.718257    8206.2992    4009.8537    2688.5836    2958.2095   -162.78321   -242.08733    -18.41031   -4377.7628 
10585000    121.38657   -5016.9695   -4782.8653   -5016.9695            0    5754.5057    19.905149    19.746615    20.624123    8106.5035    6519.9632    5486.4233    5257.1306    480.92793   -17.122094   -1537.8488   -4102.5387 
10586000    116.34404   -5011.5046   -4787.1253   -5011.5046            0    3851.0099    19.940087    19.756869    20.730921    8167.0226    3139.6535    4807.4213    3605.9549   -167.29429     519.6758     429.5141   -4328.4405 
10587000    124.25444   -5020.1149   -4780.4798   -5020.1149            0    4699.0225    19.671539    19.949416    20.721684    8131.9289    6683.6197    3254.2545    4159.1934   -813.92193    485.36453   -226.44573   -4223.1952 
10588000    119.63956   -5008.8468   -4778.1119   -5008.8468            0     4125.961    19.812303    19.873148    20.680716    8142.6766    2786.2717    5106.9984    4484.6128   -171.08022    682.95502    525.48575   -4288.1433 
10589000    113.12072   -5017.6319    -4799.469   -5017.6319            0    2591.1528    19.985928    19.792477    20.731168    8200.6491    2129.9513    3005.1066    2638.4005   -457.26498   -211.49501   -296.44331   -4489.5722 
10590000    117.30712    -5003.945   -4777.7084    -5003.945            0    5102.9264    19.850039    19.857942      20.5205    8088.7896     6716.392    3761.3242    4831.0631    122.58511    -223.9592    -129.5443    -4175.733 
10591000    119.70301   -5013.6859   -4782.8285   -5013.6859            0    4470.0006    19.819094    19.981506    20.518412    8125.6063    4485.0827    3826.6244    5098.2948    99.226512   -109.91045     -204.784   -4253.1172 
10592000    121.36354   -5014.8988    -4780.839   -5014.8988            0    4523.4877    20.001545    19.804545    20.572295    8149.1281     4397.987    5034.4561    4138.0199   -716.20097    1094.7215   -363.88562   -4243.2375 
10593000     122.3425   -5003.3926   -4767.4448   -5003.3926            0    4262.3614    19.953089    19.804461    20.573492    8129.8246    4406.2713    4512.4768    3868.3361   -224.69211    623.46986   -5.3907693   -4262.0772 
10594000    122.66979   -5017.2659   -4780.6869   -5017.2659            0    3214.7933    19.945372    19.899268     20.62645     8186.603     4452.302    1716.6786    3475.3993    191.76868    444.73098   -191.26002   -4396.8624 
10595000    113.31787   -5015.9778   -4797.4348   -5015.9778            0    4230.0121    19.932075    19.751153    20.657242    8132.3733    3136.1909    5576.1001    3977.7451   -266.34713   -106.92036   -98.984927   -4295.7455 
10596000    119.05987   -5001.2985   -4771.6816   -5001.2985            0    5246.8181    19.947953     19.74529    20.597853    8113.0437    5196.6498    5451.5934    5092.2112   -439.94022    848.93902   -228.50865   -4150.8758 
10597000    122.65396   -5016.9705    -4780.422   -5016.9705            0    4911.4764    19.814919    19.942854     20.59275    8137.5553     5213.067    5115.6027    4405.7595   -409.29368    582.67726    45.991002   -4197.5383 
10598000    123.09393   -5014.0598   -4776.6628   -5014.0598            0    5002.0981    19.935456    19.918065    20.531633    8152.6129    5491.7045    4190.1688    5324.4211    73.058593    460.35829   -1272.7612   -4181.9259 
10599000    118.10822   -5009.6429   -4781.8613   -5009.6429            0    3388.8936     20.03196    19.930999    20.502273    8185.6753    1941.2538    3658.3852    4567.0417    274.58623    120.80385    540.05354   -4377.2963 
10600000    120.96019   -5008.9194   -4775.6375   -5008.9194            0    5122.6369    19.845705    19.868948    20.504835    8085.3285    5457.7958    4859.5206    5050.5941    7.2477512   -219.62173    546.15931   -4171.5955 
10601000    115.57912   -5016.8504   -4793.9463   -5016.8504            0    5349.5941    19.983017    19.912399    20.415028    8123.3403    4593.3933    5652.6656    5802.7234    265.78615    341.00777   -194.00565   -4160.1767 
10602000    119.51701   -5006.0145   -4775.5159   -5006.0145            0    4708.6688    19.884711    19.958427    20.425579    8106.2496    5797.5086    3808.6034    4519.8945   -363.48099    790.23274    863.16252   -4218.8508 
10603000    123.27296   -5004.9293   -4767.1871   -5004.9293            0    4357.3948    20.026888    19.767569    20.530545    8127.6915    2345.3896    5723.4331    5003.3616   -485.12385    1196.3808   -265.93064   -4250.6874 
10604000    123.59931   -5005.9401   -4767.5685   -5005.9401            0    4958.5278    19.852523     19.81467    20.599729    8103.3398    5574.5974    4319.4236    4981.5623   -260.58599    876.83987   -364.93152   -4181.5751 
10605000    128.25346   -5005.7114   -4758.3638   -5005.7114            0    5049.0606    19.727844    19.936175    20.762959    8166.0248    6201.7308     4296.719    4648.7321    794.62808   -216.59151    465.35608   -4157.0555 
10606000    115.37635   -5008.4578   -4785.9448   -5008.4578            0    4581.0294     19.80444    19.934311    20.542694    8110.0064     4981.902    4155.1369    4606.0492   -253.64313    574.58775     1546.804   -4244.1184 
10607000    122.45039   -5008.6629    -4772.507   -5008.6629            0    4738.7314    19.774777    19.866925    20.614272     8098.606    4715.6213    5664.5259     3836.047    570.06043    74.894849    425.49815   -4212.8161 
10608000    121.22006   -4998.9228   -4765.1397   -4998.9228            0    4527.2101    19.868279    19.838517    20.591594    8116.3248    4877.2073    5047.1207    3657.3024    227.94843    305.84101     -1103.57   -4229.2616 
10609000     122.3786   -5014.1211   -4778.1037   -5014.1211            0    3720.2491    20.015384    19.850662    20.563185    8170.1364    4626.5763    3171.4404    3362.7307   -249.49857    664.99157   -536.31224   -4334.8246 
10610000    121.15866   -4998.3154   -4764.6508   -4998.3154            0    4033.6565    20.019969    19.673326    20.666041    8139.5143    3171.8536    5687.2364    3241.8796   -135.50704    420.82267   -376.46002   -4285.8297 
10611000    126.59535   -5005.8752   -4761.7254   -5005.8752            0     5580.111    19.926002    19.780299    20.558005     8102.779    6590.8527    4198.2727    5951.2075     405.7386    255.91553   -24.357288   -4102.3197 
10612000    118.62668    -4999.597   -4770.8155    -4999.597            0    5214.0741    20.067059    19.773117    20.477052    8125.0548      4627.25    5953.6401    5061.3321     655.5451    -301.5668    666.48846   -4152.9707 
10613000    119.51342   -5012.3726   -4781.8809   -5012.3726            0    5633.2849    19.799935    19.860051    20.472908     8050.515    5188.8304    6153.4771    5557.5474   -299.82378   -73.659797    1084.2334   -4120.4853 
10614000    121.28935    -5007.889   -4773.9723    -5007.889            0    3779.4607     19.93184    19.948215    20.562626    8175.7953    5530.1054    2386.0366    3422.2401   -121.42426    381.65618   -396.62772    -4323.326 
10615000    123.10726   -5014.3953   -4776.9726   -5014.3953            0    5307.7342    19.881095    19.841734    20.555533    8108.6519    4544.7256    5337.2464    6041.2306   -288.59366    288.32281   -1019.6857   -4149.2992 
10616000    115.73054    -5012.035    -4788.839    -5012.035            0    5717.3821    19.806832    19.861866    20.634799    8117.7432    6224.5271     5616.151    5311.4683  -0.88522968   -468.95296    934.02312   -4111.9641 
10617000    115.05867   -5010.1197   -4788.2194   -5010.1197            0    5096.9164    19.818328    19.877677    20.603633    8116.6429    4899.7647    5537.3676    4853.6168    599.53766   -150.81168    39.598204   -4184.8826 
10618000    116.04436   -5016.2212   -4792.4199   -5016.2212            0     3329.141     19.96007    19.877641    20.694202    8210.6129    2351.7701    4435.2966    3200.3564   -353.44677   -488.94333   -808.94735   -4393.7773 
10619000    115.34539   -5011.7449   -4789.2916   -5011.7449            0    4309.4795    19.934673    19.846426    20.619453    8157.7156     3058.376    5467.9417     4402.121   -472.65797    692.91934   -902.25181   -4276.5846 
10620000    116.71165   -5002.0187   -4776.9305   -5002.0187            0    4910.4135      19.9445    19.752677    20.615515    8121.6317     3443.464    7069.6417    4218.1348   -50.317324   -331.57427    500.99356   -4195.3133 
10621000    115.84725   -5015.6346   -4792.2135   -5015.6346            0    5154.8153    19.908568    19.828689    20.610008    8136.0231    4416.3104    6003.4851    5044.6504   -185.40585    953.31442    -215.3527    -4180.566 
10622000    124.51281   -4999.2999   -4759.1664   -4999.2999            0    5286.7165    19.818692    19.879257    20.460709    8061.1278    3696.9906    5598.8266    6564.3323   -10.336854   -367.29939    467.88487   -4137.6427 
10623000    123.72705   -5014.1525   -4775.5345   -5014.1525            0    4715.4737    19.947638    19.896962    20.452858    8117.6861    3836.9402    4530.0021    5779.4787   -455.23772   -773.02296   -97.345306   -4217.2784 
10624000    114.26081    -4990.927   -4770.5654    -4990.927            0    6039.2862    19.847414    19.960999    20.408432    8085.2945    5283.0294    5857.0022    6977.8271   -149.52386    759.83846    50.619546   -4058.4386 
10625000    116.98252   -4991.5405   -4765.9299   -4991.5405            0    4305.1634     19.90913    20.106276    20.396998    8164.8871    2909.0391    3864.4617    6141.9895   -222.45812   -597.23874    1036.4559    -4253.286 
10626000    112.75206   -5012.8283   -4795.3765   -5012.8283            0    3755.5408    19.954938     19.88203    20.585188    8167.0634    3242.3755    3673.3529    4350.8941   -402.88999    526.41029   -476.18994   -4348.0606 
10627000    121.44151   -5007.8662    -4773.656   -5007.8662            0    6041.2504    19.823014    19.880695    20.412449      8044.45    6145.5602    5964.0328    6014.1583    151.37915   -731.13199    937.40954   -4064.8962 
10628000    115.80249   -5009.1217   -4785.7868   -5009.1217            0    4659.9173     19.94065    19.832103    20.650011    8166.3573    4288.7448    4546.1082     5144.899    169.56357    305.84679   -268.28378   -4230.8002 
10629000    125.53744   -5001.7077   -4759.5982   -5001.7077            0    4387.4245    19.740353     19.88909    20.830654    8178.4826    6144.3007    3577.8386    3440.1342    153.39591     52.81786    359.22869   -4236.2891 
10630000    116.81316   -5022.2065   -4796.9225   -5022.2065            0    5141.9962     19.80255    19.885342    20.637293    8126.5632    5058.2144    5699.2376    4668.5365   -443.56439    37.150746    683.80826   -4187.5055 
10631000    119.37792   -5025.2388   -4795.0084   -5025.2388            0    5204.2755    19.949359    19.783607    20.557285    8113.3498    4367.2496     5857.241    5388.3359   -479.90904   -201.98615    2.8469718   -4179.2131 
10632000    121.22655   -4993.6261   -4759.8305   -4993.6261            0    4686.9749     19.89281    19.857904    20.494252    8095.8348    4422.4975    5489.4562    4148.9711   -284.28576   -103.16732    175.20213   -4206.4419 
10633000    125.19446   -4996.8488   -4755.4008   -4996.8488            0    7176.5129    19.762858    19.891362    20.478536    8050.3211    9045.2211    6154.4221    6329.8955    232.84954    972.69774   -209.98859   -3912.8374 
10634000    114.62605   -5006.6085   -4785.5425   -5006.6085            0    4974.3676    20.025484    19.942538    20.411623    8151.5649    3431.6259    6497.1728     4994.304    121.99541    112.70558   -130.61342   -4194.1787 
10635000    124.58414   -5019.9325   -4779.6615   -5019.9325            0    4664.5089    19.928041    19.781675    20.560671    8105.2226     3202.606    5695.7754    5095.1451   -223.88027    541.76816    55.135567   -4228.2869 
10636000    125.48925   -5016.2725    -4774.256   -5016.2725            0    4489.6563    19.911457    19.857874    20.648314    8164.3268    4245.5838    5049.8129     4173.572   -169.94384    298.23742   -583.60012   -4239.6801 
10637000    120.14425     -5016.58   -4784.8717     -5016.58            0    4619.2338    19.963532    20.001065    20.371083    8134.0087    3287.8104    5381.3838     5188.507    204.09409    214.60089   -703.17384   -4236.9097 
10638000    117.71292   -5011.1273   -4784.1081   -5011.1273            0    3040.0595    19.956351    19.911206    20.478254    8137.1372    2948.8501    3264.8382    2906.4901   -249.57912    180.89057    719.27487   -4423.3387 
10639000    114.70066   -5019.3604   -4798.1505   -5019.3604            0    4622.4787     19.97337    19.858229    20.519429    8138.7393    5701.7449    2613.5858    5552.1053    51.620943      287.719   -945.28037   -4249.4847 
10640000     123.2036   -5010.0789   -4772.4704   -5010.0789            0    5077.9302    19.924354    19.775892    20.636911    8131.3941    4225.0607    5497.4954    5511.2346   -535.57876   -57.977062    447.70586   -4170.2885 
10641000     119.7508   -5004.6892   -4773.7398   -5004.6892            0    5570.7386    19.882642    19.790617    20.528297    8077.6747    5519.6876    5403.7769    5788.7514   -236.00949   -390.59725    66.800381   -4117.4811 
10642000    116.28196    -5002.706   -4778.4465    -5002.706            0    4934.0483    19.911043    19.857107     20.49662    8103.8658    3244.2783    6023.2528    5534.6139   -253.51664    789.82689    947.50469   -4195.3082 
10643000    117.66465   -5007.6463   -4780.7202   -5007.6463            0    5435.5354    19.854271    19.872169    20.553079    8109.1647    4864.5136    5474.4404    5967.6522    205.20185    653.35022    372.71728   -4137.8928 
10644000    121.34004   -5014.6971   -4780.6826   -5014.6971            0    2849.0203    20.087643    19.715797    20.701838    8198.8365    2142.0243    3922.2448    2482.7919   -374.08434    777.31465   -353.05399   -4440.0207 
10645000    121.57826   -5016.0534   -4781.5795   -5016.0534            0    4156.9228    19.914993    19.905193    20.566765    8152.9081    4452.5636    4183.0072    3835.1977   -455.60154   -88.408225    475.90981   -4287.3139 
10646000    111.70522   -5000.7636   -4785.3307   -5000.7636            0    6068.7445    19.785269    19.826827    20.635382    8094.8293    6944.4714    4775.8642    6485.8981    222.95472    831.37549    862.82531   -4068.8864 
10647000    118.93751   -5020.4397   -4791.0587   -5020.4397            0    4553.0953    19.824163    19.946349    20.520525    8114.2194    4600.8649    4509.8627    4548.5583   -218.84511   -11.900733   -340.80224   -4252.2565 
10648000    120.42726   -5019.2057   -4786.9516   -5019.2057            0    4200.5451    19.952135    19.769322    20.555675    8107.9839    3897.3086    4489.1476    4215.1792   -728.48448    392.54403   -372.39896   -4290.2513 
10649000    122.88473   -5004.5071   -4767.5136   -5004.5071            0    5523.5064    19.991135    19.772264    20.565804    8129.0452    4410.1588    6581.2809    5579.0794   -698.05956    776.43068     3.884732    -4112.681 
10650000    117.74065    -5005.398   -4778.3252    -5005.398            0    5186.7124    19.857573    19.754908    20.639415    8096.5234    4479.4756    5957.9368    5122.7248    121.15204    310.71478   -418.41176   -4165.8809 
10651000    123.42238   -4994.9859   -4756.9555   -4994.9859            0    4840.9865    19.799174    19.889095     20.56962    8100.0623    5077.7575    4421.3929    5023.8092   -438.14021   -164.58721    143.94982   -4185.0844 
10652000    124.49751   -5007.4768   -4767.3729   -5007.4768            0    4731.1598    19.900119    19.801141    20.549646    8097.4867    5307.3189     4263.594    4622.5666   -657.21868   -147.19233   -268.61105   -4208.6535 
10653000    117.11608    -5004.115   -4778.2468    -5004.115            0    4760.3293    19.937857    19.798425    20.525748    8102.2963    4316.4377    5134.5186    4830.0314    -44.37303    767.05863   -17.768442   -4215.7487 
10654000    120.65869   -5007.7077   -4775.0073   -5007.7077            0    5148.7924    20.017806    19.799328    20.490056    8121.0103    4868.5854    5659.7698     4918.022    67.010514   -1317.6014    151.68591   -4165.2018 
10655000    118.01663   -5005.0407   -4777.4358   -5005.0407            0     4376.442    20.011248     19.77459    20.522733    8121.1375    2988.9266    5116.5167    5023.8827   -368.67958    135.65205   -446.55383   -4259.0967 
10656000     115.4588    -5009.772      -4787.1    -5009.772            0    4461.0122     19.97594    19.806355    20.512255    8115.6849    3908.8906    4300.6689    5173.4772   -35.166208    576.05738   -265.53747   -4259.0993 
10657000    119.72597   -5001.8598   -4770.9582   -5001.8598            0    5276.3303    19.896698    19.880041    20.510302    8112.7922    6094.4738    4155.5152    5579.0019    134.71944   -260.05229    6.6951919   -4146.6799 
10658000    114.01536   -5013.5704   -4793.6822   -5013.5704            0    5171.3757    19.835588    19.847739    20.585358     8104.282    5157.1711    5417.0408    4939.9153     306.3246   -1.3911346    335.23744   -4182.4636 
10659000    121.51005   -5021.9591   -4787.6167   -5021.9591            0    3942.2261    19.857628    19.872311    20.651241    8149.3299    4195.8187    4045.8152    3585.0443     305.9117   -16.923473    79.561512   -4319.0847 
10660000    120.32301   -5008.2569   -4776.2039   -5008.2569            0    5401.5783    19.847106    19.921935    20.589947    8141.1158    5672.1437    4742.7642     5789.827   -74.327206    166.77217   -753.49713   -4134.8754 
10661000    121.84443   -5021.3439   -4786.3567   -5021.3439            0    4802.4031    19.997769    19.773741      20.5625    8131.0441     5572.553    3716.4449    5118.2114   -346.85286    415.12968   -277.94343   -4216.8736 
10662000     119.2957   -5007.3589   -4777.2871   -5007.3589            0    3670.1489    19.775182    19.939843    20.722204    8171.0557    4935.1221     2803.007    3272.3176   -276.99391    1324.8466   -692.35795   -4339.9284 
10663000    121.19825   -5007.1964   -4773.4554   -5007.1964            0    4232.8536    19.895505    19.836155    20.632298    8142.5429    3040.5953    6377.6143    3280.3511   -485.89316   -161.87403   -776.73842   -4270.8014 
10664000    115.01674   -5010.0948   -4788.2753   -5010.0948            0    4401.7997    19.899345    19.835656    20.648034    8150.1214    3144.3791    6225.5328    3835.4871   -298.26967    786.20844    89.724215   -4265.0723 
10665000    121.68215   -5012.5267   -4777.8525   -5012.5267            0    3919.0946    19.815199    19.911448    20.578101    8119.0753    4300.9159    4263.4722    3192.8957   -57.238034   -88.217576    -76.35621   -4313.7988 
10666000    121.80572   -5005.1384   -4770.2258   -5005.1384            0    4784.0468    19.890532    19.835937    20.667414    8154.2733    5065.1972    4394.8537    4892.0895   -558.39905    541.34461   -666.12809   -4201.2988 
10667000    120.30221   -5009.6928   -4777.6799   -5009.6928            0    4748.4904    19.827267     19.85578    20.656684    8132.2444    5375.4656    5183.7283    3686.2774   -409.44213   -10.905313   -269.26845   -4214.5068 
10668000    123.62301   -5001.2841   -4762.8668   -5001.2841            0    4216.6335    19.809104      19.9333    20.704552    8175.4162     5140.001    2931.1859    4578.7135   -213.15775    373.61504    150.15373   -4260.1173 
10669000    121.92821   -4999.5352   -4764.3864   -4999.5352            0    4183.5967    19.820602    19.774166    20.770878    8140.8524    4421.5335     4417.018    3712.2387     -270.048   -509.77964    784.83433   -4267.6848 
10670000    119.13884   -5003.7917   -4774.0224   -5003.7917            0    4686.1786     20.02253    19.736713    20.618186    8147.8725    5448.4352    4223.1549    4386.9457    -381.8822   -94.618218    -532.3485   -4217.1715 
10671000     115.9605   -4992.6056    -4768.966   -4992.6056            0    3871.3877    19.888397    19.941055    20.584787    8163.8363     4470.927    2771.5735    4371.6626    24.603271    395.17659   -39.423289   -4308.0341 
10672000    118.65153   -5008.4263   -4779.5969   -5008.4263            0     5274.502     19.78907    19.845458    20.582539    8083.2398    4991.6877    5155.8834    5675.9348    -212.2461    1551.8107    764.44605   -4157.8082 
10673000    114.02162   -5006.0237   -4786.1235   -5006.0237            0    5503.5941    19.741893    19.776608    20.793609    8118.4003    7842.8465    4135.6988     4532.237   -282.50545    237.84512   -331.70237   -4134.5059 
10674000    122.29944   -5008.7133   -4772.8485   -5008.7133            0    5409.3243    19.787994    19.807865    20.593562    8071.8095    5655.0492    5168.9607     5403.963   -247.71927    411.26688    337.07238   -4136.0679 
10675000    116.03095   -5003.5853   -4779.8098   -5003.5853            0    3603.8817    19.814455    19.779733    20.717764     8119.802    5026.7508    3802.9234     1981.971    21.616526    570.24232   -352.29583   -4353.0418 
10676000     119.1144   -5020.7897   -4791.0675   -5020.7897            0    3738.4136    19.804847    19.832771    20.693602    8128.1363    3775.0233    5044.8343    2395.3834    411.37535    230.37932    202.07486    -4347.914 
10677000    120.71644   -5006.3859   -4773.5741   -5006.3859            0    5794.1937    19.925715    19.756517    20.623697    8118.7811     3553.494    8200.3851    5628.7018    55.351621   -63.270719    813.51968   -4087.5178 
10678000    122.55453   -5013.4785   -4777.1218   -5013.4785            0    4943.1407     19.90545    19.854525    20.590259    8137.5432     4307.247    6027.7017    4494.4733    174.79917    139.24528    -199.8539   -4190.4811 
10679000     117.5536   -4988.9638   -4762.2518   -4988.9638            0    4400.6952     19.73952    20.011864    20.549885    8117.7101     4083.135    3839.7306      5279.22     332.7566    86.247188   -706.96809   -4241.2602 
10680000    131.67787   -5023.8186   -4769.8668   -5023.8186            0    4375.9208    19.860574       19.959     20.54242    8142.9577     4405.887     3931.472    4790.4032   -930.34569    551.98271   -175.35774   -4250.1969 
10681000    117.10604   -5006.2754   -4780.4266   -5006.2754            0    5002.2049    19.962987    19.997693    20.379387      8135.73    5022.6674    4283.5633    5700.3841    407.01109    -45.55092   -1211.3289   -4186.9086 
10682000    119.90323   -5009.0607   -4777.8172   -5009.0607            0     4559.681    19.977859    19.924852      20.4645    8146.0148    4414.7509    4677.1107    4587.1813   -421.68716   -884.61683    298.42608   -4236.1214 
10683000    114.59866   -5009.8818   -4788.8686   -5009.8818            0    4772.3828    19.921648    19.844972    20.520247    8112.5676    3807.7415    6156.2215    4353.1855   -327.73424    1382.2237    257.52589   -4224.2314 
10684000    115.53499    -5012.949     -4790.13    -5012.949            0    5424.7858    19.732222    19.951772    20.646281    8128.2919    5514.0801    5322.6353     5437.642   -891.48188   -146.12217    419.21101   -4147.0607 
10685000    120.23493   -4996.1806   -4764.2974   -4996.1806            0    5407.6627    19.792054    19.909108    20.572555    8106.4535    6485.6784    4496.5454    5240.7645    227.43231    474.63433    698.15025   -4124.9802 
10686000    122.68563   -5003.3232   -4766.7136   -5003.3232            0    3738.6987    19.851396    19.984755    20.563017    8157.8684    3473.0342    3680.8524    4062.2096    137.28025    613.66024    186.66035   -4321.9052 
10687000    113.85537   -5003.7616   -4784.1819   -5003.7616            0    4482.4202    19.791365    20.057642    20.572655    8166.6882    5961.0862    2744.1189    4742.0554   -147.97153    898.37709    1482.4446   -4250.3133 
10688000    117.81109   -4997.8522   -4770.6436   -4997.8522            0    4575.0319    19.898828     19.92053     20.49828    8125.4198    5246.0713    2733.4621    5745.5622   -218.95287   -996.72675   -23.533564   -4228.4981 
10689000    115.95859   -5017.8617   -4794.2259   -5017.8617            0    4523.5868    19.992084    19.857445    20.591247    8174.5542    2698.6116    5895.2967     4976.852   -185.90535     936.9735   -44.457038   -4254.9352 
10690000    121.70847    -4993.333    -4758.608    -4993.333            0    5145.8826    19.780592    19.847088    20.659157    8110.5196    6312.8215    4187.2949    4937.5315    48.678669    356.89198    546.89762   -4149.9344 
10691000    118.15436   -5006.6697    -4778.799   -5006.6697            0    5020.9526    19.765576    19.977249    20.651002    8154.2925    5765.4542    4320.6157    4976.7879   -421.70748   -123.07727   -324.74805   -4181.6974 
10692000    120.86936   -5002.0029   -4768.8962   -5002.0029            0    4530.9501    20.039651     19.91783    20.332718    8115.7301    3712.9062    4799.5601     5080.384    206.16406    112.67709    680.11218   -4232.6148 
10693000    120.19667   -5005.9316   -4774.1222   -5005.9316            0    4362.5263    19.871139    19.896459    20.602951    8145.6918    5185.3096    3481.2761    4420.9931    110.12309     379.3346    280.77092   -4255.8691 
10694000     122.2277   -5000.4412   -4764.7148   -5000.4412            0    4975.7755     19.86163    19.792687    20.658151    8121.0295    4602.7141    4917.2969    5407.3153    209.96382   -264.70907    1184.3129   -4175.3994 
10695000    121.96336   -5009.3089   -4774.0923   -5009.3089            0     5805.001    19.761367    19.766362    20.704171    8087.2632    6213.3326    5497.0242    5704.6462    118.29209    112.79094    1141.1217   -4089.4248 
10696000    118.19116   -5006.2003   -4778.2587   -5006.2003            0     4943.866    19.896039    19.799866    20.562106    8100.2132    4031.8249    6210.2796    4589.4935   -134.61515    -199.0809   -1480.0184   -4194.2235 
10697000     120.8584   -5009.7101   -4776.6245   -5009.7101            0    5442.9122    19.830972     19.75932    20.638729    8087.2139    6720.4619    5561.9612    4046.3135   -544.14954   -233.76834   -597.72653   -4134.6672 
10698000    126.17489   -5019.5263   -4776.1875   -5019.5263            0     3611.548    19.907935    19.837034    20.649459    8154.7687    3948.3954    2761.3008    4124.9478    7.4585405   -208.84363     613.7805   -4346.6699 
10699000    119.75099   -4996.4731   -4765.5233   -4996.4731            0    5327.8801     19.71667    19.922134    20.680485    8123.2561    6330.4754    4213.0464    5440.1184    136.87465    273.52791    528.74068   -4134.3327 
10700000    115.79013   -5007.2044   -4783.8934   -5007.2044            0    3814.8977    19.913993    19.846914    20.593125    8139.0479    4066.0622    4194.2892    3184.3418    262.71059    449.26258   -198.32769   -4331.0664 
10701000    118.58703   -5008.8675   -4780.1624   -5008.8675            0    4930.4981    19.767684    19.973257    20.544057     8111.308    5008.4924    4219.1312    5563.8706    232.58538   -642.90222   -769.22518   -4196.9086 
10702000    115.00938   -4998.3339   -4776.5286   -4998.3339            0    4837.5523    20.057301    19.862581     20.45315    8148.3253    3931.1225    5700.1922    4881.3422   -610.30877    278.85983    576.03557   -4201.6582 
10703000    117.18882   -5013.9836   -4787.9751   -5013.9836            0    4062.8076    19.883981    19.851762    20.553642    8113.1816    2007.2473    6249.1074    3932.0681    590.87963    115.77781   -1964.5638   -4307.2538 
10704000    117.03464   -5016.8912     -4791.18   -5016.8912            0    4132.2797    19.924963    19.907727    20.656748    8193.7205    5900.5257    2729.5369    3766.7764   -361.44028    572.65996    473.94722    -4297.385 
10705000    117.68008   -5020.2233   -4793.2673   -5020.2233            0    5276.4013    19.766527    19.873603    20.675071     8121.832    5588.2496    5229.4632    5011.4912   -118.05118    235.71064     284.1356    -4168.285 
10706000    118.84771   -5021.6105   -4792.4026   -5021.6105            0    3264.8514    19.881676    19.922062    20.628219    8170.5075    3446.0981    3062.1451    3286.3108   -420.65058   -197.46866    687.20772   -4403.3679 
10707000    122.66912   -5013.1725   -4776.5948   -5013.1725            0     4961.424     19.96348    19.862562    20.531248    8141.1708     4955.272    4752.4265    5176.5735   -26.018442    1123.2965   -134.67518   -4187.5218 
10708000    121.64857   -5010.0054   -4775.3959   -5010.0054            0    3215.4652    20.024425    19.928905    20.502203    8181.7088    2439.7739    3242.8895    3963.7323   -123.18988    1222.5967    1271.9978   -4391.7207 
10709000    119.26535   -5007.2977   -4777.2845   -5007.2977            0    4595.9934    19.952046    20.005483    20.389386      8138.43    5224.5601    2536.5768    6026.8433   -208.04053    544.78896   -685.13355    -4231.783 
10710000    121.90932   -5003.5536   -4768.4413   -5003.5536            0     4152.873     20.05575     19.86871    20.505913     8171.235    3766.9189    4440.2546    4251.4454    349.73989   -98.561138    503.86387   -4273.5472 
10711000    124.45729   -5014.8829   -4774.8565   -5014.8829            0    6079.1401    19.946992     19.76911    20.619151    8130.8379     6962.856    5267.1035    6007.4607   -139.26495    786.70785   -776.07403   -4053.9925 
10712000    120.35083   -5010.7122   -4778.6055   -5010.7122            0    5033.9428    19.883323    19.711814    20.698775    8112.6032    4978.0408    5372.6701    4751.1175   -140.89031    200.96076    78.933825   -4183.0197 
10713000    122.45158   -5002.6656   -4766.5075   -5002.6656            0    3434.8592    19.927609    19.844018    20.648723    8165.4103    2558.4555    4395.6482    3350.4737    72.401302   -440.44688   -222.24009   -4357.4702 
10714000    129.77716   -5022.2158   -4771.9296   -5022.2158            0    4460.2681    19.816136    19.877398     20.61685    8120.8372    4350.6656    4851.9397    4178.1989    254.59608   -193.31201   -296.89176   -4243.6819 
10715000    118.44179   -5028.7732   -4800.3482   -5028.7732            0    5382.2841    19.820632    19.919332    20.540404    8109.6337    5907.4671    5650.9347    4588.4504    284.26688    129.00378    115.08621   -4163.7818 
10716000    114.55622   -5003.0286   -4782.0973   -5003.0286            0    4423.8652    19.799826    19.806846    20.714036    8123.4674     4539.082    4717.4366    4015.0771   -153.93445   -205.21353    352.88563   -4257.9912 
10717000    114.73905   -5014.1879    -4792.904   -5014.1879            0    4879.2078    19.819314    19.790119    20.770809    8146.8633    5184.1219    5511.3844    3942.1171    293.71974    141.30267    160.83542   -4213.1875 
10718000    120.71481   -4998.5236    -4765.715   -4998.5236            0    4556.9186    19.929773     19.81558    20.615657    8141.5355    4556.2333    4960.9425      4153.58    526.12001    191.58381    28.127719   -4224.6449 
10719000    120.15222   -5002.4059   -4770.6822   -5002.4059            0    5021.9895    19.841752    19.906127    20.488956     8092.573    4963.3565    4595.5506    5507.0614   -128.94778    395.71738    581.33744   -4177.9776 
10720000    118.22658   -5018.9611   -4790.9512   -5018.9611            0    5097.3577    19.879683    19.867361    20.507153    8099.4403    5222.3337    5098.1398    4971.5995    -250.4873    410.59321    681.50111   -4188.8409 
10721000    119.17411   -5007.0948   -4777.2575   -5007.0948            0     5810.865    19.812327    19.757195    20.731105    8114.9011    5688.2456    7181.3025    4563.0469   -408.05794    1044.5659     -1057.36   -4089.5561 
10722000     117.3916   -5013.8246   -4787.4251   -5013.8246            0    4734.6436    19.752836     19.94033    20.630013    8125.7096    4635.2626    5281.6645    4287.0036   -410.18881    952.42569    891.17835   -4226.3455 
10723000    116.68248   -5009.6275   -4784.5955   -5009.6275            0    4712.2677    19.908305    19.774394    20.636357    8124.0109      4885.01    5268.1078    3983.6853    524.69653    575.36464   -154.34784   -4226.2843 
10724000    124.63482   -5017.6542   -4777.2855   -5017.6542            0    3680.7851    19.915167    19.787866    20.637359    8132.7429    3775.8149    3788.3443     3478.196   -96.160579    192.86036     78.08387    -4340.716 
10725000    119.09119   -5017.6233   -4787.9459   -5017.6233            0    4640.8401    19.776059    19.873583    20.609807      8100.09    5198.3999    4845.0626    3879.0578    -378.1327    95.357691   -361.54276   -4239.7165 
10726000    120.29978    -5013.621   -4781.6128    -5013.621            0    3506.2725    20.029861    19.924517    20.439425    8157.0742    3204.2683    3027.6373    4286.9118   -39.624825    133.00288    230.58133   -4364.4976 
10727000    123.98662   -4986.3489   -4747.2302   -4986.3489            0     4761.836    19.820627    20.081718    20.429074    8131.4305    5662.7048    3208.0934    5414.7099   -653.90832    -255.3234    553.41639   -4182.5309 
10728000    117.40647   -4993.2029   -4766.7747   -4993.2029            0    4027.4842    19.926563    19.913822    20.511051    8139.0725    3578.5156    3430.5433    5073.3939     242.1939    560.33098    277.23233   -4288.7122 
10729000    125.29505    -5010.522   -4768.8799    -5010.522            0    4385.0106    19.874323    19.906019    20.540497    8126.2041     4093.126    4583.6521    4478.2536    369.78694   -931.00699   -87.831203    -4249.202 
10730000    121.79467   -4997.1212     -4762.23   -4997.1212            0    4439.0851    19.811638    19.905117    20.610008    8127.6182      4200.46    4771.4281    4345.3671   -262.17932    18.160916    442.11882    -4236.052 
10731000     122.4966   -5003.9369   -4767.6919   -5003.9369            0    5102.1984    19.858303    19.827915    20.653245    8132.1897    5231.1501    4664.4781     5410.967   -727.90721    2.4807948    609.37254    -4162.573 
10732000    121.49454    -5009.851   -4775.5386    -5009.851            0    3968.9275    19.833394    19.819931    20.741682    8153.4828    4512.6374    4001.8483    3392.2967   -76.797724    417.96684   -838.93147   -4303.5927 
10733000    116.79909   -5007.8978   -4782.6409   -5007.8978            0     4411.452     19.94165    19.748732    20.645649    8130.7167    3133.5994    6942.1599    3158.5968   -76.936044    1154.2171    343.05354    -4259.539 
10734000    118.20376   -4996.8902   -4768.9243   -4996.8902            0    5021.1342    19.972453     19.79809    20.552414    8126.7619     4150.263     5828.151    5084.9888   -292.47463    788.18282   -546.47171   -4173.8171 
10735000    114.56237   -5009.2713   -4788.3281   -5009.2713            0    4942.2387    19.924617    19.833574    20.599539    8140.4514    4419.0006    5333.5173    5074.1982   -92.808275    388.02597   -552.81363   -4201.5849 
10736000    114.70798   -5007.7815   -4786.5575   -5007.7815            0     4957.174    19.931151    19.733369    20.596659    8100.8465    4734.4491    5537.3483    4599.7246   -34.332036    227.14047    342.20927   -4200.9044 
10737000    118.24644   -5005.4732    -4777.425   -5005.4732            0     4961.896    19.822072    20.005536    20.513445    8134.6305    4130.6231    5176.1701    5578.8947   -137.85711    1190.6339   -187.37457   -4188.7693 
10738000    113.15601   -4987.8646   -4769.6337   -4987.8646            0    3104.2965    19.749661    20.200131    20.463721    8163.9139    3886.7161    1383.3219    4042.8515   -219.34811    467.09203    437.56223    -4400.029 
10739000    118.52468   -5008.6277   -4780.0429   -5008.6277            0    3401.5669     20.01851    19.943858    20.464071     8170.205    4406.2565     1787.672    4010.7721    124.09627    592.96662    809.15908   -4374.7324 
10740000    125.65208   -5011.1893   -4768.8587   -5011.1893            0    4513.6872    19.971853    19.903834    20.418145    8116.5485    3552.5378    4582.7537    5405.7701    360.12342    201.89818   -1276.0419   -4234.5667 
10741000    114.22141   -5004.2903   -4784.0047   -5004.2903            0    4885.6857    19.805204    20.008764    20.482009    8116.5626    5136.4496    3820.2445    5700.3629   -214.39593    513.16449   -221.10126   -4205.6776 
10742000    117.35794   -5004.6467    -4778.312   -5004.6467            0    4714.4144    19.796684    20.110929    20.408505    8125.2326    5385.5179    2903.4703    5854.2551   -489.74818    444.87638    431.71925   -4219.6625 
10743000    121.57694   -5003.5551   -4769.0837   -5003.5551            0    4692.1694    19.933179    19.848748    20.513814    8116.2626    3285.9274    5275.5194    5515.0615     328.1348   -436.32108    302.60244    -4213.684 
10744000    117.16958   -4995.6213   -4769.6499   -4995.6213            0    5178.1935    19.939853    19.921973    20.466416    8130.1039    5337.9199     4837.852    5358.8086   -482.44284    890.71288   -32.694103   -4155.6756 
10745000    126.03986   -5001.7638   -4758.6853   -5001.7638            0    4527.0755    19.917231    19.836694    20.570141    8127.0981    3737.7143    4661.1511    5182.3611    275.08869   -597.91901   -188.13545   -4222.1119 
10746000    121.94055   -5004.2933   -4769.1207   -5004.2933            0    4850.7184     20.04233    19.799042    20.466911    8121.6576    4213.8555    5469.1477     4869.152   -925.56679    449.53818   -822.07752   -4194.5723 
10747000     120.5609   -5016.2132   -4783.7014   -5016.2132            0    4406.1249    19.906637    19.990365    20.546324    8176.2238    4136.3388    4475.8159    4606.2199   -193.79025   -616.73499   -147.02184   -4258.3069 
10748000    124.54861   -5007.6108   -4767.4083   -5007.6108            0    5063.2945    19.946183    19.918325    20.447576    8123.7104    5526.8656    4146.8042    5516.2137   -462.11173   -1130.0468    -331.6583   -4167.5295 
10749000    115.45946   -5011.5279   -4788.8546   -5011.5279            0    4765.5851    19.951209    19.941979    20.470846    8144.6657    3187.3853    6324.4759    4784.8941    11.454579     994.8985   -111.25379   -4222.7908 
10750000    123.68111   -4987.8888   -4749.3594   -4987.8888            0    7418.5793    19.729515    19.996089    20.406893    8050.7875    7776.0316    6605.5787    7874.1277    -627.1205    -610.7362    87.560333   -3878.3256 
Loop time of 365.211 on 64 procs for 250000 steps with 972 atoms

Performance: 118.288 ns/day, 0.203 hours/ns, 684.535 timesteps/s
99.1% CPU use with 64 MPI tasks x 1 OpenMP threads

MPI task timing breakdown:
Section |  min time  |  avg time  |  max time  |%varavg| %total
---------------------------------------------------------------
Pair    | 19.184     | 28.235     | 38.327     |  87.0 |  7.73
Bond    | 0.25599    | 0.27499    | 0.28513    |   1.2 |  0.08
Kspace  | 145.72     | 155.37     | 164.84     |  37.4 | 42.54
Neigh   | 0.88228    | 0.90034    | 0.91481    |   0.8 |  0.25
Comm    | 85.166     | 85.989     | 86.99      |   4.3 | 23.55
Output  | 0.77154    | 0.77301    | 0.77474    |   0.1 |  0.21
Modify  | 84.804     | 86.149     | 89.098     |  11.3 | 23.59
Other   |            | 7.523      |            |       |  2.06

Nlocal:        15.1875 ave          20 max          11 min
Histogram: 1 5 12 8 11 6 10 8 2 1
Nghost:        2295.16 ave        2321 max        2265 min
Histogram: 1 2 3 8 14 11 9 13 2 1
Neighs:        4880.94 ave        6901 max        3197 min
Histogram: 2 8 7 14 4 10 9 6 3 1

Total # of neighbors = 312380
Ave neighs/atom = 321.37860
Ave special neighs/atom = 2.0000000
Neighbor list builds = 2542
Dangerous builds = 0

unfix		3
unfix		2
unfix		1

write_data	data.final.${pid}
write_data	data.final.1
System init for write_data ...
PPPM initialization ...
  extracting TIP4P info from pair style
  using 12-bit tables for long-range coulomb (../kspace.cpp:340)
  G vector (1/distance) = 0.37213589
  grid = 24 24 24
  stencil order = 5
  estimated absolute RMS force accuracy = 0.0035146153
  estimated relative force accuracy = 1.058416e-05
  using double precision FFTW3
  3d grid and FFT values/proc = 2197 216
Last active /omp style is kspace_style pppm/tip4p/omp
WARNING: Not all mixed pair coeffs generated from mixing. Use write_data with 'pair ij' option to store all pair coeffs. (../write_data.cpp:312)

write_restart   restart.lmp.${pid}
write_restart   restart.lmp.1
System init for write_restart ...
PPPM initialization ...
  extracting TIP4P info from pair style
  using 12-bit tables for long-range coulomb (../kspace.cpp:340)
  G vector (1/distance) = 0.37213589
  grid = 24 24 24
  stencil order = 5
  estimated absolute RMS force accuracy = 0.0035146153
  estimated relative force accuracy = 1.058416e-05
  using double precision FFTW3
  3d grid and FFT values/proc = 2197 216
Last active /omp style is kspace_style pppm/tip4p/omp
Total wall time: 0:06:05
