#include		in.partitions
include		in.temp
variable        temperature equal 121.47
variable	tempDamp equal 100.0
include		in.pressure
variable        pressure equal 7030.2
variable        pressureDamp equal 1000.0 # This is 1 ps
include		in.seed
variable        seed equal 745823

units		real
atom_style	full

read_restart	restart.lmp.${pid}
read_restart	restart.lmp.1
Reading restart file ...
  restart file = 30 Jul 2021, LAMMPS = 30 Jul 2021
  restoring atom style full from restart
  orthogonal box = (0.097434526 0.16585248 0.13945992) to (19.902566 19.834149 20.560538)
  4 by 2 by 4 MPI processor grid
  restoring pair style lj/cut/tip4p/long/omp from restart
  restoring bond style harmonic/omp from restart
  restoring angle style harmonic/omp from restart
  972 atoms
  648 bonds
  324 angles
Finding 1-2 1-3 1-4 neighbors ...
  special bond factors lj:    0        0        0       
  special bond factors coul:  0        0        0       
     2 = max # of 1-2 neighbors
     1 = max # of 1-3 neighbors
     1 = max # of 1-4 neighbors
     2 = max # of special neighbors
  special bonds CPU = 0.002 seconds
  read_restart CPU = 0.007 seconds
include 	in.setup
variable	out_freq equal 1000
variable	out_freq2 equal 10000
variable	out_freq3 equal 1000

timestep	2.0

neigh_modify    delay 7 every 1

include		in.tip4p
# This is TIP4P/Ice

# create groups ###
group ox type 2
324 atoms in group ox
group hy type 1
648 atoms in group hy

# set charges - beside manually ###
set group ox charge -1.1794
Setting atom values ...
  324 settings made for charge
set group hy charge 0.5897
Setting atom values ...
  648 settings made for charge

# ### TIP3P Potential Parameters ###
pair_style lj/cut/tip4p/long/omp 2 1 1 1 0.1577 8.5
pair_coeff 1 1*2 0.000 0.000
pair_coeff 2 2 0.21084 3.1668
bond_style  harmonic
bond_coeff  1 450 0.9572
angle_style harmonic
angle_coeff 1 55 104.52
kspace_style pppm/tip4p/omp 1.0e-5
pair_modify tail yes

thermo          ${out_freq}
thermo          1000
thermo_style    custom step temp pe etotal epair emol press lx ly lz vol pxx pyy pzz pxy pxz pyz enthalpy

restart 	${out_freq3} restart.lmp.${pid} restart2.lmp.${pid}
restart 	1000 restart.lmp.${pid} restart2.lmp.${pid}
restart 	1000 restart.lmp.1 restart2.lmp.${pid}
restart 	1000 restart.lmp.1 restart2.lmp.1


include         in.dump
dump            myDump all atom ${out_freq2} dump.water.${pid}
dump            myDump all atom 10000 dump.water.${pid}
dump            myDump all atom 10000 dump.water.1
dump            myDump2 all dcd ${out_freq2} dump.dcd
dump            myDump2 all dcd 10000 dump.dcd
dump_modify     myDump append yes
dump_modify     myDump2 append yes


variable natoms 	equal  "count(all)"                        # NUMBER ATOMS
variable H      	equal  "enthalpy/v_natoms"                 # ENTHALPY-per-atom
variable Vol      	equal  "vol/v_natoms"                 # volume-per-atom
fix AVG all 		ave/time ${out_freq} 1 ${out_freq} v_Vol v_H file vol_enthalpy.dat
fix AVG all 		ave/time 1000 1 ${out_freq} v_Vol v_H file vol_enthalpy.dat
fix AVG all 		ave/time 1000 1 1000 v_Vol v_H file vol_enthalpy.dat


timer           timeout 02:55:00 every 1000
New timer settings: style=normal  mode=nosync  timeout=02:55:00

fix 		1 all shake 1e-6 200 0 b 1 a 1
       0 = # of size 2 clusters
       0 = # of size 3 clusters
       0 = # of size 4 clusters
     324 = # of frozen angles
  find clusters CPU = 0.000 seconds
fix             2 all nph aniso ${pressure} ${pressure} ${pressureDamp}
fix             2 all nph aniso 7030.2 ${pressure} ${pressureDamp}
fix             2 all nph aniso 7030.2 7030.2 ${pressureDamp}
fix             2 all nph aniso 7030.2 7030.2 1000
fix             3 all temp/csvr ${temperature} ${temperature} ${tempDamp} ${seed}
fix             3 all temp/csvr 121.47 ${temperature} ${tempDamp} ${seed}
fix             3 all temp/csvr 121.47 121.47 ${tempDamp} ${seed}
fix             3 all temp/csvr 121.47 121.47 100 ${seed}
fix             3 all temp/csvr 121.47 121.47 100 745823


run             250000
PPPM initialization ...
  extracting TIP4P info from pair style
  using 12-bit tables for long-range coulomb (../kspace.cpp:340)
  G vector (1/distance) = 0.37244523
  grid = 24 24 24
  stencil order = 5
  estimated absolute RMS force accuracy = 0.0034773482
  estimated relative force accuracy = 1.0471931e-05
  using double precision FFTW3
  3d grid and FFT values/proc = 3211 432
Last active /omp style is kspace_style pppm/tip4p/omp
Neighbor list info ...
  update every 1 steps, delay 7 steps, check yes
  max neighbors/atom: 2000, page size: 100000
  master list distance cutoff = 10.8154
  ghost atom cutoff = 10.8154
  binsize = 5.4077, bins = 4 4 4
  1 neighbor lists, perpetual/occasional/extra = 1 0 0
  (1) pair lj/cut/tip4p/long/omp, perpetual
      attributes: half, newton on, omp
      pair build: half/bin/newton/omp
      stencil: half/bin/3d
      bin: standard
Per MPI rank memory allocation (min/avg/max) = 10.19 | 10.19 | 10.19 Mbytes
Step Temp PotEng TotEng E_pair E_mol Press Lx Ly Lz Volume Pxx Pyy Pzz Pxy Pxz Pyz Enthalpy 
28250000    126.29344   -4981.8675   -4738.2999   -4981.8675            0    8368.3274    19.805132    19.668296    20.421078    7954.6879    7941.1715    7802.3002    9361.5104   -655.29738    254.25041    505.71873   -3767.4822 
28251000    121.19985   -5004.8433   -4771.0992   -5004.8433            0    6526.0321    19.916769    19.760592     20.38186    8021.6301    5516.6792    6964.1382    7097.2787    -471.1567   -886.98769    460.04841   -4007.6366 
28252000    120.83113   -4998.3185   -4765.2855   -4998.3185            0    6554.6663      19.8502    19.782866    20.390531     8007.236    6379.6661    6842.0851    6442.2478   -71.617827    30.420588   -1550.1319   -3999.8492 
28253000    120.02534   -5002.8046   -4771.3256   -5002.8046            0    6767.1338    19.920343    19.757686    20.387932    8024.2803    7306.0254    6489.8742    6505.5018    32.353811    1224.6293    649.95952   -3979.3957 
28254000    116.35715   -5010.8722   -4786.4676   -5010.8722            0    6242.2655    19.832387    19.737746    20.463146    8010.2295    5199.5438    6478.9082    7048.3446    663.94015    1281.4908   -395.00629     -4057.24 
28255000    122.99424   -5002.5615   -4765.3567   -5002.5615            0    7223.0993    19.873562    19.766639     20.42875    8025.0982     6900.448    7437.1746    7331.6755     201.6924    1183.4303    646.36199   -3919.9809 
28256000    127.91858   -5000.6874   -4753.9857   -5000.6874            0    7045.5515    19.645334    19.792831     20.56968    7998.2478    7064.8515    7588.0783    6483.7248   -80.808397    858.58766   -109.39282   -3932.1486 
28257000    120.79139   -4995.5424    -4762.586   -4995.5424            0    8007.2585    19.774857     19.68646    20.489355    7976.4432    9239.8458    7673.2436     7108.686    136.98018   -1414.3685    758.85356   -3831.1157 
28258000    121.08623   -4996.3046   -4762.7797   -4996.3046            0    6583.4868    19.788533    19.709429    20.527756    8006.2494    6212.0945    6939.8732    6598.4926   -90.100015   -436.29857   -51.147807   -3994.0724 
28259000    125.70008   -4993.7809   -4751.3577   -4993.7809            0    6580.0075    19.692637    19.795435    20.545522    8009.1437    6471.0389    6073.2488    7195.7349    75.415607   -431.13016   -157.77627    -3982.779 
28260000     123.3105   -4992.4725   -4754.6578   -4992.4725            0    6963.7941    19.701062    19.741095     20.56648    7998.7262    7914.7285    5991.6957    6984.9582    -527.1062     479.2285    94.000285   -3942.3088 
28261000    123.69243   -5008.5225   -4769.9713   -5008.5225            0     6598.011    19.769639    19.788666     20.54903    8039.0846    7249.8463     6642.287    5901.8996    -121.1593   -731.79219   -219.72419   -3996.4086 
28262000    124.19697   -4991.6309   -4752.1067   -4991.6309            0    5123.7064    19.834382    19.887392    20.521082    8094.6261    4917.2088    5002.0456    5451.8649   -242.39275    118.01777   -642.23222   -4147.2438 
28263000     127.9822   -4993.0721   -4746.2477   -4993.0721            0    7697.1617    19.874947    19.859597    20.301782    8013.2847    7776.4697    7259.9174    8055.0979    168.85756    323.44934    619.59568   -3846.7148 
28264000    121.31515   -5003.3195    -4769.353   -5003.3195            0    5920.3911     19.78725     19.89382     20.36846    8017.9218    5297.3444    6359.8124    6104.0165    288.20526   -450.48684    192.96974   -4077.0629 
28265000    120.79403   -5000.9294    -4767.968   -5000.9294            0    6699.8501    19.832056    19.829674    20.375966    8013.1178    7639.1097    5869.6187     6590.822   -146.33974    123.35994   -922.75947   -3985.0027 
28266000    120.92108   -4999.7524    -4766.546   -4999.7524            0    7024.7596    19.945899    19.653911    20.454623    8018.5172    5679.9795    8738.5937    6655.7056    258.96474    751.88081   -43.334493   -3945.0576 
28267000    120.02167   -4995.3839    -4763.912   -4995.3839            0    7882.1468    19.696107    19.751066    20.554703    7996.1721    7385.2899    9076.0908    7185.0597    368.25898    397.93308   -1548.3191   -3844.7278 
28268000    121.00633   -5009.2373   -4775.8664   -5009.2373            0    6911.6744    19.727859     19.77281    20.531511    8008.8335    9074.6218    4781.1971    6879.2044   -183.35845    1229.8883   -12.911798   -3968.5785 
28269000     121.2203   -5003.1555    -4769.372   -5003.1555            0    6089.5138    19.727633     19.80868    20.563917    8035.9339    6961.8686    6230.3637    5076.3092    181.54034   -480.05763   -1685.8321   -4055.7062 
28270000    119.72875    -5002.413    -4771.506    -5002.413            0    7230.4264    19.765827     19.81739      20.5442    8047.3095    8305.3093     6706.101     6679.869    15.315913    1347.6848   -782.19004   -3922.9305 
28271000    116.29805   -5002.4499   -4778.1593   -5002.4499            0    6858.7073    19.774582    19.664654    20.565767    7997.2103    5340.8495    8540.9008    6694.3717    586.84975   -527.73101   -844.69016   -3978.2207 
28272000    120.75988   -4997.1862   -4764.2906   -4997.1862            0    7281.6215    19.827081    19.695878    20.544134    8022.7261     7054.413    6857.7679    7932.6835   -170.73523    791.69577   -126.28716   -3912.3174 
28273000    120.80609   -5000.8265   -4767.8418   -5000.8265            0    7857.5202    19.742079    19.690283    20.410385    7934.0702    8167.7187    7047.8125    8357.0294    306.79098   -68.944061    1348.1387    -3858.646 
28274000    129.28645   -4989.5478    -4740.208   -4989.5478            0    7446.3344    19.744339    19.786848    20.429433    7981.3348    7085.9006    7521.7424    7731.3603     5.687176    190.42199   -109.85199   -3873.4578 
28275000    128.42982   -5002.8309   -4755.1432   -5002.8309            0    7477.5565    19.891011    19.678048    20.483737    8017.6683    6756.1692    8882.1042    6794.3959   -449.31886   -22.346892   -547.40157   -3880.7965 
28276000    124.63275   -4985.1268   -4744.7621   -4985.1268            0    7674.6581    19.686928    19.825147    20.433548    7975.1373    9009.9311    6190.6169    7823.4264   -201.28572    135.63365    214.23823   -3852.1287 
28277000    127.86296    -5000.455   -4753.8605    -5000.455            0    5660.2562    19.832277    19.894518    20.495843    8086.7085    6742.0108    4820.9699    5417.7878    245.54197   -378.52666     -881.035   -4086.3106 
28278000    119.76203   -5009.8614   -4778.8902   -5009.8614            0    6089.9091    19.824937    19.807955    20.546947    8068.6104    4140.1198    8075.0348    6054.5726   -588.16439    478.93536    335.32668    -4062.276 
28279000    124.06412   -4995.3286   -4756.0605   -4995.3286            0    7372.4509    19.721874    19.699198    20.555465    7985.9028    7334.1513    7707.0996    7076.1019   -268.19608   -243.40653    -307.6173   -3897.4191 
28280000    125.43903    -4992.278   -4750.3582    -4992.278            0     7379.905    19.733329    19.583772    20.598452    7960.3341    8124.3093    7282.2579    6733.1479   -588.53203    -832.3618   -289.16092   -3893.6007 
28281000    121.33616   -4980.9141   -4746.9071   -4980.9141            0    8179.8987    19.792892    19.740746    20.452048    7991.1557    8773.4613    8232.3491    7533.8857     731.7753    157.19829    -340.1048   -3793.5987 
28282000    123.77211   -4990.2477   -4751.5428   -4990.2477            0    6237.3515    19.779815    19.793695    20.386163    7981.5015    5478.5284    6900.1069    6333.4193    332.06667    575.86008    204.21217   -4025.5025 
28283000    121.84509   -4992.9637   -4757.9752   -4992.9637            0    8831.1246    19.860267    19.696696    20.370635    7968.6182    7753.8734    11047.749    7691.7514    153.84049    427.15971   -103.90288   -3731.6738 
28284000    120.42676   -5003.7272   -4771.4741   -5003.7272            0    6933.4079    19.787559    19.728525    20.447493     7982.279    7842.1876    5868.4037    7089.6325    268.59802    702.65165    646.95405   -3964.3328 
28285000    115.30883   -5011.4139   -4789.0312   -5011.4139            0    7861.2936    19.629404    19.829567    20.551707    7999.5999     8580.024    8332.5292    6671.3277    30.780469    445.09941    502.15518   -3871.8858 
28286000      117.321   -5002.2506   -4775.9872   -5002.2506            0    6796.6908    19.854734    19.669565    20.505755    8008.1941    7787.0297    5881.2537     6721.789   -70.673234    839.63089    36.099698   -3982.1929 
28287000     118.2154   -4985.1872   -4757.1989   -4985.1872            0    8671.5347    19.743362    19.770288    20.252933    7905.3669    7938.4764     9473.316    8602.8115    -124.8191   -471.27163   -356.40223   -3757.4432 
28288000    126.81089   -5000.8837   -4756.3183   -5000.8837            0    7118.6398    19.776652    19.805935    20.420964    7998.7913     7203.724    6937.9331    7214.2623    40.253114   -822.01418    221.44149   -3925.8993 
28289000    117.04346   -5004.7451    -4779.017   -5004.7451            0    7662.0094    19.866747     19.72945    20.474582     8025.217    9363.0416    6033.7594    7589.2272   -240.98662    1127.7899   -18.845769   -3882.2588 
28290000    121.67486   -4997.4457   -4762.7855   -4997.4457            0    6490.7067    19.715689    19.859184    20.372298    7976.5184    5768.8088    7314.8171    6388.4944    55.485932    445.06902    362.69738   -4007.7259 
28291000    124.51365   -5001.5834   -4761.4483   -5001.5834            0    7013.1804    19.843081    19.844782    20.340031    8009.5303    7453.9892    6403.4751     7182.077   -380.68742    652.80779    996.59009   -3942.2332 
28292000    118.84888   -4999.0735   -4769.8634   -4999.0735            0     6411.142     19.73787    19.913529    20.385381    8012.4872    6827.5529    5403.1136    7002.7596    113.36651    510.41487   -1172.6831   -4020.6964 
28293000    126.93451   -4991.4888   -4746.6849   -4991.4888            0    8029.6251    19.643867     19.76525    20.431029    7932.6728    6995.9135    8351.5161    8741.4459   -254.01945    341.19239      150.944   -3817.7384 
28294000    121.03949   -5014.5277   -4781.0929   -5014.5277            0    6979.5623    19.825861    19.863037    20.326479    8004.6043    7945.4395    5708.0046    7285.2428    308.74926    604.70372    178.94145   -3966.3062 
28295000    115.88924    -5006.891   -4783.3889    -5006.891            0    6917.0869    19.726302    19.993825    20.321385    8014.8403    6939.5728    6880.0935    6931.5945    22.763713   -94.429024   -414.29916   -3974.8628 
28296000     119.3144   -5002.7716   -4772.6638   -5002.7716            0    6564.5482    19.770723    19.846689    20.409184    8008.2251    7375.6439    5560.2287    6757.7721   -212.92209    5.8992752   -847.78421   -4005.9787 
28297000    118.47097   -4995.4396   -4766.9583   -4995.4396            0    7580.1666    19.788073    19.940078    20.304492    8011.6598     8776.768    6140.0922    7823.6396    150.90423    539.41744   -50.766957   -3881.2777 
28298000    115.89741    -4997.919   -4774.4011    -4997.919            0    7229.9026    19.704195     19.75252    20.456526    7961.8336    6873.1182    7949.1922    6867.3974   -48.339147   -308.12708   -226.89756   -3934.8996 
28299000    124.55109   -4995.1155   -4754.9083   -4995.1155            0    8282.9237    19.703701     19.71302    20.500757    7962.8926    9165.7815    7701.6352    7981.3543    63.131593   -166.82457   -72.417459   -3793.0072 
28300000    119.14574   -5008.1609   -4778.3783   -5008.1609            0    6701.1387     19.78016    19.818312    20.451517    8017.1866    7513.7543    5901.5123    6688.1495   -446.02956    -82.81406   -74.890807   -3994.8648 
28301000    128.73089   -4980.8045   -4732.5361   -4980.8045            0    7806.6268    19.760003    19.739184     20.47424    7985.9021    7434.2416    8090.9466    7894.6922   -40.821287    -581.4769   -485.02481   -3823.3281 
28302000    121.15298   -5002.3197   -4768.6659   -5002.3197            0    8593.7864    19.746921    19.644117     20.53638    7966.2841    8488.0717    9498.6817    7794.6057   -389.27913    1153.2373   -289.31364   -3770.2391 
28303000    113.87955   -5002.6571   -4783.0308   -5002.6571            0    6815.1778    19.786287    19.776362    20.451002    8002.4929    7431.6964    6028.3135    6985.5236    182.08161     -133.096    549.15227    -3987.644 
28304000    128.48176   -4991.4359    -4743.648   -4991.4359            0    8491.9938    19.595416    19.969363    20.229593     7916.001    9732.8361    5628.6837    10114.462   -51.357911    117.71135    237.57635   -3763.2749 
28305000    123.19786   -4994.8061   -4757.2087   -4994.8061            0    7486.0346    19.735077    19.830135    20.389495    7979.4129     7297.894     7390.782    7769.4277   -326.00078   -823.88108    1295.4481   -3886.0472 
28306000    125.79837   -4986.0519   -4743.4391   -4986.0519            0    7572.4127    19.818537     19.76425    20.352095    7971.8855    6696.3042    9097.3931    6923.5408   -399.55884    486.73968    869.45815    -3863.057 
28307000    117.94315   -5006.1101   -4778.6468   -5006.1101            0     7291.167    19.794848    19.798335    20.359946    7979.1655    6108.9856    7952.8219    7811.6936   -203.72192    515.57138   -574.17216   -3930.1887 
28308000    116.28023   -4987.9415   -4763.6853   -4987.9415            0    7070.8252    19.685771     19.80677    20.483102    7986.5975    7344.0656    5939.4949    7928.9151   -332.01145    184.42842    160.06699   -3940.1015 
28309000    119.21816   -5002.4605   -4772.5382   -5002.4605            0    6779.8806    19.942619    19.784757     20.35957    8033.0694    5778.2436    6892.2189    7669.1792    236.24369    1090.7136    444.00339   -3978.2476 
28310000    124.02605   -5006.4756    -4767.281   -5006.4756            0    6623.0453    19.882253    19.909601    20.204929     7998.075    6739.5964    6344.3789    6785.1606   -376.76286     89.81284   -304.13991   -3994.7443 
28311000    124.18422   -4997.4089   -4757.9092   -4997.4089            0    7789.7406    19.790375    19.798432    20.361825    7978.1376     7708.922         7940    7720.2997    4.1120127    235.51602   -426.00711   -3851.5499 
28312000    126.76264   -4989.7432   -4745.2708   -4989.7432            0    6072.7609    19.935327    19.683267    20.483363    8037.5152    5605.8048    5768.7437    6843.7344   -203.54606   -9.3091236    606.55796   -4033.4283 
28313000    124.17469   -4990.1079   -4750.6265   -4990.1079            0     7323.611    19.764427    19.735406    20.483527    7989.7837    5689.4451    8346.0743    7935.3135    694.55601     198.9593   -29.735373   -3897.2589 
28314000    122.30036   -5001.7855   -4765.9189   -5001.7855            0    7206.9591    19.722615    19.823721    20.470185     8003.343    7698.0984    6418.3102    7504.4688   -63.740331    529.42738    -442.2615   -3924.7187 
28315000    123.74455   -5008.1105   -4769.4587   -5008.1105            0    8235.7133    19.707511    19.789062    20.527132    8005.4409     8070.121    8346.0368    8290.9823   -409.92831    267.61302    446.61778   -3807.9297 
28316000    125.21383   -4978.6424    -4737.157   -4978.6424            0    8291.0609    19.598199    19.727509    20.551976    7945.8798    8443.9147    7907.1691    8522.0988   -442.37447    572.19929   -534.72146   -3776.3681 
28317000    123.72809   -5013.2223   -4774.6023   -5013.2223            0    7246.0627    19.761758    19.717538    20.535475     8001.714    7984.5198    7037.5971    6716.0711   -227.79153    37.764029   -87.582631     -3929.01 
28318000    123.72357   -5003.7564   -4765.1451   -5003.7564            0    6480.3189    19.716185    19.713802    20.637674    8021.4712    7063.9041    7643.9071    4733.1455   -92.436314    607.18312    1091.1038   -4007.0454 
28319000    119.43911   -5007.5522   -4777.2038   -5007.5522            0    6961.6944    19.723482    19.724598    20.486148    7969.8852    7410.5697    6839.4049    6635.1086    9.1023424    320.06743   -439.06369    -3968.028 
28320000    122.40635   -4992.4983   -4756.4274   -4992.4983            0    8105.2835    19.813018    19.732937    20.411664    7980.3287    8724.7102    7971.0968    7620.0435   -387.64476    810.11641   -268.62063   -3813.0947 
28321000    122.46371    -4993.896   -4757.7144    -4993.896            0    7557.1291      19.6993    19.891911     20.35895    7977.7916    8753.4878    5568.6011    8349.2984    -398.1123    467.99468   -1375.7035   -3878.4582 
28322000    130.39354   -4985.4403   -4733.9654   -4985.4403            0    7201.9464    19.684591    19.848578    20.427672    7981.3191    6505.4142    7918.4466    7181.9783   -331.60607     1026.196    395.50703   -3895.6635 
28323000    114.21304   -5002.2397   -4781.9702   -5002.2397            0    6901.6425    19.794628    19.813049     20.40888    8004.1979     8678.133    6715.8651    5310.9293    413.00764     140.2521     472.7876   -3976.3207 
28324000    122.95672   -5017.2496   -4780.1172   -5017.2496            0    6124.3488    19.949687    19.806155    20.331582    8033.5487    5509.8307    5770.2066    7093.0092   -618.73069     1613.182   -420.18213    -4062.582 
28325000     120.3416   -5003.8405   -4771.7517   -5003.8405            0    7031.7405    19.675587    19.881416    20.441155    7996.1408    6258.6749      6945.69    7890.8566    -476.5655   -975.20631   -22.514678   -3951.7416 
28326000    123.16873   -5002.8916   -4765.3504   -5002.8916            0    7176.6548     19.87754    19.693884    20.441517    8002.1583    8291.8934    6187.2978    7050.7732    160.46363   -19.915709   -150.28318   -3927.8113 
28327000    115.82463   -5009.2056    -4785.828   -5009.2056            0    6612.4202    19.804178    19.829817    20.384741    8005.3573    5457.1332    6715.4302    7664.6971    98.765275   -1008.4674    659.92588   -4013.8284 
28328000    124.34184   -4990.1916   -4750.3879   -4990.1916            0    6762.3812    19.908708    19.767304    20.429853    8039.9944    5590.6199    8359.1827    6337.3412    507.46209     520.1461   -80.764742   -3957.4644 
28329000    122.15546   -5005.6143   -4770.0273   -5005.6143            0    6760.6973    19.721055    19.739614    20.460232    7964.8822    6400.7621    7218.8837    6662.4463    96.611489    265.61991     615.2384   -3984.7071 
28330000     122.2322   -4998.1293   -4762.3942   -4998.1293            0    5713.9473    20.065099    19.696444    20.399244    8062.0075     4396.043    5809.2742    6936.5247    66.433236   -166.06364   -140.26056   -4090.5705 
28331000    123.67948   -4997.6015   -4759.0752   -4997.6015            0    6819.0239    19.841117    19.766392    20.412328    8005.4555    7229.5123    6244.5743     6982.985   -590.02264   -639.74977    78.709012   -3962.9449 
28332000    118.94842   -5006.3006   -4776.8986   -5006.3006            0    6416.6045    19.838262     19.61693     20.57101    8005.5334    6715.3327    6507.2555    6027.2253    369.91793    1419.7458   -431.03946    -4027.744 
28333000    126.32809   -4999.6603   -4756.0259   -4999.6603            0    7279.2124    19.711076    19.713335    20.503734    7967.1573    7550.9347    7697.4526    6589.2499   -14.133679    479.54766     853.8677   -3910.2337 
28334000    129.70214   -4996.8955    -4746.754   -4996.8955            0    6645.6538    19.886105     19.75973     20.49003    8051.4358    7095.9959    6349.1557    6491.8098   -132.07099   -258.72487   -110.79572   -3966.4085 
28335000    118.44358   -5005.5281   -4777.0997   -5005.5281            0    5256.5026    19.747379    19.874517    20.461804    8030.6366    5513.3892    5093.7565    5162.3623    666.02821   -7.5965577    433.88092   -4161.4655 
28336000    118.84847   -5003.1959   -4773.9866   -5003.1959            0    6335.2137     19.75871    19.845835     20.45036    8019.1609    6214.1872    6235.6095    6555.8445   -399.17922    522.73612   -218.01017   -4033.0756 
28337000    118.73022   -5001.2942    -4772.313   -5001.2942            0    7293.0822    19.799274    19.908323    20.312122    8006.4358    7852.4764    6895.1729    7131.5973    19.367586    816.36486   -98.736857   -3920.7315 
28338000    121.50096   -5000.4194   -4766.0946   -5000.4194            0    7292.1673    19.747291    19.796991    20.461717    7999.2407    7606.8239    7474.2643    6795.4138   -386.19612    304.86903   -52.155853   -3915.3851 
28339000    118.72456   -5012.1861   -4783.2158   -5012.1861            0    7546.6061    19.706604    19.830511     20.40021    7972.2395    7583.8858    7668.2365    7387.6959   -530.34991   -369.18389    295.50425    -3905.795 
28340000    120.50049   -4995.6784    -4763.283   -4995.6784            0    7763.0734    19.571994    19.830991    20.488086    7952.0829    7448.2683    8841.7597    6999.1923   -816.24429   -171.55913    299.30765   -3862.9763 
28341000    116.74053   -4999.5007   -4774.3568   -4999.5007            0    7209.5912    19.848449    19.664403     20.53985    8016.8657    7302.3963    8487.0157    5839.3617   -549.57199   -63.735349   -973.05734   -3931.4275 
28342000    124.85138   -5007.1398   -4766.3534   -5007.1398            0    7704.6218    19.691916    19.702447    20.556762    7975.5905    8136.0616    7111.3786    7866.4251   -114.30588    297.05204   -22.858794   -3870.1841 
28343000    130.69158   -5003.5339   -4751.4842   -5003.5339            0    7379.5538    19.717769    19.791816    20.486718     7994.951    7745.5324    7249.1232    7144.0057   -46.777655    205.15274   -165.00097   -3891.0418 
28344000    121.01022   -5004.3483     -4770.97   -5004.3483            0    5809.7398    19.747019      19.7133    20.657998    8041.7228    7015.3881    5941.4711      4472.36    77.421985   -148.27451    112.50291   -4089.6021 
28345000    118.23977   -5012.2052   -4784.1699   -5012.2052            0    5939.1156    19.667577    19.820447    20.525347    8001.1941    6120.4129    5670.2444    6026.6895    -568.7456   -479.04696    640.02123   -4091.1392 
28346000    120.49327   -4993.5474    -4761.166   -4993.5474            0    6972.5084    19.747472    19.803051    20.469694    8004.8829    6520.4973    7478.1184    6918.9095    250.81137    1032.1871   -49.911728   -3947.1744 
28347000    116.82776   -4990.5509   -4765.2387   -4990.5509            0    6688.7206    19.838205    19.707748    20.504992    8016.7617    7181.1575    6561.6805    6323.3237   -495.98497   -285.70709    798.27874   -3983.2186 
28348000    122.22143   -5001.1696   -4765.4553   -5001.1696            0    7021.8278    19.729238    19.887278    20.450882    8024.1252    7698.8585    6713.3561    6653.2686   -93.992841    342.27496    253.01143   -3943.7354 
28349000    117.37111   -4995.7351   -4769.3751   -4995.7351            0    5551.0046    19.833584    19.954856    20.345179    8052.1396    5010.8933    4400.3885    7241.7321    407.72788   -161.93373    227.90226   -4117.5084 
28350000    122.69703   -5002.7148   -4766.0833   -5002.7148            0    6622.3666    19.689593    19.926989    20.399552    8003.8515    5615.7712    8442.3043    5809.0242   -132.54833    833.36318     1102.786   -3993.0679 
28351000    117.81083   -5007.1216   -4779.9135   -5007.1216            0    7900.8655    19.797166    19.730743    20.410384    7972.5569    8344.2201    6783.4477    8574.9288   -143.24959     1364.676   -542.75129   -3861.2675 
28352000    124.73466   -5000.1093    -4759.548   -5000.1093            0    6343.6156    19.566227    19.853621    20.524234    7972.8536    6670.1942    6236.9313    6123.7214    340.10137   -184.22625    280.02975   -4021.9384 
28353000    128.25156   -5000.7064   -4753.3625   -5000.7064            0     6940.089     19.67267    19.763183    20.553494    7991.0869    7889.8024    6864.7027    6065.7619   -466.27474    486.01313    952.62669    -3944.552 
28354000     124.0738   -4998.5327   -4759.2459   -4998.5327            0    7583.5861    19.754061    19.779395    20.518366    8017.0049    7415.1051    7829.5967    7506.0564    -387.7423   -254.57434    879.08961   -3872.5746 
28355000    126.35774   -4992.3103   -4748.6188   -4992.3103            0    5918.2756    19.710088    19.858021    20.570713    8051.4457    6739.5713      4905.63    6109.6257    273.83087   -99.579571   -439.11951   -4053.6826 
28356000    116.28874   -5002.5054   -4778.2328   -5002.5054            0    5526.1655    19.751796    19.767993    20.539951     8019.893    6174.0594    4643.2045    5761.2327    3.7120885    465.49231    420.09156   -4131.8819 
28357000    123.01464   -5003.2657   -4766.0216   -5003.2657            0    6558.9344    19.797416     19.89198    20.364808    8019.8608    6844.4629    5531.4381    7300.9022    -457.8591   -274.91518   -393.99166   -3998.8792 
28358000    119.37111   -4987.3773     -4757.16   -4987.3773            0    6339.7414    19.879772    19.752999       20.431    8022.9494    6706.8586    5921.5835    6390.7823   -583.14826   -317.26249    376.31679   -4015.3692 
28359000    120.78549   -4996.6018   -4763.6568   -4996.6018            0    7044.5181    19.739274    19.812829    20.428946     7989.574    7550.7308     6431.942    7150.8815    286.84153     76.22913     1066.173   -3942.8314 
28360000    121.83684   -4987.5252   -4752.5526   -4987.5252            0    7350.3673    19.782658    19.844057    20.304392    7970.8585    7344.1647    6396.3415    8310.5959    433.90131    607.33233    -296.7233   -3898.0959 
28361000     127.2154   -4998.8072   -4753.4616   -4998.8072            0     7307.485    19.688146    19.805592     20.53516    8007.3859    7429.3347    7839.3637    6653.7567    8.0255328   -159.38165    341.73237   -3900.0971 
28362000    120.97605   -4992.8635    -4759.551   -4992.8635            0    5863.3799    19.916873    19.728508    20.440909    8031.8502    5175.2875    5950.8544    6463.9979    211.92724   -139.07688   -835.24349   -4072.7364 
28363000    116.28077   -5004.2626   -4780.0053   -5004.2626            0    6517.4289    19.850752    19.761903    20.484013    8035.6454    5888.9237    7306.1387    6357.2242   -156.33791    1384.5481    141.26864   -4016.2171 
28364000    120.64911   -4990.2402   -4757.5583   -4990.2402            0    7503.7952    19.690928    19.921213    20.362896     7987.696    7879.7062    6451.9688    8179.7106    247.18293    904.16874    208.80266   -3883.4235 
28365000    116.49814   -4988.4192   -4763.7427   -4988.4192            0    5656.2964    19.665049    19.856049    20.518659    8011.9246    5513.3386    5872.9871    5582.5635    341.18332   -279.10896   -469.21963   -4102.8288 
28366000    116.91838   -5007.8541   -4782.3672   -5007.8541            0    5966.4795    19.747731    19.818204    20.514856    8028.7878    6473.1718    4700.6026    6725.6641   -270.43129    558.70857     90.22576   -4083.7424 
28367000    121.64827   -5009.2067   -4774.5978   -5009.2067            0    7636.5261    19.707233    19.727943     20.43781    7945.8768    8251.3179    6709.5322    7948.7282    183.02285    2.2303756   -124.10949   -3889.6583 
28368000    121.04387   -5008.7946   -4775.3513   -5008.7946            0    6607.1509    19.767095    19.854895    20.406868    8009.1565    8734.6848    5859.6465    5227.1214    136.26735    126.61641    -407.5092   -4003.6008 
28369000    113.91894   -4991.0001   -4771.2979   -4991.0001            0    8501.6522      19.7074    19.827041    20.360477    7955.6412    9507.0842    6940.6959    9057.1765    -234.4712   -44.991343    729.72937   -3784.8948 
28370000    118.19017   -4987.7302   -4759.7905   -4987.7302            0    7589.2178    19.834308    19.792321    20.352754    7989.8197    6514.1781      8775.33    7478.1454   -126.95866   -48.480962    1253.6685   -3875.4696 
28371000    123.84757   -5019.8063   -4780.9558   -5019.8063            0    7706.1457     19.92319    19.686675    20.340481    7977.9711    7052.1505     7581.624    8484.6628    218.06787   -90.482495   -500.03718   -3884.3417 
28372000    122.20129   -4987.7372   -4752.0617   -4987.7372            0    6899.9893    19.704765    19.930872    20.379824    8003.8322    6466.2185    7188.8549    7044.8945   -514.70256     929.8941    406.77893    -3946.642 
28373000    119.58327   -4999.6816   -4769.0552   -4999.6816            0    6992.9271     19.82236    19.814861    20.414548    8018.3712     7232.551    5937.3143    7808.9158   -72.337838   -315.84283    307.42327   -3951.3043 
28374000    119.56853   -4993.3375   -4762.7395   -4993.3375            0    5904.7755    19.873124    19.907786     20.30514    8033.3205    6560.3674    4700.5594    6453.3996    -218.8274   -408.06138     542.3901   -4070.9494 
28375000    126.13798   -4994.8029   -4751.5352   -4994.8029            0    7279.5914    19.691929    19.847605    20.427607    7983.8774    5627.3483    8211.8181    7999.6079    240.18461    758.08166    291.64867   -3903.9239 
28376000    117.74329   -5001.3815   -4774.3037   -5001.3815            0       8695.2     19.85195    19.571799     20.44862    7945.0734    7808.0572    10053.138    8224.4049   -32.442536    164.42589   -1190.3149   -3766.7844 
28377000    124.03412   -5009.1821   -4769.9719   -5009.1821            0    6338.5751    19.801636      19.7761    20.422048    7997.2564    6963.6805    5374.2778     6677.767   -230.06876    100.33523    -296.4244   -4030.6925 
28378000     113.2968   -4995.4908   -4776.9884   -4995.4908            0    6719.1477    19.712521    19.774674    20.604853    8031.9507    5513.7192    8139.6435    6504.0804   -167.28405   -22.220317    1174.2017   -3989.9224 
28379000    129.47994    -4998.793   -4749.0801    -4998.793            0    5985.2018    19.774979    19.713462    20.661287    8054.4572    6935.0595    6900.4657    4120.0801   -130.03772   -160.42688    536.18267   -4046.0224 
28380000    116.15368   -5002.9627   -4778.9506   -5002.9627            0    7766.7964    19.618196     19.76398     20.46674    7935.6436    8021.0417    7756.8723    7522.4753   -337.05879     847.4034   -761.38645   -3880.0742 
28381000    114.76384   -5010.2268   -4788.8951   -5010.2268            0     6867.618    19.787008    19.787273    20.541652    8042.6919    7666.9205    6130.4873    6805.4462    218.02125   -390.75562   -243.95829   -3983.3618 
28382000    124.62153   -4991.0887   -4750.7456   -4991.0887            0     6459.991    19.717638    19.791228    20.575618    8029.3526     7153.535    6279.2309     5947.207   -171.36961    -300.0027   -712.14836   -3994.2815 
28383000     125.4062   -4990.7054    -4748.849   -4990.7054            0    6680.8838    19.760722    19.787919    20.508304    8019.2302    5634.0911    7745.0017    6663.5585    66.369949   -41.882407      1898.52   -3967.5046 
28384000    121.08063   -5004.0807   -4770.5666   -5004.0807            0    8113.4674    19.680395    19.711679    20.548845    7971.5881    9485.0164    7371.3245    7484.0614   -51.963459    343.58105    200.84663   -3827.3156 
28385000    119.44948   -5001.8296   -4771.4612   -5001.8296            0    6574.5963    19.817297    19.716826    20.515677    8016.1769     6208.114    7062.3143    6453.3607   -211.04359    212.01792    432.40289   -4002.8401 
28386000    129.45745   -5010.0709   -4760.4013   -5010.0709            0    7152.6602     19.55888    19.745948    20.666632     7981.632    7233.4289    7410.9445    6813.6074    64.067266    115.15361    1008.5237   -3927.8036 
28387000    124.61467   -5009.8023   -4769.4724   -5009.8023            0    9160.8009    19.840026    19.678807    20.358512    7948.5338     8108.217    9951.8891    9422.2967   -325.03374   -687.40496     38.54829   -3707.5413 
28388000     115.0498   -4992.2855   -4770.4023   -4992.2855            0    7265.7975    19.876358    19.711635    20.375102    7982.8735    6618.5072    7451.1769    7727.7086    277.77969    61.398625    32.924704   -3924.5035 
28389000    109.20657    -4996.953   -4786.3389    -4996.953            0    7203.6809    19.963462    19.728355    20.319273    8002.6699    5300.0987    8896.6791    7414.2649    423.28836    149.89807    -1256.214   -3945.5921 
28390000    123.38466   -5004.6639   -4766.7062   -5004.6639            0    5690.4295     19.77329    19.851429     20.51922    8054.3697    4135.3389    6280.4382    6655.5113   -195.57047    207.67011   -630.43063   -4098.2815 
28391000    120.02997    -5001.401   -4769.9131    -5001.401            0    7561.5782     19.75026    19.818069    20.461407    8008.8404     8160.312    6849.5984    7674.8241    144.19557   -87.011771    651.79422   -3886.7153 
28392000    124.62204   -5003.8478   -4763.5037   -5003.8478            0    7240.8828    19.622674    19.748356    20.583882    7976.5743    7235.6946    7924.8758    6562.0781    335.29564    214.65152    159.81323   -3921.1707 
28393000    119.11352   -5001.8591   -4772.1387   -5001.8591            0     7779.334    19.628753     19.89412    20.529923    8016.8691    7463.9085    7127.1508    8746.9427    536.44677   -638.34287    -755.4881    -3862.596 
28394000    124.17082   -5006.8564   -4767.3826   -5006.8564            0    6618.2943    19.830654    19.854601     20.42814    8043.1661    6404.4876    7046.0352    6404.3601   -93.000585    471.91598    -387.5105   -3991.0479 
28395000    121.02808   -5008.0773   -4774.6644   -5008.0773            0    5991.9109    19.873268    19.838278     20.40464    8044.5584    6457.5212    6100.7329    5417.4785    99.101918    502.49232    425.63281   -4071.6837 
28396000    119.33848   -5011.2065   -4781.0522   -5011.2065            0    5691.5401     19.76363    19.909216    20.436574    8041.3498    5963.8504    5464.6254    5646.1445   -494.01856    -93.39764   -32.084283   -4113.5778 
28397000    123.18553   -5016.5224   -4778.9488   -5016.5224            0    6230.6864    19.669847    19.931322    20.402749    7998.8177    5624.3679    6805.5674    6262.1238     -86.5746   -49.639085    1516.9681   -4052.1108 
28398000    118.36906    -4997.577   -4769.2923    -4997.577            0    7539.0785    19.573688    19.924996    20.378277    7947.6431    8852.1463    5730.3186    8034.7707   -378.38271    647.13778   -53.917235   -3895.4511 
28399000    126.28732   -5002.2549   -4758.6992   -5002.2549            0    6218.2095    19.818518    19.779666    20.470344    8024.4497    5568.3592    6457.6025    6628.6667     104.1042   -641.88612    218.63341   -4030.9923 
28400000    118.79997   -4996.0205   -4766.9048   -4996.0205            0    7320.8803    19.879547    19.795317     20.31784    7995.5162    7753.2521    6768.4966    7440.8923   -42.111054   -427.61371    1051.0267   -3913.2433 
28401000    130.69277   -5000.0826   -4748.0306   -5000.0826            0    6215.3783    19.883143    19.865049    20.309364    8021.7846     5547.424    7035.4812    6063.2296    318.89349    148.37826    633.70632   -4020.8966 
28402000     127.7569   -5004.5724   -4758.1825   -5004.5724            0    5716.5357    19.796938    19.880027    20.394213    8026.4213     7455.324    2976.7958    6717.4872   -269.96746   -919.84186   -579.45936   -4089.0213 
28403000    118.03042   -4992.4366    -4764.805   -4992.4366            0     6818.712    19.643409    19.855139    20.403281    7957.7412    6939.6009    6487.2628    7029.2723   -75.080023   -743.92239   -508.08575    -3973.456 
28404000    123.63859   -5005.7633   -4767.3159   -5005.7633            0    8133.3366    19.879004    19.832093    20.308856    8006.6093    7746.1595    7881.3601    8772.4902   -387.43326    461.94204    958.27573   -3817.6009 
28405000    122.26254   -5009.7597   -4773.9661   -5009.7597            0    5985.5587     19.82981    19.848836    20.426429    8039.8147    4417.9022    6341.0258    7197.7481    -51.33128    245.72768    -415.0699   -4072.1446 
28406000    118.60598     -4998.94   -4770.1984     -4998.94            0    8681.8866    19.805626    19.801452    20.262055    7946.3758    7726.5781    8893.3693    9425.7125    458.52477   -3.8252237    -208.8013   -3764.0568 
28407000    118.97455    -4996.236   -4766.7836    -4996.236            0    6595.1949    19.923738     19.73932    20.401442    8023.5004    6075.2109    6664.7855    7045.5881    166.23972    345.98798    944.26134     -3995.05 
28408000    116.07685   -5007.1045   -4783.2406   -5007.1045            0    6947.1471    19.623797    19.948157    20.457245    8008.1643     8139.048    6059.9599    6642.4335    132.53434     597.5468   -142.82075   -3971.8773 
28409000    124.35501   -5012.7909   -4772.9618   -5012.7909            0    6526.1926    19.717695    19.899208    20.362681    7989.6344    5856.6325       6640.6    7081.3452   -473.28253    637.33142    432.77972   -4012.5257 
28410000    119.69766   -4993.2549   -4762.4079   -4993.2549            0    7811.2429    19.899622    19.673665    20.434814    8000.1987    8319.7728    7684.3544    7429.6017    155.39972    647.46828    195.17011   -3851.0335 
28411000    117.69029   -5005.0334   -4778.0578   -5005.0334            0    7434.5048    19.856271    19.718375    20.494172    8024.1526    6278.4709    8573.0485    7451.9952   -61.388024   -584.54656    257.67214    -3908.042 
28412000     125.1047   -5004.0736   -4762.7987   -5004.0736            0    6173.3796    19.762338    19.779836    20.528429    8024.4767    6294.6952    5776.9606     6448.483   -455.07245    922.29737    21.335407   -4040.3357 
28413000    122.26707   -5001.5846   -4765.7823   -5001.5846            0    6671.8012    19.781014    19.832899    20.453318    8024.1402    6943.8108    7293.4772    5778.1158   -328.23787   -450.25221   -960.33453   -3985.0224 
28414000    121.62598   -5008.1991   -4773.6332   -5008.1991            0    7224.7243    19.674664    19.820354    20.464316    7980.2405    7083.2788    7402.5353    7188.3588   -100.71257    1087.1308   -938.65306   -3932.7936 
28415000    123.10118   -5003.4377   -4766.0267   -5003.4377            0    7281.8636    19.789566    19.764094    20.402799    7980.0008    8063.8775    6381.6225    7400.0907    85.139299   -219.37413   -87.830816   -3918.5625 
28416000    123.34477   -5002.0204   -4764.1397   -5002.0204            0    6641.0175    19.966973    19.691879    20.507277    8063.1989    3882.8964    8769.0927    7271.0635   -141.79087    -382.8235   -177.91245   -3983.1993 
28417000    123.00533   -5001.2066   -4763.9805   -5001.2066            0    7467.5185    19.692034    19.734066    20.522485    7975.1178    7953.8458     7004.035    7444.6745   -107.44654    641.14262    880.94493   -3895.4415 
28418000    123.94085   -4986.2431   -4747.2128   -4986.2431            0    6491.3176    19.655134    19.854654    20.533093    8012.9549    6675.1835    7359.5966    5439.1727    500.63358   -725.59006    380.63452   -3988.6327 
28419000    124.68708   -4990.1014   -4749.6319   -4990.1014            0    6723.0841    19.773455    19.751368     20.49819    8005.6248    7138.9243    5782.8949    7247.4331   -141.73326    426.65864   -330.02525   -3964.6861 
28420000    123.14976   -5001.5042   -4763.9996   -5001.5042            0    6966.7919    19.630901    20.019489     20.44078    8033.2388    6884.9803    6300.7075    7714.6879   -220.72278   -122.90455    89.507993   -3947.7943 
28421000    128.77551   -5005.8743   -4757.5199   -5005.8743            0    7373.2565    19.865571    19.699497    20.426415    7993.7094    6846.8106    8549.3252    6723.6336   -424.29918     1137.551    78.276369   -3897.9453 
28422000    118.33077    -4994.199   -4765.9882    -4994.199            0     8587.557    19.746619     19.74967    20.399317    7955.5135    7876.0151    9739.0711    8147.5849   -872.69114      737.724    760.39121    -3769.634 
28423000    121.25939   -5005.6084   -4771.7495   -5005.6084            0    7722.7428     19.58417    19.693957    20.625023    7954.8612    7602.3107    8192.5358    7373.3819   -370.93387    546.92599    641.75796   -3875.8071 
28424000    125.80272   -5014.7736   -4772.1524   -5014.7736            0    6971.9026    19.782647    19.793932    20.502938    8028.4658    5910.5008    7173.0749    7832.1322   -654.19936   -325.05622    175.64406   -3955.8337 
28425000    120.31738   -5009.5798   -4777.5376   -5009.5798            0    5993.6836    19.947393    19.740007    20.529001    8083.5342    6529.5673    6334.6372    5116.8462    100.94717   -54.586542    266.81163   -4070.9419 
28426000    120.39073   -5006.9975   -4774.8139   -5006.9975            0    7470.1285    19.800711    19.705677    20.413464    7965.0563    7874.5037    8107.2969    6428.5847    854.15868    35.828393   -218.20662   -3907.0675 
28427000     119.4652    -5000.907   -4770.5083    -5000.907            0    6093.3594    19.856669    19.871568    20.387477    8044.5545    4247.0779    8505.0308    5527.9695   -234.03984    637.74509   -1102.0284   -4055.6258 
28428000    125.64226   -5008.6703   -4766.3586   -5008.6703            0    5608.8765    19.669543    19.971412    20.450933    8033.7103    6393.8692    4831.8878    5600.8724    105.22256     389.1117    -5.205302   -4109.2035 
28429000    127.21522   -4996.3601   -4751.0148   -4996.3601            0    7960.3884    19.729411    19.724706    20.560083    8001.0967     8558.217     7679.388    7643.5603    -160.8407    190.41353   -182.82012   -3822.1347 
28430000    123.50367   -4992.2138   -4754.0266   -4992.2138            0    7501.9716    19.969672    19.654524    20.353652    7988.6942    5462.4918    9354.3009    7689.1222    212.56647   -1781.7899    475.64858    -3879.995 
28431000    122.68143   -5001.7009   -4765.0995   -5001.7009            0    8822.3336    19.783137    19.646252    20.435315    7942.4814    7514.3904     10461.94    8490.6704   -55.510136    193.17193    248.93362   -3743.1826 
28432000    120.38409   -4997.8939   -4765.7231   -4997.8939            0    7642.6973    19.639078    19.692634    20.575687    7957.5479    7078.8249    8423.5478    7425.7191    -575.4745   -632.06617     52.88443   -3878.7676 
28433000    119.99417   -5009.4515   -4778.0327   -5009.4515            0    8282.1682     19.72707    19.751943    20.503493    7989.1439    8956.8467    7321.4143    8568.2436   -69.196196    92.877916    1092.9747   -3813.0485 
28434000    118.81954   -5020.0438   -4790.8903   -5020.0438            0    5323.4727    19.929901    19.732327    20.624631    8110.9107    4633.4811    6056.1131    5280.8237    331.38233    659.31213   -358.08846   -4161.1804 
28435000    124.87142   -5000.1861    -4759.361   -5000.1861            0    7112.7043    19.776816    19.799657    20.492743    8024.4289    6312.4356    8235.6502    6790.0272   -21.017477    1117.8632    1932.1318    -3926.975 
28436000    123.95617   -4994.7173   -4755.6574   -4994.7173            0    6895.3448    19.759564     19.82091    20.420142    7997.6005    7708.6048    6939.1909    6038.2388    209.96949    715.09178   -547.49276   -3951.4065 
28437000    123.11719   -5008.6061   -4771.1642   -5008.6061            0    7196.4168    19.669142    19.851369    20.498691    8003.9065    8213.7873    6336.1123    7039.3508   -90.901047     1298.725    517.17352   -3931.1353 
28438000    126.66518    -5005.761   -4761.4765    -5005.761            0    6443.7716    19.703442    19.847306    20.443538    7994.6548      6977.25    5965.1457    6388.9192   -122.50806    257.70811    -388.7979   -4010.1724 
28439000    116.41704   -5001.9978   -4777.4778   -5001.9978            0    8495.1974    19.762452    19.737365    20.463523    7981.9759    8966.0636    8030.9953    8488.5333     276.4609     115.3343   -197.85882   -3788.5609 
28440000    123.96497   -4990.7676   -4751.6907   -4990.7676            0    5711.1121    19.765841    19.846732    20.584939    8075.2111    6748.3031    5375.4349    5009.5985     239.2265    1334.5069   -574.06994   -4079.1006 
28441000    122.98454   -4998.3569   -4761.1709   -4998.3569            0    6411.8361    19.704714    19.759334    20.482486    7974.8974    5251.7877    6947.7436    7035.9769   -227.88397     430.9028    463.35995   -4015.4378 
28442000    123.01604   -4995.3614   -4758.1146   -4995.3614            0     8308.237    19.774643    19.652105    20.506954    7969.2767    9102.0765    7982.1001    7840.5342    -432.0194    769.86581    689.93553   -3792.5004 
28443000    121.15393   -4996.0222   -4762.3667   -4996.0222            0    6999.6115    19.769334    19.701459    20.499259    7984.1487    4517.9583    9488.9514    6991.9246   -368.81434   -352.45441   -485.09189   -3947.3276 
28444000    121.27758   -4991.9913   -4758.0973   -4991.9913            0    6521.3362    19.766295     19.84068    20.453519    8021.3942     6197.716     7067.142    6299.1505   -76.515772     524.3957    770.23095   -3995.2066 
28445000    125.04026   -4999.8088   -4758.6581   -4999.8088            0    8495.7433    19.856733    19.691612    20.324168    7946.9748    7702.1607    7552.1869    10232.882   -143.03776   -66.036374   -543.97462   -3774.0144 
28446000     122.8892   -5010.3136   -4773.3115   -5010.3136            0    6033.7154     19.90782    19.831288    20.392902    8051.0711     6039.608    6563.0445    5498.4936    295.61447    740.89088   -369.13603    -4064.853 
28447000    117.75863   -4999.2535   -4772.1461   -4999.2535            0    6303.5713    19.841697    19.842567    20.420494    8039.7566    5632.2785    5499.0558    7779.3795   -357.91006    336.80079    370.51533   -4033.0423 
28448000    125.84226   -5004.6374     -4761.94   -5004.6374            0    8075.2045    19.729045    19.835811    20.404369    7985.0787     7455.862      9960.67    6809.0816   -412.54644    651.81316    132.44949   -3821.5487 
28449000    123.01862   -4986.3698   -4749.1181   -4986.3698            0    7579.0797    19.835826    19.862421     20.26941    7985.8947    6380.5091    7919.6174    8437.1124   -51.383895    517.60535    -76.90016   -3866.4124 
28450000    115.62523   -4994.9364   -4771.9434   -4994.9364            0    6263.2857    19.929455    19.816017    20.310103    8020.9148    5835.2866    6034.1126    6920.4578    91.206527   -469.15324    281.16142   -4039.2842 
28451000    120.84042   -5000.7522   -4767.7013   -5000.7522            0    7379.2214    19.870446    19.830804    20.289494    7995.0126     6674.015    7495.6311     7968.018    54.068829    343.48737    455.61585    -3907.291 
28452000     118.3861   -4996.4734   -4768.1559   -4996.4734            0    6174.4825    19.792746    19.831224    20.476616    8037.3663    5896.0411     5899.064    6728.3424    219.83542   -62.045088    671.55654   -4044.4032 
28453000    117.83771   -5007.1578   -4779.8978   -5007.1578            0    5593.7593    19.774572    19.765732    20.472152    8001.7222    4764.1704    5658.2889    6358.8186   -506.18556   -167.77611    89.976288   -4127.1234 
28454000    120.29885   -5008.4246   -4776.4181   -5008.4246            0    6807.7741    19.671994    19.825616    20.496784    7993.9381    7546.5038     5481.614    7395.2044    91.808787   -150.75303    258.07615   -3982.7447 
28455000    117.01684   -5005.4966   -4779.8198   -5005.4966            0    6929.1332    19.943881    19.748528    20.283403    7988.8673    5423.3847    7863.8666    7500.1484   -395.59229    785.15001    18.393057   -3972.5104 
28456000    120.00964   -5012.8644   -4781.4158   -5012.8644            0    6251.6471    19.737214    19.896918    20.394261    8009.0246    5357.3078    6457.2875    6940.3459   -9.3045519    72.567815     94.24692   -4051.2021 
28457000    120.41293   -5000.0441   -4767.8176   -5000.0441            0    6397.7411    19.732287    19.799245    20.513901    8014.4609    6215.0893    5273.6995    7704.4344    103.58647     418.6574   -724.27285   -4020.0324 
28458000    122.39353   -5004.2384   -4768.1922   -5004.2384            0    5540.2016    19.957085    19.757799    20.467134    8070.3559    5328.0207    5316.0631     5976.521   -109.52074   -228.16575   -473.49337   -4116.1223 
28459000    124.47248   -5009.1134   -4769.0577   -5009.1134            0    7118.0152    19.695297    19.825745    20.503778    8006.1908    6803.6753    7553.0106    6997.3597     25.61055   -527.32403    -130.6035   -3937.9435 
28460000     128.1938   -4998.7473   -4751.5148   -4998.7473            0    6925.6159    19.873589    19.764338    20.404316    8014.5769    6087.3971    7818.1587     6871.292    386.85178    282.22613   -574.86137   -3942.0184 
28461000    122.30919   -5003.2383   -4767.3548   -5003.2383            0    6117.8541    19.797903    19.740055    20.583762    8044.3751    6589.4165    7124.7435    4639.4021   -260.92977   -349.24194    -457.5282   -4049.6145 
28462000     121.2727   -5000.0048   -4766.1202   -5000.0048            0    6735.9592    19.787364    19.777208    20.461059    8007.2064    7348.3914    7204.2586    5655.2277    52.663926   -459.05247   -418.65258   -3979.5158 
28463000    128.92475   -5000.8627   -4752.2205   -5000.8627            0    6834.2611    19.729806      19.6766    20.562822    7982.8061    7368.0963    6351.8609    6782.8261    76.770326   -618.70476    184.17524   -3956.5687 
28464000     125.2932   -5007.9306   -4766.2921   -5007.9306            0    6873.3865    19.868958    19.754348    20.493841    8043.7983    3363.5645    9409.1496    7847.4453    207.78448    295.27804    726.74493   -3959.9714 
28465000    117.23146   -5006.4841   -4780.3933   -5006.4841            0    8509.8325    19.629294    19.806307    20.459806    7954.4416    9934.0322    8329.0081    7266.4571    117.79415   -588.28772   -406.80429     -3793.19 
28466000    120.52779   -5007.4767   -4775.0287   -5007.4767            0    6497.8311     19.67794     19.79987    20.522073    7995.8235    6424.8084    6341.2021    6727.4827    164.92028   -954.61035    948.07419   -4017.3109 
28467000    113.56809   -5004.5894   -4785.5638   -5004.5894            0    6512.9817    19.705952    19.797521    20.572491    8025.9254    6771.4363    6809.7682    5957.7407   -120.82996   -156.25543   -431.04075     -4023.22 
28468000     123.6263   -4996.3985   -4757.9748   -4996.3985            0    5527.5098     19.67498    19.785168    20.678526    8049.5875    6040.7512    5653.0012    4888.7771   -718.58354    1007.9265    138.19882   -4109.0729 
28469000    118.03685   -4980.1752   -4752.5312   -4980.1752            0    8691.4125    19.768594    19.711587    20.384811    7943.3564    9933.5914     7446.358    8694.2881    334.75418    789.32278    386.66678   -3745.6684 
28470000     118.4618   -5007.9357   -4779.4722   -5007.9357            0    6247.7387    19.745782    19.872114    20.433222     8017.801    7607.5338    5553.7183     5581.964    232.15686    1006.3782   -332.19853   -4048.9153 
28471000    119.16337   -5002.8226    -4773.006   -5002.8226            0    6688.9582    19.869827    19.753705    20.512786    8051.3239    7587.4184    6182.4155    6297.0407    57.121739    669.55998   -39.986088   -3987.5865 
28472000    118.03564   -5000.5708   -4772.9291   -5000.5708            0    7929.9952    19.803156     19.75286     20.34703    7959.1264    10065.843    7067.0526    6657.0904    209.20525    729.05643   -1013.7672   -3852.4494 
28473000    115.62607   -4999.6482   -4776.6536   -4999.6482            0    5718.0924    19.749923    19.889654    20.451964    8033.9231    6105.4105    5902.4049    5146.4618   -287.40679    725.56725   -340.63938   -4106.6845 
28474000    121.26294   -5004.3067   -4770.4409   -5004.3067            0    5616.7206    19.656808    19.875956    20.582569    8041.5654    5239.2084    6271.4895    5339.4639    407.38592   -216.92855    1033.5336   -4111.7233 
28475000    121.98191   -5007.4599   -4772.2076   -5007.4599            0    8389.3314    19.925434    19.599634    20.443952    7984.0011     8170.968    8982.0132    8015.0129   -406.55076    93.283847     90.61891   -3795.3667 
28476000     119.4652   -5001.8502   -4771.4515   -5001.8502            0    5929.2805    19.680804    19.801373    20.605016    8029.9178    6269.8438    6140.4092    5377.5886    114.94133    735.18253    946.32117   -4077.0847 
28477000    125.56887   -4978.3643   -4736.1942   -4978.3643            0    7082.8442    19.810159      19.7766    20.496897    8030.2252    6260.3274    7502.5483    7485.6568   -304.95998    678.79792    730.90938   -3906.7039 
28478000    121.11203   -4990.6692   -4757.0944   -4990.6692            0    6488.4832      19.8179    19.820462    20.438101    8028.0845    6770.6008    6176.3718    6518.4769    162.62233   -413.48674    615.16146   -3997.4139 
28479000    125.13212   -4999.8062   -4758.4784   -4999.8062            0    7731.7162    19.822714    19.682408    20.454137    7980.3605    6850.1921    9014.5034     7330.453     51.22383    11.454394    162.33256   -3858.6197 
28480000     127.8592   -5002.5982    -4756.011   -5002.5982            0    6836.5258    19.762333    19.775393    20.640173    8066.3423    7909.0986    7239.4813    5360.9976    624.04791    409.76826   -501.24683   -3951.7667 
28481000    131.86769   -5008.4753   -4754.1573   -5008.4753            0    7400.3131    19.793363    19.771041    20.432326    7995.8923    7132.6045    7507.5985    7560.7362   -1.8589762   -490.69698   -292.23964   -3891.1929 
28482000    123.98695   -4999.0652    -4759.946   -4999.0652            0    7822.0411    19.617432    19.921706    20.393706    7970.1198    7964.0322    7760.5342    7741.5568   -496.79045   -430.58121   -1244.6143   -3850.7431 
28483000    125.74931   -5014.2674   -4771.7493   -5014.2674            0    7085.9362    19.749962    19.873767    20.379276     7998.991    7075.8323    6975.4524     7206.524   -411.03426    347.92622   -348.81059   -3945.1247 
28484000    123.29867   -4998.3784   -4760.5865   -4998.3784            0    6061.2675    19.822807    19.857061    20.414348    8035.5504    6039.4214    5834.3042    6310.0771    227.54992   -411.84909   -156.45053    -4050.265 
28485000    118.56926   -5007.7025   -4779.0317   -5007.7025            0    6567.1856     19.75347    19.870159    20.392197     8004.031    8629.1733     5571.638    5500.7457   -473.47921   -902.16122   -512.38491   -4012.4403 
28486000     111.6491   -4988.5567    -4773.232   -4988.5567            0    7072.1556    19.749892    19.727815    20.502976    7988.4152    6356.1485    7040.2013    7820.1168    13.708216     876.3232    1041.6002   -3949.3058 
28487000    127.95014   -5011.0653   -4764.3027   -5011.0653            0     6515.477    19.688587    19.769979    20.551561    7999.5505     6145.354    6690.2608    6710.8161   -282.47163    249.25731    1009.9478    -4004.173 
28488000    125.52425   -4999.9463   -4757.8622   -4999.9463            0    6943.1005    19.724392    19.813293    20.457061    7994.7252    7733.0149    7136.5925    5959.6941      558.803     1439.379    320.73256   -3948.3324 
28489000    118.67387   -4995.8826   -4767.0101   -4995.8826            0    6490.3374    19.661214    19.889648    20.466557    8003.5418    8006.1867    5953.2359    5511.5895   -277.92499   -1056.5452   -182.63634   -4009.4355 
28490000    124.28867   -5004.5931   -4764.8919   -5004.5931            0    6425.2165    19.847251    19.698763    20.570528    8042.3832     6621.443    6123.4675    6530.7391   -31.241248   -434.56298    435.36487   -4011.2788 
28491000    112.72463   -4999.0379    -4781.639   -4999.0379            0    5953.8882    19.874166    19.677139    20.597632    8055.0485    4396.0709    9144.1289    4321.4648   -391.18461    950.90617    163.77054   -4082.2082 
28492000     123.0533   -5003.0214   -4765.7028   -5003.0214            0    7252.8102    19.663854    19.830197    20.452702    7975.2878    7474.1427    7550.8791    6733.4087   -771.43749   -1066.5251    693.75314   -3922.1183 
28493000    119.70822   -4991.3061   -4760.4387   -4991.3061            0    8633.7691    19.811801    19.797882     20.46517    8027.0887    9274.4444    9080.3365    7546.5264   -5.4445646    183.57926     373.3215   -3749.7105 
28494000     125.9398   -5006.6615    -4763.776   -5006.6615            0    4775.1834    19.760139    19.823325    20.557861    8052.7539    5565.0162    4272.2225    4488.3114   -473.42583    930.17595    403.19921   -4202.9729 
28495000    125.59275    -4989.212   -4746.9958    -4989.212            0    7512.3625    19.623898    19.846431     20.52013    7991.8588    8068.5685    7339.9542     7128.565    396.33219   -350.86674    248.87147   -3871.4069 
28496000    125.60687   -5001.0136   -4758.7702   -5001.0136            0    6636.7421    19.626034    19.835952    20.576977    8010.6395    6164.9393    6794.1004    6951.1866    15.256334    1241.2332    285.13121   -3983.4198 
28497000    116.42337   -4997.8315   -4773.2993   -4997.8315            0    6715.5524     19.71952    20.007438     20.42437    8058.1713    8236.6951    4587.5228    7322.4392   -331.00509   -34.987606    375.44136   -3984.0865 
28498000    121.32535   -4990.0079   -4756.0218   -4990.0079            0    6749.0279    19.792769     19.82216    20.404221    8005.2989    7006.0499    6089.5193    7151.5144    44.363656   -546.82073   -954.39425    -3968.079 
28499000    114.01186   -4997.6805    -4777.799   -4997.6805            0    7538.2653    19.793046    19.828047    20.383811    7999.7784    8278.3467    6555.2685    7781.1807    491.60905    358.69581   -693.27768   -3898.3205 
28500000    127.61384   -4995.8962   -4749.7822   -4995.8962            0    6321.2992    19.690179    19.865887    20.551182    8038.8596     6728.422    6263.0932    5972.3824   -501.97039     606.5374   -361.36869   -4008.6824 
Loop time of 339.576 on 64 procs for 250000 steps with 972 atoms

Performance: 127.218 ns/day, 0.189 hours/ns, 736.213 timesteps/s
195.3% CPU use with 32 MPI tasks x 2 OpenMP threads

MPI task timing breakdown:
Section |  min time  |  avg time  |  max time  |%varavg| %total
---------------------------------------------------------------
Pair    | 27.442     | 35.878     | 45.357     |  79.7 | 10.57
Bond    | 0.96663    | 1.1725     | 1.446      |   9.6 |  0.35
Kspace  | 150.08     | 156.36     | 167        |  35.1 | 46.05
Neigh   | 0.72484    | 0.82181    | 0.90436    |   6.7 |  0.24
Comm    | 57.124     | 61.792     | 66.648     |  38.2 | 18.20
Output  | 0.53326    | 0.5337     | 0.53651    |   0.1 |  0.16
Modify  | 67.939     | 69.844     | 71.507     |  11.1 | 20.57
Other   |            | 13.17      |            |       |  3.88

Nlocal:        30.3750 ave          36 max          23 min
Histogram: 3 1 2 4 1 2 9 3 5 2
Nghost:        2721.16 ave        2740 max        2699 min
Histogram: 2 2 4 4 2 3 4 3 4 4
Neighs:        9778.28 ave       12709 max        6540 min
Histogram: 1 3 4 2 1 8 7 3 1 2

Total # of neighbors = 312905
Ave neighs/atom = 321.91872
Ave special neighs/atom = 2.0000000
Neighbor list builds = 2508
Dangerous builds = 0

unfix		3
unfix		2
unfix		1

write_data	data.final.${pid}
write_data	data.final.1
System init for write_data ...
PPPM initialization ...
  extracting TIP4P info from pair style
  using 12-bit tables for long-range coulomb (../kspace.cpp:340)
  G vector (1/distance) = 0.37213293
  grid = 24 24 24
  stencil order = 5
  estimated absolute RMS force accuracy = 0.003517789
  estimated relative force accuracy = 1.0593717e-05
  using double precision FFTW3
  3d grid and FFT values/proc = 3211 432
Last active /omp style is kspace_style pppm/tip4p/omp
WARNING: Not all mixed pair coeffs generated from mixing. Use write_data with 'pair ij' option to store all pair coeffs. (../write_data.cpp:312)

write_restart   restart.lmp.${pid}
write_restart   restart.lmp.1
System init for write_restart ...
PPPM initialization ...
  extracting TIP4P info from pair style
  using 12-bit tables for long-range coulomb (../kspace.cpp:340)
  G vector (1/distance) = 0.37213293
  grid = 24 24 24
  stencil order = 5
  estimated absolute RMS force accuracy = 0.003517789
  estimated relative force accuracy = 1.0593717e-05
  using double precision FFTW3
  3d grid and FFT values/proc = 3211 432
Last active /omp style is kspace_style pppm/tip4p/omp
Total wall time: 0:05:39
