LAMMPS (30 Jul 2021)
  using 1 OpenMP thread(s) per MPI task
package omp 0
using multi-threaded neighbor list subroutines
echo both

include		in.partitions
variable        pid world 0
include		in.temp
variable        temperature equal 245.85
variable	tempDamp equal 100.0
include		in.pressure
variable        pressure equal 3375.0
variable        pressureDamp equal 1000.0 # This is 1 ps
include		in.seed
variable        seed world 745823

units		real
atom_style	full
read_restart	restart.lmp.${pid}
read_restart	restart.lmp.0
Reading restart file ...
  restart file = 30 Jul 2021, LAMMPS = 30 Jul 2021
  restoring atom style full from restart
  orthogonal box = (0.38689553 1.5472431 0.47201165) to (17.820677 22.081935 21.741184)
  4 by 4 by 4 MPI processor grid
  restoring pair style lj/cut/tip4p/long/omp from restart
  restoring bond style harmonic/omp from restart
  restoring angle style harmonic/omp from restart
  864 atoms
  576 bonds
  288 angles
Finding 1-2 1-3 1-4 neighbors ...
  special bond factors lj:    0        0        0       
  special bond factors coul:  0        0        0       
     2 = max # of 1-2 neighbors
     1 = max # of 1-3 neighbors
     1 = max # of 1-4 neighbors
     2 = max # of special neighbors
  special bonds CPU = 1.855 seconds
  read_restart CPU = 2.173 seconds
include 	in.setup
variable	out_freq equal 1000
variable	out_freq2 equal 10000
variable	out_freq3 equal 1000

timestep	2.0

neigh_modify    delay 7 every 1

include		in.tip4p
# This is TIP4P/Ice

# create groups ###
group ox type 2
288 atoms in group ox
group hy type 1
576 atoms in group hy

# set charges - beside manually ###
set group ox charge -1.1794
Setting atom values ...
  288 settings made for charge
set group hy charge 0.5897
Setting atom values ...
  576 settings made for charge

# ### TIP3P Potential Parameters ###
pair_style lj/cut/tip4p/long/omp 2 1 1 1 0.1577 8.5
pair_coeff 1 1*2 0.000 0.000
pair_coeff 2 2 0.21084 3.1668
bond_style  harmonic
bond_coeff  1 450 0.9572
angle_style harmonic
angle_coeff 1 55 104.52
kspace_style pppm/tip4p/omp 1.0e-5
pair_modify tail yes

thermo          ${out_freq}
thermo          1000
thermo_style    custom step temp pe etotal epair emol press lx ly lz vol pxx pyy pzz pxy pxz pyz enthalpy

restart 	${out_freq3} restart.lmp.${pid} restart2.lmp.${pid}
restart 	1000 restart.lmp.${pid} restart2.lmp.${pid}
restart 	1000 restart.lmp.0 restart2.lmp.${pid}
restart 	1000 restart.lmp.0 restart2.lmp.0


include         in.dump
dump            myDump all atom ${out_freq2} dump.water.${pid}
dump            myDump all atom 10000 dump.water.${pid}
dump            myDump all atom 10000 dump.water.0
dump            myDump2 all dcd ${out_freq2} dump.dcd
dump            myDump2 all dcd 10000 dump.dcd
dump_modify     myDump append yes
dump_modify     myDump2 append yes


variable natoms 	equal  "count(all)"                        # NUMBER ATOMS
variable H      	equal  "enthalpy/v_natoms"                 # ENTHALPY-per-atom
variable Vol      	equal  "vol/v_natoms"                 # volume-per-atom
fix AVG all 		ave/time ${out_freq} 1 ${out_freq} v_Vol v_H file vol_enthalpy.dat
fix AVG all 		ave/time 1000 1 ${out_freq} v_Vol v_H file vol_enthalpy.dat
fix AVG all 		ave/time 1000 1 1000 v_Vol v_H file vol_enthalpy.dat


timer           timeout 23:50:00 every 1000
New timer settings: style=normal  mode=nosync  timeout=23:50:00

fix 		1 all shake 1e-6 200 0 b 1 a 1
       0 = # of size 2 clusters
       0 = # of size 3 clusters
       0 = # of size 4 clusters
     288 = # of frozen angles
  find clusters CPU = 1.205 seconds
fix             2 all nph iso ${pressure} ${pressure} ${pressureDamp}
fix             2 all nph iso 3375 ${pressure} ${pressureDamp}
fix             2 all nph iso 3375 3375 ${pressureDamp}
fix             2 all nph iso 3375 3375 1000
fix             3 all temp/csvr ${temperature} ${temperature} ${tempDamp} ${seed}
fix             3 all temp/csvr 245.85 ${temperature} ${tempDamp} ${seed}
fix             3 all temp/csvr 245.85 245.85 ${tempDamp} ${seed}
fix             3 all temp/csvr 245.85 245.85 100 ${seed}
fix             3 all temp/csvr 245.85 245.85 100 745823

run             250000
PPPM initialization ...
  extracting TIP4P info from pair style
  using 12-bit tables for long-range coulomb (../kspace.cpp:340)
  G vector (1/distance) = 0.37362481
  grid = 24 24 25
  stencil order = 5
  estimated absolute RMS force accuracy = 0.0031432422
  estimated relative force accuracy = 9.4657807e-06
  using double precision FFTW3
  3d grid and FFT values/proc = 2730 288
Last active /omp style is kspace_style pppm/tip4p/omp
Neighbor list info ...
  update every 1 steps, delay 7 steps, check yes
  max neighbors/atom: 2000, page size: 100000
  master list distance cutoff = 10.8154
  ghost atom cutoff = 10.8154
  binsize = 5.4077, bins = 4 4 4
  1 neighbor lists, perpetual/occasional/extra = 1 0 0
  (1) pair lj/cut/tip4p/long/omp, perpetual
      attributes: half, newton on, omp
      pair build: half/bin/newton/omp
      stencil: half/bin/3d
      bin: standard
Per MPI rank memory allocation (min/avg/max) = 9.237 | 9.242 | 9.250 Mbytes
Step Temp PotEng TotEng E_pair E_mol Press Lx Ly Lz Volume Pxx Pyy Pzz Pxy Pxz Pyz Enthalpy 
 9500000    257.69328   -3911.3446   -3469.6672   -3911.3446            0    3340.1571    17.433781    20.534692    21.269173    7614.3068    4042.0569    4172.9881    1805.4261   -1367.2952   -1233.8231   -39.566335   -3098.7532 
 9501000    240.91375   -3916.8583   -3503.9403   -3916.8583            0    2388.5993    17.516052    20.631596    21.369543    7722.6132    3870.9256     1955.815    1339.0573    185.19535    -707.6902    148.33158    -3234.921 
 9502000    246.59484   -3947.9316   -3525.2764   -3947.9316            0    2294.6555    17.554938    20.677398    21.416983    7774.1601     1839.008     3676.307    1368.6517   -507.46328    1421.1095    654.74421   -3265.1126 
 9503000    240.33226   -3949.5586   -3537.6373   -3949.5586            0    2892.4102    17.454205    20.558748    21.294089    7641.0983    1386.4282    3367.9703    3922.8323    1145.8027    239.46394   -162.52259   -3215.3141 
 9504000    247.40404   -4006.6363   -3582.5942   -4006.6363            0    1545.6181    17.569891    20.695011    21.435226    7794.0432    2107.4704    998.90258    1530.4812   -150.99452   -893.08729    800.86685   -3406.9067 
 9505000    259.12502   -3966.9939   -3522.8625   -3966.9939            0    3592.5226    17.472899    20.580767    21.316896    7665.6762     2773.012     4365.558    3638.9978    867.32578    488.73545    1394.6897   -3121.2328 
 9506000    238.80795   -3924.9693   -3515.6607   -3924.9693            0    2648.4684    17.526116     20.64345     21.38182    7735.9317    3351.8821    2610.3889    1983.1343   -45.199539    1170.1981    603.05105   -3216.8588 
 9507000    248.97295   -3943.8695   -3517.1384   -3943.8695            0     2341.342    17.515587    20.631048    21.368975    7721.9979    3685.1579    2665.0198    673.84833    67.007351   -121.53854    997.89873   -3253.4625 
 9508000    251.93825   -3938.9123   -3507.0987   -3938.9123            0    3491.9739    17.491836    20.603073        21.34    7690.6281    4042.7439    2863.8746    3569.3031    98.973533   -655.44333   -227.92511   -3115.4392 
 9509000    260.85209   -3937.2931   -3490.2015   -3937.2931            0    4128.7125    17.538996     20.65862    21.397534    7752.9996    4192.2555    5485.8591    2708.0231   -107.63679    -567.0753   -951.54158   -3023.3699 
 9510000    246.37469    -3924.416   -3502.1382    -3924.416            0    4491.8472    17.541422    20.661479    21.400494    7756.2181    4659.0479    4157.0502    4659.4436   -187.81217   -1146.3392    180.52864   -2994.0362 
 9511000    240.66475   -3939.3155   -3526.8244   -3939.3155            0    3612.8555    17.608546    20.740541    21.482385    7845.5984    5647.8547    1567.9153    3622.7966    869.33706    244.37889    268.10341   -3113.4414 
 9512000    267.82651    -3948.561   -3489.5155    -3948.561            0    2231.2693    17.551949    20.673878    21.413337    7770.1901    1804.9996    1331.8815     3556.927    248.61768   -948.65637   -363.02333   -3236.6675 
 9513000    254.79383   -3931.6055   -3494.8976   -3931.6055            0    4090.8584    17.503411    20.616706     21.35412    7705.9047    3330.4189      4851.52    4090.6361   -251.66266    124.07722   -55.884204   -3035.1558 
 9514000    235.98939   -3939.9589   -3535.4812   -3939.9589            0    3275.9311    17.553174    20.675321    21.414831    7771.8171    2521.6915    3453.5322    3852.5695   -1196.0389    1214.6013    421.32999   -3164.1741 
 9515000     257.0259   -3962.3223   -3521.7887   -3962.3223            0    4283.8245    17.499512    20.612114    21.349364    7700.7571    3278.3641    5286.1807    4286.9289    297.05013     597.3693    1418.0499   -3040.6825 
 9516000    248.50861   -3945.7978   -3519.8626   -3945.7978            0     2703.312     17.56765    20.692371    21.432491    7791.0604    3314.3916    2273.3935    2522.1509   -34.808965   -899.89807    882.70908   -3212.6998 
 9517000    245.09126   -3927.1441   -3507.0661   -3927.1441            0    3842.0722    17.517518    20.633322    21.371331    7724.5522    2844.4839    3736.0143    4945.7185   -318.73543   -274.78586   -583.54291   -3074.2387 
 9518000    241.19801    -3947.704   -3534.2989    -3947.704            0    3200.6533    17.520266    20.636559    21.374684    7728.1884    2186.7468    4387.8211     3027.392    577.35528    -1097.575   -530.01832   -3173.5606 
 9519000    256.67524   -3946.8835   -3506.9509   -3946.8835            0    4078.8193    17.491845    20.603083     21.34001    7690.6396    4411.2956     4479.871    3345.2913    1230.0401    1148.3233    926.86277   -3049.4702 
 9520000    236.73787   -3926.0743   -3520.3137   -3926.0743            0    3158.4915    17.478176    20.586982    21.323333    7672.6235    4415.2617    2552.3147    2507.8982    143.79354     954.6841   -393.50843   -3166.8869 
 9521000    236.50382   -3922.2371   -3516.8777   -3922.2371            0    3030.8798    17.500233    20.612962    21.350243    7701.7081    2984.3231    2507.1768    3601.1394      144.541    1120.8155    1375.2162   -3176.4447 
 9522000    248.05741   -3912.9227   -3487.7608   -3912.9227            0    3478.4512    17.445139    20.548069    21.283028    7629.1975    4201.6606    1857.6649    4376.0282    48.223726    1110.2236    93.928932   -3100.7344 
 9523000    246.57523   -3963.9693   -3541.3478   -3963.9693            0    3495.0726    17.416807    20.514699    21.248464     7592.088    2541.7427    4163.3577    3780.1174   -729.92338    1029.2069   -280.52814   -3154.3635 
 9524000    262.34245   -3912.3664   -3462.7204   -3912.3664            0    4683.5176    17.464818    20.571249    21.307037    7655.0456    3293.7634     5181.458    5575.3314    466.70772    391.89321   -287.32688   -2939.8479 
 9525000    256.82609   -3947.8226   -3507.6315   -3947.8226            0    2249.2369    17.436205    20.537547     21.27213    7617.4832    1809.7579    3351.6502    1586.3028   -121.10128    -353.1917    68.025547   -3257.7566 
 9526000    257.51335   -3918.6729   -3477.3038   -3918.6729            0    4448.2198    17.447323    20.550642    21.285693    7632.0635    5145.1431    6080.7697    2118.7467    305.65387    165.73445   -136.16165   -2982.1911 
 9527000    245.47724   -3901.9138   -3481.1742   -3901.9138            0    1944.0457    17.462074    20.568016    21.303689    7651.4374    2071.4878    1873.3163     1887.333    865.28048   -673.85643    656.51053   -3264.2413 
 9528000    256.88412   -3938.0989   -3497.8083   -3938.0989            0    4857.6905    17.399538    20.494357    21.227396     7569.527    5214.0465     6684.092    2674.9332    930.57946    12.983121   -621.67537   -2961.5495 
 9529000    230.68131   -3906.5834   -3511.2035   -3906.5834            0    4728.1971    17.354714    20.441561    21.172711    7511.1768    5215.5457    4356.4841    4612.5614   -441.50167    -215.9581   -675.91227   -2993.2635 
 9530000    260.21644   -3921.7134   -3475.7113   -3921.7134            0    2476.1066    17.411079    20.507952    21.241476       7584.6    1662.4443    2164.8947    3600.9808   -1474.4295    696.43216   -882.47711   -3201.8202 
 9531000    260.57263   -3907.1391   -3460.5265   -3907.1391            0    3534.7378    17.349312    20.435197     21.16612    7504.1643     2879.692    5287.5481    2436.9734   -1287.2401    46.724535   -706.30551   -3073.6829 
 9532000    240.47308   -3893.6716    -3481.509   -3893.6716            0    3407.1994    17.374834    20.465259    21.197256    7537.3304    2774.8471    3431.0865    4015.6647    439.87829    97.608493   -798.09507   -3106.9752 
 9533000    249.40133   -3902.2079   -3474.7426   -3902.2079            0    4743.2705    17.313708    20.393262    21.122684    7458.0603    3617.0385    6964.9889     3647.784    778.76922    716.63162    -399.7404   -2958.8258 
 9534000    243.08569   -3957.1512   -3540.5106   -3957.1512            0     2310.776    17.435826      20.5371    21.271668    7616.9868    2570.8516    2732.4432    1629.0332   -1006.6692   -452.06698   -703.63059   -3283.8159 
 9535000    238.95845    -3952.262   -3542.6954    -3952.262            0    4243.9174    17.327422    20.409414    21.139414    7475.7962    5825.0781    3642.5832    3264.0909   -200.03056    1235.6019    341.19605   -3079.9946 
 9536000    252.61506   -3958.0017   -3525.0281   -3958.0017            0    5386.1156    17.266708    20.337901    21.065344    7397.4874    4788.2315     6937.365    4432.7502     1738.694   -50.536275    -634.7514   -2943.9483 
 9537000    258.44998   -3932.6498   -3489.6753   -3932.6498            0    4467.6936    17.315266    20.395097    21.124584    7460.0737    4945.2354    5156.6676    3301.1779    658.47691   -399.98058    391.61861   -3003.6013 
 9538000      249.679   -3951.2452   -3523.3039   -3951.2452            0    3036.8369    17.351469    20.437738    21.168751    7506.9638    5345.2878    2727.4787    1037.7442    178.92224   -1122.0423     1466.356   -3190.8269 
 9539000    247.94941   -3950.9533   -3525.9765   -3950.9533            0    1852.8096     17.40712    20.503288    21.236646    7579.4269     885.5243    3709.1303    963.77417    740.04257    563.39486    -789.4548   -3321.1704 
 9540000    247.26225   -3943.2375   -3519.4384   -3943.2375            0    4870.8007    17.381722    20.473372     21.20566    7546.2985    5564.7236    3798.2886      5249.39   -747.16902   -354.35357   -629.28665   -2983.3823 
 9541000    226.53431   -3894.5421     -3506.27   -3894.5421            0    1894.8462    17.500791     20.61362    21.350924    7702.4451    2773.3249    1368.4183    1542.7956   -1219.3712    1198.8965   -1049.6073   -3293.4176 
 9542000    245.82634   -3927.3109    -3505.973   -3927.3109            0    3436.3925    17.497177    20.609364    21.346516     7697.675    2100.0336    5330.9346    2878.2093   -271.58091   -294.36665   -687.09474   -3120.1943 
 9543000    250.25516   -3910.1514   -3481.2226   -3910.1514            0    5250.2033    17.371851    20.461745    21.193617    7533.4489    5716.4496    5537.1025    4497.0578    528.74397    1253.6812   -1262.5139   -2904.3952 
 9544000    254.57205    -3961.566   -3525.2382    -3961.566            0    3761.4997    17.489689    20.600544     21.33738    7687.7961    4429.8547    2884.7841    3969.8602    5.7258454    211.95885    203.67158    -3103.504 
 9545000    241.30362   -3970.9358   -3557.3497   -3970.9358            0    4911.8301    17.363639    20.452073    21.183599    7522.7709    6232.1613    5211.7685    3291.5606    711.62875   -423.64232   -564.50586   -3018.4635 
 9546000    249.98644   -3920.1576   -3491.6894   -3920.1576            0    3220.8305     17.46105    20.566811    21.302441    7650.0923    2147.1044    3721.7384    3793.6485   -12.302763   -17.545868   -423.17652   -3132.3454 
 9547000    247.53617   -3960.1008   -3535.8323   -3960.1008            0    3157.8966    17.435556    20.536782    21.271337    7616.6322    2961.8535    3277.8079    3234.0282   -970.47071   -1253.1088     310.6245   -3185.0507 
 9548000    246.17983   -3944.3697   -3522.4259   -3944.3697            0    3228.2236    17.439113    20.540972    21.275677     7621.295    3976.6545    2624.3339    3083.6825   -290.85541   -550.33583   -839.33782   -3163.6128 
 9549000    241.27706   -3912.5685   -3499.0279   -3912.5685            0    4510.6795    17.426397    20.525994    21.260164    7604.6355    4060.1326    4774.4177    4697.4881    215.93137    154.28049   -433.61658   -2998.7673 
 9550000    244.18597   -3966.0041   -3547.4777   -3966.0041            0    3108.8538    17.424688     20.52398    21.258078    7602.3978    2719.4662    3580.6848    3026.4103     624.9794   -900.03636    154.55441   -3202.7892 
 9551000    244.50546   -3946.2061   -3527.1321   -3946.2061            0    3172.0169    17.488489     20.59913    21.335915    7686.2133    4654.1953    2237.9651    2623.8903     658.9333    501.50947    61.910413   -3171.5632 
 9552000    249.04762   -3969.0896   -3542.2305   -3969.0896            0    3972.8779    17.407103    20.503269    21.236625    7579.4051    3732.8517    4443.2017    3742.5803    639.82259   -536.04298     254.4174   -3103.0772 
 9553000    247.68981   -3963.3155   -3538.7837   -3963.3155            0    4638.5874    17.365967    20.454816    21.186439    7525.7974    4415.4885    4571.8075    4928.4663    956.68936    350.08419   -590.38487   -3029.6707 
 9554000    244.68017   -3919.4803   -3500.1068   -3919.4803            0    1383.0496    17.496179    20.608188    21.345297    7696.3574    1922.8293   -210.31524    2436.6347    201.84814    785.27899   -742.81602   -3344.8685 
 9555000    240.16709   -3947.5742   -3535.9361   -3947.5742            0     3682.903    17.468023    20.575024    21.310948    7659.2611    5050.1448    4059.4999    1939.0642    2064.6056    -367.2744   -1229.1146   -3124.5467 
 9556000    262.90305   -3944.3938    -3493.787   -3944.3938            0    2695.2036    17.469008    20.576184    21.312149    7660.5568    2736.3153    2014.0102    3335.2854   -1137.0363    -674.4807    698.43412   -3192.6752 
 9557000    244.57744   -3937.4825   -3518.2852   -3937.4825            0    2289.2541    17.490855    20.601916    21.338802    7689.3332    3127.7977    1203.5167    2536.4477    1373.1605    139.82729    15.443893   -3261.5658 
 9558000    229.12041   -3887.1048   -3494.4003   -3887.1048            0    3216.0291     17.43955    20.541486     21.27621    7621.8676    4513.6362     2553.806    2580.6452   -880.63976   -737.31727   -499.75831   -3136.9158 
 9559000    243.51525    -3893.844   -3476.4672    -3893.844            0    3475.3953    17.469138    20.576337    21.312308    7660.7277    2202.3904    3055.4031    5168.3923    283.37014    1478.3433   -509.78867   -3088.1826 
 9560000    234.37229   -3905.3968   -3503.6907   -3905.3968            0    3000.9957    17.575921    20.702114    21.442583    7802.0707     2395.827    3189.3297    3417.8303   -480.46369    527.00857   -689.52405   -3162.2219 
 9561000    237.02864   -3896.3997   -3490.1408   -3896.3997            0    2862.7303    17.443681    20.546352     21.28125    7627.2853    2545.6421    3873.0869     2169.462   -870.81521    416.04563    1244.5087   -3171.7017 
 9562000    250.06918   -3906.0449   -3477.4349   -3906.0449            0    4184.5395     17.47369    20.581698    21.317861    7666.7172    4649.2895    3271.6298    4632.6991   -557.46876    336.85646    320.88878   -3009.5565 
 9563000    251.36336   -3902.2687   -3471.4405   -3902.2687            0    3878.4847    17.511859    20.626657    21.364427    7717.0684    3995.1732    3803.3408    3836.9402   -485.75636   -1073.1507    579.04159   -3034.9344 
 9564000    246.03429   -3935.6346   -3513.9402   -3935.6346            0    2792.8268    17.463528    20.569729    21.305463     7653.349     1093.749    4331.6464    2953.0851    1052.6555   -904.31619    266.88293   -3202.2154 
 9565000    230.27692   -3931.3505   -3536.6638   -3931.3505            0    4291.5691    17.471881    20.579568    21.315654    7664.3363    3547.7062     4046.634    5280.3671   -21.060572    199.23667    132.98108   -3056.9673 
 9566000    265.60979    -3942.072    -3486.826    -3942.072            0     4129.258    17.435526    20.536746    21.271301    7616.5926    4260.1431    4334.1415    3793.4894     180.0221   -410.81998   -893.24829   -3028.1472 
 9567000    234.48567   -3942.2299   -3540.3295   -3942.2299            0    1914.2871    17.532188    20.650602    21.389229    7743.9754    3193.3057    1974.5125    575.04301     -548.187   -429.55251    672.57629   -3324.1339 
 9568000    253.96453   -3952.4797   -3517.1932   -3952.4797            0    3793.9592    17.445482    20.548473    21.283447    7629.6479    2557.1862    5086.9319    3737.7595    655.81529   -475.63575     552.2845   -3095.0371 
 9569000    243.92442    -3980.523   -3562.4449    -3980.523            0    3085.2475    17.474013    20.582079    21.318255    7667.1429    4382.7306    1065.3786    3807.6334    266.71267     104.9252   -350.49094   -3217.4605 
 9570000    238.01726    -3932.501   -3524.5476    -3932.501            0     3889.529    17.499227    20.611778    21.349016    7700.3805    5442.6893    3196.9239     3028.974    2185.9991    529.36278    664.71336   -3087.7451 
 9571000    239.98456   -3945.7721   -3534.4468   -3945.7721            0    3134.3468    17.531333    20.649595    21.388186    7742.8425    2584.6367    3361.7945    3456.6093   -59.339812   -188.77568    412.87578   -3180.5119 
 9572000    252.72758   -3893.5889   -3460.4225   -3893.5889            0    2646.5621    17.541704     20.66181    21.400837    7756.5909    2819.8993     2114.133    3005.6541    435.71544   -1068.4501    220.34602   -3161.0383 
 9573000    221.54702   -3935.3176   -3555.5936   -3935.3176            0    2635.6765     17.52094    20.637353    21.375506    7729.0804    2667.5998    1163.5994    4075.8302   -352.78522     272.9455    954.57013   -3258.4983 
 9574000    249.51733    -3947.225   -3519.5609    -3947.225            0    3305.7804    17.429312    20.529428     21.26372    7608.4525    1885.7709    3600.5967    4430.9735    682.42022   -916.09056   -56.167911   -3152.7466 
 9575000    252.78062   -3926.3714   -3493.1141   -3926.3714            0    3629.0256    17.394016    20.487853    21.220659    7562.3223    4245.3167    1927.3492    4714.4109    669.08636   -899.83876    501.06095   -3092.8735 
 9576000    237.80113   -3908.1717   -3500.5887   -3908.1717            0    2561.6538    17.450705    20.554625    21.289819    7636.5027    2905.2484    1483.1571    3296.5559    658.64573   -333.61276    455.99473   -3215.2959 
 9577000    243.76995   -3937.4489   -3519.6356   -3937.4489            0    3006.4412    17.432949    20.533711    21.268157    7613.2165    3665.5069    2380.9938     2972.823    351.75156   -261.76226   -350.92205   -3185.8275 
 9578000    265.10633   -3922.2398   -3467.8566   -3922.2398            0    2293.3162    17.542533    20.662787    21.401849    7757.6912    1969.8403    2819.2084       2090.9   -1865.0684    272.02267     188.3526   -3208.3955 
 9579000    255.75766   -3956.6504   -3518.2905   -3956.6504            0    4629.8805    17.410786    20.507606    21.241118    7584.2166    3924.9908     4846.981    5117.6698    164.38145   -485.39438    1242.3423   -3006.1886 
 9580000    253.69192   -3906.3405   -3471.5212   -3906.3405            0    2462.3765    17.502651    20.615811    21.353193    7704.9016    2668.1875    2126.4142    2592.5279    701.45259    1535.0029   -1247.2486   -3194.8287 
 9581000     238.5997   -3928.6584   -3519.7067   -3928.6584            0    4547.9638    17.447927    20.551353     21.28643    7632.8566    3506.7484    4334.0711     5803.072   -583.63974    1127.3617   -156.51568   -3013.4392 
 9582000    240.85363   -3930.2479    -3517.433   -3930.2479            0    4254.5941    17.354168    20.440917    21.172044    7510.4674    3626.0673    4518.5503    4619.1647    1569.3957    397.92727   -327.15791   -3051.4169 
 9583000    232.84615   -3902.4159   -3503.3256   -3902.4159            0    4518.4129    17.353065    20.439618    21.170699    7509.0358    4681.0029    3878.8044    4995.4315   -985.60174    194.40013     646.6312    -3008.507 
 9584000    267.42151   -3922.8655   -3464.5142   -3922.8655            0    4966.6038    17.327535    20.409547    21.139552    7475.9423    4960.5903    4935.8239    5003.3973    846.35241   -768.94318    201.14087   -2923.0106 
 9585000    245.02988   -3919.2336   -3499.2607   -3919.2336            0    3995.5622    17.384735    20.476921    21.209336    7550.2232    2668.1043    4786.8248    4531.7575   -17.916476   -78.258377    -7.377912   -3059.3004 
 9586000    250.03702   -3939.2598   -3510.7049   -3939.2598            0    3264.5229    17.452165    20.556345      21.2916    7638.4194    2831.7835    3512.2661    3449.5192     709.2607    39.627768   -315.46517   -3147.0419 
 9587000    239.33642   -3934.3514   -3524.1369   -3934.3514            0    5637.8113    17.429455    20.529595    21.263894    7608.6392     6527.103    5925.7918    4460.5391    274.55365   -215.86212   -569.17321   -2898.5417 
 9588000    256.55993   -3917.0001   -3477.2651   -3917.0001            0    5123.0773    17.354196    20.440951    21.172079    7510.5042    4731.8496     4198.996    6438.3863    15.871686    1027.7671    769.60178   -2916.1191 
 9589000    237.67371   -3959.7221   -3552.3575   -3959.7221            0    4620.5981    17.408243     20.50461    21.238015    7580.8932    3873.4496    5066.7963    4921.5484    142.64466    705.01675    218.89944   -3041.5062 
 9590000    242.43309   -3926.0249   -3510.5029   -3926.0249            0    4244.9468    17.384636    20.476805    21.209216     7550.095    4694.3024    5073.1489    2967.3891    805.68479    -750.8841    40.636526   -3043.0901 
 9591000    242.52714   -3963.0044   -3547.3212   -3963.0044            0    4273.4382    17.408791    20.505256    21.238684    7581.6091    3695.0189    5823.6396    3301.6561      -75.926   -168.08747    451.84184   -3074.8072 
 9592000    253.33459   -3946.3586   -3512.1518   -3946.3586            0    4433.9936    17.389604    20.482656    21.215276    7556.5692    5601.7173    4105.6725     3594.591    446.17095    -393.5896   -170.95564   -3023.5044 
 9593000    240.47473   -3969.0961   -3556.9307   -3969.0961            0    2560.9139    17.456655    20.561633    21.297078    7644.3163    3407.8382    1910.2059    2364.6977    6.0156499   -879.25132   -740.79037   -3271.4284 
 9594000    244.88209   -3948.0842   -3528.3646   -3948.0842            0    2841.3127    17.456815    20.561823    21.297274    7644.5276    2408.2431     3486.868     2628.827   -604.28764   -24.552094   -1528.1169   -3211.5935 
 9595000    236.96383   -3954.1823   -3548.0344   -3954.1823            0    2393.6524    17.444273    20.547049    21.281972    7628.0617    2398.1497    4281.4332    501.37435   -89.306516    -485.7295   -430.89879   -3281.7466 
 9596000    259.13318   -3938.3876   -3494.2422   -3938.3876            0    3182.8938    17.458968    20.564358      21.2999    7647.3558    3445.1607    2686.0928    3417.4279     387.9641   -463.51236    -371.0601   -3139.2577 
 9597000      250.182   -3959.4638   -3530.6604   -3959.4638            0    4152.0046    17.375192    20.465681    21.197694    7537.7967    2852.7509     3869.578     5733.685   -196.74266   -366.89228   -1436.2429   -3074.2263 
 9598000    242.49781   -3971.8196   -3556.1866   -3971.8196            0    3493.3132    17.394643    20.488592    21.221424    7563.1399    4952.3027    3143.0269      2384.61    -221.9201   -1521.3738   -99.208613   -3170.8719 
 9599000     257.3624   -3957.3697   -3516.2594   -3957.3697            0    3265.3702    17.439122    20.540982    21.275688    7621.3064    3374.5922    3651.5312     2769.987    615.83621    741.76529    851.51045   -3153.3169 
 9600000    244.43794   -3956.2674   -3537.3091   -3956.2674            0    3293.0861    17.475334    20.583635    21.319866    7668.8816    3291.6432    4820.4057    1767.2095   -399.52584    297.01673   -66.831377   -3169.0012 
 9601000    244.48035   -3967.4811   -3548.4501   -3967.4811            0    1231.4289    17.526259    20.643618    21.381995    7736.1212    1898.9566      1900.45   -105.11981   -439.23465   -1306.0455    334.85267   -3409.5162 
 9602000    257.67668   -3944.3553   -3502.7062   -3944.3553            0    3949.7751    17.377382     20.46826    21.200365    7540.6472    4103.3975    4521.2012    3224.7267   -629.28543    1.7937617   -1344.4834   -3068.3392 
 9603000    249.28601   -3939.6997    -3512.432   -3939.6997            0    4723.9731    17.491968    20.603228     21.34016    7690.8015     5247.548    3500.2681    5424.1031   -1284.4238   -296.78471   -45.470266   -2982.5796 
 9604000    237.47505   -3938.9916   -3531.9675   -3938.9916            0    1742.9354    17.589586    20.718209    21.459254    7820.2829    3861.7229    1275.0629    92.020366    447.56958   -472.90548    117.49077   -3333.1843 
 9605000    258.33281   -3956.8208   -3514.0472   -3956.8208            0    1573.9128    17.529561    20.647507    21.386023    7740.4942    1999.5955    1539.7674    1182.3755    211.17085   -1272.8359   -1575.8752   -3336.3727 
 9606000     247.7526   -3976.1385    -3551.499   -3976.1385            0    4210.0256    17.402156    20.497441    21.230589     7572.944    4631.7999    5086.4534    2911.8236    924.33923   -130.96053   -472.09788   -3086.5285 
 9607000    235.09518   -3941.4037   -3538.4586   -3941.4037            0    1587.0062    17.537495    20.656852    21.395703    7751.0091    1818.3532    1826.1093    1116.5562   -613.98124   -35.515521   -194.79798   -3359.0626 
 9608000    240.60067   -3938.0787   -3525.6974   -3938.0787            0     3601.753    17.498431     20.61084    21.348045    7699.3298    4725.5585    2626.0518    3453.6488   -1525.0357    -124.4792   -26.058716    -3121.268 
 9609000    233.36764   -3931.4106   -3531.4264   -3931.4106            0    3530.7432    17.545919    20.666775     21.40598    7762.1838    2835.2459    3323.3981    4433.5856     395.2683   -1510.2132   -239.28918    -3131.734 
 9610000    242.02573   -3937.3826   -3522.5588   -3937.3826            0    3555.6496    17.543963    20.664471    21.403594    7759.5889    2527.8717    5327.2867    2811.7902    116.87129    372.46129   -1003.2849   -3120.1815 
 9611000    254.32782   -3946.7036   -3510.7944   -3946.7036            0    3992.2947    17.522489    20.639178    21.377396    7731.1307    5234.4675    2844.9509    3897.4656    903.22006   -572.73131    1058.7752   -3060.6608 
 9612000    242.00972   -3933.9046   -3519.1082   -3933.9046            0     3824.666    17.561514    20.685143    21.425006    7782.8995    1788.5018    4783.3269    4902.1694     973.6571    347.83756    -306.8607   -3084.9872 
 9613000    235.32742   -3954.4516   -3551.1085   -3954.4516            0    2391.9043    17.561133    20.684695    21.424541    7782.3935    3372.8967    858.01743    2944.7986    128.32954    366.65569   -218.78646   -3279.6316 
 9614000    261.92139   -3952.8176   -3503.8934   -3952.8176            0    2107.9612    17.572934    20.698595    21.438939    7798.0933    2493.4059    433.95005    3396.5278    303.66259    171.91183   -499.06056   -3264.1608 
 9615000     253.9017   -3967.2554   -3532.0766   -3967.2554            0    3260.4596    17.597333    20.727334    21.468705    7830.6196    2624.7704    2597.9086    4558.6999     202.8897    -457.6152    676.78884    -3159.727 
 9616000    237.97699   -3960.3048   -3552.4204   -3960.3048            0    3944.4868    17.541701    20.661806    21.400834    7756.5873    3837.6486     4807.329    3188.4827    1131.4721    110.59187    610.60843   -3106.2126 
 9617000     240.7452   -3982.4791     -3569.85   -3982.4791            0    2593.5981    17.498483    20.610901    21.348108    7699.3979    878.39547    3939.5076    2962.8913    523.64544   -747.38632   -985.14762   -3278.6205 
 9618000     244.1795   -3951.6092   -3533.0939   -3951.6092            0    3366.8682    17.442223    20.544635    21.279472    7625.3734    5603.6952    2813.1674    1683.7419    1121.7847   -829.72992   -767.88672   -3158.6704 
 9619000    254.79878   -3951.9773   -3515.2609   -3951.9773            0    2944.1524    17.467035     20.57386    21.309742    7657.9612    1744.0377    2870.9913    4217.4284   -351.83474   -1083.6173    298.18017   -3186.4477 
 9620000    239.39455   -3931.0503   -3520.7363   -3931.0503            0     2553.955    17.447707    20.551094    21.286162    7632.5675    2877.4286     2499.078    2285.3584   -393.39256    1553.1539    186.96148   -3236.4475 
 9621000    253.28934   -3955.9191   -3521.7898   -3955.9191            0     2746.523    17.438823     20.54063    21.275323    7620.9148    3834.9258    2984.6971     1419.946    1663.2673    971.07448   -56.146693   -3216.5324 
 9622000    255.40869   -3918.0705   -3480.3088   -3918.0705            0    4397.0895    17.421213    20.519888     21.25384    7597.8513    4775.7722    3511.5583     4903.938    66.734999    1303.8926    32.253181    -2993.081 
 9623000    226.53899   -3930.5419   -3542.2618   -3930.5419            0    1967.5907    17.500356    20.613108    21.350393     7701.871    2373.0668    1831.6734     1698.032    451.72785    567.42983    -167.1142   -3321.2543 
 9624000    250.49585   -3931.0358   -3501.6944   -3931.0358            0    1835.3875    17.545572    20.666367    21.405557    7761.7243    -107.9511    2654.0531    2960.0605   -863.46224    58.002188   -178.14938   -3293.9345 
 9625000    263.20342   -3919.1978   -3468.0762   -3919.1978            0    2924.9689    17.463734    20.569972    21.305715    7653.6206    2681.3978    2766.2302    3327.2788   -24.839963   -381.27574   -427.41902   -3141.5906 
 9626000    249.10357   -3928.6633   -3501.7083   -3928.6633            0    3502.5629    17.491896    20.603143    21.340073    7690.7071    2947.9059    2889.3311    4670.4516    46.714355    887.80609    917.78966   -3108.8571 
 9627000    245.55549   -3933.9824   -3513.1087   -3933.9824            0    1658.0361    17.570635    20.695887    21.436133    7795.0326    1156.9934    1241.6591    2575.4557    276.31077    -530.8982   -1247.6572   -3324.6189 
 9628000    244.91354   -3924.4546   -3504.6812   -3924.4546            0    4132.8681    17.452546    20.556794    21.292065    7638.9196    4397.2734    4287.7162    3713.6146    39.555437   -425.78577   -1022.6763   -3044.2557 
 9629000    244.27427   -3898.8249   -3480.1472   -3898.8249            0    3522.3028     17.42321    20.522241    21.256276    7600.4646    3898.9788    4597.1687     2070.761     1045.683    361.53704    455.57979   -3089.7176 
 9630000    243.27299   -3963.7198   -3546.7582   -3963.7198            0    3613.2213    17.476631    20.585163    21.321449    7670.5891    3143.6065    4541.6251    3154.4323    566.56682   -670.72251   -697.56146   -3142.5556 
 9631000    250.67516   -3959.8696    -3530.221   -3959.8696            0    2970.2288    17.373075    20.463187    21.195111    7535.0417    2232.7644    4941.4589    1736.4632   -55.017837   -744.46269    227.62934     -3203.82 
 9632000    245.01927   -3904.7523   -3484.7977   -3904.7523            0    3206.4015    17.463389    20.569565    21.305294    7653.1664    2911.5407    3139.8598     3567.804   -488.91701   -7.6191974    1115.3267   -3126.9197 
 9633000    232.92869   -3919.1109   -3519.8791   -3919.1109            0    3137.7316    17.389063    20.482019    21.214616    7555.8637    1998.9658    2242.6848    5171.5443   -1435.7058   -556.19651    78.727577   -3174.1182 
 9634000    240.79132   -3967.7306   -3555.0225   -3967.7306            0    2306.4877    17.432353    20.533009     21.26743    7612.4355    3395.1798    629.78482    2894.4986    251.30281    318.49242    -877.2587   -3298.9572 
 9635000    237.90531   -3949.5336   -3541.7721   -3949.5336            0    4213.2446    17.342444    20.427108    21.157741    7495.2562    4433.7272    4497.1917    3708.8147    -899.9507    719.06012    670.41634   -3081.2197 
 9636000    242.18365   -3923.6771   -3508.5826   -3923.6771            0    2541.6227    17.547537    20.668681    21.407954    7764.3317    2594.0733    2286.0822    2744.7128    389.34524    56.685128   -397.62047   -3220.7825 
 9637000    236.84048   -3941.7856   -3535.8491   -3941.7856            0    3142.4584    17.488549      20.5992    21.335988    7686.2922    5046.1839    2510.6725    1870.5188   -70.863216    1094.6948   -101.15924   -3183.5899 
 9638000    250.83497   -3937.2834   -3507.3608   -3937.2834            0    3127.4819     17.56837     20.69322    21.433371    7792.0194    3734.2116    2398.9263     3249.308    677.40738    1060.3862   -855.50128   -3151.9581 
 9639000    238.50269   -3968.4862   -3559.7007   -3968.4862            0    2219.3754    17.536617    20.655818    21.394631    7749.8448    263.20427     2177.237    4217.6849   -450.59996    21.735761   -672.22631   -3308.8591 
 9640000    249.28378   -3940.7877   -3513.5239   -3940.7877            0    3657.9877    17.487305    20.597735    21.334471    7684.6526    3704.4344    3382.5192    3887.0096    437.57003    1281.2527    927.78748    -3103.563 
 9641000    245.87083   -3954.2578   -3532.8436   -3954.2578            0    4380.2272    17.446805    20.550032    21.285061     7631.384    4614.9753    3423.9632    5101.7432    94.911782     2212.853    1067.4457   -3045.3422 
 9642000    241.67559    -3951.652   -3537.4283    -3951.652            0    3376.1721    17.494505    20.606216    21.343255     7694.148    2046.5509    3740.2755    4341.6898   -426.50164    467.14155    614.27036   -3158.5838 
 9643000    235.60448   -3932.9163   -3529.0983   -3932.9163            0    2339.3673    17.543771    20.664245     21.40336    7759.3344    2464.1282    2655.2339    1898.7398   -21.927305    802.81344    1259.4247   -3264.3709 
 9644000    231.25695   -3910.5728   -3514.2063   -3910.5728            0    2791.6296     17.51698    20.632689    21.370675    7723.8405    4203.2362    2779.1759    1392.4766   -621.64449    910.32887   -67.345071   -3199.7452 
 9645000     254.8514    -3919.803   -3482.9964    -3919.803            0    2314.7132    17.481459    20.590849    21.327339    7676.9479    3785.5728    1555.5306    1603.0363   -1376.9354    -645.5147    924.19264   -3223.8402 
 9646000    228.76192   -3907.6013   -3515.5112   -3907.6013            0    4553.8958    17.457717    20.562884    21.298374    7645.7117    3935.8743    6343.3628    3382.4502    382.27829   -1229.5072    379.51197   -3007.7297 
 9647000    231.94626   -3941.3429    -3543.795   -3941.3429            0    3817.8075     17.51004    20.624514    21.362208    7714.6638    5077.9214    3330.9279    3044.5732    587.48025   -1640.6314   -29.641535   -3114.2517 
 9648000    237.15829   -3959.6041    -3553.123   -3959.6041            0    2630.0685    17.546832     20.66785    21.407094    7763.3955    4000.7699    1910.1858    1979.2499     604.3335    -1491.131    1037.8409   -3255.3435 
 9649000    261.37162   -3927.6048   -3479.6228   -3927.6048            0    2643.6177    17.532599    20.651086     21.38973    7744.5203    2963.2208    2281.3274     2686.305    630.31536   -1884.9789   -779.32902   -3181.0371 
 9650000    234.68622   -3937.9771    -3535.733   -3937.9771            0    1774.4898    17.518987    20.635052    21.373123    7726.4949    2997.9258    723.86495    1601.6787    1615.7156   -1542.8274   -2051.2102   -3335.7781 
 9651000    247.06224   -3934.0704   -3510.6142   -3934.0704            0    4991.7651    17.484423     20.59434    21.330955    7680.8534    5657.5489    4632.1942    4685.5522    18.773835   -414.23233    114.77555   -2951.4498 
 9652000    222.96407   -3929.6274   -3547.4746   -3929.6274            0    2059.7721    17.506405    20.620232    21.357773    7709.8599    1611.0083    2337.3304    2230.9774   -561.84921    278.49586    76.158666    -3315.873 
 9653000    246.80372   -3926.0675   -3503.0544   -3926.0675            0    2108.0581     17.46902    20.576198    21.312164    7660.5725    3167.4416    757.72024    2399.0125   -910.68894   -562.58535   -397.82946   -3267.5388 
 9654000    237.68015   -3951.8462   -3544.4706   -3951.8462            0    3834.7074    17.453361    20.557754     21.29306    7639.9906    3535.9052    3796.2502    4171.9667   -413.21869   -16.028425   -1621.6203    -3117.202 
 9655000    248.26648   -3944.1699   -3518.6497   -3944.1699            0    2357.9564    17.544715    20.665357    21.404512    7760.5869    1718.0468    3886.6259    1469.1964    53.301787    1190.5512   -1460.6531   -3251.7757 
 9656000    220.57331   -3925.5896   -3547.5345   -3925.5896            0     2573.542    17.454112    20.558638    21.293976    7640.9765    3268.3314    2544.5375     1907.757   -303.67754    42.392641   -1773.5832   -3260.7498 
 9657000    238.16312   -3946.9249   -3538.7215   -3946.9249            0    3843.0519    17.409857    20.506512    21.239985    7583.0022    3419.4604    4542.1121    3567.5833   -1123.9271    31.165436    -1855.315   -3113.7172 
 9658000    245.20023   -3931.9634   -3511.6986   -3931.9634            0    2196.8268    17.371168    20.460942    21.192785    7532.5611    2606.3304     2490.042     1494.108   -1261.9428   -618.79033   -1385.4844   -3270.3669 
 9659000    241.99053    -3907.482   -3492.7185    -3907.482            0    3476.8226    17.411764    20.508758    21.242312    7585.4948    3240.9603    3648.3731    3541.1344    662.24289    497.93102   -737.32539   -3108.0892 
 9660000    254.43297   -3886.3222   -3450.2328   -3886.3222            0    6281.6349    17.355949    20.443015    21.174217    7512.7803    6859.8373    6537.1361    5447.9312   -40.541903   -767.88604    603.77256    -2761.978 
 9661000    238.75187    -3930.408   -3521.1955    -3930.408            0    3855.2656    17.481234    20.590584    21.327065    7676.6518    3097.7503     4014.789    4453.2573    250.42442    656.08325     464.2813    -3089.575 
 9662000    227.84868   -3906.1455   -3515.6207   -3906.1455            0    3239.1744    17.486633    20.596944    21.333651    7683.7665    3125.3386    2794.5418    3797.6427   -397.35826   -120.19049    208.00981   -3152.6393 
 9663000    240.46518   -3919.1538   -3507.0047   -3919.1538            0    4558.6868    17.398742     20.49342    21.226424    7568.4879    4670.9683    4528.2185    4476.8736   -847.00898   -790.24668   -342.64869   -3003.8231 
 9664000    247.28524   -3939.5368   -3515.6984   -3939.5368            0    3877.1767    17.395582    20.489698     21.22257    7564.3654    3811.8762     4122.925    3696.7289      585.225   -693.25748    236.82457    -3087.974 
 9665000    245.54158   -3947.7327   -3526.8828   -3947.7327            0    1860.5586    17.497028    20.609187    21.346333    7697.4775    814.10059    1741.1442     3026.431   -833.17829   -945.81649    -653.0581   -3318.0169 
 9666000    248.39612   -3925.7739   -3500.0315   -3925.7739            0    3227.4604     17.46956    20.576834    21.312822    7661.2825    2925.6438    3464.9816    3291.7559    723.86885    1086.4902   -259.10978    -3139.421 
 9667000    231.37675   -3938.7166   -3542.1448   -3938.7166            0    3003.3307    17.542305    20.662518    21.401571    7757.3889    3078.0196    3768.7917    2163.1807    22.207989   -481.29794   -1684.2298   -3202.3673 
 9668000    258.49551   -3905.4998   -3462.4473   -3905.4998            0    3029.6005    17.533057    20.651626    21.390289     7745.127    3357.1575     2720.587    3011.0569    1005.1297    20.929291   -815.65458   -3120.2396 
 9669000    243.12031   -3894.3209    -3477.621   -3894.3209            0    3401.5435    17.553855    20.676123    21.415663     7772.722    3456.3098    4357.8927    2390.4281   -1177.4602   -253.46045   -449.58787   -3092.0316 
 9670000    248.33176   -3925.7094   -3500.0773   -3925.7094            0     2856.846    17.465778    20.572379    21.308208     7656.308    2264.3668    3481.5932    2824.5779    1218.0859   -126.80954    713.07785   -3181.0835 
 9671000    243.86307   -3940.8099    -3522.837   -3940.8099            0    3830.5847    17.440286    20.542354    21.277108    7622.8332     2153.096    5498.6568    3840.0011   -128.36555    1224.6224   -864.93605   -3096.9863 
 9672000    248.72269   -3937.5537   -3511.2515   -3937.5537            0    2581.4216    17.385413     20.47772    21.210163     7551.107    3749.5297    2822.2859    1172.4492   -5.0023962   -919.55968   -994.93547   -3226.9721 
 9673000    235.22749   -3956.6584   -3553.4865   -3956.6584            0    3869.4845    17.453407    20.557808    21.293116    7640.0505    5377.6618    4912.5038     1318.288    1175.9584   -1054.4007    1067.8188   -3122.3397 
 9674000     235.2228   -3947.2455   -3544.0816   -3947.2455            0    3229.0763    17.516235    20.631812    21.369766    7722.8554    3261.9362    4190.2519    2235.0406    1281.0384    301.44005   -188.83171    -3180.391 
 9675000    251.02638   -3941.2802   -3511.0295   -3941.2802            0    3473.6969    17.459361    20.564821    21.300379    7647.8718    3096.1073    2282.8855    5042.0981    606.01948    330.13668    197.13011    -3123.586 
 9676000     253.1162   -3977.9442   -3544.1117   -3977.9442            0    2688.8965    17.446779    20.550001    21.285029    7631.3496    2310.4003    2526.1545    3230.1348    728.28399    835.69743   -686.14565   -3244.8499 
 9677000    252.87597    -3919.967   -3486.5463    -3919.967            0    4021.5705    17.463913    20.570182    21.305932     7653.855    5274.6825    3305.5487    3484.4804    162.69192   -425.25402    1700.3565    -3037.644 
 9678000    252.80368   -3942.5155   -3509.2186   -3942.5155            0    2765.1389    17.491063    20.602162    21.339056    7689.6078    2462.6745    2171.0991    3661.6432   -738.88821    589.76778    964.69102    -3199.122 
 9679000    243.86211   -3954.9826   -3537.0113   -3954.9826            0    2747.3786     17.44984    20.553607    21.288765    7635.3679    4509.1134    2101.3646    1631.6579    292.06845   -166.34188    181.46349   -3231.0796 
 9680000    241.93645   -3963.3389   -3548.6681   -3963.3389            0    345.10474     17.55756    20.680487    21.420182    7777.6444    1258.0248   -1400.9296     1178.219    26.770281    144.11013   -683.48494   -3509.5232 
 9681000    248.35906   -3956.0489   -3530.3699   -3956.0489            0    4562.0816    17.412847    20.510034    21.243633    7586.9103    4704.2674    5584.0697    3397.9077   -1653.6304    1009.1676    1061.3564   -3025.5879 
 9682000    243.85584   -3915.0538   -3497.0932   -3915.0538            0    2246.3361    17.473233    20.581161    21.317304    7666.1167    2532.5656    2700.8178    1505.6249   -122.82947   -279.53439    -421.4594   -3245.9474 
 9683000    240.69966   -3947.9158   -3535.3648   -3947.9158            0    4183.4901    17.418837    20.517089     21.25094    7594.7421    5122.9841      2560.16    4867.3263    192.71592    336.24711   -958.46583   -3071.9951 
 9684000    240.14977   -3954.9252   -3543.3167   -3954.9252            0    4623.8406    17.374459    20.464818      21.1968     7536.843    5012.1973    4092.5674    4766.7572   -90.058776   -1322.6481    30.279058   -3035.0775 
 9685000    246.40897   -3935.8537   -3513.5171   -3935.8537            0    4603.5608    17.343927    20.428856    21.159551    7497.1799     3184.305    4887.4871    5738.8901    529.85018   -373.61709    412.70378   -3010.1699 
 9686000    238.75314   -3904.5929   -3495.3781   -3904.5929            0    2791.7815    17.513248    20.628293    21.366121    7718.9045    1521.3184     2343.116    4510.9101    76.299954    249.11324    177.82145   -3181.1009 
 9687000    242.39173    -3937.306   -3521.8548    -3937.306            0    2791.7622    17.494581    20.606305    21.343348    7694.2486    3266.4388    2402.6411    2706.2069     900.8125    1666.3288    1213.8147   -3208.5836 
 9688000    254.98578   -3921.8454   -3484.8084   -3921.8454            0    6789.7687    17.411178    20.508068    21.241597    7584.7293    7332.2842    5232.1657    7804.8561    1302.1119    509.51314   -392.27911   -2733.7548 
 9689000    241.96657   -3951.5716   -3536.8492   -3951.5716            0    2190.7689    17.506167    20.619953    21.357483    7709.5464    1643.2973    1574.5885    3354.4208   -41.551946    364.76107   -541.30722   -3290.5283 
 9690000    248.04627   -3890.5504   -3465.4075   -3890.5504            0     4338.763    17.431864    20.532434    21.266834    7611.7952    4809.7003    3775.1363    4431.4525    559.83136    961.79087    1119.7194   -2983.7605 
 9691000    255.86401   -3948.1632   -3509.6211   -3948.1632            0    3969.4069    17.426297    20.525876    21.260042    7604.5045    2456.6238    5673.6189    3777.9781   -1053.0019    956.25437   -37.158634   -3069.3984 
 9692000    254.08855   -3931.0195   -3495.5205   -3931.0195            0    3936.5347    17.501106    20.613991    21.351308    7702.8611    3948.0042    3705.1459     4156.454    523.33422   -1085.3938   -276.97206   -3053.2967 
 9693000    236.57587    -3908.583      -3503.1    -3908.583            0     3371.436     17.51149    20.626223    21.363977     7716.581    3475.1026    4010.0347    2629.1707    396.85826   -1616.5997    -146.0881   -3123.6839 
 9694000    250.96964   -3916.4048   -3486.2514   -3916.4048            0    2700.3449    17.416922    20.514833    21.248604    7592.2375    4640.3914    1846.8023    1613.8411   -66.147337   -333.91743    667.89673   -3187.2557 
 9695000    238.92686   -3916.8172   -3507.3047   -3916.8172            0    3135.9813     17.51122    20.625904    21.363647    7716.2234    4033.7355    4687.7747    686.43356    737.11418    167.05568     528.7278   -3154.4027 
 9696000    233.29144   -3887.0696    -3487.216   -3887.0696            0    3041.9622    17.417604    20.515637    21.249436    7593.1296    2502.3606     3489.581    3133.9448    1390.6101   -147.46209    1240.4019   -3150.3552 
 9697000    235.74707   -3894.2939   -3490.2315   -3894.2939            0    3705.0758    17.417591    20.515622     21.24942    7593.1128    3029.0051     4004.939    4081.2833   -1499.5417    434.32633   -773.66299   -3079.9397 
 9698000     253.7502   -3910.4911   -3475.5719   -3910.4911            0     2987.591    17.441316    20.543567    21.278365     7624.184    3249.8005    3795.7698    1917.2026    41.381001    574.31023   -71.265251    -3143.379 
 9699000     258.5774   -3938.5623   -3495.3695   -3938.5623            0    3854.5819    17.440519    20.542628    21.277393     7623.139    3964.4816    4912.0086    2687.2555    1570.6413    788.68305   -64.211441   -3066.8338 
 9700000    240.72222    -3922.453   -3509.8633    -3922.453            0    3118.3707    17.479628    20.588692    21.325105    7674.5358    2389.2296     3909.666    3056.2166   -1181.0184   -684.39887    675.21153   -3160.8389 
 9701000    253.55158   -3961.2966   -3526.7179   -3961.2966            0    2552.3229    17.535529    20.654537    21.393305    7748.4032      2507.38    2725.7286    2423.8601   -1030.2675   -120.47691    53.819471    -3238.299 
 9702000    249.12735   -3944.4983   -3517.5025   -3944.4983            0    3244.4086    17.529777    20.647762    21.386287     7740.781    3551.7288    1625.0566    4556.4403    455.56843    160.56573   -882.88271   -3151.2369 
 9703000    244.04679   -3954.4313   -3536.1434   -3954.4313            0    4595.2435    17.432648    20.533357     21.26779    7612.8218    3770.6465    5069.3548    4945.7291   -48.300422    190.01229    223.42821   -3025.9556 
 9704000     244.8127   -3966.9425   -3547.3419   -3966.9425            0    1649.2196    17.490497    20.601496    21.338366     7688.862    1720.4165     2152.602    1074.6403   -566.07182    218.45924    -698.1969   -3362.4081 
 9705000    230.26722   -3952.7885   -3558.1184   -3952.7885            0    4613.7382    17.436384    20.537757    21.272348    7617.7178    6045.1098    4074.3703    3721.7345   -294.81118    298.84548    200.51161   -3045.5477 
 9706000    244.53916   -3966.3174   -3547.1857   -3966.3174            0    2890.2412    17.432263    20.532904    21.267321    7612.3182    2345.8525     4661.163    1663.7081   -16.191895    242.51182    480.80564   -3226.3173 
 9707000    248.13833    -3942.373   -3517.0724    -3942.373            0    2925.8766    17.331636    20.414378    21.144556    7481.2522    1776.9338    4308.0575    2692.6386    562.06267    -79.03235   -37.827184   -3197.8406 
 9708000    244.78612   -3915.5163   -3495.9613   -3915.5163            0    4771.6869    17.380082     20.47144    21.203659    7544.1623    5139.2076    5597.1289    3578.7243    132.33022   -253.18039    929.09331   -2970.9618 
 9709000    249.10628   -3957.0854   -3530.1257   -3957.0854            0    5330.2451    17.398566    20.493213     21.22621    7568.2586    6673.4335    6029.1723    3288.1296    -566.2335    -95.49776     677.8169   -2941.7984 
 9710000    242.79377   -3918.0586   -3501.9184   -3918.0586            0    3484.2357    17.478078    20.586867    21.323214    7672.4943    3170.9478    2708.0113    4573.7479   -808.73454   -889.36433   -959.32667   -3112.0483 
 9711000    254.02693   -3979.6678   -3544.2743   -3979.6678            0    6299.9839    17.398565    20.493211    21.226208    7568.2566    4203.2062    7857.7995    6838.9461    1006.1727    -293.6202    329.52983   -2848.9119 
 9712000    259.19013   -3986.9233   -3542.6803   -3986.9233            0    3376.6004     17.47289    20.580756    21.316884    7665.6641    2685.8823    4170.4456    3273.4732    627.03336   -614.17508    46.256625   -3165.1904 
 9713000    253.69619    -3951.607   -3516.7804    -3951.607            0    3692.3996     17.43245    20.533123    21.267548    7612.5625    3951.5055    4652.6128    2473.0805    2085.3828   -1691.8681   -658.23383    -3106.845 
 9714000     243.8906   -3953.6682   -3535.6481   -3953.6682            0     3237.865     17.41839    20.516562    21.250395    7594.1573    2110.3822    3523.4473    4079.7656   -459.18576   -491.45384    224.10627   -3177.0448 
 9715000    226.48077   -3957.7685   -3569.5882   -3957.7685            0    3258.0771    17.407431    20.503654    21.237025     7579.833    3555.5384    2919.5291    3299.1637    385.12501   -375.99811    521.60019    -3209.427 
 9716000    243.30748   -3948.1234   -3531.1027   -3948.1234            0    2156.2254     17.51263    20.627565    21.365368    7718.0882    943.42055    2181.3425     3343.913   -922.59076    879.78345    1611.0863   -3288.3972 
 9717000    244.27022   -3968.8125   -3550.1417   -3968.8125            0    4758.5545    17.435584    20.536815    21.271372    7616.6694     4393.725    5042.5245    4839.4138    1120.0711    201.25642    83.705252   -3021.5552 
 9718000    255.32613   -3941.0118   -3503.3916   -3941.0118            0    5071.6389    17.366224    20.455118    21.186753    7526.1314     5127.181    4886.4984    5201.2373    233.34666    938.43763   -268.91232   -2946.7239 
 9719000    251.01913   -3925.4862    -3495.248   -3925.4862            0    3742.0743    17.445102    20.548026    21.282984    7629.1498    4488.0818    3652.4317    3085.7095   -641.38897   -192.57928   -1330.9527   -3078.8924 
 9720000     237.9924   -3961.2791   -3553.3683   -3961.2791            0    2764.2763    17.461858    20.567762    21.303426    7651.1536    3220.0667    2017.9018    3054.8606   -187.08541   -755.92496    -173.0457   -3244.9187 
 9721000    245.70476    -3939.956   -3518.8265    -3939.956            0    3045.3414    17.470347    20.577761    21.313782     7662.318     4152.644    3492.1789    1491.2011   -940.06463   -1290.6568   -310.36275   -3178.5186 
 9722000    239.54686   -3956.9583   -3546.3832   -3956.9583            0     2088.769    17.426775    20.526439    21.260625    7605.1306    2559.8531      2126.85    1579.6039   -819.01215    1657.4599   -741.65745   -3314.7115 
 9723000    238.26379   -3950.8709   -3542.4949   -3950.8709            0     2969.904    17.387959    20.480718    21.213269    7554.4244    3815.7253    3388.6307    1705.3561   -170.60655    1740.5754   -1054.2172   -3215.2901 
 9724000    240.17412   -3930.3267   -3518.6765   -3930.3267            0    2334.7537    17.520588    20.636939    21.375077    7728.6144    1896.1689    2759.2203     2348.872   -617.10259   -610.10968   -600.52669   -3255.5173 
 9725000    249.00194   -3973.9678    -3547.187   -3973.9678            0    3527.5838    17.515397    20.630824    21.368744    7721.7469      3940.46    4038.8803     2603.411   -97.883908   -727.14616    1754.6067   -3149.9325 
 9726000    245.76718   -3942.2536    -3521.017   -3942.2536            0    3613.7465     17.46913    20.576328    21.312298     7660.717    3924.1089    4458.0488    2459.0818    547.61091   -11.732158   -333.71954   -3117.2759 
 9727000    265.83121   -3945.7225   -3490.0969   -3945.7225            0    1166.1932    17.550299    20.671934    21.411324    7767.9988    3458.8544   -457.57088    497.29598     581.2111   -882.44226    314.28088   -3357.9808 
 9728000    253.63702   -3933.2837   -3498.5585   -3933.2837            0    3119.4433    17.486247     20.59649    21.333181    7683.2586    3124.3487     4089.921      2144.06    578.30281     120.7356    -570.8051   -3149.0172 
 9729000    247.86553   -3937.8139   -3512.9809   -3937.8139            0    2648.2972    17.524936     20.64206    21.380382      7734.37    2072.9519     3272.064    2599.8756    -953.2903   -791.73249      341.058   -3214.2587 
 9730000    258.45957   -3919.5327   -3476.5418   -3919.5327            0    3073.2152    17.578961    20.705694    21.446292    7806.1197    2788.6334    3594.7735    2836.2388   -199.13358    609.49931   -379.63469    -3126.674 
 9731000    254.75618   -3951.9103   -3515.2669   -3951.9103            0    3943.6358    17.502917    20.616124    21.353518    7705.2527    4839.9203    3280.9954    3709.9916    284.60336   -255.68012     279.0836   -3072.1079 
 9732000    240.14082   -3943.9987   -3532.4055   -3943.9987            0    2406.5543    17.561503     20.68513    21.424992    7782.8848    2385.5715    2752.1948    2081.8965   -899.12439   -548.31871    866.74734   -3259.2486 
 9733000    237.79473   -3925.3347   -3517.7627   -3925.3347            0    3237.9591    17.496615    20.608701    21.345829    7696.9328    4612.3123     1621.179     3480.386   -711.81691   -592.35459    394.57549   -3154.2958 
 9734000    253.97417   -3943.6534   -3508.3504   -3943.6534            0    3353.9645    17.507746    20.621812    21.359409     7711.632    3603.8352    2777.9627    3680.0956   -858.88327    1251.1547   -439.28555   -3131.1426 
 9735000    233.87907   -3950.1136   -3549.2529   -3950.1136            0    4253.0336    17.502842    20.616036    21.353426    7705.1533     4779.672    4401.8851    3577.5436   -719.34702   -135.57629   -1367.2383    -3071.332 
 9736000    242.05149   -3929.7912   -3514.9232   -3929.7912            0    1832.5319      17.4391    20.540956    21.275661    7621.2772    1325.4594    1794.9307    2377.2057   -669.03774    979.58427   -694.64533     -3311.24 
 9737000    250.63553   -3933.0941   -3503.5134   -3933.0941            0     4121.161    17.420665    20.519243    21.253171    7597.1343     4170.117    3852.9303    4340.4358   -119.55544    208.85531    -150.0366   -3046.9036 
 9738000    247.46007   -3896.0283   -3471.8902   -3896.0283            0    3799.3305    17.361546    20.449608    21.181046    7520.0511    3405.1249    1792.2176    6200.6489   -749.41234    558.03799   -1558.7173   -3055.2091 
 9739000    235.77133    -3889.992    -3485.888    -3889.992            0    3044.1142    17.437993    20.539653    21.274311    7619.8268    2256.7162    1667.1183     5208.508    588.13069   -77.454488   -1088.8079   -3147.6036 
 9740000    256.20466   -3918.2006   -3479.0746   -3918.2006            0      2086.71    17.466089    20.572746    21.308588    7656.7174     1513.026    2311.7796    2435.3245   -67.406582   -623.46822    729.02353   -3246.0613 
 9741000    234.86666   -3917.5285   -3514.9751   -3917.5285            0    3005.2863    17.467824     20.57479    21.310705    7658.9992    2303.3931     3312.699    3399.7669    279.95056   -914.95174    257.30115   -3179.2887 
 9742000    246.49648   -3916.8774   -3494.3909   -3916.8774            0    3845.8433    17.496724     20.60883    21.345962    7697.0768    4724.0015    3005.8769    3807.6515   -155.16964   -1258.3594    143.55373   -3062.6797 
 9743000    243.52253   -3888.9772   -3471.5879   -3888.9772            0    4319.7926    17.500548    20.613334    21.350628    7702.1251    5132.1167    3873.5096    3953.7513    1386.6727   -745.25123    122.02075    -2986.356 
 9744000    234.26054     -3882.56   -3481.0454     -3882.56            0    7044.3667    17.443512    20.546153    21.281043    7627.0631    7585.9476    6647.7758    6899.3766     447.9409    994.67066    287.79489   -2697.4802 
 9745000    259.25149   -3919.8261   -3475.4779   -3919.8261            0    4070.9456    17.455898    20.560742    21.296154    7643.3219    3418.5821    4383.3421    4410.9127    804.70527    764.88734   -156.02113   -3021.6895 
 9746000     248.1615   -3927.9527   -3502.6123   -3927.9527            0    2326.9522    17.511667    20.626431    21.364193    7716.8148    3907.4073    2934.2584    139.19087   -237.29567    1766.8126   -25.989738   -3240.7329 
 9747000    239.24204   -3940.0841   -3530.0314   -3940.0841            0    3505.9026    17.490085    20.601009    21.337862    7688.3178    3251.8581    3420.3261    3845.5235    293.93636    503.00019    1426.0368   -3136.9278 
 9748000    241.56672   -3903.7388   -3489.7017   -3903.7388            0    1022.5814    17.578385    20.705015    21.445588    7805.3521    2225.6931    357.77357    484.27753   -427.99541    1073.8344   -83.099728   -3373.2981 
 9749000    234.06484    -3945.364   -3544.1849    -3945.364            0    1110.8535    17.472359    20.580131    21.316237    7664.9656    1732.6947    825.30186    774.56409    967.43612    298.65574    1459.4207   -3420.0074 
 9750000    245.29773   -3905.0344   -3484.6024   -3905.0344            0    2493.1236    17.486592    20.596895    21.333601    7683.7121    2556.8586     2711.769    2210.7432   -165.19309    -42.83022    79.890182   -3205.2253 
Loop time of 478.783 on 64 procs for 250000 steps with 864 atoms

Performance: 90.229 ns/day, 0.266 hours/ns, 522.157 timesteps/s
99.0% CPU use with 64 MPI tasks x 1 OpenMP threads

MPI task timing breakdown:
Section |  min time  |  avg time  |  max time  |%varavg| %total
---------------------------------------------------------------
Pair    | 19.808     | 24.509     | 29.594     |  49.8 |  5.12
Bond    | 0.26562    | 0.28077    | 0.29506    |   1.0 |  0.06
Kspace  | 217.14     | 224.43     | 231.79     |  23.2 | 46.87
Neigh   | 4.6044     | 5.1541     | 5.7204     |  12.8 |  1.08
Comm    | 100.53     | 108.27     | 115.57     |  30.9 | 22.61
Output  | 1.3001     | 1.3048     | 1.3185     |   0.2 |  0.27
Modify  | 104.86     | 107.74     | 112.35     |  14.4 | 22.50
Other   |            | 7.1        |            |       |  1.48

Nlocal:        13.5000 ave          19 max           9 min
Histogram: 3 6 7 8 5 16 4 6 4 5
Nghost:        2088.92 ave        2120 max        2051 min
Histogram: 3 4 7 3 9 7 8 12 9 2
Neighs:        4020.19 ave        6659 max        2559 min
Histogram: 6 10 11 12 9 8 4 2 1 1

Total # of neighbors = 257292
Ave neighs/atom = 297.79167
Ave special neighs/atom = 2.0000000
Neighbor list builds = 12046
Dangerous builds = 0

unfix		3
unfix		2
unfix		1

write_data	data.final.${pid}
write_data	data.final.0
System init for write_data ...
PPPM initialization ...
  extracting TIP4P info from pair style
  using 12-bit tables for long-range coulomb (../kspace.cpp:340)
  G vector (1/distance) = 0.37337503
  grid = 24 24 25
  stencil order = 5
  estimated absolute RMS force accuracy = 0.0031716427
  estimated relative force accuracy = 9.5513077e-06
  using double precision FFTW3
  3d grid and FFT values/proc = 2730 288
Last active /omp style is kspace_style pppm/tip4p/omp
WARNING: Not all mixed pair coeffs generated from mixing. Use write_data with 'pair ij' option to store all pair coeffs. (../write_data.cpp:312)

write_restart   restart.lmp.${pid}
write_restart   restart.lmp.0
System init for write_restart ...
PPPM initialization ...
  extracting TIP4P info from pair style
  using 12-bit tables for long-range coulomb (../kspace.cpp:340)
  G vector (1/distance) = 0.37337503
  grid = 24 24 25
  stencil order = 5
  estimated absolute RMS force accuracy = 0.0031716427
  estimated relative force accuracy = 9.5513077e-06
  using double precision FFTW3
  3d grid and FFT values/proc = 2730 288
Last active /omp style is kspace_style pppm/tip4p/omp
Total wall time: 0:08:04
