LAMMPS (30 Jul 2021)
  using 1 OpenMP thread(s) per MPI task
package omp 0
using multi-threaded neighbor list subroutines
echo both

include		in.partitions
variable        pid world 0
include		in.temp
variable        temperature equal 256.69
variable	tempDamp equal 100.0
include		in.pressure
variable        pressure equal 6625.0
variable        pressureDamp equal 1000.0 # This is 1 ps
include		in.seed
variable        seed world 745823

units		real
atom_style	full
read_restart	restart.lmp.${pid}
read_restart	restart.lmp.0
Reading restart file ...
  restart file = 30 Jul 2021, LAMMPS = 30 Jul 2021
  restoring atom style full from restart
  orthogonal box = (0.54578348 1.7343921 0.66585458) to (17.661789 21.894786 21.547341)
  4 by 4 by 4 MPI processor grid
  restoring pair style lj/cut/tip4p/long/omp from restart
  restoring bond style harmonic/omp from restart
  restoring angle style harmonic/omp from restart
  864 atoms
  576 bonds
  288 angles
Finding 1-2 1-3 1-4 neighbors ...
  special bond factors lj:    0        0        0       
  special bond factors coul:  0        0        0       
     2 = max # of 1-2 neighbors
     1 = max # of 1-3 neighbors
     1 = max # of 1-4 neighbors
     2 = max # of special neighbors
  special bonds CPU = 0.173 seconds
  read_restart CPU = 0.353 seconds
include 	in.setup
variable	out_freq equal 1000
variable	out_freq2 equal 10000
variable	out_freq3 equal 1000

timestep	2.0

neigh_modify    delay 7 every 1

include		in.tip4p
# This is TIP4P/Ice

# create groups ###
group ox type 2
288 atoms in group ox
group hy type 1
576 atoms in group hy

# set charges - beside manually ###
set group ox charge -1.1794
Setting atom values ...
  288 settings made for charge
set group hy charge 0.5897
Setting atom values ...
  576 settings made for charge

# ### TIP3P Potential Parameters ###
pair_style lj/cut/tip4p/long/omp 2 1 1 1 0.1577 8.5
pair_coeff 1 1*2 0.000 0.000
pair_coeff 2 2 0.21084 3.1668
bond_style  harmonic
bond_coeff  1 450 0.9572
angle_style harmonic
angle_coeff 1 55 104.52
kspace_style pppm/tip4p/omp 1.0e-5
pair_modify tail yes

thermo          ${out_freq}
thermo          1000
thermo_style    custom step temp pe etotal epair emol press lx ly lz vol pxx pyy pzz pxy pxz pyz enthalpy

restart 	${out_freq3} restart.lmp.${pid} restart2.lmp.${pid}
restart 	1000 restart.lmp.${pid} restart2.lmp.${pid}
restart 	1000 restart.lmp.0 restart2.lmp.${pid}
restart 	1000 restart.lmp.0 restart2.lmp.0


include         in.dump
dump            myDump all atom ${out_freq2} dump.water.${pid}
dump            myDump all atom 10000 dump.water.${pid}
dump            myDump all atom 10000 dump.water.0
dump            myDump2 all dcd ${out_freq2} dump.dcd
dump            myDump2 all dcd 10000 dump.dcd
dump_modify     myDump append yes
dump_modify     myDump2 append yes


variable natoms 	equal  "count(all)"                        # NUMBER ATOMS
variable H      	equal  "enthalpy/v_natoms"                 # ENTHALPY-per-atom
variable Vol      	equal  "vol/v_natoms"                 # volume-per-atom
fix AVG all 		ave/time ${out_freq} 1 ${out_freq} v_Vol v_H file vol_enthalpy.dat
fix AVG all 		ave/time 1000 1 ${out_freq} v_Vol v_H file vol_enthalpy.dat
fix AVG all 		ave/time 1000 1 1000 v_Vol v_H file vol_enthalpy.dat


timer           timeout 23:50:00 every 1000
New timer settings: style=normal  mode=nosync  timeout=23:50:00

fix 		1 all shake 1e-6 200 0 b 1 a 1
       0 = # of size 2 clusters
       0 = # of size 3 clusters
       0 = # of size 4 clusters
     288 = # of frozen angles
  find clusters CPU = 0.359 seconds
fix             2 all nph iso ${pressure} ${pressure} ${pressureDamp}
fix             2 all nph iso 6625 ${pressure} ${pressureDamp}
fix             2 all nph iso 6625 6625 ${pressureDamp}
fix             2 all nph iso 6625 6625 1000
fix             3 all temp/csvr ${temperature} ${temperature} ${tempDamp} ${seed}
fix             3 all temp/csvr 256.69 ${temperature} ${tempDamp} ${seed}
fix             3 all temp/csvr 256.69 256.69 ${tempDamp} ${seed}
fix             3 all temp/csvr 256.69 256.69 100 ${seed}
fix             3 all temp/csvr 256.69 256.69 100 745823

run             250000
PPPM initialization ...
  extracting TIP4P info from pair style
  using 12-bit tables for long-range coulomb (../kspace.cpp:340)
  G vector (1/distance) = 0.37357814
  grid = 24 24 24
  stencil order = 5
  estimated absolute RMS force accuracy = 0.0032398668
  estimated relative force accuracy = 9.7567625e-06
  using double precision FFTW3
  3d grid and FFT values/proc = 2535 216
Last active /omp style is kspace_style pppm/tip4p/omp
Neighbor list info ...
  update every 1 steps, delay 7 steps, check yes
  max neighbors/atom: 2000, page size: 100000
  master list distance cutoff = 10.8154
  ghost atom cutoff = 10.8154
  binsize = 5.4077, bins = 4 4 4
  1 neighbor lists, perpetual/occasional/extra = 1 0 0
  (1) pair lj/cut/tip4p/long/omp, perpetual
      attributes: half, newton on, omp
      pair build: half/bin/newton/omp
      stencil: half/bin/3d
      bin: standard
Per MPI rank memory allocation (min/avg/max) = 9.235 | 9.238 | 9.240 Mbytes
Step Temp PotEng TotEng E_pair E_mol Press Lx Ly Lz Volume Pxx Pyy Pzz Pxy Pxz Pyz Enthalpy 
 1750000    274.79546   -3864.3866   -3393.3966   -3864.3866            0    6644.5424    17.116005    20.160394    20.881487    7205.4787    6984.0315    6342.4808    6607.1148    621.17379    311.00429   -327.31059   -2695.1581 
 1751000    275.21843   -3909.1039   -3437.3889   -3909.1039            0    7178.1556    17.033646    20.063385    20.781008    7101.9631     6935.755    7925.8346    6672.8772   -1278.3633   -329.04387   -762.26292   -2693.9125 
 1752000    262.83248   -3887.4667   -3436.9808   -3887.4667            0     6951.515    17.089253    20.128882    20.848848    7171.7445    7822.0218    6367.5475    6664.9756   -798.22702   -809.00995   -529.35263   -2709.9042 
 1753000    254.80438   -3884.1745   -3447.4485   -3884.1745            0    5455.3226    17.176218    20.231316    20.954946    7281.7911    6357.1672    5723.2023    4285.5981    -1827.435    546.60813   -309.40204   -2868.1071 
 1754000    238.56049   -3880.5276    -3471.643   -3880.5276            0    6919.5984    17.089137    20.128746    20.848707    7171.5987    6097.3436     5495.437    9166.0144   -271.77778   -867.20204    843.38424   -2747.9194 
 1755000    249.79593   -3863.9073   -3435.7656   -3863.9073            0     5616.132    17.151388    20.202069    20.924653    7250.2565    5347.5949    6119.3956    5381.4055    -548.6367   -1328.8733    1649.3966   -2841.9296 
 1756000    264.67523   -3883.8116   -3430.1673   -3883.8116            0    5811.6891    17.095045    20.135705    20.855915    7179.0393    8270.7555    4828.3327    4335.9791    -911.3285     1439.159      332.505   -2821.6897 
 1757000    255.07377   -3870.8235   -3433.6358   -3870.8235            0    6692.1783    17.030029    20.059125    20.776595    7097.4402    7973.2699    5817.0208    6286.2442   -498.19743    1351.8659    1712.4316   -2740.9359 
 1758000    264.37283   -3897.6942   -3444.5682   -3897.6942            0      4046.44    17.123819    20.169596    20.891019    7215.3507    4540.4641    4057.8225    3541.0335   -1539.2071    985.40719    335.47956   -3018.7675 
 1759000    281.58263   -3901.7988   -3419.1758   -3901.7988            0    7555.5385    17.141497    20.190419    20.912586    7237.7209    7775.6537    6229.6232    8661.3385    582.33884    -811.3248   -276.29192   -2621.6529 
 1760000    249.41411   -3862.7986   -3435.3113   -3862.7986            0    9110.3293    17.109873     20.15317    20.874005    7197.7364    9203.2102    9476.2446    8651.5331    106.59854    157.66564    772.21608   -2478.9855 
 1761000    263.26753   -3904.4842   -3453.2526   -3904.4842            0    6343.2278    17.113289    20.157194    20.878172    7202.0481    6300.1203    6818.1625    5911.4005    854.36858   -234.26152    709.17385    -2786.995 
 1762000    270.16571    -3852.417   -3389.3622    -3852.417            0    7081.0763    17.092114    20.132252    20.852339    7175.3468    5654.1257     7316.974    8272.1293    234.24173   -2404.8609   -520.90308   -2648.3625 
 1763000    258.15082   -3847.4843   -3405.0227   -3847.4843            0    6759.4558    17.108637    20.151715    20.872498    7196.1773    6799.5826    8524.6707    4954.1142    408.88457   -752.11274    172.02941   -2695.6254 
 1764000    253.14343    -3891.561   -3457.6819    -3891.561            0    7263.4559    17.058596    20.092772    20.811447    7133.2165    7292.2433    6083.1208    8415.0037    733.63912   -637.48444   -1859.9388   -2702.0598 
 1765000    256.90112   -3880.9039   -3440.5841   -3880.9039            0    5686.0636    17.076291    20.113615    20.833035    7155.4383     7364.945    3205.7348    6487.5112    -620.5427    385.55764   -1046.2482   -2847.2165 
 1766000    259.31877   -3898.6017   -3454.1382   -3898.6017            0    8008.4947    17.073195    20.109968    20.829258    7151.5466    6828.8403    10091.993    7104.6506    15.517448    275.40299   -1610.6526   -2618.8685 
 1767000    262.40826   -3908.1707   -3458.4119   -3908.1707            0    8006.6604    17.091405    20.131418    20.851475     7174.455    5269.0784    9530.3121    9220.5907   -179.08444    -2062.666   -1758.9426   -2620.6585 
 1768000    242.07759   -3910.2626   -3495.3499   -3910.2626            0    7354.7513    17.074455    20.111452    20.830795    7153.1301    6029.5597    7710.9521    8323.7422    1419.7038    554.08178    356.36566   -2728.0944 
 1769000    263.43489   -3912.1488   -3460.6304   -3912.1488            0    7872.6729    16.997786    20.021146    20.737259    7057.2032    5584.5831    8462.8403    9570.5952    274.56524    415.54412   -334.64594   -2650.3586 
 1770000    252.61672   -3938.1927   -3505.2163   -3938.1927            0    3634.4421    17.084447    20.123221    20.842985    7165.6952    3444.2357    3436.6652    4022.4252    184.83658    29.673668   -503.84076   -3125.4014 
 1771000    257.06797   -3943.9509   -3503.3452   -3943.9509            0    6510.4393    17.061502    20.096195    20.814992    7136.8628     7016.357    7922.7088     4592.252    -1370.174    1182.6161    919.72758   -2825.7138 
 1772000    266.03886   -3933.7723   -3477.7908   -3933.7723            0    4424.7988    17.142781    20.191931    20.914152     7239.347     5370.204    4356.8446    3547.3479   -261.56742   -224.51083    531.84304   -3010.6274 
 1773000    249.09818   -3928.8813   -3501.9356   -3928.8813            0    5743.3774    17.085765    20.124774    20.844594    7167.3545    6059.0212    6369.0962    4802.0147    767.56465   -107.64098    1557.6756   -2901.5889 
 1774000     270.9992   -3873.9431   -3409.4597   -3873.9431            0    6030.3196    17.140386    20.189111    20.911231    7236.3137    6419.0182    6358.7432    5313.1974    283.98122    -522.5042    109.90631   -2773.0547 
 1775000    256.53143   -3897.0151    -3457.329   -3897.0151            0    7820.5975    17.085222    20.124134     20.84393    7166.6705    7230.3271    9776.8428    6454.6226   -124.96378   -1258.4542   -902.99957   -2639.9316 
 1776000    265.45524   -3857.3372    -3402.356   -3857.3372            0    6767.7219    17.020765    20.048213    20.765294    7085.8642    5219.5579    7303.6973    7779.9106    240.91097   -389.26759    398.20672   -2702.9792 
 1777000    271.26107   -3883.5415   -3418.6093   -3883.5415            0     8261.754    17.016028    20.042634    20.759515    7079.9498    9610.5195    8162.3908    7012.3517   -198.82412     -1483.15   -1112.5131   -2565.5518 
 1778000    268.35902   -3932.2092    -3472.251   -3932.2092            0    7109.2431    16.991603    20.013864    20.729716     7049.505    6286.0073    6250.8007    8790.9213    32.814872    869.45971   -709.42709   -2741.3512 
 1779000    247.60263   -3878.0799   -3453.6975   -3878.0799            0    6642.7321    17.033768    20.063529    20.781157    7102.1165     6865.246    7410.7576    5652.1928    1939.6238   -1257.2657    -1042.243   -2765.6627 
 1780000    258.22315    -3853.908   -3411.3224    -3853.908            0    7443.2245    17.095484    20.136222    20.856451    7179.5928    6751.6236    5760.2916    9817.7583     878.4738   -792.26507    388.81274   -2631.9647 
 1781000    271.95585   -3864.6367   -3398.5137   -3864.6367            0    4832.6508    17.176759    20.231953    20.955605    7282.4788    3949.0703    6731.1405    3817.7417   -757.01083    242.34383    213.43392     -2885.25 
 1782000    258.82181   -3878.5384   -3434.9266   -3878.5384            0    5986.0294    17.115131    20.159363     20.88042    7204.3742    6454.6737    6720.7841    4782.6304    47.667464   -648.63881    45.113191   -2805.9841 
 1783000    251.80353   -3888.8478   -3457.2652   -3888.8478            0     6373.935    17.106861    20.149623    20.870331    7193.9362    8440.5443    6318.7403    4362.5206    530.82803   -1921.6379   -79.085796   -2788.5363 
 1784000    254.41632   -3922.1526   -3486.0917   -3922.1526            0    6789.2826    17.062365    20.097212    20.816046    7137.9465    7703.9273    8463.6812    4200.2394    727.94178   -1103.3515   -1557.5653   -2779.3299 
 1785000    252.12229    -3918.991    -3486.862    -3918.991            0    8218.0442    17.010227    20.035801    20.752437    7072.7113    7863.5201    8344.3292    8446.2834    565.44061    309.62978    114.73109   -2639.1852 
 1786000     238.0764   -3884.1588    -3476.104   -3884.1588            0    8110.2763    17.044998    20.076756    20.794857    7116.1718    8988.7886    8965.7608    6376.2797    607.37375    1387.7682   -1907.8987   -2634.4027 
 1787000    268.72455   -3923.6928   -3463.1081   -3923.6928            0    6815.1663    17.087202    20.126467    20.846347    7169.1635    7266.5564    4722.5567    8456.3859    377.40327   -1272.8976    1793.7246   -2750.5491 
 1788000    250.19747   -3885.7348   -3456.9049   -3885.7348            0     8001.935    17.069599    20.105733    20.824871    7147.0296    6560.9462    8223.5805    9221.2784   -848.99279    1223.9184   -1250.1677   -2622.8464 
 1789000    248.74464   -3880.8907   -3454.5509   -3880.8907            0     8188.067    17.081017    20.119182    20.838801    7161.3808    6962.1397     10512.23     7089.831    712.34631    1464.8686   -733.33965   -2599.3777 
 1790000    256.00817   -3904.5106   -3465.7214   -3904.5106            0    6030.5233    17.135343    20.183171    20.905079    7229.9287    5813.3262    7718.5568    4559.6869    340.52882   -67.786623    1214.6185   -2829.8564 
 1791000    253.45718   -3895.8766   -3461.4597   -3895.8766            0    6322.1017     17.14851     20.19868    20.921142    7246.6082    5357.3258    6165.2363     7443.743    940.33717    886.29753    722.41875   -2793.3125 
 1792000    250.52233   -3900.4555   -3471.0688   -3900.4555            0    7172.6032    17.195565    20.254104    20.978549    7306.4252    6683.0285    8761.0153    6073.7659     87.04766    -260.5311    19.166664   -2706.7797 
 1793000    272.87041   -3902.3309   -3434.6404   -3902.3309            0    6530.8351    17.149175    20.199463    20.921953    7247.4509    6984.3944    5014.0114    7594.0996    853.89607   -720.92969   -1117.6317   -2744.3531 
 1794000    251.38939   -3870.8775   -3440.0047   -3870.8775            0    7836.7365    17.144904    20.194432    20.916742    7242.0369    7173.1883    8147.1332     8189.888   -196.56906   -641.38562   -369.41156   -2612.3067 
 1795000    243.63064   -3898.6635   -3481.0889   -3898.6635            0    5641.2347    17.084729    20.123554     20.84333    7166.0507    5483.5151    5701.6938    5738.4952    430.41276    699.22578   -295.39007   -2891.5263 
 1796000    264.71712   -3875.1848   -3421.4687   -3875.1848            0     6267.363    17.077213    20.114701     20.83416    7156.5974    8162.0988    5197.9353    5442.0548   -1160.8134     1042.144   -443.68904   -2767.3338 
 1797000    249.99584    -3888.492   -3460.0076    -3888.492            0    6466.5576    17.077526     20.11507    20.834542    7156.9905    7195.7998    5178.1073    7025.7657     5.259927    26.663115    483.49269   -2785.0454 
 1798000    246.11846   -3864.3378   -3442.4992   -3864.3378            0    8352.0998    17.050643    20.083405    20.801744    7123.2445    7701.3333    7173.5506    10181.415   -888.42329   -1995.7234   -458.57421   -2574.8396 
 1799000    253.25971   -3858.5049   -3424.4264   -3858.5049            0    6971.4754    17.113979    20.158006    20.879014    7202.9191    7907.7786    6966.9164    6039.7312    -302.2658    921.03126    387.11812   -2692.0925 
 1800000    256.75149   -3883.2515   -3443.1883   -3883.2515            0    6973.7284     17.02693    20.055475    20.772815     7093.567     7157.315    7221.0639    6542.8065    1707.5169    -35.58087    30.563529   -2721.7393 
 1801000    252.48746   -3838.0905   -3405.3356   -3838.0905            0    4590.1354    17.141518    20.190445    20.912613    7237.7481    3194.1747    4825.1158    5751.1156    534.04994    -965.8442   -728.35363   -2920.8233 
 1802000    253.80247   -3875.4081   -3440.3993   -3875.4081            0     6024.268    17.059515    20.093856    20.812569    7134.3706    6216.0527    4635.7255    7221.0258   -1008.6684    -2114.613   -845.36078   -2813.5895 
 1803000     255.6634   -3882.0178   -3443.8195   -3882.0178            0    5870.9707    17.023957    20.051973    20.769188    7089.8516      6467.01     6209.833    4936.0691     29.70418   -81.527112    1052.9801   -2836.7716 
 1804000    252.92064    -3857.607   -3424.1097    -3857.607            0    8096.6892    17.072151    20.108739    20.827984    7150.2351    8730.6871    8695.5648    6863.8156   -138.26163    825.39871   -284.51289   -2579.7963 
 1805000    256.35681   -3889.6154   -3450.2286   -3889.6154            0    4472.8222    17.167343    20.220862    20.944118    7270.5088    4946.4478    2657.0804    5814.9385    1583.3746    1571.6857   -676.57207   -2975.9622 
 1806000    276.85785   -3902.6331   -3428.1082   -3902.6331            0    8369.4357    17.171226    20.225436    20.948855    7275.4436    8897.4619    8185.3901    8025.4551    299.40388    72.869317   -94.065541   -2540.0702 
 1807000    264.81928   -3895.0014   -3441.1103   -3895.0014            0    8049.6177    17.093832    20.134277    20.854436    7177.5118    8147.5322    7986.9966    8014.3243     1227.739   -441.08013   -482.08925   -2598.5033 
 1808000    252.33274   -3887.9985   -3455.5088   -3887.9985            0    5358.4244    17.181661    20.237727    20.961586    7288.7158    6334.4276    4999.8949    4740.9508    833.55377   -742.14153    1414.0472   -2885.9166 
 1809000    252.39405   -3887.2835   -3454.6887   -3887.2835            0    7942.2651    17.161073    20.213478    20.936469    7262.5466    9210.8253     8478.571    6137.3989    2311.9552    610.47039   -858.33971   -2613.4695 
 1810000     254.9735   -3931.9264   -3494.9106   -3931.9264            0    6095.9432    17.188449    20.245723    20.969868    7297.3585     7417.268     5491.665    5378.8966   -1168.9138    1199.6031   -255.39607   -2846.1529 
 1811000    242.49061   -3867.0259   -3451.4053   -3867.0259            0     6677.251    17.106057    20.148676     20.86935    7192.9219    5441.4101    7079.0531    7511.2898   -218.57312    1150.1613   -1042.6989   -2750.9524 
 1812000    248.17883   -3829.9142   -3404.5442   -3829.9142            0    6339.8993    17.187181    20.244229    20.968321    7295.7433    5850.3921    7970.3885    5198.9173     670.2932    437.81766    267.75594    -2729.973 
 1813000    274.26442   -3860.7141   -3390.6342   -3860.7141            0     5456.453    17.131836    20.179039    20.900799    7225.4896    5774.0816    4612.2338    5983.0435   -187.87686    716.65139   -1172.4269   -2815.6531 
 1814000    250.24896   -3864.4366   -3435.5184   -3864.4366            0    6093.2112     17.20179    20.261437    20.986144    7314.3632    6008.0485     4983.966    7287.6191   -156.63351   -316.18577    -46.76244   -2785.5405 
 1815000    258.15778   -3897.9592   -3455.4856   -3897.9592            0    7632.4068    17.069507    20.105624    20.824758     7146.913    8160.3187    6573.3266    8163.5752   -1249.6141   -602.80256    481.96112   -2659.9569 
 1816000     256.2547   -3842.6036   -3403.3918   -3842.6036            0    6116.4198    17.211148    20.272459     20.99756    7326.3065    6835.8965    5577.3727    5935.9902   -1417.3742    1057.0359   -857.12382   -2749.8728 
 1817000    255.81758   -3907.0566    -3468.594   -3907.0566            0    7826.7816    17.097971    20.139151    20.859485    7182.7262    6258.9625    9600.2049    7621.1775   -100.08072    228.80536    584.14267   -2648.7175 
 1818000    257.39166   -3879.8054   -3438.6449   -3879.8054            0    7960.9365    17.089451    20.129115     20.84909    7171.9935    7385.3965    7752.5572    8744.8559   -1444.1859    277.43703    440.11761   -2605.9614 
 1819000    244.60274   -3936.9366   -3517.6959   -3936.9366            0    4272.9806    17.170148    20.224166     20.94754    7274.0735    3311.3155    4697.0556    4810.5707    1117.2419    257.01373    379.97856   -3064.3972 
 1820000    253.07996   -3910.5589   -3476.7885   -3910.5589            0    6593.5225    17.185165    20.241855    20.965862    7293.1766    6285.8658    7475.2721    6019.4297    233.70821    1316.2226    780.52581   -2775.4784 
 1821000    256.13979   -3917.5197   -3478.5049   -3917.5197            0    6372.9349    17.112135    20.155834    20.876764    7200.5914    6179.0846     6480.476    6459.2442     632.9321    859.46687    102.73781   -2809.2624 
 1822000    270.36792   -3857.6621   -3394.2607   -3857.6621            0    4965.1391    17.162977     20.21572    20.938792    7264.9638    3739.7155    5062.2243    6093.4774    26.890227    676.10503    1799.8703   -2868.1941 
 1823000    254.30759   -3924.9895    -3489.115   -3924.9895            0    6202.7895     17.04525    20.077052    20.795165    7116.4873    6811.4206    5401.3249    6395.6231     1578.703    951.81677   -565.67127   -2845.3482 
 1824000    257.24703   -3871.9861   -3431.0735   -3871.9861            0    8059.0883    17.052528    20.085626    20.804045    7125.6079    7514.3097    8889.9855    7772.9698   -82.597331     104.6677    1837.5432   -2593.5756 
 1825000      255.266   -3881.7032    -3444.186   -3881.7032            0    8299.4438    17.023443    20.051367     20.76856    7089.2088    7007.2538    7524.5921    10366.486   -121.36762     1292.703    640.41835   -2586.1162 
 1826000    247.78509   -3887.6747   -3462.9795   -3887.6747            0    6261.4735    17.069534    20.105657    20.824792    7146.9479    4538.2584     7675.683    6570.4791   -269.02739   -599.74827    701.22971   -2810.3405 
 1827000    273.65264   -3939.0771   -3470.0459   -3939.0771            0    6912.2684    17.053125    20.086329    20.804773    7126.3563    7028.6583    5320.8922    8387.2548    112.85213   -1193.6785   -454.66779   -2751.6497 
 1828000     271.2373   -3883.6568   -3418.7653   -3883.6568            0    4635.4205    17.118367    20.163175    20.884367     7208.461    4574.9943    5904.6742    3426.5929   -1256.6692     1021.697   -450.34847   -2931.4528 
 1829000    253.82351   -3897.0096   -3461.9648   -3897.0096            0    6772.9067    17.022366    20.050099    20.767247    7087.8639    6062.3542    7553.6659    6702.6999    386.11594   -1785.2584    315.80359   -2761.8547 
 1830000    273.72102   -3880.3758   -3411.2274   -3880.3758            0    7073.9477    17.089289    20.128925    20.848893    7171.7905    6867.3599    7456.0869    6898.3964    200.82961    361.57295    839.27218   -2671.3405 
 1831000    255.23819    -3911.226   -3473.7565    -3911.226            0    7597.1797    17.052367    20.085436    20.803849    7125.4064    6558.9369    9379.3505    6853.2518    -43.10951    1176.0685   -849.67363   -2684.2823 
 1832000    254.11056   -3921.2467   -3485.7099   -3921.2467            0    6101.3066    17.059214    20.093501    20.812201    7133.9926    4840.3195    5538.1031    7925.4971    202.63964    1911.3963    657.08131    -2850.918 
 1833000    246.18008   -3900.7495   -3478.8052   -3900.7495            0    8304.2498    17.042268    20.073541    20.791527    7112.7538    9079.3859    8745.9403    7087.4233    61.873802   -142.20297    83.336615    -2617.387 
 1834000    265.44025   -3857.5972   -3402.6417   -3857.5972            0    6506.9532    17.073633    20.110484    20.829792    7152.0974    5879.0525    6897.5779    6744.2293    -1001.633   -3.1835037    202.90441   -2723.9274 
 1835000    251.49436   -3883.3169   -3452.2642   -3883.3169            0    6389.7322    17.062319    20.097158    20.815989    7137.8887    7642.7337    5112.8035    6413.6594    1315.0143    48.542272    2165.8273   -2787.1008 
 1836000    257.00225   -3885.6395   -3445.1465   -3885.6395            0    6193.3666    17.095894    20.136705    20.856951    7180.1093    6679.1475    4896.3661    7004.5863   -931.83813    136.83133    463.52893    -2796.611 
 1837000    240.45706   -3881.8199   -3469.6847   -3881.8199            0    7535.7347    17.099374    20.140804    20.861197    7184.4948    8429.2977    8935.3782    5242.5282     1291.182   -367.41578    120.00145   -2680.1018 
 1838000    258.18344   -3868.4988   -3425.9812   -3868.4988            0    5623.0868    17.198413    20.257459    20.982024    7310.0564    5843.0704    6374.4872    4651.7028    928.81342    1031.4237    1337.3755   -2826.5057 
 1839000    250.56095   -3914.8324   -3485.3796   -3914.8324            0    8158.2937    17.061094    20.095715    20.814495    7136.3513    8019.0601    9524.7475    6931.0735     1422.506    1376.3789    288.52048    -2636.294 
 1840000    257.65496   -3888.9869   -3447.3751   -3888.9869            0    6561.8493    17.084604    20.123406    20.843177     7165.893     8396.948    6260.8794    5027.7206    -2532.098     1611.259   -545.20155   -2761.6146 
 1841000    246.81984   -3879.3586   -3456.3178   -3879.3586            0    5991.1817    17.049464    20.082017    20.800307    7121.7678    6695.9759    5510.5673    5767.0019   -1162.0727     188.7847   -81.963008   -2834.0516 
 1842000    273.02663    -3901.141   -3433.1827    -3901.141            0     6252.843    17.052159    20.085191    20.803594    7125.1452    6163.1327    7481.2337    5114.1627     346.0935     1898.804   -463.83042   -2783.4314 
 1843000    250.54288   -3905.9243   -3476.5024   -3905.9243            0    6995.1851    17.056265    20.090028    20.808604    7130.2937    6087.1278     7924.885    6973.5427    -179.8055   -63.614567    319.28948   -2749.0869 
 1844000    252.24876   -3906.5807    -3474.235   -3906.5807            0    4305.1869     17.09396    20.134427    20.854591    7177.6724    4541.1802     4764.317    3610.0634   -170.12168   -503.46034   -1306.2767   -3023.5724 
 1845000    246.08484   -3894.9322   -3473.1512   -3894.9322            0    5683.8408     17.08276    20.121235    20.840928    7163.5737    6355.4012    5285.9619    5410.1594    2.4303952    351.84214    521.75324   -2879.3412 
 1846000    268.66307   -3913.9332   -3453.4539   -3913.9332            0    5344.2255    17.138611     20.18702    20.909066     7234.066    8494.2143    3081.0878    4457.3745   -650.90976    16.177287    36.738635   -2889.6305 
 1847000     261.1693   -3922.5562   -3474.9209   -3922.5562            0    5656.2791    17.151971    20.202756    20.925365    7250.9965    6299.4067    5073.9085    5595.5222    970.78912    1646.4119     214.3185   -2876.7788 
 1848000    259.99751   -3961.9857   -3516.3589   -3961.9857            0    6064.0509    17.082824    20.121311    20.841006    7163.6544    6760.5189    5334.4027    6097.2312   -69.103534    1716.7557   -1233.8595   -2882.8199 
 1849000     255.6762   -3902.5642   -3464.3439   -3902.5642            0    7493.3301    17.057677    20.091691    20.810326    7132.0647     6574.908    7938.2094    7966.8728   -1006.6612    1418.2279    1620.5127   -2684.9338 
 1850000    254.02306   -3913.1072   -3477.7203   -3913.1072            0    7619.1439    17.076526    20.113892    20.833322    7155.7337    6333.9772    7662.5539    8860.9007    98.262191    1519.2936    1056.7377   -2682.5938 
 1851000    249.97832   -3933.7585   -3505.3043   -3933.7585            0    6018.6226    17.121105    20.166401    20.887709    7211.9216    5516.0718    5991.0088    6548.7871   -354.91044   -784.18695   -559.87169   -2872.2747 
 1852000    263.95183   -3879.0908   -3426.6864   -3879.0908            0    6159.0759    17.053462    20.086726    20.805184    7126.7785    6683.0714    5730.5479    6063.6085    2413.4417   -353.35548    826.53371    -2786.532 
 1853000    245.53422    -3844.792   -3423.9548    -3844.792            0    8588.8086    17.061766    20.096506    20.815314    7137.1942    8849.6814    7507.4615    9409.2828    1132.4047   -293.94974    852.66383   -2529.9572 
 1854000    252.72869   -3890.1728   -3457.0044   -3890.1728            0    6055.4113    17.108236    20.151243    20.872008    7195.6713    7798.2137    4924.2419    5443.7783    1503.4936     1363.689   -72.125985   -2821.5406 
 1855000    267.82889    -3888.597   -3429.5474    -3888.597            0    8272.8217    17.073391      20.1102    20.829497    7151.7934    8795.6692    6670.2014    9352.5944    703.05531    529.90394    393.92139   -2566.6791 
 1856000    245.12756   -3893.5565   -3473.4162   -3893.5565            0    7280.4171    17.050198    20.082881    20.801202    7122.6874    8465.9653    4594.4134    8780.8725    599.38702    442.06416   -16.636442   -2717.1477 
 1857000    246.43913   -3895.4619   -3473.0737   -3895.4619            0    5721.6643    17.128888    20.175567    20.897203    7221.7605    6472.0028    3813.5693    6879.4208    40.095173   -881.64764   -113.93119   -2870.4567 
 1858000    254.66301   -3902.2231   -3465.7394   -3902.2231            0    4041.7115    17.219444     20.28223    21.007681    7336.9059    3697.7973    4730.9133    3696.4239    487.25875   -1460.9656    459.04307   -3033.2713 
 1859000     266.0356     -3902.46   -3446.4841     -3902.46            0    7245.4918     17.08221    20.120587    20.840256    7162.8814     8597.638    5023.7085     8115.129   -138.16878   -445.50048    860.08139   -2689.5963 
 1860000      261.778   -3906.8904   -3458.2119   -3906.8904            0    7746.5601    17.109046    20.152196    20.872996    7196.6924    4686.7197    9745.8711    8807.0896   -161.97585    385.10504    1649.9611    -2645.161 
 1861000    258.40492   -3883.2802    -3440.383   -3883.2802            0    6083.2328    17.106152    20.148787    20.869465    7193.0411    5911.6996    5193.0598     7144.939   -217.37854    1018.7159   -330.11952   -2802.2328 
 1862000    263.16546   -3907.3565   -3456.2999   -3907.3565            0    6898.2383    17.148209    20.198325    20.920775    7246.2261    7262.2857    7033.1343    6399.2949    260.46782   -994.47594    774.57318   -2727.3025 
 1863000    253.30114   -3886.2201   -3452.0706   -3886.2201            0    7960.5088    17.027788    20.056485    20.773862    7094.6392    7843.3352    7266.5403    8771.6509    722.67965    1172.9811    415.03307   -2628.4124 
 1864000    263.93253   -3876.7531   -3424.3818   -3876.7531            0    6222.8139    17.180291    20.236113    20.959914     7286.972    5239.5807    6034.0257    7394.8354   -209.93888   -1303.7381   -1646.1626   -2763.0646 
 1865000    256.03816   -3889.8042   -3450.9636   -3889.8042            0    4610.0535    17.163284    20.216081    20.939166    7265.3534    4286.9704    4601.8338    4941.3564    85.786637   -496.56901    667.92521   -2962.4928 
 1866000    251.05682   -3902.9744   -3472.6716   -3902.9744            0    7936.2563    17.117201    20.161802    20.882945    7206.9889    7031.2004    8781.2926    7996.2758   -9.4275485   -593.99081   -848.07483   -2638.5191 
 1867000    244.53936   -3905.5059   -3486.3738   -3905.5059            0    5303.8702    17.155389    20.206782    20.929535    7255.3325    4700.7909    4847.6823    6363.1375    592.41937    707.49417    1072.3884   -2925.1629 
 1868000    248.53697   -3890.3076   -3464.3237   -3890.3076            0    7458.2488    17.076912    20.114346    20.833793    7156.2185    8172.5689    7036.5143    7165.6632    568.28195    245.18227    795.59855   -2685.9354 
 1869000    263.50658   -3877.8045   -3426.1633   -3877.8045            0    4504.8505    17.176188     20.23128    20.954909    7281.7527    4559.8897    4387.5484    4567.1134    663.36206    15.983758   -762.64012   -2947.7621 
 1870000    248.42548   -3874.9759   -3449.1831   -3874.9759            0    6404.2792    17.064675    20.099933    20.818863    7140.8453    4070.1682    8413.6614    6729.0081   -1011.6083    1384.9981    960.32992   -2782.2293 
 1871000    261.17369   -3913.0589   -3465.4161   -3913.0589            0    6690.4274    17.127774    20.174255    20.895844    7220.3519    6965.1361    6157.2903    6948.8558   -1015.2282   -401.64462   -132.36297   -2760.9046 
 1872000    263.54674    -3870.902   -3419.1919    -3870.902            0    5449.2611    17.120093    20.165208    20.886473    7210.6419    6702.8842    5827.3435    3817.5556   -1089.5121    -1556.263   -475.81265   -2846.1486 
 1873000    257.78318   -3906.4234   -3464.5918   -3906.4234            0    6636.2107    17.095801    20.136595    20.856837    7179.9918    6926.3684    7542.4544    5439.8093   -294.55222   -17.298636    39.291583   -2769.6955 
 1874000    257.89951   -3879.2526   -3437.2217   -3879.2526            0     6048.006    17.131771    20.178964    20.900721    7225.4085    7070.3311    4884.8039     6188.883   -1367.6365   -105.11261    346.42577    -2799.912 
 1875000    272.95694   -3889.0257   -3421.1869   -3889.0257            0    6241.2104    17.092897    20.133175    20.853295    7176.3338    5943.1919    7105.1783     5675.261   -626.34079   -1.8810542    319.87729   -2767.9851 
 1876000    263.72028   -3891.7994   -3439.7919   -3891.7994            0    6027.7839    17.081775    20.120075    20.839726    7162.3344    6374.7911    6375.7273    5332.8332   -609.32734    646.91832    673.32262   -2810.1579 
 1877000    261.89969   -3903.3841    -3454.497   -3903.3841            0    5768.3704    17.120706     20.16593    20.887221    7211.4165    5938.5496    4156.9196     7209.642    253.46665    348.91895    358.57074   -2847.8311 
 1878000    263.22268    -3897.343   -3446.1883    -3897.343            0    6609.7929    17.126208    20.172411    20.893934    7218.3717    7845.9552    5347.1707    6636.2529    593.99825    1610.8295    52.542611   -2750.3586 
 1879000    268.26901   -3878.2678   -3418.4639   -3878.2678            0    6574.6814    17.170448     20.22452    20.947906    7274.4551    7779.1958    5683.9009    6260.9476   -636.58486   -688.19932    484.30693   -2720.9528 
 1880000    250.61508   -3920.2439   -3490.6983   -3920.2439            0    6454.5492      17.1085    20.151553    20.872329    7196.0034    8226.8884    4931.1108    6205.6484    -1396.771   -1598.5083    118.27561    -2813.317 
 1881000    242.77594   -3896.8099   -3480.7002   -3896.8099            0    6560.8892    17.062622    20.097515    20.816359     7138.269    6294.6061    7863.2538    5524.8078    432.41589    2139.1029     -973.591   -2797.6832 
 1882000    263.83059   -3887.6852   -3435.4886   -3887.6852            0    6936.2795    17.146104    20.195846    20.918207    7243.5586    6035.7167     5537.969    9235.1526     791.2019    94.106707    440.01581   -2702.7409 
 1883000    257.79132   -3927.9684   -3486.1229   -3927.9684            0    7561.2685    17.085409    20.124355    20.844159    7166.9065    5751.0398    8356.9789    8575.7868    -1500.547      178.622   -284.97827   -2695.8042 
 1884000    243.86089   -3916.2444   -3498.2752   -3916.2444            0    6528.4632    17.135097    20.182881    20.904779    7229.6176    5900.3826    8445.4033    5239.6037     94.16416   -471.31623    151.06366   -2809.9365 
 1885000    247.60075   -3936.5648   -3512.1856   -3936.5648            0    3551.1783    17.215496    20.277581    21.002865    7331.8613    2370.5084    4673.9028    3609.1236    643.99839   -313.63308   -546.05482   -3132.4664 
 1886000    255.36227   -3905.6418   -3467.9596   -3905.6418            0    7041.2983    17.108484    20.151534     20.87231    7195.9832    7928.2972      7049.39    6146.2078   -1017.9876   -173.08259    1021.7811   -2729.0033 
 1887000     246.0705   -3890.8081   -3469.0517   -3890.8081            0    8321.7037    17.102782    20.144818    20.865354    7188.7915    9400.4537    6410.6163    9154.0411    53.661622     2734.988    -947.1378   -2596.5947 
 1888000    262.93699    -3912.436    -3461.771    -3912.436            0     7046.048    17.122387     20.16791    20.889272     7213.541    8261.0493    6921.5479    5955.5466     408.3862    1119.8553   -547.22856    -2720.512 
 1889000    249.41874   -3939.6504   -3512.1552   -3939.6504            0    7058.4631    17.101538    20.143352    20.863836    7187.2222    7515.7554    5818.1377    7841.4961    656.14879    219.78557    422.02629   -2772.2993 
 1890000    255.93294   -3924.3078   -3485.6475   -3924.3078            0    6231.2829    17.167886    20.221503    20.944781    7271.1999    7352.5912    5174.6674    6166.5901   -836.22342   -256.44846    1395.7433   -2824.8637 
 1891000      257.546   -3918.7858   -3477.3608   -3918.7858            0    7485.1006    17.139308    20.187841    20.909916    7234.9482    7217.1556    6985.7487    8252.3976    -412.8811      505.294   -27.789076   -2687.5756 
 1892000    248.89052   -3883.0882   -3456.4983   -3883.0882            0    6705.6598    17.089218    20.128841    20.848806    7171.7005    8402.2972    4995.5998    6719.0824    113.74741    29.900384   -590.10017   -2755.1407 
 1893000    241.22114   -3855.0248     -3441.58   -3855.0248            0    7519.4266    17.098062    20.139258    20.859596    7182.8409    6507.4506    8234.8524    7815.9768   -335.35447   -1121.6846   -651.96655   -2653.8873 
 1894000    254.71651   -3865.0501   -3428.4747   -3865.0501            0    7476.9339    17.077371    20.114888    20.834353    7156.7962    5949.7017    7615.4853    8865.6146   -846.73086    216.01982    870.44871   -2648.0732 
 1895000    263.89763   -3855.7975    -3403.486   -3855.7975            0    8161.5242    17.135908    20.183836    20.905768    7230.6437    7427.4809    8539.9415    8517.1501   -1344.7781    2464.0803   -207.59142   -2542.8409 
 1896000    255.75957   -3891.2647   -3452.9015   -3891.2647            0    7402.4672    17.129614    20.176423     20.89809    7222.6797    8533.6464    5821.9859    7851.7694   -1158.6747    298.75877   -95.830729   -2673.1598 
 1897000    242.10393   -3884.7936   -3469.8357   -3884.7936            0    8235.5198    17.116299    20.160739    20.881845    7205.8496    7365.7934    9073.7116    8267.0543   -313.72166    713.41166   -1150.9104   -2604.3656 
 1898000    260.93313   -3927.6608   -3480.4303   -3927.6608            0    8249.4423    17.108846    20.151961    20.872752    7196.4408    6439.8994    8709.7362    9598.6914    1520.4332   -221.98645   -352.67381    -2614.629 
 1899000    268.80396   -3857.3325   -3396.6118   -3857.3325            0    6886.7552    17.124825    20.170781    20.892246    7216.6225    7988.8505    6412.0418    6259.3732    337.89792    201.73959   -652.27586   -2671.8012 
 1900000    239.61797   -3866.0691   -3455.3721   -3866.0691            0    5272.8663     17.15089    20.201483    20.924045    7249.6253    5393.5328    4801.3933    5623.6727    97.244754    -703.4607    862.02532   -2897.8807 
 1901000     254.2209   -3857.5404   -3421.8145   -3857.5404            0    4634.7721    17.173127    20.227676    20.951175    7277.8611    5199.8027    3405.2869    5299.2268    -442.0566    687.69821   -572.90266   -2929.8791 
 1902000    241.07307   -3883.6515   -3470.4606   -3883.6515            0    7220.2351    17.078739    20.116499    20.836022    7158.5158     6474.382    9280.5885    5905.7349   -938.99991   -1215.2156    1384.9541   -2716.6708 
 1903000    253.36774   -3867.0606   -3432.7969   -3867.0606            0    3233.0861    17.242527     20.30942    21.035843     7366.452    2386.8693    5319.0711    1993.3178    172.70218   -1022.4973    660.42645   -3085.4596 
 1904000    243.79089   -3892.1596   -3474.3103   -3892.1596            0    6807.6147    17.157996    20.209853    20.932715    7258.6401    7075.3969    6769.4623     6577.985    -1960.149     737.7389   -415.83168   -2753.6575 
 1905000    250.36841   -3904.6214   -3475.4985   -3904.6214            0    7970.0466    17.093085    20.133396    20.853524    7176.5705     8625.826    8515.7905    6768.5233    -462.0243    1402.7588    963.07687   -2641.3302 
 1906000    245.23231   -3922.9071   -3502.5873   -3922.9071            0    5278.6602    17.213528    20.275262    21.000464    7329.3467    5458.8103    5050.2979    5326.8723    796.90652   -1267.5458   -818.58821    -2938.346 
 1907000    242.58422   -3876.0624   -3460.2814   -3876.0624            0    9705.8592    17.050726    20.083503    20.801846    7123.3493     7533.985    11483.039    10100.553    527.98132   -876.26675    99.758678   -2451.9713 
 1908000    260.72394   -3919.7206   -3472.8487   -3919.7206            0    5683.1334    17.104189    20.146475     20.86707    7190.5651    4751.7381    6238.6519    6059.0101    596.96618    475.55965   -4.2309789   -2876.8755 
 1909000    258.43109   -3881.8619   -3438.9198   -3881.8619            0    8520.2889    17.057619    20.091622    20.810256    7131.9917    10155.101    8593.5809    6812.1849    710.22202    1580.8515    -2052.047   -2552.7009 
 1910000    267.90698   -3877.7843   -3418.6009   -3877.7843            0    8067.2017    17.045073    20.076845    20.794949    7116.2664    8227.3249    7501.4472    8472.8331    401.46959    410.50909   -1276.0571   -2581.3589 
 1911000    236.09682   -3888.8159    -3484.154   -3888.8159            0    6264.4229    17.050913    20.083723    20.802073    7123.5827    5732.9797    6534.7123    6525.5768    -745.4252    357.60236   -334.11635   -2833.3422 
 1912000    246.53654   -3904.8318   -3482.2766   -3904.8318            0    6585.9771    17.088543    20.128046    20.847982    7170.8506    6581.5429    6565.5058    6610.8827    290.04411    843.22297     18.94222   -2793.5184 
 1913000    264.71583   -3881.3174   -3427.6035   -3881.3174            0    6607.8143    17.110509    20.153919     20.87478    7198.5387    7741.5618    6869.1937    5212.6876    227.92704   -79.095885     -803.926   -2733.8933 
 1914000    265.94756   -3912.2049   -3456.3799   -3912.2049            0    8617.7954    17.084746    20.123574     20.84335    7166.0717    9507.3662    7008.7752    9337.2447   -1922.7867    687.61021   -869.20552   -2555.7358 
 1915000    254.69395   -3895.3971   -3458.8604   -3895.3971            0    6176.5448    17.099531    20.140989    20.861388    7184.6925    3477.5464     7561.206    7490.8819   -771.67503     -36.3839    307.35996   -2811.6736 
 1916000    262.50354   -3879.7032   -3429.7811   -3879.7032            0    5899.7103    17.152915    20.203868    20.926516    7252.1931    5908.6199    5193.2559    6597.2552   -148.52469   -754.31328   -289.33919   -2805.7936 
 1917000     240.5184   -3920.4829   -3508.2426   -3920.4829            0    3714.1045    17.183545    20.239946    20.963885     7291.114    3606.0466    3886.6971    3649.5698   -633.96446    1260.0586   -445.95318   -3113.3092 
 1918000    265.28253   -3882.6857   -3428.0005   -3882.6857            0     6177.023     17.14404    20.193414    20.915688    7240.9422    5403.7859    5776.2365    7351.0467    214.41644   -1537.2664    539.51805   -2775.6963 
 1919000    275.00875   -3912.9582   -3441.6026   -3912.9582            0    5660.7111    17.215739    20.277866    21.003161    7332.1712    6016.0793    5783.4267    5182.6272   -1168.0393    1146.5615     211.5651   -2836.2904 
 1920000    259.71218   -3889.3592   -3444.2214   -3889.3592            0    7847.6278    17.111543    20.155138    20.876043    7199.8445    6207.7007    7791.1578    9544.0248   -488.79547    516.04781   -656.07528   -2620.2021 
 1921000    255.84234   -3904.1729   -3465.6679   -3904.1729            0    8248.5358    17.156169    20.207701    20.930487    7256.3223      7865.37    8063.5832    8816.6542    1232.0035    1231.0549     -473.407   -2592.7582 
 1922000    258.26305   -3917.1043   -3474.4502   -3917.1043            0    5814.6143     17.17679    20.231989    20.955643    7282.5183     6236.634    5172.4401    6034.7688     -1002.38    391.41808    988.22124   -2856.8913 
 1923000    262.66209   -3918.8557   -3468.6618   -3918.8557            0    7145.2608    17.136092    20.184053    20.905993    7230.8769    6714.1439    6592.8311    8128.8075    634.04233   -529.89915    63.570623   -2715.1589 
 1924000    254.22627   -3909.6151   -3473.8799   -3909.6151            0    5604.3106    17.102563     20.14456    20.865087    7188.5151    4702.3308    6114.1907    5996.4103    801.98532    1116.0349    123.17876   -2886.3402 
 1925000    255.61804   -3880.0179   -3441.8974   -3880.0179            0    6219.6443    17.117477    20.162126    20.883281    7207.3368    4579.8343    7001.7239    7077.3747   -1163.8264   -224.17773   -947.49091   -2788.1405 
 1926000    266.26005    -3929.635   -3473.2744    -3929.635            0    6641.0874    17.046701    20.078762    20.796935    7118.3049    6750.5093    7727.1497    5445.6034   -698.65565    493.08275    32.697674    -2783.842 
 1927000    253.61075   -3875.4282   -3440.7481   -3875.4282            0    8382.7352    17.052766    20.085906    20.804335    7125.9065    6900.1122    7741.9787    10506.115    1723.6906    800.26939   -2258.1407   -2569.5804 
 1928000    259.36748    -3888.348    -3443.801    -3888.348            0    7168.5536    17.107549    20.150433     20.87117    7194.8044    8266.0155    6540.2384    6699.4068   -130.71285    -951.7267     603.2219    -2691.613 
 1929000    258.89392   -3894.8494   -3451.1141   -3894.8494            0    6377.6386    17.127961    20.174476    20.896073    7220.5886    5876.4198    7604.0368    5652.4594    418.41899    107.03829    1359.5444   -2779.5177 
 1930000    249.15457   -3879.5818   -3452.5394   -3879.5818            0    6292.2148    17.091454    20.131475    20.851534    7174.5159    5286.5815    6912.6372    6677.4258   -463.00664    939.02564   -667.75221   -2794.1664 
 1931000    276.13694   -3922.3404   -3449.0511   -3922.3404            0      6481.16    17.078587    20.116319    20.835836    7158.3246    4742.1708     5709.808    8991.5013    734.67529    443.77041   -816.21022   -2772.4386 
 1932000    272.02123   -3866.2556   -3400.0206   -3866.2556            0    5759.7475    17.117672    20.162356    20.883519     7207.583    4253.7846    8537.8193    4487.6387   -1000.1879     199.0105   -155.01606   -2794.5835 
 1933000     266.0831   -3906.8557   -3450.7984   -3906.8557            0    7718.6819    17.056292    20.090059    20.808637    7130.3275    7575.7266    6749.6182    8830.7009     98.21048   -714.14386    132.27861   -2648.1442 
 1934000    249.57098   -3877.8167   -3450.0606   -3877.8167            0    7279.8069    17.062606    20.097496     20.81634    7138.2488    7371.4324    7349.5812    7118.4069   -405.26107    921.39544    490.69916   -2692.2033 
 1935000    259.03959   -3861.2675   -3417.2825   -3861.2675            0    6462.6213    17.107859    20.150798    20.871548    7195.1951    5569.0594    7077.5196    6741.2848   -381.89309    291.16828   -63.839963   -2739.1303 
 1936000    257.25841   -3837.6696   -3396.7375   -3837.6696            0     6596.058    17.143271    20.192509    20.914751    7239.9688    8335.3689     6139.478     5313.327    49.955364    129.65054   -139.12091   -2700.2761 
 1937000    262.90722   -3898.5509   -3447.9369   -3898.5509            0    7266.7859    17.012385    20.038343     20.75507    7075.4038    7165.8594    7665.2536    6969.2448    1352.4912   -1143.5813   -894.07871   -2698.0954 
 1938000    266.83577   -3873.4746   -3416.1272   -3873.4746            0    6250.5311    17.023223    20.051109    20.768293    7088.9348    6287.0168    6130.0789    6334.4977   -788.61184   -262.95518    604.56679   -2769.9171 
 1939000    249.59832   -3910.7883   -3482.9853   -3910.7883            0    6384.0892    17.104351    20.146666    20.867268    7190.7699    4845.9132    8403.9312    5902.4231   -346.07017    278.51906    820.90758   -2813.4858 
 1940000    266.26426   -3859.8095   -3403.4417   -3859.8095            0      7132.18    17.053514    20.086787    20.805248    7126.8441    7328.2914    7106.7811    6961.4673   -184.54884   -1097.2252   -324.84522   -2662.1392 
 1941000    246.34512   -3883.0976   -3460.8705   -3883.0976            0    7162.8367    17.165794    20.219038    20.942229    7268.5415    5462.2528    6505.8107    9520.4465    573.86336   -1830.8694   -681.81716   -2701.5795 
 1942000    251.58014   -3868.3529   -3437.1532   -3868.3529            0    6866.0809    17.078078     20.11572    20.835215    7157.6848    7194.2121    7827.2722    5576.7584   -236.51768    -2205.688    553.02004   -2720.4202 
 1943000    265.17455   -3879.0026   -3424.5025   -3879.0026            0    5712.2198    17.088656    20.128179     20.84812    7170.9932    4101.9234    5975.8156    7058.9204    1180.3138    -461.4862    973.26745   -2827.1096 
 1944000    258.06159   -3862.2235   -3419.9148   -3862.2235            0    7717.5044    17.068275    20.104173    20.823256    7145.3661    8433.4891    7960.8118    6758.2123    824.77791   -937.91589   -257.87019   -2615.6904 
 1945000    256.63034   -3894.9698   -3455.1141   -3894.9698            0    6077.4172    17.087808    20.127181    20.847086    7169.9261    5815.4677    6295.9221    6120.8617     1963.262    506.43745   -546.82052   -2819.6228 
 1946000    254.07601   -3873.2816    -3437.804   -3873.2816            0    7118.0902    17.150523    20.201051    20.923598    7249.1604    6689.7612    6718.5025    7946.0071    -775.1013    -1005.181   -1764.6224   -2685.2683 
 1947000    255.38269   -3859.3545   -3421.6373   -3859.3545            0     7851.945    17.056295    20.090063    20.808641    7130.3314    7671.4294    7624.7121    8259.6935    257.90232    1209.5196   -196.36353   -2605.1248 
 1948000    250.90625   -3867.0485   -3437.0037   -3867.0485            0    6494.6939    17.128724    20.175374    20.897003    7221.5529    5261.7675    6667.0868    7555.2275    557.12528    88.817711    1353.7266   -2752.9894 
 1949000    264.64351   -3867.1593   -3413.5693   -3867.1593            0    6751.3638     17.12473     20.17067    20.892131    7216.5034    6740.1526    8707.8321    4806.1067   -871.30893    898.50652    244.21432     -2703.02 
 1950000    260.53575    -3886.523   -3439.9736    -3886.523            0    6508.5572    17.188116     20.24533    20.969461     7296.934    6555.0775    7775.8937    5194.7004    677.54419    833.03684   -2011.7803   -2747.3441 
 1951000    255.25965   -3875.9371   -3438.4308   -3875.9371            0     7311.551    17.069827    20.106001    20.825149    7147.3153    6804.9242    7823.8822    7305.8467   -61.181903   -673.97636   -1640.9906   -2676.3021 
 1952000    251.28883   -3860.5047   -3429.8042   -3860.5047            0    6926.3278    17.098954    20.140309    20.860684    7183.9654    6874.2523     5601.516    8303.2152    555.52114    540.84568    335.46431   -2704.1276 
 1953000    265.97451   -3929.8124   -3473.9411   -3929.8124            0    8187.6183     17.03308    20.062719    20.780318     7101.256    9052.2867    8360.3394    7150.2287    1961.1596     663.5787   -826.92372   -2625.9943 
 1954000     237.6693   -3889.9944   -3482.6374   -3889.9944            0    6634.7367    17.102841    20.144888    20.865426     7188.866    6900.2153     5791.081    7212.9137    89.531716   -324.73627   -2.9591696   -2787.0367 
 1955000    254.56084   -3930.7058   -3494.3972   -3930.7058            0    5652.5642    17.132043    20.179283    20.901052    7225.7516    4620.6775     6758.364    5578.6512   -2402.7736    379.45951    101.50757    -2898.729 
 1956000    261.43174   -3934.9141    -3486.829   -3934.9141            0      5269.14    17.145987    20.195708    20.918064    7243.4102    4658.6307    6604.2201    4544.5691     1143.717   -712.72148    754.01958   -2930.2092 
 1957000    255.43587   -3895.0363   -3457.2279   -3895.0363            0    6570.8374    17.103271    20.145394    20.865951    7189.4083    9267.3607    4963.5541    5481.5975    -100.0491    1076.8789    13.382008   -2768.2746 
 1958000    269.39995   -3924.6574   -3462.9151   -3924.6574            0    6546.6941    17.138002    20.186303    20.908323    7233.2953    6907.3551    6465.6785    6267.0486   -49.439756    140.70112   -642.44197   -2772.3031 
 1959000    250.40963   -3908.3036     -3479.11   -3908.3036            0    7855.7913    17.107239    20.150068    20.870792     7194.413    9086.8198    8143.8591     6336.695    -698.5996    1089.5069    1854.8743   -2654.8558 
 1960000    264.86704   -3881.4525   -3427.4795   -3881.4525            0    6310.9582    17.144955    20.194492    20.916805    7242.1018    8561.0759    2358.5149    8013.2838   -1418.2435    1507.5874    203.16747   -2760.9248 
 1961000    251.92529   -3915.2529   -3483.4616   -3915.2529            0    6547.2042    17.099621    20.141095    20.861498    7184.8061    5691.0212    7530.8285    6419.7628    294.01055    2174.4512    1310.0265   -2797.4257 
 1962000    257.78651    -3920.846   -3479.0088    -3920.846            0    6384.9028    17.124424     20.17031    20.891757    7216.1162    7162.4173    5754.1315    6238.1597    1030.5576   -1276.8981   -390.41792   -2807.0638 
 1963000    268.49967    -3904.894   -3444.6947    -3904.894            0    6064.4599    17.087847    20.127226    20.847133    7169.9744     8478.619    4042.5775    5672.1831   -477.03762    866.97784   -947.54854    -2810.554 
 1964000    253.42882   -3891.4012   -3457.0329   -3891.4012            0    5670.9884    17.111106    20.154623     20.87551    7199.2934    4615.2757    6651.3659    5746.3235    783.02408   -124.22265    1208.5602   -2861.6114 
 1965000    232.21403   -3915.1981   -3517.1912   -3915.1981            0    7279.9057    17.080026    20.118015    20.837592    7160.1348     8622.315     6545.701     6671.701   -1948.4333   -173.49266    692.27442        -2757 
 1966000    242.60807   -3898.3973   -3482.5753   -3898.3973            0    6849.1256    17.105992    20.148598     20.86927    7192.8391    6993.5257     6237.522    7316.3291    913.73382    931.80875    757.41448   -2764.1008 
 1967000    253.40507   -3939.6152   -3505.2876   -3939.6152            0    7450.8132    17.118057     20.16281    20.883989    7208.0698    8552.5778    6566.9728    7232.8889    370.78105    683.42583    511.71035   -2722.0409 
 1968000    251.58912   -3854.1995   -3422.9843   -3854.1995            0    7337.2311    17.063284    20.098295    20.817167       7139.1    6884.4554    7762.0356    7365.2021   -15.090855   -492.26983    -1183.163   -2659.0579 
 1969000    257.24281   -3872.0063   -3431.1009   -3872.0063            0     7299.057    17.085804    20.124821    20.844641     7167.404    8287.2323    6155.0146    7454.9242   -0.6931933    901.08248   -784.74829    -2668.136 
 1970000    254.04719   -3923.2395   -3487.8113   -3923.2395            0    7226.4799    17.077944    20.115563    20.835052    7157.5166    7157.9327    8890.2243    5631.2825   -1019.7462    117.38397   -539.80301   -2733.4749 
 1971000    259.63138   -3897.1508   -3452.1515   -3897.1508            0    7119.7895    17.072456    20.109098    20.828356    7150.6179    7710.8744    6833.1586    6815.3356    191.71612   -718.39156    1202.1313   -2709.6683 
 1972000     258.3629   -3912.6453   -3469.8201   -3912.6453            0    6538.6155    17.126086    20.172268    20.893785    7218.2178     4816.401    7409.8674    7389.5781    342.43905   -406.94944   -850.99723   -2781.4981 
 1973000    253.06561   -3886.9272   -3453.1814   -3886.9272            0    6690.1485    17.147197    20.197133    20.919541    7244.9437    8025.2723    8032.9063    4012.2667   -388.83616    624.92428    920.59119   -2746.2998 
 1974000     266.7631   -3892.9814   -3435.7586   -3892.9814            0    5873.5662    17.108149     20.15114    20.871902    7195.5616    7177.9432    6609.5156    3833.2397    1682.6907   -556.38601    1110.4927   -2819.3873 
 1975000    247.26927   -3873.5389   -3449.7278   -3873.5389            0    8936.3329    17.036246    20.066448     20.78418    7105.2163    9090.4593    9934.4904     7784.049    341.45205   -1516.0517    -1525.511   -2523.7245 
 1976000    254.97542   -3881.8687   -3444.8496   -3881.8687            0    6905.5191     17.04661    20.078655    20.796824    7118.1916    5836.1775    8859.5618    6020.8181   -1831.1999   -1125.8809   -464.53112   -2727.9771 
 1977000    277.05729   -3841.3049   -3366.4382   -3841.3049            0    6486.1536    17.071298    20.107734    20.826943    7149.1629     6411.529     7267.597    5779.3349    23.986989   -1222.8676    22.508966    -2690.171 
 1978000    260.45657   -3867.5847   -3421.1711   -3867.5847            0    6623.7653    17.095173    20.135856    20.856071    7179.2008     5918.259    6276.1181    7676.9189    1676.0115    873.65499   -47.346768   -2727.6544 
 1979000     255.9302   -3879.5852   -3440.9296   -3879.5852            0    5590.7589    17.139925    20.188568    20.910669    7235.7303    7139.3726    4646.0995    4986.8047     1401.103    951.76624    -1326.928   -2850.9608 
 1980000    264.47199   -3859.4403   -3406.1444   -3859.4403            0    7426.3393    17.106083    20.148706    20.869381    7192.9541    9612.9714    7627.7022    5038.3443    434.35999     1450.494   -666.83896   -2627.1076 
 1981000    271.35772    -3883.296   -3418.1982    -3883.296            0    8445.1343    17.076636    20.114021    20.833456    7155.8713    10022.552    6184.5003    9128.3508   -127.14091    1256.3088   -786.70935   -2536.8551 
 1982000     251.2183    -3854.657   -3424.0774    -3854.657            0    5819.2537    17.038936    20.069616    20.787463    7108.5829    5810.0513    4270.8169    7376.8927     35.73756   -570.02592    95.094342   -2820.7873 
 1983000    256.42997   -3879.9652    -3440.453   -3879.9652            0    5056.5065    17.086035    20.125093    20.844923    7167.6947    3808.1319     4737.394    6623.9936    1430.8406    1138.9132   -1169.0942   -2911.8788 
 1984000    265.59597   -3866.9051   -3411.6827   -3866.9051            0    6072.6152    17.125634    20.171735    20.893233    7217.6456    4850.9991    6226.7556     7140.091   -1112.9375    552.68358   -1740.2895   -2772.4673 
 1985000    271.16614   -3929.6101   -3464.8406   -3929.6101            0    7629.2258     17.00801    20.033189    20.749732    7069.9458    7951.1703     6780.022    8156.4851   -871.44517   -310.57931    1502.6829   -2678.2071 
 1986000    249.28162   -3884.3446   -3457.0844   -3884.3446            0     6940.846    17.079143    20.116974    20.836514    7159.0234    5477.9789    6731.8119    8612.7473    1037.9133    542.44606    1179.6359   -2732.4114 
 1987000    255.47345   -3880.6156   -3442.7428   -3880.6156            0     5674.515    17.159669    20.211824    20.934756    7260.7642    5769.2496    4402.6567    6851.6386    279.24109    657.55583   -202.77232   -2841.8639 
 1988000    255.58415   -3868.8862   -3430.8237   -3868.8862            0    5322.3721    17.175066    20.229959     20.95354    7280.3258    4899.9139    5681.5534    5385.6491    53.980892   -6.0434819   -642.02673   -2865.7151 
 1989000    267.98987   -3893.8766   -3434.5511   -3893.8766            0    7822.4884    17.194265    20.252573    20.976963     7304.768     7230.867    6824.7787    9411.8195   -53.646575   -234.58498    360.35222   -2601.2015 
 1990000    249.43914   -3859.2164   -3431.6862   -3859.2164            0    6630.7545    17.186907    20.243906    20.967986    7295.3941     6964.234    7807.6394    5120.3901    920.64837    908.95879   -454.05329   -2726.2015 
 1991000    242.73776   -3880.2421   -3464.1979   -3880.2421            0    5629.4629    17.222229     20.28551    21.011079    7340.4661    5034.4865     6174.062    5679.8402   -1456.2836    517.75767    499.99834    -2861.546 
 1992000     265.9748   -3880.1794   -3424.3077   -3880.1794            0    7298.8601    17.132839    20.180222    20.902024    7226.7598    5698.2715    6241.9885    9956.3203    1302.2953   -315.47583    183.87709   -2655.0452 
 1993000    258.79444   -3854.2621   -3410.6973   -3854.2621            0     6030.275    17.142484    20.191581     20.91379    7238.9706    7381.8052    3841.0723    6867.9475    671.65065    1284.7491    756.98917   -2774.0633 
 1994000    247.61672   -3865.8392   -3441.4327   -3865.8392            0    6630.3058     17.25725     20.32676    21.053804    7385.3371    4827.5966    8172.3773    6890.9435   -867.03725    41.658448    1548.6464   -2727.2986 
 1995000    264.85077   -3858.8184   -3404.8732   -3858.8184            0    7759.4707     17.11124    20.154781    20.875673     7199.462    7519.2651    6549.6001    9209.5469   -1110.8748    602.87347    54.622175   -2590.1539 
 1996000    254.91146   -3888.4149   -3451.5054   -3888.4149            0     4231.622    17.219503      20.2823    21.007754    7336.9818    4144.2836    4897.3344     3653.248    490.85764    306.89756    968.81201   -2998.7119 
 1997000    251.07517   -3891.2546   -3460.9203   -3891.2546            0    5543.7033    17.199898    20.259208    20.983835    7311.9499    4588.8721    4455.1321    7587.1056    385.13212   -266.06731   -1749.1806   -2869.7548 
 1998000    267.87234   -3879.8061   -3420.6821   -3879.8061            0    6503.6738    17.185678    20.242459    20.966487    7293.8297    6498.8258    6151.0832    6861.1123    1035.7928    646.76274    2006.3465   -2728.8667 
 1999000    254.02374   -3918.9583   -3483.5703   -3918.9583            0    5426.1925     17.14453    20.193991    20.916286    7241.5632    4241.2323    4473.2185    7564.1269     584.6033   -754.13418   -540.08374   -2910.5059 
 2000000    271.36995   -3864.8081   -3399.6893   -3864.8081            0    8438.9566    17.047651    20.079881    20.798094    7119.4956    8424.9284     9671.781    7220.1605   -6.5526441    623.26383   -1483.7014   -2523.4679 
Loop time of 425.623 on 64 procs for 250000 steps with 864 atoms

Performance: 101.498 ns/day, 0.236 hours/ns, 587.375 timesteps/s
99.1% CPU use with 64 MPI tasks x 1 OpenMP threads

MPI task timing breakdown:
Section |  min time  |  avg time  |  max time  |%varavg| %total
---------------------------------------------------------------
Pair    | 21.129     | 25.982     | 30.371     |  45.9 |  6.10
Bond    | 0.28509    | 0.29537    | 0.3156     |   1.0 |  0.07
Kspace  | 182.58     | 189.37     | 200.81     |  29.0 | 44.49
Neigh   | 4.7237     | 5.3491     | 6.197      |  17.2 |  1.26
Comm    | 91.341     | 99.687     | 105.53     |  34.3 | 23.42
Output  | 1.3509     | 1.352      | 1.3588     |   0.1 |  0.32
Modify  | 96.923     | 98.988     | 100.45     |   8.2 | 23.26
Other   |            | 4.596      |            |       |  1.08

Nlocal:        13.5000 ave          18 max           7 min
Histogram: 2 1 1 5 9 15 11 7 9 4
Nghost:        2228.91 ave        2276 max        2184 min
Histogram: 1 0 6 13 17 10 9 6 1 1
Neighs:        4335.02 ave        6484 max        2131 min
Histogram: 3 0 6 9 14 10 11 9 1 1

Total # of neighbors = 277441
Ave neighs/atom = 321.11227
Ave special neighs/atom = 2.0000000
Neighbor list builds = 13496
Dangerous builds = 0

unfix		3
unfix		2
unfix		1

write_data	data.final.${pid}
write_data	data.final.0
System init for write_data ...
PPPM initialization ...
  extracting TIP4P info from pair style
  using 12-bit tables for long-range coulomb (../kspace.cpp:340)
  G vector (1/distance) = 0.37390899
  grid = 24 24 24
  stencil order = 5
  estimated absolute RMS force accuracy = 0.0032014686
  estimated relative force accuracy = 9.6411276e-06
  using double precision FFTW3
  3d grid and FFT values/proc = 2535 216
Last active /omp style is kspace_style pppm/tip4p/omp
WARNING: Not all mixed pair coeffs generated from mixing. Use write_data with 'pair ij' option to store all pair coeffs. (../write_data.cpp:312)

write_restart   restart.lmp.${pid}
write_restart   restart.lmp.0
System init for write_restart ...
PPPM initialization ...
  extracting TIP4P info from pair style
  using 12-bit tables for long-range coulomb (../kspace.cpp:340)
  G vector (1/distance) = 0.37390899
  grid = 24 24 24
  stencil order = 5
  estimated absolute RMS force accuracy = 0.0032014686
  estimated relative force accuracy = 9.6411276e-06
  using double precision FFTW3
  3d grid and FFT values/proc = 2535 216
Last active /omp style is kspace_style pppm/tip4p/omp
Total wall time: 0:07:08
