LAMMPS (30 Jul 2021)
  using 1 OpenMP thread(s) per MPI task
package omp 0
using multi-threaded neighbor list subroutines
echo both

include		in.partitions
variable        pid world 0
include		in.temp
variable        temperature equal 298.01
variable	tempDamp equal 100.0
include		in.pressure
variable        pressure equal 14750.0
variable        pressureDamp equal 1000.0 # This is 1 ps
include		in.seed
variable        seed world 745823

units		real
atom_style	full
read_restart	restart.lmp.${pid}
read_restart	restart.lmp.0
Reading restart file ...
  restart file = 30 Jul 2021, LAMMPS = 30 Jul 2021
  restoring atom style full from restart
  orthogonal box = (0.076178742 -0.10208184 -0.12750232) to (24.653822 24.832083 22.937502)
  4 by 4 by 4 MPI processor grid
  restoring pair style lj/cut/tip4p/long/omp from restart
  restoring bond style harmonic/omp from restart
  restoring angle style harmonic/omp from restart
  1920 atoms
  1280 bonds
  640 angles
Finding 1-2 1-3 1-4 neighbors ...
  special bond factors lj:    0        0        0       
  special bond factors coul:  0        0        0       
     2 = max # of 1-2 neighbors
     1 = max # of 1-3 neighbors
     1 = max # of 1-4 neighbors
     2 = max # of special neighbors
  special bonds CPU = 1.039 seconds
  read_restart CPU = 1.344 seconds
include 	in.setup
variable	out_freq equal 1000
variable	out_freq2 equal 10000
variable	out_freq3 equal 1000

timestep	2.0

neigh_modify    delay 7 every 1

include		in.tip4p
# This is TIP4P/Ice

# create groups ###
group ox type 2
640 atoms in group ox
group hy type 1
1280 atoms in group hy

# set charges - beside manually ###
set group ox charge -1.1794
Setting atom values ...
  640 settings made for charge
set group hy charge 0.5897
Setting atom values ...
  1280 settings made for charge

# ### TIP3P Potential Parameters ###
pair_style lj/cut/tip4p/long/omp 2 1 1 1 0.1577 8.5
pair_coeff 1 1*2 0.000 0.000
pair_coeff 2 2 0.21084 3.1668
bond_style  harmonic
bond_coeff  1 450 0.9572
angle_style harmonic
angle_coeff 1 55 104.52
kspace_style pppm/tip4p/omp 1.0e-5
pair_modify tail yes

thermo          ${out_freq}
thermo          1000
thermo_style    custom step temp pe etotal epair emol press lx ly lz vol pxx pyy pzz pxy pxz pyz enthalpy

restart 	${out_freq3} restart.lmp.${pid} restart2.lmp.${pid}
restart 	1000 restart.lmp.${pid} restart2.lmp.${pid}
restart 	1000 restart.lmp.0 restart2.lmp.${pid}
restart 	1000 restart.lmp.0 restart2.lmp.0


include         in.dump
dump            myDump all atom ${out_freq2} dump.water.${pid}
dump            myDump all atom 10000 dump.water.${pid}
dump            myDump all atom 10000 dump.water.0
dump            myDump2 all dcd ${out_freq2} dump.dcd
dump            myDump2 all dcd 10000 dump.dcd
dump_modify     myDump append yes
dump_modify     myDump2 append yes


variable natoms 	equal  "count(all)"                        # NUMBER ATOMS
variable H      	equal  "enthalpy/v_natoms"                 # ENTHALPY-per-atom
variable Vol      	equal  "vol/v_natoms"                 # volume-per-atom
fix AVG all 		ave/time ${out_freq} 1 ${out_freq} v_Vol v_H file vol_enthalpy.dat
fix AVG all 		ave/time 1000 1 ${out_freq} v_Vol v_H file vol_enthalpy.dat
fix AVG all 		ave/time 1000 1 1000 v_Vol v_H file vol_enthalpy.dat




fix 		1 all shake 1e-6 200 0 b 1 a 1
       0 = # of size 2 clusters
       0 = # of size 3 clusters
       0 = # of size 4 clusters
     640 = # of frozen angles
  find clusters CPU = 0.086 seconds
fix             2 all nph aniso ${pressure} ${pressure} ${pressureDamp}
fix             2 all nph aniso 14750 ${pressure} ${pressureDamp}
fix             2 all nph aniso 14750 14750 ${pressureDamp}
fix             2 all nph aniso 14750 14750 1000
fix             3 all temp/csvr ${temperature} ${temperature} ${tempDamp} ${seed}
fix             3 all temp/csvr 298.01 ${temperature} ${tempDamp} ${seed}
fix             3 all temp/csvr 298.01 298.01 ${tempDamp} ${seed}
fix             3 all temp/csvr 298.01 298.01 100 ${seed}
fix             3 all temp/csvr 298.01 298.01 100 745823


run             250000
PPPM initialization ...
  extracting TIP4P info from pair style
  using 12-bit tables for long-range coulomb (../kspace.cpp:340)
  G vector (1/distance) = 0.37482579
  grid = 30 30 30
  stencil order = 5
  estimated absolute RMS force accuracy = 0.0032233133
  estimated relative force accuracy = 9.7069124e-06
  using double precision FFTW3
  3d grid and FFT values/proc = 3600 512
Last active /omp style is kspace_style pppm/tip4p/omp
Neighbor list info ...
  update every 1 steps, delay 7 steps, check yes
  max neighbors/atom: 2000, page size: 100000
  master list distance cutoff = 10.8154
  ghost atom cutoff = 10.8154
  binsize = 5.4077, bins = 5 5 5
  1 neighbor lists, perpetual/occasional/extra = 1 0 0
  (1) pair lj/cut/tip4p/long/omp, perpetual
      attributes: half, newton on, omp
      pair build: half/bin/newton/omp
      stencil: half/bin/3d
      bin: standard
Per MPI rank memory allocation (min/avg/max) = 9.334 | 9.343 | 9.348 Mbytes
Step Temp PotEng TotEng E_pair E_mol Press Lx Ly Lz Volume Pxx Pyy Pzz Pxy Pxz Pyz Enthalpy 
19250000    311.09912   -8983.3558    -7797.304   -8983.3558            0    13386.488    24.577644    24.934165    23.065005    14134.766    17002.665    12071.645    11085.153   -164.66948    889.79615    1547.2885   -5037.7993 
19251000    293.26031   -8950.3767   -7832.3347   -8950.3767            0    14922.846    24.807731    24.899424    22.815367    14093.012    16087.521    14420.115    14260.903   -785.83052    183.67854    286.76114   -4765.2104 
19252000    302.24448    -8965.022   -7812.7282    -8965.022            0    14825.177    24.879427    24.717275    22.870425    14064.205    14988.401    15281.124    14206.006    508.12417    57.088339    1217.7664   -4771.9064 
19253000    296.17026   -8949.5685   -7820.4325   -8949.5685            0    14115.513    24.932412    24.826426    22.855481    14147.148     14040.67    13661.881    14643.989   -9.2326877    635.56034    845.85601   -4908.0967 
19254000    284.20135   -8959.9599   -7876.4548   -8959.9599            0    13153.306    25.020133    24.763148    22.878266    14174.853    11664.154    14610.519    13185.247   -667.57504   -583.96038   -463.17967   -5157.3283 
19255000    285.86375    -8900.654   -7810.8111    -8900.654            0    14010.945    24.922061    24.872899    22.868663    14175.916    14826.315    13210.867    13995.653   -244.79618    208.26416    75.980778   -4914.1717 
19256000    303.70804   -8946.7513   -7788.8777   -8946.7513            0    13844.868    24.901514    24.875931    22.866818    14164.812    13926.659    13101.718    14506.227   -186.10245    756.46616    965.93445   -4928.8152 
19257000    297.56536   -8985.2863   -7850.8315   -8985.2863            0    14396.938    24.822321    24.911468    22.772691    14081.732    14636.637    13425.795    15128.382   -330.92845      575.753    334.78588   -4894.1666 
19258000    284.83071   -8948.2493   -7862.3448   -8948.2493            0    14222.299    24.736834    24.874991    22.965635    14131.411     15328.69    13033.159    14305.048    155.36803    -705.8701    151.31955   -4931.2409 
19259000    304.98741   -8930.1362   -7767.3851   -8930.1362            0    14559.358    24.920607    24.927768    22.694549    14098.197    12680.858    15584.402    15412.815    1087.7894    58.672033   -986.98366   -4773.8684 
19260000    305.97783   -8951.7242   -7785.1972   -8951.7242            0    16139.364    24.821852    24.635285    22.991065    14058.884    15657.265    16997.139    15763.688    708.02777   -878.76674    943.35161   -4476.0723 
19261000    292.83192   -8933.7173   -7817.3085   -8933.7173            0    15375.255     24.94917     24.86254    22.727863    14098.088    15049.265    14644.846    16431.654   -129.83069    728.67185   -106.70928   -4656.0615 
19262000    308.15156    -8948.023   -7773.2087    -8948.023            0     14357.83    24.779112    24.767198    22.999883     14115.24    15618.059    13534.162     13921.27    251.64131    650.78841   -828.78682    -4817.559 
19263000    303.31931   -8946.3675    -7789.976   -8946.3675            0    14659.726    24.907079    24.820254    22.817313    14105.663    13770.877    14372.938    15835.362    879.49462    46.617867    774.92035   -4774.2266 
19264000    294.15062   -8985.4242   -7863.9879   -8985.4242            0    15469.684    24.913005    24.826394     22.71185    14047.281    14667.118    14160.537    17581.398   -150.15453   -492.95298   -85.813171   -4694.7881 
19265000    293.45445   -8938.3415   -7819.5593   -8938.3415            0    15376.471    24.772772    24.829106    22.892282    14080.718    15907.994    14922.552    15298.866   -604.48895    75.789244    1034.2364   -4661.9576 
19266000    297.51247   -8934.1416   -7799.8884   -8934.1416            0    15117.851    24.875464    24.895886    22.721041    14071.066    15583.688    13276.343    16493.522   -764.26085   -3.6485127    902.85411   -4697.5229 
19267000     302.1543    -8964.342    -7812.392    -8964.342            0    14964.426    24.797792    24.644837    23.098513    14116.369    14910.323    16276.346    13706.609    271.60119   -726.99535   -746.09525   -4731.6244 
19268000    294.74156   -8976.4114   -7852.7222   -8976.4114            0    14876.627    25.011158    24.856756    22.643616    14077.452    13276.665    15081.687    16271.529    424.44426    338.84337    53.748452   -4798.4734 
19269000    287.73362   -8920.2133   -7823.2415   -8920.2133            0    16274.206    24.707454    24.700998    23.007101    14041.206    17476.117    16487.673    14858.826    436.90127   -1184.3048   -489.66945   -4490.6653 
19270000    290.57821   -8959.3895   -7851.5729   -8959.3895            0    15792.143    24.792244    24.910621    22.771318    14063.343    17605.383    14143.487    15627.557    717.18161    97.698939    765.36022   -4612.6135 
19271000    293.34255   -8966.9781   -7848.6225   -8966.9781            0    13674.109      24.8454    24.800663    22.942253    14136.613    13139.843    14551.624    13330.859    420.71077    358.42729    2062.8968   -5029.4589 
19272000    294.46933   -8913.7907   -7791.1394   -8913.7907            0    14849.833    24.949892     24.84916    22.778521    14122.316    14568.413    14133.584    15847.502    109.94852   -1693.6639    211.21697   -4732.6753 
19273000     297.0776   -9001.6842   -7869.0889   -9001.6842            0    14468.105    24.781158    24.856945     22.84998     14075.22    15686.682    13722.194    13995.438   -228.44182   -600.56198    837.49548   -4899.1828 
19274000     304.2877   -8910.9942   -7750.9107   -8910.9942            0     13559.72    24.819926    24.964015    22.886487    14180.582     15295.53    12798.729    12584.902    137.39821   -557.74996    822.38495   -4946.6352 
19275000    292.90522   -8939.0643    -7822.376   -8939.0643            0     13397.63    24.880547    24.953874    22.780498    14143.637    13582.396    12467.113    14143.382    184.48058     8.862565   -774.29947   -5058.8409 
19276000    300.66944   -8939.4894   -7793.2004   -8939.4894            0    12642.702    24.934813       24.822    22.981932    14224.251    12815.843    11610.599    13501.664    319.06595    365.59282   -406.97318    -5170.521 
19277000    301.91384   -8972.6031   -7821.5698   -8972.6031            0    13327.791    24.965256    24.849384    22.799999    14144.464    12498.605    13794.609     13690.16    -817.2728    -322.0414    277.79235   -5072.2797 
19278000    300.47601   -8995.8557   -7850.3041   -8995.8557            0    13427.472    24.849237    24.821264    22.908856    14129.941     13869.03    14330.917    12082.469    10.334198    331.13813   -1085.0562   -5083.2955 
19279000    296.38204   -8988.4882   -7858.5447   -8988.4882            0     13929.94    24.992987    24.879618    22.694976    14112.098    13946.566    12967.242    14876.011    643.30916    1688.2399    345.52932   -4991.6171 
19280000    302.78017   -8933.9624   -7779.6263   -8933.9624            0    15422.646    24.942462    24.701081    22.859024    14083.577    14678.016     17770.55    13819.373   -1005.7826   -1096.3916   -166.39489   -4611.8993 
19281000    301.14753   -8921.7509   -7773.6392   -8921.7509            0    14152.247    25.039964    24.767117    22.837714    14163.213    12915.579    15756.704    13784.458   -1624.4372    797.88268    163.19002   -4850.4085 
19282000    292.98924   -8910.9949   -7793.9863   -8910.9949            0    13603.493    24.938061    24.964228    22.792172    14189.482    13441.123    12692.222    14677.133   -150.69933    614.65903    561.00947   -4978.8926 
19283000    301.59398   -8957.6004   -7807.7866   -8957.6004            0    14115.026    24.773198    24.937461    22.892264    14142.398    15399.681    12426.729    14518.668    135.12336   -197.65796   -264.54296   -4896.5291 
19284000      294.187   -9006.4794   -7884.9044   -9006.4794            0     12939.01    24.853959    24.947524    22.807886     14141.91    14497.449    11687.341    12632.239    104.20397    420.96311   -1090.4813   -5216.2951 
19285000    294.74783   -9025.5971    -7901.884   -9025.5971            0    13893.489    24.925404    24.685928    22.947132    14119.524    12224.338    15711.757    13744.372   -1513.2349   -937.70112   -1174.0766   -5040.9537 
19286000    299.12921   -8992.1533   -7851.7363   -8992.1533            0    14706.045    24.924407     24.86581    22.761078    14106.533    14717.042    13577.446    15823.645    346.92414    138.00446    1412.6307   -4826.2719 
19287000     290.7013   -8941.8601   -7833.5741   -8941.8601            0    15290.028    24.825737    24.779377     22.88818    14080.037    15720.107    16002.602    14147.376   -1093.1813     1110.712    718.21978   -4693.8753 
19288000    295.25607   -8912.2164   -7786.5656   -8912.2164            0    15672.864    25.011547    24.839317    22.640854    14066.077    15554.466    14935.726    16528.398    811.95874    1108.8474   -941.14227   -4571.4452 
19289000    284.31815    -8944.886   -7860.9355    -8944.886            0    15246.752    24.794356    24.639231    23.093696    14108.259    15411.989    16909.662    13418.604    200.26603   -83.496041    414.06494    -4723.848 
19290000    299.37391   -8971.5879    -7830.238   -8971.5879            0    15693.684    24.879275    24.893997    22.660863    14034.883    14958.547    14101.399    18021.107    -269.0011   -1106.8295    60.002643   -4617.9862 
19291000    294.83603   -9003.1639   -7879.1145   -9003.1639            0    14930.547     24.77118    24.796363    22.898356    14064.976     14912.92    14234.363    15644.359    -970.1904    1551.1455    220.36897   -4816.5122 
19292000    292.30094    -8946.332   -7831.9475    -8946.332            0    13942.563    24.865181    24.960347     22.74238    14114.912    13878.893    12867.229    15081.567    94.880516    543.83056    260.46955   -4961.8499 
19293000    295.71636   -8928.2035   -7800.7979   -8928.2035            0    14587.373    24.810935     24.83153    22.950008     14139.35    14102.983    15521.152    14137.984   -157.48514   -47.232418    1103.2311   -4792.7659 
19294000    293.25698   -8937.8353   -7819.8059   -8937.8353            0    15210.061    24.901012    24.723376    22.876726    14083.761     15262.72    15384.937    14982.527    669.17846   -18.146679    85.495464   -4695.7019 
19295000    284.11477   -8980.9653   -7897.7902   -8980.9653            0    14664.919    24.923137    24.792164    22.760841    14063.889    14488.639    14304.703    15201.416   -852.44943   -816.55333   -102.58359   -4889.9068 
19296000    307.89531   -8955.7605   -7781.9231   -8955.7605            0    13682.033    25.013206      24.6705    22.922812    14145.399    12705.649      14511.3     13829.15    69.079909    211.97111    1699.3112   -4959.3725 
19297000    294.14222   -8940.1383    -7818.734   -8940.1383            0    16631.598    24.943536    24.671719    22.755161    14003.523    14744.456    18579.712    16570.627    446.85493    1206.0489   -609.83639   -4422.1122 
19298000     291.9092   -8948.2995   -7835.4085   -8948.2995            0    14977.013    24.803256    24.860791    22.873677    14104.562    15223.394    15647.713    14059.934      -659.37     93.93887   -797.32739   -4754.6282 
19299000    296.07159   -8925.7038   -7796.9439   -8925.7038            0    13396.458    25.007177    24.911702    22.702849    14143.225    12740.593    13660.432    13788.348    854.50552   -2025.6891     -605.772   -5033.7313 
19300000    308.44301   -8949.2188   -7773.2934   -8949.2188            0     15486.66    24.681029    24.758867    22.981358    14043.318    16180.858     16143.67    14135.452   -351.12624    -146.6156   -460.27271    -4601.511 
19301000    293.97504   -8933.7246   -7812.9577   -8933.7246            0     15701.21    24.889032    24.920999    22.746988    14109.037    15227.952    15679.253    16196.426   -44.595103   -284.71402    605.72969   -4582.1852 
19302000    304.26846   -8973.7875   -7813.7774   -8973.7875            0    15750.693    24.773003    24.677122    22.971243    14042.928    16326.644    15778.721    15146.713   -473.39588   -8.8967249   -262.64314   -4588.0089 
19303000    296.12838   -8952.8287   -7823.8522   -8952.8287            0    15741.808    24.895531    24.854672    22.698407    14045.099    14285.324    15810.012    17130.087   -31.370911    193.12133    1251.1974   -4599.4049 
19304000    302.67051   -8940.0565   -7786.1385   -8940.0565            0    15294.161    24.820293    24.795191    22.890039    14087.077    15076.625    16186.661    14619.195   -662.67801   -2245.3917   -686.99848    -4644.021 
19305000    306.27495   -8939.6463   -7771.9865   -8939.6463            0    15555.124    24.827972    24.897765     22.73983    14056.877    15263.969    15517.521    15883.882    1274.9665    740.08393    88.416109   -4583.1063 
19306000    310.71584   -8971.7023   -7787.1118   -8971.7023            0    13887.523    24.913007    24.893084    22.772844    14122.843    15269.691    13624.517    12768.361    1639.2908    428.47817   -1736.5847   -4926.7379 
19307000    296.40366   -8962.7828   -7832.7569   -8962.7828            0      14307.6     24.90996    24.782417    22.867676     14116.88    13785.778    15450.106    13686.915    563.20222     703.6661    472.66767   -4887.1053 
19308000    291.21824   -8936.4421   -7826.1853   -8936.4421            0    15048.261    24.871453    24.857907    22.792481    14091.503    15134.873    14208.106    15801.803    1286.1986   -2.3276166   -642.00982   -4733.6156 
19309000    297.63534   -8952.8109   -7818.0892   -8952.8109            0    16077.309    24.751346    24.823713     22.84106    14034.011    18360.197    14230.521    15641.208    133.98461   -839.93639   -135.35353   -4527.5196 
19310000    291.20701   -8982.6106   -7872.3967   -8982.6106            0    16318.268    24.737011    24.795853    22.853971    14018.061    17525.294    15556.482    15873.028    659.72939   -755.69612   -241.81353   -4536.3055 
19311000    293.77277   -8955.1704   -7835.1746   -8955.1704            0    16157.961    24.808894    24.978577    22.676102    14052.173    14967.921    16688.292    16817.671    335.02072    759.79861   -224.43144   -4523.8181 
19312000    294.11621   -8933.5178   -7812.2126   -8933.5178            0    15689.661    24.795655    24.808983    22.885455    14078.102     14905.86    15852.894     16310.23   -29.151737   -468.38533    104.16026    -4590.895 
19313000    306.66978   -8925.2674   -7756.1023   -8925.2674            0    14971.515    24.985271    24.800141    22.769134    14108.626    14448.621    15054.794     15411.13    144.68754   -201.74926    1322.2833   -4675.5658 
19314000    297.93074   -8944.0249   -7808.1771   -8944.0249            0    14690.007    24.932809    24.771391     22.84114    14107.153    14965.833    14660.585    14443.604    100.46998   -623.42297    816.70445   -4785.8791 
19315000    284.66387   -8975.6674   -7890.3989   -8975.6674            0    13618.624    24.723079    24.756134    23.131657    14157.681    15421.229    14104.986    11329.658   -447.86058   -58.271126    -353.2133   -5078.4899 
19316000    299.00134    -8877.865   -7737.9355    -8877.865            0    15264.019    24.935911    24.903152    22.735976     14118.65     14914.72    13996.315    16881.023   -645.04098   -10.774273   -240.26163   -4594.9819 
19317000    295.43489   -9010.3346    -7884.002   -9010.3346            0    14836.481    24.694047    24.782406    23.017668    14086.304    16481.632    14687.773    13340.038   -104.27692    -65.75086    26.593229   -4836.0799 
19318000    285.90698   -8963.1046   -7873.0968   -8963.1046            0    14739.896    24.856092    24.932747    22.796855     14127.91    15423.241    13337.394    15459.053    -358.7822   -1303.2105    164.66459   -4836.0728 
19319000    291.38464   -8996.1381    -7885.247   -8996.1381            0     13933.85    24.814587    24.815708    22.931063    14120.755    14228.121    13901.346    13672.084    732.97128   -721.59977    921.29331   -5015.7555 
19320000     295.8337   -8981.4944   -7853.6414   -8981.4944            0    14873.261    25.100605    24.707231    22.698826    14077.051    12136.133     16306.58    16177.071   -552.62013    -999.6173    -1758.555   -4800.1706 
19321000    294.84712   -8948.8176   -7824.7259   -8948.8176            0    13749.467    24.916878    24.763944     22.93996    14154.877    13756.559    14046.691    13445.152    34.974041   -653.21902   -62.314708   -4986.3633 
19322000    298.45155   -8909.9318   -7772.0984   -8909.9318            0    15638.631    24.848895    25.002473    22.658114     14077.12    17344.023     13850.32    15721.549   -862.87789    28.369538    1174.7144   -4561.4821 
19323000    284.77776   -8986.6044   -7900.9017   -8986.6044            0    15347.489    24.704424    24.837068    22.896561    14048.997    16492.015    14619.477    14930.975   -465.20938    339.13889    268.60062   -4756.3515 
19324000       310.94   -8981.7687   -7796.3236   -8981.7687            0    14777.731    24.886724    24.832955    22.778573    14077.406    14323.016    15535.066    14475.111    712.14699    180.18864   -109.82977   -4762.3884 
19325000    304.48778   -8935.5774   -7774.7312   -8935.5774            0    15215.154    24.941733    24.736125    22.837777    14090.037    13790.328    16686.385     15168.75   -983.94586    175.30056    240.61471   -4648.1884 
19326000    301.41164   -8963.0866   -7813.9679   -8963.0866            0     16024.21     24.85289    24.731235    22.841602    14039.423    16200.393    16277.822    15594.414   -326.50365   -715.95868   -534.13277   -4533.0017 
19327000    298.58722   -9010.7776    -7872.427   -9010.7776            0     15202.36    24.889877    24.611649     22.95415    14061.274    14464.578     16522.13    14620.371   -1000.7294   -1417.5348     136.6701   -4754.8902 
19328000    299.33169   -8924.1002   -7782.9113   -8924.1002            0     15001.84     25.08103    24.754489    22.726219    14109.984    14982.188    16079.192    13944.141    78.489678     874.1847   -323.83305    -4695.838 
19329000    293.69626    -8964.054     -7844.35    -8964.054            0    15306.636    24.906525    24.738329     22.84647    14076.757      14801.4    15868.114    15250.395   -566.16243   -167.36824    1546.2725   -4701.9732 
19330000    301.43752   -8978.1147   -7828.8974   -8978.1147            0    14163.553    24.972759    24.710627    22.871806    14114.021    12398.313    15127.235    14965.111    706.01577    11.066783    -34.06533   -4913.4927 
19331000    300.64938   -8928.9975    -7782.785   -8928.9975            0    14948.667    24.780377    24.880177    22.880797     14106.93    16659.057    13889.348    14297.597    127.72035   -510.53499    1171.3033   -4707.3193 
19332000    303.27059   -8990.8282   -7834.6223   -8990.8282            0    13417.919    24.844492    25.087412     22.66492    14126.682    13692.783    11947.338    14613.636   -1191.1784    860.05693   -1145.9012   -5070.2202 
19333000    291.60589    -9000.379   -7888.6443    -9000.379            0    14324.092    24.826567     24.81885    22.896882    14108.299    14973.005    13605.284    14393.989    227.32602   -545.07394    191.61344   -4941.3897 
19334000    303.16424   -8924.0693    -7768.269   -8924.0693            0    13885.656    25.009823    24.922801    22.698269    14148.168    11831.567    14497.639    15327.761    301.80981    619.11213     185.7149   -4903.1511 
19335000    295.99135   -8984.4324   -7855.9784   -8984.4324            0    13961.121    24.908158    24.777194    22.911317    14139.816    13765.466     14430.21    13687.687    -468.9743   -671.43045   -390.78469   -4976.9897 
19336000    294.35348   -8941.1282   -7818.9185   -8941.1282            0    14069.678    24.986116    24.759766    22.912052     14174.55    13057.433    14511.387    14640.215    639.70017   -27.027605   -67.675936   -4910.4168 
19337000    292.37462   -8942.3544    -7827.689   -8942.3544            0    15385.068    24.846291    24.851585    22.770105     14059.85     16444.83    14463.242    15247.134   -577.05552    201.25561    926.89787   -4673.0039 
19338000    310.78413   -8961.9346   -7777.0837   -8961.9346            0    15256.958    24.798835    24.759442    22.928979    14078.515    14780.885    14999.899    15990.091   -1348.1123    779.50596    616.38171   -4644.5145 
19339000    292.74928   -8974.9114   -7858.8176   -8974.9114            0    16331.858    24.839003    24.851334    22.630936    13969.678    15682.038    15230.132    18083.402    100.82774   -796.20523   -856.21715   -4531.4724 
19340000    301.83656   -8962.1587   -7811.4201   -8962.1587            0    15393.575    24.761758    24.916638    22.854216    14100.588    16736.257    13872.593    15571.875    622.56434   -1256.4787   -157.09597    -4645.845 
19341000    293.76475   -8980.3161   -7860.3509   -8980.3161            0    16180.539    24.760815     24.86478    22.778178    14023.891    16161.676    16296.039    16083.902   -846.33129   -1443.3508   -745.64626   -4551.0413 
19342000    307.26544    -8961.172    -7789.736    -8961.172            0    16546.541    24.754688    24.681516     22.94315     14017.88    18168.448    16931.588    14539.588    -938.7876    1000.9226   -1354.4352   -4407.0207 
19343000    294.12869   -8921.3336   -7799.9809   -8921.3336            0    15135.903      24.9121    24.820444    22.758755    14072.407     15020.93    14798.463    15588.317   -745.49765   -157.17977    60.927221   -4693.6149 
19344000    292.24148   -8960.0922   -7845.9344   -8960.0922            0    14197.421    24.853426    24.879337    22.851905    14130.173    15589.493    12835.262    14167.509     92.29421   -419.74125    401.40097   -4920.2139 
19345000    284.33216   -8975.2493   -7891.2454   -8975.2493            0    16057.515    24.756365    24.718955    22.932422     14033.53    17267.572    16569.087    14335.887    584.77718    332.54761   -24.903474   -4604.8399 
19346000    308.64039   -8996.0992   -7819.4212   -8996.0992            0    14143.639    24.895423    24.845652    22.770246    14084.377    14923.836    14103.407    13403.674   0.45651745    -780.2322    204.49854   -4914.2302 
19347000    302.39779   -8978.8696   -7825.9914   -8978.8696            0    13759.021    24.971054    24.684483    22.971005    14159.271    12978.278    14900.746    13398.039    3.5121586   -380.91841    118.38478   -4984.7749 
19348000    289.55165   -8994.8772   -7890.9742   -8994.8772            0    13626.679    24.911807    24.805549    22.823932    14104.073    13411.982    13868.665    13599.389   -847.10359   -36.767431    1696.5331   -5088.0559 
19349000    293.75601   -8925.9222   -7805.9903   -8925.9222            0    13742.014     24.78319    24.915153    22.927352    14157.112     14865.69    13611.042    12749.311   -577.43231    -537.1359    54.748499   -4968.7184 
19350000    294.87695   -8993.0722   -7868.8668   -8993.0722            0     14082.87    24.710424     25.01832    22.808512    14100.526    15631.434    12107.144    14510.031    671.23087    1077.9466   -232.30658   -4972.8414 
19351000    301.94081   -8987.7688   -7836.6327   -8987.7688            0     14744.81    24.762054    24.904611    22.783548    14050.371    16355.211    13987.938    13891.281    464.22249   -609.51075    819.49355     -4815.27 
19352000    306.93638   -8947.5964   -7777.4149   -8947.5964            0    14318.649    24.837825    24.875161    22.874553    14132.926    14447.986    13916.959    14591.002   -505.35979    -1241.476   -197.20558   -4826.1376 
19353000    292.17297   -8940.4787   -7826.5821   -8940.4787            0    13197.484    25.014106     24.87438     22.78959    14179.919    12027.435    13451.935    14113.082    540.31376    640.29584   -610.54734    -5097.348 
19354000    303.88524   -8999.8276   -7841.2785   -8999.8276            0    13257.962     24.97154    24.679823    22.983357    14164.486    13016.319     14190.88    12566.687    213.59179   -513.55527    364.06046   -5102.5217 
19355000    295.75872   -8936.5142   -7808.9471   -8936.5142            0    14818.563    24.885261    24.908785    22.821411    14146.117    15012.634    15029.983    14413.072    1194.0961   -521.84132    106.32214   -4751.7798 
19356000    297.03388   -8982.8749   -7850.4463   -8982.8749            0    14471.316    24.853225    24.784488    22.900996    14106.429    14853.531    13646.715    14913.701    185.15013    -1002.029   -180.61242   -4873.2945 
19357000    293.74565   -8947.3106   -7827.4183   -8947.3106            0    14028.079    25.021917    24.937145    22.714024    14172.987    13504.392    14230.708    14349.136    516.59581    -509.7888    980.16366   -4927.8357 
19358000    306.18198    -8992.093   -7824.7876    -8992.093            0    14096.803    24.799729    24.870976    22.860911    14100.461    15444.019     13289.18    13557.209   -485.91723    154.17655    605.29987   -4925.9104 
19359000    303.06649   -8991.4558   -7836.0281   -8991.4558            0    14268.478    24.808219     24.79913    22.905005    14091.669    15204.374    14331.266    13269.793   -608.43481   -421.37781    183.11911    -4903.677 
19360000    291.18027   -8944.6065   -7834.4945   -8944.6065            0    15926.687      25.0218    24.777188     22.67627    14058.604    14487.595    15414.232    17878.236   -1392.8058    365.60255   -859.26538   -4569.0407 
19361000    296.03786   -8965.3423    -7836.711   -8965.3423            0    14167.174     24.87211    24.804065    22.911404     14134.72    13599.281    14318.328    14583.912   -252.36474    300.15314   -1361.8167   -4916.2842 
19362000     297.1398   -8931.9619   -7799.1294   -8931.9619            0    14938.027    24.797745    25.079514    22.700374    14117.712    15129.449    14361.846    15322.785   -8.7347987    32.267474    245.61356    -4723.504 
19363000     294.8904   -8945.2543   -7820.9977   -8945.2543            0    14343.606    24.735514     24.88876    22.928442     14115.58    14747.859    13922.928    14360.031     708.5183   -1016.0139    287.72904   -4868.2048 
19364000    308.47915   -8922.1562    -7746.093   -8922.1562            0    16239.647    24.915039    24.827426    22.782063    14092.444     16119.15    16491.871    16107.921   -594.41613   -79.620179    478.30077   -4408.4584 
19365000    302.92993   -8902.6372   -7747.7302   -8902.6372            0    16758.489    24.884079    24.736745    22.803895    14036.962    16437.635    17502.755    16335.076    210.52525    635.20606    482.37809   -4317.0212 
19366000    293.60216   -8961.2056   -7841.8602   -8961.2056            0    16131.828    24.879321    24.745596    22.783104      14026.5    14887.132     16937.24    16571.113   -774.30075   -917.37588    427.22756   -4541.8992 
19367000    292.25683   -8992.9751   -7878.7587   -8992.9751            0    15971.887    24.845137    24.806239    22.720032    14002.684    15854.748    15280.218    16780.694   -478.64532   -850.44386    1291.9235   -4617.0634 
19368000    291.16246   -9006.3009   -7896.2569   -9006.3009            0    15126.965    24.818007     24.82759    22.800607     14049.08     15596.79    14467.713    15316.392   -939.01639   -988.46934    1322.0171   -4796.8714 
19369000    301.61214   -8973.9677   -7824.0847   -8973.9677            0     15174.33    24.825483    24.863438    22.805262    14076.476    16227.745    14666.096     14629.15    168.86556   -1182.8935    1059.3313   -4708.9317 
19370000    294.44869   -8962.4095   -7839.8368   -8962.4095            0    14844.482    24.826365    24.854827    22.840278    14093.708    14394.263    15235.893    14903.289    710.25261   -550.06374    1103.4646   -4788.6683 
19371000    296.78647   -8966.6796   -7835.1942   -8966.6796            0    14858.556    24.892237    24.830975    22.760332    14068.127    16261.556     14081.08    14233.033   -716.58552   -834.63485   -34.131031    -4786.676 
19372000    292.69349   -8914.0578   -7798.1768   -8914.0578            0    14320.661    25.031687    24.706827    22.905816    14166.184    12997.241    14807.209    15157.535   -206.56574    95.337596   -1944.1801   -4839.5387 
19373000    290.21786   -8969.9309   -7863.4881   -8969.9309            0    13797.795    24.963447    24.818787    22.817553    14136.899    13892.444    14177.767    13323.173    956.52094    1361.5213   -434.22598   -5018.7668 
19374000     298.1358   -8924.0339   -7787.4043   -8924.0339            0     14114.02    24.851946    24.912772    22.857795    14151.966    13746.447    13806.429    14789.183   -711.94752    466.60598   -1455.2698   -4874.3848 
19375000    307.64262   -8938.0979   -7765.2239   -8938.0979            0    15146.032    24.867357    24.885482    22.809616    14115.415    14733.407    15628.366    15076.323   -315.97188    678.26122     815.3035   -4647.2792 
19376000    290.02519   -8926.2579   -7820.5496   -8926.2579            0    15548.092    24.775246    24.889007     22.80593    14062.849    16055.339    14149.087    16439.849   -37.902009    552.66492   -293.07122   -4631.7567 
19377000    303.25441   -8947.9886   -7791.8445   -8947.9886            0    16191.068    24.815371    24.890909    22.728227    14038.706        18046    15332.496    15194.709    366.04991    28.730692    1026.3921   -4476.8831 
19378000    296.58565    -8974.762   -7844.0423    -8974.762            0    15306.858    24.835558     24.73928    22.934018    14090.977    13928.821    16488.905    15502.847   -87.879454    271.53144     1097.371   -4698.4455 
19379000    303.17006   -8958.6154   -7802.7929   -8958.6154            0    13311.097    25.033127    24.831908    22.738954    14134.996    12953.397    12540.716    14439.178    83.997517    -594.4866    84.847962   -5058.7846 
19380000    289.50491   -8978.3593   -7874.6346   -8978.3593            0    13686.756    24.785524     24.88634    22.917605     14136.06    14512.987    12731.617    13815.664    210.11718     34.02114    165.84188   -5052.9739 
19381000    290.61043    -8973.968   -7866.0285    -8973.968            0    14312.241    24.826819    24.972351    22.755942    14108.321    15199.179    12294.311    15443.233    -444.2946    43.705167    280.48628   -4921.2078 
19382000    290.11289   -8949.9045   -7843.8618   -8949.9045            0    12772.725     24.92569    25.020452    22.786221    14210.673    13689.477    11638.375    12990.323    1210.3673   -940.35885    142.27938   -5196.7389 
19383000     289.5345   -8952.2427   -7848.4051   -8952.2427            0     13381.37    24.859446    24.917093    22.867132    14164.476     14177.96    12769.276    13196.873    214.88794    1045.0852   -210.48413   -5084.1573 
19384000    288.75269   -9003.1602   -7902.3032   -9003.1602            0     12075.75    24.899206    24.958561    22.850339    14200.306    13052.424    10894.299    12280.526   -274.54454   -214.47483    285.00568    -5401.453 
19385000    294.73859   -9022.4205   -7898.7426   -9022.4205            0    14418.417    24.877912    24.877625     22.72306    14063.378    13673.029    14754.706    14827.515   -173.41975   -641.97716   -1274.5819   -4941.5262 
19386000    290.45755   -8931.4694   -7824.1127   -8931.4694            0    14702.819    24.822344    24.782568    22.934292    14108.292     15141.58    14454.119    14512.757    196.42059    886.13182    453.78459   -4798.9348 
19387000    294.20833   -8978.6468   -7856.9905   -8978.6468            0    14764.134    24.908632    24.775378    22.813446    14078.652    15347.168     14588.51    14356.723    250.78126    407.86402   -600.72036   -4825.5789 
19388000    305.91644   -8992.8126   -7826.5197   -8992.8126            0    15172.171    24.937818    24.655798    22.871179    14062.614    13828.547    16912.538    14775.429    41.450889   -484.07596    453.19109   -4714.8772 
19389000    292.96044   -8981.4168    -7864.518   -8981.4168            0    15358.725    24.799592     24.87431     22.74349    14029.839     15216.35    14126.064    16733.761     -581.869   -67.328461    852.24488   -4721.9568 
19390000    302.42616   -8962.0901   -7809.1037   -8962.0901            0    15399.184    24.814702    24.895627       22.748    14053.204     16168.47    14418.448    15610.633    31.392121    526.00526    552.36334   -4653.0168 
19391000    291.09329   -8987.7666   -7877.9862   -8987.7666            0    13621.211    24.935155     24.80892    22.815449    14113.962    13772.763     13783.23     13307.64    135.68709   -768.78774    1028.5922    -5074.228 
19392000    294.80819   -8997.7657   -7873.8224   -8997.7657            0    13695.786    25.038985    24.826819    22.717149    14121.851    11785.886    14427.936    14873.535   -365.34911   -20.392772     243.6741   -5053.1382 
19393000    294.99647   -8954.0116   -7829.3505   -8954.0116            0    14104.324    24.923692     24.76767    22.893336    14132.097    12777.482    15297.461    14238.029   -239.42891   -1956.9886   -521.05822   -4922.4192 
19394000    299.76794   -8985.3373   -7842.4852   -8985.3373            0    14874.843    24.858554    24.894715     22.77818      14096.2    14871.171    14143.121    15610.237   -993.66145   -802.81122     603.1769   -4784.5356 
19395000    318.74722   -8977.1068   -7761.8971   -8977.1068            0      14677.4    24.707095    24.846052    22.959205    14094.054     15844.79    14650.529     13536.88    1874.9671    782.37193    321.44106    -4744.997 
19396000    292.56943   -8953.7648   -7838.3567   -8953.7648            0    15036.373     24.91511    24.971395    22.668099    14103.299    13748.042    14383.079    16977.999    572.92332   -676.19816   -130.93268   -4745.6432 
19397000    290.08141   -8939.2201   -7833.2975   -8939.2201            0    15523.328     24.71101    24.850053    22.927108    14078.847    16105.879     15395.81    15068.295   -179.47941    1178.9284    1062.5982   -4645.9617 
19398000    303.43741    -9038.583   -7881.7412    -9038.583            0    13844.861    24.973345    24.777501    22.757071    14081.554    12814.459    14325.415    14394.709   -77.479783    474.62028   -217.92739   -5038.4911 
19399000    303.12506   -8973.3892   -7817.7382   -8973.3892            0    14401.982    24.853595    24.698609     22.98967    14112.192    14925.303    15084.588    13196.054   -997.61963    678.00979    -1327.043   -4853.6399 
19400000     290.9101   -8971.3048   -7862.2228   -8971.3048            0    14480.152    24.981791    24.819293    22.753352     14107.77    13593.948    14435.946    15410.564    483.80853   -464.41153   -155.08895   -4882.9699 
19401000    295.79509   -8942.2161   -7814.5103   -8942.2161            0     14442.76    24.735947    24.920212     22.88243    14105.303    15680.238    13897.271    13750.772   -632.11008    505.47345   -1904.8919   -4843.4702 
19402000    295.41209   -8993.1083   -7866.8627   -8993.1083            0     13911.03    24.788543    24.905331    22.862719    14114.685    14260.337    13571.963     13900.79    227.04355    695.64694    39.947213   -5003.3022 
19403000    303.07762   -8968.6044   -7813.1343   -8968.6044            0    13366.454    25.027846    25.005995    22.598155    14142.969    12820.357     13777.06    13501.945   -441.95158   -431.02955    1167.1933   -5056.1602 
19404000    292.25337   -9000.1765   -7885.9734   -9000.1765            0    13748.859    24.830551    24.748672    22.993289    14129.909    13611.944     14797.75    12836.882   -894.62333   -913.40476    256.90021   -5052.7429 
19405000    302.96552   -8997.4695   -7842.4268   -8997.4695            0      13248.6    25.069995    24.851039     22.67848    14129.043    11102.323    14767.188    13876.289   -622.22164    305.45362   -411.15437    -5112.452 
19406000    285.59445   -9022.8485   -7934.0322   -9022.8485            0    14592.174    24.813627     24.66659     22.98005    14065.343    14990.059    15655.626    13130.835   -372.82067   -216.26803    156.67996     -4940.76 
19407000    290.62938   -8962.1918   -7854.1801   -8962.1918            0        13213    24.985786    24.951058    22.729315     14169.95    13183.207    13655.098    12800.694     860.9057    606.59738   -708.66048   -5123.6584 
19408000    298.91853   -8978.2788   -7838.6651   -8978.2788            0    13766.118    24.918091    24.840436    22.843178    14139.385    13578.027    13824.297     13896.03    361.99893    616.05821    1042.9071   -4999.9756 
19409000    293.69486    -8943.716   -7824.0172    -8943.716            0    13289.661    24.963872    24.779005    22.919143    14177.321    12486.673    14255.215    13127.095   -1297.4328    207.66537   -53.875225   -5076.2245 
19410000    302.33062   -8993.7111   -7841.0889   -8993.7111            0    14479.521    24.864307    24.847287    22.759939    14061.331    14208.709    13688.417    15541.438   -1056.9763    698.96124    1173.5969   -4871.7723 
19411000    293.19958   -8989.6957   -7871.8852   -8989.6957            0    16075.247    24.813795    24.668064    22.873862     14001.28    16560.983    16907.874    14756.884   -1015.0709   -716.79492   -1305.5026   -4589.4111 
19412000    311.17931   -9020.2999   -7833.9424   -9020.2999            0    14384.409    24.813391    24.928822    22.803631     14105.61    15758.203    13461.303    13933.721    513.85798    461.13869    -612.3985   -4874.8414 
19413000    294.42398   -8934.1319   -7811.6534   -8934.1319            0    15934.554    24.774239    24.893401      22.7886    14054.073    17183.018    15253.803    15366.841   -221.83618    488.33833    91.462857   -4545.6397 
19414000    296.24448   -8986.3244   -7856.9054   -8986.3244            0    15210.247    24.921408    24.837468    22.708627    14056.292    14283.954    15489.409    15857.379    802.90206   -1104.7139   -575.73727   -4738.8563 
19415000    291.03495   -8932.5402   -7822.9822   -8932.5402            0    16199.415    24.920719    24.677458    22.827447    14038.423     15465.11    16670.583    16462.551    506.56059   -575.37908   -647.14774   -4506.3788 
19416000    303.22592   -8942.5479   -7786.5123   -8942.5479            0    15943.221    24.930012    24.718581    22.804248    14052.765    15240.983    17027.567    15561.112    700.03026    537.52349    2106.4655   -4519.0264 
19417000     291.0663   -9011.6739   -7901.9964   -9011.6739            0    13506.456    24.900699    24.813095    22.819375    14099.257    13109.838    13758.413    13651.117    244.67485    575.59793   -235.86268   -5124.7558 
19418000    313.40084   -8961.4588   -7766.6319   -8961.4588            0    15106.656    24.798257    24.974773    22.750182    14089.889    14517.003    14648.801    16154.163    461.81385    446.75483    695.04628    -4662.417 
19419000    300.51564   -8970.5796    -7824.877   -8970.5796            0    14064.356     24.85384    24.914914    22.795437    14115.648    14637.289     13407.55     14148.23    151.88425    148.47303    -437.8242    -4929.557 
19420000     302.5327   -8972.8509   -7819.4582   -8972.8509            0    15818.149    24.773285    24.734954    22.886637    14024.155    17181.756    15450.718    14821.973    201.95697   -999.19034   -243.33846   -4584.2053 
19421000    286.00585   -8929.7247     -7839.34   -8929.7247            0    16170.181    24.834185    24.824557    22.771902    14038.824    17664.847    15850.237    14995.459   -104.97115    1475.5597    538.09968   -4528.6272 
19422000    303.44014   -8975.2548   -7818.4026   -8975.2548            0    16128.787    24.730257     24.79031    22.901077     14039.98    16647.702    16100.371    15638.288   -958.87599    652.14508   -437.54837   -4515.8929 
19423000    299.49641   -8956.8537   -7815.0368   -8956.8537            0    15665.665    24.766724    24.960788    22.705377    14036.395    17192.948    13703.724    16100.323    488.66644     38.21482    79.595235   -4608.1746 
19424000    289.49169   -8944.1163    -7840.442   -8944.1163            0    16502.077    24.751755    24.929114    22.741103    14032.154    18044.805    15089.695    16371.733   -884.87491    -394.0711    25.430876   -4463.3813 
19425000    297.29827   -8961.9675   -7828.5309   -8961.9675            0    16907.686     24.77864    24.814126    22.803667    14021.069    17802.178    15565.702    17355.177   -587.29674     378.4146    894.49135   -4371.1982 
19426000     288.5314   -8948.9663    -7848.953   -8948.9663            0    16643.295    24.918825    24.703474     22.75634    14008.383    16313.206    18073.903    15542.776    250.25564   -556.28616    534.56762    -4448.763 
19427000    289.14818   -8917.3754   -7815.0107   -8917.3754            0    16793.172     24.79257    24.856196    22.778651    14037.321    16937.613    16667.567    16774.337    807.76222   -557.89911   -236.72816   -4377.1138 
19428000    304.21601   -9000.7755   -7840.9654   -9000.7755            0    13813.374    24.970567    24.725195    22.859011    14113.202    13582.525    13686.228    14171.368   -489.34572    61.588695    125.62701    -4997.806 
19429000    301.73843   -8999.8102   -7849.4457   -8999.8102            0    13894.363    25.074297    24.773832    22.751301    14132.799    13422.507    15174.308    13086.275      989.579   -567.21683    567.52071   -4985.6453 
19430000    302.18144   -9014.8092   -7862.7558   -9014.8092            0    13680.984     24.95781    24.687933    22.930898    14129.027    13074.406    14626.012    13342.534   -745.02349   -418.32358    1712.7377   -5043.6883 
19431000    304.78826    -8985.166   -7823.1742    -8985.166            0    14628.049    24.983319    24.799166    22.703098    14066.055    14563.377    14443.667    14877.103    241.26291    386.89374   -166.17706   -4822.3909 
19432000    297.64459   -8915.8044   -7781.0474   -8915.8044            0    14449.062    24.751597    24.867891    22.938283    14118.972    15814.679    14537.654    12994.854    662.19181    921.57245    614.70999   -4805.8305 
19433000    297.75876   -8989.5294   -7854.3372   -8989.5294            0    12897.538     24.96622    24.989592    22.726217    14178.788    14148.103    12681.272    11863.239    427.09341    1596.0549    814.37328   -5187.3447 
19434000    309.29605   -9014.1513   -7834.9738   -9014.1513            0    14089.529    24.802332    24.814467    22.907704    14098.699    13629.089    13791.715    14847.783   -542.28282    1000.5893    249.16546   -4937.9544 
19435000    305.83399   -8934.1781   -7768.1994   -8934.1781            0      15096.1    24.975335    24.798887    22.744539    14087.069    14905.117    14741.246    15641.936   -420.00427    -1324.602   -395.27566   -4666.7743 
19436000     293.2045   -8920.3327   -7802.5035   -8920.3327            0    14400.373    24.972638    24.821162    22.862493    14171.313    13578.999    15764.511     13857.61    9.5470965     471.3908    1336.5761   -4826.3197 
19437000    291.53569    -9010.673    -7899.206    -9010.673            0    13561.627    24.993002    24.788456    22.825199    14141.077    12488.759     14676.65    13519.471    -1203.645   -713.55635   -732.46697   -5102.3496 
19438000    300.94625   -8942.2929   -7794.9485   -8942.2929            0    14328.028    24.932148    24.789007    22.858444    14127.506    14346.204    13393.225    15244.654   -291.34446   -1214.4972    483.42138   -4842.8708 
19439000     295.5897   -9020.7486   -7893.8259   -9020.7486            0    15658.484    24.822949    24.839647    22.764863    14036.662    15101.551    16056.011    15817.891    68.496572     716.3537    -623.9202   -4688.3727 
19440000    309.33241   -8936.8168   -7757.5006   -8936.8168            0    16046.425     24.88046    24.732247    22.804443    14032.706    15628.416    17034.437    15476.424    529.65948   -1505.9312    -314.3737   -4473.5574 
19441000    303.74503   -8977.2997   -7819.2851   -8977.2997            0    14815.726    24.847053    24.867292    22.798171     14086.51    15475.768    14450.809      14520.6    318.90767   -1213.2905    1410.4309   -4775.5825 
19442000    301.15655   -8927.1073   -7778.9611   -8927.1073            0    16139.166    24.683796    24.920112    22.831012     14043.88    16573.252    14774.885     17069.36    -140.9509    -1254.025   -264.29293   -4473.4086 
19443000    297.58712   -8966.2874   -7831.7496   -8966.2874            0    15066.336    24.789411    24.895334    22.826686    14087.276    16151.756    13934.255    15112.997    94.161269      939.234    -99.01912   -4736.3938 
19444000    289.74308   -8965.6973   -7861.0646   -8965.6973            0    13382.228     24.86404     25.01986    22.790015     14177.55    12789.827    13302.354    14054.504    -263.1966    3131.5547   -248.48217   -5094.0878 
19445000    294.73582   -8952.8472   -7829.1798   -8952.8472            0     14944.57    24.875049    24.901539    22.756916    14096.248     14705.98    14265.433    15862.296    394.12066    386.35107    1416.6817   -4756.8852 
19446000    303.55003   -8953.2069   -7795.9357   -8953.2069            0    15137.855    24.862083    24.800463    22.848378    14088.108    13955.026    16043.133    15415.407   -31.518893    291.68221    1847.6241   -4685.7028 
19447000    297.45395   -8966.2289   -7832.1988   -8966.2289            0    13989.794    24.879486    24.863109    22.824768    14118.976     14949.98      12425.7    14593.702    -631.0619   -744.64024   -264.39806   -4951.5494 
19448000    302.66173   -8958.6765   -7804.7919   -8958.6765            0    14442.508    24.889951    24.902247    22.768318    14112.161    15380.901    14119.446    13827.178    565.06695   -1699.4924   -514.81433   -4832.3591 
19449000     296.5138   -8928.8116   -7798.3657   -8928.8116            0    14214.453    24.942462    24.730578    22.912853    14133.599    12802.828    15570.876    14269.656   -339.42787   -1148.3362    1021.7628   -4868.4252 
19450000    298.28191   -8974.9228   -7837.7361   -8974.9228            0    14068.353    24.972944    24.806381    22.807396    14128.916     14086.14    14629.857    13489.063   -794.46022   -38.353201   -1020.5294   -4938.8709 
19451000    313.19895   -8971.5157   -7777.4584   -8971.5157            0    16399.813    24.782401    24.888124    22.766355    14042.002    17824.906    14914.498    16460.035   -537.38604   -1222.7399    491.47304   -4418.9702 
19452000    296.17532   -8958.0585   -7828.9031   -8958.0585            0    16020.854    24.710361    24.855454    22.872633    14048.079    17312.164    14983.908    15766.489   -1010.9226   -57.377225    324.11954   -4546.6014 
19453000    285.92336   -8980.5728   -7890.5025   -8980.5728            0    15047.427    24.751421    24.890937    22.852227    14078.939    17005.117    13742.058    14395.104   -440.40344   -308.45924    304.01082   -4800.8614 
19454000    302.43624   -8960.8396   -7807.8147   -8960.8396            0     15690.43    24.840074    24.829219    22.826594    14078.522    16132.781    15649.155    15289.354    41.515383    584.51064    348.95564    -4586.243 
19455000    287.59993   -8965.5503   -7869.0882   -8965.5503            0    15046.672    24.893635    24.813827    22.802474    14085.234    15557.097    14946.306    14636.612    628.13166    1572.0366   -829.12467   -4778.2207 
19456000     280.3853   -9001.2631   -7932.3065   -9001.2631            0    14109.413    24.917733    24.792414    22.843534    14112.068    14095.649    14295.251    13937.339    984.87134    161.67359   -398.68414   -5028.4478 
19457000    304.36304   -8986.8682   -7826.4975   -8986.8682            0    15463.186    24.919694    24.755307    22.774497    14049.466    13760.428    16172.163    16456.966    -853.8669    468.95829   -646.65657   -4658.1364 
19458000    295.12167   -8961.4258   -7836.2874   -8961.4258            0    14432.799    24.881859    24.786867    22.862394    14100.229    14192.025    14166.104    14940.267   -752.61839   -900.32423   -1229.8386   -4868.3645 
19459000    303.87046   -8946.6857   -7788.1929   -8946.6857            0    15203.878    25.072326    24.809589    22.638988    14082.223    14088.983    14358.591    17164.061   -383.35034    92.607497   -90.820884   -4665.6999 
19460000    301.72525   -8975.5981   -7825.2838   -8975.5981            0    14874.652    24.866581    24.660122    22.972378    14086.959    14325.431    16422.541    13875.984     984.2676    1056.7849     124.7205    -4769.378 
19461000    300.12283   -8947.4307   -7803.2256   -8947.4307            0    14981.923    24.878024     24.85652    22.783051    14088.608    15285.049    14195.198    15465.521    553.83502    673.68801   -552.46323   -4724.9214 
19462000    299.08159   -8984.5568   -7844.3213   -8984.5568            0    15082.172    24.755828    24.918356    22.820742    14077.535    14475.813    14762.464    16008.237    1109.0919   -617.86819   -671.05592    -4747.855 
19463000    293.52323   -8957.8218   -7838.7774   -8957.8218            0     14746.01    24.758569    24.914486    22.831992    14083.847    14347.795    15144.435      14745.8    -3.472935   -758.32085   -1232.8044   -4809.9697 
19464000    300.65632   -8952.8483   -7806.6093   -8952.8483            0    14842.078    24.820081    24.887859    22.831833     14103.65    14992.021    14501.128    15033.086   -1077.0845   -425.41842   -1311.8056   -4753.7828 
19465000    293.83215   -8979.1167   -7858.8945   -8979.1167            0    15127.992     24.84481    24.857712    22.803896    14083.347    14935.653     15590.05    14858.272   -855.44764    461.82024   -923.76433   -4751.7385 
19466000     292.1903    -8991.434   -7877.4714    -8991.434            0    13756.114    24.880014    24.893397    22.781156    14109.465    12495.271    14397.383    14375.688    1050.5607   -791.26123   -338.06716   -5046.8473 
19467000    303.83123   -8975.0001   -7816.6569   -8975.0001            0    13627.195    24.832488    24.870151    22.945534     14170.88    14680.153    12611.929    13589.503   -718.70119   -1084.6159     554.0498   -5000.3551 
19468000    299.42595   -8968.4323   -7826.8841   -8968.4323            0    14705.602    24.923946    24.873877    22.734942    14094.645    13938.554    14642.056    15536.197   -815.20106   -845.90011    542.00691   -4804.0603 
19469000    285.59872   -8958.4097   -7869.5771   -8958.4097            0    15291.185    24.848238    24.693259    22.928946    14068.834    15154.994    16085.333    14633.226   -762.59154    1834.0514    1101.1616   -4732.1393 
19470000    292.89179   -8955.0002   -7838.3631   -8955.0002            0    14406.745    25.025935    24.713961     22.80843    14106.786    13899.569    15242.453    14078.214     707.8394    1728.0637   -12.217281   -4874.4201 
19471000    295.98198   -8965.8052   -7837.3869   -8965.8052            0    14618.619    24.881859    24.753567    22.863277     14081.83    13450.916    15067.811     15337.13     650.0785   -157.51395    237.58247   -4835.1751 
19472000    292.22224   -8963.7345   -7849.6501   -8963.7345            0    15812.188     24.82233    24.842665    22.769304    14040.756    15811.996    15817.792    15806.777    -213.3478    880.34016   -449.11837   -4611.7879 
19473000    294.18396   -8981.9166   -7860.3532   -8981.9166            0    12381.997    24.840043    24.813023    23.056271    14210.884    12808.359     13916.01    10421.622    97.902292   -1575.1888   -1067.8856   -5294.1698 
19474000    309.95765   -8941.6584   -7759.9585   -8941.6584            0    15267.106    24.830395    24.894313    22.798899    14092.812    15263.498    15022.436    15515.385    758.69323    137.75348   -3.3533356   -4622.1222 
19475000    287.44153    -8942.702   -7846.8438    -8942.702            0    15771.515    24.750211    24.905777     22.77234      14037.4    16018.136    16031.894    15264.516   -330.53583    119.92493    212.43162   -4618.0822 
19476000    299.33649   -8957.0937   -7815.8865   -8957.0937            0    16608.431    24.729317    24.905161    22.752604    14013.047    17919.815    15728.472    16177.005    728.22227    504.22022   -744.53164   -4421.6894 
19477000    297.12012   -8945.9731   -7813.2156   -8945.9731            0    14348.125    24.868749    24.891172    22.861323    14151.441    14447.989    14499.348    14097.039    252.82702    260.12545   -607.19963   -4851.9886 
19478000    290.79017    -8916.135   -7807.5103    -8916.135            0    13559.637    24.872672    24.887459    22.897259    14173.806    15299.568    12648.961    12730.383   -265.69705    973.46525    -882.7786   -5004.5919 
19479000    299.31336   -8995.2615   -7854.1424   -8995.2615            0     14265.18    24.988956    24.842312    22.732264    14111.813    12890.164    14505.393    15399.984    1419.8291    60.282429   -495.65678   -4918.2782 
19480000     307.5857   -8983.7701   -7811.1131   -8983.7701            0    13556.143    25.046786    24.750849     22.79586     14131.82    12124.408    14692.037    13851.985   -143.35312   -368.51641    83.034221   -5017.2178 
19481000     309.4287    -8964.049   -7784.3657    -8964.049            0     14628.36    24.905505     24.81725    22.865863    14133.073    14890.734    14418.768    14575.579    15.708725    672.58494   -779.54037   -4769.2211 
19482000    296.85092   -8929.8096   -7798.0785   -8929.8096            0    15766.498    24.936788    24.674879    22.846616    14057.802    14007.052    16651.304     16641.14    227.12245    28.805335    116.24894   -4565.6527 
19483000    300.15482   -8930.7671   -7786.4401   -8930.7671            0    16248.126    24.815647    24.821766    22.799333    14043.663    15180.458    16837.765    16726.154     209.1646   -176.96079    1888.8057    -4458.622 
19484000    305.86468   -8978.0648   -7811.9692   -8978.0648            0    14523.195    24.816368    24.979554    22.765587    14112.429    16092.395    13020.722    14456.468    -677.4341   -342.14918    71.408625   -4822.8735 
19485000    298.69475   -9002.9812   -7864.2206   -9002.9812            0    13078.912    24.767858    24.930584    22.892544    14135.623     13361.79    12050.471    13824.474   -120.41412    14.889929    2.6121356   -5167.9563 
19486000    297.38857    -8947.082   -7813.3012    -8947.082            0    14529.445    24.879522    24.951998    22.724859    14107.451    14743.144    13163.967    15681.224    310.98778    71.385443     1210.505   -4823.9739 
19487000    298.00195   -8991.3989   -7855.2796   -8991.3989            0    14518.215    24.752625     24.82898    22.930679    14092.792    15490.496    13769.447    14294.702   -666.92165    621.25323    76.621555   -4871.3666 
19488000    291.95195   -8885.5266   -7772.4726   -8885.5266            0    14580.291     24.88069    24.901901    22.844835    14154.122    15670.217    13386.675    14683.981   -10.402908   -43.956395    1114.9791     -4762.76 
19489000     303.3216   -8984.0919   -7827.6916   -8984.0919            0    14047.405    24.950689    24.767351    22.862307    14128.048    14248.972    13552.035    14341.208   -707.64856   -1680.6427     113.4599   -4933.3209 
19490000     301.0947   -8924.6705   -7776.7602   -8924.6705            0    15033.668    25.042432    24.658232    22.828379    14096.572    13706.853    15733.217    15660.935    675.89103   -917.80099     268.8817   -4686.0779 
19491000    306.68483   -8988.7288   -7819.5064   -8988.7288            0    14043.339    24.908097    24.873648     22.81772    14136.837    14323.541    13926.901    13879.577    365.88349   -210.77844   -518.51556   -4924.1732 
19492000    308.15363   -8980.0285   -7805.2063   -8980.0285            0    13042.015    24.799195    24.860883    22.999845    14180.092    14127.686    12157.304    12841.055    792.72516   -25.777642     100.9264   -5108.0903 
19493000    293.06264   -8949.0228   -7831.7344   -8949.0228            0    14673.964    24.954926    24.878948    22.696781    14091.349    13225.162    15090.829      15705.9   -6.5966333   -73.462563   -1613.0538   -4816.1195 
19494000    296.91752   -8989.3025   -7857.3175   -8989.3025            0    13238.175    24.818291    24.779278    23.021749      14157.9    14702.036    13623.984    11388.503    1029.4634    414.33236    758.66145   -5123.9198 
19495000    308.52749   -8982.7013   -7806.4538   -8982.7013            0    14678.086      24.9286    24.889592    22.684224    14074.714    14992.342    14197.538    14844.378    183.72976    32.600565   -457.01051   -4793.5525 
19496000    300.34819    -8989.415   -7844.3507    -8989.415            0    14977.821     24.83677    24.754626    22.948981    14109.607    14991.672    15012.474    14929.316    511.98138    872.28669   -102.89987   -4762.3026 
19497000    305.27727   -8932.0629   -7768.2067   -8932.0629            0    14515.958    25.000793    24.789869    22.783632    14120.529    13467.207    15325.262    14755.405   -230.42287    540.77997    751.58553   -4778.8857 
19498000    286.21879   -8973.9011   -7882.7045   -8973.9011            0    14103.464    24.969223    24.755223    22.845243    14121.072      13507.7    14102.927    14699.765    454.56476    140.25659    -841.3406   -4978.2182 
19499000    285.15181   -8988.0307    -7900.902   -8988.0307            0    12786.643    24.939069    24.935115    22.755562    14150.741    13044.348    13104.789    12210.792   -171.58482    527.74224   -391.37997   -5262.0707 
19500000    310.89023   -8974.9883   -7789.7329   -8974.9883            0    13952.426    24.857131    24.893043    22.844784    14135.659    15044.211    13581.525    13231.543    1259.0367   -51.927031    519.95715   -4913.3833 
Loop time of 593.625 on 64 procs for 250000 steps with 1920 atoms

Performance: 72.773 ns/day, 0.330 hours/ns, 421.141 timesteps/s
99.1% CPU use with 64 MPI tasks x 1 OpenMP threads

MPI task timing breakdown:
Section |  min time  |  avg time  |  max time  |%varavg| %total
---------------------------------------------------------------
Pair    | 64.412     | 66.704     | 69.003     |  13.3 | 11.24
Bond    | 0.27264    | 0.28238    | 0.29649    |   0.9 |  0.05
Kspace  | 249.08     | 263.65     | 279.87     |  39.9 | 44.41
Neigh   | 7.9789     | 9.6114     | 11.867     |  29.3 |  1.62
Comm    | 100.44     | 117.34     | 134.61     |  70.1 | 19.77
Output  | 1.4145     | 1.417      | 1.43       |   0.1 |  0.24
Modify  | 119.21     | 127.39     | 135.13     |  36.6 | 21.46
Other   |            | 7.222      |            |       |  1.22

Nlocal:        30.0000 ave          34 max          27 min
Histogram: 3 8 18 0 11 11 0 10 0 3
Nghost:        2869.77 ave        2909 max        2846 min
Histogram: 9 8 11 7 7 10 6 4 1 1
Neighs:        10752.0 ave       12315 max        9573 min
Histogram: 5 6 8 14 7 5 13 3 0 3

Total # of neighbors = 688125
Ave neighs/atom = 358.39844
Ave special neighs/atom = 2.0000000
Neighbor list builds = 15130
Dangerous builds = 2

unfix		3
unfix		2
unfix		1

write_data	data.final.${pid}
write_data	data.final.0
System init for write_data ...
PPPM initialization ...
  extracting TIP4P info from pair style
  using 12-bit tables for long-range coulomb (../kspace.cpp:340)
  G vector (1/distance) = 0.37471712
  grid = 30 30 30
  stencil order = 5
  estimated absolute RMS force accuracy = 0.0032423269
  estimated relative force accuracy = 9.7641712e-06
  using double precision FFTW3
  3d grid and FFT values/proc = 3600 512
Last active /omp style is kspace_style pppm/tip4p/omp
WARNING: Not all mixed pair coeffs generated from mixing. Use write_data with 'pair ij' option to store all pair coeffs. (../write_data.cpp:312)

write_restart   restart.lmp.${pid}
write_restart   restart.lmp.0
System init for write_restart ...
PPPM initialization ...
  extracting TIP4P info from pair style
  using 12-bit tables for long-range coulomb (../kspace.cpp:340)
  G vector (1/distance) = 0.37471712
  grid = 30 30 30
  stencil order = 5
  estimated absolute RMS force accuracy = 0.0032423269
  estimated relative force accuracy = 9.7641712e-06
  using double precision FFTW3
  3d grid and FFT values/proc = 3600 512
Last active /omp style is kspace_style pppm/tip4p/omp
Total wall time: 0:09:55
