LAMMPS (30 Jul 2021)
  using 1 OpenMP thread(s) per MPI task
package omp 0
using multi-threaded neighbor list subroutines
echo both

include		in.partitions
variable        pid world 0
include		in.temp
variable        temperature equal 249.63
variable	tempDamp equal 100.0
include		in.pressure
variable        pressure equal 6875.0
variable        pressureDamp equal 1000.0 # This is 1 ps
include		in.seed
variable        seed world 745823

units		real
atom_style	full
read_restart	restart.lmp.${pid}
read_restart	restart.lmp.0
Reading restart file ...
  restart file = 30 Jul 2021, LAMMPS = 30 Jul 2021
  restoring atom style full from restart
  orthogonal box = (0.54546109 1.7340124 0.66546126) to (17.662111 21.895165 21.547735)
  4 by 4 by 4 MPI processor grid
  restoring pair style lj/cut/tip4p/long/omp from restart
  restoring bond style harmonic/omp from restart
  restoring angle style harmonic/omp from restart
  864 atoms
  576 bonds
  288 angles
Finding 1-2 1-3 1-4 neighbors ...
  special bond factors lj:    0        0        0       
  special bond factors coul:  0        0        0       
     2 = max # of 1-2 neighbors
     1 = max # of 1-3 neighbors
     1 = max # of 1-4 neighbors
     2 = max # of special neighbors
  special bonds CPU = 1.805 seconds
  read_restart CPU = 2.178 seconds
include 	in.setup
variable	out_freq equal 1000
variable	out_freq2 equal 10000
variable	out_freq3 equal 1000

timestep	2.0

neigh_modify    delay 7 every 1

include		in.tip4p
# This is TIP4P/Ice

# create groups ###
group ox type 2
288 atoms in group ox
group hy type 1
576 atoms in group hy

# set charges - beside manually ###
set group ox charge -1.1794
Setting atom values ...
  288 settings made for charge
set group hy charge 0.5897
Setting atom values ...
  576 settings made for charge

# ### TIP3P Potential Parameters ###
pair_style lj/cut/tip4p/long/omp 2 1 1 1 0.1577 8.5
pair_coeff 1 1*2 0.000 0.000
pair_coeff 2 2 0.21084 3.1668
bond_style  harmonic
bond_coeff  1 450 0.9572
angle_style harmonic
angle_coeff 1 55 104.52
kspace_style pppm/tip4p/omp 1.0e-5
pair_modify tail yes

thermo          ${out_freq}
thermo          1000
thermo_style    custom step temp pe etotal epair emol press lx ly lz vol pxx pyy pzz pxy pxz pyz enthalpy

restart 	${out_freq3} restart.lmp.${pid} restart2.lmp.${pid}
restart 	1000 restart.lmp.${pid} restart2.lmp.${pid}
restart 	1000 restart.lmp.0 restart2.lmp.${pid}
restart 	1000 restart.lmp.0 restart2.lmp.0


include         in.dump
dump            myDump all atom ${out_freq2} dump.water.${pid}
dump            myDump all atom 10000 dump.water.${pid}
dump            myDump all atom 10000 dump.water.0
dump            myDump2 all dcd ${out_freq2} dump.dcd
dump            myDump2 all dcd 10000 dump.dcd
dump_modify     myDump append yes
dump_modify     myDump2 append yes


variable natoms 	equal  "count(all)"                        # NUMBER ATOMS
variable H      	equal  "enthalpy/v_natoms"                 # ENTHALPY-per-atom
variable Vol      	equal  "vol/v_natoms"                 # volume-per-atom
fix AVG all 		ave/time ${out_freq} 1 ${out_freq} v_Vol v_H file vol_enthalpy.dat
fix AVG all 		ave/time 1000 1 ${out_freq} v_Vol v_H file vol_enthalpy.dat
fix AVG all 		ave/time 1000 1 1000 v_Vol v_H file vol_enthalpy.dat


timer           timeout 23:50:00 every 1000
New timer settings: style=normal  mode=nosync  timeout=23:50:00

fix 		1 all shake 1e-6 200 0 b 1 a 1
       0 = # of size 2 clusters
       0 = # of size 3 clusters
       0 = # of size 4 clusters
     288 = # of frozen angles
  find clusters CPU = 1.451 seconds
fix             2 all nph iso ${pressure} ${pressure} ${pressureDamp}
fix             2 all nph iso 6875 ${pressure} ${pressureDamp}
fix             2 all nph iso 6875 6875 ${pressureDamp}
fix             2 all nph iso 6875 6875 1000
fix             3 all temp/csvr ${temperature} ${temperature} ${tempDamp} ${seed}
fix             3 all temp/csvr 249.63 ${temperature} ${tempDamp} ${seed}
fix             3 all temp/csvr 249.63 249.63 ${tempDamp} ${seed}
fix             3 all temp/csvr 249.63 249.63 100 ${seed}
fix             3 all temp/csvr 249.63 249.63 100 745823

run             250000
PPPM initialization ...
  extracting TIP4P info from pair style
  using 12-bit tables for long-range coulomb (../kspace.cpp:340)
  G vector (1/distance) = 0.37357502
  grid = 24 24 24
  stencil order = 5
  estimated absolute RMS force accuracy = 0.0032402305
  estimated relative force accuracy = 9.7578579e-06
  using double precision FFTW3
  3d grid and FFT values/proc = 2535 216
Last active /omp style is kspace_style pppm/tip4p/omp
Neighbor list info ...
  update every 1 steps, delay 7 steps, check yes
  max neighbors/atom: 2000, page size: 100000
  master list distance cutoff = 10.8154
  ghost atom cutoff = 10.8154
  binsize = 5.4077, bins = 4 4 4
  1 neighbor lists, perpetual/occasional/extra = 1 0 0
  (1) pair lj/cut/tip4p/long/omp, perpetual
      attributes: half, newton on, omp
      pair build: half/bin/newton/omp
      stencil: half/bin/3d
      bin: standard
Per MPI rank memory allocation (min/avg/max) = 9.235 | 9.238 | 9.241 Mbytes
Step Temp PotEng TotEng E_pair E_mol Press Lx Ly Lz Volume Pxx Pyy Pzz Pxy Pxz Pyz Enthalpy 
23500000    248.91616   -3884.9268    -3458.293   -3884.9268            0    6326.5034     17.11665    20.161153    20.882273     7206.293    6462.3922    5897.9214    6619.1966    650.74439   -384.96061    875.09501   -2793.4004 
23501000    247.78533   -3927.2687   -3502.5731   -3927.2687            0    7034.8697    17.096197    20.137062     20.85732    7180.4907    6290.9258    6119.9844     8693.699   -383.68334    1275.1412   -329.87452   -2765.8809 
23502000    252.98705   -3937.6522    -3504.041   -3937.6522            0    4773.4355    17.130032    20.176915    20.898599    7223.2075     4376.449    3832.9661    6110.8915    -1883.388    778.08707    1137.6734   -3001.1927 
23503000    242.18603   -3923.1548   -3508.0562   -3923.1548            0    6406.4644    17.105334    20.147824    20.868467    7192.0095    5516.3272    5376.5765    8326.4896   -979.18322   -30.223522    475.40945   -2836.0944 
23504000    244.30677   -3963.3285   -3544.5951   -3963.3285            0    6463.5792    17.080216    20.118238    20.837823    7160.3729    6437.7517    5310.7861    7642.1999   -293.25327   -589.63912   -1915.4482   -2869.6249 
23505000    260.40303   -3951.5507   -3505.2288   -3951.5507            0    5131.3472    17.151562    20.202275    20.924866    7250.4778    5010.0407    4569.4443    5814.5566     822.5301   -1132.1054    1686.6113   -2962.6361 
23506000    263.15132   -3909.5067   -3458.4743   -3909.5067            0    7625.6871    17.055025    20.088567    20.807091    7128.7389     8294.987    6836.1834    7745.8908   -1364.5577    511.19881   -1267.2251   -2665.6671 
23507000    256.32783   -3933.5757   -3494.2386   -3933.5757            0    7702.8318     17.06888    20.104886    20.823994    7146.1258    6574.1608    8409.3552    8124.9795    -709.9458   -1223.4724    1.7866819   -2691.4578 
23508000    259.57452   -3930.3491   -3485.4473   -3930.3491            0    7658.9872    17.103119    20.145215    20.865765    7189.2161    7995.8362    8447.0842    6534.0413   -306.72195   -282.63538   -402.20487   -2682.4228 
23509000    253.07064   -3893.9864    -3460.232   -3893.9864            0    7124.1313    17.088436     20.12792    20.847852    7170.7161    6752.1722    6678.9341    7941.2877    1102.0534    1557.0037    980.44715   -2715.2079 
23510000    248.12712    -3919.578   -3494.2966    -3919.578            0    5639.9478    17.166847    20.220278    20.943513    7269.8793    5761.3058    6524.6332    4633.9044    406.53758   -989.16466   -68.671589   -2896.3283 
23511000    250.65982   -3931.2599   -3501.6375   -3931.2599            0    6539.8167    17.128321      20.1749    20.896512    7221.0436    7307.3026    8443.3273    3868.8203    994.91066    664.79575   -947.28987   -2812.9195 
23512000    275.50696   -3931.8777   -3459.6682   -3931.8777            0    6648.4695    17.105645     20.14819    20.868847    7192.4022    6126.9372    8036.4575    5782.0138    722.78446    459.12295   -1798.2755   -2762.2849 
23513000    250.43938   -3907.7134   -3478.4689   -3907.7134            0    7347.4907    17.070381    20.106654    20.825825    7148.0114    7438.1005     8446.617    6157.7546   -138.59976    285.36917   -785.43967   -2712.5193 
23514000    239.65786     -3950.32   -3539.5547     -3950.32            0    4903.7743    17.150735    20.201301    20.923857    7249.4292    5430.3968    4696.1772    4584.7489    194.26265   -265.67889   -568.43131   -3021.1007 
23515000    254.92323   -3946.3307    -3509.401   -3946.3307            0    6864.2123    17.138193    20.186527    20.908555    7233.5364    7255.6888    7721.3254    5615.6228    955.41906   -1250.4443    344.85415   -2785.2697 
23516000    247.15606   -3928.1904   -3504.5734   -3928.1904            0    8729.2745    17.082933    20.121439    20.841138     7163.791    7754.9744    9139.2213    9293.6279    1095.6602   -71.610603   -1117.7586    -2592.569 
23517000    253.11286   -3926.6468     -3492.82   -3926.6468            0    7555.2386    17.072922    20.109647    20.828925    7151.2034    8131.2254    7455.8159    7078.6745   -4.8257479   -368.43095   -238.44723   -2704.8617 
23518000    234.14755   -3929.5111   -3528.1902   -3929.5111            0    7532.6559    17.080378    20.118429    20.838021     7160.577    7868.1678    8479.8324    6249.9676   -342.78337    447.82186   -465.36792   -2741.5574 
23519000    247.14993   -3942.3979   -3518.7913   -3942.3979            0    6409.1058    17.105485    20.148002    20.868652    7192.2007    6361.2808    5978.5212    6887.5153   -359.62647    657.96529   -318.62268   -2846.5347 
23520000    243.65719   -3958.7193   -3541.0992   -3958.7193            0    6978.1827    17.108329    20.151352    20.872122    7195.7884    8403.8835    6224.5765    6306.0881    75.389014   -984.30678   -466.45391   -2808.7865 
23521000    244.83852   -3954.2863   -3534.6414   -3954.2863            0    3962.7567    17.165718    20.218949    20.942136    7268.4453      5416.88    3600.2378    2871.1522   -17.351961   -327.64676    1278.7426   -3114.5781 
23522000    269.05914    -3944.918   -3483.7598    -3944.918            0    7382.8779    17.098711    20.140023    20.860388    7183.6593    5833.2386    7802.5544    8512.8406    55.562855    1050.6892    434.04842    -2710.283 
23523000     237.7791   -3954.9888   -3547.4436   -3954.9888            0    6156.5332    17.134787    20.182516      20.9044    7229.2246    5352.6584    6873.1731    6243.7682    1011.6384    -339.9947    753.02809   -2898.3552 
23524000    270.01158   -3934.6846    -3471.894   -3934.6846            0    8241.4941    17.108306    20.151324    20.872093    7195.7589    7820.2566    9662.6352    7241.5904    461.13356   -1506.6904    9.0903722   -2607.0089 
23525000    245.87327   -3918.0533    -3496.635   -3918.0533            0    7426.5788    17.107047    20.149842    20.870558    7194.1709    8733.0184    5743.7374    7802.9805    30.085148   -46.399857   -1455.3247   -2717.4413 
23526000    264.07641   -3928.2863   -3475.6684   -3928.2863            0    6694.0326    17.087794    20.127164    20.847068    7169.9077    4632.8723    6795.9298    8653.2959    626.14672   -970.15869     174.6014   -2775.7019 
23527000     255.9081   -3926.8714   -3488.2536   -3926.8714            0    5925.0917    17.137398    20.185591    20.907585    7232.5295    7331.6515     4340.488    6103.1355    205.58064   -724.54621    41.078098   -2863.2808 
23528000    235.46275   -3928.7462   -3525.1711   -3928.7462            0    9393.2005     17.05122    20.084085    20.802449    7123.9681    9346.1302    9014.2464    9819.2249   -105.86546     437.3598    581.02465   -2549.2573 
23529000    242.52643   -3963.2423   -3547.5603   -3963.2423            0    5740.6692    17.122999    20.168631    20.890019    7214.3147    7186.1202    6701.4615    3334.4258    1207.7935    1148.9018   -677.95853   -2943.5651 
23530000    251.28513   -3912.8515   -3482.1573   -3912.8515            0    7884.1599    17.065637    20.101067    20.820038    7142.0539    6626.3567    8390.2828    8635.8402   -742.05603    1554.3924    501.91926   -2660.9469 
23531000    249.50177    -3901.356   -3473.7185    -3901.356            0    7637.3804    17.051671    20.084616    20.802998     7124.533    9213.9437    6109.2749    7588.9225    117.71949    28.735407    759.08057   -2680.1641 
23532000    250.83049   -3922.3832   -3492.4683   -3922.3832            0    7802.9794     17.03158    20.060951    20.778488    7099.3794    8774.5744    9522.3404    5112.0233    2201.7131    -236.6159    1185.0648     -2684.57 
23533000    251.36032   -3919.9967   -3489.1737   -3919.9967            0    9187.2383    16.997402    20.020695    20.736791    7056.7257     9670.004    9469.4885    8422.2225    2021.5131    882.78452    1125.9884   -2543.6681 
23534000     244.1056   -3960.6433   -3542.2547   -3960.6433            0    7036.1977    16.989041    20.010846     20.72659    7046.3169    6243.4386    7380.0744    7485.0803    259.20599   -427.86084    1695.0301   -2819.1918 
23535000      243.736   -3954.6684   -3536.9133   -3954.6684            0    5826.8239     17.04794    20.080221    20.798447    7119.8576    4865.7344    6900.2838    5714.4535     433.9267   -528.60015   -484.50121   -2931.8802 
23536000    244.07153   -3929.3715   -3511.0413   -3929.3715            0    8023.9035    16.970596     19.98912    20.704087    7023.3908    7075.9793    8793.2275    8202.5038    -135.1171   -282.07384   -1469.4282   -2689.1613 
23537000     246.7905    -3923.023   -3500.0325    -3923.023            0    5865.0227    17.042605    20.073938    20.791939    7113.1759    5321.0713    5459.0685    6814.9284   -657.43848    131.99058   0.16844848   -2891.6046 
23538000    249.25397   -3917.9088    -3490.696   -3917.9088            0     7819.976    17.053684    20.086987    20.805454    7127.0564    8599.4088    8843.5679    6016.9513    855.28954   -1782.8434    -814.4168   -2677.8814 
23539000    249.45413   -3931.0274   -3503.4716   -3931.0274            0    8404.2383    17.016459    20.043141     20.76004    7080.4878     9233.328    6195.5718    9783.8151    1423.6595   -221.08603    996.23657    -2635.636 
23540000    253.37435   -3940.3239   -3506.0489   -3940.3239            0     7545.297    17.062679    20.097582    20.816428      7138.34    6355.7344    8849.0249    7431.1317    906.66739   -1563.1959   -541.11602    -2720.543 
23541000    236.25127   -3910.2908   -3505.3642   -3910.2908            0    4523.2523     17.12641    20.172649     20.89418    7218.6271    3368.2784    6595.4815    3605.9971      268.241   -807.44394   -59.050581    -3029.173 
23542000    249.24501   -3936.8273   -3509.6298   -3936.8273            0    6572.2476    17.080521    20.118597    20.838195    7160.7565    8361.3287    6418.4972     4936.917   -1077.1907   -2114.1389    620.67702    -2823.275 
23543000      250.633   -3921.0825   -3491.5061   -3921.0825            0    7899.8446    17.073201    20.109976    20.829266     7151.555    7985.6866    6436.1389    9277.7083   -1372.6922    1358.6183   -206.67578   -2667.5673 
23544000     255.2881   -3923.0424   -3485.4873   -3923.0424            0    6964.6379    17.039481    20.070258    20.788127    7109.2646    6440.5875    6530.2135    7923.1126    1122.5502    1107.6349    1292.5952   -2763.3844 
23545000    233.33437   -3948.7876   -3548.8605   -3948.7876            0    8002.2051    17.013492    20.039646     20.75642     7076.784    8195.4345    8842.7771    6968.4037    42.547419    356.38302    938.76764   -2722.9718 
23546000    251.22956   -3910.7249    -3480.126   -3910.7249            0    8295.9798    17.071868    20.108405    20.827639    7149.8789    8101.4259    6177.8057    10608.708   -834.82282   -898.53764    941.36172   -2615.0739 
23547000    255.19557   -3947.4207   -3510.0243   -3947.4207            0    6345.5865    17.038181    20.068727    20.786541    7107.6378    6171.2038    6456.3598    6409.1959    194.60901   -492.41112    274.63659   -2852.2559 
23548000    260.16645   -3923.7202   -3477.8038   -3923.7202            0    7694.3418    17.007558    20.032657    20.749181    7069.3821    6828.4266    7802.3646    8452.2342   -979.90057    874.18798    471.57845   -2684.5196 
23549000     246.7538   -3887.4854   -3464.5578   -3887.4854            0    9737.6356    17.012612     20.03861    20.755347     7075.687    11126.974     8574.858    9511.0749    1446.2548    79.941249   -772.54379   -2459.7153 
23550000    246.17036   -3916.2178   -3494.2903   -3916.2178            0    5761.8338    17.093154    20.133478    20.853608    7176.6576    6474.1682    4261.7894    6549.5439   -579.39432    484.81158   -270.46748   -2891.2326 
23551000    246.54379   -3894.1637    -3471.596   -3894.1637            0    6108.9977    17.077705    20.115281    20.834761    7157.2162    5058.5751    6179.1554    7089.2625   -639.26818   -1369.5974    1378.6463   -2833.9349 
23552000    242.91809   -3943.3325   -3526.9792   -3943.3325            0     9148.125    16.990764    20.012876    20.728692    7048.4611    9491.0192    9905.5808    8047.7749    98.023381    1149.5318    1516.0874   -2586.6016 
23553000     241.4618   -3936.3177   -3522.4604   -3936.3177            0     8031.085    17.017285    20.044113    20.761048    7081.5182    9434.2735    8755.6233    5903.3583    1878.8221    887.44087   -553.29336   -2693.0366 
23554000    252.67469   -3904.8435   -3471.7678   -3904.8435            0     5347.588     17.10719     20.15001    20.870732    7194.3507    3326.2466    6095.4967    6621.0207    108.91431   -1247.1433   -738.04396   -2910.6869 
23555000    247.86663   -3923.8634   -3499.0285   -3923.8634            0    7807.7282    17.047016    20.079133    20.797319    7118.6997    7097.7973    6795.8198    9529.5676    32.714256    274.68511   -280.41475   -2688.4385 
23556000     254.4536    -3884.996   -3448.8713    -3884.996            0     6562.968    17.069398    20.105496    20.824626    7146.7769    6324.4081    7514.7219    5849.7741    603.52447   -449.95006   -2047.2192   -2764.8235 
23557000    257.41619   -3927.4365   -3486.2339   -3927.4365            0    6214.3019    17.035344    20.065385     20.78308    7104.0879    5833.4797    7205.2777    5604.1483   -569.78026   -21.449688   -2205.9538    -2842.396 
23558000    236.03745    -3899.156   -3494.5959    -3899.156            0    6778.6247    17.004038    20.028511    20.744887     7064.994    6523.0829    6674.2069    7138.5844    1119.6739    1010.4409   -197.42711   -2796.1557 
23559000    257.52935   -3923.2958   -3481.8993   -3923.2958            0    6715.1134    17.018924    20.046045    20.763048    7083.5655    7616.8346    6070.3986     6458.107   -410.89573   -585.22894   -902.19583   -2788.1842 
23560000    248.16075   -3932.1897   -3506.8507   -3932.1897            0    6208.3592    16.990061    20.012047    20.727835    7047.5861    5613.3275    9253.9447    3757.8053   -354.61964    991.20323    -596.9972   -2868.7443 
23561000     248.1807   -3914.7511   -3489.3779   -3914.7511            0    6388.5037    17.029449    20.058442    20.775888    7096.7153    6463.5271    5362.7607    7339.2233    859.84354    626.38851    -1025.062   -2828.1786 
23562000     239.2507   -3884.7853   -3474.7178   -3884.7853            0    7096.3109     17.03226    20.061753    20.779318    7100.2307    7038.3365    6727.1198    7523.4765    329.05887    227.70633   -695.95368   -2739.8978 
23563000    264.42733   -3890.7647   -3437.5453   -3890.7647            0     5606.156    17.004904     20.02953    20.745943    7066.0729    8357.9339    4138.8154    4321.7187   -170.75225   -314.05267    457.50989   -2859.8229 
23564000    249.45279   -3898.5238   -3470.9702   -3898.5238            0    6623.6473    17.075555    20.112748    20.832137    7154.5126    5484.5771    6962.3748      7423.99    363.01604   -769.55694   -718.73909   -2779.8507 
23565000    250.57154   -3930.5567   -3501.0856   -3930.5567            0    6486.9188    17.032609    20.062164    20.779743    7100.6665    7175.7758    6545.1978    5739.7828   -323.03901   -399.82213    623.45598   -2829.3267 
23566000    259.03686   -3886.1471   -3442.1667   -3886.1471            0    7881.6283    17.044048    20.075637    20.793699    7114.9825    7476.2457    8905.5082     7263.131     195.1488     -1155.03    1417.7923   -2624.3318 
23567000    221.81162   -3905.1676   -3524.9901   -3905.1676            0    5842.3381    17.107381    20.150236    20.870965    7194.5926    4444.7822    5261.6091     7820.623   -197.27535    53.201948    1251.5422   -2911.9783 
23568000    246.40812   -3888.4478   -3466.1127   -3888.4478            0    7107.7567    17.104237    20.146532    20.867129    7190.6262    7486.4742    7101.6656    6735.1304   -15.040511     181.7401   -87.182429   -2720.7371 
23569000    232.10149   -3917.9959   -3520.1819   -3917.9959            0    8287.7479    17.017329    20.044166    20.761101    7081.5734    9518.4513    7286.2681    8058.5244    1661.7649    1026.2194   -301.11558   -2664.2442 
23570000    259.58813   -3929.1669   -3484.2418   -3929.1669            0    7723.2254    17.029691    20.058726    20.776183    7097.0173    7653.2219    5288.9213    10227.533   -59.622341   -2064.5605   -16.341257    -2684.867 
23571000    240.77261   -3904.0713   -3491.3953   -3904.0713            0    7148.8518    17.088218    20.127664    20.847587    7170.4425    6452.3838    8235.5819    6758.5899   -875.31033    182.71003   -1029.1945   -2743.8145 
23572000    261.55886   -3871.4315   -3423.1286   -3871.4315            0    6938.8994    17.142077    20.191102    20.913294    7238.4556    7269.8906    6652.0504    6894.7571    708.91986   -466.87171    826.94933   -2690.6206 
23573000    240.50645    -3923.838   -3511.6182    -3923.838            0    7597.5799    17.016547    20.043245    20.760148    7080.5974    6075.6193    8768.9804    7948.1399    138.98631   -49.657331    2093.4824   -2727.0674 
23574000    261.06074   -3951.4255   -3503.9763   -3951.4255            0    7587.8212      17.0754    20.112566    20.831949    7154.3186    8387.9503    6160.0926    8215.4207    713.17393    -1363.451    1207.9891   -2712.2752 
23575000     247.3171    -3923.585    -3499.692    -3923.585            0    6487.4671    17.111691    20.155311    20.876223    7200.0306      6360.33    6041.8267    7060.2445    976.64206    294.28808    1464.3339   -2818.4751 
23576000    261.72402   -3950.8524   -3502.2664   -3950.8524            0    7503.4469    17.078321    20.116007    20.835512    7157.9906    7993.3558    7669.3604    6847.6245   -184.42743    1245.7391    760.91131   -2718.9669 
23577000    252.90634   -3929.9738    -3496.501   -3929.9738            0    9192.0411    17.004571    20.029139    20.745537    7065.6584    8732.4372    8927.4078    9916.2784   -1223.4991    1892.7947   -486.10556   -2549.3036 
23578000    266.18949   -3908.7946   -3452.5549   -3908.7946            0    7169.2097    17.129439    20.176217    20.897876    7222.4581    4983.1673    8294.9871    8229.4747    166.46906   -869.26446   -1921.0235   -2697.4067 
23579000     251.2683   -3940.7313   -3510.0661   -3940.7313            0    6792.3353    17.121886     20.16732    20.888661    7212.9081     6566.158    6415.5672    7395.2805    945.93285    1941.1241   -248.73735   -2795.5609 
23580000    251.85273   -3907.2846   -3475.6176   -3907.2846            0     4332.378     17.22412    20.287738    21.013386    7342.8848    4393.9231    3749.0722    4854.1386   -545.66577   -722.81706   -2073.7529     -3011.67 
23581000    256.33396   -3948.1619   -3508.8143   -3948.1619            0    6294.2295     17.07815    20.115805    20.835303    7157.7757     6589.164    7265.9055     5027.619   -1632.7373    1795.9162   -192.55819   -2851.7671 
23582000    237.89761   -3925.7602   -3518.0118   -3925.7602            0    7137.0105    17.035705    20.065811    20.783521    7104.5398    6790.3676    8445.0703    6175.5934   -1246.4069    -8.578007   -115.08745   -2778.5289 
23583000    240.83251   -3936.6882   -3523.9095   -3936.6882            0    8288.0136    17.067121    20.102814    20.821848    7143.9167    7673.5888    8396.4897    8793.9625    653.61721   -1630.5459   -642.61431   -2660.4087 
23584000    261.48376   -3900.7789   -3452.6047   -3900.7789            0    6630.5354    17.030855    20.060098    20.777603    7098.4733    6268.5968     6548.749    7074.2604   -671.76764    678.40633    -140.5621   -2766.1855 
23585000    253.71925   -3912.2779   -3477.4118   -3912.2779            0    8233.5192    17.018186    20.045175    20.762147    7082.6432    8105.7176    9178.9561     7415.884   -466.89231    204.01069   -392.13887   -2626.9462 
23586000     256.5224   -3925.8198   -3486.1492   -3925.8198            0    6348.1153    17.064007    20.099146    20.818048    7140.0067     6694.942    7788.6515    4560.7525    676.40284    425.33165   -744.21758    -2825.122 
23587000    246.90129   -3919.6917   -3496.5113   -3919.6917            0    10228.459    16.995817    20.018828    20.734857    7054.7519    9728.4639    10878.545    10078.368   -1562.5177    632.20335    352.95111   -2444.1428 
23588000    256.06687   -3886.9106   -3448.0208   -3886.9106            0    7278.3281    17.040885    20.071911    20.789839    7111.0215    7656.1474    5532.9249    8645.9121   -424.23148    -733.8261    305.77234   -2693.2075 
23589000    239.00742   -3908.1878   -3498.5372   -3908.1878            0    5919.4517    17.044158    20.075767    20.793833    7115.1203    6461.0508    4306.4013     6990.903    114.84778    1385.1911   -383.55984   -2884.2951 
23590000    241.40006   -3875.0752   -3461.3238   -3875.0752            0    7624.3359    17.029661    20.058692    20.776147    7096.9806    7351.1318    8374.1361    7147.7399   -541.21281    292.64209    1398.5741   -2672.1884 
23591000     234.2814   -3919.0843    -3517.534   -3919.0843            0    6837.9119    17.025027    20.053233    20.770493     7091.188    6829.5588    6279.4168    7404.7602    98.556737    -164.8419   -882.24383   -2810.3728 
23592000    257.08097   -3900.0047   -3459.3767   -3900.0047            0    5802.8496    17.094921    20.135558    20.855763    7178.8826    5837.2694    5342.7514     6228.528   -126.57198    2605.2905    562.49765   -2851.8379 
23593000    240.81142   -3916.5661   -3503.8235   -3916.5661            0    6654.0801    17.070531    20.106831    20.826008    7148.1997     5581.864    6957.6814     7422.695    979.32084    550.43708   -190.21856   -2810.1413 
23594000     246.3616   -3899.9248   -3477.6694   -3899.9248            0    6066.6243    17.120963    20.166233    20.887535    7211.7414    5428.8763    6746.8061    6024.1904    644.63891    1240.1721   -115.05464    -2839.607 
23595000    243.96853   -3918.8132   -3500.6595   -3918.8132            0    6564.8389    17.080606    20.118698    20.838299    7160.8636     6950.576    5313.8097    7430.1309   -1251.4525    979.44753   -1075.9983   -2815.0681 
23596000    264.86099   -3925.3169   -3471.3542   -3925.3169            0    6966.7465    17.122918    20.168535     20.88992    7214.2119    6444.2081    7769.5485    6686.4831    -164.2707   -3.1223181   -416.73819   -2738.3697 
23597000     240.0719   -3898.3879   -3486.9129   -3898.3879            0    6975.6964     17.11538    20.159657    20.880724    7204.6889    5761.3714    7285.9021    7879.8158   -1001.6664    1716.8559    457.36008   -2753.9556 
23598000    238.20354   -3908.4637    -3500.191   -3908.4637            0    6776.4379    17.077106    20.114575    20.834029    7156.4626    5227.4021     7632.313    7469.5987   -736.51481   -928.94203   -406.33165   -2792.9364 
23599000    254.28757   -3922.9226   -3487.0824   -3922.9226            0    6619.5551    17.101679    20.143519    20.864009    7187.4008    6179.3464    6291.0645    7388.2546   -249.77495    2110.0887    211.12985   -2793.2149 
23600000    243.05883    -3919.763   -3503.1685    -3919.763            0    6956.5694     16.97834    19.998241    20.713535      7033.01    6712.8494     6261.173    7895.6858   -366.56421   -931.41074   -0.2544614   -2789.6385 
23601000     236.3129   -3925.0624   -3520.0302   -3925.0624            0    7239.0739    17.078912    20.116703    20.836233    7158.7339    7055.9918    8038.7426    6622.4874    5.6990968    589.05446   -1064.6445   -2764.2507 
23602000    262.16994   -3923.4294   -3474.0791   -3923.4294            0    5299.9451    17.127298    20.173695    20.895264    7219.7503    6107.2199    5457.1298    4335.4858    257.68798   -58.790101     388.6918   -2916.0338 
23603000    237.77626   -3848.4957   -3440.9553   -3848.4957            0    7760.1029    17.106798    20.149549    20.870254    7193.8571    7751.3451    6955.6574    8573.3062   -782.88794    -59.64161   -376.50355   -2626.8039 
23604000    250.37039    -3891.725   -3462.5987    -3891.725            0    6171.2049    17.154802    20.206091    20.928819    7254.5878    4484.3512    8890.6058    5138.6576    605.01095     2313.282   -1131.0064   -2809.6808 
23605000    255.77957   -3893.0272   -3454.6298   -3893.0272            0    5850.3542    17.168094    20.221748    20.945035    7271.4642    4259.2018     7651.221    5640.6397     522.5703    1486.4724   -1413.7436   -2834.2182 
23606000    241.66293   -3915.3251   -3501.1231   -3915.3251            0    5876.1258    17.109112    20.152274    20.873077    7196.7764    4516.6064    6008.0662    7103.7049     240.3102    421.24846   -604.37834   -2884.3791 
23607000    252.01482   -3947.9788    -3516.034   -3947.9788            0    7263.3903    17.053217    20.086437    20.804885    7126.4712    5372.3326    9304.1592     7113.679    1289.4989    1147.3263   -417.20907   -2761.1334 
23608000    251.06858   -3894.5322   -3464.2092   -3894.5322            0    7173.3284    17.117988    20.162728    20.883905    7207.9823    6513.3059    10813.094    4193.5849    192.10865   -1662.0042    349.78417   -2710.1416 
23609000    251.75741   -3933.4679   -3501.9643   -3933.4679            0    6737.5517    17.085261    20.124181    20.843979    7166.7205    7746.8921    5864.5205    6601.2425    1066.1102   -398.15573     533.7292   -2797.7603 
23610000    241.48425   -3893.3978    -3479.502   -3893.3978            0    8211.8158    17.049254     20.08177    20.800051    7121.5047    7662.0259    8235.4962    8737.9252    478.60266   -1214.1367     892.2293   -2626.6241 
23611000    251.24625    -3918.779   -3488.1516    -3918.779            0    6342.1109    17.045593    20.077458    20.795584    7116.9181    5960.9913    6383.8803    6681.4612    819.83025    139.50714    627.24515   -2829.8852 
23612000    251.98657   -3928.4412   -3496.5449   -3928.4412            0    5009.4531    17.081448     20.11969    20.839327     7161.923    4264.6674      5500.41    5263.2818   -407.13625   -537.58521    1782.4566    -2973.311 
23613000    241.89341   -3915.5257   -3500.9286   -3915.5257            0    8831.9825    17.006594    20.031522    20.748005    7068.1808    9087.7376    9184.8889    8223.3209   -487.41306    1348.9376   -1143.4947   -2590.5087 
23614000    257.10704   -3873.1804   -3432.5077   -3873.1804            0    6819.3634     17.05603    20.089751    20.808317    7129.9987    5911.5414    6487.2775    8059.2713    543.24721    1374.6438    774.24238    -2723.405 
23615000    243.66324   -3849.8564    -3432.226   -3849.8564            0    6583.8943    17.076397     20.11374    20.833164    7155.5708    6174.0427    4923.1601    8654.4801    442.61353   -896.08192    1484.7883   -2745.1528 
23616000    242.93954   -3913.6192   -3497.2291   -3913.6192            0    6650.1494    17.064345    20.099545    20.818461    7140.4317    4854.7069    9210.0827    5885.6586    208.16676   -831.16724   -338.63366     -2804.71 
23617000    236.13456   -3907.4096    -3502.683   -3907.4096            0    7640.3463    17.078546    20.116271    20.835786    7158.2732    7116.5673    7856.3097     7948.162   -458.33113   -1470.3432   -1295.8799   -2705.0608 
23618000    247.86077   -3929.5672   -3504.7423   -3929.5672            0    7440.6163    17.034099    20.063918     20.78156    7102.5296    6694.6329    7922.2137    7705.0024    139.60919   -1326.3645   -136.81991   -2734.0202 
23619000    251.33567   -3907.4111   -3476.6304   -3907.4111            0    8826.2747    17.035839    20.065968    20.783684    7104.7068    9596.8832    7539.9301    9342.0107     51.39968     1231.729   -896.16309   -2562.0972 
23620000    245.43814   -3937.5253   -3516.8528   -3937.5253            0    5567.7291     17.10432    20.146629     20.86723    7190.7306    4844.3481    6057.5026    5801.3365     381.9284   -398.56558    69.044496   -2932.9682 
23621000    252.50497   -3923.4851   -3490.7002   -3923.4851            0    6633.2035      17.1172      20.1618    20.882944    7206.9873    4743.9882    6515.9116    8639.7108   -604.35785    144.13878      220.317   -2793.5073 
23622000    245.12628   -3867.5908   -3447.4527   -3867.5908            0    6930.3929    17.120049    20.165156     20.88642    7210.5867    6345.5192    6595.3723    7850.2872   -269.39327    756.32142   -292.90688   -2718.6594 
23623000    236.45403   -3901.3192    -3496.045   -3901.3192            0    9061.4693    17.064742    20.100012    20.818945    7140.9294    9108.9157    7538.3255    10537.167    856.86933     54.73376   -1151.6632   -2552.3553 
23624000    261.37461   -3919.8325   -3471.8454   -3919.8325            0    4783.9319    17.204838    20.265027    20.989862    7318.2519     5578.359     4300.928    4472.5085   -270.88659    -354.4951     1445.273   -2961.2602 
23625000    261.83325   -3876.9241   -3428.1509   -3876.9241            0    8789.8753     17.06633    20.101883    20.820883    7142.9241    7841.2941    9484.5312    9043.8005    347.22882    1046.4453    1154.8204     -2512.49 
23626000    257.65124   -3911.2636   -3469.6582   -3911.2636            0     6756.118    17.107811    20.150742     20.87149    7195.1349    6689.6746    6186.4882    7392.1911    681.58662   -436.25284    259.40971    -2760.714 
23627000    251.66544   -3901.5812   -3470.2352   -3901.5812            0    7601.4205    17.064806    20.100088    20.819024    7141.0107    8053.2001    7353.4107    7397.6507    782.46235   -587.07935    79.746673   -2678.5905 
23628000    255.50605    -3920.027   -3482.0984    -3920.027            0    7760.8967    17.096862    20.137845    20.858131    7181.3282    7282.4656    8645.1594    7355.0651   -949.49916    -518.9114    51.379612   -2669.2818 
23629000    249.56039   -3884.0976   -3456.3596   -3884.0976            0     5596.646    17.168583    20.222323    20.945631    7272.0851    5606.8049    4087.7005    7095.4328   -202.90346    729.68101    536.63268   -2862.8023 
23630000     247.1684   -3927.0722    -3503.434   -3927.0722            0     7371.343    17.110138    20.153482    20.874328    7198.0705    5547.1444    9026.6175    7540.2673   -183.53227   -338.00365   -345.42507   -2729.6164 
23631000    242.23071   -3945.8757   -3530.7005   -3945.8757            0    6085.5907    17.138263     20.18661    20.908641    7233.6252    6180.0706    5833.8707    6242.8306   -578.75356    173.32621    710.56728   -2888.7011 
23632000    251.95056   -3873.6197   -3441.7851   -3873.6197            0    7254.6313    17.146668     20.19651    20.918895    7244.2731    7006.7293    8290.0359    6467.1288   -197.84064   -45.184352   -3108.1086   -2675.3311 
23633000    244.51381   -3895.7041   -3476.6158   -3895.7041            0    6148.6038    17.138458     20.18684    20.908879    7233.8727    5981.6403    6218.8666    6245.3045    938.49702    359.61339    420.98192   -2827.9466 
23634000    242.68208   -3913.9091   -3497.9603   -3913.9091            0    6961.1594    17.054786    20.088285    20.806799    7128.4386    6677.1558    6699.8897    7506.4328   -1578.4869   -896.81217   -2403.3518   -2774.2715 
23635000    235.17579   -3936.5456   -3533.4623   -3936.5456            0     6359.859    17.107175    20.149993    20.870714    7194.3328     6673.027    7225.0558    5181.4943    605.04441   -1330.9515   -267.44122   -2866.1734 
23636000    236.89269   -3872.9824   -3466.9565   -3872.9824            0    7481.3923    17.076692    20.114087    20.833524    7155.9418    7987.7462    7733.5472    6722.8835   -67.611063   -1052.8377   -31.775104   -2686.1829 
23637000     231.8587   -3899.8342   -3502.4363   -3899.8342            0    6482.8697    17.037241     20.06762    20.785394    7106.4613    5958.1153    7612.2726    5878.2213    326.03349    937.24543   -591.70925   -2830.5488 
23638000    257.57849   -3929.4449   -3487.9642   -3929.4449            0    6724.3099    17.081616    20.119887    20.839532    7162.1343    7058.5599    7385.1098    5729.2601    843.65086   -1133.5216    296.27195    -2785.594 
23639000    233.12799   -3945.5486   -3545.9752   -3945.5486            0     7613.569      17.0682    20.104085    20.823164    7145.2722    5217.0746    8675.0535     8948.579    1204.5356    1653.4344    -1217.781   -2752.5921 
23640000    256.03788   -3942.2064   -3503.3662   -3942.2064            0    6895.3231    17.087343    20.126633    20.846518    7169.3402    6089.7015    5926.3962    8669.8716    558.14585    268.19432    947.54341   -2782.4087 
23641000    246.95759   -3954.6583   -3531.3814   -3954.6583            0    6094.7522    17.086519    20.125663    20.845514    7168.3035     7792.253    5877.8852    4614.1185   -1139.6724   -426.75205    511.15696   -2894.2217 
23642000    237.07549   -3910.4957   -3504.1564   -3910.4957            0    6814.0407    17.106806    20.149558    20.870264    7193.8668    6594.0409    4560.0953    9287.9859   -154.71266    630.95097   -168.02087   -2789.2602 
23643000    236.44081   -3894.5093   -3489.2578   -3894.5093            0    7678.3176    17.069675    20.105823    20.824964     7147.125    8810.0916     6451.014    7773.8471     27.56681    1366.9731    125.65464     -2688.92 
23644000    256.74143   -3917.2116   -3477.1655   -3917.2116            0    7999.6518    16.992086    20.014433    20.730306    7050.1069    7617.9805    6684.2048      9696.77   -971.29254    60.965454   -215.04456   -2654.6527 
23645000    272.52476   -3903.0151    -3435.917   -3903.0151            0    7360.2606    16.983186     20.00395    20.719447    7039.0343    7048.9917    7473.3776    7558.4125   -17.954509   -685.23518   -1264.6733    -2680.334 
23646000    244.63698   -3889.8838   -3470.5844   -3889.8838            0    8147.9582    17.003295    20.027635     20.74398    7064.0675    9415.6007    7183.0653    7845.2086   -1268.9678   -752.15568    47.215576    -2631.164 
23647000    235.94281   -3912.5364   -3508.1385   -3912.5364            0    6470.9135    17.059605    20.093962    20.812679    7134.4835    6855.6742    6480.5903     6076.476   -2481.0549   -84.981749     -758.744   -2834.8456 
23648000    238.46457   -3923.3699   -3514.6498   -3923.3699            0    7574.2945    17.031352    20.060683     20.77821    7099.0945    7913.4178    8301.1566    6508.3091    866.92416   -669.51619   -839.69011   -2730.4603 
23649000    265.53728   -3884.3935   -3429.2716   -3884.3935            0    5045.0848    17.052881    20.086041    20.804474    7126.0496    2807.3499    6886.9515     5440.953    -107.2937   -815.76624   -491.57732   -2904.9555 
23650000    244.50019   -3902.7249   -3483.6599   -3902.7249            0    6781.8251    17.015544    20.042063    20.758924    7079.3453    7038.0694    5033.2846    8274.1212    1393.3577   -52.265681    1080.5999   -2783.4705 
23651000    254.67045   -3903.5268   -3467.0304   -3903.5268            0    6917.2146    17.027321    20.055935    20.773292    7094.0552    5806.8037    6549.1189    8395.7212    260.42399   -310.27033    2022.4225   -2751.3787 
23652000    235.39348   -3926.8966   -3523.4402   -3926.8966            0    5864.8047    16.993732    20.016371    20.732313    7052.1551    7276.0802    5222.6614    5095.6726    224.72262    172.58535    46.431979   -2920.2542 
23653000    247.71378   -3934.7703   -3510.1974   -3934.7703            0    6591.7055    17.060741      20.0953    20.814065    7135.9088    6370.7567    7428.8534    5975.5065    113.73768    -447.9586    549.18738   -2824.1992 
23654000    239.83178   -3941.3543   -3530.2908   -3941.3543            0    6293.9983     17.09154    20.131577    20.851639    7174.6247    7427.6694    5990.3187    5464.0068   -560.32743    1275.3185   -297.49016   -2871.7211 
23655000    253.96714    -3946.514   -3511.2231    -3946.514            0    6995.5158    17.013841    20.040057    20.756846    7077.2198    8007.8172    4092.7788    8885.9515    51.082757   -1301.4079    594.69621   -2789.1879 
23656000      237.096    -3952.579   -3546.2046    -3952.579            0    8045.3959    17.022824    20.050639    20.767806    7088.4363    9552.5445     8500.759    6082.8842   -1592.5695    864.17116   -326.47053   -2714.4911 
23657000    245.76419   -3920.1352   -3498.9038   -3920.1352            0    7140.8687    17.003645    20.028048    20.744408    7064.5044    7287.2085    7246.5259    6888.8719   -475.94909   -1305.9611    534.15235   -2763.1904 
23658000    244.77872   -3928.5189   -3508.9765   -3928.5189            0    6618.8196    17.026411    20.054864    20.772182    7092.9182    5195.1679     7823.489    6837.8018   -662.76404    65.637031   -513.12459   -2824.3064 
23659000     246.1282    -3910.173   -3488.3177    -3910.173            0    7845.5902    17.033028    20.062657    20.780254    7101.1903    6448.6207    8308.9716    8779.1782    306.09052   -378.93526    570.78044   -2675.8003 
23660000    253.62626   -3890.2877    -3455.581   -3890.2877            0    5434.2254    17.108294     20.15131    20.872079    7195.7438    4845.5918    5543.5897    5913.4946    1055.6911     672.6121    39.713263   -2885.2996 
23661000    236.45527   -3905.8843    -3500.608   -3905.8843            0    7131.1444    17.090305    20.130122    20.850132    7173.0691    6170.7696    6877.3886    8345.2752    54.607511    10.069263   -440.32677   -2754.6058 
23662000    245.58296   -3922.8076   -3501.8868   -3922.8076            0    5871.9176    17.120762    20.165996    20.887289    7211.4872    6071.0046    6719.2993     4825.449   -1245.0768    899.16875   -106.22563   -2884.3247 
23663000    250.37991   -3933.8703   -3504.7277   -3933.8703            0    7181.8795     17.09664    20.137584    20.857861    7181.0496    7599.6716    7533.8798    6412.0873   -976.92221    710.76973   -1363.8214   -2752.5821 
23664000    243.54848   -3949.7382   -3532.3044   -3949.7382            0    6792.4764    17.079701    20.117632    20.837196    7159.7259    7338.2734    7454.2757    5584.8799   -644.92241    798.11103   -401.49975   -2823.0527 
23665000    257.52702   -3943.3335    -3501.941   -3943.3335            0    7145.0556    17.081991    20.120329    20.839989    7162.6058    5159.8264    7000.1209    9275.2196    648.26313   -273.45672   -97.855282   -2755.5738 
23666000    249.04829   -3908.4323   -3481.5721   -3908.4323            0    6194.2637     17.07534    20.112495    20.831875    7154.2428    7462.0412    5144.1104    5976.6395    1687.1025   -76.187815    -1431.891   -2835.2794 
23667000    235.86598   -3942.4899   -3538.2237   -3942.4899            0    8288.4484    17.083391    20.121978    20.841697    7164.3673    9002.8781    7096.3388    8766.1284    506.33156    448.99548   -105.74836   -2672.2056 
23668000    255.55477   -3913.7242   -3475.7121   -3913.7242            0    5536.6631    17.191084    20.248826    20.973082    7300.7142    5010.1824    4679.3656    6920.4414   -494.90393     39.26594    188.71728   -2886.2046 
23669000     251.2836   -3896.7891   -3466.0976   -3896.7891            0    5997.2379    17.175467    20.230432     20.95403    7280.8365    5403.3119    6430.4501    6157.9517    454.36545    1047.1946    848.25627   -2829.2897 
23670000    248.14298   -3916.9501   -3491.6416   -3916.9501            0    7684.5694    17.117559    20.162224    20.883382    7207.4412    7188.9014    8936.5756    6928.2314   -511.90598   -66.224519    -1456.513   -2683.8924 
23671000    251.73574   -3924.2863   -3492.8198   -3924.2863            0    6560.1482    17.107271    20.150105     20.87083     7194.453    8390.2873    5939.6949    5350.4625   -488.54776   -901.29735    1013.0011   -2804.5047 
23672000    249.01781   -3936.8577   -3510.0498   -3936.8577            0    7302.7902    17.082191    20.120564    20.840233    7162.8569    6753.9875    8318.7392    6835.6439    654.72207   -1193.4848    959.96173    -2747.179 
23673000    250.54113   -3968.5828   -3539.1639   -3968.5828            0    7344.2273     17.10427    20.146571     20.86717    7190.6681    9896.9782    5397.3855    6738.3182    -618.3782   -614.18477     -474.771   -2768.9856 
23674000    245.75147   -3962.8139   -3541.6043   -3962.8139            0    6237.1647    17.116773    20.161297    20.882423    7206.4475    6505.5852    7299.8092    4906.0997    1040.8056   -1109.9561    863.19575   -2886.0867 
23675000    247.07425   -3931.2604   -3507.7836   -3931.2604            0    6448.6928    17.085153    20.124054    20.843847    7166.5846    7047.2924    6688.9827    5609.8032   -20.802525   -2348.1371   -1743.5183   -2833.7837 
23676000    253.89791   -3966.5165   -3531.3442   -3966.5165            0    7587.3329    17.019828     20.04711    20.764151    7084.6942    7935.1339    8678.0993    6148.7656    989.29729    381.03691   -1341.1613   -2747.3982 
23677000    256.69426   -3935.2828   -3495.3177   -3935.2828            0    7792.5697    17.039792    20.070624    20.788506    7109.6534     7115.741    8367.8087    7894.1594   -676.18596    782.60068    89.043358   -2687.3295 
23678000    262.73656   -3943.3495    -3493.028   -3943.3495            0    7147.1423    17.090623    20.130497    20.850521    7173.4702    9162.3921    8209.8818    4069.1532    228.09051   -208.64394   -848.29088   -2745.3104 
23679000    246.68212   -3939.2405   -3516.4358   -3939.2405            0    6375.3227    17.145024    20.194573    20.916889    7242.1893    7294.0621    6515.9123    5315.9937    1451.7509   -1198.9185    1757.5643   -2843.0748 
23680000    253.62693    -3940.882   -3506.1741    -3940.882            0    7400.6485    17.076646    20.114033    20.833468    7155.8839    7530.5073    7285.9514    7385.4868   -258.70743   -150.22571    1385.0925   -2733.8334 
23681000    249.59512   -3912.1955    -3484.398   -3912.1955            0    7644.2121    17.049145    20.081641    20.799917    7121.3679    6321.0267    9375.6403    7235.9694   -1192.3063    215.03406    1917.4655   -2690.4866 
23682000    261.34495   -3924.7104   -3476.7741   -3924.7104            0    7556.1487    17.054138    20.087521    20.806008    7127.6255    8566.8688     7677.307    6424.2702   -355.95562   -59.198952   -83.534202   -2691.3192 
23683000    243.41276   -3958.6945   -3541.4934   -3958.6945            0    9357.2608     17.05289    20.086052    20.804486    7126.0616     9143.364    11060.193     7868.226   -983.23997    -565.9406    1809.8421   -2569.0279 
23684000    254.32113   -3972.2745   -3536.3768   -3972.2745            0    6829.9827    17.073331    20.110129    20.829424    7151.7183    5917.5265    8275.8346    6296.5869    80.868632    677.67991    965.90284   -2824.0063 
23685000    246.91652   -3917.4732   -3494.2668   -3917.4732            0    9191.1158    17.009649    20.035119    20.751732    7071.9898    9671.9857    9776.9643    8124.3973     530.3886    61.850188    620.58575   -2546.3161 
23686000    254.97066   -3925.4335   -3488.4226   -3925.4335            0    6832.0352    17.116085    20.160487    20.881584    7205.5794    6467.0988    7439.3947    6589.6122    904.16861   -398.43959    516.48619   -2770.4714 
23687000    244.64253   -3947.4931   -3528.1842   -3947.4931            0    5994.1136    17.098729    20.140045     20.86041    7183.6821    6039.4602    6375.3444    5567.5362   -173.52108   -214.97208     1526.648   -2900.2011 
23688000    253.45946   -3913.9192   -3479.4983   -3913.9192            0    7395.5797    17.078226    20.115894    20.835396    7157.8707    7595.9622    6730.0644    7860.7125    357.02294   -282.53215   -627.97092   -2707.4723 
23689000    244.01846   -3947.1305   -3528.8912   -3947.1305            0     6769.084    17.042202    20.073463    20.791446    7112.6706    7209.8764    8039.1702    5058.2052   -1152.3654   -171.31949    1124.4111   -2826.7274 
23690000    268.21174    -3910.168   -3450.4623    -3910.168            0    9048.5371     17.03387    20.063649    20.781282    7102.2441    9339.2709    11352.342     6453.998   -728.24959   -637.77341     242.7773   -2513.2243 
23691000    256.71734   -3922.1326   -3482.1279   -3922.1326            0    7429.7821    17.109364    20.152571    20.873384    7197.0944    5963.8273    9247.0135    7078.5055    267.57788   -1297.2917    145.78828   -2702.2813 
23692000    235.91149   -3908.7149   -3504.3706   -3908.7149            0    6197.1305    17.134882    20.182628    20.904517    7229.3454    5433.8083    7527.3094    5630.2737   -73.394147    328.76422   -390.12772   -2850.9911 
23693000    257.04776   -3907.4493   -3466.8782   -3907.4493            0    6989.9065    17.067909    20.103742    20.822809    7144.9059    8543.2153    7130.9794    5295.5249   -431.30008    367.43287    -520.2546   -2738.5221 
23694000    245.59683   -3891.4481   -3470.5035   -3891.4481            0    7415.0925    17.063058    20.098028    20.816891    7138.8161    8739.3331    6288.1878    7217.7565     1386.094    397.93641   -1888.0255   -2698.5011 
23695000    240.97668   -3914.4395   -3501.4138   -3914.4395            0    6211.2359    17.086197    20.125284    20.845121    7167.8985    7183.6866     3709.816    7740.2049   -1311.3244   -156.32977    504.21038   -2852.1132 
23696000      251.003   -3905.2015    -3474.991   -3905.2015            0    6795.4383    16.999261    20.022884    20.739059    7059.0414    5023.0037    7564.1536    7799.1576   -450.94173     274.8993   -802.02458   -2775.4082 
23697000    250.09802   -3887.2312   -3458.5718   -3887.2312            0    7912.2484    17.034575     20.06448    20.782142    7103.1262    7623.4842     6541.572    9571.6891   -935.15423     2074.241   -559.66775   -2638.9276 
23698000    247.91124   -3886.7314     -3461.82   -3886.7314            0    7453.8627    17.108553    20.151615    20.872394    7196.0704    8566.7629    8345.8629    5448.9623     843.2584    699.70572   -919.22656   -2679.5572 
23699000    259.95993   -3887.6836   -3442.1212   -3887.6836            0    7007.4721      17.0645    20.099727     20.81865    7140.6259    8213.3505    7231.0815    5577.9842   -793.37701    841.90726    805.48034   -2712.3721 
23700000    251.58405   -3914.3963   -3483.1898   -3914.3963            0    7040.5001    17.106703    20.149436    20.870137    7193.7364    7998.2114    7419.1072    5704.1818    95.666301    678.69706    837.85772    -2744.548 
23701000    238.04895   -3908.0613   -3500.0536   -3908.0613            0    5809.6466    17.085373    20.124312    20.844115    7166.8605    6246.9451    6522.1656    4659.8291    856.67055   -952.67369   -235.97054   -2892.8217 
23702000    253.50645   -3906.4979   -3471.9965   -3906.4979            0    6200.2174     17.09435    20.134886    20.855067    7178.1639    5646.6185    6050.3927     6903.641   -514.92375   -709.11899    1088.1128   -2822.9196 
23703000    237.77239   -3906.1023   -3498.5686   -3906.1023            0    6807.3195    17.094568    20.135143    20.855333    7178.4383    5322.4231    7396.0028    7703.5327    220.61009   -733.09873   -1104.9014   -2785.9092 
23704000    238.16383   -3906.4602   -3498.2556   -3906.4602            0    8422.6947    17.093674     20.13409    20.854243    7177.3126    7708.5167    6686.8922    10872.675   -547.53835   -332.61993   -331.87345   -2616.6206 
23705000    240.70502   -3936.3677   -3523.8076   -3936.3677            0    7347.9691     17.10546    20.147972    20.868621    7192.1684    6938.0103     8215.713    6890.1839    374.99857   -1570.7599   -7.6080836   -2753.0762 
23706000    240.50494   -3915.7913   -3503.5741   -3915.7913            0    6079.2838    17.139135    20.187637    20.909705    7234.7297    4313.0213    7177.2698    6747.5603    103.33892   -1046.0945   -1.7448453   -2862.1421 
23707000    260.45204   -3959.8302   -3513.4243   -3959.8302            0    6062.4663    17.134892     20.18264    20.904529     7229.358    5315.0239    6734.2642    6138.1107   -69.265182    1246.4045    495.47654   -2874.2417 
23708000    247.98478   -3889.8646   -3464.8272   -3889.8646            0    7738.1934    17.130505    20.177472    20.899176    7223.8061    6891.8915    8305.3614    8017.3274     278.0106    1023.8646   -79.468761   -2649.5946 
23709000     243.8628   -3897.9004   -3479.9279   -3897.9004            0    7823.2366    17.028124    20.056881    20.774272    7095.0589    9990.8911     6523.691    6955.1279   -607.60006    759.40226   -505.31548   -2670.4251 
23710000    247.74208   -3876.1028   -3451.4814   -3876.1028            0     8240.169    17.060922    20.095512    20.814284    7136.1348    7625.6607    8295.3488    8799.4976   -1276.2372    2107.2974   -351.62033   -2593.9006 
23711000    254.73003   -3952.7031   -3516.1045   -3952.7031            0    7770.4818    17.077341    20.114852    20.834317    7156.7586    8779.0256    4961.6748     9570.745   -785.04897    536.84569    368.10086   -2705.0684 
23712000     245.4209   -3910.4928   -3489.8497   -3910.4928            0    8603.1625    17.082954    20.121464    20.841164    7163.8175    9234.4535     9203.987    7371.0468    -127.8996   -240.14561    1160.9779   -2591.0177 
23713000    254.97192   -3902.6856   -3465.6724   -3902.6856            0    6973.9705    17.094465    20.135021    20.855207    7178.3083    4992.9212     8510.174    7418.8162    582.93073     684.9257   -288.26182   -2735.5796 
23714000    241.14682   -3909.8514    -3496.534   -3909.8514            0    7341.2894    17.078651    20.116395    20.835915    7158.4055    7287.1293    7540.3861    7196.3528    108.31573   -610.41009   -890.94414    -2730.118 
23715000    235.16083   -3953.7052   -3550.6476   -3953.7052            0    5783.1195    17.074553    20.111568    20.830915    7153.2534    5539.8223    7404.9875    4404.5487    1167.4719     1696.551    324.12163    -2947.336 
23716000    245.59932   -3935.3173   -3514.3685   -3935.3173            0    5789.4509    17.203265    20.263173    20.987943    7316.2443    6004.4816    5404.1696    5959.7013    591.98323    831.43971    228.71849   -2896.6345 
23717000    232.48892   -3910.7236   -3512.2455   -3910.7236            0    7193.5115     17.01774     20.04465    20.761603    7082.0866    7999.8891    6895.1685     6685.477   -484.27096   -382.56282    30.688848   -2769.2639 
23718000    240.08035   -3883.2495     -3471.76   -3883.2495            0    8397.5525    17.062962    20.097915    20.816773    7138.6952    8404.5014    8940.0015    7848.1547   -1759.4958    1171.5897   -620.61701   -2597.4862 
23719000    245.56601   -3894.3436   -3473.4519   -3894.3436            0    5039.4906    17.101332     20.14311    20.863585     7186.963    4135.5006    4139.2231    6843.7481    769.96833   -1447.4826   -1190.6276   -2945.2403 
23720000    251.31501   -3956.6685   -3525.9232   -3956.6685            0    7949.1233    17.039533    20.070319     20.78819    7109.3295    6863.0702    8583.2938    8401.0059   -1868.5216   -2.5474667    157.45116     -2701.74 
23721000    245.19269   -3940.8153   -3520.5634   -3940.8153            0    5515.1279     17.14308    20.192284    20.914517    7239.7261    4657.6539    4974.2171    6913.5128    120.37973    891.94498    732.37199   -2938.2543 
23722000    246.67578   -3928.3754   -3505.5815   -3928.3754            0    7692.3408    17.003884    20.028329    20.744699    7064.8017    6280.8815    8372.7241    8423.4167   -1382.3408    1975.8397    368.93702   -2713.0174 
23723000    238.37152   -3904.8128   -3496.2522   -3904.8128            0     5674.371    17.062151     20.09696    20.815784    7137.6771    4272.8846    6117.6524    6632.5759   -512.23155    1150.8978   -1005.0586   -2905.5746 
23724000    248.57934   -3929.0932   -3503.0367   -3929.0932            0    7143.9756    17.083738    20.122387     20.84212    7164.8034    7452.5983    7884.1245    6095.2041    347.82505   -300.12402    1481.4633   -2756.5534 
23725000    236.26302   -3916.7991   -3511.8524   -3916.7991            0     6902.592    17.061342    20.096007    20.814797    7136.6619    5978.8736    7092.1676    7636.7349   -1151.9938    -427.5163   -14.693344   -2793.4244 
23726000    242.00564   -3921.3135   -3506.5242   -3921.3135            0     6791.165    17.080819    20.118949     20.83856    7161.1321    6435.4034    7089.6936    6848.3979   -1116.4306    809.41728   -809.17578   -2797.2701 
23727000    267.72519   -3876.1503   -3417.2785   -3876.1503            0     6788.691    17.024759    20.052917    20.770166    7090.8533    6852.1865    6871.2177    6642.6687   -148.37825   -574.81558   -1426.0795   -2715.2408 
23728000    250.70615   -3875.4785   -3445.7767   -3875.4785            0    5952.9191    17.070875    20.107236    20.826428    7148.6319    6024.5687    7539.2392    4294.9495   -1562.2825   -577.34458     255.4809   -2825.1524 
23729000    250.38415   -3901.4186   -3472.2688   -3901.4186            0    4927.4895    17.089837    20.129571    20.849561    7172.4803    6751.8486    5024.2927    3006.3273   -489.73185    525.59183   -589.89028   -2956.8372 
23730000    251.49195   -3892.3297   -3461.2811   -3892.3297            0    6481.8731    17.107371    20.150223    20.870952     7194.579    6007.5815    7019.8208    6418.2171   -214.41427    283.37468   -103.89314    -2781.167 
23731000    253.81789   -3917.2537   -3482.2185   -3917.2537            0    6239.3122    17.049394    20.081934    20.800221    7121.6793    6556.8221    6043.3219    6117.7927    609.75828    -223.1684    261.61402   -2834.1887 
23732000     239.5963   -3910.1357   -3499.4758   -3910.1357            0    7098.6056    17.076378    20.113718    20.833142     7155.548    8416.3296    5582.7916    7296.6957   -553.14322   -1286.9452   -502.62475   -2758.6914 
23733000    248.99716    -3932.756   -3505.9834    -3932.756            0     7531.864    17.064932    20.100236    20.819178    7141.1688    7735.8957    6380.7703    8478.9258    506.66121   -1036.9366    100.93624   -2721.5653 
23734000    248.53508   -3903.2648   -3477.2842   -3903.2648            0    5926.2788    17.075481    20.112661    20.832047    7154.4197    6750.1406    5445.2897    5583.4061    1343.7103   -312.05576    6.0823973    -2858.937 
23735000    257.22906    -3951.287   -3510.4052    -3951.287            0    7083.8176    17.071345     20.10779    20.827001    7149.2225    8353.2427    7473.2486    5424.9614    290.84271   -595.28144     495.7257   -2771.8175 
23736000    248.53554   -3918.1913   -3492.2099   -3918.1913            0    8788.4456    17.046458    20.078476    20.796639    7118.0012    9197.7732    8833.0722    8334.4915   -506.83806   -1983.1194   -183.74871   -2579.8924 
23737000    244.61998   -3915.2293    -3495.959   -3915.2293            0    6206.8539     17.09678    20.137749    20.858032     7181.226    4647.3037    8886.5086    5086.7494    2403.7167   -1216.6044   -341.29216   -2845.9102 
23738000    246.18296   -3912.5931    -3490.644   -3912.5931            0    6760.8834    17.058529    20.092693    20.811365    7133.1325    4882.3322    7861.9275    7538.3906    1673.2129   -509.95914   -911.42289   -2787.3132 
23739000     249.5589   -3939.6346   -3511.8992   -3939.6346            0    7681.0013    17.073086    20.109841    20.829125    7151.4104    7879.5869    8157.2316    7006.1852    588.09216    878.60449   -2214.8849   -2710.8016 
23740000    246.27744   -3909.0786   -3486.9675   -3909.0786            0    5676.5892    17.113582    20.157538    20.878529    7202.4178    3597.9136    6082.0714    7349.7825    827.52508    -394.8514   -957.48971   -2890.6993 
23741000    244.72516   -3928.5442   -3509.0936   -3928.5442            0    8106.8761    17.022724    20.050521    20.767684    7088.3114    7731.4813    9001.1076    7588.0393    1499.2363   -492.80854    -1332.505   -2671.0392 
23742000    254.38818   -3934.8649   -3498.8523   -3934.8649            0    6305.0208    17.116065    20.160464    20.881559    7205.5538    4912.4064    8227.2924    5775.3636    714.10469   -945.70669   -123.17927   -2836.2853 
23743000    249.94806   -3899.0771   -3470.6747   -3899.0771            0    5912.6969    17.071099      20.1075    20.826701    7148.9139    7007.3643    3445.1824    7285.5441   -943.48549    1771.7383   -746.74324   -2854.2194 
23744000    242.21623   -3916.6098   -3501.4595   -3916.6098            0    7657.3657    17.071287    20.107721     20.82693    7149.1497      7992.41    9150.4172    5829.2698   -2166.3947    166.18401   -303.53356   -2703.0794 
23745000    249.22944   -3887.3438   -3460.1731   -3887.3438            0    5931.2813    17.121742    20.167151    20.888485    7212.7263    5769.8431    5448.4472    6575.5537   -875.95244   -619.44198    649.65614   -2836.2603 
23746000    250.12353   -3923.0882    -3494.385   -3923.0882            0    5638.9247    17.094592    20.135171    20.855362    7178.4684    5060.9029    5348.9269    6506.9442    1359.9917    719.93466    1042.2501   -2904.0426 
23747000    249.13389   -3927.8192   -3500.8123   -3927.8192            0     7322.456    17.042939    20.074331    20.792346    7113.5935    5951.3754    7707.3528    8308.6399    1896.4442    2052.2035    604.35225    -2741.148 
23748000    253.34159   -3898.8937   -3464.6749   -3898.8937            0    6639.7161     16.99563    20.018607    20.734629    7054.5185    7742.7411    5070.7788    7105.6283    -545.9623   -49.553782     433.2807   -2781.5615 
23749000    251.77867    -3947.512    -3515.972    -3947.512            0    5962.2786    17.023037    20.050889    20.768066    7088.7024    6220.2127    4102.4685    7564.1546    318.97539   -848.71224     -1029.84    -2899.583 
23750000    259.61558   -3915.0552   -3470.0829   -3915.0552            0    4834.3436     17.03504    20.065027    20.782709    7103.7078    5086.0485    3645.1769    5771.8055    -934.6054   -141.12289   -750.97249   -2969.2435 
Loop time of 524.306 on 64 procs for 250000 steps with 864 atoms

Performance: 82.395 ns/day, 0.291 hours/ns, 476.820 timesteps/s
99.0% CPU use with 64 MPI tasks x 1 OpenMP threads

MPI task timing breakdown:
Section |  min time  |  avg time  |  max time  |%varavg| %total
---------------------------------------------------------------
Pair    | 21.429     | 26.437     | 30.958     |  47.0 |  5.04
Bond    | 0.27508    | 0.28372    | 0.30294    |   1.1 |  0.05
Kspace  | 226.06     | 238.73     | 252.84     |  41.2 | 45.53
Neigh   | 5.1859     | 6.3834     | 7.7023     |  24.3 |  1.22
Comm    | 102.74     | 117.77     | 133.86     |  59.5 | 22.46
Output  | 1.4914     | 1.4928     | 1.503      |   0.2 |  0.28
Modify  | 123.45     | 127.64     | 132.98     |  23.0 | 24.34
Other   |            | 5.569      |            |       |  1.06

Nlocal:        13.5000 ave          19 max          10 min
Histogram: 6 6 9 15 8 8 7 1 2 2
Nghost:        2235.25 ave        2295 max        2183 min
Histogram: 4 5 7 9 10 12 6 7 1 3
Neighs:        4342.55 ave        6818 max        2736 min
Histogram: 5 4 15 7 18 6 3 4 0 2

Total # of neighbors = 277923
Ave neighs/atom = 321.67014
Ave special neighs/atom = 2.0000000
Neighbor list builds = 12595
Dangerous builds = 0

unfix		3
unfix		2
unfix		1

write_data	data.final.${pid}
write_data	data.final.0
System init for write_data ...
PPPM initialization ...
  extracting TIP4P info from pair style
  using 12-bit tables for long-range coulomb (../kspace.cpp:340)
  G vector (1/distance) = 0.37397012
  grid = 24 24 24
  stencil order = 5
  estimated absolute RMS force accuracy = 0.00319442
  estimated relative force accuracy = 9.619901e-06
  using double precision FFTW3
  3d grid and FFT values/proc = 2535 216
Last active /omp style is kspace_style pppm/tip4p/omp
WARNING: Not all mixed pair coeffs generated from mixing. Use write_data with 'pair ij' option to store all pair coeffs. (../write_data.cpp:312)

write_restart   restart.lmp.${pid}
write_restart   restart.lmp.0
System init for write_restart ...
PPPM initialization ...
  extracting TIP4P info from pair style
  using 12-bit tables for long-range coulomb (../kspace.cpp:340)
  G vector (1/distance) = 0.37397012
  grid = 24 24 24
  stencil order = 5
  estimated absolute RMS force accuracy = 0.00319442
  estimated relative force accuracy = 9.619901e-06
  using double precision FFTW3
  3d grid and FFT values/proc = 2535 216
Last active /omp style is kspace_style pppm/tip4p/omp
Total wall time: 0:08:49
