LAMMPS (30 Jul 2021)
Processor partition = 0
  using 2 OpenMP thread(s) per MPI task
using multi-threaded neighbor list subroutines
variable        pid world 0 1
variable        phase world IceIh IceIII

shell cd ${phase}
shell cd IceIh
include Restart.lmp
echo both
log log.lammps
#include		in.partitions
include		in.temp
variable        temperature equal 92.72
variable	tempDamp equal 100.0
include		in.pressure
variable        pressure equal 2057.9
variable        pressureDamp equal 1000.0 # This is 1 ps
include		in.seed
variable        seed equal 745823

units		real
atom_style	full
#include		in.box
read_restart	restart.lmp.${pid}
read_restart	restart.lmp.0
Reading restart file ...
  restart file = 30 Jul 2021, LAMMPS = 30 Jul 2021
  restoring atom style full from restart
  orthogonal box = (0.087142409 0.18908897 0.23440289) to (18.120430 23.440089 21.978793)
  2 by 4 by 4 MPI processor grid
  restoring pair style lj/cut/tip4p/long/omp from restart
  restoring bond style harmonic/omp from restart
  restoring angle style harmonic/omp from restart
  864 atoms
  576 bonds
  288 angles
Finding 1-2 1-3 1-4 neighbors ...
  special bond factors lj:    0        0        0       
  special bond factors coul:  0        0        0       
     2 = max # of 1-2 neighbors
     1 = max # of 1-3 neighbors
     1 = max # of 1-4 neighbors
     2 = max # of special neighbors
  special bonds CPU = 0.003 seconds
  read_restart CPU = 0.009 seconds
include 	in.setup
variable	out_freq equal 1000
variable	out_freq2 equal 10000
variable	out_freq3 equal 1000

timestep	2.0

neigh_modify    delay 7 every 1

include		in.tip4p
# This is TIP4P/Ice

# create groups ###
group ox type 2
288 atoms in group ox
group hy type 1
576 atoms in group hy

# set charges - beside manually ###
set group ox charge -1.1794
Setting atom values ...
  288 settings made for charge
set group hy charge 0.5897
Setting atom values ...
  576 settings made for charge

# ### TIP3P Potential Parameters ###
pair_style lj/cut/tip4p/long/omp 2 1 1 1 0.1577 8.5
pair_coeff 1 1*2 0.000 0.000
pair_coeff 2 2 0.21084 3.1668
bond_style  harmonic
bond_coeff  1 450 0.9572
angle_style harmonic
angle_coeff 1 55 104.52
kspace_style pppm/tip4p/omp 1.0e-5
pair_modify tail yes

thermo          ${out_freq}
thermo          1000
thermo_style    custom step temp pe etotal epair emol press lx ly lz vol pxx pyy pzz pxy pxz pyz enthalpy

restart 	${out_freq3} restart.lmp.${pid} restart2.lmp.${pid}
restart 	1000 restart.lmp.${pid} restart2.lmp.${pid}
restart 	1000 restart.lmp.0 restart2.lmp.${pid}
restart 	1000 restart.lmp.0 restart2.lmp.0


include         in.dump
dump            myDump all atom ${out_freq2} dump.water.${pid}
dump            myDump all atom 10000 dump.water.${pid}
dump            myDump all atom 10000 dump.water.0
dump            myDump2 all dcd ${out_freq2} dump.dcd
dump            myDump2 all dcd 10000 dump.dcd
dump_modify     myDump append yes
dump_modify     myDump2 append yes


variable natoms 	equal  "count(all)"                        # NUMBER ATOMS
variable H      	equal  "enthalpy/v_natoms"                 # ENTHALPY-per-atom
variable Vol      	equal  "vol/v_natoms"                 # volume-per-atom
fix AVG all 		ave/time ${out_freq} 1 ${out_freq} v_Vol v_H file vol_enthalpy.dat
fix AVG all 		ave/time 1000 1 ${out_freq} v_Vol v_H file vol_enthalpy.dat
fix AVG all 		ave/time 1000 1 1000 v_Vol v_H file vol_enthalpy.dat


timer           timeout 23:50:00 every 1000
New timer settings: style=normal  mode=nosync  timeout=23:50:00

fix 		1 all shake 1e-6 200 0 b 1 a 1
Finding SHAKE clusters ...
       0 = # of size 2 clusters
       0 = # of size 3 clusters
       0 = # of size 4 clusters
     288 = # of frozen angles
  find clusters CPU = 0.001 seconds
fix             2 all nph aniso ${pressure} ${pressure} ${pressureDamp}
fix             2 all nph aniso 2057.9 ${pressure} ${pressureDamp}
fix             2 all nph aniso 2057.9 2057.9 ${pressureDamp}
fix             2 all nph aniso 2057.9 2057.9 1000
fix             3 all temp/csvr ${temperature} ${temperature} ${tempDamp} ${seed}
fix             3 all temp/csvr 92.72 ${temperature} ${tempDamp} ${seed}
fix             3 all temp/csvr 92.72 92.72 ${tempDamp} ${seed}
fix             3 all temp/csvr 92.72 92.72 100 ${seed}
fix             3 all temp/csvr 92.72 92.72 100 745823


run             250000
PPPM initialization ...
  extracting TIP4P info from pair style
  using 12-bit tables for long-range coulomb (../kspace.cpp:340)
  G vector (1/distance) = 0.37233125
  grid = 24 27 25
  stencil order = 5
  estimated absolute RMS force accuracy = 0.0030794763
  estimated relative force accuracy = 9.2737513e-06
  using double precision FFTW3
  3d grid and FFT values/proc = 4410 672
Last active /omp style is kspace_style pppm/tip4p/omp
Neighbor list info ...
  update every 1 steps, delay 7 steps, check yes
  max neighbors/atom: 2000, page size: 100000
  master list distance cutoff = 10.8154
  ghost atom cutoff = 10.8154
  binsize = 5.4077, bins = 4 5 5
  1 neighbor lists, perpetual/occasional/extra = 1 0 0
  (1) pair lj/cut/tip4p/long/omp, perpetual
      attributes: half, newton on, omp
      pair build: half/bin/newton/omp
      stencil: half/bin/3d
      bin: standard
Setting up Verlet run ...
  Unit style    : real
  Current step  : 32250000
  Time step     : 2
  Walltime left : 23:49:59.93
Per MPI rank memory allocation (min/avg/max) = 10.21 | 10.22 | 10.23 Mbytes
Step Temp PotEng TotEng E_pair E_mol Press Lx Ly Lz Volume Pxx Pyy Pzz Pxy Pxz Pyz Enthalpy 
32250000    93.909119   -4560.9773   -4400.0203   -4560.9773            0    3284.6828    18.033288       23.251     21.74439    9117.2481    2406.2338    3370.4179    4077.3968    644.67158     164.5118    449.14068   -3963.2701 
32251000    91.784672   -4572.8797   -4415.5639   -4572.8797            0    1452.9321    17.923163     23.28078    22.021318    9188.7304    1959.6937    1385.0601    1014.0425   -141.44832    23.534374    401.26251   -4220.8591 
32252000    90.772966   -4571.5275   -4415.9458   -4571.5275            0    2136.0629    18.044906    23.110781    22.017555    9182.0223    2108.2132     2546.124    1753.8516   -150.17233   -605.05936    508.88509   -4129.9048 
32253000    93.596084   -4579.3359   -4418.9154   -4579.3359            0    1119.9801    18.083075    23.167918    21.996505    9215.3737    23.475378    1695.4163    1641.0486     230.0129   -47.939837   -212.63587   -4268.3937 
32254000    86.024633    -4576.747   -4429.3037    -4576.747            0    2243.7085    17.964613    23.189048    21.976096    9154.8525    2242.5368    2432.5925    2055.9962     77.85067    79.801418   -350.98408   -4129.7369 
32255000    90.032129   -4565.1742   -4410.8622   -4565.1742            0    2536.0585    17.942072    23.320846    21.867517    9149.9003    3367.7488    2736.5603    1503.8665    116.43313   -108.08836     -247.337   -4072.4457 
32256000    93.337073   -4568.3044   -4408.3278   -4568.3044            0    2766.6011     17.88683       23.204     22.04515    9149.7512    2554.9562    3263.7454    2481.1016   -763.35797   -17.756857    68.099794   -4039.1533 
32257000    95.234743   -4578.2633   -4415.0342   -4578.2633            0    2130.2811    18.001428    23.259374    21.867914    9156.1376    1627.3035    2487.6163    2275.9235   -82.708846    240.79578    58.315191   -4130.5716 
32258000    94.738979   -4571.1957   -4408.8163   -4571.1957            0    2016.3664    18.011793    23.256608    21.847655    9151.8344    1369.3885    2836.8137    1842.8972    367.17365    20.111127    12.545486   -4139.6917 
32259000     95.88254   -4566.7179   -4402.3785   -4566.7179            0    2647.2556    18.028256    23.186054    21.855972    9135.8863    2425.8626    2194.0755    3321.8288    419.02512    465.87483    87.886404   -4049.6647 
32260000    96.045634   -4577.3329   -4412.7139   -4577.3329            0    2406.3736    17.912964    23.267247    21.974111    9158.4877    2283.2417    2329.0187    2606.8605    278.54091    172.99896    -69.56279   -4091.3015 
32261000    89.766002   -4569.8895   -4416.0337   -4569.8895            0      2248.79    17.884939    23.258696    22.033363    9165.4459    2499.4522     2162.611    2084.3069    120.90883   -173.00291    92.752855    -4115.441 
32262000    99.955206   -4569.8007   -4398.4809   -4569.8007            0    3144.3485    17.794578    23.358957    21.940283    9119.7592    3279.3421    3037.0076    3116.6958    717.08986   -618.85226    375.58818   -3980.2752 
32263000    97.099722   -4571.8542   -4405.4286   -4571.8542            0    1868.8339    17.803033    23.445754    21.963412    9167.6495    2190.9673    2002.6661    1412.8683    318.01061    -197.5344   -262.57183    -4155.564 
32264000    92.175739    -4585.084   -4427.0979    -4585.084            0    1390.2734    17.894138    23.366453    22.021072    9207.5069    1884.5269    1373.3265    912.96676   -200.90734   -43.635779    99.635732   -4240.4092 
32265000    94.006351   -4577.2399   -4416.1162   -4577.2399            0    2021.3272    18.002655    23.241806    21.904204    9165.0305    2672.5902    1554.2511    1837.1405   -62.746902   -24.759157    442.91915   -4145.9404 
32266000    96.388387   -4579.2739   -4414.0675   -4579.2739            0    1808.0303    17.997422    23.192387    21.973019    9171.6081     2055.726    1329.8816    2038.4833   -535.11218    379.58015     307.1348   -4172.2281 
32267000     95.81688   -4577.1876   -4412.9608   -4577.1876            0    2741.4499    18.058028    23.178397     21.84583    9143.7064    1131.4248    3764.5223    3328.4026    205.19882   -35.735919   -504.71469   -4047.3841 
32268000    88.360507   -4577.5843   -4426.1374   -4577.5843            0    1952.3447    18.002247    23.171847    21.946174    9154.7432    1656.2218    2686.6817    1514.1308    285.28546    240.12007    803.01142   -4165.4749 
32269000    94.580006   -4578.2656   -4416.1587   -4578.2656            0    1076.7395    17.934083    23.424448    21.926699    9211.3187    814.19302     748.7904    1667.2351   -244.97134    944.47953     65.33841   -4271.5121 
32270000    90.421528   -4579.9066   -4424.9272   -4579.9066            0    1964.7711    17.857925    23.470847    21.895365    9177.2367    2677.9152    1719.1659    1497.2322   -415.59937    133.46636   -186.90241   -4161.9611 
32271000    91.408012   -4580.0221   -4423.3518   -4580.0221            0    2544.3205    17.949944     23.39941    21.750346    9135.5394    2246.8527    2533.8799    2852.2289   -575.20936   -212.08051    211.75186   -4084.3657 
32272000     92.60302   -4564.0349   -4405.3165   -4564.0349            0    2245.6973    18.028549     23.24875     21.85988    9162.3767    1626.7617    2420.3767    2689.9534   -432.92097   -56.883026    175.24167   -4105.2378 
32273000    87.406157   -4572.7708   -4422.9597   -4572.7708            0    1956.0018    17.958019    23.198888    21.961347    9149.2301    2477.5504    1626.3989    1764.0559   -55.268704   -358.03029    -188.7792   -4161.9662 
32274000    97.315928   -4562.4697   -4395.6735   -4562.4697            0    2756.3824    18.049311    23.250437    21.796991    9147.2026     3045.176    2263.4366    2960.5345    14.722669    206.33442    148.71159    -4027.965 
32275000    93.980027   -4572.1467   -4411.0681   -4572.1467            0    2511.8959     17.87361    23.274181    21.886756    9104.7512    2635.1161    2618.8608    2281.7107    287.04977   -144.63752   -119.59875   -4077.5299 
32276000    94.723588   -4563.4454   -4401.0924   -4563.4454            0    2718.8412    17.911067    23.213405    21.925251    9116.0121     2379.993    3286.9585     2489.572   -428.81323   -64.093418     133.2091   -4039.6288 
32277000    96.400872   -4574.1774   -4408.9496   -4574.1774            0    1955.8789    17.860816      23.3109      21.9895    9155.3656    1886.0096    1399.6633    2581.9638   -226.64874   -189.95911   -287.59998   -4147.7975 
32278000    91.691723   -4576.4993   -4419.3428   -4576.4993            0    2302.4716    17.917451    23.274645    21.920777     9141.453    2057.3723    2199.2927    2650.7498   -168.61132   -162.79867      393.196   -4112.3803 
32279000    87.134774   -4578.1729   -4428.8269   -4578.1729            0    1975.1382    17.962688    23.189996    21.971457    9152.3131    2234.4533    1505.9868    2184.9745    381.46112   -101.42955   -17.363844   -4165.1912 
32280000    94.832782   -4569.7477   -4407.2075   -4569.7477            0     2294.508     17.87228    23.406904    21.893248    9158.7061    2333.2841    1965.3258    2584.9141   -523.78653   -104.16657   -139.51919   -4100.7293 
32281000    96.817727   -4570.1153   -4404.1731   -4570.1153            0    1729.3046    17.895881    23.369632    21.930878     9171.935    1809.3343    2007.9415    1370.6379   -542.19472    138.47343    144.56449   -4172.8556 
32282000    92.938604   -4569.4627   -4410.1691   -4569.4627            0    1710.7449    17.819212    23.558444    21.842601    9169.3687    2121.6524    376.48846    2634.0938    24.086718    693.16491    260.68303   -4181.3983 
32283000    92.096459   -4571.1505   -4413.3003   -4571.1505            0    2377.9054    17.874599    23.431115     21.88162    9164.4987    2415.7098    2125.0434     2592.963    660.96594   -309.42845    416.09639   -4095.4818 
32284000    87.344007   -4572.7936   -4423.0889   -4572.7936            0    2843.5104    17.876089    23.299514    21.892495    9118.3157    2574.4655     3113.197    2842.8686    502.15796    69.268426    -601.0558   -4044.9553 
32285000    89.786517    -4581.235    -4427.344    -4581.235            0    2078.6985    17.969949    23.419486    21.749487    9153.2055    1528.1674    2858.5979    1849.3303   -186.59175    -15.08137    275.61095   -4149.8583 
32286000    90.134614   -4577.1203   -4422.6327   -4577.1203            0    1542.9342    17.889637      23.3233    22.000976    9179.8048    2548.2169    1566.1643    514.42139   -296.61324    -107.5871   -555.20369   -4216.0676 
32287000    95.193451   -4577.8565   -4414.6981   -4577.8565            0    1527.6821    17.922114    23.420819    21.905981    9195.0488    2404.3285    816.35338    1362.3645   -699.92303   -241.52548    707.12753   -4209.8354 
32288000    93.824995   -4575.6528     -4414.84   -4575.6528            0    2585.2028    17.865186    23.410276    21.866307    9145.1223    2975.3813    1664.5763    3115.6508   -476.17425   -151.84912    234.07427   -4070.0457 
32289000    92.170458   -4571.7219   -4413.7449   -4571.7219            0    2007.4626    17.831916    23.443429    21.891441    9151.5256    1442.2847    2564.7875    2015.3157   0.77598875    50.101891    212.24196   -4145.8176 
32290000    93.698582   -4577.3456   -4416.7494   -4577.3456            0    2504.2432    17.854298    23.410952    21.832182    9125.5488    2567.6601    2198.8973    2746.1723     262.4645      165.017    535.65336   -4083.4678 
32291000    88.965907   -4569.9103   -4417.4258   -4569.9103            0    2159.9682    17.795786    23.354385    21.962779    9127.9424    2688.8223    1664.8647    2126.2176   -514.87073    309.92942    129.42493   -4129.8872 
32292000    91.448219    -4574.824   -4418.0849    -4574.824            0    1621.2827    17.900169    23.351686    21.972498    9184.4851    1896.5401    1413.9025    1553.4056   -495.00387   -418.87089    218.52591   -4200.9201 
32293000    95.236196   -4572.6048   -4409.3733   -4572.6048            0    2779.6268    17.901699    23.276626       21.897    9124.2862    2813.9823    2897.0483    2627.8497   -1199.4378   -161.09256   -15.650521   -4039.4929 
32294000     92.03359   -4570.9771   -4413.2347   -4570.9771            0     1915.229    17.859544    23.375587    21.961791      9168.55    3219.9837    363.65174    2162.0515    293.29081   -203.69403   -416.14104    -4157.142 
32295000      88.0748   -4582.8067   -4431.8495   -4582.8067            0    1782.5299    17.950071    23.259183    21.939649     9159.891    1500.8958     2509.457    1337.2369    102.21874   -133.96821   -40.321796   -4193.7256 
32296000    94.855847   -4571.5319   -4408.9522   -4571.5319            0     2826.085    17.934522    23.258242    21.855264     9116.387    1819.5514    2899.1422    3759.5614     691.4505    37.010912   -697.24578   -4033.2153 
32297000    89.105784   -4573.8995   -4421.1753   -4573.8995            0    3136.0778    17.937139    23.257355    21.868005    9122.6848    3173.7774    2386.0005    3848.4556     440.8576    -582.1249      41.6421   -4003.9358 
32298000    94.593886   -4576.9096   -4414.7789   -4576.9096            0    2024.7905    17.977108    23.342624    21.842339    9165.7634    2004.1685    1873.7836    2196.4194   -137.13146    528.30413   -242.68162   -4144.1186 
32299000    95.835385   -4574.7962   -4410.5376   -4574.7962            0    1651.2684    17.964104    23.391547    21.826034    9171.4779    1609.3729    1971.9589    1372.4734   -236.15479   -267.72865    -411.3783   -4189.6696 
32300000    91.521364    -4577.123   -4420.2585    -4577.123            0    1197.6898    17.885106    23.404365    21.966669    9195.0181    1550.3989     1269.645    773.02534    -171.1303   -62.556527    31.572342   -4259.6484 
32301000    95.618022   -4572.3574   -4408.4714   -4572.3574            0    1407.9035    17.982573    23.448468    21.829573    9204.7407    2064.1125   -247.21423    2406.8121    253.77884   -1.1053464    283.66108    -4219.472 
32302000    93.925068    -4578.401   -4417.4167    -4578.401            0    1930.0765    18.016573    23.271462    21.860313    9165.4169    2219.2547    1648.5282    1922.4467   -106.31141    299.20156    112.25642   -4159.4268 
32303000    92.620964   -4579.6823   -4420.9331   -4579.6823            0    2494.9292    17.962601    23.165413    21.947297    9132.5134    2146.4004    3372.5106    1965.8767    186.13255   -664.33294    141.79733   -4088.6376 
32304000    96.641251   -4573.6836   -4408.0438   -4573.6836            0    2468.2997    18.032597    23.288645    21.777515    9145.5712    2586.2853    2381.8796    2436.7342   -196.45553   -79.257006    396.82391    -4078.825 
32305000    91.322932   -4572.2075   -4415.6831   -4572.2075            0     1802.559     17.98436    23.285141    21.918914    9178.9481    295.27445    2588.6824      2523.72   -47.344875     332.5071    313.74755   -4174.3826 
32306000    96.788601   -4568.2717   -4402.3793   -4568.2717            0    2049.6251    17.866889    23.282619    22.022365    9161.0389    2617.3467    1222.2441    2309.2846    246.40351    62.592364    231.15591   -4128.5405 
32307000    96.264968    -4580.525   -4415.5301    -4580.525            0    2024.4991     17.90103    23.179617    22.097988    9169.3177    1592.3631    3198.2901    1282.8441    74.221307   -357.82235   -126.82092   -4144.8038 
32308000     90.70022   -4571.1053   -4415.6482   -4571.1053            0    1932.9784    17.935974    23.297271    21.975623    9182.7173    2065.2844    2140.0072    1593.6437   -12.314881    350.45108    169.69899   -4156.7828 
32309000    89.739793   -4566.8709     -4413.06   -4566.8709            0    1782.7976    17.969911    23.321563    21.870697    9165.7118    1116.1551    2054.9048     2177.333   -324.53332    -241.2884   -193.21647    -4174.749 
32310000    87.941496    -4577.624   -4426.8953    -4577.624            0    1798.6602      18.0037    23.266086    21.874647    9162.7564    1451.7797    2956.4328    987.76806     -73.4368    195.41766     590.0169   -4186.5414 
32311000    88.993221   -4568.4742   -4415.9429   -4568.4742            0    2495.5743    18.005001    23.348829    21.739243    9139.0842    2176.6161    1860.4331    3449.6739    426.69815    178.97804    362.48877   -4083.3224 
32312000    92.255305   -4568.2375    -4410.115   -4568.2375            0     1476.082     18.06221    23.295563    21.842351    9190.5917      574.601    1843.4388    2010.2061   -279.55054   -201.09268   -10.197481   -4212.2679 
32313000    97.989337   -4566.7581   -4398.8077   -4566.7581            0    2683.6827    17.919255    23.282096    21.862041    9120.7957    2692.5042    1981.0029    3377.5412    348.93097    159.03426   -247.24864   -4041.8311 
32314000    90.859978   -4570.5734   -4414.8425   -4570.5734            0    3099.3392    17.855696    23.294831    21.897718    9108.2553    2809.3338    2181.6039    4307.0798    81.220914   -203.00916    678.40719   -4003.1431 
32315000    93.848284   -4584.1874   -4423.3346   -4584.1874            0    2865.2539    17.834167    23.517905    21.730506    9114.2579      3112.91    2073.7019    3409.1499    52.865608   -288.27774   -106.56026   -4042.4791 
32316000    96.749872   -4571.1568   -4405.3308   -4571.1568            0    1910.8252    17.810207    23.561659    21.843619    9166.4136    2789.0099    928.45375    2015.0119    193.63008    223.91802   -175.40402   -4149.8865 
32317000    88.322138   -4580.5571    -4429.176   -4580.5571            0    2323.2982    17.920542    23.425016    21.788815    9146.7048     1526.243    2002.8074    3440.8443    -542.7794   -60.446887    365.44043   -4119.2589 
32318000    93.368077   -4577.8916   -4417.8619   -4577.8916            0    2542.2812    17.900002    23.304756    21.927799    9147.2946    2657.5241    2397.4873    2571.8323   -296.28479   -306.98166    96.239332   -4078.7116 
32319000    87.694428   -4579.4734   -4429.1682   -4579.4734            0    2159.5034    17.948016    23.328393    21.852838    9149.7475    2637.2787    1794.0893    2047.1422    151.10814    902.70481    84.132384   -4141.0047 
32320000    93.938704   -4575.6127   -4414.6049   -4575.6127            0     2792.038    17.834004    23.339351    21.983316    9150.2053     2995.954    2236.1308     3144.029   -596.57663   -205.19852    358.92895   -4042.0176 
32321000    89.855793   -4570.8718    -4416.862   -4570.8718            0     2058.804    17.818553    23.279561     22.07935    9158.6931    2655.0227      2183.02    1338.3694    564.56892    195.53274    -96.85787   -4141.8673 
32322000    98.624461   -4564.6134   -4395.5744   -4564.6134            0    2127.2582     17.83198    23.320155    22.016577    9155.4734    2315.6905    2467.5318    1598.5524   -306.64597    69.567571    277.43505   -4111.5361 
32323000    87.190508   -4576.1089   -4426.6673   -4576.1089            0    2029.4506    17.953667    23.215164    21.947874    9147.8149    1834.3456    2079.9145    2174.0918    902.73922    543.89509    517.99977   -4155.9153 
32324000    95.526571   -4581.3159   -4417.5866   -4581.3159            0    1856.4247    18.028151    23.227174    21.888628    9165.7098    1228.2587     2577.566    1763.4495     160.4778   -61.679679    258.78584   -4169.4337 
32325000     91.77358   -4575.7932   -4418.4964   -4575.7932            0    2273.3757    18.105636    23.042177     21.93117    9149.5365    1608.4249    2553.7604    2657.9417   -194.03699    275.97067    206.30847   -4115.1449 
32326000    90.207225   -4573.4419   -4418.8298   -4573.4419            0    2253.2775    17.927588    23.400777    21.796426    9144.0253    2230.9697    1693.5165    2835.3464    946.41296   -542.63513     163.9666   -4118.3412 
32327000    93.569429   -4581.5948     -4421.22   -4581.5948            0     2630.083    17.933106    23.331484    21.849702    9142.0457    2194.2305    3653.2732    2042.7452    58.502283   -23.485644    211.80336    -4070.558 
32328000    94.018835   -4561.0034   -4399.8584   -4561.0034            0    1746.4028    17.852062    23.351379    22.008673    9174.7613    2003.5716    1176.0486    2059.5884   -339.93909   -334.03703    112.46988   -4166.1818 
32329000    91.760036   -4573.3567   -4416.0831   -4573.3567            0    2934.2963    17.902004    23.244315    21.934928    9127.5582    2438.6223    4047.4648    2316.8018    407.01356    89.141055    262.77571   -4025.4811 
32330000    94.644998   -4564.1026   -4401.8843   -4564.1026            0    2162.8101    17.987826    23.400195    21.742012    9151.6184    2538.4149    1516.7736    2433.2417    374.52923   -333.13452    596.83192   -4113.2206 
32331000    91.306665   -4569.8654   -4413.3689   -4569.8654            0    2793.3252    17.943909    23.206144    21.904982    9121.4302    2549.0897    3376.6862    2454.1998    -383.8296   -559.14022    121.01263   -4041.7821 
32332000    90.818459   -4580.2667   -4424.6069   -4580.2667            0    1072.2418    18.072357    23.366586    21.829491    9218.3602    847.20375    1326.4722    1043.0495      292.142    240.41891    29.498665   -4280.4544 
32333000    89.592125   -4575.6234   -4422.0656   -4575.6234            0    2290.6143    17.948942    23.316322    21.787671    9118.2125    2467.6806    2595.7012    1808.4611   -570.99525   -387.77937   -101.89925   -4117.4602 
32334000    98.263015   -4568.4851   -4400.0657   -4568.4851            0    2297.3588    17.902918    23.328439    21.901404    9147.0584    2313.7909    1813.9324     2764.353    269.62778   -190.90467    908.43488    -4093.597 
32335000    94.830995   -4578.9953   -4416.4582   -4578.9953            0    2215.9458    17.764676    23.401776    21.996661    9144.5616    2065.0571    2139.1445    2443.6357    249.17079    -196.2116   -201.18239   -4120.9307 
32336000    89.966258   -4568.0168   -4413.8177   -4568.0168            0    1940.6952    17.944462    23.388672    21.872045    9179.6342    1905.3661    1467.1607    2449.5586   -422.83838    319.82099   -270.23186    -4154.006 
32337000    90.810276   -4576.9452   -4421.2995   -4576.9452            0    1827.7564    17.756831    23.337654    22.117972    9165.7489    2125.8229    2130.1711    1227.2753    587.69675    -328.8355    125.96002   -4176.9777 
32338000    96.774667   -4571.2523   -4405.3839   -4571.2523            0    2152.8461     17.93069    23.250145    21.969048    9158.7014    2172.8396    2693.4249    1592.2739    227.23919     218.0505    246.61727   -4117.8276 
32339000    85.465426   -4575.4179   -4428.9331   -4575.4179            0    1023.9912    17.973989    23.392898    21.917336    9215.4437    1067.1425    1571.3438    433.48727    156.27382   -417.72376   -104.80909   -4291.3109 
32340000    90.658737    -4569.747    -4414.361    -4569.747            0    1726.9558    17.955803    23.292134    21.959636     9184.156    1948.8513    1487.1446    1744.8715   -287.55784   -196.65442    522.93531     -4183.05 
32341000    88.643164   -4580.6858   -4428.7544   -4580.6858            0    1527.5036    18.125788     23.31424    21.760249    9195.6413    1324.4143    970.57692    2287.5196    73.820218   -357.02106    994.59344   -4223.9025 
32342000    94.031356   -4571.1386   -4409.9721   -4571.1386            0    1738.9025    17.914464    23.302244    22.011183    9188.5065    1682.3999    2135.9329    1398.3746   -141.14186   -283.47245    210.22301   -4176.9506 
32343000    90.549737   -4582.0651   -4426.8659   -4582.0651            0    819.71016    18.023391    23.384257    21.896369    9228.5228    798.11298    107.70148     1553.316    724.94264    535.93201    91.116425   -4316.5423 
32344000    95.121353   -4580.3434   -4417.3087   -4580.3434            0    1621.4397    17.878373    23.414618    21.934565    9182.1437    1861.0859    793.12287    2210.1104    -323.6082   -320.39997    540.22564   -4200.1782 
32345000    90.834111   -4578.4913   -4422.8048   -4578.4913            0    2092.9262    17.830064    23.387107    22.011783    9178.7733    2821.1067    1159.2628    2298.4092   -1102.7163    208.95127   -7.9399294   -4142.6394 
32346000     96.80372   -4576.5371   -4410.6188   -4576.5371            0    1760.3965    17.854998    23.477509    21.898805    9179.7788    1548.9016    1632.8192    2099.4688   -36.712856     243.1776    517.59918   -4174.9411 
32347000     94.05503   -4575.7157   -4414.5086   -4575.7157            0    1863.9994    17.828493    23.536432    21.888863    9184.9851     2346.676    1489.1186    1756.2035   -101.06558    581.59572   -187.47052   -4164.8191 
32348000    90.158301   -4581.5912    -4427.063   -4581.5912            0    2164.4766    17.875363    23.526338    21.782387     9160.405    2313.5265    966.42832     3213.475   -290.41244    -429.3197    535.67281   -4137.8995 
32349000    95.855848   -4577.2288   -4412.9352   -4577.2288            0    1738.9963    17.896038    23.442054    21.854803    9168.5242    2126.3792    1989.2507    1101.3591   -99.825412    -373.5775   -221.51407   -4180.4079 
32350000    92.839766   -4584.8046   -4425.6804   -4584.8046            0    1481.6883     17.96857     23.30909    21.898312    9171.6922    1076.2607    903.31322     2465.491    293.67676    356.06996    461.57411   -4227.4902 
32351000     91.68566   -4585.1783   -4428.0322   -4585.1783            0    1996.9645    17.830502    23.528636    21.880608    9179.5147    2608.2576    871.00642    2511.6294   -615.40256   -443.48569    305.85949    -4160.691 
32352000    95.819225    -4575.385   -4411.1541    -4575.385            0    2010.0291    17.855025       23.451     21.89018    9165.8167    2265.4998    1644.4942    2120.0934    263.83566   -177.92658    237.18674   -4142.4654 
32353000    94.875561   -4570.4604   -4407.8469   -4570.4604            0    2531.5062     17.83034    23.394541    21.892855    9132.2239     1674.082    2762.0072    3158.4294    76.980613    59.528511    445.49012   -4070.6905 
32354000     92.57338   -4575.3194   -4416.6518   -4575.3194            0    2426.8984    17.895913    23.362011    21.881702     9148.401    2994.2819    2472.6347    1813.7785   -152.01981    96.949826    -130.1855   -4092.8549 
32355000    92.323711   -4566.2642   -4408.0245   -4566.2642            0     2609.717    17.881798    23.353463    21.900942    9145.8754    3296.2065    2670.8165    1862.1279    -352.6008   -508.00915    297.97529   -4059.9321 
32356000    92.385765   -4584.0827   -4425.7366   -4584.0827            0    2537.0906    17.958619    23.155583    21.976514    9138.7638    2137.2668    3859.2027    1614.8024    -148.3699    219.40389    179.17289   -4087.5945 
32357000    90.643242   -4578.9018   -4423.5424   -4578.9018            0     2089.202    17.870458    23.395407    21.932945    9169.8714    2918.8608    2551.4895    797.25561   -525.21753    209.39024   -467.79472   -4144.1468 
32358000    94.623153   -4577.9659   -4415.7851   -4577.9659            0    2823.9734    17.832759    23.292475    21.960527    9121.7241    2695.1748    2962.0386    2814.7069   -326.78437    264.48626   -195.97708   -4040.1091 
32359000    94.232268   -4580.4385   -4418.9276   -4580.4385            0     1861.579    17.796606    23.409372    22.009348    9169.2568    1966.2227    1571.0137    2047.5005   -45.967264   -267.95032   -290.70776   -4169.9894 
32360000    93.331047   -4577.8308   -4417.8646   -4577.8308            0    2441.8434    17.877686    23.280878    21.970059    9144.1193    2096.9531     2348.787    2879.7901   -1202.0047    238.05043    14.341319   -4092.2262 
32361000    93.823328   -4573.4968   -4412.6869   -4573.4968            0    2231.4206    17.930457    23.259689    21.955824    9156.8273    1843.2438    2014.8141    2836.2038    -57.90723    189.26735    291.29016   -4114.6964 
32362000    90.875215   -4572.7758   -4417.0187   -4572.7758            0    934.23533    17.933416    23.279092    22.060185    9209.5455    473.16231    790.40669     1539.137   -88.791014   -117.20959    210.70555   -4291.5399 
32363000    94.030195   -4578.7223   -4417.5578   -4578.7223            0    1921.6097     17.93514    23.326011    21.876883    9152.3095    1271.6748    2391.1476    2102.0066    566.05987     310.6534    -277.8034    -4161.067 
32364000    93.498686   -4563.3721   -4403.1186   -4563.3721            0     1779.257    17.887516    23.400617    21.926055    9177.7841    1512.1728    1457.6923    2367.9059   -370.81584    203.75933    -281.4769   -4164.9676 
32365000    95.284274   -4568.8091   -4405.4951   -4568.8091            0    2498.8221    17.925574    23.346684    21.867624    9151.6597    2408.1089    1492.0638    3596.2938    373.47167   -283.34071    115.10702   -4071.9834 
32366000    97.413748   -4589.6299   -4422.6661   -4589.6299            0    1820.8888    17.983057    23.214909    21.959147    9167.3957      1780.29    2316.7047    1365.6716   -133.90064   -246.38962   -89.603616   -4179.2186 
32367000     89.20731   -4580.6999   -4427.8017   -4580.6999            0    2278.0217    17.867915    23.441771    21.844038    9149.4971    2729.2016    2451.1385     1653.725    628.42205    164.10791    68.949007   -4123.8315 
32368000    91.332865   -4579.9637   -4423.4223   -4579.9637            0    2284.3887    17.905037    23.485427    21.730847    9137.9829    2910.0162    1464.0211    2479.1287    521.49964    141.97698   -13.723666   -4118.9861 
32369000    96.913603    -4576.637   -4410.5304    -4576.637            0     3000.403    17.793358      23.3341    21.970327    9121.9035    4068.6512    3278.6491    1653.9087    451.46507    175.81222   -16.604041   -4011.3759 
32370000    90.690036   -4576.5514   -4421.1118   -4576.5514            0    1969.3593    17.928671    23.342002    21.900387    9165.1165    2131.6857    2304.9148    1471.4773    291.99452   -74.376596    62.921466   -4157.8797 
32371000    93.056739   -4580.8862   -4421.3901   -4580.8862            0    2048.4929    17.909698    23.473812    21.804773      9166.92      1608.56    1741.7563    2795.1626    6.0447463   -45.886347    51.959574   -4147.5268 
32372000    94.445319   -4567.8612   -4405.9852   -4567.8612            0    1156.9279    17.954354    23.583477    21.738191    9204.5172    1557.3382    215.68802    1697.7574    321.14901    385.67171   -304.55909    -4250.681 
32373000    87.697587   -4578.4217    -4428.111   -4578.4217            0    2425.1936    17.991707     23.19453    21.909373    9142.9825    2944.2087    2610.4718    1720.9002     325.3408   -42.815177   -390.18395   -4104.7332 
32374000    96.503738   -4576.0433   -4410.6392   -4576.0433            0    2081.0801    17.982236    23.269354    21.927109    9175.0702    1736.0596    2336.9094    2170.2714   -638.96863   -14.238727    115.12346    -4132.172 
32375000     96.27912   -4568.1338   -4403.1147   -4568.1338            0    2087.6274    18.058424    23.269295    21.876389    9192.6069    2289.4333    2529.0694    1444.3796   -391.33824   -247.76676   -14.925358   -4123.2374 
32376000    90.039673   -4572.5083   -4418.1833   -4572.5083            0    1740.7976      18.1093    23.228506    21.843259    9188.4101    1205.9398    2388.9816    1627.4714   -354.31473    39.312946    731.26333   -4184.9103 
32377000    94.614811    -4574.574   -4412.4075    -4574.574            0    2170.1904    17.943239    23.291408    21.951665    9174.1123    1777.4555     2234.432    2498.6835      87.0574    136.31514   -225.29939   -4122.0468 
32378000    90.323924   -4569.1965   -4414.3844   -4569.1965            0    1833.1204    17.826259    23.517403    21.893689    9178.4321    1748.1922    939.08622    2812.0827    225.54961   -78.781271     47.10015   -4169.0065 
32379000    95.201646   -4568.9719   -4405.7995   -4568.9719            0    1929.3556    17.865436    23.437488    21.928484    9181.9156    1545.9698    2083.9943    2158.1026    258.38597    -623.2474   -29.569267   -4147.4418 
32380000     89.59705   -4578.4818   -4424.9156   -4578.4818            0    2711.4869    17.851989    23.309079    21.969995    9142.0099    3027.2684     2764.257    2342.9354   -564.81598    493.13283    -95.04851   -4063.4016 
32381000    89.424992   -4579.3011   -4426.0297   -4579.3011            0    2695.3769    17.887141    23.247186    21.964665    9133.4721    3360.4166    2864.1892     1861.525   -92.576086   -427.11595    41.529793   -4066.9992 
32382000    98.053694   -4571.3791   -4403.3184   -4571.3791            0    1877.5008    17.863627    23.438683    21.883809    9162.7484    2265.9842    1926.8811    1439.6371    193.87085    89.639159    544.54736   -4152.4293 
32383000    89.267447     -4574.09   -4421.0887     -4574.09            0    2535.4868    17.816483    23.243695    22.105969    9154.5438    2134.9426    3400.4316    2071.0862   -753.30108   -149.74161   -387.22011   -4082.5768 
32384000     90.61617   -4581.0902   -4425.7772   -4581.0902            0      2057.82    17.919411    23.327593    21.889038    9149.9837    2397.5704    2103.0995    1672.7902   -525.32993    324.87745   -88.545953   -4151.1753 
32385000    88.163605   -4581.7402   -4430.6308   -4581.7402            0    1110.1976    18.105509    23.204953    21.892233    9197.7477    549.68691    1486.8029    1294.1029   -264.06267    -6.389409   -295.26928   -4281.7092 
32386000    93.802872    -4577.134   -4416.3591    -4577.134            0    2248.2291    17.997869    23.148081    21.989545     9161.199    909.25804    3106.9514    2728.4778    75.142371   -94.530885     96.83303   -4115.9806 
32387000    91.534115   -4578.1662   -4421.2799   -4578.1662            0    2701.9467    17.949265    23.164717    21.918154    9113.3416    2140.6815     2884.561    3080.5976    216.43384    381.15361    36.466258   -4062.1675 
32388000    93.607328   -4576.7042   -4416.2645   -4576.7042            0    2318.5061    17.962456    23.206093    21.992295    9167.2339    2212.1214    2648.8248     2094.572    342.37865    179.44316    410.27346   -4106.2925 
32389000    88.172433   -4586.3306   -4435.2061   -4586.3306            0    1962.9394    17.996686    23.210554    21.894821    9145.7525    1755.9887    2187.8893    1944.9404   -18.325808    229.86431   -214.21987   -4173.3864 
32390000    92.221618   -4575.1845   -4417.1198   -4575.1845            0    2554.2438    18.005017    23.117582    21.966794    9143.2923    2016.2355    2700.8921    2945.6037    131.67132   -29.240157    317.26304   -4076.5228 
32391000    86.218235   -4573.6709   -4425.8958   -4573.6709            0    2142.1213    17.853895    23.410402    21.877926    9144.2481    2255.5215    1237.4656    2933.3767   -218.79527    277.64868   -91.783648   -4140.2236 
32392000    95.014728   -4585.8051   -4422.9532   -4585.8051            0    2285.2239    17.794651    23.455703    21.908561    9144.3277    2430.9613    2162.2068    2262.5036   -321.22171     329.4973   -625.16624   -4118.1942 
32393000    90.683013    -4578.843   -4423.4154    -4578.843            0    2247.7509    17.819645    23.372278    21.968558    9149.5902    2712.5944    1949.8604    2080.7978   -77.590277    89.881889    235.33059   -4123.4814 
32394000    87.745661   -4571.8712   -4421.4781   -4571.8712            0    1591.0121    17.990002    23.330931    21.930815    9204.8787    759.27878    1173.2137    2840.5437    138.68856    565.10967   -18.339999   -4207.8948 
32395000    92.161719   -4565.0608   -4407.0988   -4565.0608            0    2595.4155    17.945617    23.261954    21.941695    9159.5628    2547.3636    3023.6676    2215.2154   -299.40525   -329.54315    387.46504   -4060.3958 
32396000    86.698576     -4571.43   -4422.8316     -4571.43            0    2295.8631    17.780332    23.335997    22.028483    9140.0972    2247.3035    2656.2301    1984.0557    251.18641    184.88055   -333.12018   -4116.7955 
32397000    87.508451   -4577.0652   -4427.0787   -4577.0652            0    1992.9836    17.941727    23.393523    21.851441    9171.4915    1939.9405    1811.3859    2227.6245    69.501905   -66.897035   -161.93745   -4160.5036 
32398000    90.624123   -4584.9201   -4429.5935   -4584.9201            0    810.23952    17.784348    23.479349     22.05182    9208.0661    1726.5689    138.68511    565.46461    1076.7924    -473.9563    449.91711   -4320.7862 
32399000    95.919425   -4571.0275   -4406.6249   -4571.0275            0    1640.0745    17.952376    23.456989    21.837692    9196.0415    754.60147     1096.545     3069.077   -342.70074    125.79498    483.91324   -4186.6665 
32400000    91.715457   -4577.9882   -4420.7911   -4577.9882            0     2136.509    17.956438    23.195207    22.005864    9165.5151    2512.4532    2964.5332    932.54071    221.11241   -431.69011   -277.34967   -4135.2047 
32401000    92.595451   -4570.0933   -4411.3878   -4570.0933            0    1188.6699     17.85924    23.385408     22.03808    9204.1076    1126.3459    1486.6958    952.96807   -962.62852   -61.331247    93.333359   -4251.8297 
32402000    87.094163   -4577.6269   -4428.3505   -4577.6269            0    2063.5075    17.929359    23.308452    21.913205    9157.6511     2458.647    2951.4482    780.42725   -486.43253    192.63555   -241.05584   -4152.7588 
32403000    93.268735   -4573.1069   -4413.2474   -4573.1069            0     2234.242    17.805771     23.33771    22.041908     9159.425    3672.8053    1263.4745    1766.4461   -681.34267    83.018029     670.1718   -4114.7956 
32404000    90.456501   -4579.9128   -4424.8735   -4579.9128            0    2294.3822    17.747908    23.373453    22.010846    9130.7569    2732.8024    1868.3453    2281.9989    279.34859   -928.34118    178.27411   -4119.3473 
32405000    92.582733   -4577.7741   -4419.0904   -4577.7741            0    1820.2733     17.92894    23.350009    21.894454     9165.914    1636.4983    1646.3886    2177.9329    166.23376   -282.32168    179.35461   -4175.7646 
32406000    88.221419   -4586.2485     -4435.04   -4586.2485            0    2171.8274    17.867828    23.339596    21.931877    9146.2041    2046.2208    1784.3094    2684.9521   -349.52831    569.80604    463.27267   -4145.3443 
32407000     92.58532    -4582.744   -4424.0559    -4582.744            0     1319.073    17.781009    23.572559    21.916567    9186.1949    1152.6162    1147.8286    1656.7742    71.677556   -327.24159   -219.98126   -4247.3381 
32408000     89.35181   -4577.2736   -4424.1276   -4577.2736            0    1667.7736    17.957992     23.32488    21.932308    9186.7423    782.40177     2015.379    2205.5401   -625.28929   -226.43685    244.18483   -4200.6806 
32409000    95.011335   -4583.0989   -4420.2527   -4583.0989            0    2282.1507    17.928132    23.342183    21.873681    9153.7362    1733.5708    2963.2359    2149.6453    215.34075    614.60633    147.72678   -4115.5905 
32410000    96.188605   -4571.9762   -4407.1122   -4571.9762            0    2098.2253    17.965247      23.3435    21.860262    9167.5761     1791.153    2777.2716    1726.2512    346.80609     240.8305    389.49698   -4126.5801 
32411000    87.023115   -4577.7581   -4428.6035   -4577.7581            0    1798.0469     17.91156    23.352329    21.956419     9183.857     1272.572    2236.1616     1885.407   -345.03884   -449.41251    420.17889   -4187.7782 
32412000    89.719648   -4575.7014    -4421.925   -4575.7014            0    2053.1174    17.840246    23.497843    21.878921    9171.8034    1372.2489    1785.7293     3001.374    129.49457   -31.118118   -249.01857   -4147.2972 
32413000    88.847252   -4568.9688   -4416.6876   -4568.9688            0    1908.8503    17.892354    23.531677    21.791005    9174.8216     2407.152    1067.3228    2252.0761    431.30727   -297.40281    160.50478   -4161.2732 
32414000    94.774209   -4584.8434   -4422.4036   -4584.8434            0    1170.6186     17.90604    23.413058    21.978301    9214.0763    1025.9935    885.63735    1600.2249    355.55007   -404.15789    534.42292   -4265.0984 
32415000     89.67584   -4571.2718   -4417.5705   -4571.2718            0    2713.0741    17.978121    23.211194    21.901813    9139.4877    2738.7529    2560.5787    2839.8909    511.74348   -304.14623    386.31993   -4055.9447 
32416000    89.649421   -4563.9729   -4410.3169   -4563.9729            0    2904.8237    17.896149    23.334695    21.827657    9115.2551    3160.1233    2903.5511    2650.7965   -1190.9068    179.70236    100.32744   -4024.1594 
32417000    89.849344   -4582.3657    -4428.367   -4582.3657            0      2319.51    17.834969    23.360033    21.911228    9128.7754    2486.9882     3408.446    1063.0958   -426.69378    -84.09387    196.82831   -4119.5618 
32418000    95.544436   -4563.7756   -4400.0157   -4563.7756            0    1598.2462    17.762475    23.506227    22.008048    9188.9931    2337.6962    1389.2871    1067.7552   -239.44062    248.47448   -60.173719   -4185.8315 
32419000    93.900506   -4567.3889   -4406.4467   -4567.3889            0    2226.0216    17.832077     23.38335    21.934961    9146.3016    2864.4512    1761.3219    2052.2916    756.65374    -164.0477   -413.43765   -4109.5189 
32420000    96.953191   -4584.3205   -4418.1461   -4584.3205            0    1710.6129    17.953874    23.337315    21.878624    9167.0388    1704.9361    1234.0113    2192.8914    -310.8267    265.13732   -204.21323    -4189.451 
32421000    91.052424    -4573.556   -4417.4952    -4573.556            0    2168.0869    17.911514    23.339657    21.866109    9141.0961    1753.1262    1987.4161    2763.7185   -985.08531    18.859951    8.8800444   -4128.4599 
32422000    93.271546   -4579.2173    -4419.353   -4579.2173            0    2192.4695    18.016726    23.189406    21.885052    9143.5131    2144.3313    2017.1479    2415.9292    244.65062    153.54237   -270.58524     -4126.99 
32423000    91.378551   -4578.9461   -4422.3264   -4578.9461            0    2580.5622    17.947427    23.210549    21.938501    9138.9133      3252.75    2463.2666    2025.6702   -56.792694   -291.20761    181.15121   -4078.3847 
32424000     87.97729   -4576.3883   -4425.5982   -4576.3883            0    1768.0374    17.977369    23.348348    21.878059    9183.1372    1535.5505    1449.9227    2318.6391   -399.67164   -267.93734    -323.4109   -4188.8109 
32425000    95.070943   -4576.0341   -4413.0858   -4576.0341            0    2172.5952    17.848265    23.380405    21.938937     9155.111     2911.274    1815.6455    1790.8662   -266.41787    9.0773332    472.86387   -4123.0054 
32426000    87.717325   -4570.9841   -4420.6396   -4570.9841            0    1898.0737     17.95286    23.442594    21.784816    9168.3929    1467.9463     1147.347    3078.9279   -488.62996    157.67724   -32.934179   -4166.8451 
32427000    94.634243   -4567.2913   -4405.0914   -4567.2913            0    2255.4743    17.780571    23.454617    21.926349    9144.0879    1923.0425    1576.6602    3266.7202    45.861298    -306.7679   -273.33932   -4104.3078 
32428000     94.34346   -4573.6276   -4411.9261   -4573.6276            0    1172.4917    17.936233    23.390602    21.941305    9205.2394   -1.4967898    1987.9823    1530.9895    542.30755    43.312331   -18.111035   -4254.5203 
32429000    90.061689   -4570.9621   -4416.5995   -4570.9621            0    2588.2798    17.858811    23.255187    22.011774    9141.7098     2416.376    3743.9838    1604.4797    404.22933   -37.484657    312.51049   -4071.5236 
32430000    87.781831   -4570.2776   -4419.8225   -4570.2776            0    1783.8888    17.729198    23.557771    21.947603    9166.6442    2845.4454    1279.0669     1227.154    780.77931    444.76955    131.80555   -4181.3414 
32431000    90.655396   -4570.0551   -4414.6748   -4570.0551            0    2715.2748     17.81896    23.389039    21.925563    9137.8805    2896.0782    3373.9425    1875.8035   -575.10207    217.83004    209.80009   -4052.8194 
32432000    94.385676   -4567.3456   -4405.5717   -4567.3456            0    1340.2904    17.803544    23.432047    22.083407    9212.6115    1988.1221    937.90545    1094.8435   -371.91478   -179.87987   -78.466388    -4225.495 
32433000    87.662421     -4572.28   -4422.0296     -4572.28            0    1977.7981    17.962374     23.26011    21.968631    9178.6434    1668.5542    2486.2768    1778.5632   -75.280609    173.60573   -223.98483   -4157.2794 
32434000    91.129981   -4579.8498   -4423.6561   -4579.8498            0     1816.099    17.909127    23.163343    22.107382    9170.9213    1840.9369    2055.8807    1551.4796   -75.990227   -161.19378    425.09841   -4180.7556 
32435000    95.942853   -4571.5851   -4407.1423   -4571.5851            0    2394.6011    17.905971    23.277195    21.916186    9134.6833    2946.2083    2047.9875    2189.6076    71.420944    869.04345    497.40489   -4088.1336 
32436000    94.784617    -4575.602   -4413.1444    -4575.602            0    1586.9365    17.834126    23.333709     22.05614    9178.3607    2200.7367    1868.9747    691.09821   -145.38467   -328.19021   -228.36978   -4200.7219 
32437000     87.05271   -4569.6438   -4420.4385   -4569.6438            0    2046.1943    17.855881    23.369806    21.942868    9156.5061    1865.8617    2072.6669    2200.0542   -471.70281   -567.84989    222.01373   -4147.1933 
32438000    94.546242    -4566.907    -4404.858    -4566.907            0     2590.285    17.865515    23.445315    21.841388    9148.5412    3074.7952    2002.7596       2693.3    -74.74802    -493.8822    360.65822   -4059.2568 
32439000    92.620995   -4585.1707   -4426.4215   -4585.1707            0    1764.2381    17.952359    23.382478    21.861612    9176.8627    2159.6951    1363.5372    1769.4819    28.108188     201.9437   -183.55955   -4190.3045 
32440000    91.041103    -4556.483   -4400.4417    -4556.483            0    2433.0147    17.862514    23.344589    21.947579    9151.9884    2164.7294    2407.6841    2726.6307    355.63739   -538.34396    84.831953   -4075.7015 
32441000    91.217872   -4570.6648   -4414.3205   -4570.6648            0    1633.8763    18.009116    23.262422    21.942064    9192.3131    1288.4992    2098.3246    1514.8049   -454.09562    4.3499862   -140.85772   -4195.2823 
32442000    91.495952   -4568.3874   -4411.5665   -4568.3874            0    2041.9617    17.946658    23.373249    21.874154    9175.5887    1903.6678    2541.9096    1680.3075    704.54966    486.52185    234.88819   -4138.3182 
32443000    94.585777   -4575.6768     -4413.56   -4575.6768            0    2252.2953    17.933615    23.309677    21.912751    9160.1168    1815.3646     3689.913    1251.6083    113.99253    124.77238   -497.34499   -4112.6738 
32444000    95.016798   -4567.7112   -4404.8556   -4567.7112            0    2554.5807    17.848925    23.360532    21.932859     9145.133    2523.4214    3683.4739    1456.8469   -314.33147 -0.071506574    84.361413   -4064.1451 
32445000    90.366825   -4571.4179   -4416.5322   -4571.4179            0    2577.0124    17.742078    23.472946    21.933537    9134.4152    2346.0121    2014.6545    3370.3707   -53.823743    390.10669    121.03911   -4073.2327 
32446000    90.949961   -4573.5917   -4417.7066   -4573.5917            0    1827.0433    17.889681    23.298471    22.011479    9174.4331    2017.4447    1920.0514    1543.6337   -995.88284   -5.3470544    81.878782   -4173.2488 
32447000    89.935108   -4568.0847    -4413.939   -4568.0847            0    1739.5962    17.973476    23.348603    21.874252    9179.6511    1930.9251    1442.8686    1844.9947   -408.20537    18.015432    356.06686   -4181.0492 
32448000    93.912799   -4573.7947   -4412.8313   -4573.7947            0    1953.6443    17.838942    23.314868    22.069275    9178.8887    2563.7778    2256.6043    1040.5509    33.821317   -202.66428   -124.62378   -4151.3074 
32449000    98.985555   -4577.7836   -4408.1258   -4577.7836            0    2741.2933    17.898604    23.400277    21.809137    9134.3708    2852.6492    2145.8023    3225.4284    125.59974    135.35201    603.47914   -4042.9432 
32450000    95.311104   -4583.3602   -4420.0003   -4583.3602            0    1834.5116    17.972135    23.409318    21.827547    9183.1856    2158.5603    1299.6291    2045.3452    387.83491   -92.469081   -146.04359    -4174.309 
32451000    90.046813   -4569.4364   -4415.0992   -4569.4364            0    1052.6936    17.820877    23.484786    21.984089    9200.7693    2130.2715    466.60803    561.20115    -356.8563    587.09596    236.38574   -4273.8448 
32452000    92.836296   -4572.3333   -4413.2151   -4572.3333            0    2066.6903    17.894295    23.342506    21.949966    9168.4503    1187.0288    2259.5212    2753.5209    253.22843   -376.58602    148.13376   -4136.8729 
32453000    90.319958   -4577.2576   -4422.4523   -4577.2576            0    1842.3895    18.030765    23.371691    21.769419    9173.8393    1449.9452    1874.2328    2202.9905   -1.1858813   -111.52538    228.90133   -4175.9571 
32454000    90.715412   -4578.6904   -4423.2073   -4578.6904            0    2280.3624    17.984232    23.282946    21.879447    9161.4916    3048.5252    2754.9754    1037.5864    148.35581   -339.01034    334.47523   -4118.5259 
32455000    88.382682   -4577.1257   -4425.6408   -4577.1257            0    1917.0343    17.983997    23.155357    22.030783    9174.1881    1344.9779    1989.6309    2416.4943   -17.731069    204.21795     82.91275    -4169.149 
32456000    88.686568   -4575.7866   -4423.7808   -4575.7866            0    1948.5409    18.039052    23.270253    21.856183    9174.6419    819.15292    2469.3174    2557.1523   -265.72356   -381.55746    192.79392   -4163.0607 
32457000    92.021625   -4578.0035   -4420.2816   -4578.0035            0    1242.5627    17.943678     23.36279    21.944491    9199.4464    1387.8154    1357.2692    982.60333    349.52824   -94.523878    76.577573   -4253.5738 
32458000    96.908586    -4577.037    -4410.939    -4577.037            0    1506.4346     17.85602    23.268022    22.108256    9185.4115    1308.1558    1613.3647    1597.7833   -568.30922    336.09799    72.741752   -4209.1373 
32459000    91.136035   -4573.5577   -4417.3536   -4573.5577            0     2057.408     17.94607    23.247758    21.964214    9163.5998    2345.5576    2261.1917    1565.4747    147.58885    385.24011    31.750369   -4142.3981 
32460000    93.260844   -4565.5592   -4405.7133   -4565.5592            0    2558.5222    18.031075    23.241185    21.849664    9156.3979    2816.8991    2455.0323    2403.6353   -97.933249    -594.8453     298.4323   -4064.0568 
32461000    94.567179     -4580.88   -4418.7951     -4580.88            0    1920.8597    17.998247    23.208485    21.930957    9160.8251    2148.1847    2239.8754    1374.5192    384.36291   -61.281149   -99.545507   -4162.1658 
32462000     95.75836   -4578.0158   -4413.8893   -4578.0158            0    2292.2039    17.986148    23.201802    21.944635    9157.7383    2225.5512    3552.9244    1098.1361    345.34363    304.25347    565.75394   -4107.7512 
32463000     97.72195   -4578.2722   -4410.7801   -4578.2722            0    1711.9073    17.950955    23.366566    21.879968    9177.6005    1554.3796     2435.714    1145.6283     267.9476    -282.5889   -371.81126   -4181.6484 
32464000    92.417533   -4578.2669   -4419.8664   -4578.2669            0    1753.3184    17.960863    23.399453    21.843149    9180.1153    953.57634    2209.2967    2097.0821    314.88639   -23.938452   -86.085507   -4185.1277 
32465000    88.838909   -4585.5297   -4433.2629   -4585.5297            0    3058.7793     17.75644    23.400139    21.894441    9097.2098    4416.0431    3105.8991    1654.3957   -698.14646   -368.79787    583.84212    -4027.444 
32466000    89.850949     -4577.27   -4423.2685     -4577.27            0    1894.6481     18.02467     23.37983    21.784112    9180.1236     1274.967    2041.7024     2367.275   -714.75265   -201.33968    307.60611   -4169.6079 
32467000     89.78744   -4577.9798   -4424.0872   -4577.9798            0    2587.0365    17.882935    23.285814    21.944401    9138.0592    2719.3496    2492.0192    2549.7408    416.43194    118.67581   -237.57528   -4079.3148 
32468000    92.322313   -4572.0594   -4413.8221   -4572.0594            0    2898.2283    17.843986    23.390409    21.857111    9122.6799    3484.0412    2507.8792    2702.7647   -161.98889    329.73809    433.58262   -4028.2275 
32469000    92.578624   -4571.7271   -4413.0505   -4571.7271            0    1902.2887    17.932077    23.434624    21.863318    9187.6542    1291.7556    1790.6246    2624.4859    135.19278   -161.99505    408.66481    -4158.158 
32470000    92.895784   -4586.7714   -4427.5512   -4586.7714            0    1581.4072    17.878504    23.463742    21.891832    9183.5494    2039.5314    1182.3335    1522.3566    -648.2126   -192.21779    -36.06412   -4215.7492 
32471000     92.09318   -4575.5527   -4417.7081   -4575.5527            0    1926.6022    17.895078    23.381847    21.936117    9178.5094    1373.0927    2451.4302    1955.2839   -6.1143039   -191.97961     107.1418   -4159.8148 
32472000    92.854386   -4582.1787   -4423.0294   -4582.1787            0    2697.3483    17.813265    23.447114    21.871483    9135.0547    3484.6833    2471.7954    2135.5661     1481.381    389.43643    192.42362   -4063.6741 
32473000    86.903934   -4567.8204     -4418.87   -4567.8204            0    3156.3486    17.779894    23.449177    21.902047    9131.4864     3484.982    3071.9364    2912.1275      1011.34   -336.22613    233.53245   -3998.5285 
32474000    90.363979   -4572.5686   -4417.6879   -4572.5686            0    2753.7079    17.897939    23.354211     21.86434    9139.1245    3489.8138    3509.0006    1262.3092   -538.34639     184.3537    161.96551   -4050.6606 
32475000    90.420835   -4580.1288   -4425.1506   -4580.1288            0    1558.8619    17.826659    23.416562    22.034024    9197.8624    2224.2959    1913.8484    538.44154   -707.18878   -379.99004    458.40831   -4216.0427 
32476000    92.860313   -4573.0198   -4413.8604   -4573.0198            0    2361.0955    17.834346    23.305956    22.026202    9155.1135    2579.6999    2495.4552    2008.1313    1012.8019   -152.48721    96.583798   -4098.6118 
32477000    96.913312    -4561.987   -4395.8809    -4561.987            0    1967.8232    17.946799    23.359086     21.88981    9176.6641    1871.0706    2582.5259     1449.873   -272.75628   -96.315221    21.788648   -4132.5227 
32478000    96.363635   -4571.8848   -4406.7208   -4571.8848            0    2787.4981    17.905322    23.309758    21.915887    9147.0057    2553.8113    3112.1794    2696.5037   -498.13849   -151.81369   -94.684425   -4034.8694 
32479000    96.462755   -4576.2157   -4410.8818   -4576.2157            0    3094.8686    17.798225    23.479886      21.8128    9115.5753    3176.4724    2041.2501    4066.8832     398.2274   -238.38603    95.364736   -3999.4459 
32480000    94.606691   -4567.9247    -4405.772   -4567.9247            0     1742.652    17.872192     23.49179    21.891639    9191.2002     2061.079    1656.7953    1510.0818    530.39066   -136.45923    62.251806   -4172.1796 
32481000    98.447092   -4579.2316   -4410.4966   -4579.2316            0    2116.2303    17.899402    23.492488    21.776512    9157.0554    2271.9949    1589.7272    2486.9688    -385.8411    663.97428    9.4466497    -4127.882 
32482000    93.800999    -4577.016   -4416.2443    -4577.016            0    2087.1301    17.875311    23.407097     21.87932    9154.5077    1677.5573    1559.2145    3024.6184    161.24627    126.13886    638.07113   -4137.5934 
32483000    88.801763   -4576.6763   -4424.4732   -4576.6763            0    1423.4869    17.899666    23.380744    21.935535    9180.1858    1561.1656    1494.5162    1214.7789    70.423165   -155.68998   -354.34891   -4233.8916 
32484000    98.183005   -4575.6007   -4407.3184   -4575.6007            0    2019.8289    17.894596    23.249455    22.002854    9154.0584    1841.1355    3202.5392     1015.812    159.10147    150.39717   -470.78949   -4137.6661 
32485000    93.520856   -4585.3876   -4425.0961   -4585.3876            0    1604.4568    17.884312     23.40669    21.935601    9182.5181    3041.2596    501.40407    1270.7068    272.08052   -67.645872   -160.46874   -4210.2311 
32486000    95.435014   -4585.1772   -4421.6048   -4585.1772            0    1466.2311    17.984158    23.340527    21.887774    9187.6062    1130.0766    1535.0553    1733.5615    183.64366    57.470642    726.44307   -4225.1419 
32487000    90.511349   -4573.3813   -4418.2479   -4573.3813            0      1662.01    18.105364    23.132902    21.901969    9173.1933    1600.4958    2221.3277    1164.2064    143.61499     281.4619    -185.2318   -4195.9015 
32488000    91.481275   -4567.5326   -4410.7368   -4567.5326            0    1885.8342    18.045166    23.132944    21.973646    9172.6307    1695.0925    2088.4311    1873.9789   -166.27683    218.25668   -415.18228   -4158.4624 
32489000    93.722051   -4575.4785   -4414.8421   -4575.4785            0    2051.5044    18.009957    23.389942    21.720912    9149.9743    845.84758    2482.0522    2826.6133   -644.75688    305.69015   -285.90084   -4141.0833 
32490000    90.417091   -4571.9598    -4416.988   -4571.9598            0    2416.1076    17.954717     23.35001    21.846713    9159.0779    2713.3837    1858.4207    2676.5184    219.51751   -16.827589    87.185811   -4094.2546 
32491000    88.903936   -4578.1906   -4425.8123   -4578.1906            0    1922.0099    17.864929    23.442608    21.871415    9159.7599    2184.5979    1823.8073    1757.6246     77.21705    248.83105   -154.09781   -4169.0592 
32492000    95.620443    -4579.212   -4415.3219    -4579.212            0    2645.7296    17.810254    23.402756    21.936117    9143.1712    2903.9394    2477.6406    2555.6088   -401.65125   -479.97989   -33.185924   -4062.5303 
32493000    94.366717   -4570.1966   -4408.4552   -4570.1966            0    1767.7053    17.804415    23.424134    22.030185    9187.7548    2165.2474    1182.8801    1954.9884     176.8472   -416.73154    331.33864   -4171.5934 
32494000    94.818946   -4573.7018   -4411.1854   -4573.7018            0    2304.6056    17.991546     23.26796    21.874072    9157.0677    2334.6277    1913.5457    2665.6434    586.27752   -16.149772   -44.225713   -4103.4135 
32495000    95.952089   -4571.2495   -4406.7909   -4571.2495            0    2713.4986    18.024155    23.175842    21.870681    9135.9294    2050.4787    2436.8592    3653.1577   -223.88682   -192.93705    543.30893   -4045.2494 
32496000    90.987065   -4572.3509   -4416.4022   -4572.3509            0     2195.596    17.988004    23.116964    21.985818    9142.3194    1922.2284    2918.6258    1745.9337   -239.07765    81.405735   -383.56545   -4123.6604 
32497000    90.992033   -4575.8821   -4419.9249   -4575.8821            0    1922.3234    18.040786    23.357002     21.75071    9165.2852    1392.3908    1488.2675    2886.3118   -163.02723    135.25069    76.684025    -4162.975 
32498000    96.196224   -4569.9766   -4405.0995   -4569.9766            0    1926.8132    17.896416    23.320673    21.949226    9160.6513    2116.2735    1407.0986    2257.0676    753.09037    213.52461      180.846   -4147.6798 
32499000    91.619566   -4579.4125   -4422.3797   -4579.4125            0    2884.5088    17.720521    23.419269     21.95357    9110.7681    4285.4161    2490.3459    1877.7644    311.69324   -408.76885   -325.70702   -4039.1115 
32500000    93.944047   -4561.8088   -4400.7919   -4561.8088            0    2030.1388     17.85749    23.394718    21.895889    9147.4666    1539.3163    2718.5759    1832.5242   -446.17899   -186.82259   -47.395739   -4129.9584 
Loop time of 356.016 on 64 procs for 250000 steps with 864 atoms

Performance: 121.343 ns/day, 0.198 hours/ns, 702.216 timesteps/s
195.9% CPU use with 32 MPI tasks x 2 OpenMP threads

MPI task timing breakdown:
Section |  min time  |  avg time  |  max time  |%varavg| %total
---------------------------------------------------------------
Pair    | 18.021     | 24.985     | 33.974     | 106.5 |  7.02
Bond    | 0.99319    | 1.205      | 1.5184     |  10.7 |  0.34
Kspace  | 178.77     | 189.85     | 198.75     |  41.1 | 53.32
Neigh   | 0.44215    | 0.47852    | 0.50468    |   2.1 |  0.13
Comm    | 53.012     | 57.487     | 61.396     |  22.4 | 16.15
Output  | 0.53379    | 0.53407    | 0.53567    |   0.0 |  0.15
Modify  | 65.672     | 67.191     | 70.386     |  14.4 | 18.87
Other   |            | 14.29      |            |       |  4.01

Nlocal:        27.0000 ave          38 max          19 min
Histogram: 7 4 4 1 2 4 2 1 3 4
Nghost:        2154.84 ave        2250 max        2058 min
Histogram: 12 4 0 0 0 0 0 0 1 15
Neighs:        6638.22 ave        9349 max        4526 min
Histogram: 4 5 6 1 2 4 2 1 5 2

Total # of neighbors = 212423
Ave neighs/atom = 245.85995
Ave special neighs/atom = 2.0000000
Neighbor list builds = 1628
Dangerous builds = 0

unfix		3
unfix		2
unfix		1

write_data	data.final.${pid} nocoeff
write_data	data.final.0 nocoeff
System init for write_data ...
PPPM initialization ...
  extracting TIP4P info from pair style
  using 12-bit tables for long-range coulomb (../kspace.cpp:340)
  G vector (1/distance) = 0.37204181
  grid = 24 27 25
  stencil order = 5
  estimated absolute RMS force accuracy = 0.0031229035
  estimated relative force accuracy = 9.4045312e-06
  using double precision FFTW3
  3d grid and FFT values/proc = 4410 672
Last active /omp style is kspace_style pppm/tip4p/omp

write_restart   restart.lmp.${pid}
write_restart   restart.lmp.0
System init for write_restart ...
PPPM initialization ...
  extracting TIP4P info from pair style
  using 12-bit tables for long-range coulomb (../kspace.cpp:340)
  G vector (1/distance) = 0.37204181
  grid = 24 27 25
  stencil order = 5
  estimated absolute RMS force accuracy = 0.0031229035
  estimated relative force accuracy = 9.4045312e-06
  using double precision FFTW3
  3d grid and FFT values/proc = 4410 672
Last active /omp style is kspace_style pppm/tip4p/omp
Total wall time: 0:05:56
