LAMMPS (30 Jul 2021)
Processor partition = 0
  using 4 OpenMP thread(s) per MPI task
using multi-threaded neighbor list subroutines
variable        pid world 0 1
variable        phase world IceII IceIh

shell cd ${phase}
shell cd IceII
include Restart.lmp
echo both
log log.lammps
#include		in.partitions
include		in.temp
variable        temperature equal 45.10
variable	tempDamp equal 100.0
include		in.pressure
variable        pressure equal 2006.0
variable        pressureDamp equal 1000.0 # This is 1 ps
include		in.seed
variable        seed equal 745823

units		real
atom_style	full
box tilt large
read_restart	restart.lmp.${pid}
read_restart	restart.lmp.0
Reading restart file ...
  restart file = 30 Jul 2021, LAMMPS = 30 Jul 2021
  restoring atom style full from restart
  triclinic box = (-10.615730 -9.1216386 0.10608349) to (12.595730 12.111637 21.753916) with tilt (-9.0775103 1.8655741 2.7507949)
  2 by 2 by 4 MPI processor grid
  restoring pair style lj/cut/tip4p/long/omp from restart
  restoring bond style harmonic/omp from restart
  restoring angle style harmonic/omp from restart
  1296 atoms
  864 bonds
  432 angles
Finding 1-2 1-3 1-4 neighbors ...
  special bond factors lj:    0        0        0       
  special bond factors coul:  0        0        0       
     2 = max # of 1-2 neighbors
     1 = max # of 1-3 neighbors
     1 = max # of 1-4 neighbors
     2 = max # of special neighbors
  special bonds CPU = 0.001 seconds
  read_restart CPU = 0.006 seconds
include 	in.setup
variable	out_freq equal 1000
variable	out_freq2 equal 10000
variable	out_freq3 equal 1000

timestep	2.0

neigh_modify    delay 7 every 1

include		in.tip4p
# This is TIP4P/Ice

# create groups ###
group ox type 2
432 atoms in group ox
group hy type 1
864 atoms in group hy

# set charges - beside manually ###
set group ox charge -1.1794
Setting atom values ...
  432 settings made for charge
set group hy charge 0.5897
Setting atom values ...
  864 settings made for charge

# ### TIP3P Potential Parameters ###
pair_style lj/cut/tip4p/long/omp 2 1 1 1 0.1577 8.5
pair_coeff 1 1*2 0.000 0.000
pair_coeff 2 2 0.21084 3.1668
bond_style  harmonic
bond_coeff  1 450 0.9572
angle_style harmonic
angle_coeff 1 55 104.52
kspace_style pppm/tip4p/omp 1.0e-5
pair_modify tail yes

thermo          ${out_freq}
thermo          1000
thermo_style    custom step temp pe etotal epair emol press lx ly lz vol pxx pyy pzz pxy pxz pyz enthalpy

restart 	${out_freq3} restart.lmp.${pid} restart2.lmp.${pid}
restart 	1000 restart.lmp.${pid} restart2.lmp.${pid}
restart 	1000 restart.lmp.0 restart2.lmp.${pid}
restart 	1000 restart.lmp.0 restart2.lmp.0


include         in.dump
dump            myDump all atom ${out_freq2} dump.water.${pid}
dump            myDump all atom 10000 dump.water.${pid}
dump            myDump all atom 10000 dump.water.0
dump            myDump2 all dcd ${out_freq2} dump.dcd
dump            myDump2 all dcd 10000 dump.dcd
dump_modify     myDump append yes
dump_modify     myDump2 append yes


variable natoms 	equal  "count(all)"                        # NUMBER ATOMS
variable H      	equal  "enthalpy/v_natoms"                 # ENTHALPY-per-atom
variable Vol      	equal  "vol/v_natoms"                 # volume-per-atom
fix AVG all 		ave/time ${out_freq} 1 ${out_freq} v_Vol v_H file vol_enthalpy.dat
fix AVG all 		ave/time 1000 1 ${out_freq} v_Vol v_H file vol_enthalpy.dat
fix AVG all 		ave/time 1000 1 1000 v_Vol v_H file vol_enthalpy.dat


timer           timeout 10:00:00 every 1000
New timer settings: style=normal  mode=nosync  timeout=10:00:00

fix 		1 all shake 1e-6 200 0 b 1 a 1
Finding SHAKE clusters ...
       0 = # of size 2 clusters
       0 = # of size 3 clusters
       0 = # of size 4 clusters
     432 = # of frozen angles
  find clusters CPU = 0.000 seconds
fix             2 all nph tri ${pressure} ${pressure} ${pressureDamp}
fix             2 all nph tri 2006 ${pressure} ${pressureDamp}
fix             2 all nph tri 2006 2006 ${pressureDamp}
fix             2 all nph tri 2006 2006 1000
fix             3 all temp/csvr ${temperature} ${temperature} ${tempDamp} ${seed}
fix             3 all temp/csvr 45.1 ${temperature} ${tempDamp} ${seed}
fix             3 all temp/csvr 45.1 45.1 ${tempDamp} ${seed}
fix             3 all temp/csvr 45.1 45.1 100 ${seed}
fix             3 all temp/csvr 45.1 45.1 100 745823


run             250000
PPPM initialization ...
  extracting TIP4P info from pair style
  using 12-bit tables for long-range coulomb (../kspace.cpp:340)
  G vector (1/distance) = 0.36857338
  grid = 30 40 32
  stencil order = 5
  estimated absolute RMS force accuracy = 0.0042663465
  estimated relative force accuracy = 1.2847976e-05
  using double precision FFTW3
  3d grid and FFT values/proc = 11832 2400
Last active /omp style is kspace_style pppm/tip4p/omp
Neighbor list info ...
  update every 1 steps, delay 7 steps, check yes
  max neighbors/atom: 2000, page size: 100000
  master list distance cutoff = 10.8154
  ghost atom cutoff = 10.8154
  binsize = 5.4077, bins = 7 5 5
  1 neighbor lists, perpetual/occasional/extra = 1 0 0
  (1) pair lj/cut/tip4p/long/omp, perpetual
      attributes: half, newton on, omp
      pair build: half/bin/newton/tri/omp
      stencil: half/bin/3d/tri
      bin: standard
Setting up Verlet run ...
  Unit style    : real
  Current step  : 39250000
  Time step     : 2
  Walltime left : 9:59:59.96
Per MPI rank memory allocation (min/avg/max) = 12.75 | 12.76 | 12.76 Mbytes
Step Temp PotEng TotEng E_pair E_mol Press Lx Ly Lz Volume Pxx Pyy Pzz Pxy Pxz Pyz Enthalpy 
39250000    46.537811   -6903.4302   -6783.7145   -6903.4302            0    2055.3274     23.21146    21.233275    21.647832    10669.249    1179.2821    2763.6504    2223.0497     -315.366    522.51073    440.58558   -6463.9055 
39251000    45.059103   -6909.2876   -6793.3758   -6909.2876            0    1984.9021    23.107949    21.329809      21.6506    10671.323    2174.5243    1634.7744    2145.4076    436.76389    -176.1083   -217.03521   -6484.4649 
39252000    43.474456   -6904.5082   -6792.6728   -6904.5082            0    1630.6813      23.1392    21.378805    21.613786     10692.09    2182.6384    1291.4991    1417.9066   -317.44094    3.8332867      172.417   -6538.3955 
39253000    44.778891   -6908.1978   -6793.0068   -6908.1978            0    1550.8741    23.300372    21.298652    21.521966    10680.631    1488.0604    1303.3427    1861.2191   -241.83401    199.84158   -443.61731   -6551.4333 
39254000    43.726027   -6910.2214   -6797.7389   -6910.2214            0    1860.5331     23.21783     21.25212     21.61256    10664.245    1870.9808    2500.8369    1209.7815    86.398825   -62.055616   -144.14281   -6508.3756 
39255000    43.879987   -6904.9529   -6792.0744   -6904.9529            0    2238.6639    23.126674    21.312112    21.614519    10653.327    2592.7229    2097.9729    2025.2961    138.72718   -6.8454209    474.36871    -6444.258 
39256000    46.443164   -6906.1949   -6786.7227   -6906.1949            0    2647.6846     23.10335     21.28676    21.634372    10639.686    3197.2295    2427.2806    2318.5437     240.7243   -282.18095   -125.85642   -6375.8844 
39257000    44.045395   -6907.1288   -6793.8247   -6907.1288            0    2491.5617    23.264743    21.304192    21.456905    10634.826    2160.4278    1810.0175    3504.2398   -185.23087   -432.17525    -297.5866   -6407.3884 
39258000    45.661222   -6908.0229   -6790.5622   -6908.0229            0    1884.1619     23.19277    21.271577    21.609382     10660.92    2280.3732    1710.9072    1661.2052   -32.884828   -192.75179   -581.42244   -6497.6154 
39259000    48.061833   -6908.4152    -6784.779   -6908.4152            0    2150.6623    23.088292    21.367696    21.584863    10648.754    2764.5197    1313.9854    2373.4819   -1124.7112    52.197748    75.771591   -6450.7787 
39260000    46.622289   -6909.9997   -6790.0667   -6909.9997            0    2199.7932    23.121691      21.2581    21.675225    10653.876    2740.5907     2138.033    1720.7561    92.299652    251.20526   -15.096233   -6448.2719 
39261000      44.1362   -6903.9393   -6790.4016   -6903.9393            0     2719.286     23.27625    21.249423     21.48216    10625.224    1996.8508    2913.7422    3247.2649   -376.46078   -174.56693    118.42219   -6369.0265 
39262000    46.649719   -6904.8546    -6784.851   -6904.8546            0    1652.4447    23.186464    21.295768    21.617004    10673.905    1136.0706    2336.0148    1485.2486    682.62067    417.07147   -2.3689308   -6527.6183 
39263000    46.493228   -6907.5527   -6787.9517   -6907.5527            0    1928.7872    23.129278    21.382578     21.56956    10667.519    2107.8744    1247.5578    2430.9294   -13.191754    28.007144    395.23252    -6487.881 
39264000    43.800223   -6910.7078   -6798.0343   -6910.7078            0    1941.9282    23.214184    21.226643    21.639149    10662.889    1973.4584    2059.1413    1793.1849    446.06123    350.88182    114.49488   -6496.0503 
39265000    44.027253   -6905.5402   -6792.2828   -6905.5402            0    2076.2175    23.186731    21.306635    21.569181    10655.849    2139.1839    1998.8883    2090.5803   -215.07192   -221.89841    232.07206    -6469.629 
39266000    45.990551   -6911.5857   -6793.2778   -6911.5857            0    1945.4043     23.06783    21.347943    21.650137    10661.626    2595.5589    1946.9358    1293.7181    316.16109    233.22888   -280.60271   -6490.7891 
39267000    47.087567   -6914.5935   -6793.4636   -6914.5935            0    1676.1355    23.190844    21.290877    21.616432    10673.187    1822.1137    1715.9551    1490.3376    0.8507802   -65.070887   -181.39108   -6532.5606 
39268000    45.014765   -6914.2485   -6798.4507   -6914.2485            0    1877.1669    23.266822    21.221004    21.597516    10663.673     1591.653    1913.9124    2125.9355    377.40246   -344.66968    213.38588   -6506.5161 
39269000     45.72823   -6911.5437   -6793.9106   -6911.5437            0    1815.0514    23.173623    21.333246    21.569877     10663.47    1980.6936    1537.0857    1927.3748    30.530413    16.894491    459.42118   -6511.6415 
39270000    45.613992   -6912.9169   -6795.5777   -6912.9169            0    2004.8347    23.149392    21.338694    21.579683    10659.884    2147.3404    1822.4248    2044.7388    12.368569    211.56578    454.41276   -6483.8991 
39271000    45.286845   -6915.4588   -6798.9612   -6915.4588            0    1864.3299    23.245302    21.240656    21.609945    10669.812    1759.6727    1950.4115    1882.9055   -309.37698    153.32941   -169.42046    -6508.856 
39272000    45.191388   -6908.0584   -6791.8063   -6908.0584            0      1773.67    23.175044    21.321961    21.611014     10678.81    1597.7503    1687.7414    2035.5183    334.18447   -179.77449    66.185447   -6515.5759 
39273000    44.626713   -6909.9714   -6795.1719   -6909.9714            0    2030.3781    23.075847    21.401054     21.59172    10663.016    2358.3164    1700.8372    2031.9806      205.333    651.77615    216.31617   -6479.4295 
39274000    47.347027   -6900.8985   -6779.1012   -6900.8985            0    2088.6457    23.220025    21.289286    21.568052    10661.902    1756.8009    2520.4336    1988.7025    -134.5687     266.4989    -235.9493   -6454.3316 
39275000    47.208359   -6906.9913   -6785.5507   -6906.9913            0    1485.7914    23.295856    21.192224    21.649794    10688.308     1101.374    2313.6712    1042.3291    67.910048   -194.61314   -778.05808   -6553.9485 
39276000    46.374982   -6905.7515   -6786.4547   -6905.7515            0    2216.5468    23.126152    21.375158    21.574415    10664.776    2297.1507    2153.8301    2198.6597   -86.371032   -192.08506   -542.40503   -6441.7045 
39277000    45.291852   -6906.5185   -6790.0079   -6906.5185            0    1628.7291    23.118968    21.352355    21.631456    10678.247    1826.3926    1800.0563    1259.7383   -56.136996    399.19584    335.83719   -6536.3639 
39278000    44.150278    -6911.766   -6798.1921    -6911.766            0     1812.961     23.27701    21.259212    21.559084    10668.531    1021.1572    2000.3109     2417.415    284.97685   -94.265297    68.502323   -6516.1143 
39279000    44.583077   -6911.3986   -6796.7113   -6911.3986            0    1717.9965    23.207038     21.23132    21.676029    10680.127    1977.7707    2140.8241    1035.3947      372.433   -221.95482   -179.11151   -6529.1184 
39280000    47.183567   -6906.4874   -6785.1106   -6906.4874            0    2101.3333    23.098047    21.413823    21.544514    10656.293    2015.2093    2020.9256     2267.865   -261.88775   -565.56507   -442.28449     -6458.54 
39281000    46.838823    -6908.262    -6787.772    -6908.262            0    2134.9278     23.16211    21.308046     21.58543    10653.258    2254.2425     2189.826    1960.7149    413.20963    57.531017    194.22712    -6456.075 
39282000    44.116921    -6903.123   -6789.6349    -6903.123            0    1752.2392    23.296822    21.211167    21.597784    10672.605    1351.0842    2283.3685    1622.2648   -355.89856   -128.75837    169.98213   -6516.9006 
39283000    46.133606   -6910.5751   -6791.8992   -6910.5751            0    1999.3598    23.145497    21.272942    21.672164    10670.784    1940.0355    2314.6312    1743.4126    -176.9952    677.55143    49.403313   -6480.7539 
39284000    45.463027   -6910.5916   -6793.6407   -6910.5916            0     2205.496    23.060113    21.431404    21.544677    10647.608    2594.4909    1454.4731     2567.524    266.91334   -14.240203   -14.887634   -6451.1615 
39285000    45.763078   -6914.3933   -6796.6706   -6914.3933            0     2448.704    23.204151     21.24585    21.575898    10636.743    2520.0901    2256.7858    2569.2361    11.654252     275.2746    6.0589309   -6416.8129 
39286000    44.409314   -6908.9434   -6794.7032   -6908.9434            0     2331.841    23.248144    21.217623    21.572486    10641.067    2379.9549    2245.1509    2370.4172   -447.67227   -490.65203    179.07319    -6432.827 
39287000     44.95937   -6906.7436   -6791.0884   -6906.7436            0    2044.1397    23.069608    21.343015    21.651884    10660.846    2933.5119    1693.9581    1504.9491   -210.57438    324.04344    354.13107   -6473.2706 
39288000    46.355803   -6911.9386   -6792.6911   -6911.9386            0    1915.5736    23.106194    21.384321    21.596189    10670.899     2554.188     1509.677    1682.8557   -70.897192   -464.33098   -636.34343   -6494.5817 
39289000    46.952249    -6913.433   -6792.6512    -6913.433            0    1821.4922    23.240454    21.251804    21.609542    10672.987    1312.8898    1919.5341    2232.0528   -17.522963    37.388386    49.137617   -6509.1277 
39290000    43.950947   -6908.0633   -6795.0022   -6908.0633            0    2186.9795    23.241962    21.271017    21.534179    10646.071    1690.6016    2166.9891    2703.3479   -80.836514   -7.9176671    258.51542   -6455.4473 
39291000    44.597131   -6910.0551   -6795.3317   -6910.0551            0    2015.4596    23.096947    21.376038    21.592336    10660.594    2055.4469    1325.2516    2665.6802    339.09659    164.42967    643.44224   -6481.9804 
39292000    46.336687    -6912.363   -6793.1647    -6912.363            0    2088.2426    23.075766    21.330366    21.675651     10669.07    1965.4006    2196.3525    2102.9747   -23.101514     317.9182   -47.895826   -6468.2395 
39293000    44.317572   -6903.6879   -6789.6836   -6903.6879            0    2162.4368    23.225592    21.222068    21.625801    10659.251    1496.6367    3043.6623    1947.0113   -215.33195   -500.17292    64.162957   -6453.5237 
39294000    45.312485   -6906.7253   -6790.1617   -6906.7253            0    2106.9816    23.215558    21.291338    21.557262    10655.545    1603.4231    2420.3568    2297.1649  0.077727197    193.57283   -202.75446   -6462.7364 
39295000    42.058307   -6912.0309   -6803.8385   -6912.0309            0    1928.4132    23.067101    21.439621    21.553838    10659.449    1831.1589    1527.4889     2426.592    1.3482407    536.06551   -156.82311   -6504.0529 
39296000    46.320966    -6909.435   -6790.2772    -6909.435            0    1955.4517    23.183052    21.270189    21.634292     10668.04    1834.7175    2362.3836     1669.254   -397.10893   -131.02919   -311.28387   -6486.0432 
39297000    45.783371   -6913.7922   -6796.0172   -6913.7922            0    1903.7777     23.24874    21.224529    21.613591    10665.087    1198.9339    2583.1222     1929.277   -545.88538    155.96779   -105.51381   -6499.9049 
39298000    46.208157   -6906.6501   -6787.7824   -6906.6501            0    2257.3054    23.141514    21.331083    21.567621    10646.501    2445.6195    1812.6075    2513.6892    555.58193    219.72078    632.00387   -6437.2945 
39299000    46.981815   -6909.4473   -6788.5895   -6909.4473            0    1958.5451    23.124177    21.380037    21.560817    10659.576    2373.6976    1561.5503    1940.3875    344.94329   -190.63097    221.22132    -6484.116 
39300000    46.113914    -6910.866   -6792.2407    -6910.866            0    1884.6264    23.210206    21.252267     21.63199    10670.401    1823.5321    2123.0713    1707.2759   -164.33911    -76.24675   -97.061646   -6498.9611 
39301000    45.246562   -6903.5009   -6787.1069   -6903.5009            0    1923.0067    23.162704     21.28525    21.641926    10669.988    1977.7586    1853.6396     1937.622   -199.34825   -423.08935   -139.62489   -6487.8662 
39302000    45.483542   -6913.5401   -6796.5364   -6913.5401            0    1885.4981    23.122456    21.339611    21.594328    10655.164    2251.0708    1944.8066    1460.6168     114.5234    68.630696   0.16316962   -6503.5401 
39303000    44.173559   -6907.8467   -6794.2129   -6907.8467            0    2146.5863    23.251139    21.226752    21.563841    10642.751    1781.8778    2448.6166    2209.2647    105.61603    375.43413    295.29808   -6461.0335 
39304000    45.899151   -6907.6201   -6789.5474   -6907.6201            0    2101.8624    23.194593    21.265015    21.607142    10657.363    1796.5413    2737.6648    1771.3812    138.82076    -445.4239   -416.53048   -6462.8618 
39305000    45.068448   -6905.3208   -6789.3849   -6905.3208            0    2163.4516    23.107502    21.362344    21.578241    10651.676    1968.3637    2209.6828    2312.3082    153.40663    558.61764   -722.39145   -6453.3062 
39306000    46.316285   -6904.7034   -6785.5576   -6904.7034            0    1806.1538    23.174452    21.342043    21.579011    10672.766     1778.665    1755.5655    1884.2311   -228.18128    382.65586   -27.902311   -6504.4273 
39307000    46.221133   -6911.3358   -6792.4348   -6911.3358            0    2043.1551    23.263079    21.206516    21.597696    10654.767    1882.0519     2574.574    1672.8394   -260.30012   -34.805257   -112.13516   -6474.9513 
39308000    45.880714   -6911.8072   -6793.7818   -6911.8072            0     2229.115    23.124918    21.341705    21.588021    10654.232    1923.5797     2158.476    2605.2892    116.07887   -106.81041    82.433911   -6447.4196 
39309000    46.989403   -6913.9834    -6793.106   -6913.9834            0    1652.5289    23.119561    21.355721     21.62774     10678.37    2225.2629    1529.2768     1203.047    67.222663   -66.248694   -164.89089   -6535.7526 
39310000    43.238005   -6911.3959   -6800.1687   -6911.3959            0    1660.2491    23.253421    21.273063    21.592358    10681.124    1889.3843    1638.8217    1452.5414   -571.52658   -487.48308   -12.349164   -6541.5463 
39311000    45.115357   -6909.9379   -6793.8814   -6909.9379            0    1903.5369    23.191899    21.263497     21.64293    10673.013    2194.1027    1943.2633    1573.2446   -106.98794   -739.02818   -263.28453   -6497.5865 
39312000    43.691926   -6903.0999   -6790.7051   -6903.0999            0    1665.6855    23.084496    21.412012    21.600103    10676.618    2326.3198    986.26785    1684.4688   -26.125076   -88.352445    148.04626   -6531.3453 
39313000    46.500372   -6904.8075   -6785.1881   -6904.8075            0    1432.0177    23.194334    21.329405    21.610129    10690.992    1501.4066    1064.9774    1729.6692   -79.364057   -38.139433   -17.650304    -6561.912 
39314000    44.964171   -6910.3887   -6794.7211   -6910.3887            0    1698.4993    23.300783    21.224075    21.597442    10680.746    1215.9052    1438.5963    2440.9966   -529.29918    438.20322    517.01983   -6530.1497 
39315000    43.813895   -6914.2705   -6801.5619   -6914.2705            0    1619.5139     23.17412    21.338922    21.595518    10679.215    1467.5085    1395.7497    1995.2835    159.21635    57.005041    111.21229   -6549.3301 
39316000    46.653059   -6906.4108   -6786.3986   -6906.4108            0    2262.7649    23.075845     21.37293    21.610664    10658.345    2513.3123    1811.9544    2463.0281    177.93531     215.4341    588.84266   -6434.6721 
39317000    44.872479   -6915.5042   -6800.0725   -6915.5042            0    1754.0549    23.225906    21.262122    21.606772    10670.116    1919.1087    1762.7405    1580.3155   -501.03889   -205.29724    252.10491   -6527.1193 
39318000      43.0808    -6906.472   -6795.6493    -6906.472            0    2641.0717    23.259727    21.225343    21.540924    10634.661    2189.0938    3113.5685    2620.5526   -69.010959    -573.1608   -760.62172   -6386.0306 
39319000    42.661226   -6910.2449   -6800.5015   -6910.2449            0    2336.5873    23.106129    21.316875    21.615955    10646.949    2753.4244    2191.8128    2064.5248    2.7921855    398.57112   -139.52643   -6437.6883 
39320000    45.541958   -6910.2798   -6793.1259   -6910.2798            0    2203.2418    23.056602    21.408709    21.559728    10642.142     2529.593    1513.6551    2566.4772    35.678082    352.51454    15.772338   -6451.1724 
39321000    44.784051   -6906.7582   -6791.5539   -6906.7582            0    1681.7793    23.228499    21.211839    21.650526    10667.629    1561.8224    2160.4313    1323.0841    94.460883   -578.38412   -71.699846   -6529.9087 
39322000    47.813405   -6904.8678   -6781.8707   -6904.8678            0    1976.3973    23.230443    21.275298    21.564158    10657.753     1342.782    2528.1369    2058.2732   -77.250222    235.56814   -131.17662   -6474.6745 
39323000    44.749936   -6912.7944   -6797.6779   -6912.7944            0    1892.8022    23.095296    21.357406    21.612768    10660.619    1774.9484    2051.2522     1852.206    332.84909    264.69515    98.264141   -6503.3961 
39324000    44.278052   -6908.1273   -6794.2247   -6908.1273            0    2216.0168    23.133709    21.291897    21.619358    10648.843    2466.7464    2021.0223    2160.2816   -230.86785   -276.99476    193.77683   -6450.0718 
39325000    46.023112   -6910.7582   -6792.3665   -6910.7582            0    2018.4091    23.260768    21.177654    21.635059    10657.614    2085.2693    2091.5472    1878.4107   -389.59285   -314.83788    40.907104   -6478.6445 
39326000    47.153784   -6915.5859   -6794.2856   -6915.5859            0    2043.3231    23.141903    21.324472    21.583953     10651.44    2371.3995    1739.2759    2019.2939     343.9843   -211.97084   -7.7123697   -6476.8751 
39327000    44.803464    -6910.856   -6795.6018    -6910.856            0    2239.6049    23.063829    21.395515    21.566608    10642.312    2773.5993    1983.6182    1961.5973    -465.5296    103.95683   -61.222218    -6447.999 
39328000     46.63507   -6904.8755   -6784.9096   -6904.8755            0    2482.0373    23.243961    21.217213    21.574999    10640.187    1892.3332    3305.3222    2248.4565    140.70801     146.7539   -435.55969   -6399.7564 
39329000    44.327615   -6911.2738   -6797.2437   -6911.2738            0    2578.9166    23.219235    21.228477      21.5803    10637.124    1594.5658    3224.9186    2917.2653   -198.27981    317.36948    62.072805   -6397.1724 
39330000    47.152737   -6907.0469   -6785.7493   -6907.0469            0    1689.9016    23.090858    21.403151    21.588745    10669.527    2204.0802    890.93275    1974.6919    195.16478    450.62383    30.663166   -6522.7937 
39331000    44.062535    -6909.689   -6796.3408    -6909.689            0    1927.6432    23.140984    21.324579    21.609425     10663.64    2227.7563    2039.2913    1515.8821    232.62497   -378.09578   -104.04058   -6496.5571 
39332000    44.426058   -6909.0712   -6794.7879   -6909.0712            0    1752.2387    23.344026    21.134332    21.623048    10667.955    1421.8196    2247.4187    1587.4778   -239.67237    14.272694   -135.37685   -6522.1725 
39333000    45.171921   -6909.6377   -6793.4357   -6909.6377            0    1763.8168    23.135298    21.330796    21.626828    10672.717    2381.5778    1416.5927    1493.2801    246.36051   -258.38576   -112.69008   -6518.8965 
39334000    48.388388   -6908.9898   -6784.5136   -6908.9898            0    1975.0225    23.093531    21.402302    21.585399    10668.685    2558.2885    1525.7987    1840.9803   -128.83668   -295.32628   -304.69879   -6477.2163 
39335000    45.720875    -6912.039   -6794.4249    -6912.039            0    1712.2665    23.250327    21.213532    21.647157    10676.845    1546.7692    1973.9981    1616.0321   -249.07805    52.033813   -149.68135   -6527.8064 
39336000    46.783164   -6916.1371   -6795.7902   -6916.1371            0    1778.7947    23.196707    21.260325    21.629763     10667.14    1755.7904    2229.8988     1350.695   -383.07249   -170.79087    16.921009   -6519.0644 
39337000    44.053203   -6912.0116   -6798.6874   -6912.0116            0    1991.1105    23.058184    21.411771    21.599016    10663.792    2435.2265    1802.5517    1735.5534   -108.65265    23.399297   -126.33109    -6489.029 
39338000    47.310173   -6914.2845   -6792.5819   -6914.2845            0    1921.0784     23.17996    21.298582    21.600725    10664.284    2027.4084    2250.6012    1485.2255   -157.08315   -77.003824   -190.69123   -6493.8011 
39339000    44.219701   -6915.2031   -6801.4506   -6915.2031            0    2346.2287    23.315669    21.149377    21.583178    10642.922    1579.4376    2790.1759    2669.0725   -44.433908   -24.339892    93.035161   -6437.2781 
39340000    45.351038   -6911.6859   -6795.0231   -6911.6859            0    2083.8984    23.121483    21.350112    21.586309    10656.001    2081.2711    2004.3541    2166.0701    192.09314   -175.72517   -192.04584   -6471.1711 
39341000    44.643059   -6914.0077   -6799.1662   -6914.0077            0    1962.3327    23.053248    21.397161    21.609047    10659.182    2954.9527    1357.3113    1574.7339   -143.94857   -52.990478   -234.66216   -6494.1152 
39342000    43.953863   -6905.5343   -6792.4656   -6905.5343            0    2097.1236     23.25435    21.207338    21.617944    10661.167    2207.8789    2515.2995    1568.1924   -56.976491    -369.9181     155.5631   -6466.4003 
39343000    45.358787   -6910.4877    -6793.805   -6910.4877            0    1987.5024    23.218861    21.281774    21.583525    10665.252    1833.6494    1959.5735    2169.2843      24.4171    184.78039   -419.38651   -6484.6653 
39344000    45.173674   -6907.3712   -6791.1646   -6907.3712            0    2068.9662    22.998145    21.488875    21.570612    10660.288    2774.7546    1168.0685    2264.0754    187.25504    388.40052   -258.44023   -6469.5038 
39345000    43.496891   -6912.1661    -6800.273   -6912.1661            0    2282.6993    23.135009    21.293588     21.62918    10655.126      2766.78    2199.1003    1882.2177   -277.20899   -276.26776    133.18678   -6445.5551 
39346000    45.179041   -6903.3288   -6787.1084   -6903.3288            0    2012.5393    23.285516    21.190884    21.610356    10663.429    2146.7421    2028.3233    1862.5525   -403.08078    -279.1113   -98.721109    -6474.128 
39347000    43.976568   -6905.0371   -6791.9101   -6905.0371            0    2429.9596    23.101175    21.325393     21.59967    10640.897    2968.7433    2373.8053    1947.3301    141.70554   -309.65714   -231.12257    -6414.813 
39348000    42.967352   -6910.3783   -6799.8474   -6910.3783            0    2207.4187    23.064405    21.361643    21.623016    10653.521    3042.2002     1747.706      1832.35    113.93235   -411.20738   -63.002292   -6456.8793 
39349000    43.636431    -6902.968   -6790.7159    -6902.968            0    2215.8641    23.223056    21.203388     21.63972     10655.56    2044.7683    2457.1728    2145.6512   -479.73544   -62.179106    166.40703   -6446.3697 
39350000    45.671674   -6914.3995   -6796.9119   -6914.3995            0    2282.1965    23.233277    21.215743    21.599874     10646.82     1998.523    2425.5417    2422.5247    13.147022    149.37284    82.647628   -6442.5485 
39351000    43.512744   -6909.9942   -6798.0603   -6909.9942            0    2311.3857    23.077185    21.406727    21.541658     10641.73     2708.368    1466.6967    2759.0923    105.74031    16.854485    83.465739   -6439.3363 
39352000    44.427195    -6907.601   -6793.3148    -6907.601            0    2254.4746    23.184955     21.24176    21.615076    10645.192    2533.1262    2087.5185     2142.779   -9.3870605   -413.50937    79.127627   -6443.3094 
39353000    46.216885   -6907.2349   -6788.3448   -6907.2349            0    2254.2894    23.220304    21.211476    21.626897    10652.045    2429.5527    2722.4798    1610.8356   -455.51707    51.830528   -161.93811   -6438.1429 
39354000    47.266455    -6915.438   -6793.8479    -6915.438            0    1628.9204      23.1349    21.362652    21.607784     10679.06    1894.4205    1494.1698     1498.171    189.67875   -52.195988   -285.13515   -6540.1547 
39355000     46.41973   -6909.8657   -6790.4538   -6909.8657            0    1960.4074    23.175303    21.382855    21.529966    10669.264    1759.1588    1243.8874     2878.176   -216.33365    540.28757    205.41507   -6485.4138 
39356000    43.926902   -6908.9917   -6795.9924   -6908.9917            0    2298.2637    23.241071    21.216509    21.613108    10657.302    1786.8903    2641.0465    2466.8544    282.94377    106.50779    720.64056   -6438.7829 
39357000    44.520897   -6908.7585   -6794.2312   -6908.7585            0    2030.1569    23.208602    21.312739    21.547151    10658.059     2312.805    1485.7077    2291.9581   -116.69161   -120.82218    158.34165     -6478.67 
39358000    42.916975   -6905.3308   -6794.9295   -6905.3308            0    2105.6623     23.10406    21.363361    21.604794    10663.702    2068.2783    2306.8285    1941.8802   -54.687174    337.97386    8.6590134   -6467.4586 
39359000    43.684043   -6909.4218   -6797.0473   -6909.4218            0    1997.3363    23.170116    21.318847    21.595803    10667.466    1344.1963    2262.2392    2385.5733    97.913585    111.33358    126.13937   -6486.3136 
39360000    46.069734   -6914.9813   -6796.4697   -6914.9813            0    1677.6506    23.213213    21.238168    21.639961    10668.633    1178.9148    1904.3342    1949.7029    2.3721068   -85.497805    482.36251   -6535.4423 
39361000    44.469381   -6906.0032   -6791.6084   -6906.0032            0    1934.7533    23.172096    21.334795    21.560798    10659.053      1971.55    1048.5531    2784.1569   -7.2626782    84.423935    574.72419   -6490.8484 
39362000    45.672629   -6908.8109   -6791.3209   -6908.8109            0    2217.2156    23.103229    21.372496    21.580708    10655.986    2203.1687    1710.0965    2738.3814   -382.68886    470.94887    367.01854   -6446.7509 
39363000    47.052048   -6913.1333   -6792.0947   -6913.1333            0    2116.9429    23.208572    21.281763     21.58066    10659.105    1887.1274    2049.3071    2414.3942   -112.54655    108.53588   -260.95141   -6463.0115 
39364000    46.395983   -6910.4068    -6791.056   -6910.4068            0     1907.961    23.229462    21.236856    21.625734    10668.423    1512.3743    2286.5682    1924.9406    87.867447    350.80623   -74.212271   -6494.2001 
39365000    44.373918   -6906.3081   -6792.1589   -6906.3081            0    1921.8586    23.094359    21.366465    21.615831     10666.22    2491.6321    1942.6394    1331.3042    16.382425     7.972383   -21.211618   -6493.2025 
39366000    44.021782   -6914.1437   -6800.9003   -6914.1437            0     1703.975    23.154873    21.339922    21.601611    10673.856    1643.2365    1818.6207     1650.068    661.96321   -87.486538   -396.84447   -6535.6472 
39367000    42.924226   -6915.1493   -6804.7294   -6915.1493            0    1812.0048     23.25619    21.280147    21.564594    10672.213    1866.2939    1567.8314     2001.889   -74.252458   -315.74095   -252.13245    -6522.703 
39368000    42.758835   -6908.1835    -6798.189   -6908.1835            0    2088.1359    23.153381    21.315445    21.608629    10664.391    1975.5524    2167.5907    2121.2647   -75.145244    137.57739    30.669936   -6473.4229 
39369000    45.176046   -6910.4875   -6794.2749   -6910.4875            0    2038.3353    23.085154    21.362709    21.612496    10658.449    2432.3072    2246.0969    1436.6016    445.82717    245.87513    308.04387   -6477.4308 
39370000    44.044426   -6907.7078   -6794.4062   -6907.7078            0    2099.2222    23.188719    21.286269    21.606444    10664.969    1756.1255    2453.1321    2088.4091    417.31389   -290.56684    -127.9766   -6467.8981 
39371000    44.029484   -6907.3685   -6794.1054   -6907.3685            0     2076.654    23.234484    21.240455    21.603424    10661.528    1713.4986    2366.1327    2150.3309   -512.83477    4.5174833   -622.00091   -6471.2117 
39372000    46.435911   -6906.3782   -6786.9247   -6906.3782            0     2428.302    23.217621    21.325975    21.498531    10644.748    1260.2027    2678.4504    3346.2528    153.33467    508.62383    338.57146   -6409.9485 
39373000    44.634692   -6910.4032   -6795.5832   -6910.4032            0    2041.6011    23.109511    21.308137    21.649147    10660.486    1822.4866    2504.1236     1798.193    442.62342    213.58716    237.71285   -6478.1709 
39374000     44.72745   -6906.5244   -6791.4658   -6906.5244            0    2204.3925    23.204797     21.28056    21.576317    10654.624    1967.0858    2270.4336     2375.658   -92.281169    84.691795    -39.24045   -6448.9324 
39375000    45.396379   -6906.1274    -6789.348   -6906.1274            0    2067.2963    23.219576    21.260527    21.606465    10666.257     2232.454    2322.3808    1647.0542    326.65958   -199.05656    -179.1199   -6467.7668 
39376000    44.240479   -6908.6657   -6794.8597   -6908.6657            0    2146.6139    23.066399    21.429135    21.552638    10653.317    3023.1093    1736.0528    1680.6796   -518.72114   -225.80552   -256.46127   -6461.3453 
39377000    45.425206   -6911.4682   -6794.6146   -6911.4682            0    2000.3122    23.123019    21.307953    21.629867    10657.126     2709.149    1592.8271    1698.9606    190.50348   -547.22097   -295.89179   -6483.7196 
39378000    44.683222   -6908.6041   -6793.6592   -6908.6041            0    2139.7434    23.237622    21.188463    21.643302    10656.501    2404.1646    2583.0903    1431.9753   -187.49082   -567.96448    91.068973   -6461.1128 
39379000    47.425415   -6908.8296   -6786.8306   -6908.8296            0    1955.0762    23.119007    21.346922    21.615736     10667.79    2328.8806    1804.6404    1731.7077   -320.48895    147.01492   -413.82396   -6482.6622 
39380000    43.517076   -6914.9738   -6803.0288   -6914.9738            0    1999.9301     23.13003    21.364265    21.572859     10660.36    1901.7944    1937.6972    2160.2987    432.91944    237.89656   -278.09958   -6492.0988 
39381000    43.408308   -6913.4273   -6801.7621   -6913.4273            0    1933.5946    23.231856    21.251009    21.613662    10670.673    1420.0263    2402.8548    1977.9027    283.02415   -211.01467    551.49745   -6500.8545 
39382000    46.847775   -6907.7349   -6787.2219   -6907.7349            0    2287.9241    23.225292    21.252555    21.596005    10659.719    2102.1596    2509.2507    2252.3619     171.7672   -564.79191     169.5786   -6431.5388 
39383000    44.513586   -6905.7361   -6791.2276   -6905.7361            0    2062.4136    23.129908    21.371702    21.555533    10655.449    2227.2975    2136.9501    1822.9931   -108.87521   -14.828336   -170.69255   -6470.7311 
39384000    43.529058   -6913.2728    -6801.297   -6913.2728            0    1555.3146    23.233117    21.292123    21.582942    10676.702    1128.6638    1614.8707    1922.4094   -318.57515    323.76681    161.99082   -6559.1209 
39385000    43.425305   -6911.3291   -6799.6202   -6911.3291            0     1825.203    23.263413    21.232664    21.600056    10669.223    1301.1688    2383.8943    1790.5459    324.82696   -414.27623    108.56593   -6515.6192 
39386000    46.484547   -6907.9957   -6788.4171   -6907.9957            0    1798.2904    23.125043    21.344638    21.615888    10669.509    1916.7842    2013.4397    1464.6472   -497.02641    352.35493    109.71671   -6508.5962 
39387000    43.925543   -6908.6793   -6795.6835   -6908.6793            0    1755.5079    23.090927    21.444876    21.532059    10662.289    2209.6708    744.04945    2312.8035    214.53896   -130.68873    276.56245   -6522.7046 
39388000    43.503284   -6910.5531   -6798.6435   -6910.5531            0    1800.9866    23.259047    21.219972    21.611001    10666.246    1227.8494    1677.9278    2497.1825   -16.373772    31.273392    187.68813   -6518.4888 
39389000    45.548632   -6913.2871    -6796.116   -6913.2871            0    1927.9505    23.180019    21.292716    21.605934    10663.945    1817.7498    1542.1909     2423.911   -68.274451    -35.17818    305.97304    -6496.276 
39390000    45.251907   -6910.0126   -6793.6049   -6910.0126            0     1808.015    23.060892     21.44254    21.559735    10660.946    2435.4884     1265.902    1722.6546    444.88167    200.54374    420.97381   -6512.4966 
39391000    44.805331   -6912.1731   -6796.9141   -6912.1731            0    1970.1605    23.199792     21.29307    21.587216    10663.972    1590.6152    2088.1636    2231.7026     338.1263    26.742647    158.56382   -6490.5086 
39392000    46.429469   -6913.1354   -6793.6985   -6913.1354            0     1729.512    23.252822    21.173859    21.681688    10675.022    1544.3434    2391.2273    1252.9653    245.30372    294.87498    -143.8549   -6524.4407 
39393000     43.53058   -6906.0529   -6794.0732   -6906.0529            0    1984.5221     23.14364    21.338613    21.591846    10663.202    2014.2758     1421.742    2517.5484    210.30951    110.55749    255.02195   -6485.4564 
39394000    43.469817   -6907.3205    -6795.497   -6907.3205            0    1929.6636    23.110974    21.377794    21.584082    10663.867    1997.8439    1735.7386    2055.4083    68.360326    288.58402    191.18328   -6495.3927 
39395000    46.070892   -6905.4764   -6786.9618   -6905.4764            0    2209.7008    23.287908    21.208349    21.579193    10657.922    1027.9209    2564.5134    3036.6683    658.09378     262.9861    74.104021   -6443.4973 
39396000    42.278849   -6904.0409   -6795.2811   -6904.0409            0    2147.4146    23.183418    21.278239     21.60364    10657.126    1976.8542    2178.9735     2286.416   -490.64745   -79.393924     456.0507    -6461.523 
39397000    45.407936   -6913.9432   -6797.1341   -6913.9432            0    2236.0478    23.087311    21.336732    21.596295    10638.503    2825.3041    1786.2852    2096.5541    272.19964    96.014038      188.162   -6450.2076 
39398000    44.721718   -6913.6633   -6798.6194   -6913.6633            0    1977.7414    23.160081    21.320502    21.579268    10655.509    2271.5141    1925.2885    1736.4216   -421.48822    56.974939   -197.08835    -6491.279 
39399000    47.763529   -6911.8798   -6789.0111   -6911.8798            0    1765.7926    23.277475    21.219132    21.602501    10670.076    1026.3206     2663.568    1607.4891   -50.482635   -415.91102   -462.14173   -6514.2323 
39400000    45.298435   -6913.6715    -6797.144   -6913.6715            0    1712.1085     23.15658    21.323205    21.604799    10667.855    1665.7186    1989.6911    1480.9156    92.369035   -559.54507    31.534264   -6530.7747 
39401000    46.023222    -6908.147    -6789.755    -6908.147            0    1844.2231    23.110967    21.394161    21.567338     10663.75    1754.7674    1662.1146    2115.7874    378.09706    534.63727   -39.755772   -6502.9417 
39402000    44.439901   -6913.8353   -6799.5164   -6913.8353            0     1565.864    23.247771    21.219088    21.656797    10683.222    841.53583    2160.5375    1695.5188    133.93846    468.92393    599.55134   -6555.5487 
39403000    45.333386    -6904.297   -6787.6797    -6904.297            0    1559.8862    23.260557    21.277987    21.581171    10681.338    1103.0252    1869.4926    1707.1407   -506.68928    267.44892   -211.14063   -6544.6863 
39404000    43.740948   -6906.0599    -6793.539   -6906.0599            0    1952.6407    23.095228    21.381273    21.602448    10667.405    2332.9319    1589.3556    1935.6347    -39.55272   -121.09992   -479.98613   -6489.7605 
39405000    44.587737   -6913.3605   -6798.6612   -6913.3605            0    2375.1391    23.178932    21.290898    21.583916    10651.668    2100.1992    2288.5582    2736.6598    81.817179    418.01063    -236.4969   -6429.6984 
39406000    42.669823   -6914.4717   -6804.7061   -6914.4717            0    1648.9682    23.231696    21.211005    21.675472     10680.97    1611.4195    1957.6635    1377.8216    254.32653   -69.951846    143.85468   -6547.8447 
39407000    45.333836   -6914.5721   -6797.9535   -6914.5721            0    1491.7035     23.16438    21.391029    21.554184    10680.312    1363.4419    1287.5312    1824.1373   -53.747031    56.792826   -149.18625   -6565.6037 
39408000    44.223368   -6910.4141   -6796.6522   -6910.4141            0    1866.3139    23.124163    21.365303     21.59864    10670.911     1889.785    1929.0881    1780.0686    242.95256    201.17106   -312.51506   -6506.2084 
39409000    45.927599    -6911.105   -6792.9591    -6911.105            0     2341.866    23.204672    21.246136    21.602696    10650.337     2415.268    2089.0667    2521.2632   -472.78814   -242.05174    46.054171   -6429.2105 
39410000    45.228582   -6912.7631   -6796.4154   -6912.7631            0    2342.6285    23.131792    21.259572     21.65415    10648.904    2555.5184    2628.9602    1843.4068    245.32348   -377.24647    25.594687   -6432.5973 
39411000    42.958762   -6911.9002   -6801.3914   -6911.9002            0    1663.2406    23.084092    21.426468     21.58141    10674.393    2066.4184    892.39747    2030.9059    593.80865   -158.23364    358.53348   -6542.4663 
39412000    42.617727   -6903.2606   -6793.6291   -6903.2606            0    2071.9313    23.268033    21.252232    21.550001    10656.425    1723.1639    2219.5038    2273.1264    96.892629   -417.47679    130.03965   -6471.6239 
39413000    44.968733   -6909.1877   -6793.5084   -6909.1877            0    2377.1855    23.223253    21.206366    21.601146     10638.15    2241.6819     3033.005    1856.8694     -206.257   -176.54546   -184.01708   -6424.6964 
39414000    44.608389   -6912.2829   -6797.5305   -6912.2829            0    2443.2089    23.037293    21.378927     21.60166     10639.09    3118.8872    2071.8811    2138.8584    14.732162    67.109398   -46.775062   -6418.4417 
39415000    44.915952   -6909.4567   -6793.9132   -6909.4567            0     2286.627    23.100235    21.310262    21.639177    10652.362    2382.8624    2290.2657    2186.7529    243.75876   -62.204011   -99.156192   -6438.6771 
39416000    45.868446    -6906.132   -6788.1383    -6906.132            0    1829.6258    23.291669    21.210762    21.589748    10666.071    1137.7556     2280.478    2070.6437    188.40993   -49.826559    -469.8378   -6503.5332 
39417000    45.189244    -6911.793   -6795.5464    -6911.793            0    1988.1203    23.163337    21.309419    21.579725    10651.693    1940.6506    2403.1969    1620.5133    14.012514    205.38791    84.942015   -6486.7038 
39418000    45.946995   -6907.0342   -6788.8384   -6907.0342            0    1804.7312    23.101084    21.391846    21.568813    10658.764     1915.331    1663.4654    1835.3973    293.74533   -55.694787    230.27112   -6508.2981 
39419000      46.6978   -6905.5865   -6785.4592   -6905.5865            0    1738.4658    23.234923    21.247184     21.62292    10674.732    1457.2282    2101.0303    1657.1388    37.735557   -495.80289   -18.953455   -6514.8149 
39420000       45.037   -6911.7585   -6795.9036   -6911.7585            0    1530.9379    23.172668    21.256169    21.668272     10672.97    1596.0385    2171.5599    825.21536    388.61285  0.012111237   -468.32002   -6557.6065 
39421000    44.978558   -6910.1936    -6794.489   -6910.1936            0     1773.057    23.121843    21.379996    21.553676     10654.95      1485.68    1795.1983    2038.2926   -236.57539    217.75792    169.90096    -6518.971 
39422000    46.376964   -6911.5727   -6792.2707   -6911.5727            0    1983.5286    23.230674    21.273705    21.555774    10652.918    1344.4867    2591.8061     2014.293    473.66742    114.73038   -21.597207    -6484.106 
39423000    43.862599   -6909.5183   -6796.6844   -6909.5183            0    2026.4926    23.235739    21.213728    21.611759    10652.796    1444.9078    2587.9788    2046.5912    153.76554    172.19718    63.034028   -6481.8483 
39424000    44.465657   -6911.2696   -6796.8844   -6911.2696            0    2236.9777    23.038518    21.357616    21.635846    10645.871    2782.5621     1738.404    2189.9669     -220.339    326.20709    160.06099   -6449.5732 
39425000    46.059356   -6911.8212   -6793.3363   -6911.8212            0     2300.279    23.112706    21.317111     21.60129    10642.872    2257.5606    2395.7339    2247.5427   -168.74358   -220.32193    39.688541   -6436.2977 
39426000    45.081513    -6914.024   -6798.0546    -6914.024            0    2353.3133    23.283976    21.213931    21.543093    10641.096    1729.6296    2982.1164    2348.1939    138.21101   -268.26651   -252.27172   -6432.8452 
39427000    47.027627   -6908.0204   -6787.0447   -6908.0204            0    1734.2882    23.208523    21.313836    21.583955    10676.777    1694.5941    1858.8935    1649.3769   -332.94929    407.03662   -225.12863    -6516.999 
39428000    45.941162   -6909.4504   -6791.2696   -6909.4504            0    1851.8999    23.098347    21.373278     21.60387    10665.558    2243.6142    1812.7133    1499.3722    112.88766    95.880317   -3.2236047   -6503.2136 
39429000    44.671714   -6907.8623    -6792.947   -6907.8623            0    2210.2111     23.17778    21.277842    21.608186    10656.577    2110.0885    2441.5241    2079.0206    1.0664943   -149.94776    393.60538   -6449.4465 
39430000    44.907736   -6907.2599   -6791.7374   -6907.2599            0    2130.9185    23.247816    21.221078    21.604011    10658.203    1711.9824    2749.3119    1931.4611    112.59592    188.65273   -366.40494   -6460.5097 
39431000    45.710526    -6911.861   -6794.2735    -6911.861            0    2424.0696    23.092334    21.360863    21.578448    10644.048     2348.526    2196.0741    2727.6087     522.3094    67.100514    -74.32833   -6417.9791 
39432000    45.114268   -6905.0769   -6789.0232   -6905.0769            0    2370.6132    23.100343    21.373658    21.550319    10640.229     2995.556    1603.7454    2512.5382     170.5061     16.33957   -54.714087    -6421.159 
39433000     44.20523   -6911.3697   -6797.6544   -6911.3697            0    2164.7261    23.228199    21.182648    21.655744    10655.379    1983.0106    2657.2038    1853.9638   -443.80843    97.310688    303.13343   -6461.2608 
39434000    44.156272   -6910.2627   -6796.6734   -6910.2627            0    2019.3771    23.184878    21.270842    21.616666    10660.516    1955.3449    2001.0138    2101.7726    386.83438   -395.17705   -98.416577   -6482.7154 
39435000    45.983286   -6907.1137   -6788.8245   -6907.1137            0    2049.3147    23.089783    21.397048    21.568376    10655.925    2446.4264    1575.1411    2126.3765    316.28307   -288.29474   -25.244412   -6470.3493 
39436000    45.039194   -6905.3338   -6789.4732   -6905.3338            0    2318.4243    23.197634    21.251821    21.616322    10656.673    2460.7661    2413.9695    2080.5373   -679.41678    482.95949   -256.77549   -6429.1515 
39437000    42.668195   -6909.9498   -6800.1885   -6909.9498            0    2145.3309    23.248983    21.183952    21.654471    10664.943    1840.8206    2971.7826    1623.3894   -654.24701   -53.545124   -285.85604   -6466.5096 
39438000    45.945266   -6906.8402   -6788.6488   -6906.8402            0    1956.3353    23.093067    21.358212    21.632071    10669.513    2083.9266    2021.0933     1763.986   -194.93714    280.58787   -241.55249   -6484.2354 
39439000     43.62209   -6912.8289   -6800.6138   -6912.8289            0    2483.7303     23.11231    21.344996    21.568268     10640.32    2383.5893    2202.5396     2865.062     795.3715    24.968797    91.605803   -6415.1931 
39440000    47.289839   -6905.8022    -6784.152   -6905.8022            0    1756.3843    23.280714    21.260671    21.575997    10679.333    1573.5096    1854.3942    1841.2491   -89.449188    211.89545   -133.29855   -6510.6002 
39441000    46.367136   -6908.0168   -6788.7401   -6908.0168            0    2145.7065     23.18988    21.238125    21.648356    10662.023    2812.5147    2108.8534    1515.7515   -131.78025   -210.96499    -132.0391   -6455.0942 
39442000    46.242367   -6911.0981   -6792.1425   -6911.0981            0    1749.0641    23.116183     21.40969     21.56393    10672.211    2235.6395    1340.3912    1671.1616    184.96863   -251.54406   -97.781122   -6519.9124 
39443000    43.053267   -6907.8747   -6797.1228   -6907.8747            0    1791.8269    23.194901    21.262321    21.641884    10673.289    1988.9071    1645.3653    1741.2084    -110.0627    288.58325    119.28652   -6518.2088 
39444000    44.713153   -6908.1195   -6793.0977   -6908.1195            0    2060.4676     23.27201    21.203717    21.612243    10664.629     1659.992    2396.8364    2124.5743   -379.00071    295.95467   -422.00286   -6472.6276 
39445000     45.26465   -6906.3773   -6789.9367   -6906.3773            0    2215.7217    23.149339    21.361194    21.549575    10656.212    2199.3824    1940.5531    2507.2295   -256.19522    89.350329    197.75434   -6445.5916 
39446000    45.647237   -6914.0208    -6796.596   -6914.0208            0    2282.6009    23.122703    21.332227    21.596241    10652.535    2244.8029    2337.8929     2265.107    376.25334   -54.889764    49.502611   -6441.9796 
39447000    44.752163   -6907.3845   -6792.2623   -6907.3845            0    2430.6385    23.226248    21.215975    21.595379    10641.501    2237.8821    2470.3873    2583.6461   -330.89515     41.41775     122.5237   -6415.0385 
39448000    45.489831   -6907.5108    -6790.491   -6907.5108            0     1964.467    23.157891    21.259131    21.654984    10661.109    2003.0924    2102.9036    1787.4051   -75.150337    192.30234    484.69488    -6485.053 
39449000    46.142359   -6908.0678   -6789.3694   -6908.0678            0    2254.8888    23.047009    21.438981    21.553309    10649.585    2728.2928    1719.0165    2317.3571   -265.37295    469.57189   -198.02535   -6439.1552 
39450000    43.000197   -6906.6811   -6796.0657   -6906.6811            0    1904.1373    23.173893    21.286271     21.63089     10670.21    1916.6903    2126.2963    1669.4254   -286.37109    262.59009   -898.74796   -6499.7551 
39451000    45.854625   -6911.1204   -6793.1622   -6911.1204            0    2014.1707    23.250061     21.25188    21.576611    10661.166    1735.1679    2138.0569    2169.2874    98.701566   -402.59641   -110.75217   -6479.9945 
39452000    45.523449   -6912.4352   -6795.3289   -6912.4352            0    1683.5053    23.170318    21.327707    21.597092     10672.63    1048.4916    2014.5582    1987.4661    278.52386    11.818385     388.1961   -6533.2924 
39453000     43.07777   -6913.2087   -6802.3937   -6913.2087            0    1937.1657     23.13131     21.36534    21.551505    10650.933     1989.109    1874.0482      1948.34    73.315644    347.49956    -83.55286   -6501.4881 
39454000    44.344471   -6909.9201   -6795.8467   -6909.9201            0    1935.7401    23.218651    21.241267    21.625433    10665.524    1544.7742    2674.1124    1588.3335    282.24283   -21.613588   -217.71814   -6494.7506 
39455000    46.437576   -6915.8276   -6796.3697   -6915.8276            0    1787.6065    23.238166     21.26356    21.580226    10663.354    1447.6726    1678.2122    2236.9347    206.55387    -54.45977     36.64725   -6518.3718 
39456000    44.404282   -6913.9261   -6799.6988   -6913.9261            0     1562.571    23.071264    21.338528     21.68609     10676.21    2262.7416    1434.6137    990.35778   -168.31734   -18.171392    96.005491    -6556.404 
39457000    43.521541   -6911.4834   -6799.5269   -6911.4834            0    2216.7785    23.131937    21.337531    21.561671    10642.376    2239.7873     1962.892    2447.6562   -227.55341    202.38306    183.53726   -6455.4648 
39458000    46.450851   -6912.4876   -6792.9956   -6912.4876            0    2228.2293    23.226406    21.241437    21.585152    10649.299    1959.2286    2571.4564     2154.003   -395.27786    -109.6822    51.836429   -6446.9313 
39459000    43.625316   -6903.5452   -6791.3217   -6903.5452            0    1909.8062    23.240193    21.261677    21.592594    10669.451    1733.6486    1726.6081     2269.162   -491.02874    24.842297   -112.74528   -6494.1501 
39460000    44.254056   -6908.9373   -6795.0964   -6908.9373            0    1720.1398    23.113438     21.38378    21.591274    10671.545    2524.3427    927.62329    1708.4535    -197.6095    101.63441   -387.47024    -6527.385 
39461000    46.387451   -6910.5956   -6791.2667   -6910.5956            0    1720.4088    23.155446    21.337402    21.593254    10668.731    2012.7287    1206.4023    1942.0954   -361.89632    145.73164    167.88044    -6523.584 
39462000     43.03099   -6907.8615   -6797.1669   -6907.8615            0    1840.1134    23.246016    21.204419      21.6506    10671.976      1984.21    2025.3954    1510.7347    -63.43272    160.94381    879.23797    -6510.772 
39463000     44.92241    -6911.064   -6795.5039    -6911.064            0    2171.0043    23.189107    21.314403    21.556498    10654.557    2131.4863    2141.6357     2239.891    62.546934   -189.02538   -7.1655374   -6458.1607 
39464000    45.024083   -6910.2486   -6794.4269   -6910.2486            0    1706.3762    23.157748    21.385605    21.557913    10676.394    2477.9392    1135.2588    1505.9307    -15.03045   -431.75236   -512.03436   -6528.7369 
39465000    42.847172   -6909.6762   -6799.4545   -6909.6762            0    2235.0723    23.189968    21.259078    21.614796    10656.037    2535.8067    2326.0359    1843.3744    97.174924   -613.79032   -484.20038   -6452.1078 
39466000    44.904563   -6910.4148   -6794.9006   -6910.4148            0     2223.199    23.149542    21.264354    21.651958    10658.394    2676.3101    2445.9578     1547.329   -497.03891   -193.16756    -12.33417   -6449.3226 
39467000    45.509082   -6911.2706   -6794.2013   -6911.2706            0    2294.1628    23.117552    21.330846    21.584521    10643.693    3057.9485    1879.6587    1944.8814    -206.3558    119.83133   -134.12365   -6438.0845 
39468000    47.854813   -6913.0946    -6789.991   -6913.0946            0    2297.7641    23.195432    21.297152    21.554758    10647.978    2283.6922    2009.5922    2600.0078    82.647881   -160.48481    -321.1059   -6433.1716 
39469000     44.22813   -6910.5485   -6796.7743   -6910.5485            0    2125.7119    23.182233    21.292854    21.595019    10659.645     2506.692    1467.0986    2403.3451   -610.29637    89.895355    249.21555   -6466.3112 
39470000    44.042208   -6915.4313   -6802.1354   -6915.4313            0    1902.2905    23.094533    21.307754    21.677224    10667.202    2680.1907    1524.1934    1502.4874   -290.91851    309.01997    76.854886   -6506.1957 
39471000    43.834355   -6909.0657   -6796.3044   -6909.0657            0    2166.7238    23.129058    21.313086    21.604489    10649.967    2417.0193    1732.6556    2350.4965    127.40196   -3.8241013    95.998051   -6459.7714 
39472000    44.778904   -6913.4881   -6798.2971   -6913.4881            0    1676.2266     23.29191    21.253748    21.535761    10661.072     1214.694    1980.3823    1833.6034    102.63132    143.21134   -349.15774   -6537.6761 
39473000    43.580827   -6911.3905   -6799.2815   -6911.3905            0    1761.0032    23.204634    21.302879    21.595824    10675.367     1410.044    1700.6619    2172.3039    178.35428   -264.96034    223.83418   -6525.1121 
39474000    44.039203   -6902.3224   -6789.0342   -6902.3224            0    1981.2821    23.092216    21.368437    21.626751    10671.603    2016.0901    1510.9037    2416.8526    160.27812   -239.01932    328.34743   -6480.6786 
39475000    42.676961     -6906.46   -6796.6762     -6906.46            0    2259.6672    23.119644    21.255114    21.673239    10650.461    2251.7748    2504.0017     2023.225    406.76429   -331.87216    494.00402    -6445.691 
39476000     45.88484   -6912.7778   -6794.7418   -6912.7778            0    1848.1168    23.263917    21.301516    21.501747    10655.335    1279.1597    1859.6456    2405.5453    -529.3963     210.5001    392.45698   -6507.5498 
39477000    47.486792   -6906.4124   -6784.2556   -6906.4124            0    1740.1884    23.149107     21.30939    21.656794    10683.153    1933.9372    1920.6492    1365.9788    41.475664   -64.721443   -712.07196   -6513.1293 
39478000     46.43996    -6904.983    -6785.519    -6904.983            0    1889.6158    23.158292      21.3376    21.592383    10669.711    1626.2383    1710.1505    2332.4587   -294.42172   -37.331146   -144.19547    -6491.482 
39479000    45.690754   -6908.6642   -6791.1275   -6908.6642            0    1915.9951    23.188048    21.282596    21.582741    10651.123    1405.8007    2044.1809    2298.0039    47.689904    542.81665    349.05263   -6493.5051 
39480000     45.24343   -6904.9873   -6788.6014   -6904.9873            0    2055.0511    23.188112    21.302589    21.566193    10652.984    1633.5562     2220.324    2311.2731    94.788043    677.39938    570.30641   -6469.3228 
39481000    43.949847   -6901.1948   -6788.1365   -6901.1948            0    1973.9129    23.188698     21.27368    21.635645    10673.057    1754.5718     2200.568    1966.5989    65.913904   -228.69512   -254.62485   -6480.8859 
39482000    46.323694   -6911.7419    -6792.577   -6911.7419            0    2020.8558    23.182574    21.255436    21.639089    10662.785    2465.7316    2124.4301    1472.4056     44.82239   -215.06252   -372.90909   -6478.3223 
39483000    42.807228   -6907.7817   -6797.6628   -6907.7817            0    1993.7808    23.140644    21.359546    21.557333    10655.221    2257.4182    1583.6348    2140.2895    405.92997    29.929552   -340.26374   -6487.8382 
39484000    45.310464   -6911.0797   -6794.5213   -6911.0797            0    2020.1303    23.183263     21.29717    21.583032    10656.361    2307.7828    1861.6895    1890.9186    267.57794    255.94801    9.0025898   -6480.5686 
39485000    44.526305   -6909.4201   -6794.8789   -6909.4201            0    2119.1594    23.246355     21.24678    21.593021    10665.013    1923.9281    2071.4034    2362.1468    62.167186   -588.87987   -25.740748   -6465.2685 
39486000     46.67005   -6916.0977   -6796.0419   -6916.0977            0    2115.3835    23.138417    21.306873    21.611037    10654.399    2490.8907    1656.2223    2199.0377   -158.95784    199.87885    134.93484   -6467.3462 
39487000    43.739811    -6910.725    -6798.207    -6910.725            0    1835.6959    23.105336    21.426915     21.53222    10660.087    2481.0028    889.53475    2136.5501   -431.69662    88.427405    185.89243   -6512.8179 
39488000    46.012093   -6906.3599   -6787.9966   -6906.3599            0     2085.414    23.236763    21.226989     21.62974    10668.794    1976.7483    1760.9882    2518.5055    807.11452   -191.02969    93.694867   -6463.5199 
39489000    44.533605   -6909.2172   -6794.6572   -6909.2172            0    2220.1469    23.206878    21.251938     21.61343    10659.552    2021.0842    2466.2139    2173.1425   -692.16478   -455.18892   -127.25821   -6449.5162 
39490000    44.649881   -6905.5459   -6790.6868   -6905.5459            0    1999.0703    23.132792    21.362244    21.572799    10660.595    2398.8804    1384.7697    2213.5607    225.88368   -24.107355    90.894991   -6479.8837 
39491000    45.195075   -6912.4747   -6796.2131   -6912.4747            0    2059.5687    23.136953    21.342005    21.589233    10660.525    2266.0471    1694.1866    2218.4725    150.45689    228.90335     26.26216   -6476.0062 
39492000    44.804575   -6910.7753   -6795.5182   -6910.7753            0    1937.1504    23.212719    21.247243    21.640627    10673.294    1761.0927    2290.5109    1759.8475    240.50449    131.42913    441.61048   -6493.9833 
39493000     46.04479   -6909.8229   -6791.3755   -6909.8229            0    2016.2239    23.124396    21.284271    21.673232     10667.26     2000.869    2290.9671    1756.8356    352.65614   -26.111455    201.80559   -6477.7094 
39494000    44.453388   -6907.5276    -6793.174   -6907.5276            0    1882.4357    23.137212    21.413401    21.514678     10659.37    1692.8416    1504.3519    2450.1137    134.15065    310.90341   -34.784887   -6500.5381 
39495000    47.164841   -6907.6216    -6786.293   -6907.6216            0    2315.7245    23.192037    21.286081    21.594771    10660.638    2303.6469    2415.2998     2228.227    -292.7482   -15.509565   -427.83982   -6426.2569 
39496000    43.775876   -6909.4953   -6796.8845   -6909.4953            0    2061.7968     23.19927    21.254038    21.626849    10663.727     2187.702    1783.3221    2214.3662   -162.48943   -277.88725    82.775377   -6476.2349 
39497000    44.884399   -6907.6881   -6792.2257   -6907.6881            0    2450.5688     23.09067    21.321374    21.607049    10637.687    2639.4386    1975.1355    2737.1323     197.0709    330.32317    612.44587   -6412.0451 
39498000    44.444283    -6905.273   -6790.9428    -6905.273            0    2408.8965    23.129312    21.333505    21.572142    10644.326    2670.1034    2073.4249    2483.1613   -114.05249   -122.68611    207.85269   -6416.9939 
39499000    44.684111   -6910.2058   -6795.2587   -6910.2058            0    2467.6112    23.236184    21.232495    21.565714    10639.707     1837.517    2872.1693    2693.1473   -730.69544    473.00573   -262.44814   -6412.3614 
39500000    46.567665   -6902.8353   -6783.0428   -6902.8353            0    2451.7556    23.206509    21.224006    21.625574    10651.354    2298.1398    3194.1916    1862.9354    147.01975   -125.60586   -200.71354   -6402.1894 
Loop time of 534.141 on 64 procs for 250000 steps with 1296 atoms

Performance: 80.877 ns/day, 0.297 hours/ns, 468.041 timesteps/s
388.0% CPU use with 16 MPI tasks x 4 OpenMP threads

MPI task timing breakdown:
Section |  min time  |  avg time  |  max time  |%varavg| %total
---------------------------------------------------------------
Pair    | 40.299     | 49.464     | 58.472     |  72.4 |  9.26
Bond    | 1.4395     | 1.7424     | 1.9492     |   9.5 |  0.33
Kspace  | 268.04     | 277.97     | 292.42     |  35.2 | 52.04
Neigh   | 0.13106    | 0.1421     | 0.14733    |   1.0 |  0.03
Comm    | 53.154     | 57.338     | 61.119     |  24.4 | 10.73
Output  | 0.4166     | 0.41702    | 0.41847    |   0.1 |  0.08
Modify  | 129.09     | 132.02     | 133.78     |  10.9 | 24.72
Other   |            | 15.06      |            |       |  2.82

Nlocal:        81.0000 ave          97 max          65 min
Histogram: 2 2 0 1 3 3 1 0 2 2
Nghost:        3713.56 ave        3748 max        3681 min
Histogram: 1 2 3 2 0 2 1 3 1 1
Neighs:        26228.6 ave       31315 max       21047 min
Histogram: 2 1 1 1 4 2 1 0 2 2

Total # of neighbors = 419657
Ave neighs/atom = 323.80941
Ave special neighs/atom = 2.0000000
Neighbor list builds = 313
Dangerous builds = 0

unfix		3
unfix		2
unfix		1

write_data	data.final.${pid}
write_data	data.final.0
System init for write_data ...
PPPM initialization ...
  extracting TIP4P info from pair style
  using 12-bit tables for long-range coulomb (../kspace.cpp:340)
  G vector (1/distance) = 0.36685065
  grid = 30 40 32
  stencil order = 5
  estimated absolute RMS force accuracy = 0.0046791754
  estimated relative force accuracy = 1.4091198e-05
  using double precision FFTW3
  3d grid and FFT values/proc = 11832 2400
Last active /omp style is kspace_style pppm/tip4p/omp
WARNING: Not all mixed pair coeffs generated from mixing. Use write_data with 'pair ij' option to store all pair coeffs. (../write_data.cpp:312)

write_restart   restart.lmp.${pid}
write_restart   restart.lmp.0
System init for write_restart ...
PPPM initialization ...
  extracting TIP4P info from pair style
  using 12-bit tables for long-range coulomb (../kspace.cpp:340)
  G vector (1/distance) = 0.36685065
  grid = 30 40 32
  stencil order = 5
  estimated absolute RMS force accuracy = 0.0046791754
  estimated relative force accuracy = 1.4091198e-05
  using double precision FFTW3
  3d grid and FFT values/proc = 11832 2400
Last active /omp style is kspace_style pppm/tip4p/omp
Total wall time: 0:08:54
