LAMMPS (30 Jul 2021)
  using 1 OpenMP thread(s) per MPI task
package omp 0
using multi-threaded neighbor list subroutines
echo both

include		in.partitions
variable        pid world 0
include		in.temp
variable        temperature equal 248.48
variable	tempDamp equal 100.0
include		in.pressure
variable        pressure equal 5125.0
variable        pressureDamp equal 1000.0 # This is 1 ps
include		in.seed
variable        seed world 745823

units		real
atom_style	full
read_restart	restart.lmp.${pid}
read_restart	restart.lmp.0
Reading restart file ...
  restart file = 30 Jul 2021, LAMMPS = 30 Jul 2021
  restoring atom style full from restart
  orthogonal box = (0.46718880 1.6418180 0.56996925) to (17.740384 21.987360 21.643227)
  4 by 4 by 4 MPI processor grid
  restoring pair style lj/cut/tip4p/long/omp from restart
  restoring bond style harmonic/omp from restart
  restoring angle style harmonic/omp from restart
  864 atoms
  576 bonds
  288 angles
Finding 1-2 1-3 1-4 neighbors ...
  special bond factors lj:    0        0        0       
  special bond factors coul:  0        0        0       
     2 = max # of 1-2 neighbors
     1 = max # of 1-3 neighbors
     1 = max # of 1-4 neighbors
     2 = max # of special neighbors
  special bonds CPU = 1.461 seconds
  read_restart CPU = 1.781 seconds
include 	in.setup
variable	out_freq equal 1000
variable	out_freq2 equal 10000
variable	out_freq3 equal 1000

timestep	2.0

neigh_modify    delay 7 every 1

include		in.tip4p
# This is TIP4P/Ice

# create groups ###
group ox type 2
288 atoms in group ox
group hy type 1
576 atoms in group hy

# set charges - beside manually ###
set group ox charge -1.1794
Setting atom values ...
  288 settings made for charge
set group hy charge 0.5897
Setting atom values ...
  576 settings made for charge

# ### TIP3P Potential Parameters ###
pair_style lj/cut/tip4p/long/omp 2 1 1 1 0.1577 8.5
pair_coeff 1 1*2 0.000 0.000
pair_coeff 2 2 0.21084 3.1668
bond_style  harmonic
bond_coeff  1 450 0.9572
angle_style harmonic
angle_coeff 1 55 104.52
kspace_style pppm/tip4p/omp 1.0e-5
pair_modify tail yes

thermo          ${out_freq}
thermo          1000
thermo_style    custom step temp pe etotal epair emol press lx ly lz vol pxx pyy pzz pxy pxz pyz enthalpy

restart 	${out_freq3} restart.lmp.${pid} restart2.lmp.${pid}
restart 	1000 restart.lmp.${pid} restart2.lmp.${pid}
restart 	1000 restart.lmp.0 restart2.lmp.${pid}
restart 	1000 restart.lmp.0 restart2.lmp.0


include         in.dump
dump            myDump all atom ${out_freq2} dump.water.${pid}
dump            myDump all atom 10000 dump.water.${pid}
dump            myDump all atom 10000 dump.water.0
dump            myDump2 all dcd ${out_freq2} dump.dcd
dump            myDump2 all dcd 10000 dump.dcd
dump_modify     myDump append yes
dump_modify     myDump2 append yes


variable natoms 	equal  "count(all)"                        # NUMBER ATOMS
variable H      	equal  "enthalpy/v_natoms"                 # ENTHALPY-per-atom
variable Vol      	equal  "vol/v_natoms"                 # volume-per-atom
fix AVG all 		ave/time ${out_freq} 1 ${out_freq} v_Vol v_H file vol_enthalpy.dat
fix AVG all 		ave/time 1000 1 ${out_freq} v_Vol v_H file vol_enthalpy.dat
fix AVG all 		ave/time 1000 1 1000 v_Vol v_H file vol_enthalpy.dat


timer           timeout 23:50:00 every 1000
New timer settings: style=normal  mode=nosync  timeout=23:50:00

fix 		1 all shake 1e-6 200 0 b 1 a 1
       0 = # of size 2 clusters
       0 = # of size 3 clusters
       0 = # of size 4 clusters
     288 = # of frozen angles
  find clusters CPU = 0.003 seconds
fix             2 all nph iso ${pressure} ${pressure} ${pressureDamp}
fix             2 all nph iso 5125 ${pressure} ${pressureDamp}
fix             2 all nph iso 5125 5125 ${pressureDamp}
fix             2 all nph iso 5125 5125 1000
fix             3 all temp/csvr ${temperature} ${temperature} ${tempDamp} ${seed}
fix             3 all temp/csvr 248.48 ${temperature} ${tempDamp} ${seed}
fix             3 all temp/csvr 248.48 248.48 ${tempDamp} ${seed}
fix             3 all temp/csvr 248.48 248.48 100 ${seed}
fix             3 all temp/csvr 248.48 248.48 100 745823

run             250000
PPPM initialization ...
  extracting TIP4P info from pair style
  using 12-bit tables for long-range coulomb (../kspace.cpp:340)
  G vector (1/distance) = 0.37438712
  grid = 24 24 25
  stencil order = 5
  estimated absolute RMS force accuracy = 0.0030579925
  estimated relative force accuracy = 9.2090535e-06
  using double precision FFTW3
  3d grid and FFT values/proc = 2730 288
Last active /omp style is kspace_style pppm/tip4p/omp
Neighbor list info ...
  update every 1 steps, delay 7 steps, check yes
  max neighbors/atom: 2000, page size: 100000
  master list distance cutoff = 10.8154
  ghost atom cutoff = 10.8154
  binsize = 5.4077, bins = 4 4 4
  1 neighbor lists, perpetual/occasional/extra = 1 0 0
  (1) pair lj/cut/tip4p/long/omp, perpetual
      attributes: half, newton on, omp
      pair build: half/bin/newton/omp
      stencil: half/bin/3d
      bin: standard
Per MPI rank memory allocation (min/avg/max) = 9.238 | 9.243 | 9.248 Mbytes
Step Temp PotEng TotEng E_pair E_mol Press Lx Ly Lz Volume Pxx Pyy Pzz Pxy Pxz Pyz Enthalpy 
 7750000     257.8333    -3936.815   -3494.8976    -3936.815            0    4809.3094    17.273195    20.345542    21.073257    7405.8277     6611.298    4734.6364    3081.9938   -918.11422   -979.90442   -1255.8929   -2975.4614 
 7751000    245.21746   -3952.0057   -3531.7114   -3952.0057            0     3662.958    17.290146    20.365508    21.093937    7427.6521    3876.8055    4374.6679    2737.4006   -1558.4261   -1814.9112    713.22435   -3134.9226 
 7752000    244.17573   -3949.2258    -3530.717   -3949.2258            0    4082.5389    17.306235    20.384459    21.113566    7448.4065    3635.3254    3578.0699    5034.2213   -328.68421    1139.7029     832.5379   -3087.2415 
 7753000    250.46284   -3978.0783   -3548.7936   -3978.0783            0    4576.4501    17.290013    20.365352    21.093776    7427.4816    3812.2637    5058.6281    4858.4584   -460.34527    1044.0879    353.02623   -3053.0624 
 7754000    230.65166   -3963.3634   -3568.0344   -3963.3634            0    3973.5312    17.277568    20.350693    21.078593    7411.4546    3682.0435    5279.9011     2958.649   -47.115768    484.76573   -918.00671   -3138.5415 
 7755000    244.29195   -3930.9438   -3512.2357   -3930.9438            0    3559.7684    17.329119    20.411413    21.141485    7477.9929    3483.2751     2782.059    4413.9711    518.53689   -790.35937    68.066167   -3124.0114 
 7756000    246.68205   -3923.5095   -3500.7049   -3923.5095            0    5322.4307    17.254226    20.323199    21.050115    7381.4558    5037.3623    6373.8841    4556.0458   -1307.1954   -575.20608   -1068.8649   -2927.7401 
 7757000    248.26176   -3922.2172   -3496.7051   -3922.2172            0    4836.3779    17.264003    20.334715    21.062043    7394.0108    3430.6123    4812.5333    6265.9881   -168.31813    1427.8422    1509.0082   -2975.1788 
 7758000    255.52155   -3941.7041    -3503.749   -3941.7041            0    4748.9513    17.309491    20.388295    21.117539     7452.612    3875.5861    4718.1805    5653.0873   -1162.0449   -652.19933    622.82281   -2987.5916 
 7759000    260.88698   -3933.9208   -3486.7694   -3933.9208            0    8677.6119     17.13835    20.186713    20.908747    7233.7354    8870.4532    8604.0723    8558.3101   -1144.7896   -90.256437     1932.154   -2571.3108 
 7760000    246.79946   -3928.3765   -3505.3707   -3928.3765            0    4669.9111    17.223924    20.287508    21.013147    7342.6344    4259.8048    4669.8987      5080.03   -909.13916    880.96348    746.33186   -3005.2942 
 7761000    257.67348   -3950.3934   -3508.7498   -3950.3934            0    5091.2996    17.196569    20.255287    20.979774    7307.7051    6109.2062    4324.7468    4839.9457    1052.0755    1476.7207    1274.2451   -2966.1426 
 7762000    251.57588   -3907.0561   -3475.8636   -3907.0561            0    4450.6737    17.230888     20.29571    21.021643    7351.5444    4861.8787    3695.2191    4794.9231   -781.10527   -113.39759     532.9439   -2998.6858 
 7763000    254.85401   -3924.7206   -3487.9095   -3924.7206            0    4648.1128    17.242042    20.308848    21.035251    7365.8297    4968.9963    5263.1747    3712.1673   -225.57125   -255.32177    394.27257    -2988.595 
 7764000     246.6768   -3941.2692   -3518.4736   -3941.2692            0    4114.9992    17.212427    20.273966    20.999121    7327.9405    4102.6143    5720.1663    2522.2172    1294.8703   -203.98559    509.14071   -3078.7015 
 7765000     249.7537   -3926.5678   -3498.4985   -3926.5678            0    6233.5501    17.226021    20.289978    21.015706    7345.3166    5667.5037    5290.1735    7742.9732   -143.45222    25.468884    2138.7115   -2830.7363 
 7766000    238.41119   -3899.7929   -3491.1643   -3899.7929            0    5204.9369    17.275124    20.347814    21.075611    7408.3092    6679.8457    4792.8698    4142.0951   -308.56308    215.68291    961.49328   -2928.8094 
 7767000    256.90636   -3920.6456   -3480.3169   -3920.6456            0    5062.4016    17.264354    20.335128    21.062471    7394.4619     4991.174    5062.9011    5133.1298    106.69279    405.71828    658.12288   -2934.3842 
 7768000    241.24023    -3926.272   -3512.7945    -3926.272            0    6021.5724    17.172655    20.227119    20.950599    7277.2605    5713.9046    5181.2149    7169.5979   -1729.6232     253.4383    1642.8102   -2873.7167 
 7769000    250.90456   -3929.8007   -3499.7589   -3929.8007            0    2960.7311    17.307643    20.386118    21.115284    7450.2251    2534.3819    3644.8016    2703.0098   -1484.7895   -116.26767    881.02645    -3178.064 
 7770000    251.62399   -3932.3515   -3501.0766   -3932.3515            0    6093.1348    17.212002    20.273465    20.998603    7327.3981    5284.1232    7090.5064    5904.7748     -577.647    1.9900044    1846.4953   -2849.9484 
 7771000    243.79603   -3938.6136   -3520.7555   -3938.6136            0    3864.7999    17.403407    20.498915    21.232116    7574.5781    3526.8617    3493.8509    4573.6873   -1306.7841   -556.08868    213.59903   -3093.8209 
 7772000    258.76906   -3928.9433    -3485.422   -3928.9433            0    6603.7163    17.279159    20.352567    21.080534    7413.5017     7332.703    6493.5467    5984.8991   -308.89657    86.484779    266.15864   -2771.4393 
 7773000    244.85844   -3965.5678   -3545.8888   -3965.5678            0    4507.9306    17.335911    20.419413     21.14977    7486.7885    4990.4751    5129.5745    3403.7423    28.157465    358.44016    518.83344   -3053.6808 
 7774000    263.11131   -3906.4871   -3455.5233   -3906.4871            0    3863.3175    17.315317    20.395156    21.124647    7460.1394    3237.2932    3990.2118    4362.4477   -923.20674   -358.30823   -606.07327   -3035.2002 
 7775000    252.84192   -3939.2852   -3505.9228   -3939.2852            0    4248.3164    17.320732    20.401534    21.131252    7467.1401    4474.0122    4597.5697    3673.3673    178.89066    1248.7443   -100.69211   -3043.2786 
 7776000    257.43524    -3903.086   -3461.8508    -3903.086            0    8616.7235    17.223835    20.287402    21.013038    7342.5202    8343.1565    9486.8095    8020.2047   -704.74088    455.13801   -35.512641   -2539.1451 
 7777000    261.78855   -3933.4081   -3484.7114   -3933.4081            0    5343.1936    17.335166    20.418535    21.148861    7485.8233    5866.5793    4825.9146    5337.0869    1041.5467    250.66801    184.62431   -2901.3787 
 7778000    248.14914   -3954.7926   -3529.4734   -3954.7926            0    5953.1884    17.297772    20.374491    21.103242    7437.4855    6351.7395    6106.7762    5401.0495     722.7719   -546.13013    2163.7202   -2883.7424 
 7779000    241.58951   -3947.1557   -3533.0796   -3947.1557            0    5497.6131    17.194547    20.252905    20.977307    7305.1278     4989.872    5322.8953     6180.072   -781.78529   -2060.8808   -105.70615    -2947.376 
 7780000    264.34817   -3932.7123   -3479.6286   -3932.7123            0    5798.7891    17.267978    20.339397    21.066893    7399.1196    5617.7818     6451.243    5327.3425   -983.11308   -951.06473   -1435.0002   -2853.8896 
 7781000     256.4075   -3889.7488   -3450.2751   -3889.7488            0    4476.9603    17.287479    20.362366    21.090684    7424.2154    4475.2302    4227.9986    4727.6519   -884.92961    834.59743    223.71071   -2965.5342 
 7782000    247.90515   -3904.3572   -3479.4562   -3904.3572            0    4186.4742    17.280499    20.354145    21.082168    7415.2266    4940.4147    4480.8372    3138.1707    759.72393   -1053.2905    1674.6766   -3026.7163 
 7783000    237.27757   -3886.1573   -3479.4716   -3886.1573            0    4930.4903    17.254558     20.32359     21.05052    7381.8821    4542.8931    3904.7424    6343.8354    4.2634648   -229.19197    912.63987   -2948.6689 
 7784000    235.12998   -3915.4165   -3512.4118   -3915.4165            0    5519.2529    17.232046    20.297074    21.023056    7353.0266    6239.0506    6427.2422    3891.4659    599.03904   -934.12214    294.86367   -2920.5473 
 7785000    234.88649   -3933.2798   -3530.6924   -3933.2798            0    6610.5138    17.217566    20.280018     21.00539    7334.5052    7512.7592    7045.8076    5272.9745   -294.82989    443.68409    426.73618   -2823.5906 
 7786000     236.6576   -3912.1232   -3506.5002   -3912.1232            0    6306.1643    17.175685    20.230688    20.954296    7281.1135    7602.3203    5871.4353    5444.7373   -834.31355    812.85412    2243.5943   -2836.8639 
 7787000    255.30102   -3903.5543   -3465.9771   -3903.5543            0    6413.2841    17.187395    20.244481    20.968582    7296.0159    5942.4529    5904.7462    7392.6532    -325.5432    1300.5978    1701.7143   -2783.5722 
 7788000     249.8954   -3930.9121   -3502.5999   -3930.9121            0    4721.7112    17.240944    20.307554    21.033911    7364.4223    5143.4429    4198.4512    4823.2393   -465.73625    -1673.655    954.83248   -2995.4761 
 7789000    242.36119   -3908.1531   -3492.7543   -3908.1531            0    4990.4389    17.275099    20.347785    21.075581    7408.2776    4194.0512    4056.5446    6720.7208     22.41752   -295.88924    377.90619   -2953.5767 
 7790000    246.82518   -3910.7323   -3487.6824   -3910.7323            0    5921.1084    17.185491    20.242239    20.966259    7293.5918     6306.567    5664.6714    5792.0868    708.95357    1619.9771    257.84155   -2857.8568 
 7791000    233.94368   -3894.3544    -3493.383   -3894.3544            0    5370.6625    17.270847    20.342776    21.070392    7402.8076    5371.4469    4764.7186     5975.822    726.54179    1859.5911    146.15697   -2913.5536 
 7792000    237.20592   -3883.0368   -3476.4739   -3883.0368            0    5546.3045    17.247466    20.315237    21.041869    7372.7838    6966.6693    5195.4359    4476.8084    15.368764   -2148.1058    2059.3904   -2880.1104 
 7793000    244.98214    -3886.303    -3466.412    -3886.303            0    5336.7747    17.258964    20.328779    21.055895     7387.538    4879.2357    5151.2786    5979.8099   -969.61967    105.90666    683.48318   -2891.4297 
 7794000    256.43203   -3926.4848   -3486.9691   -3926.4848            0    6125.9848    17.198193      20.2572    20.981755    7309.7758    6803.8228    4414.8799    7159.2517     264.9433    30.381979   -591.83367   -2833.9049 
 7795000     242.2097    -3947.573   -3532.4339    -3947.573            0    5895.2642    17.176866    20.232079    20.955736    7282.6151    4690.3491    7182.6836      5812.76   -903.47511   -211.55483     895.1201    -2906.301 
 7796000    257.50111   -3927.4783   -3486.1302   -3927.4783            0    4178.4103    17.305947     20.38412    21.113215    7448.0354    4864.2646    4172.2027    3498.7636   -469.48238    740.76262   -1293.8633   -3032.2631 
 7797000    239.87494   -3901.1948   -3490.0574   -3901.1948            0    5254.5884    17.286425    20.361126    21.089398    7422.8582    6154.1246    5044.8864    4564.7543   -1358.9483   -947.28912    1599.3294   -2921.2231 
 7798000     256.9149   -3917.1089   -3476.7656   -3917.1089            0    5027.0601     17.21003    20.271142    20.996196    7324.8788    6442.6895     3368.092    5270.3988   -422.31045    -1378.139   -810.06921   -2939.7457 
 7799000     249.4361   -3898.5657   -3471.0408   -3898.5657            0       6530.5    17.178894    20.234468    20.958211    7285.1951    6603.8026    6741.5647    6246.1326   -224.68642    344.26831   -1186.6961   -2777.1941 
 7800000    243.39374   -3947.0104   -3529.8418   -3947.0104            0    6422.4126    17.243743    20.310851    21.037326    7368.0098    5304.1189    7209.0227     6754.096   -518.57519   -223.32337   -284.26506   -2839.7224 
 7801000    251.57757   -3913.9724   -3482.7771   -3913.9724            0     5122.088    17.257848    20.327466    21.054535    7386.1061    3965.5317    5959.0061    5441.7261    782.54573   -883.46149   -623.38022    -2931.032 
 7802000    255.81595   -3916.6163   -3478.1565   -3916.6163            0    7031.1059     17.14013    20.188809    20.910919    7235.9895    7497.2106    6095.1587    7500.9485   -716.81394    1565.9569   -881.35204   -2736.1675 
 7803000    254.13356     -3941.16   -3505.5838     -3941.16            0    4982.0176    17.243136    20.310137    21.036586    7367.2327    4263.3925    6034.1218    4648.5387    -171.1925   -251.55962   -862.33437   -2970.2982 
 7804000    254.44621   -3912.5786   -3476.4665   -3912.5786            0    3421.1307    17.307677    20.386158    21.115326    7450.2692    3114.2332    1895.8415    5253.3173   -360.23207     229.7749    691.98414   -3104.7452 
 7805000    240.05384   -3912.9994   -3501.5553   -3912.9994            0     5767.679    17.221407    20.284542    21.010076    7339.4153    4901.9665    5659.1025    6741.9681    610.58403    566.02687   -428.84202   -2884.1954 
 7806000    253.28827    -3883.983   -3449.8555    -3883.983            0    5531.7746    17.241127     20.30777    21.034135    7364.6574    6348.1861    4422.9245    5824.2133    1350.9358   -2626.0833   -177.73284   -2855.7099 
 7807000     255.4935   -3915.7149   -3477.8078   -3915.7149            0    5661.0159    17.257245    20.326755    21.053799    7385.3317     4813.095    8219.2929    3950.6598    110.85771    641.41533   -247.29276    -2868.074 
 7808000    247.97447   -3905.9863   -3480.9666   -3905.9863            0     5672.511    17.298577    20.375438    21.104223     7438.523    5481.4973     4900.036    6635.9997   -30.256746   -2117.3173     972.6649   -2865.5943 
 7809000    256.18413   -3912.1443   -3473.0534   -3912.1443            0     6075.818    17.259119    20.328962    21.056084    7387.7371    7363.5639      3929.33    6934.5602    -1069.942    1112.7926    713.17556   -2818.4292 
 7810000    239.44337   -3923.4599   -3513.0621   -3923.4599            0    4997.4358     17.24508    20.312426    21.038957    7369.7235    6482.7034    5056.3322    3453.2716   -1753.6408   -1177.1938    199.32162   -2975.9384 
 7811000    249.31497   -3925.6636   -3498.3463   -3925.6636            0    5276.1459    17.300226    20.377382    21.106236    7440.6513    4394.7948    5451.7629    5981.8801    1595.4604   -196.75726   -520.49642   -2925.8092 
 7812000    250.21175   -3909.9929   -3481.1385   -3909.9929            0    3286.4783    17.364757     20.45339    21.184963    7524.2245      2155.05    4013.7823    3690.6025   -1408.2918    693.74877    682.14728   -3120.5031 
 7813000    254.18281   -3873.8491   -3438.1885   -3873.8491            0    5975.5924    17.328348    20.410505    21.140544    7476.9946     6631.865    4637.3295    6657.5826    585.84345    -1491.874   -110.33249   -2786.5842 
 7814000    239.59847   -3887.4274   -3476.7639   -3887.4274            0    4362.2015    17.284056    20.358335    21.086508    7419.8062    6886.7502    2935.5736    3264.2806    2067.9493    352.88658   -575.34897   -3004.7289 
 7815000    235.17183   -3934.6687   -3531.5922   -3934.6687            0    4686.4511    17.291432    20.367023    21.095507    7429.3104    5655.5965     4291.183    4112.5738   -239.56095    413.40548    -2032.265   -3023.8205 
 7816000    252.88009   -3893.8644   -3460.4365   -3893.8644            0     4237.996    17.310111    20.389024    21.118295    7453.4119    4523.2082    4648.5392    3542.2404    726.77877   -54.649029    454.01757   -2999.7648 
 7817000    243.91949     -3947.52   -3529.4503     -3947.52            0    3790.8107    17.297409    20.374063    21.102798    7437.0163    4436.6405    3203.8101    3731.9817   -161.33227   -182.90853    936.52436   -3118.2942 
 7818000    248.55794   -3931.0229   -3505.0031   -3931.0229            0    3977.3956    17.318786    20.399243    21.128879    7464.6241     6411.622    4232.4992    1288.0657    377.26993   -534.97932   -1512.2378   -3072.0084 
 7819000    238.52829   -3927.9125   -3519.0832   -3927.9125            0    5314.2827    17.214093    20.275927    21.001153    7330.0677    5661.7627    6198.8167    4082.2688   -979.57708     -981.563   -185.09505   -2950.9783 
 7820000    259.09375   -3916.0916   -3472.0138   -3916.0916            0    5469.0319    17.211761    20.273181    20.998308    7327.0894    4812.1582     5920.559    5674.3784    336.85259   -589.85117   -1297.9486   -2887.6035 
 7821000    249.50578   -3933.3629   -3505.7185   -3933.3629            0     3446.773    17.158112    20.209989    20.932856    7258.7874    5266.5415    3222.1627    1851.6149    874.69667     1044.732   -1521.0846   -3140.8363 
 7822000     267.2153   -3891.8229    -3433.825   -3891.8229            0    4448.5908     17.16361    20.216466    20.939565    7265.7681    5439.6484    3576.8777    4329.2464    1056.6207    560.44364   -528.57682   -2962.4356 
 7823000    240.67397   -3899.6437   -3487.1368   -3899.6437            0    6502.3609    17.113196    20.157084    20.878059    7201.9309    5941.1466    7882.7877    5683.1483    404.96486    221.36847    670.88014   -2804.1758 
 7824000    252.96767   -3907.0349    -3473.457   -3907.0349            0    5021.6852    17.153229    20.204238    20.926899    7252.5922    5651.6967    5258.7609     4154.598   -330.41851     1312.911    52.507847   -2942.3053 
 7825000    253.35585   -3928.3899   -3494.1466   -3928.3899            0    4656.5288     17.22396     20.28755    21.013192    7342.6808    4478.2594    2654.8463    6836.4806   -334.04383    1320.3568    289.08108   -2995.5001 
 7826000    242.82616   -3928.4926   -3512.2969   -3928.4926            0     5253.517    17.256602    20.325997    21.053014    7384.5052    4141.0646    5760.4764      5859.01    2359.3007    121.72759    274.00829   -2946.5171 
 7827000    246.08067   -3935.9102   -3514.1364   -3935.9102            0    6691.4226    17.117669    20.162354    20.883517    7207.5804    7513.9126    6119.3234    6441.0319    127.01761    940.58161   -631.56179   -2810.7664 
 7828000    261.93616   -3892.5553   -3443.6057   -3892.5553            0     3424.493    17.274722    20.347341     21.07512    7407.7922      4176.78    2509.3371     3587.362    304.75181   -56.228185    345.60369   -3073.6404 
 7829000    243.80457   -3907.3871   -3489.5144   -3907.3871            0    5073.5629    17.211415    20.272773    20.997886    7326.6476    6756.3274    4766.5266    3697.8348    1754.9563   -234.09414   -118.76393   -2947.3959 
 7830000    256.07755   -3887.4681   -3448.5599   -3887.4681            0    4837.4744    17.254542    20.323571      21.0505    7381.8611    5249.1765    4843.2476     4419.999   -220.67715    252.84419    538.03304   -2927.7726 
 7831000    242.84457   -3910.7012    -3494.474   -3910.7012            0    5756.5449    17.239316    20.305637    21.031925    7362.3365    5853.2128    6525.1552    4891.2666    932.50937    31.079619    368.24682   -2876.3815 
 7832000    247.45861   -3944.1279   -3519.9923   -3944.1279            0     3380.876    17.239424    20.305764    21.032057    7362.4749    4244.5253     2564.128    3333.9748    800.93788   -361.19645    359.15618   -3156.9736 
 7833000    223.08878   -3893.6904   -3511.3239   -3893.6904            0      5107.56    17.249047    20.317099    21.043797    7374.8114    3117.5271    6480.8329    5724.3198   -1129.5678    340.61005   -27.791454    -2961.985 
 7834000    263.41235   -3894.9093   -3443.4296   -3894.9093            0    4350.3893    17.214425    20.276318    21.001558    7330.4919    3076.5294    4869.5291    5105.1094   -628.97047    1628.9284    657.34864   -2978.3394 
 7835000    238.41577   -3913.0798   -3504.4434   -3913.0798            0    5578.3232    17.269854    20.341607    21.069182    7401.5318    4973.3358     6111.175    5650.4588   -815.87284    757.66463     1424.354   -2902.2983 
 7836000    254.28838   -3915.0606   -3479.2191   -3915.0606            0    4913.1957    17.209269    20.270245    20.995267    7323.9071    4186.5949    8171.2356    2381.7567   -2293.3454   -190.07259    149.04509   -2954.4324 
 7837000     250.0547   -3941.3074   -3512.7222   -3941.3074            0    6094.7066    17.230529    20.295287    21.021205    7351.0841    6414.4612    6880.9994    4988.6593   -1877.7911   -1278.4621    1103.0125   -2859.3208 
 7838000    257.36482   -3912.8126   -3471.6981   -3912.8126            0     4527.169    17.262129    20.332508    21.059757    7391.6038    5041.4956    4257.8501    4282.1614   -1145.2648    242.43896   -518.97732    -2983.674 
 7839000    246.33565   -3963.0313   -3540.8204   -3963.0313            0    4933.2951    17.246392    20.313971    21.040558     7371.406    4064.4364    4102.4004    6633.0485   -528.62362   -437.32511     962.3304   -3010.4695 
 7840000    246.26457   -3921.7699   -3499.6808   -3921.7699            0    3593.5149    17.297031    20.373618    21.102338    7436.5294    2038.7173    4488.9763     4252.851   -988.80717    408.16861    1512.8233   -3109.9492 
 7841000    227.09598   -3917.2725   -3528.0378   -3917.2725            0    6800.8402     17.20149    20.261084    20.985778     7313.981    6710.5579    7547.8872    6144.0756   -481.68196   -1391.7543   -1238.1398   -2802.6132 
 7842000    257.44384   -3907.8851   -3466.6352   -3907.8851            0    2626.5606    17.290921    20.366421    21.094883    7428.6513    3759.2409    2066.7826    2053.6582   -751.34935    -1197.641   -171.05449   -3182.0756 
 7843000    241.71111   -3926.0463   -3511.7617   -3926.0463            0    5046.8218     17.21495    20.276938    21.002199    7331.1636    6193.7017    5276.6149    3670.1488    1547.5201    814.31891    1004.6718   -2972.1681 
 7844000    255.13675   -3944.4029   -3507.1072   -3944.4029            0    4797.6306    17.259906     20.32989    21.057046    7388.7488    4802.0044     4905.412    4685.4755   -423.40627    190.67908    1052.8487   -2990.1274 
 7845000    256.43101   -3958.4632   -3518.9492   -3958.4632            0    2752.8667    17.246059    20.313579    21.040151    7370.9788      2654.67    2079.0626    3524.8674    1205.2045    297.88254    135.32016   -3223.0211 
 7846000    256.58704   -3900.1956   -3460.4142   -3900.1956            0    4612.2898    17.188022     20.24522    20.969347    7296.8143    3956.3307    4619.1199    5261.4189   -593.38274   -120.43581     1000.449   -2969.5902 
 7847000      257.773   -3924.3469   -3482.5328   -3924.3469            0    4611.3031    17.189074    20.246459     20.97063     7298.154    6258.0873    3915.7509     3660.071   -850.41901     2598.617   -328.34207   -2991.7237 
 7848000    250.67128   -3957.3823   -3527.7404   -3957.3823            0    4001.8264    17.215696    20.277816    21.003109     7332.116    4283.0282    3355.2079     4367.243    239.39795   -1387.1698    381.57702   -3099.8195 
 7849000    245.99702   -3910.4235   -3488.7931   -3910.4235            0    4228.7085    17.248325    20.316249    21.042917    7373.8856    4051.3212    5569.6106    3065.1939    124.65211    845.81651    -529.1635   -3034.0354 
 7850000    250.62943   -3928.3542   -3498.7839   -3928.3542            0    6516.3641    17.191129    20.248879    20.973137    7300.7718    5875.8775    7431.5426    6241.6721    93.587697     301.3519    239.35057   -2804.9588 
 7851000    243.18123    -3943.837   -3527.0327    -3943.837            0    4459.8756    17.227814     20.29209    21.017893    7347.6105    5591.5733    4821.9584     2966.095   -412.35661   -862.32521     1057.366   -3049.1242 
 7852000    263.67411    -3934.851   -3482.9226    -3934.851            0    5571.6319    17.246498    20.314097    21.040688    7371.5425    6789.1542     5162.606    4763.1353     137.1051   -106.82008    1006.6788   -2883.9365 
 7853000    246.60536   -3922.9472   -3500.2741   -3922.9472            0    4676.3219    17.281464    20.355282    21.083346     7416.469     3768.849    4632.0671    5628.0494    694.40111   -1432.1412    236.72284   -2994.4757 
 7854000    253.53382   -3937.4564   -3502.9081   -3937.4564            0     5595.326    17.159889    20.212082    20.935024    7261.0427    5960.2056    5117.0241    5708.7482   -806.94208   -1580.3274   -696.30109   -2910.3918 
 7855000    257.82924   -3911.7376   -3469.8271   -3911.7376            0    5248.5396    17.171466    20.225719    20.949148     7275.749    3584.1527    4809.6494    7351.8167    1418.4729     51.71345   -382.18995    -2912.908 
 7856000    238.38171   -3918.3101    -3509.732   -3918.3101            0    4223.4122    17.224306    20.287957    21.013613    7343.1223     2910.492    4260.8789    5498.8658    377.54955    894.28938   -244.17481   -3057.4388 
 7857000    244.43539   -3939.9316   -3520.9777   -3939.9316            0    4557.0839    17.256557    20.325945    21.052959    7384.4482    6071.8504    4484.5045    3114.8967     156.2454   -901.30787   -1427.9844   -3030.2043 
 7858000    251.01046   -3917.7143   -3487.4909   -3917.7143            0    5013.7069    17.243908    20.311045    21.037527    7368.2211    6076.7937    4190.0219    4774.3052    27.725829    1250.1344   -1620.6801   -2948.7283 
 7859000    242.99568   -3925.7897   -3509.3034   -3925.7897            0    4808.3744     17.29217    20.367892    21.096407    7430.2615      4933.41    3331.7654    6159.9479     -913.748    643.08263   -1291.0191   -2988.2548 
 7860000    238.30966   -3906.2247   -3497.7701   -3906.2247            0    6608.6908    17.177105    20.232361    20.956028    7282.9194    7343.1046    7025.5534    5457.4145    266.37644     1725.289     -884.966   -2795.8352 
 7861000    248.20169   -3889.5142    -3464.105   -3889.5142            0    5100.3603     17.17236    20.226772    20.950239    7276.8854    6933.6023    2826.0723    5541.4064    323.42309   -278.14476   -746.56924   -2922.8246 
 7862000    252.14049   -3945.0121   -3512.8519   -3945.0121            0    4609.9942    17.284349     20.35868    21.086866    7420.1843    3197.8491    6006.3621    4625.7714   -952.70694   -879.89944    1441.0987   -3013.9778 
 7863000    258.29944   -3969.9863   -3527.2699   -3969.9863            0    4933.8858    17.284636    20.359018    21.087216    7420.5537    3982.5359    4212.9999    6606.1215   -55.829447    857.67102    783.11282    -2993.319 
 7864000    255.51531   -3912.6963   -3474.7518   -3912.6963            0    5125.8142    17.220927    20.283977    21.009491    7338.8017    5174.2117    4509.0911    5694.1399    295.73377    382.74494    434.46817   -2926.1415 
 7865000    255.46124   -3914.7384   -3476.8866   -3914.7384            0    4437.8655    17.259352    20.329237    21.056369    7388.0366    3532.5881    4140.8722    5640.1362    -67.57676    1015.6984   -687.91735   -2998.7202 
 7866000    241.96827   -3916.0011   -3501.2758   -3916.0011            0    6636.3946    17.215972    20.278141    21.003446     7332.469    5299.6473    8116.0638    6493.4728    655.51388   -1163.1812      898.274   -2791.6027 
 7867000    236.55742   -3907.1717   -3501.7204   -3907.1717            0    3692.8671    17.249698    20.317865    21.044591    7375.6459    1788.6389    6994.2121    2295.7504     912.0381   -119.28638   -370.35583   -3104.4926 
 7868000    252.05833   -3916.1219   -3484.1025   -3916.1219            0    5352.9507    17.189721    20.247221     20.97142    7298.9788    5563.9726    5555.9937    4938.8858    756.98909   -657.07835    267.05923    -2914.291 
 7869000    249.17241   -3885.8954   -3458.8224   -3885.8954            0    5401.7203    17.152057    20.202858     20.92547    7251.1061     4905.992    6153.7922    5145.3769    1840.7879    857.34206   -1195.2965   -2887.5908 
 7870000    241.74287   -3913.5391   -3499.2001   -3913.5391            0    4242.2573    17.300631    20.377858    21.106729    7441.1731    3632.3972    5171.4849    3922.8897    393.44331   -547.25922    837.56696   -3038.8224 
 7871000    242.48409   -3905.9511   -3490.3416   -3905.9511            0    8530.6418    17.138485    20.186872    20.908912    7233.9065    9076.4542    9990.2354    6525.2359    176.52226    606.02061    399.74067   -2590.3665 
 7872000    260.36178   -3896.7551   -3450.5039   -3896.7551            0    4504.9215    17.280319    20.353933    21.081948    7414.9943    3944.5119    3786.3536     5783.899    -665.1348   -1456.4032   -963.88558   -2963.3413 
 7873000    246.46699   -3934.6529   -3512.2169   -3934.6529            0    4388.9885    17.272217     20.34439    21.072064    7404.5695    4498.1024    3407.3656    5261.4976   -574.49259   -41.530261    488.62536   -3038.2586 
 7874000    259.53121   -3928.3784   -3483.5508   -3928.3784            0     6184.156    17.302962    20.380603    21.109573    7444.1809    5029.2854    6710.7556     6812.427   -1693.9382    590.54045   -1924.6669   -2812.1633 
 7875000    253.71805   -3889.3406   -3454.4765   -3889.3406            0    8523.1669    17.224293    20.287942    21.013597     7343.106    9276.4759    8962.6188    7330.4059   -2007.7458   -1365.5777    1037.7758   -2541.7163 
 7876000    253.85726    -3940.253   -3505.1503    -3940.253            0    4868.8274    17.238223     20.30435    21.030592    7360.9366    4763.9815    3967.1416    5875.3592    771.97344   -133.80089    264.21855   -2982.4734 
 7877000    251.35151   -3932.8502   -3502.0423   -3932.8502            0    4621.4094    17.281891    20.355784    21.083866    7417.0182    5631.5914    2972.0697    5260.5672   -165.26125   -136.60824    588.00191   -3002.1463 
 7878000    257.55339   -3940.7833   -3499.3456   -3940.7833            0    5482.1744     17.22845    20.292838    21.018668    7348.4234    6045.3168    5419.2046    4982.0019    766.78894    224.32554    508.04201   -2911.8252 
 7879000    256.14465   -3904.3854   -3465.3622   -3904.3854            0    6346.1492    17.172632    20.227092    20.950571    7277.2314    6116.1882     5966.195    6956.0643    356.75198    323.16459   -1314.8053   -2791.8393 
 7880000    237.94135   -3926.5577   -3518.7344   -3926.5577            0    6173.9085    17.132738    20.180102    20.901901    7226.6317    6095.6066    5209.7409    7216.3779     723.0548    1686.9824    328.17471   -2868.0476 
 7881000    247.29918   -3937.0694    -3513.207   -3937.0694            0    5958.3093     17.21866    20.281307    21.006725    7335.9043    6209.0803    5665.5316    6000.3159    192.42328    286.64231   -8.1462552   -2875.7475 
 7882000    258.50782   -3902.1558   -3459.0823   -3902.1558            0    2997.0543     17.32898     20.41125    21.141316    7477.8134    2630.2184    3501.5522    2859.3922    572.04053    2304.8496    266.80097   -3132.2348 
 7883000    234.48075   -3904.1852   -3502.2933   -3904.1852            0    4717.4397    17.297941     20.37469    21.103448    7437.7035    4985.2887    5430.8894    3736.1409    596.55243    43.239033   -393.09564   -2990.5866 
 7884000    234.55113   -3935.9399   -3533.9273   -3935.9399            0    5597.5722    17.227963    20.292265    21.018075    7347.8009    4724.8657    5378.7623    6689.0885    799.01584    326.24978   -1479.7767   -2934.0907 
 7885000    230.69352     -3954.36   -3558.9592     -3954.36            0    3542.2173    17.304477    20.382388    21.111422    7446.1373    2512.5698    4003.0165    4111.0658    1097.6002    644.67216   -2021.7646   -3174.2947 
 7886000    252.72042   -3948.3871   -3515.2329   -3948.3871            0    5004.3461    17.343856    20.428771    21.159463    7497.0869     3812.071    7052.5278    4148.4395   -186.36444    1275.0873    36.464355   -2968.0711 
 7887000    236.57887   -3956.6873   -3551.1992   -3956.6873            0    4910.3359    17.344637    20.429691    21.160416    7498.0997    3415.3375    6102.9558    5212.7145   -648.10983    821.77797     460.4993   -3014.2437 
 7888000    243.25865   -3918.3507   -3501.4137   -3918.3507            0    5924.7713    17.260195     20.33023    21.057398    7389.1193    7056.1834    5040.0576    5678.0729    140.49997    1057.6055   -504.11552   -2862.9442 
 7889000    234.33265   -3954.6799   -3553.0418   -3954.6799            0    4373.6542    17.269509      20.3412     21.06876    7401.0875    3779.8921    5422.7714     3918.299    91.510897   -83.569133   -1553.1847   -3080.9615 
 7890000    252.62816   -3930.5595   -3497.5634   -3930.5595            0    6258.2066    17.232642    20.297776    21.023783    7353.7898    6468.8129     6095.507    6210.2998   -1182.9501     756.4491   -845.22845   -2826.3866 
 7891000    244.80192   -3942.4182    -3522.836   -3942.4182            0    4593.0988    17.269172    20.340804     21.06835     7400.655    4182.6351    5136.8863     4459.775   -359.36652    314.76379    65.630142   -3027.0985 
 7892000    245.95681   -3933.8841   -3512.3225   -3933.8841            0    6348.1345    17.248786    20.316791    21.043479    7374.4764    6344.0788    6254.4477     6445.877   -129.98007    -1897.445   -301.73909   -2829.5859 
 7893000    237.59101   -3896.2463   -3489.0234   -3896.2463            0      3462.14    17.271467    20.343507     21.07115    7403.6058    3436.5187    3739.5889    3210.3123    -2361.299    38.132044    81.040511   -3115.2023 
 7894000    239.25522    -3905.296   -3495.2208    -3905.296            0    3503.7208    17.275504    20.348262    21.076074     7408.798    4019.4643    2876.2423    3615.4559   -371.70989   -184.63153    -674.8254   -3116.6447 
 7895000     256.9624    -3887.643   -3447.2183    -3887.643            0    4755.3976    17.226909    20.291023    21.016789    7346.4525    5173.0513    3937.6719    5155.4694   -346.73642   -687.35548     527.4101   -2937.7227 
 7896000    249.09947   -3933.4434   -3506.4954   -3933.4434            0     3382.441    17.284371    20.358706    21.086893    7420.2126     4106.295    1859.9272    4181.1007    922.63565   -556.58872    -1271.914   -3140.4606 
 7897000    239.06141   -3936.6846   -3526.9415   -3936.6846            0     5098.999     17.27784    20.351014    21.078925    7411.8044    5326.4806    4759.7573     5210.759   -1520.2563   -56.030695   -101.15402   -2975.7725 
 7898000    224.52199   -3909.1282   -3524.3052   -3909.1282            0    3015.0618    17.364393    20.452961    21.184518    7523.7503    3115.2676     2763.486    3166.4318    1054.7572   -1324.7241   -2298.7679    -3193.474 
 7899000    254.16295   -3877.4065   -3441.7799   -3877.4065            0    4693.0172    17.243737    20.310844    21.037319    7368.0023    4223.8788    5873.7112    3981.4616   -492.42704   -536.49428    302.21543   -2937.4929 
 7900000    235.56763   -3893.5778    -3489.823   -3893.5778            0     7011.427    17.190319    20.247925    20.972149    7299.7397    6936.6579    6316.7871    7780.8361    -280.3358   -86.203195    475.18287    -2743.392 
 7901000    251.42059   -3899.2543    -3468.328   -3899.2543            0    4825.6478    17.190162     20.24774    20.971958    7299.5402    3018.6016     5482.339    5976.0027    37.712185    50.015735   -289.60156   -2954.6074 
 7902000    240.96287   -3934.0352   -3521.0331   -3934.0352            0    3273.4044     17.30165    20.379059    21.107973    7442.4887    4927.6722    1212.5819    3679.9591    563.34211    789.34398    1014.4118   -3165.7343 
 7903000    247.77561   -3935.0993   -3510.4204   -3935.0993            0    3830.8964    17.236871    20.302757    21.028943    7359.2049    1775.2733    5177.4961    4539.9198   -1923.1202   -1502.1896    3.3456049   -3099.2639 
 7904000    234.86706   -3934.3209   -3531.7668   -3934.3209            0    4725.6133    17.222817    20.286203    21.011797    7341.2185    5079.7763    4007.4516    5089.6119    125.45256    196.51098   -396.82015   -3025.8231 
 7905000    256.86055   -3948.9328   -3508.6826   -3948.9328            0    4735.5757    17.196222    20.254878    20.979351    7307.2627    3275.5701    6104.3981    4826.7588    392.27251    531.17721    226.94377   -3004.0174 
 7906000    224.74337   -3924.5817   -3539.3792   -3924.5817            0    4038.4539    17.222407     20.28572    21.011296    7340.6936    3936.3247    4843.4464    3335.5907    325.68969     706.1516    916.58165   -3107.0365 
 7907000    254.39808   -3945.6975   -3509.6679   -3945.6975            0    4313.3761    17.181643    20.237706    20.961564    7288.6932    5246.4186    3556.0611    4137.6486    314.65419    673.39243   -860.29081   -3051.1642 
 7908000    244.50424   -3935.2349    -3516.163   -3935.2349            0    4763.5465    17.185006    20.241667    20.965667    7292.9737    5586.5647    4969.3636    3734.7113    1450.0947    345.22181   -551.18795   -3009.5096 
 7909000    244.99601   -3921.4972   -3501.5825   -3921.4972            0    5806.4571    17.134514    20.182194    20.904067    7228.8787    6373.2209    4705.3201    6340.8302    385.12522   -958.14313   -231.92837   -2889.4322 
 7910000    258.54813   -3902.6989   -3459.5563   -3902.6989            0    6864.8499    17.124835    20.170793    20.892258    7216.6353    6887.1055    6971.4127    6736.0316   -1108.2391   -1965.7297   -45.604634   -2737.0499 
 7911000    240.51468   -3919.5628   -3507.3289   -3919.5628            0     6276.403    17.190777    20.248464    20.972707     7300.323    9813.3019    5098.9293    3916.9778    443.32462   -802.61273    228.58803   -2839.0946 
 7912000     246.1896   -3915.8961   -3493.9356   -3915.8961            0    5671.1964    17.291209     20.36676    21.095235    7429.0226    4969.8527    4857.8908    7185.8458    808.20614   -612.69856   -285.51651   -2879.4917 
 7913000    251.83956   -3926.7306   -3495.0862   -3926.7306            0    4697.3452    17.297148    20.373756     21.10248    7436.6801    4616.1542    5642.6636    3833.2179    403.54662    -65.75835    938.84863   -2985.6293 
 7914000    246.93714   -3929.4584   -3506.2166   -3929.4584            0    5048.6942    17.255245    20.324399    21.051358    7382.7634    4695.9764    3865.8994    6584.2068    99.831278    466.36115    1115.2687   -2962.6236 
 7915000    251.22515   -3943.4261   -3512.8348   -3943.4261            0    5039.7518    17.196835      20.2556    20.980098    7308.0437    6762.3076     4875.015    3481.9328    427.20824    1293.1188   -351.63153   -2975.6964 
 7916000    251.58836   -3902.0576   -3470.8437   -3902.0576            0     6247.527    17.217037    20.279395    21.004745    7333.8296     7626.851    5309.8764    5805.8535    429.13128    559.14405    195.25888   -2802.6309 
 7917000    237.21858   -3934.3242   -3527.7396   -3934.3242            0    4627.2794    17.273981    20.346468    21.074216    7406.8388     5665.543     3951.043    4265.2522     723.8677   -654.31332    2125.3396   -3027.8956 
 7918000    261.74696   -3911.3215   -3462.6962   -3911.3215            0    4604.6184    17.267679    20.339045    21.066528    7398.7357    5120.5661    5820.4396    2872.8495   -1322.9145    1304.4126    901.88588   -2965.8442 
 7919000    255.25894   -3895.0233   -3457.5182   -3895.0233            0    6737.5794    17.243507    20.310574    21.037039     7367.708     6965.949     6390.206    6856.5833   -139.03993   -524.16377   -48.259118   -2733.5622 
 7920000    259.25048   -3936.8361   -3492.4896   -3936.8361            0    3834.0489    17.242305    20.309158    21.035572    7366.1669    4178.9647    4026.6619    3296.5202    165.96113   -440.26682    226.77507   -3080.6054 
 7921000    232.70048   -3901.8254   -3502.9847   -3901.8254            0    5425.5507    17.233143    20.298366    21.024394    7354.4302    5292.1438     4476.841    6507.6673    110.94512    40.375226    1107.8099   -2921.0574 
 7922000    238.62812   -3917.3015   -3508.3011   -3917.3015            0    4141.4618    17.245634    20.313079    21.039633    7370.4341    3125.9009    6112.3214    3186.1632   -544.57363   -190.66755    1844.5934   -3063.1344 
 7923000    253.39083   -3934.1794   -3499.8762   -3934.1794            0    3587.9637      17.2103     20.27146    20.996525    7325.2234     3111.616    4541.2046    3111.0706    327.25525    433.15917   -1385.7267   -3116.5709 
 7924000    243.46693   -3930.4289   -3513.1349   -3930.4289            0    5404.3896    17.231906    20.296909    21.022884    7352.8466      5022.07    6987.0401    4204.0587    172.06914    1032.4067   -253.30656   -2933.6021 
 7925000    245.49226   -3903.8915   -3483.1262   -3903.8915            0    6093.5434    17.204178     20.26425    20.989057    7317.4101     5646.002    5557.3964    7077.2316   -497.77376   -148.41394   -1492.1192    -2832.842 
 7926000    251.62245   -3929.5193    -3498.247   -3929.5193            0    4070.2328    17.227664    20.291913     21.01771    7347.4188    2834.9617     5002.778    4372.9589   -290.74232    -956.3455    316.71642    -3062.103 
 7927000    244.64643   -3885.1976   -3465.8819   -3885.1976            0    5289.9202    17.171324    20.225551    20.948975    7275.5682    2896.6102    7068.2399    5904.9104   -727.99267   -878.52306     186.2687    -2904.586 
 7928000    255.53747   -3921.0044   -3483.0219   -3921.0044            0    4108.1391    17.287109    20.361931    21.090233    7423.7397    4841.8899    4141.0515    3341.4758   -232.25273   -111.70825   -647.82438   -3038.2434 
 7929000    243.41654   -3914.4957   -3497.2881   -3914.4957            0    5787.1984    17.227433    20.291641    21.017428    7347.1229    6778.4932     5677.085    4906.0169    26.388932      694.741   -609.34616   -2877.1883 
 7930000    252.48744   -3933.5258   -3500.7709   -3933.5258            0    5332.0259    17.245577    20.313012    21.039563    7370.3611     5254.062    5003.1928    5738.8229    1567.1243    455.79659   -88.686046   -2927.6359 
 7931000    252.56777   -3921.7772   -3488.8847   -3921.7772            0    5364.0487    17.255359    20.324534    21.051498    7382.9102    4802.0507    6084.5307    5205.5645    -341.1642   -497.18928     425.6127   -2911.3259 
 7932000     264.5851   -3915.1636   -3461.6738   -3915.1636            0    4405.2173    17.220183    20.283101    21.008583    7337.8509    5115.5032    3085.0477    5015.1009   -342.74332   -355.19154   -1394.9073   -2990.2494 
 7933000    239.51488   -3915.1543    -3504.634   -3915.1543            0     6577.568    17.283105    20.357215    21.085348    7418.5817    7219.6471    6015.9213    6497.1357   -388.22423   -106.07795    440.98246   -2792.9911 
 7934000    251.47076   -3955.1171   -3524.1048   -3955.1171            0     4492.712    17.255802    20.325056    21.052038     7383.479      4578.08    3631.9007    5268.1554   -23.249596   -293.11646   -337.02082   -3040.3275 
 7935000    261.36984    -3929.654   -3481.6751    -3929.654            0    4641.8496     17.27582    20.348634     21.07646    7409.2044    3679.2957     3697.074    6549.1792    855.68205    719.74723   -286.66485    -2980.097 
 7936000    243.01885   -3866.4145   -3449.8885   -3866.4145            0    6586.5663    17.202672    20.262476     20.98722    7315.4888    6874.5086    6993.9053    5891.2849    1983.2502   -331.48533    344.41779    -2747.175 
 7937000    247.93375   -3931.0805   -3506.1305   -3931.0805            0    4152.8594    17.345343    20.430523    21.161278    7499.0159     4575.524     3115.048    4768.0061   -946.63318    791.88162    101.84719   -3051.9512 
 7938000    255.83455   -3884.7015   -3446.2099   -3884.7015            0    7015.8816    17.166193    20.219507    20.942715    7269.0478    6878.7717    7909.7475    6259.1257    -424.5438    1338.4234   -246.19571    -2702.445 
 7939000    231.99476   -3922.3509   -3524.7198   -3922.3509            0     5803.741    17.238561    20.304748    21.031005    7361.3701    6333.5929    6397.6649    4679.9653   -535.78791    -609.9624   -549.03086   -2901.6416 
 7940000    253.27291   -3893.3405   -3459.2394   -3893.3405            0    4477.6977    17.219135    20.281866    21.007304    7336.5105    3857.3582    4322.3501    5253.3848     1969.394    1079.3773   -814.60516   -2980.1459 
 7941000    259.48608   -3925.2805   -3480.5303   -3925.2805            0    4653.2323    17.219483    20.282277     21.00773    7336.9566    2341.2413    5070.7899    6547.6657    530.94956    237.26664    708.50293   -2982.6252 
 7942000    245.60234   -3883.0633   -3462.1093   -3883.0633            0    4408.4595    17.218685    20.281336    21.006755    7335.9359    3615.2563    4934.0231    4676.0992    359.57567    709.98511    -144.8431    -2990.461 
 7943000    253.55968   -3940.5751   -3505.9825   -3940.5751            0    4600.5311    17.253745    20.322633    21.049529    7380.8393    6296.5318    1410.6605     6094.401    1880.5248     340.6608    779.40864   -3010.7723 
 7944000     249.2693   -3899.2294   -3471.9903   -3899.2294            0    4493.1018    17.260119    20.330141    21.057305    7389.0223    5105.2114    4131.6769    4242.4171    193.63948    951.15178    738.79128   -2987.8078 
 7945000    246.02417   -3931.7902   -3510.1132   -3931.7902            0    4788.9822    17.221232    20.284337    21.009863    7339.1922     4306.743    4932.1297    5128.0739   -125.50608     -554.413   -1513.6727   -2997.5265 
 7946000    251.14721    -3917.496   -3487.0382    -3917.496            0    5598.7132    17.251081    20.319494    21.046278      7377.42    5509.6035    4284.2076    7002.3285   -248.76918   -57.263705   -962.23946   -2884.6609 
 7947000    246.47045   -3911.8406   -3489.3987   -3911.8406            0    6213.6157    17.155867    20.207346    20.930118    7255.9391    6456.9109    6438.6937    5745.2425    591.72942   -1634.3347    1059.2282   -2831.8712 
 7948000    246.92099   -3901.8061    -3478.592   -3901.8061            0    5780.2752    17.175699    20.230704    20.954312    7281.1305    6067.0448    5821.7991    5451.9816    1287.8054    754.68638    138.71207   -2864.7972 
 7949000    256.98692   -3894.8983   -3454.4315   -3894.8983            0    5056.4313    17.270482    20.342347    21.069948    7402.3392     4639.179    5195.3864    5334.7284   -399.53051    -593.8136   -111.25368   -2908.5618 
 7950000    263.16465   -3952.2745   -3501.2193   -3952.2745            0    6556.5469    17.157065    20.208756    20.931579     7257.459    7078.6459    6669.3914    5921.6034    1396.9375    739.02921   -1894.4992   -2807.2574 
 7951000    249.26996   -3931.5185   -3504.2783   -3931.5185            0    4958.5187    17.219664    20.282489    21.007949    7337.1868    3690.6098    5968.6255    5216.3206    1256.7092   -439.90374    -340.4687   -2973.6903 
 7952000     252.0695   -3912.0238   -3479.9853   -3912.0238            0    4638.1424    17.238289    20.304427    21.030672     7361.021    4744.2586    4787.4299    4382.7387    680.59525    446.57611   -212.62479   -2982.0671 
 7953000    246.17429   -3953.2633    -3531.329   -3953.2633            0     3483.537     17.30733    20.385748    21.114902    7449.8202     5305.795    1823.8217    3320.9944   -850.57344   -675.34539   -681.75899   -3152.8497 
 7954000      243.075   -3939.9742    -3523.352   -3939.9742            0    4279.1581    17.222992     20.28641     21.01201    7341.4428    4414.2719    2999.7674    5423.4349    1228.6463   -1167.5439   -190.84297   -3065.1936 
 7955000    241.47032   -3958.6488   -3544.7769   -3958.6488            0    4540.5612    17.255151    20.324289    21.051244    7382.6435    3912.2128    4397.0551    5312.4156   -387.24991    234.87693   -2.7259313   -3055.9025 
 7956000    241.67773   -3951.6453    -3537.418   -3951.6453            0    3230.1568    17.310473     20.38945    21.118736    7453.8797    3528.7751    3353.9057    2807.7896    1153.3845   -199.50493   -717.08347   -3186.2767 
 7957000    250.50641     -3932.68   -3503.3206     -3932.68            0    4820.0973    17.291772    20.367423    21.095921    7429.7479    5545.7526    5554.2628    3360.2765   -429.81613    1128.8033    -574.8448   -2981.0377 
 7958000    250.78506   -3922.4306   -3492.5936   -3922.4306            0    5460.9969    17.217356    20.279771    21.005134    7334.2372    5480.2424    5936.0772    4966.6711     420.8735    705.38071   -1638.3584   -2908.4727 
 7959000    233.24364   -3915.1593   -3515.3877   -3915.1593            0    5281.3328    17.211806    20.273234    20.998363    7327.1472    4307.2403    5252.1837    6284.5745    135.62015   -1693.2963    154.71058   -2951.0302 
 7960000    254.29499   -3911.8024   -3475.9495   -3911.8024            0    6474.5828    17.137285    20.185459    20.907448    7232.3875    4097.3874     6766.673    8559.6879    436.65635    434.50387    710.96686   -2793.0302 
 7961000    246.06111   -3946.1601   -3524.4198   -3946.1601            0    5792.7174    17.128886    20.175565    20.897201    7221.7582    7268.2102    5375.6138    4734.3283    470.67688   -403.64695    68.102907   -2914.3196 
 7962000    247.61237   -3948.5651   -3524.1659   -3948.5651            0    5264.8603    17.199557    20.258806     20.98342    7311.5152    3306.3524    6813.7233    5674.5054    525.17074    547.65476    196.66573   -2962.7689 
 7963000    260.80836   -3948.8932   -3501.8766   -3948.8932            0    5780.0062    17.195741    20.254312    20.978764      7306.65     5474.738    5921.6138    5943.6668    88.348868   -697.91532   -213.86259   -2885.9591 
 7964000    246.86664   -3963.3674   -3540.2464   -3963.3674            0    3735.6305    17.237588    20.303602    21.029817    7360.1229    1594.4445    6646.1062    2966.3407    677.91647   -343.12429    340.74573   -3139.2644 
 7965000    238.24589   -3982.2602   -3573.9149   -3982.2602            0    5211.5651    17.175216    20.230136    20.953723    7280.5166    5162.9983    5371.7606    5099.9365   -2427.0499   -1682.3984   -87.369936   -3020.5569 
 7966000    248.39009   -3969.3758   -3543.6436   -3969.3758            0    4229.2868    17.201089    20.260611    20.985288    7313.4688    3184.7086    4133.7291    5369.4226   -225.32926    1568.8897    266.53745   -3092.5503 
 7967000    243.66031   -3964.1018   -3546.4764   -3964.1018            0    6763.2898     17.14914    20.199422    20.921911    7247.4071    6530.6935    7632.8829    6126.2932   -651.61279   -606.72374   -45.661761   -2831.6237 
 7968000    244.31587   -3935.4477   -3516.6987   -3935.4477            0    6035.4817    17.198128    20.257123    20.981676    7309.6926    6032.8551    7232.0537    4841.5363   -870.19401     1363.301    101.86936     -2873.29 
 7969000    242.07015   -3927.1887   -3512.2888   -3927.1887            0     5832.541    17.250508     20.31882     21.04558    7376.6857    7673.2488    4814.5252    5009.8489   -760.88264   -536.76077    94.434117   -2884.8159 
 7970000    240.08821   -3957.9485   -3546.4455   -3957.9485            0     5274.087    17.185443    20.242182    20.966201    7293.5307    6123.6709    5573.1546    4125.4357    419.02381    122.06755    302.90125   -2985.4479 
 7971000    236.49834   -3939.2885   -3533.9385   -3939.2885            0     4436.268    17.244524    20.311771    21.038279    7369.0109    3104.1426    5487.2405    4717.4207   -676.96292   -586.65766   -601.99148   -3057.1751 
 7972000    250.22764   -3965.3206    -3536.439   -3965.3206            0    4562.7399    17.232577    20.297699    21.023703    7353.7058    5368.2722    4657.2212    3662.7264    975.10409    883.14617   -191.80152   -3047.1022 
 7973000     239.1001   -3955.8758   -3546.0664   -3955.8758            0     3158.559    17.282956     20.35704    21.085166    7418.3904    4551.4865    2179.1664    2745.0242   -345.49292    22.568448   -343.50531   -3204.3431 
 7974000    242.54231   -3944.3895   -3528.6803   -3944.3895            0     7264.898    17.179249    20.234886    20.958644    7285.6467    5361.5333    6818.3576    9614.8032   -1178.7323    318.32805   -12.402953   -2756.7581 
 7975000    248.72009   -3963.6129   -3537.3152   -3963.6129            0    7120.7542    17.108736    20.151831    20.872618    7196.3021    8332.6832    7395.8355    5633.7439    1512.0993   -522.72995    1912.6009   -2789.9872 
 7976000     248.2843    -3937.153   -3511.6022    -3937.153            0    4437.3273    17.256287    20.325627     21.05263    7384.1019     2697.423    5460.5672    5153.9917    354.22109    252.39986   -46.558877   -3033.7484 
 7977000    262.40921   -3898.1389   -3448.3785   -3898.1389            0    5789.4179    17.200646    20.260089    20.984748    7312.9042    4411.2452    6408.5924     6548.416   -844.42385   -147.98835    1253.7162   -2830.9301 
 7978000     247.9847   -3903.1927   -3478.1554   -3903.1927            0    2769.8533    17.256572    20.325963    21.052978    7384.4677    1655.4106     2888.873    3765.2764    1704.1727   -1161.0052    103.11975   -3179.8564 
 7979000    258.18118   -3934.8703   -3492.3566   -3934.8703            0    5971.7492    17.275015    20.347686    21.075478    7408.1691    4589.0719    5499.0835    7827.0922    529.97817    828.33411    996.02181   -2847.1656 
 7980000     259.7896   -3916.8896   -3471.6191   -3916.8896            0    3228.8689    17.433562    20.534433    21.268905    7614.0195    1283.4708    4316.5988    4086.5371   -238.63218    67.164575   -762.13889   -3113.0769 
 7981000    251.79938   -3919.0795   -3487.5039   -3919.0795            0    4508.6575     17.31673    20.396821     21.12637    7461.9656    3629.0627    4740.9309    5155.9791    328.87389   -916.34463   -534.29157   -2996.8488 
 7982000    249.70284   -3951.5109   -3523.5287   -3951.5109            0     4195.686    17.312564    20.391914    21.121288    7456.5819    5100.5506     3972.362    3514.1455   -26.988163     2867.541   -1305.5267   -3067.2622 
 7983000    247.56992   -3941.4576   -3517.1313   -3941.4576            0    6435.4204    17.256167    20.325485    21.052483    7383.9473    4494.0808    7317.7339    7494.4465    299.35577   -364.43963    89.844174   -2824.1182 
 7984000    240.21856   -3888.7688   -3477.0424   -3888.7688            0    4883.4124    17.289772    20.365068    21.093482    7427.1707    4667.5561    5754.2836    4228.3975   -111.04405   -481.89111   -1276.6808   -2948.0826 
 7985000    252.01639   -3949.0239   -3517.0765   -3949.0239            0    6131.2842     17.29303    20.368905    21.097456    7431.3694    5736.3027    7770.9319     4886.618    1524.3724   -94.938898   -935.88913   -2852.5746 
 7986000    252.86124   -3949.1662   -3515.7707   -3949.1662            0     4372.086    17.264402    20.335185     21.06253    7394.5235    4251.8346      4227.51    4636.9133   -646.53912   -570.35308    476.94764   -3044.2782 
 7987000    253.95799   -3952.7495   -3517.4742   -3952.7495            0    4417.0537    17.239595    20.305965    21.032265    7362.6938    2946.5527    5214.8805    5089.7279   -686.78984    -1011.639    581.04849   -3043.1827 
 7988000    251.41996   -3907.6841   -3476.7589   -3907.6841            0    4976.4577    17.257465    20.327014    21.054066    7385.6132    3870.2776    4371.0698    6688.0256   -198.53108   -949.79186     334.9073   -2940.7367 
 7989000    251.35167   -3929.5003   -3498.6921   -3929.5003            0    4276.7237    17.278386    20.351656     21.07959    7412.5064     3193.462     5842.792     3793.917   -197.78868   -327.86951   -1001.3334    -3036.362 
 7990000    244.35533   -3917.1291   -3498.3124   -3917.1291            0    4904.4233     17.28277     20.35682    21.084939    7418.1504    3899.8092    4435.3144    6378.1464   -1221.1562   -802.26865    582.81624   -2967.7219 
 7991000    233.64007   -3941.0057   -3540.5546   -3941.0057            0    4983.5145    17.242145     20.30897    21.035377    7365.9625     5403.129    4752.6105    4794.8039   -784.72153   -917.58452   -1016.3789   -3005.2005 
 7992000    250.64856   -3925.6742   -3496.0711   -3925.6742            0    6268.8297    17.269158    20.340787    21.068332    7400.6365    6930.4656    6667.9841    5208.0393     320.6504    -910.8542    -1225.402    -2819.472 
 7993000    247.65148   -3881.6479   -3457.1817   -3881.6479            0    6021.7895    17.217807    20.280303    21.005685    7334.8141    4877.8696    7111.7579    6075.7411    1200.2275     91.97595    955.13452   -2813.0264 
 7994000    255.19595   -3925.9402    -3488.543   -3925.9402            0    4440.3294    17.300619    20.377844    21.106715    7441.1579    3318.0059    3889.5085    6113.4738   -1075.6832    249.08348    1165.6122   -3006.6711 
 7995000    241.84873   -3860.0658   -3445.5453   -3860.0658            0    4861.2421    17.340897    20.425287    21.155854    7493.2514    5372.4156    4352.6254    4858.6852    337.77025    713.81607    1337.6194   -2914.3021 
 7996000    256.23832   -3911.9847    -3472.801   -3911.9847            0    5601.7077    17.239411    20.305749    21.032041    7362.4588    5972.6876    4954.3521    5878.0835   -491.13008   -869.83908   -1379.5357   -2871.3238 
 7997000    243.99392   -3900.2445   -3482.0473   -3900.2445            0    3844.8365    17.271967    20.344096     21.07176     7404.249    4128.3102    5339.7037    2066.4956    407.29371   -824.14189   -1182.2593   -3066.8688 
 7998000    244.68213   -3857.7563   -3438.3795   -3857.7563            0    5780.0497    17.198182    20.257187    20.981742    7309.7618     4496.816    4953.0676    7890.2657   -1436.5143   -1248.2904    112.59331   -2822.1951 
 7999000    244.43302   -3931.1193   -3512.1695   -3931.1193            0    4493.4496    17.253183    20.321971    21.048844    7380.1181    4614.5601    3804.1628    5061.6259   -544.23322    1304.8291   -1403.0162    -3028.533 
 8000000    266.59889   -3909.9119   -3452.9705   -3909.9119            0    5111.9523     17.27707    20.350106    21.077985     7410.813    4491.7825    5283.3446    5560.7299   -242.65369   -349.52435    278.71558   -2900.4752 
Loop time of 508.814 on 64 procs for 250000 steps with 864 atoms

Performance: 84.903 ns/day, 0.283 hours/ns, 491.339 timesteps/s
99.1% CPU use with 64 MPI tasks x 1 OpenMP threads

MPI task timing breakdown:
Section |  min time  |  avg time  |  max time  |%varavg| %total
---------------------------------------------------------------
Pair    | 21.056     | 25.592     | 30.367     |  44.5 |  5.03
Bond    | 0.28653    | 0.29762    | 0.31133    |   1.0 |  0.06
Kspace  | 227.51     | 239.9      | 249.95     |  34.2 | 47.15
Neigh   | 4.7139     | 5.5327     | 6.3132     |  21.2 |  1.09
Comm    | 105.75     | 114.8      | 125.04     |  47.0 | 22.56
Output  | 1.2215     | 1.2249     | 1.2348     |   0.2 |  0.24
Modify  | 111.75     | 114.75     | 118.64     |  13.6 | 22.55
Other   |            | 6.715      |            |       |  1.32

Nlocal:        13.5000 ave          18 max           9 min
Histogram: 1 5 6 11 12 7 7 10 2 3
Nghost:        2151.72 ave        2185 max        2108 min
Histogram: 1 2 7 8 4 11 11 9 7 4
Neighs:        4169.02 ave        6205 max        2263 min
Histogram: 1 3 8 15 9 8 8 7 4 1

Total # of neighbors = 266817
Ave neighs/atom = 308.81597
Ave special neighs/atom = 2.0000000
Neighbor list builds = 12566
Dangerous builds = 0

unfix		3
unfix		2
unfix		1

write_data	data.final.${pid}
write_data	data.final.0
System init for write_data ...
PPPM initialization ...
  extracting TIP4P info from pair style
  using 12-bit tables for long-range coulomb (../kspace.cpp:340)
  G vector (1/distance) = 0.37436868
  grid = 24 24 25
  stencil order = 5
  estimated absolute RMS force accuracy = 0.00306003
  estimated relative force accuracy = 9.2151894e-06
  using double precision FFTW3
  3d grid and FFT values/proc = 2730 288
Last active /omp style is kspace_style pppm/tip4p/omp
WARNING: Not all mixed pair coeffs generated from mixing. Use write_data with 'pair ij' option to store all pair coeffs. (../write_data.cpp:312)

write_restart   restart.lmp.${pid}
write_restart   restart.lmp.0
System init for write_restart ...
PPPM initialization ...
  extracting TIP4P info from pair style
  using 12-bit tables for long-range coulomb (../kspace.cpp:340)
  G vector (1/distance) = 0.37436868
  grid = 24 24 25
  stencil order = 5
  estimated absolute RMS force accuracy = 0.00306003
  estimated relative force accuracy = 9.2151894e-06
  using double precision FFTW3
  3d grid and FFT values/proc = 2730 288
Last active /omp style is kspace_style pppm/tip4p/omp
Total wall time: 0:08:31
