LAMMPS (30 Jul 2021)
  using 1 OpenMP thread(s) per MPI task
package omp 0
using multi-threaded neighbor list subroutines
echo both

include		in.partitions
variable        pid world 0
include		in.temp
variable        temperature equal 217.97
variable	tempDamp equal 100.0
include		in.pressure
variable        pressure equal 2250.0
variable        pressureDamp equal 1000.0 # This is 1 ps
include		in.seed
variable        seed world 745823

units		real
atom_style	full
read_restart    restart.lmp.${pid}
read_restart    restart.lmp.0
Reading restart file ...
  restart file = 30 Jul 2021, LAMMPS = 30 Jul 2021
  restoring atom style full from restart
  triclinic box = (-3.2311479 -0.22937336 -0.11765992) to (14.841147 22.809372 19.347658) with tilt (-0.16075585 -6.5566019 0.20254089)
  4 by 4 by 4 MPI processor grid
  restoring pair style lj/cut/tip4p/long/omp from restart
  restoring bond style harmonic/omp from restart
  restoring angle style harmonic/omp from restart
  1008 atoms
  672 bonds
  336 angles
Finding 1-2 1-3 1-4 neighbors ...
  special bond factors lj:    0        0        0       
  special bond factors coul:  0        0        0       
     2 = max # of 1-2 neighbors
     1 = max # of 1-3 neighbors
     1 = max # of 1-4 neighbors
     2 = max # of special neighbors
  special bonds CPU = 0.040 seconds
  read_restart CPU = 0.185 seconds

include 	in.setup
variable	out_freq equal 1000
variable	out_freq2 equal 10000
variable	out_freq3 equal 1000

timestep	2.0

neigh_modify    delay 7 every 1

include		in.tip4p
# This is TIP4P/Ice

# create groups ###
group ox type 2
336 atoms in group ox
group hy type 1
672 atoms in group hy

# set charges - beside manually ###
set group ox charge -1.1794
Setting atom values ...
  336 settings made for charge
set group hy charge 0.5897
Setting atom values ...
  672 settings made for charge

# ### TIP3P Potential Parameters ###
pair_style lj/cut/tip4p/long/omp 2 1 1 1 0.1577 8.5
pair_coeff 1 1*2 0.000 0.000
pair_coeff 2 2 0.21084 3.1668
bond_style  harmonic
bond_coeff  1 450 0.9572
angle_style harmonic
angle_coeff 1 55 104.52
kspace_style pppm/tip4p/omp 1.0e-5
pair_modify tail yes

thermo          ${out_freq}
thermo          1000
thermo_style    custom step temp pe etotal epair emol press lx ly lz vol pxx pyy pzz pxy pxz pyz enthalpy

restart 	${out_freq3} restart.lmp.${pid} restart2.lmp.${pid}
restart 	1000 restart.lmp.${pid} restart2.lmp.${pid}
restart 	1000 restart.lmp.0 restart2.lmp.${pid}
restart 	1000 restart.lmp.0 restart2.lmp.0


include         in.dump
dump            myDump all atom ${out_freq2} dump.water.${pid}
dump            myDump all atom 10000 dump.water.${pid}
dump            myDump all atom 10000 dump.water.0
dump            myDump2 all dcd ${out_freq2} dump.dcd
dump            myDump2 all dcd 10000 dump.dcd
dump_modify     myDump append yes
dump_modify     myDump2 append yes


variable natoms 	equal  "count(all)"                        # NUMBER ATOMS
variable H      	equal  "enthalpy/v_natoms"                 # ENTHALPY-per-atom
variable Vol      	equal  "vol/v_natoms"                 # volume-per-atom
fix AVG all 		ave/time ${out_freq} 1 ${out_freq} v_Vol v_H file vol_enthalpy.dat
fix AVG all 		ave/time 1000 1 ${out_freq} v_Vol v_H file vol_enthalpy.dat
fix AVG all 		ave/time 1000 1 1000 v_Vol v_H file vol_enthalpy.dat



fix 		1 all shake 1e-6 200 0 b 1 a 1
       0 = # of size 2 clusters
       0 = # of size 3 clusters
       0 = # of size 4 clusters
     336 = # of frozen angles
  find clusters CPU = 0.143 seconds
fix             2 all nph tri ${pressure} ${pressure} ${pressureDamp}
fix             2 all nph tri 2250 ${pressure} ${pressureDamp}
fix             2 all nph tri 2250 2250 ${pressureDamp}
fix             2 all nph tri 2250 2250 1000
fix             3 all temp/csvr ${temperature} ${temperature} ${tempDamp} ${seed}
fix             3 all temp/csvr 217.97 ${temperature} ${tempDamp} ${seed}
fix             3 all temp/csvr 217.97 217.97 ${tempDamp} ${seed}
fix             3 all temp/csvr 217.97 217.97 100 ${seed}
fix             3 all temp/csvr 217.97 217.97 100 745823


run             250000
PPPM initialization ...
  extracting TIP4P info from pair style
  using 12-bit tables for long-range coulomb (../kspace.cpp:340)
  G vector (1/distance) = 0.38302444
  grid = 24 30 36
  stencil order = 5
  estimated absolute RMS force accuracy = 0.0019699165
  estimated relative force accuracy = 5.9323451e-06
  using double precision FFTW3
  3d grid and FFT values/proc = 4320 480
Last active /omp style is kspace_style pppm/tip4p/omp
Neighbor list info ...
  update every 1 steps, delay 7 steps, check yes
  max neighbors/atom: 2000, page size: 100000
  master list distance cutoff = 10.8154
  ghost atom cutoff = 10.8154
  binsize = 5.4077, bins = 5 5 4
  1 neighbor lists, perpetual/occasional/extra = 1 0 0
  (1) pair lj/cut/tip4p/long/omp, perpetual
      attributes: half, newton on, omp
      pair build: half/bin/newton/tri/omp
      stencil: half/bin/3d/tri
      bin: standard
Per MPI rank memory allocation (min/avg/max) = 9.352 | 9.359 | 9.365 Mbytes
Step Temp PotEng TotEng E_pair E_mol Press Lx Ly Lz Volume Pxx Pyy Pzz Pxy Pxz Pyz Enthalpy 
19500000    219.32886   -4888.8339    -4450.149   -4888.8339            0    2789.0446    18.072295    23.038746    19.465318    8104.6382    2338.2335    2986.4212    3042.4791   -639.09484    -345.7951   -647.02234     -4120.49 
19501000    216.13152   -4911.4028   -4479.1131   -4911.4028            0     2092.704    18.307674     22.84719     19.39614    8112.9963    3102.4254    1408.8232    1766.8632    1613.1926    -1394.464    181.29942   -4231.5049 
19502000    225.44751   -4920.1078    -4469.185   -4920.1078            0    538.12347    18.349968    22.832889    19.554768     8193.111    -664.6233    1491.9305    787.06321    319.75514   -73.587726    513.26401   -4404.8856 
19503000    215.49399   -4909.5915   -4478.5769   -4909.5915            0    2642.5621    18.142528    22.743677    19.672652    8117.4828    3993.4418    2566.6818    1367.5627   -797.77324    537.66852    589.17699   -4165.7368 
19504000    209.33664   -4925.2202    -4506.521   -4925.2202            0    1174.7802    18.137142    23.221741    19.368557     8157.572    211.72915    889.69639    2422.9151    -515.0078   -14.368954   -320.68756   -4366.7576 
19505000     219.5536   -4917.0652   -4477.9309   -4917.0652            0    1927.3907    18.171262     23.17439    19.327418    8138.9285    2139.2565    1292.1366    2350.7792    430.08738    696.35195   -811.39874   -4249.1537 
19506000    224.63018   -4914.7752    -4465.487   -4914.7752            0    434.38445     18.21173     22.76867    19.724128    8178.7456    1309.8776    36.797937   -43.522232   -835.21619   -1841.7115   -30.959279   -4413.6743 
19507000    229.17267   -4942.0194   -4483.6457   -4942.0194            0    2670.3617    18.280828    22.738422    19.502249    8106.6399    1150.7867    3602.1556    3258.1427   -901.10043   -37.345156    474.64351   -4167.9368 
19508000    223.52873   -4912.8459   -4465.7608   -4912.8459            0    2608.9552    18.053061    23.069143    19.399474    8079.2727    3741.3401    1308.7158    2776.8097   -400.29761    -537.7308   -1503.0058   -4158.3531 
19509000    233.99674   -4917.3056   -4449.2832   -4917.3056            0    2965.7232    17.983074    23.341176    19.312165    8106.2059    3535.6602    1251.3625    4110.1469   -546.12778   -981.75541   -1226.6952   -4098.6733 
19510000    224.51349   -4911.4871   -4462.4324   -4911.4871            0    3512.0562    18.285763    22.738678    19.472276    8096.4567    3057.0213    4303.2447    3175.9026   -496.79104    91.540472   -235.29137    -4047.734 
19511000    216.10304   -4919.0118   -4486.7791   -4919.0118            0    2661.9178    18.352365    22.699167    19.575483    8154.8214    752.69435    3907.9916    3325.0675   -489.66796    1244.5448   -320.18883    -4170.198 
19512000    228.55004   -4895.4301   -4438.3017   -4895.4301            0    2662.2208    18.108527    23.021453    19.425318     8098.116    1615.3025    2460.0382    3911.3216    1029.3019   -704.84728     852.9731   -4123.8862 
19513000    230.61693    -4899.654   -4438.3916    -4899.654            0    1644.7883    17.992929    23.381999    19.385355    8155.6253    4548.7682   -904.84449    1290.4413    1116.3378   -712.37556     103.5168   -4242.7582 
19514000    219.34444   -4920.8088   -4482.0928   -4920.8088            0    2831.6526    18.168077    22.897673    19.494788    8109.9624    3710.9152    3895.0508     888.9919    18.101036    562.14311    93.274517   -4147.1777 
19515000    226.29725   -4930.9985    -4478.376   -4930.9985            0    2013.5291    18.253835    22.883995    19.379725    8095.3113    2526.7041    2332.6457    1181.2377    -454.8472    30.545463    1536.5778   -4240.6551 
19516000     210.0053   -4887.8502   -4467.8136   -4887.8502            0    2208.1877    18.107005    23.313214    19.353172    8169.6027    2028.3427     1661.917    2934.3033   -1427.8112   -47.921325   -297.51642   -4204.7185 
19517000    230.68823   -4929.8837   -4468.4788   -4929.8837            0    4262.1198    18.099174    22.912709    19.477936    8077.5214    6346.5266    3225.0998    3214.7332    749.73197    872.01501    1289.7195    -3966.391 
19518000     215.9655   -4917.0362   -4485.0785   -4917.0362            0    174.14171    18.289104    22.845019    19.609051    8192.9542    823.69323    886.19213   -1187.4602     1891.766   -470.08368   -40.972122    -4464.271 
19519000    222.26462   -4915.1723   -4470.6156   -4915.1723            0    4216.0336    18.058342    22.860227    19.481685    8042.3865      4646.58    3925.8246    4075.6962    1156.6088    237.06056    1140.9199   -3976.1172 
19520000      218.466   -4917.6424   -4480.6834   -4917.6424            0    2494.7277    18.099228    23.001353    19.458708    8100.7909    3002.9091     2306.557     2174.717     287.3935   -176.43638    225.77183    -4185.952 
19521000    221.82309   -4934.8045   -4491.1309   -4934.8045            0     3646.054    18.100874     23.12946    19.309787    8084.3016    3019.8657    3027.0133    4891.2831   -1002.4552    448.62414   -232.10115   -4061.2566 
19522000    216.66129   -4900.6512   -4467.3018   -4900.6512            0    2428.3373    18.176609    22.649602    19.695587    8108.5345    2653.8025    4017.4658    613.74354   -945.19456   -247.64745    782.16271   -4180.1396 
19523000    216.16593   -4941.0473   -4508.6888   -4941.0473            0     2074.767    18.159201    22.968063    19.476567    8123.3194    970.37764    2680.9256    2572.9979   -774.37513    1514.5483   -390.57381   -4262.8905 
19524000     220.5154   -4878.0759   -4437.0179   -4878.0759            0    2521.8366    18.176475     23.18958    19.343962     8153.573    3152.8604    1534.7476    2877.9017    547.74001    138.64476    81.841135   -4137.1425 
19525000     224.3717   -4898.5726   -4449.8015   -4898.5726            0    3104.1951    18.017738    22.917352    19.591726    8089.7929    3483.2463    3179.8317    2649.5074     401.8353   -405.79218   -5.2366074   -4083.5644 
19526000    221.99994   -4896.8904   -4452.8631   -4896.8904            0    3151.0015      18.3419     22.61948    19.427262    8060.0644    1630.1957    4817.7103    3005.0986    1035.6524    57.925929   -946.75641   -4082.4699 
19527000    224.17515   -4893.8841   -4445.5061   -4893.8841            0    525.18903    18.266698    23.029563    19.496109    8201.5076   -1139.1262    1612.6689    1102.0244   -346.39152     134.5036   -722.88734    -4382.688 
19528000    207.56443   -4899.7222   -4484.5677   -4899.7222            0    1319.9178    18.034385    22.963752    19.709923    8162.6113    2993.7292    1959.9325    -993.9081    519.89705   -313.70444   -978.76267   -4327.4403 
19529000    228.03433   -4927.2053   -4471.1085   -4927.2053            0     1924.145    18.290701    22.856147    19.517269     8159.291    2657.7802    1263.3913    1851.2635    -736.6218    371.43526   -1265.6577   -4242.1451 
19530000    215.72263   -4886.0596   -4454.5877   -4886.0596            0    2061.4562    18.315818    22.898391     19.46422    8163.3473    720.58942    2258.7283    3205.0508     862.7743   -162.17055    255.97588    -4209.163 
19531000    223.88772   -4896.9962   -4449.1931   -4896.9962            0    1592.8408    18.046116    23.044368       19.624     8160.863     1333.923     1938.616    1505.9835   -1556.7447    211.12395   -1648.8834   -4259.6167 
19532000    224.88585   -4908.8762   -4459.0767   -4908.8762            0    2118.5356     18.09774    23.060065    19.465297    8123.5511    2736.6608    2075.7792    1543.1667    -915.8407   -415.44677   -1419.3688    -4208.086 
19533000    212.40881    -4899.689   -4474.8451    -4899.689            0    1481.2132    18.179746     23.08218    19.418558     8148.574    1267.1385    1859.0511    1317.4499    442.98983    193.00796    125.48903   -4298.8198 
19534000    212.47584   -4919.0123   -4494.0343   -4919.0123            0    2808.0851    18.167427    22.816827    19.514936    8089.3904    2433.0856    3396.0433    2595.1264    340.72298    1425.7192   -1515.6047   -4162.7492 
19535000    216.69499   -4937.6701   -4504.2534   -4937.6701            0    1495.2479    18.183285    22.936168     19.60888    8177.9788    2750.8233    627.18733     1107.733    560.86796    -259.9922    223.68849    -4325.919 
19536000    213.65385   -4931.1379   -4503.8038   -4931.1379            0    2310.5269      18.1377    23.060589    19.404139    8116.0923    2570.3988    2045.7022    2315.4798    207.85745    210.53667    1481.6865   -4230.3186 
19537000     217.3195   -4902.9256   -4468.2598   -4902.9256            0    2860.7964    18.228926    22.744134    19.552568    8106.5167    4260.0644      2725.81    1596.5147    649.55853    -184.6312   -95.134696   -4130.0415 
19538000    215.86278   -4908.6924   -4476.9402   -4908.6924            0    1854.6029    18.128018    22.953772    19.587949    8150.6708    1581.1137    2781.5127    1201.1823    430.30757    1188.2948    651.37349   -4256.4851 
19539000    217.24751   -4917.6056   -4483.0837   -4917.6056            0    2275.5005     18.23698    23.032206    19.354719    8129.7149    1780.3361     1255.242    3790.9233     448.3232   -671.00477    717.80249   -4213.2923 
19540000    210.25218   -4890.6302   -4470.0999   -4890.6302            0    1961.5929    18.041741    23.153055    19.508429    8149.0888      2307.21    1066.6311    2510.9377   -851.50629    45.558301    676.48253   -4236.9722 
19541000    214.93251   -4902.6238   -4472.7322   -4902.6238            0    354.18264    18.247693    22.895319     19.64348    8206.7858   -437.21205    1052.3145    447.44547    1416.7761    87.910472    1057.1817    -4430.341 
19542000    226.15818   -4926.9357   -4474.5914   -4926.9357            0    3279.4383    18.346936    22.772294    19.400946    8105.7504    2488.8594    3830.5952    3518.8601    1180.1764    412.90901   -1434.8796   -4086.9157 
19543000    220.56259   -4897.4882   -4456.3358   -4897.4882            0    1364.7939    18.188123    23.062879    19.436038    8152.8443    3022.9216   -188.65127    1260.1112      568.878   -568.70852   -945.66539   -4294.0606 
19544000    213.93162   -4931.5168   -4503.6272   -4931.5168            0    3263.1484    18.174218    23.047641    19.387223    8120.7815    4011.6049    2702.2843     3075.556   -1216.2204    44.677912   -1128.4499   -4117.1618 
19545000    212.60321   -4930.9768   -4505.7441   -4930.9768            0     2606.325    18.004291    22.981255    19.568496    8096.6843    3287.1843    2437.2965    2094.4941    37.841127     304.4053    490.18611   -4197.9845 
19546000    213.12019   -4919.0094   -4492.7427   -4919.0094            0    869.87172    18.252981    23.041783    19.423988    8169.3648    1943.7742     87.73998    578.10096     -473.967   -284.15883   -420.71058   -4389.1046 
19547000    229.18689   -4933.4132   -4475.0112   -4933.4132            0     3150.738    18.267032    22.894488    19.337053    8087.0329    1235.2039     3584.361     4632.649   -893.17217   -579.12484   -579.68764   -4103.4097 
19548000    216.97098   -4929.5568   -4495.5881   -4929.5568            0    3490.3211    18.003982    22.881241    19.609389    8078.1555    6073.9637    3263.0227    1133.9768    216.46855   -481.04593    1417.9568   -4084.3877 
19549000    220.23993   -4899.7595   -4459.2524   -4899.7595            0    1100.5035    18.138072    23.069507    19.575325     8191.028     980.7298    1114.9242    1205.8564    602.96546   -386.88203    31.732463   -4327.7887 
19550000    221.42818   -4936.9081   -4494.0244   -4936.9081            0    3051.4531    18.097731     23.01872    19.406297    8084.4032    3317.1761    2805.9304    3031.2527   -370.16707    264.39661     -695.832   -4134.2497 
19551000    228.27569   -4874.4173   -4417.8377   -4874.4173            0    933.85298    18.283803    22.954927    19.507078    8187.1866     509.1555   -22.345309    2314.7488   -1449.1748   -1235.1233    340.18144    -4306.334 
19552000     222.6294   -4939.7463     -4494.46   -4939.7463            0    3016.5198    18.299047    22.790216    19.428802    8102.5726    1849.7736    3506.4689    3693.3169    92.959785    839.99112   -536.91851   -4138.0048 
19553000    216.77143   -4946.9383   -4513.3687   -4946.9383            0    1629.3742    18.126073    22.973481    19.512423    8125.3438    1292.1342    1741.5753    1854.4132   -1242.7821    486.00816   -195.30581   -4320.2881 
19554000    222.96129   -4894.7856   -4448.8355   -4894.7856            0    1565.3179    18.161702      23.2899    19.291331    8159.9286    1536.8336     589.4648    2569.6553    266.21126    168.21366    1235.0773   -4262.5561 
19555000    216.70638   -4897.7706   -4464.3311   -4897.7706            0      2235.96    18.079205    23.100951    19.478665    8135.2029    2650.6635     2131.701    1925.5156    693.23866     343.3923     782.1606   -4199.0487 
19556000    223.28815   -4884.4662   -4437.8623   -4884.4662            0    2889.4323    18.223208    23.010989    19.471649     8165.125    2836.6195    1865.3938    3966.2837    640.33804    707.15075   -458.57608   -4093.7888 
19557000     209.0189   -4925.3777   -4507.3141   -4925.3777            0    2496.6165    18.308035    22.740096    19.423348    8086.4539    1487.8987    3421.6146    2580.3362   -92.211433   -54.989919   -977.36475   -4212.8815 
19558000    221.61972   -4915.9001   -4472.6333   -4915.9001            0    1961.5309     18.07431     23.16007     19.47489    8152.2332    2251.2266     2370.058     1263.308   -910.50005    495.85038    214.34169   -4239.4231 
19559000    216.88252   -4916.0603   -4482.2685   -4916.0603            0    1865.5913    18.049695    23.100958    19.508753    8134.4722    2520.8033    2221.7027    854.26789   -707.15662    524.43355   -955.19208   -4260.9479 
19560000    222.92697   -4926.7053   -4480.8239   -4926.7053            0     2549.733    18.236278    22.935961    19.392429    8111.2048    1795.9506    1822.7222    4030.5262    580.33212   -785.52324    1119.8469   -4179.2068 
19561000     222.9182   -4899.1697   -4453.3057   -4899.1697            0    1935.0815    18.222593    22.845756    19.499683    8117.8915    2374.6661    3031.0515    399.52705   -2566.6406    897.99876     -1093.58   -4224.2093 
19562000    237.44291   -4909.1654   -4434.2502   -4909.1654            0    2747.2314    18.131738    22.822311     19.65593    8133.7843    3452.2366    3533.4835    1255.9742   -765.92706    327.17023   -443.97849   -4108.3656 
19563000    218.76693   -4886.1601   -4448.5992   -4886.1601            0    2424.7122    18.136793    23.111612    19.429721     8144.366    1538.9985    2506.7315    3228.4067    -1372.994   -221.08187   -629.84994   -4160.5986 
19564000    215.31745   -4912.3483   -4481.6868   -4912.3483            0    1223.1544    18.052911    23.195879    19.471601    8153.7944    1201.3576    1038.2931    1429.8126    1135.6833   -530.85058   -1210.4164   -4336.2358 
19565000    215.59671   -4930.3844   -4499.1644   -4930.3844            0    1924.3456    18.350304     22.78635     19.49863    8153.0879    2988.0022    1557.5927    1227.4419   -748.07519    232.57054    -838.2325   -4270.3512 
19566000    225.21495   -4892.9178     -4442.46   -4892.9178            0    1807.3612     18.32238    22.861378    19.416921    8133.2598    940.78608    1401.7918    3079.5058    272.61639   -385.05535    522.47829   -4228.0794 
19567000    218.94399   -4927.3149   -4489.3999   -4927.3149            0    1568.6783    18.094621    22.986784    19.621025    8161.1132     1519.368    1563.5918     1623.075    -44.04851    877.84168    270.92319   -4302.6935 
19568000    220.58335   -4914.4267   -4473.2328   -4914.4267            0    763.44424    18.228366    23.104156    19.409369    8174.2755    1134.9409    712.67179    442.72002   -1412.9453     466.6082    397.40465     -4382.22 
19569000    207.31754   -4924.8257    -4510.165   -4924.8257            0    2241.6258    18.156376    23.036183    19.363185    8098.7217    2066.0347    2858.5414    1800.3013    859.58505    823.09103    231.11061   -4245.4031 
19570000    216.17135   -4895.3046   -4462.9352   -4895.3046            0    2502.3451    18.161411    22.990454    19.506369    8144.6716    2564.7774    2975.3604    1966.8975   -1337.9297     446.5434   -1703.5662   -4165.7024 
19571000    218.18833   -4911.5985   -4475.1949   -4911.5985            0    1483.4533     18.14908    23.006915    19.552653    8164.2953     1546.262    2170.7334    733.36446    65.538685   -228.39817    1003.8585   -4298.5633 
19572000     234.7158   -4894.4122   -4424.9516   -4894.4122            0    1264.0065    18.090532    23.045276    19.621106    8180.0644    1621.9062    1678.5109    491.60239   -168.63418    659.12826   -1113.9248   -4274.1583 
19573000    209.61531   -4927.6947   -4508.4381   -4927.6947            0    951.25783    18.235893    22.891318    19.549864    8160.9659    2242.9185    887.92751   -277.07254    36.740163   -683.17454   -41.329769   -4395.2201 
19574000    199.37649   -4905.1379   -4506.3603   -4905.1379            0     1516.532    18.112057    23.062549    19.485716    8139.3823    2982.5032    1801.3564   -234.26362    39.884711    646.24536   -822.27724    -4326.341 
19575000    213.86415   -4907.0661   -4479.3114   -4907.0661            0    3362.5781    18.034611    23.223965    19.331327    8096.6398    5469.9151    2301.4973     2316.322   -1431.6391    302.69981     757.7301   -4082.2542 
19576000    221.92651   -4911.2426   -4467.3622   -4911.2426            0    1847.2576    18.140193    22.971851    19.502676    8127.0345    2839.0717    1442.7274    1259.9739   -167.80284    549.37117     883.4034    -4248.417 
19577000    204.50504   -4927.2341   -4518.1988   -4927.2341            0    1012.0257    18.418508    22.730716    19.471204    8151.9288    6.2803326     1363.407    1666.3898   -1020.0774   -391.13044   -157.52641   -4397.8815 
19578000    228.63356   -4895.6686   -4438.3732   -4895.6686            0    1143.5482     18.25227    23.025956    19.488557    8190.5722    1880.0582     1347.428    203.15828    366.90401   -4.5441104    -287.3246   -4301.7752 
19579000    214.42168   -4920.2614   -4491.3915   -4920.2614            0    2555.9378    18.023401    23.091862    19.465691    8101.5013     2160.759    3045.7589    2461.2956    1943.4501    380.92756    1367.7863   -4189.4021 
19580000    221.37869   -4891.9057    -4449.121   -4891.9057            0    2456.3065     18.11298    22.978968    19.526801    8127.3981    1883.0767    2827.3082    2658.5346    378.27289    379.96622    -730.7622   -4157.9756 
19581000    227.26341    -4922.907   -4468.3521    -4922.907            0    2601.8858    18.219422     22.90427     19.36501    8081.0683    2412.7954    1978.9103    3413.9517    1663.8033   -314.76778    2093.3252   -4161.7092 
19582000    214.94842   -4928.4822   -4498.5588   -4928.4822            0    5008.8028    18.089857    22.884134    19.324475    7999.7667    5594.4828    4322.8788    5109.0467     354.2657    -1244.218   -1869.1246   -3914.1898 
19583000     221.8127   -4904.0294   -4460.3766   -4904.0294            0    3542.1674    18.087268    23.078546    19.335312    8071.0981    1757.7225    4590.5345    4278.2453    -2196.026     1195.393   -1243.1805   -4043.4327 
19584000    222.52757   -4887.4323   -4442.3497   -4887.4323            0     1347.901    18.131757     23.01279    19.576221    8168.4196    2537.7599    961.61534    544.32781   -218.43271   -362.29022    969.25079   -4281.7769 
19585000     217.0207   -4926.6012    -4492.533   -4926.6012            0    2373.7403    18.286026    22.785335    19.468106    8111.4491    917.94353    2565.2895     3637.988    -1072.581   -989.92564   -1047.6244   -4211.7263 
19586000    224.55488   -4933.4775     -4484.34   -4933.4775            0    1603.1911    18.073444    22.899367    19.620106    8120.1815    3788.4954    1117.7303   -96.652286    916.57865    -43.75396    226.07413   -4294.4829 
19587000     218.6315   -4920.2979   -4483.0079   -4920.2979            0    475.74873    18.166326    23.199371    19.421094     8184.968   -37.731331     525.7729    939.20463    1618.7806    108.44036    1115.9782   -4426.2181 
19588000    217.67426   -4907.8557   -4472.4803   -4907.8557            0    1388.4293    18.220043    23.254178    19.261835    8161.0878   -391.35422    1128.5709    3428.0711     653.1659    326.46924   -729.42576   -4307.2279 
19589000    210.46082   -4936.8406    -4515.893   -4936.8406            0    3196.6742    18.031301    22.831367    19.639584    8085.2093    4360.3294    3751.1509    1478.5425    416.37686    735.73537    -436.7171   -4138.9588 
19590000    214.80626   -4915.5552   -4485.9162   -4915.5552            0    2343.7135    18.229221    22.868887    19.536161    8144.2737    2000.0868    2895.4586    2135.5951   -567.90062    825.14684   -1383.2066   -4207.5395 
19591000    218.52914   -4926.8976   -4489.8123   -4926.8976            0    3124.6894    18.189959    22.932942    19.395711    8090.9067    4125.7898    2742.3111    2505.9672    389.04914    727.01618    2323.1882   -4121.1065 
19592000    207.78359   -4899.5224   -4483.9295   -4899.5224            0    3849.2862    18.105429    22.931432    19.438334    8070.4737    2295.0331    5123.2009    4129.6246   -791.68722   -262.62542   -386.21387   -4030.8701 
19593000     221.4633   -4897.1328   -4454.1788   -4897.1328            0    1924.7868      18.1105    23.065696    19.508188    8149.1805    3122.2162    1240.3941      1411.75   -209.45369   -751.11865    774.22708   -4225.4229 
19594000     217.7859   -4914.4815   -4478.8828   -4914.4815            0    1830.5705    18.125423    22.984233    19.530742    8136.4867    1985.5459    1375.2083    2130.9572    2094.4271   -474.28433    -149.6769   -4261.6631 
19595000    208.80411   -4931.6538   -4514.0198   -4931.6538            0    3018.0497    18.201591    22.903549    19.373347    8076.3807    1560.7073    3734.2418       3759.2    256.69486   -1017.9308    482.53676   -4158.5366 
19596000    217.77788   -4901.9647    -4466.382   -4901.9647            0    2739.2283    18.092848    22.962139    19.538206    8117.1575    3027.2021    2511.1574    2679.3252    1060.9413     -1086.21    257.81455   -4142.1111 
19597000    220.37097   -4926.1879   -4485.4187   -4926.1879            0    1210.2551    18.167309    23.054103    19.507138    8170.1942    2341.3823    148.10358    1141.2795   -80.896559    103.09341   -108.43037   -4341.2121 
19598000    221.21133   -4922.3808   -4479.9308   -4922.3808            0    1636.3693    18.185565    22.872161     19.53981    8127.4503    2008.8779    1098.1144    1802.1158   -460.84506   -677.89589    431.58674   -4285.9711 
19599000    220.91695   -4926.2872    -4484.426   -4926.2872            0     1876.762    18.156533    22.952774    19.459969    8109.8018    1926.2418    1171.6464    2532.3978   -378.15309   -751.42852    919.06286   -4262.4555 
19600000    218.42106   -4913.6954   -4476.8263   -4913.6954            0    1836.5413    18.351862    23.018506    19.278635    8143.9212   -230.37283    2620.2224    3119.7743    404.49146    77.761347    1100.7576    -4258.699 
19601000     203.5877   -4918.6897   -4511.4892   -4918.6897            0    1850.6124    17.995687     22.94645    19.622148    8102.7135    3982.3047    986.19422    583.33832     800.6372    -491.2933   -2751.8854   -4292.8028 
19602000    212.78224   -4899.8368    -4474.246   -4899.8368            0    1326.8991    18.366971    22.921362     19.46659    8195.3566     14.85083    896.72462    3069.1219    815.63817    485.08114    218.16214   -4315.6539 
19603000    223.97875    -4908.573   -4460.5878    -4908.573            0     3612.369    18.220258    22.876756    19.437781    8102.0635    2562.1632    3736.5725    4538.3713    254.19499    1105.4628   -471.48226   -4033.7492 
19604000    212.56446   -4884.5573   -4459.4022   -4884.5573            0    2178.2801    17.964482    23.345506    19.392282     8132.928    3488.7357    1484.6538    1561.4508   -816.23241    245.00706    1358.8518   -4201.0355 
19605000    224.28326     -4880.82   -4432.2258     -4880.82            0    2892.2873    18.181213    23.023305    19.378502    8111.6783    3348.4678    2887.6429    2440.7512    536.45143    450.25047   -284.26453   -4090.0668 
19606000    208.89265   -4920.1224   -4502.3113   -4920.1224            0    1966.5015    18.279349    22.799265    19.527443    8138.1735    2243.5888    1923.3714    1732.5444   -56.571956    331.84773    783.76005   -4268.9133 
19607000    218.92673   -4905.3163   -4467.4358   -4905.3163            0    2683.4856    18.256564     22.69572     19.60047    8121.3737    2905.1311    3238.4102    1906.9156    201.98355   -587.72238    1003.5452   -4149.5986 
19608000     222.5484   -4902.4065   -4457.2822   -4902.4065            0    1382.8473    18.135349    23.262739    19.338605      8158.53    1422.5009    -96.72336    2822.7644   -170.79999   -553.70236    621.34417   -4292.7457 
19609000    213.01842   -4913.1354   -4487.0723   -4913.1354            0    3016.3658     18.00134    23.020704    19.547406    8100.5134    2647.3558      2978.01    3423.7316    661.12598    -466.8983    538.01084   -4130.7258 
19610000    224.74057   -4906.1784   -4456.6695   -4906.1784            0    2600.5524    18.135537    22.904436     19.65331    8163.6754     2832.043    3168.5776    1801.0366   -943.37561     782.7979   -1398.8259   -4147.0508 
19611000    223.95547   -4893.3867    -4445.448   -4893.3867            0    2623.7842     18.33442    22.815155    19.430934    8128.0106    -255.0004    3838.2261    4288.1268    421.77091    385.68922   -967.19414   -4134.4281 
19612000    221.39603   -4911.4127   -4468.5933   -4911.4127            0    564.30397    18.241123    22.945167    19.535408    8176.4597    518.50101    1378.5244   -204.11352   -22.483864    423.66818   -879.63819   -4401.3027 
19613000    217.85952   -4924.5058   -4488.7599   -4924.5058            0    1691.6386    17.900887    23.123314    19.579564    8104.5264    3305.7629    1215.2357    553.91727   -279.00289   -37.991936    340.04663   -4288.8146 
19614000     227.6525   -4919.8811    -4464.548   -4919.8811            0     2604.558    18.157536    23.091748    19.324914    8102.7285    3848.3179     1535.322    2430.0342    616.41481    565.24602    -1005.941   -4156.7674 
19615000    219.91484   -4920.9056   -4481.0487   -4920.9056            0    2522.7976    18.351714    22.793014    19.416375    8121.6923    1078.9886    3172.8126    3316.5915   -427.71053    404.92943   -779.61551   -4182.2321 
19616000    213.47295   -4930.0714   -4503.0991   -4930.0714            0    2373.2935    18.143958    22.920327    19.544517    8127.8895    1727.2571    2706.7552    2685.8682   -1517.7336    751.13616   -753.75192   -4221.7762 
19617000    202.97539   -4911.5725   -4505.5966   -4911.5725            0    753.18357    18.071399    23.136774    19.595313     8193.072    2272.1729    264.78134   -277.40351    1247.3044   -142.29805   -325.78895   -4415.6005 
19618000    210.12592   -4914.6399   -4494.3621   -4914.6399            0    3035.6583    18.182457    22.996756    19.325304    8080.6347    2451.5856    2642.8478    4012.5415    1021.8382   -560.81924    90.148262   -4136.6166 
19619000    218.99294   -4935.3592   -4497.3462   -4935.3592            0    1737.6851      18.2256    22.774324    19.507029    8096.8943    2429.0989    1903.3119     880.6444     933.2289   -118.70049    958.04758   -4292.1519 
19620000    218.26249   -4915.6209    -4479.069   -4915.6209            0    979.96367    18.084868    23.048351    19.653281    8192.0058    599.27907    2217.2454    123.36651    381.87289    957.12331    759.79113   -4361.9908 
19621000    216.30661   -4930.3802   -4497.7403   -4930.3802            0     2621.559    18.181444    23.151647    19.236439    8097.2015    2831.8538    1618.8882    3413.9351   -782.25401    -542.6123   -86.813332    -4188.162 
19622000    214.10063   -4881.1306   -4452.9029   -4881.1306            0    2990.5047    18.293409    22.858828    19.422655     8121.892     3549.626    3009.5111    2412.3769     350.2356   -375.13495   -588.24495   -4098.6792 
19623000      216.359   -4910.9246   -4478.1799   -4910.9246            0    4076.5379    18.159161    22.700257    19.637942    8095.1056     3410.215    4923.6237    3895.7749   -315.19489     254.2974   -158.13551   -3996.9086 
19624000    228.21266    -4919.064   -4462.6105    -4919.064            0     2198.484    18.108115    22.957667     19.57468    8137.5871    3028.7684    2028.9626    1537.7211   -524.56765    881.49565    962.12602    -4201.698 
19625000    218.44188   -4887.1123   -4450.2016   -4887.1123            0    3125.0899      18.2175    23.047289    19.386655    8139.7579    3316.3871    2993.2951    3065.5874   -348.23717    1276.3252    544.11314   -4079.2221 
19626000    213.17773   -4918.2664   -4491.8846   -4918.2664            0    344.79391    18.238689    22.960223    19.537249    8181.5033   -670.30879    1801.9253   -97.234749    519.64998    369.26135    1294.9563   -4450.7442 
19627000    215.59596   -4922.8894   -4491.6708   -4922.8894            0    -110.2584     18.24667    23.041309    19.554011    8221.0376    1192.4752   -494.74316   -1028.5072   -752.95637   -618.14919   -235.42982   -4504.8903 
19628000    208.30274   -4911.5763   -4494.9451   -4911.5763            0    1645.0447      18.2222    22.938822    19.555206    8173.9942    1043.6354    2528.6932    1362.8054   -74.594125   -522.10226   -1158.2429   -4298.8405 
19629000    224.89722   -4883.7522   -4433.9299   -4883.7522            0    2629.8412    18.150267    22.934764    19.570275    8146.5593    3246.2066    2075.6964    2567.6205    556.81033   -1908.8504     826.9384   -4121.4806 
19630000    204.40926   -4913.1812   -4504.3374   -4913.1812            0    1861.2996    18.134057    23.061614    19.449281    8133.7014    2818.0845    407.69794    2358.1164   -899.97882   -1337.1958   -1748.5046   -4283.5469 
19631000    203.08315   -4919.5003    -4513.309   -4919.5003            0    2639.2118    18.049991     22.96124    19.541895    8099.1418    3060.9291    2751.2249    2105.4814   -475.60915   -592.06006    948.12991   -4201.5714 
19632000    226.06402   -4905.7386   -4453.5826   -4905.7386            0    835.58023    18.279713    22.649687    19.697328    8155.2804    1565.4833    859.18118    82.076168     824.9633   -875.00152     1262.951   -4354.2017 
19633000    225.62844   -4907.8221   -4456.5373   -4907.8221            0    2700.2371    18.236481    22.871804    19.443787    8110.0273    1545.1824    3064.2556    3491.2734    584.31678    30.750294    91.460565   -4137.1629 
19634000    221.22557   -4944.4294   -4501.9509   -4944.4294            0    1302.7332    18.012348    23.112453    19.507627     8121.211    1385.5798    1665.3562    857.26341    -408.0279    372.64689    1233.4465   -4347.6558 
19635000    218.75633   -4926.8738   -4489.3341   -4926.8738            0    4066.8328    18.129731    23.075966    19.299161    8074.0176    4472.5047    3371.0103    4356.9834   -1655.3816   -125.88726     -1526.32   -4010.4594 
19636000    219.80633   -4904.9947   -4465.3549   -4904.9947            0    2391.5401    18.196391    22.910025    19.499705    8129.0329    3607.1883    1375.5387    2191.8932    1752.1942   -76.657503    876.02144   -4181.8292 
19637000    211.39314   -4909.7635   -4486.9511   -4909.7635            0    2882.6665    18.266862    22.704579    19.531983    8100.7219    3299.7571     4465.103    883.13926    1254.3765    163.05959    1508.8483   -4146.3908 
19638000      219.294   -4916.8202   -4478.2051   -4916.8202            0    4563.6225    18.052502    23.157078     19.31834    8075.9005    5900.6763    3906.0975    3884.0938    43.981202    1116.0966    192.35552   -3940.7075 
19639000    193.52946   -4891.7693   -4504.6865   -4891.7693            0    2989.2368    18.047748    23.153539    19.411509    8111.4724    3072.1875    2998.8434    2896.6795    -163.5594    258.64915   -129.07079   -4151.0673 
19640000    220.92037   -4906.7513   -4464.8833   -4906.7513            0    2591.5205    18.263339    22.946273    19.443601    8148.3382    2638.7232     1908.856    3226.9822    46.492608    409.81161   -274.19915   -4156.9196 
19641000    204.22825   -4892.1779   -4483.6961   -4892.1779            0    1892.3612    18.184081    22.927376    19.520079    8138.1797    2900.0372    2213.8239    563.22249   -171.62942   -135.01707   -707.83428   -4259.0975 
19642000    216.49248   -4904.8866   -4471.8749   -4904.8866            0     1825.597    18.056158    23.205261    19.391006    8124.7901    3204.2539    1186.5647    1085.9724    940.45206   -260.99412    824.34375   -4255.5568 
19643000    215.41479   -4920.8207   -4489.9645   -4920.8207            0    1651.8245    18.011182    23.102993    19.558655    8138.5954    1496.4803    2124.2431    1334.7501    575.19359   -174.06744    380.42797   -4293.9044 
19644000    216.80768   -4910.5833   -4476.9411   -4910.5833            0    2470.1272    18.197797    22.858744    19.529565    8123.8847    3400.2513    2145.5677    1864.5624    228.75995   -1475.2202   -1205.5427   -4184.2841 
19645000    210.87272   -4906.2097   -4484.4382   -4906.2097            0    812.48235    18.280453    22.924024    19.557954    8195.9863    334.92538    846.74928    1255.7724   -861.37419   -42.894568   -599.07744   -4387.3221 
19646000    224.16883   -4935.2804   -4486.9151   -4935.2804            0    2107.1882    18.008747    23.244748    19.379326    8112.3563    2953.6587    1283.0375    2084.8685   -950.12514    103.02869    294.56118   -4237.6128 
19647000     203.1545   -4917.4333   -4511.0992   -4917.4333            0    1634.5545    18.171234    22.900681    19.572662    8144.8428    2296.8562    1594.4301    1012.3773   -45.441429    253.20153    550.43338     -4316.94 
19648000    212.49863   -4912.3792   -4487.3557   -4912.3792            0    2198.7144    18.315653    22.665738    19.581492    8129.0172    1738.0803    3254.5081    1603.5548    767.29946  -0.79788511    546.21876   -4226.6907 
19649000    214.62006   -4881.6443   -4452.3777   -4881.6443            0    1094.5088    18.246628     22.83768    19.597573    8166.5173   -125.79845    2000.2604    1409.0644    473.68453   -11.896123    -1116.424   -4322.0214 
19650000    223.03574   -4938.6312   -4492.5322   -4938.6312            0    2184.0929    18.046907    23.325552    19.272216    8112.7177    2305.2016    784.63804    3462.4392    871.93448    363.91405    661.08472   -4234.1198 
19651000    216.55397   -4867.1047     -4433.97   -4867.1047            0    1691.2989    18.207946    23.232579    19.314668    8170.4432    469.66458    851.59583    3752.6364    901.90901    36.078636    721.29222    -4232.439 
19652000    221.63833   -4912.2263   -4468.9223   -4912.2263            0     1715.507    18.314912    22.700418    19.497057    8106.0217     -888.648     3258.987     2776.182   -153.75842   -264.88425     -527.452   -4266.1185 
19653000    230.15666   -4925.6387   -4465.2969   -4925.6387            0    1686.6841     18.21024    22.800906    19.617464    8145.3666    1961.4548    1853.8048    1244.7927    568.73832    177.38414    37.220115   -4264.9327 
19654000    217.61804   -4915.5268   -4480.2639   -4915.5268            0    2843.2648    18.090418    23.170273    19.310931    8094.3688    3414.7162    2700.7504    2414.3277    -150.6631    -593.7389   -713.94766   -4144.6219 
19655000    213.90766   -4918.1879   -4490.3461   -4918.1879            0    2365.2838    18.107526    23.280914    19.279973    8127.6606    2994.7693    1243.2482    2857.8339   -694.64712   -647.59756    -210.0706   -4209.9805 
19656000    215.87397   -4935.9508   -4504.1762   -4935.9508            0    2145.2435    18.162637     22.88618    19.500221    8105.7224    3392.0391    1929.1136    1114.5779    840.39187   -1325.7158   -218.35955   -4250.5792 
19657000    219.31647   -4922.2903   -4483.6302   -4922.2903            0    3144.5209    18.276004    22.468147    19.748472    8109.2744    4179.4406    3918.1413    1335.9809    424.42245    1207.3232   -901.65654    -4111.742 
19658000    216.69444    -4935.879   -4502.4633    -4935.879            0    2463.8913    18.219215     22.98025    19.332916    8094.3461    4169.3443    1300.8685    1921.4613   -1392.8733    -206.6056   -608.28308   -4211.6065 
19659000    212.98858   -4922.8071   -4496.8036   -4922.8071            0    1854.0751     18.15668    23.159414    19.329535    8128.0325    1149.4212    2078.5166    2334.2876    880.00837    451.31756    487.56409   -4277.0234 
19660000    217.73764   -4909.4459   -4473.9437   -4909.4459            0    1807.6221    18.113394    23.067548    19.551852    8169.3813    2925.9812    1280.4027    1216.4823   -956.19247    23.549273   -977.03813   -4258.5799 
19661000    212.74916   -4928.6462   -4503.1216   -4928.6462            0    974.59393    18.384641    22.897363    19.451651    8188.3629    54.687233    1060.2036     1808.891   -219.31442   -45.518572   -391.34409   -4386.7367 
19662000    222.54434   -4930.0373   -4484.9211   -4930.0373            0    74.078363    18.240554    22.923431    19.587461    8190.2242   -266.57916    681.40304   -192.58879    -67.03209   -99.955824    843.53126   -4476.0727 
19663000    222.18989   -4926.2408   -4481.8336   -4926.2408            0    3258.7388    18.041982    23.033914    19.466298    8089.7544    4447.6291    2898.9369    2429.6505   -456.95895    545.44396   -900.29517   -4097.3651 
19664000    213.98831   -4917.0753   -4489.0722   -4917.0753            0    1936.4211    18.190741    23.221166    19.292579    8149.3823    759.03505    2161.4469    2888.7813    303.11955    118.88154   -1081.6781   -4258.9278 
19665000     217.4733   -4921.6795   -4486.7061   -4921.6795            0      2427.58    18.177085      22.8723    19.554913    8129.9891    2612.7501    3625.8756    1044.1145   -1534.6788    788.11404   -403.18834   -4198.8738 
19666000    224.72224   -4892.3714   -4442.8992   -4892.3714            0    2930.3215    18.243578    22.747586    19.548212    8112.4563    1926.2567    3866.3501    2998.3577    1087.7414   -743.97662    542.66321   -4096.2074 
19667000    216.38185   -4916.6134    -4483.823   -4916.6134            0    2586.8259    18.194484    22.824267    19.527184    8109.1666    2999.0784    2851.2444    1910.1548   -720.09038   -349.39448    488.91634   -4177.8949 
19668000    218.16776   -4895.5804    -4459.218   -4895.5804            0    1245.7758    18.163001    22.984134    19.584037    8175.5691    1025.5177    1874.3889    837.42076      966.258    -224.7515   -582.21896   -4310.6813 
19669000    231.38066   -4903.5949    -4440.805   -4903.5949            0    2668.5078    18.062624    23.108276    19.404052    8099.1753    2328.4691    2997.5187    2679.5357   -732.76838    188.01637    2152.9406   -4125.6057 
19670000    220.76518   -4907.4756   -4465.9179   -4907.4756            0    2603.9663    18.213026    23.078328     19.38584    8148.3763    1698.3566    2835.1292    3278.4131   -1171.0992    424.45783   -1255.1638   -4156.4738 
19671000    225.45167   -4918.6511   -4467.7199   -4918.6511            0    1629.5523    18.143316    22.935907    19.520055    8122.9473    2161.0278    1493.3329    1234.2962    159.24827   -401.94717   -329.68134   -4274.6753 
19672000    215.31709   -4920.5448    -4489.884   -4920.5448            0    3396.7826    18.242623    22.900614    19.405515    8106.9889     2781.448     4193.311    3215.5888   -669.79704    1434.1538    1632.6566   -4088.2752 
19673000    203.11079   -4907.7702   -4501.5236   -4907.7702            0    2370.7632    18.261976    22.710904    19.591891    8125.6577    2381.1347    3121.1899    1609.9651   -1059.2646    345.02052    -3013.523   -4220.5777 
19674000    220.74126   -4927.2184   -4485.7086   -4927.2184            0    2355.6405    18.181756    23.026918    19.392098    8118.8858    2575.4605     1344.205    3147.2561    1303.8657      -265.88    1167.8892   -4206.7875 
19675000    210.50287   -4912.9628   -4491.9311   -4912.9628            0     1289.007    18.112242     23.30736    19.313223     8153.049    806.98046    882.81772    2177.2229    -1311.744   -460.46412   -891.14919   -4338.6632 
19676000    215.47486   -4926.1547   -4495.1783   -4926.1547            0    2042.5363    17.986242    23.048144    19.560325    8108.7229      4063.64    400.29837    1663.6705   -1085.5018   -990.80825    732.38846   -4253.6333 
19677000    217.33612   -4894.3319   -4459.6328   -4894.3319            0    2990.2049      18.3099    22.628557    19.601255    8121.3218    1655.8341    4681.1817     2633.599    969.94014    257.97908     945.1762   -4105.4695 
19678000    212.59379   -4894.3802   -4469.1663   -4894.3802            0    2306.9307    18.321825    22.816553    19.462837    8136.2617    5308.0767    1147.8155    464.89981   -1274.2229   -1123.7908    356.79463   -4195.4282 
19679000    226.82758   -4914.8644   -4461.1812   -4914.8644            0     3145.639    18.101011    23.016636    19.442591    8100.2575    3079.8508    3319.7305    3037.3358   -140.04894    916.24149    220.34813   -4089.5744 
19680000    222.37237   -4911.2535   -4466.4813   -4911.2535            0    3357.9536    17.953411    23.040326    19.561457    8091.6448    3246.7909    4409.0116    2418.0584    1435.2376    882.52775    1195.8613   -4070.2147 
19681000    213.04184    -4921.241    -4495.131    -4921.241            0    2314.4452    18.240277    22.871302    19.487813    8129.9038    1938.0627    1997.4377    3007.8352   -937.85488   -145.43882    27.181126   -4220.7157 
19682000    220.54006   -4910.5763    -4469.469   -4910.5763            0    1540.0044    18.346148    22.776266     19.56337     8174.686    2003.3127    1536.4003    1080.3002    150.08142   -446.81527   -183.63968   -4285.8706 
19683000    211.05985   -4921.8024   -4499.6566   -4921.8024            0    1964.8594    18.174963    23.190716    19.330518    8147.6279    1912.7527    1208.6793    2773.1463    703.27205    288.99152    935.97569   -4266.1826 
19684000    219.69584   -4943.6543   -4504.2355   -4943.6543            0    1933.0201    18.021552    23.244448    19.451875    8148.4104    3427.1831    845.30796    1526.5691      415.859    992.86857    -893.6874   -4274.5227 
19685000    214.98613   -4886.1544   -4456.1555   -4886.1544            0    3671.6567    18.148898    22.784091    19.600195    8104.8009     4289.133    2774.5528    3951.2844    1696.7569   -69.768781     1368.001    -4022.165 
19686000    232.45212   -4932.5572   -4467.6243   -4932.5572            0    2109.5492    18.279257     22.77856    19.530637    8132.0718    2675.4424    1956.9129    1696.2924    43.757747   -127.86302   -175.16099   -4217.4361 
19687000    213.07193   -4917.1923   -4491.0221   -4917.1923            0     1554.161    18.314516    22.943655    19.380561    8143.7494    1697.4918    1670.2498    1294.7414    -121.3922   -1516.0295   -1197.7217   -4306.4371 
19688000    222.56177   -4902.8782   -4457.7272   -4902.8782            0    2624.6215    17.998032    22.902475    19.650799     8100.049    4419.0542    2981.5559    473.25446    1865.6245   -22.020455   -79.324727   -4147.6782 
19689000    209.16638   -4925.3334   -4506.9748   -4925.3334            0    338.42524    18.100142    22.919756    19.678983    8163.8422   -91.038665    580.65981    525.65456   -976.72962   -319.80905   -2546.8756   -4466.6814 
19690000    229.97285   -4892.4457   -4432.4716   -4892.4457            0    4347.6157     18.12298    22.682275    19.598203    8056.2415    5234.7787    5627.6127    2180.4556   -895.37679    1080.1099   -1691.2487   -3921.6615 
19691000     227.2032   -4923.1839   -4468.7494   -4923.1839            0    1977.6982    18.292487    22.733357    19.504873    8111.0944     2230.131    1929.1881    1773.7754    715.13349   -1520.2762    739.45661   -4234.8035 
19692000    216.14741   -4902.1602   -4469.8386   -4902.1602            0     885.2176    18.230868     23.00788    19.559249    8204.1982    885.61281    881.29545    888.74454    624.24258   -619.38394   -1295.3993   -4363.9225 
19693000    220.20456    -4925.475   -4485.0387    -4925.475            0    1629.3375    17.979142    23.214918      19.4288    8109.2762    2930.3117    1183.8747    773.82613    381.54678   -334.22378    244.33606   -4292.3443 
19694000    216.48054   -4909.0952   -4476.1074   -4909.0952            0    1680.0588    18.277585    22.915362    19.491403    8163.7303    3090.9054    1231.8593    717.41186   -99.591967    595.52124    544.66943   -4276.0802 
19695000    219.43521   -4914.2262   -4475.3286   -4914.2262            0    2210.2301    18.443659    22.658867    19.527824    8160.9203    738.90801    2651.5149    3240.2675   -237.46431    966.23267   -884.07848     -4212.27 
19696000    216.61151   -4924.3036   -4491.0539   -4924.3036            0    1378.4529    18.160178    22.905919    19.612261    8158.2212    647.21039    2013.0975    1475.0508   -734.69159   -535.13471    686.65433   -4327.0465 
19697000     225.8249   -4930.0756   -4478.3979   -4930.0756            0    1888.2343    18.025154    23.385117    19.316963    8142.4932    1415.5652    1398.8218     2850.316   -478.41223   -157.37027    672.64042   -4254.1702 
19698000    212.43879   -4900.3344   -4475.4306   -4900.3344            0    1876.8711    18.110215    23.067209    19.489804    8141.9067    1490.6499    1657.9392    2482.0241    254.10436   -1680.5411   -968.12452   -4252.5684 
19699000    214.26236   -4890.7505   -4462.1993   -4890.7505            0    2772.3699    18.303324    22.802318    19.534623    8152.9355    2553.3548    2135.8606    3627.8944    689.27761   -368.95536   -646.62136   -4132.5584 
19700000    216.40418   -4913.7185   -4480.8834   -4913.7185            0    3643.1895    18.216802    22.744047    19.468519    8066.2705    4587.1521    3129.0195    3213.3969    652.55149     111.7149    1661.8181   -4052.3048 
19701000    217.49804   -4906.0241   -4471.0012   -4906.0241            0    1711.0154    18.215034    22.976568    19.510113    8165.3526    3257.3349    1071.2888    804.42251   -2527.8515   -362.29185   -1783.8367   -4267.2478 
19702000    216.04579   -4909.6047   -4477.4864   -4909.6047            0    1687.6998    18.067748    23.026861    19.589417    8150.0501    1944.2107    2011.7378    1107.1509    565.08577   -76.016846    813.18723   -4276.8862 
19703000     212.4568   -4930.1495   -4505.2097   -4930.1495            0    1168.9056    18.309584    22.935783      19.3779    8137.6458    -65.50034    826.09032    2746.1269    105.35969   -800.20083    -127.1326   -4366.4849 
19704000    212.16592     -4929.78   -4505.4219     -4929.78            0    1934.2798    18.082918    22.989949    19.538298     8122.566    1710.3451    1546.8799    2545.6143   -1100.8647    527.36202    1052.5526   -4276.2885 
19705000    218.52553   -4939.5519   -4502.4738   -4939.5519            0    2464.1146     18.11067    23.064041    19.491743    8141.8026    2250.3522    2413.2329    2728.7586   -1429.8322    950.93859     1108.575   -4209.8853 
19706000     212.1829   -4919.5502   -4495.1582   -4919.5502            0    3307.2748    18.127624     23.02351    19.412447    8102.0084    4099.5982    2051.9732    3770.2531   -866.69889    106.62183   -2509.0499   -4104.3723 
19707000    220.99775   -4918.6624   -4476.6396   -4918.6624            0    2994.2628    18.008723    22.852114    19.697206    8106.1369    3628.7334    3926.7189    1427.3363   -1046.1802    962.68457   -2300.3553   -4122.6588 
19708000    226.03121   -4916.3389   -4464.2486   -4916.3389            0    1076.8907    18.328001    22.678041    19.655256    8169.5725   -1126.0555    2755.1755    1601.5522    589.47507    769.84772    586.12807   -4335.9426 
19709000    219.83172   -4914.5174   -4474.8268   -4914.5174            0    874.60627    18.263694    22.973029    19.468463    8168.4289    949.80143    581.48433     1092.533    -774.7555   -308.49939   -167.05913   -4370.6366 
19710000     221.6836   -4908.7161   -4465.3215   -4908.7161            0    2297.3441    18.123946    23.236367    19.214658    8091.9583    2323.2518     846.1291    3722.6515   -15.393124   -572.09309   -216.65743   -4194.2053 
19711000    224.26124   -4921.6258   -4473.0757   -4921.6258            0    2496.2881    18.302529    22.835691    19.449264    8128.8374    1730.0273    2267.4748    3491.3622    856.72665    12.204263    1026.0246   -4177.1388 
19712000    217.96702   -4915.0711   -4479.1101   -4915.0711            0    2676.2508    18.256601    22.739972    19.594284    8134.6572    3468.1566     2177.009    2383.5867   -1421.2867   -26.577266   -163.69544   -4161.6114 
19713000     218.4773   -4918.9535   -4481.9719   -4918.9535            0    2519.7766    18.115733    23.025736    19.462411    8118.3183    3289.4163     1588.877    2681.0365   -230.48523    -360.3722    911.07732    -4183.637 
19714000    210.87839    -4902.194   -4480.4112    -4902.194            0    2413.1977    18.066983    23.154011    19.444068    8133.9032    2863.4219    1522.3004    2853.8708    384.29796   -133.34394   -684.73077   -4194.1465 
19715000    219.77967   -4959.9891   -4520.4026   -4959.9891            0    1464.3051     18.14332    23.037028    19.423844    8118.5482    1136.1116    1078.2577    2178.5461   -741.79803   -420.76734    481.03235   -4347.0279 
19716000    227.07001    -4932.297   -4478.1289    -4932.297            0     2787.129    18.251507    22.755659    19.503644    8100.3523    3364.0771    3351.1547    1646.1551    1397.6365    -218.0599    566.11293   -4148.8705 
19717000     210.0078   -4928.6196   -4508.5781   -4928.6196            0    2766.3895    18.183903    22.843421    19.477101    8090.4477    1000.9193    3600.9157    3697.3336    338.65942    331.05862   -1413.8672   -4182.1693 
19718000    219.01154   -4897.7557   -4459.7056   -4897.7557            0    3233.1524    18.137194    22.983209    19.455342    8109.9776    2607.5177    2980.9077    4111.0319    1086.0619   -151.18581    969.60956   -4077.3022 
19719000    222.47688   -4930.0014   -4485.0201   -4930.0014            0    2349.1358    18.169875    22.989708    19.517853    8152.9998    2224.7168    2116.3776    2706.3131   -2.1159934   -146.73628    -889.3766   -4205.7005 
19720000    218.02034   -4948.2888   -4512.2212   -4948.2888            0      512.834    18.240498    23.135626     19.34199    8162.4229    406.60352   -449.04512    1580.9436    80.984864    221.84727   -178.94321   -4451.1731 
19721000    213.68652   -4915.1454    -4487.746   -4915.1454            0    3208.4694      18.2143    22.835345    19.478224    8101.5742     3347.464    3337.3591    2940.5853   -799.30755    267.35362    262.11435   -4108.6552 
19722000    209.73477   -4929.6226   -4510.1272   -4929.6226            0      2346.79    18.264381    22.666017    19.684527    8149.0155    4322.0763    3755.3512   -1037.0575   -725.01735    1590.2319   -227.58813   -4231.2228 
19723000    213.02172   -4931.9802   -4505.9104   -4931.9802            0    1473.5555    18.013807    22.976016    19.595132    8110.1414    1792.4894    1755.1206    873.05647    508.67109    77.239303    255.90045   -4331.6211 
19724000    214.10579   -4908.8846   -4480.6465   -4908.8846            0    833.82604    18.246576    23.166167    19.360735    8183.8451   -1010.4681    1650.1834    1861.7629    1312.4296    347.23787    877.59861   -4381.1269 
19725000    215.18076    -4929.608   -4499.2199    -4929.608            0     2599.276     18.25558    23.074915    19.257618    8112.1933    1991.3981    2454.6493    3351.7805    1526.4345    53.650534    1295.4815   -4191.7047 
19726000    218.16657   -4917.2836   -4480.9235   -4917.2836            0    2607.0831    18.203069    22.726859    19.582098    8101.0861     2953.955    3131.9944       1735.3   -616.62657     1191.918    1046.2339   -4172.9069 
19727000    236.53606    -4895.827   -4422.7257    -4895.827            0    3348.6488    18.222482    22.915773    19.441406    8118.3859     3637.131    3588.4556    2820.3598   -1111.1569   -509.24425   -622.75834   -4026.2512 
19728000    215.16515   -4886.2166   -4455.8597   -4886.2166            0    2588.4442    18.240542     23.02027    19.395694    8144.2947    3627.1429    1258.9714    2879.2182    295.51706   -1050.3245   -117.92352   -4148.4142 
19729000    220.75756   -4908.1389   -4466.5965   -4908.1389            0    2177.9274    18.189193    23.121543    19.398134    8158.1223    2160.0684    1770.7011    2603.0127    797.96996   -61.695925    299.18146   -4207.4714 
19730000    229.47005   -4899.1375    -4440.169   -4899.1375            0    1601.4726    18.102233    23.015275    19.596234    8164.3373    1444.3854    1555.7235     1804.309   -175.46654   -769.24498   -809.41236   -4249.4841 
19731000    224.48556   -4904.5539    -4455.555   -4904.5539            0    4527.4965    18.066928     22.94077    19.388402    8035.8964     3342.403    4843.1021    5396.9845    761.89319   -444.78205    1709.2362   -3924.9537 
19732000    214.13026   -4903.3686   -4475.0817   -4903.3686            0    1716.0748    18.268096    22.804395    19.523225    8133.2365    1196.3281    2635.4183    1316.4779    179.33638    209.25895    35.482342   -4271.5296 
19733000    210.91433   -4919.0193   -4497.1646   -4919.0193            0    1151.0434    18.323664     22.84904    19.545537    8183.2888    998.52902    1397.3315    1057.2696   -1046.1252    201.52263    667.33605   -4359.7935 
19734000    227.50728   -4911.0785   -4456.0358   -4911.0785            0    2982.1707    18.081091    22.976607    19.517485    8108.3857    2227.4133    3936.1126    2782.9862    1643.5456    709.44043    116.86382   -4103.3867 
19735000    215.80042   -4931.8008   -4500.1733   -4931.8008            0    2795.5178    18.071115     23.10274    19.376543     8089.557    2370.7427    2967.9651    3047.8456   -796.97957    781.69328   -876.91711    -4170.364 
19736000     217.0011   -4925.8554   -4491.8264   -4925.8554            0    1172.1017    18.131605    23.180576    19.467076    8182.0326    356.67101    1013.1573    2146.4769     702.5168    807.16995    5.7096084   -4351.9635 
19737000    207.51751   -4908.6842   -4493.6236   -4908.6842            0    2843.3608    18.168427    23.007187    19.492799    8148.0755    3199.9036    2662.8125    2667.3664    352.97652    561.82099   -513.36916   -4155.7432 
19738000    216.32139   -4892.7982   -4460.1287   -4892.7982            0    3559.3065    18.143682    22.827551    19.546629     8095.741    4386.4063    3040.4418    3251.0714    197.38232   -426.74121   -701.18343   -4039.8882 
19739000    218.10323   -4913.9213   -4477.6879   -4913.9213            0    2170.9078    18.251615    23.118113    19.242501    8119.2368    2629.2841    1303.3091    2580.1302    1286.2853    -1001.214    612.51561   -4220.6291 
19740000    223.39738   -4911.5526   -4464.7303   -4911.5526            0    1958.9381    18.061587    23.189937    19.497024    8166.2708    1270.7963    2329.7272    2276.2907   -1936.9387    834.34607   -1505.4648   -4231.4273 
19741000    202.86838   -4906.4055   -4500.6437   -4906.4055            0    3162.7923    18.038132    22.922133     19.62669    8115.0958    4632.4165     2766.817    2089.1433    1266.3141    -287.6479   -672.38324   -4126.3261 
19742000    211.54974   -4908.8201   -4485.6944   -4908.8201            0    2376.6686    18.189512    22.826175    19.516944    8103.3764    1510.1931    3135.5102    2484.3027   -1584.9914    476.93663     444.9618   -4204.8211 
19743000    223.35527   -4896.7416   -4450.0035   -4896.7416            0    722.37228    18.326576    23.010849    19.371758    8169.2656    -323.6292    551.12612    1939.6199   -889.31545   -1126.4733    994.12885   -4363.9398 
19744000    215.68817   -4891.9482   -4460.5452   -4891.9482            0    1347.5069    17.997388    23.202669    19.476543    8133.1599    3547.1889   -421.84989    917.18182   -974.42388    -656.1169   -1192.5739   -4300.7123 
19745000    227.82221   -4901.7636    -4446.091   -4901.7636            0    1746.4635    18.028597    22.917537     19.76335    8165.6441    1521.9953    2780.3773    937.01803   -596.32032    465.05842   -1177.2102    -4238.109 
19746000    214.21872   -4912.7236   -4484.2597   -4912.7236            0     2127.435    18.273532    22.832353    19.423935    8104.2044    1840.2829     2798.107     1743.915   -1581.4674    818.56932    -1695.401   -4232.8149 
19747000    213.21312   -4916.7988   -4490.3462   -4916.7988            0    1478.1722    18.267302    23.065516    19.424905    8184.5814   -213.78802     1353.989    3294.3155    385.95781    37.277205     305.3529    -4313.906 
19748000    227.29064   -4913.0118   -4458.4024   -4913.0118            0    4027.2356    18.020526    22.964909    19.567542    8097.8269    5588.4605    3121.4211    3371.8252   -33.660244   -231.25929    1684.8973   -3982.7919 
19749000    206.17189   -4899.2007   -4486.8314   -4899.2007            0    2083.8576    18.262342     22.93424    19.438312    8141.4055     2467.037    1297.4581    2487.0778   -84.081791    369.74116    -595.5784   -4239.4066 
19750000    232.99014   -4911.1867   -4445.1777   -4911.1867            0    3263.1263    18.336184    22.897501    19.221622    8070.2513    2155.1145    4134.6692     3499.595    1376.0852    772.63047   -95.041882   -4061.1197 
Loop time of 534.062 on 64 procs for 250000 steps with 1008 atoms

Performance: 80.889 ns/day, 0.297 hours/ns, 468.110 timesteps/s
99.2% CPU use with 64 MPI tasks x 1 OpenMP threads

MPI task timing breakdown:
Section |  min time  |  avg time  |  max time  |%varavg| %total
---------------------------------------------------------------
Pair    | 26.726     | 30.929     | 34.761     |  31.1 |  5.79
Bond    | 0.28533    | 0.29182    | 0.30987    |   0.8 |  0.05
Kspace  | 252.58     | 265.19     | 275.65     |  33.2 | 49.66
Neigh   | 2.9685     | 3.4958     | 3.9923     |  15.2 |  0.65
Comm    | 99.173     | 108.92     | 120.16     |  53.8 | 20.39
Output  | 1.6719     | 1.6734     | 1.6885     |   0.2 |  0.31
Modify  | 110.37     | 115.35     | 120.65     |  24.1 | 21.60
Other   |            | 8.208      |            |       |  1.54

Nlocal:        15.7500 ave          20 max          11 min
Histogram: 1 3 1 11 9 19 9 8 2 1
Nghost:        2493.02 ave        2512 max        2467 min
Histogram: 1 0 4 7 10 12 12 9 5 4
Neighs:        5194.61 ave        6573 max        3650 min
Histogram: 2 2 1 11 9 19 8 9 2 1

Total # of neighbors = 332455
Ave neighs/atom = 329.81647
Ave special neighs/atom = 2.0000000
Neighbor list builds = 6985
Dangerous builds = 0

unfix		3
unfix		2
unfix		1

write_data	data.final.${pid}
write_data	data.final.0
System init for write_data ...
PPPM initialization ...
  extracting TIP4P info from pair style
  using 12-bit tables for long-range coulomb (../kspace.cpp:340)
  G vector (1/distance) = 0.37932854
  grid = 24 27 36
  stencil order = 5
  estimated absolute RMS force accuracy = 0.002419741
  estimated relative force accuracy = 7.2869782e-06
  using double precision FFTW3
  3d grid and FFT values/proc = 4050 480
Last active /omp style is kspace_style pppm/tip4p/omp
WARNING: Not all mixed pair coeffs generated from mixing. Use write_data with 'pair ij' option to store all pair coeffs. (../write_data.cpp:312)

write_restart   restart.lmp.${pid}
write_restart   restart.lmp.0
System init for write_restart ...
PPPM initialization ...
  extracting TIP4P info from pair style
  using 12-bit tables for long-range coulomb (../kspace.cpp:340)
  G vector (1/distance) = 0.37932854
  grid = 24 27 36
  stencil order = 5
  estimated absolute RMS force accuracy = 0.002419741
  estimated relative force accuracy = 7.2869782e-06
  using double precision FFTW3
  3d grid and FFT values/proc = 4050 480
Last active /omp style is kspace_style pppm/tip4p/omp
Total wall time: 0:08:54
