#include		in.partitions
include		in.temp
variable        temperature equal 120.10
variable	tempDamp equal 100.0
include		in.pressure
variable        pressure equal 2055.6
variable        pressureDamp equal 1000.0 # This is 1 ps
include		in.seed
variable        seed equal 745823

units		real
atom_style	full
box tilt large
read_restart	restart.lmp.${pid}
read_restart	restart.lmp.0
Reading restart file ...
  restart file = 30 Jul 2021, LAMMPS = 30 Jul 2021
  restoring atom style full from restart
  triclinic box = (-10.603657 -9.2068900 0.053750617) to (12.583657 12.196888 21.806248) with tilt (-9.1730791 1.8459495 2.9123355)
  2 by 2 by 4 MPI processor grid
  restoring pair style lj/cut/tip4p/long/omp from restart
  restoring bond style harmonic/omp from restart
  restoring angle style harmonic/omp from restart
  1296 atoms
  864 bonds
  432 angles
Finding 1-2 1-3 1-4 neighbors ...
  special bond factors lj:    0        0        0       
  special bond factors coul:  0        0        0       
     2 = max # of 1-2 neighbors
     1 = max # of 1-3 neighbors
     1 = max # of 1-4 neighbors
     2 = max # of special neighbors
  special bonds CPU = 0.001 seconds
  read_restart CPU = 0.005 seconds
include 	in.setup
variable	out_freq equal 1000
variable	out_freq2 equal 10000
variable	out_freq3 equal 1000

timestep	2.0

neigh_modify    delay 7 every 1

include		in.tip4p
# This is TIP4P/Ice

# create groups ###
group ox type 2
432 atoms in group ox
group hy type 1
864 atoms in group hy

# set charges - beside manually ###
set group ox charge -1.1794
Setting atom values ...
  432 settings made for charge
set group hy charge 0.5897
Setting atom values ...
  864 settings made for charge

# ### TIP3P Potential Parameters ###
pair_style lj/cut/tip4p/long/omp 2 1 1 1 0.1577 8.5
pair_coeff 1 1*2 0.000 0.000
pair_coeff 2 2 0.21084 3.1668
bond_style  harmonic
bond_coeff  1 450 0.9572
angle_style harmonic
angle_coeff 1 55 104.52
kspace_style pppm/tip4p/omp 1.0e-5
pair_modify tail yes

thermo          ${out_freq}
thermo          1000
thermo_style    custom step temp pe etotal epair emol press lx ly lz vol pxx pyy pzz pxy pxz pyz enthalpy

restart 	${out_freq3} restart.lmp.${pid} restart2.lmp.${pid}
restart 	1000 restart.lmp.${pid} restart2.lmp.${pid}
restart 	1000 restart.lmp.0 restart2.lmp.${pid}
restart 	1000 restart.lmp.0 restart2.lmp.0


include         in.dump
dump            myDump all atom ${out_freq2} dump.water.${pid}
dump            myDump all atom 10000 dump.water.${pid}
dump            myDump all atom 10000 dump.water.0
dump            myDump2 all dcd ${out_freq2} dump.dcd
dump            myDump2 all dcd 10000 dump.dcd
dump_modify     myDump append yes
dump_modify     myDump2 append yes


variable natoms 	equal  "count(all)"                        # NUMBER ATOMS
variable H      	equal  "enthalpy/v_natoms"                 # ENTHALPY-per-atom
variable Vol      	equal  "vol/v_natoms"                 # volume-per-atom
fix AVG all 		ave/time ${out_freq} 1 ${out_freq} v_Vol v_H file vol_enthalpy.dat
fix AVG all 		ave/time 1000 1 ${out_freq} v_Vol v_H file vol_enthalpy.dat
fix AVG all 		ave/time 1000 1 1000 v_Vol v_H file vol_enthalpy.dat


timer           timeout 10:00:00 every 1000
New timer settings: style=normal  mode=nosync  timeout=10:00:00

fix 		1 all shake 1e-6 200 0 b 1 a 1
       0 = # of size 2 clusters
       0 = # of size 3 clusters
       0 = # of size 4 clusters
     432 = # of frozen angles
  find clusters CPU = 0.000 seconds
fix             2 all nph tri ${pressure} ${pressure} ${pressureDamp}
fix             2 all nph tri 2055.6 ${pressure} ${pressureDamp}
fix             2 all nph tri 2055.6 2055.6 ${pressureDamp}
fix             2 all nph tri 2055.6 2055.6 1000
fix             3 all temp/csvr ${temperature} ${temperature} ${tempDamp} ${seed}
fix             3 all temp/csvr 120.1 ${temperature} ${tempDamp} ${seed}
fix             3 all temp/csvr 120.1 120.1 ${tempDamp} ${seed}
fix             3 all temp/csvr 120.1 120.1 100 ${seed}
fix             3 all temp/csvr 120.1 120.1 100 745823


run             250000
PPPM initialization ...
  extracting TIP4P info from pair style
  using 12-bit tables for long-range coulomb (../kspace.cpp:340)
  G vector (1/distance) = 0.36702459
  grid = 30 40 32
  stencil order = 5
  estimated absolute RMS force accuracy = 0.0046047611
  estimated relative force accuracy = 1.3867101e-05
  using double precision FFTW3
  3d grid and FFT values/proc = 11832 2400
Last active /omp style is kspace_style pppm/tip4p/omp
Neighbor list info ...
  update every 1 steps, delay 7 steps, check yes
  max neighbors/atom: 2000, page size: 100000
  master list distance cutoff = 10.8154
  ghost atom cutoff = 10.8154
  binsize = 5.4077, bins = 7 5 5
  1 neighbor lists, perpetual/occasional/extra = 1 0 0
  (1) pair lj/cut/tip4p/long/omp, perpetual
      attributes: half, newton on, omp
      pair build: half/bin/newton/tri/omp
      stencil: half/bin/3d/tri
      bin: standard
Per MPI rank memory allocation (min/avg/max) = 12.75 | 12.76 | 12.76 Mbytes
Step Temp PotEng TotEng E_pair E_mol Press Lx Ly Lz Volume Pxx Pyy Pzz Pxy Pxz Pyz Enthalpy 
24250000    127.54912   -6698.3593    -6370.247   -6698.3593            0    2653.8391    23.187314    21.403778    21.752498     10795.68    2986.9446    2462.4842    2512.0887    472.00003    362.73607   -803.58756   -5952.4162 
24251000    124.49083     -6713.76    -6393.515     -6713.76            0    2272.8835    23.276343    21.489611     21.53175    10770.172    1763.7639    2146.6631    2908.2235    1.4289912    566.37193    433.14351   -6036.5088 
24252000    121.89306   -6704.5756   -6391.0132   -6704.5756            0    2408.4807    23.136976    21.385263    21.814761    10793.733    2928.3055    1732.8458    2564.2909    437.97598   -485.57277   -25.797494   -6011.8809 
24253000    118.86634   -6702.0807   -6396.3043   -6702.0807            0    2125.1368    23.329629    21.408286    21.606322    10791.221    1673.5851    2381.4617    2320.3636    371.66759    493.70463   -305.94811   -6061.8526 
24254000    118.87494   -6716.3821   -6410.5836   -6716.3821            0     1284.036    23.232183    21.333103    21.883532    10845.797    1376.6058    1128.8318    1346.6705   -523.45449     341.6946    955.07861   -6207.4814 
24255000    118.18362   -6700.8557   -6396.8356   -6700.8557            0    1445.4591    23.340551    21.386564     21.67871    10821.453     1205.579    2262.6591    868.13914    376.12165    422.53772   -14.110254   -6168.7135 
24256000    123.02298   -6699.4025   -6382.9333   -6699.4025            0     2167.547    23.321285     21.36088    21.711234    10815.737    2267.9622    1943.1933    2291.4854   -677.49895   -373.57907   -1026.3044   -6041.0322 
24257000    115.18017   -6694.6034   -6398.3094   -6694.6034            0    2193.7894    23.341979    21.277394    21.713456    10784.129    1469.9465    3060.7788    2050.6429   -30.134181    486.48928     514.5907   -6053.2802 
24258000    121.29147   -6700.2144   -6388.1995   -6700.2144            0    2422.0122    23.298691    21.298093    21.700428    10768.136    1858.5566     2805.203    2602.2769    317.16795    318.76469    201.92957   -6007.8413 
24259000    124.47153   -6697.3904    -6377.195   -6697.3904            0    1916.9011    23.284935    21.384126    21.729606    10819.779    1815.7371    2682.3831     1252.583   -1183.9608    -210.7045   -730.68674   -6074.7168 
24260000    122.99608   -6701.9505   -6385.5506   -6701.9505            0    2328.1056    23.331479    21.486185    21.553831    10805.032    2168.2396    1533.4053    3282.6719    28.858527   -894.88735    260.35233    -6018.687 
24261000    117.48411   -6700.1534   -6397.9326   -6700.1534            0    1272.8772    23.192599    21.454585    21.815715    10855.229    1940.2175    1321.7917    556.62227    542.18611    384.61784   -185.73774   -6196.4204 
24262000    125.24853   -6695.9153    -6373.721   -6695.9153            0    2255.6348    23.253074    21.443035    21.646468    10793.286    1977.8128    2036.0962    2752.9953    342.75282    485.71256    1169.9134   -6018.6638 
24263000    122.21478   -6696.4924   -6382.1023   -6696.4924            0    1861.9708    23.176458    21.462895    21.782883    10835.544    2256.8409    2290.7266    1038.3448    17.712391    529.32928   -229.57618   -6087.8638 
24264000    117.74812   -6710.8887   -6407.9888   -6710.8887            0    2056.1582    23.205884    21.589703     21.55445    10798.955    2623.2024    1232.1246    2313.1474    713.75874   -616.81897   -53.510876    -6084.161 
24265000    120.05469    -6699.231   -6390.3976    -6699.231            0    1483.5603    23.181578    21.478123    21.724769    10816.693    1577.6007    2059.1749    813.90529   -450.38648     1055.318   -327.10982   -6156.3654 
24266000    119.65671   -6704.5294   -6396.7199   -6704.5294            0    2407.0258    23.243872    21.429749    21.661763    10789.949    2822.7155    1870.6032    2527.7586    -324.7776    316.62992     21.54463   -6017.9495 
24267000    121.00342   -6705.1649    -6393.891   -6705.1649            0    2031.6965    23.281786    21.358479    21.743898    10812.448    2061.0424    1937.6845    2096.3626   -506.21303    248.94063   -726.77486   -6073.5159 
24268000    115.86031   -6708.3498   -6410.3062   -6708.3498            0    1892.9846    23.396698    21.322309     21.67303     10812.06    1730.5678    1421.1743    2527.2117    273.95996   -692.20813    427.12988   -6111.8151 
24269000    119.63196   -6706.9356   -6399.1896   -6706.9356            0    1406.1833    23.299053    21.321967    21.789041    10824.396    1808.3379    2261.8477    148.36433   -141.23264   -625.08993   -242.78748   -6177.2057 
24270000    121.13241   -6712.5201   -6400.9144   -6712.5201            0    1883.0437    23.370681    21.347795     21.65644    10804.669    1741.0446    1826.3157    2081.7709   -900.73916   -485.50768    682.61848   -6104.1937 
24271000    119.42356   -6717.2405   -6410.0306   -6717.2405            0    1277.7171    23.307387    21.331062    21.790699    10833.711     948.4739    1855.1084    1029.5691    41.761777    -533.4241    -63.17385   -6208.1532 
24272000    126.75469     -6717.82   -6391.7513     -6717.82            0     3531.874    23.239663    21.332667    21.651004    10733.789    3276.0358    4281.3239    3038.2622   -102.75455     167.3539   -259.47028   -5838.8671 
24273000    118.65487   -6708.1771   -6402.9446   -6708.1771            0    1555.7172    23.272352    21.484345    21.697935    10848.777    2008.1441    1552.7394    1106.2681     236.2601   -186.23473    523.53381   -6156.8017 
24274000    126.62524   -6685.1843   -6359.4486   -6685.1843            0     2583.158    23.174138     21.41587    21.739433    10789.158    2463.7346     2749.018    2536.7215   -33.394081    517.21241    241.36936   -5952.9918 
24275000    124.23704   -6694.5119   -6374.9197   -6694.5119            0    1975.3796    23.287965    21.473901    21.605573    10804.589    2539.7258    1874.1599     1512.253   -226.86064    30.287936   -488.93219   -6063.6515 
24276000    122.60241    -6691.284   -6375.8968    -6691.284            0    2526.9759    23.186331    21.415042    21.725737    10787.616    2852.2739    2312.7648    2415.8889   -367.62909    299.51475    473.15975    -5978.337 
24277000    119.87392   -6689.9377   -6381.5693   -6689.9377            0    1631.9353    23.226073    21.503053    21.614757     10795.09    1361.6078    1234.1098    2300.0884    1191.5563   -86.424132   -439.19348   -6124.6451 
24278000    119.46674   -6715.5821   -6408.2611   -6715.5821            0    2943.6349    23.127128    21.450801    21.669376    10750.078    2786.2594    2768.9946    3275.6506   -110.39345    218.91971    232.65907   -5946.7614 
24279000    115.19964    -6700.822   -6404.4779    -6700.822            0    1696.2457    23.216162    21.465056    21.699759    10813.776    1752.9406    1492.0814     1843.715    771.81439   -582.58745    617.30244   -6136.9667 
24280000    119.94525   -6683.0812   -6374.5293   -6683.0812            0    2156.1973    23.179053    21.496511    21.704229     10814.54    3056.7957    2465.7007    946.09556   -337.66655    261.96011   -394.77153   -6034.4561 
24281000    124.06456   -6699.8585     -6380.71   -6699.8585            0    2293.1292    23.242327    21.439383    21.677343    10801.845    2099.4763    2047.7936    2732.1177    -21.49219   -160.38146    242.67927   -6019.4645 
24282000    123.35695   -6701.4648   -6384.1366   -6701.4648            0    841.56599    23.366617    21.373862    21.730904    10853.171     209.5637    1352.4185    962.71573    475.13437     122.4879    300.46991   -6250.9315 
24283000    121.65551   -6704.3677   -6391.4163   -6704.3677            0    2288.2188    23.294351    21.304659    21.809065    10823.363    2030.9442    2228.0143     2605.698    89.331634   -47.928413    4.7302413   -6030.2263 
24284000    120.09812   -6710.6943   -6401.7492   -6710.6943            0    1622.4974    23.419306    21.272599    21.683307    10802.396    415.87014     2546.557     1905.065     109.9961    648.37317   -293.99694    -6146.138 
24285000    114.63773   -6702.5507   -6407.6521   -6702.5507            0    2408.0283    23.404637    21.278076    21.695506    10804.485    2042.1422    3186.0515    1995.8914   -110.73708    50.840763     98.74809   -6028.2135 
24286000    120.82144   -6713.1116   -6402.3058   -6713.1116            0    2442.0941     23.35853    21.245831    21.741392    10789.631    1651.4441    3791.0469    1883.7913    57.897063    580.03241   -208.95297   -6018.0284 
24287000    123.82207   -6709.6617    -6391.137   -6709.6617            0    1959.5802    23.311734    21.350393    21.696224    10798.529    1709.7744    2039.5192    2129.4469   -183.91737   -335.61712    411.44385   -6082.5316 
24288000    118.25909      -6699.9   -6395.6857      -6699.9            0    835.43731    23.327214    21.430971    21.721778    10859.256    473.93864    819.75841    1212.6149   -203.27953    523.81095    296.83099   -6263.3766 
24289000    125.27456   -6713.9908   -6391.7296   -6713.9908            0    2227.0721    23.150177    21.474979    21.729551    10802.837    3095.2925    1601.7374    1984.1866    875.29353    172.28205    155.72759   -6040.8582 
24290000    119.52982   -6705.7409   -6398.2577   -6705.7409            0    1613.9113    23.133739    21.634485    21.589629    10805.319    2680.6828    260.90137    1900.1497    181.58502    37.868477   -517.68857   -6143.9303 
24291000    115.75279   -6701.3117   -6403.5447   -6701.3117            0    2743.9305    23.160908    21.480567    21.705817    10798.849    2259.7307    3040.8916    2931.1693   -307.54712    1400.9901   -406.14539   -5971.4028 
24292000    116.75312   -6693.8231   -6393.4828   -6693.8231            0    2370.9212    23.160465     21.48388    21.666577    10780.782    2122.1976    2376.6101    2613.9559   -124.21404    159.16398    -132.9024   -6020.7108 
24293000    123.55098   -6709.1174     -6391.29   -6709.1174            0    2204.1617    23.201495    21.433714    21.706907    10794.719    2653.4715    1582.5001    2376.5137    717.57761   -1484.5111    79.833668   -6044.2891 
24294000    124.17581   -6707.5961   -6388.1614   -6707.5961            0    1786.6836    23.377085    21.343272    21.667418    10810.817    1316.2811    1671.0721    2372.6978    203.24456   -147.06517   -374.26611   -6106.4645 
24295000    115.13794   -6722.1933   -6426.0079   -6722.1933            0    1655.7621    23.380313     21.28777    21.717646    10809.192    1132.5488    2455.3977    1379.3399    806.44838   -624.31668    75.635313    -6164.992 
24296000     120.0529   -6697.1027   -6388.2739   -6697.1027            0    1829.0873    23.450389    21.209185    21.764515    10824.878    243.30208    3534.8517    1709.1082   -356.46292    709.16703    -47.68855   -6099.5164 
24297000    114.87695   -6699.2653   -6403.7514   -6699.2653            0    2380.7851     23.41561    21.279663    21.667205    10796.255    1248.8518    2689.9384    3203.5651    385.91993   -252.29225    572.45132   -6028.8913 
24298000    118.48025   -6686.9425   -6382.1593   -6686.9425            0    2107.6136    23.263969    21.351936    21.774999    10816.312    2216.1321    1666.0502    2440.6587   -241.60025    330.07706    79.719284   -6049.6942 
24299000    121.03375   -6694.1338   -6382.7819   -6694.1338            0    2778.9268    23.264817    21.428551    21.613452    10774.983    3142.8552    3071.3335    2122.5916   -391.59908   -43.847986   -387.76398   -5946.0956 
24300000    120.72712   -6704.9613   -6394.3981   -6704.9613            0    1819.2474    23.104884    21.450385    21.876469    10842.167    2032.3742    2435.1786    990.18929   -533.97375   -63.615584   -699.86119   -6106.7353 
24301000    124.87689   -6701.0458   -6379.8076   -6701.0458            0    992.06889    23.323655    21.558466    21.598453    10860.182   -335.43749    289.92546    3021.7187    841.39326    325.98325    59.292298   -6222.6792 
24302000    117.56387   -6708.1363   -6405.7105   -6708.1363            0    1724.0549    23.202522    21.439216    21.726479    10807.704    1854.3559    1772.7574    1545.0513   -411.54245   -45.053782    50.273136   -6133.9662 
24303000    115.47427   -6697.5829   -6400.5324   -6697.5829            0    2946.2993    23.276917    21.459522    21.509847    10744.416    2981.0426    1941.8677    3915.9876   -333.89183    49.177215    359.39947   -5938.8582 
24304000    119.17674   -6690.3404   -6383.7655   -6690.3404            0    2803.3953    23.154923    21.431834    21.779091    10807.928    3032.9937     2676.865    2700.3272    75.802652    532.72609     620.0926   -5941.8872 
24305000     121.6174   -6702.1803   -6389.3269   -6702.1803            0    2207.9556    23.265687    21.458162    21.621893     10794.49     2419.226    1136.9773    3067.6634    -285.6106   -827.07125    346.47429   -6041.7361 
24306000    121.17073   -6688.5867   -6376.8824   -6688.5867            0     1812.149    23.250629    21.455013    21.676658    10813.239    1931.9487    1467.2968    2037.2016    239.92792    640.33316   -98.143082   -6091.1064 
24307000    117.92879   -6692.5185   -6389.1539   -6692.5185            0     2653.984    23.203429     21.36189    21.762329    10786.914    2058.2559    3901.2841    2002.4119    355.51479    411.61244    125.58926   -5971.6395 
24308000    121.13831    -6707.471   -6395.8501    -6707.471            0    2634.7186     23.30346    21.368492    21.633785    10772.755    1654.2459    3163.6743    3086.2356    102.51365    436.64546    433.11866   -5981.9106 
24309000    120.46849   -6702.2917   -6392.3938   -6702.2917            0    1878.6773     23.41436    21.283408    21.694546    10811.203    949.43553    2880.7444    1805.8518    83.988315   -83.811229   -908.79263   -6096.1822 
24310000    121.35639   -6724.3434   -6412.1615   -6724.3434            0     1827.406    23.354589    21.294011    21.724577    10803.912    1458.4089    2073.1645    1950.6445   -314.15681   -152.25079    657.94212   -6124.2281 
24311000    119.58576   -6702.3043   -6394.6772   -6702.3043            0    1560.9743    23.348003    21.348364    21.693977    10813.182    1570.7724    1328.4866    1783.6639   -388.55021    -444.3345    334.92578   -6148.5129 
24312000    122.09763   -6700.1033   -6386.0146   -6700.1033            0    1673.2723     23.32842    21.342409    21.759799    10833.871     2051.561    1708.8635    1259.3923   -310.81383     707.2686   -569.00245   -6121.6361 
24313000    126.00077   -6695.3161   -6371.1868   -6695.3161            0    2841.3501    23.253633    21.413074     21.62915    10769.841    3349.0511    2262.2851     2912.714    383.59824   -112.52644   -191.01122   -5924.9043 
24314000    123.02857   -6717.2542   -6400.7707   -6717.2542            0    1950.7155    23.244185    21.384868    21.715023    10793.969    2157.1846    2007.6323    1687.3296    103.68232    766.94192    133.16856   -6093.6911 
24315000    119.21095   -6724.5665   -6417.9036   -6724.5665            0    2651.1693    23.227258     21.48188    21.576916    10766.129    2576.8641    2954.4146    2422.2292    1117.5122    510.76195   -458.25852   -6001.6357 
24316000    121.97247   -6694.7229   -6380.9561   -6694.7229            0    1786.5058    23.159763    21.499775    21.740975    10825.477    2683.5652    1303.6988    1372.2533   -814.17244   -252.58201    112.72019   -6098.9053 
24317000    113.34139   -6707.0836   -6415.5198   -6707.0836            0     2629.049    23.211744    21.440722    21.638442    10768.945    3532.3312    2458.9825    1895.8332    576.15018   -781.85126   -94.827455   -6002.6171 
24318000    116.92266   -6707.0339   -6406.2575   -6707.0339            0    1523.6338    23.179904    21.452403    21.792548    10836.663    1883.1546    844.42835    1843.3186   -625.65816    548.74679    -395.5637   -6165.4599 
24319000    116.14924   -6715.0758   -6416.2889   -6715.0758            0    2973.9766    23.301071    21.415343    21.552051    10754.483    3202.7647    2208.9244    3510.2406   -482.90319   -110.07429   -468.54945   -5949.8412 
24320000    118.83778   -6707.1828   -6401.4799   -6707.1828            0    1641.3419    23.247105    21.281154    21.860883    10815.131    1746.2057    2016.6501    1161.1698     437.7412    36.985201   -324.19641    -6142.595 
24321000    124.80076   -6711.1209   -6390.0786   -6711.1209            0    2010.4922    23.317617    21.330715    21.711108    10798.702    1552.4299    2048.6531    2430.3937   -477.05861    1142.4239    787.47978   -6073.4502 
24322000    124.54409   -6689.0701    -6368.688   -6689.0701            0    2723.5683     23.33717    21.317532    21.692749    10791.944    1967.2111     2439.709    3763.7848    777.75381   -1016.1106   -130.57279   -5940.0271 
24323000    124.22373   -6725.7352   -6406.1772   -6725.7352            0    1615.7459    23.368367    21.319653    21.714853    10818.459    945.17733      2885.24    1016.8203   -591.43951    887.17802   -1198.4157   -6151.2511 
24324000    119.31093   -6702.4155   -6395.4954   -6702.4155            0     2113.834     23.37506    21.341869    21.656573     10803.76    1828.9604    2727.2163    1785.3252    78.005765    912.34114   -473.02843    -6062.436 
24325000    120.56717   -6706.1863   -6396.0347   -6706.1863            0    2405.1289    23.203627    21.387994    21.778856     10808.39    3215.8161     2237.767    1761.8038    -517.8032   -473.20641   -475.66673   -6016.9159 
24326000    124.36208   -6714.9036   -6394.9898   -6714.9036            0    1623.9971    23.331884    21.507564    21.547179    10812.632     1153.264     924.2313    2794.4958    179.72391    374.73372    98.443915   -6138.8998 
24327000    119.62458   -6712.0686   -6404.3416   -6712.0686            0    1934.4073    23.147545    21.474241    21.745425    10809.128    2530.5813    2076.7254    1195.9153    419.76634   -300.20163    415.75576   -6099.4016 
24328000    121.50572   -6688.0214   -6375.4553   -6688.0214            0    2313.4003     23.25413    21.477986    21.630624    10803.456    2711.9637    1254.7402    2973.4969    310.15047    62.489895      509.984   -6010.9622 
24329000    115.81264   -6705.0277   -6407.1067   -6705.0277            0    1640.4835    23.147884    21.407327    21.828673    10816.856    2526.0654    1397.0621    998.32293     -999.247    485.58213    12.598656   -6148.3159 
24330000     125.2078    -6699.545   -6377.4556    -6699.545            0    2843.4732    23.283082    21.375307    21.618921     10759.37    3628.9773     2001.165    2900.2772    310.10094   -571.30489    149.51033   -5931.2738 
24331000    118.46939   -6711.4846   -6406.7293   -6711.4846            0    2045.9328    23.278056    21.343789    21.763298    10812.919    1645.7054    2167.3912    2324.7019    629.57005     364.7231   -306.47602   -6084.0952 
24332000    118.43562   -6703.4177   -6398.7493   -6703.4177            0    2910.4592    23.440204    21.257518    21.568934     10747.38    2518.8465    3029.0589    3183.4722    482.04363   -353.67644   -208.20453   -5942.5653 
24333000    119.60628   -6704.4507   -6396.7708   -6704.4507            0    1607.8427    23.323157    21.290412    21.796399    10823.211    1231.9402    3286.9841    304.60375    244.70447    551.30477   -802.44601   -6142.9802 
24334000    123.77845   -6689.3327   -6370.9202   -6689.3327            0    1077.1498    23.391725    21.420276    21.672066    10858.945   -498.63219    1805.6971    1924.3846    464.86064    113.40803    193.80728   -6200.3357 
24335000    119.55112   -6706.7994   -6399.2614   -6706.7994            0    2682.7571    23.185649    21.431453    21.699207    10782.382    2676.0032    2697.8839    2674.3842   -129.39454   -676.16527   -461.48347   -5977.3979 
24336000    124.92163   -6724.1491   -6402.7958   -6724.1491            0    1847.6484    23.239045    21.380719    21.731551    10797.701    1728.9303    2187.0667    1626.9481    802.04943    35.878656    -217.6971   -6111.8404 
24337000     118.3517   -6713.3893   -6408.9368   -6713.3893            0    2730.1835    23.192052    21.391713    21.676476    10754.084    2952.4209    3221.9803    2016.1494    332.24462   -96.345941    391.98718   -5980.7422 
24338000    121.45994   -6702.4596   -6390.0113   -6702.4596            0    2159.0302    23.120801    21.527192    21.711644    10806.448    2617.9444    1817.7564    2041.3898   -347.13199   -749.64556   -512.38773   -6049.7461 
24339000    114.67132   -6714.7909   -6419.8059   -6714.7909            0    2675.5025    23.262563    21.446435    21.590403    10771.431     3642.208      1466.93    2917.3694     142.3855   -539.28598   -437.93593   -5999.5105 
24340000    121.42386   -6716.2901   -6403.9346   -6716.2901            0    1287.5731    23.214333    21.370992    21.854298    10842.208    1123.1253     2095.009    644.58491    16.284157    358.90311    37.610751   -6200.3404 
24341000    121.69355   -6721.7332   -6408.6839   -6721.7332            0    2435.5306    23.306045     21.37028    21.654418    10785.128    1401.0477     3163.452    2742.0922    1888.0999   -437.36115    302.37139   -6025.5992 
24342000    115.64264   -6692.4136     -6394.93   -6692.4136            0    1481.6934    23.260957    21.415381    21.759189    10839.171     2192.374      1360.27    892.43617   -174.80559   -600.00946   -468.62571   -6160.7065 
24343000    120.83992    -6704.945   -6394.0917    -6704.945            0    3018.2276    23.310765    21.374502    21.627418    10775.991    3297.3156    2721.5733    3035.7937   -30.315827   -786.74861    483.30607   -5919.7568 
24344000    119.38422   -6695.1447   -6388.0361   -6695.1447            0    2378.1223    23.279998    21.355528    21.675736    10776.236     2274.674    2491.6645    2368.0284    661.71732   -391.23621    146.11157   -6014.2895 
24345000    117.06049   -6720.5776   -6419.4466   -6720.5776            0    2110.6293    23.248234    21.350958    21.767505    10804.782     2455.597    2240.9562    1635.3347    55.459603   -909.74287   -297.53302   -6086.8607 
24346000    121.01192   -6692.0619   -6380.7662   -6692.0619            0    752.04185    23.409945    21.424566    21.652526    10859.779     619.8245   -229.11295     1865.414   -183.77201   -698.19674    172.92714   -6261.6587 
24347000    119.96398   -6705.0805   -6396.4805   -6705.0805            0    3009.6731      23.2542    21.292599    21.761451    10775.016    3287.3251    2829.4515    2912.2428    637.95925   -218.77079    670.17329   -5923.5328 
24348000     118.5477   -6721.5679   -6416.6112   -6721.5679            0    853.16192    23.309484    21.399032    21.731613    10839.737    539.79853     1048.552     971.1352    131.51894   -589.91663    499.53587   -6281.7379 
24349000    116.54484   -6691.7831   -6391.9785   -6691.7831            0    2065.2219    23.312176    21.342979    21.710733    10802.203    714.30339    3557.3258    1924.0366    284.63563    584.97397   -35.840135   -6066.6254 
24350000    117.84268   -6709.6459   -6406.5027   -6709.6459            0    2629.2644    23.277607    21.398309    21.624787    10771.337    2719.4198     2474.559    2693.8143   -907.05465   -458.08337   -235.06357   -5993.4745 
24351000    119.35303   -6718.3176   -6411.2893   -6718.3176            0    2417.2037    23.205166    21.383955    21.703926    10769.884    1906.4306    2162.5208    3182.6597   -152.98985    551.88693    836.60585   -6031.6246 
24352000    117.93409   -6699.3631   -6395.9848   -6699.3631            0    2348.4645    23.229473     21.39973    21.732788    10803.466    3002.8224    1791.6671    2250.9039  -0.66157505   -65.659703    -104.6373   -6025.9667 
24353000    119.50324   -6690.0703   -6382.6555   -6690.0703            0    1120.1451    23.256408    21.559322     21.64907    10854.679    367.74044    1310.3498     1682.345    392.92974   -459.16684   -378.48098   -6205.3316 
24354000    121.59497   -6702.6737   -6389.8781   -6702.6737            0    1866.4894    23.204535    21.523096    21.668279    10821.863    2122.2618     1050.114    2427.0922   -90.312417    1039.2976    436.80685   -6095.2979 
24355000    119.47608   -6692.5595   -6385.2145   -6692.5595            0    2131.0974    23.179707    21.471262    21.722242    10811.107    1717.0971    2068.5473    2607.6476    291.45631    503.06806    112.53605   -6049.2068 
24356000    115.47433   -6701.5896   -6404.5389   -6701.5896            0    2371.7437    23.209518    21.493679    21.618702    10784.661    2574.8444    1658.4358    2881.9508     212.5793   -128.44186   -78.346878   -6031.5035 
24357000    117.41617   -6701.0666   -6399.0207   -6701.0666            0    1837.0574     23.28972    21.434306     21.66646    10815.875    1711.9476    1808.6936    1990.5312   -120.48502   -29.888276   -531.27579   -6109.2461 
24358000     119.7309   -6709.4144    -6401.414   -6709.4144            0    2998.0774    23.243244    21.362393    21.674858    10762.245    3463.5642    2783.0895    2747.5786   -691.92022   -478.85511   -407.59207   -5930.8468 
24359000    117.07405   -6706.7024   -6405.5365   -6706.7024            0     2403.954    23.351925    21.299508    21.706598    10796.526    2624.9869    2366.2518    2220.6231    747.59613    364.60132    158.15221   -6027.0189 
24360000    117.85792   -6705.2984   -6402.1161   -6705.2984            0     1673.114    23.402549    21.200855    21.851907    10841.912    997.36577    2901.2028    1120.7735   -824.44626    107.65055   -817.31802   -6137.5664 
24361000    117.78981   -6697.6308   -6394.6237   -6697.6308            0    1576.4063    23.524654    21.314029    21.602032     10831.37   -52.791557    2102.1728    2679.8376   -251.98357   -136.83121    701.22502   -6145.6076 
24362000    119.43795   -6699.2722   -6392.0254   -6699.2722            0    1331.0995    23.306725    21.242213    21.924571    10854.558    1694.5442    1608.0189    690.73557   -2.3990665   -262.03497   -90.963049   -6181.3089 
24363000    119.31899   -6695.5204   -6388.5796   -6695.5204            0    3118.7993    23.349805    21.363767    21.557272    10753.625    3564.7781     2887.026    2904.5937    67.625542   -847.60226   -200.21567   -5899.4565 
24364000    123.32267   -6708.2289   -6390.9889   -6708.2289            0    1158.8392    23.215872    21.438792    21.789797    10845.223    1967.9272    1139.4181    369.17219   -535.71413    91.080668   -639.57542   -6207.6994 
24365000    125.06376   -6708.7118   -6386.9929   -6708.7118            0    3359.4566    23.256952    21.451642    21.507736    10730.205    2768.8858    3295.2579     4014.226   -27.975348    132.33434    315.38934   -5861.2748 
24366000    112.86993   -6709.3602   -6419.0092   -6709.3602            0    1728.1539    23.172564    21.399433    21.798986    10809.675    2773.8926     2416.155   -5.5859619    -625.0838    185.78943    -399.2187   -6146.5691 
24367000    113.03453   -6717.1864   -6426.4119   -6717.1864            0    2231.0678    23.328331    21.449218    21.572461    10794.309    2253.3425    1609.4526    2830.4082   -266.83875   -517.13731   -186.82542   -6075.1885 
24368000    114.49823     -6704.54   -6410.0003     -6704.54            0    1855.3268    23.181158    21.403511     21.79993    10816.214    2370.4691    1555.0611    1640.4501    210.06157   -515.70765    241.70011   -6117.3347 
24369000    119.32327    -6705.855   -6398.9031    -6705.855            0    2530.8029    23.246535    21.384399    21.682508     10778.66    2849.2409    2409.8335    2333.3343    335.96603   -393.39357    564.68451   -6001.0718 
24370000    118.49762   -6706.7801   -6401.9522   -6706.7801            0    1821.6202    23.237169     21.39152    21.733917     10803.46    1858.8289    2747.0169    859.01485   -600.10765    242.82736   -387.30707   -6114.9425 
24371000    119.86914    -6705.323    -6396.967    -6705.323            0    3150.4767    23.248246    21.396508    21.664153    10776.427    3003.0126    3683.8606    2764.5569    383.77231   -512.09815   -792.09472   -5901.8282 
24372000    121.14187   -6692.2244   -6380.5943   -6692.2244            0    1759.2532    23.278097    21.368389    21.747207    10817.396    2457.6192    1513.9297    1306.2108    878.38873   -671.07294   -216.53596   -6103.0534 
24373000    117.38209   -6702.7471   -6400.7889   -6702.7471            0    3016.8494    23.233597    21.301409    21.753697    10766.086    3068.3178    2841.8502    3140.3802    277.31178   -376.28308    106.10043   -5927.1063 
24374000    116.32708   -6689.8389   -6390.5946   -6689.8389            0    1989.0346    23.319097    21.332958    21.707489    10798.723    2159.3617     2206.266    1601.4762    177.52918   -63.673733    327.08759   -6077.3449 
24375000    123.18594   -6699.2472   -6382.3588   -6699.2472            0    2327.5127    23.289887    21.377067    21.735625    10821.504    1998.8708    2483.5608    2500.1065    1214.6382   -915.25923     -363.937   -6015.0295 
24376000    119.62835   -6709.1693   -6401.4326   -6709.1693            0    1492.4552     23.34735    21.397325    21.675565     10828.48    1067.6823    517.58447    2892.0988    370.24382    562.09341    967.25947   -6165.7407 
24377000    120.80877   -6709.0943   -6398.3211   -6709.0943            0    2707.4941    23.235733    21.293497    21.775947    10774.085    3442.6058    3443.7443    1236.1322    953.37935    -548.4352      210.887   -5972.8953 
24378000    116.32319   -6695.0725   -6395.8382   -6695.0725            0    2021.2356    23.264968    21.431139    21.671858    10805.474    2266.8918    1739.4188    2057.3963   -604.17029    457.87618   -266.94127   -6077.3182 
24379000    126.15536   -6701.1844   -6376.6574   -6701.1844            0    2777.6006    23.201713    21.411005    21.747002    10803.302    2960.1037    2996.0111    2376.6871   -394.94816   -554.82859    -1054.762   -5939.0324 
24380000     116.9231   -6721.1028   -6420.3253   -6721.1028            0    998.79701    23.289837    21.532745    21.589182    10826.847    757.55778    374.90671    1863.9265    286.95831   -176.52228    642.81157   -6262.6168 
24381000    117.47408   -6719.3046   -6417.1097   -6719.3046            0     2589.737    23.100557    21.353984    21.860661    10783.622    3700.0761    2865.4791    1203.6558    632.31325    191.31512   -750.61433   -6009.8268 
24382000    125.61058   -6705.4595   -6382.3339   -6705.4595            0    1838.4312    23.313014    21.470081    21.611935    10817.471    1429.6798    2028.1626    2057.4514    588.81551   -18.085781   -1032.3892   -6092.2998 
24383000    118.58251   -6693.4868   -6388.4405   -6693.4868            0    2322.7626    23.190719    21.445744    21.730559    10807.524    2481.4251    2803.1986     1683.664   -808.11738    357.00116   -588.19196   -6022.3344 
24384000    117.29121   -6714.0307   -6412.3062   -6714.0307            0    2143.7436    23.242519    21.366433    21.667161    10760.123    2264.0595    2485.6432     1681.528    296.32974    308.28848    557.67212   -6075.8984 
24385000    116.24607   -6713.9828   -6414.9469   -6713.9828            0    1812.0426    23.268161    21.378472    21.735881    10812.248    1975.5718    1841.3287    1619.2274   -307.96545    -84.18146     132.6401    -6129.214 
24386000     122.1258   -6699.2333   -6385.0721   -6699.2333            0    1579.1949    23.341668     21.38512    21.698809    10831.272    1533.4561    2008.9322    1195.1964    116.42637    324.04982     94.84726   -6135.6178 
24387000    119.65506   -6706.2806   -6398.4753   -6706.2806            0    2226.0188    23.317361    21.364674    21.708287     10814.37    2489.8516    2160.4983    2027.7064    -309.9513   -48.842561   -344.98501   -6047.3954 
24388000    119.24074   -6716.1793   -6409.4398   -6716.1793            0     1913.655    23.303282    21.268171    21.786018    10797.547    1451.6449    2082.7193    2206.6009   -86.536128    141.62933    134.02724   -6108.0943 
24389000    118.14004   -6707.2755   -6403.3675   -6707.2755            0    2616.5473    23.378406    21.248051    21.676132    10767.523    2872.1297    2396.7937    2580.7184    485.92804   -524.93872    272.99597   -5992.4825 
24390000     120.9934   -6708.6265   -6397.3783   -6708.6265            0    776.15677    23.380058    21.327242    21.825104    10882.699    1461.9241    1134.1925    -267.6463   -832.84833    82.121766   -875.43023   -6274.1922 
24391000    121.97302    -6717.084   -6403.3159    -6717.084            0    2987.5796    23.390291    21.305169    21.590769    10759.417    2201.0918    3465.8989    3295.7482    50.908423   -53.841321   -25.395743   -5934.5196 
24392000    118.94048   -6702.1844   -6396.2173   -6702.1844            0    2063.4624    23.243657     21.33495     21.76443     10793.03    2102.8388     2220.791    1866.7574    295.34499    430.69804    88.756282   -6071.4174 
24393000    117.86574   -6700.8988   -6397.6963   -6700.8988            0    2067.6223    23.287243    21.418839    21.652447    10799.931    2056.5669    1697.7831    2448.5171    1401.3242   -224.09621    828.43208   -6072.0336 
24394000    118.61032   -6705.4308    -6400.313   -6705.4308            0    1801.0136    23.116014     21.48204     21.80562    10828.216    2377.9471    2164.6085    860.48527    -548.6491    457.95893   -427.75203   -6115.8998 
24395000    125.30582   -6703.5524   -6381.2108   -6703.5524            0    2342.1448    23.250892    21.520726    21.551585    10783.898    1762.0955    2134.4984    3129.8404    1136.8079     409.4595    153.10487   -6012.8568 
24396000    120.30138   -6712.5822   -6403.1142   -6712.5822            0    1049.8384    23.124715    21.522174    21.801278    10850.369    2079.9141    854.09702     215.5041   -245.62005    460.71515    -632.8011   -6236.9862 
24397000    119.18942   -6716.7996    -6410.192   -6716.7996            0    2304.3323    23.268712    21.516234    21.536895    10782.555    1451.2725    2265.1722    3196.5521    206.04626   -198.70233    562.00001     -6047.83 
24398000    116.63281   -6711.5327   -6411.5019   -6711.5327            0    1820.4075    23.103807    21.443863    21.830526    10815.604    2818.1464    1253.7903    1389.2857   -395.96881    626.09723   -177.97626   -6124.3609 
24399000    124.25779   -6697.0225   -6377.3769   -6697.0225            0    2310.2788    23.296769    21.373669    21.664398    10787.514    2433.6183    2414.3935    2082.8244   -205.78511   -422.67386   -19.261632   -6013.9127 
24400000    118.15861   -6707.0918   -6403.1359   -6707.0918            0      2743.84     23.26491    21.306779    21.748001    10780.491    2950.9541     3109.822    2170.7438   -183.30117   -591.19959   -160.53941   -5971.7428 
24401000    124.52145   -6701.1491   -6380.8252   -6701.1491            0    1536.3802    23.514428    21.234707     21.66792    10819.269     525.8095    2232.9929    1850.3381    324.64967   -393.59686    328.64158    -6138.403 
24402000    116.28943   -6704.5238   -6405.3764   -6704.5238            0    2422.8673     23.31302    21.225176    21.792623     10783.49    1922.6171    3783.7633    1562.2216    -1070.308   -56.145733    314.56298   -6024.3414 
24403000    127.47057   -6709.3218   -6381.4115   -6709.3218            0    1777.1002    23.415115    21.222619    21.726746    10796.673    1215.6716    2627.8788    1487.7503    31.115253    105.33294    202.40883   -6101.5922 
24404000    119.92458   -6704.8223   -6396.3237   -6704.8223            0    670.47086     23.34424    21.395401     21.76962    10873.041    581.22901    698.19314    731.99042   -104.99208    356.31487   -63.584677   -6290.0057 
24405000    115.19222   -6705.9141   -6409.5891   -6705.9141            0    2211.4445     23.31438    21.371131     21.64691    10785.674    2141.2532    2332.2213    2160.8589   -957.47748   -645.62623   -288.97893   -6061.7333 
24406000    115.29301   -6719.0333   -6422.4491   -6719.0333            0    2267.2247    23.197125    21.366433    21.735713    10773.085    1745.6915    3260.4306    1795.5518    387.80884    1481.3083   -800.89218   -6066.2354 
24407000    121.69897   -6719.0195   -6405.9563   -6719.0195            0    2066.8376    23.214306    21.484318    21.658402    10801.988    2136.7919    1515.6434    2548.0775   -866.89932   -215.29441    61.255276   -6080.3552 
24408000    121.47581   -6721.7177   -6409.2286   -6721.7177            0    1703.2318    23.145186    21.500765    21.699289    10798.417    2383.0793    1027.5804    1699.0356   -91.316158   -223.01279   -279.66449   -6140.9971 
24409000    124.06569    -6715.736   -6396.5846    -6715.736            0    2612.1706    23.154839    21.533302    21.622665    10781.064    3642.3067    1420.5591    2773.6462    545.22227    -184.0087   -615.53355    -5985.871 
24410000     115.2872   -6698.2994   -6401.7301   -6698.2994            0     2260.382    23.203757    21.438064    21.697587    10793.327     3057.953    2169.3209    1553.8722    -5.012641   -904.41172    491.24017   -6045.9243 
24411000    118.56465   -6721.0529   -6416.0525   -6721.0529            0    1671.5937    23.274982    21.348813    21.753575    10809.204    2347.7396    1202.0087    1465.0328    636.53403     771.3265    463.33627   -6152.5406 
24412000    116.23329   -6693.8514   -6394.8483   -6693.8514            0    2456.6464    23.384888    21.319291    21.659284     10798.22    2258.5309    2930.0671    2181.3411   -50.975937    14.506867   -891.60246   -6007.9733 
24413000    119.51755   -6705.5337   -6398.0821   -6705.5337            0    1559.2324    23.377679    21.292689    21.728158    10815.705    2090.3493    1321.9179      1265.43    -359.5802    162.73543    -105.5451   -6152.1351 
24414000    116.04667   -6707.0862   -6408.5632   -6707.0862            0    1720.5632    23.400946    21.272311    21.705572    10804.864    977.27571    1435.3113    2749.1026    361.20121    664.64063    586.67387   -6137.4406 
24415000    118.54382   -6698.4238   -6393.4771   -6698.4238            0    2778.3036    23.392701    21.211233    21.718515    10776.468    2506.8695    3104.6521     2723.389    -119.0886   -866.58202    572.27169   -5956.8286 
24416000    123.86612   -6700.5446   -6381.9065   -6700.5446            0    1940.6937    23.354051    21.367512    21.660696    10809.076    1260.0447    2073.6607    2488.3756   -565.31768    -19.83664    56.078775    -6075.977 
24417000    118.36565   -6704.5696   -6400.0812   -6704.5696            0    2510.1396    23.312093    21.340031    21.688078    10789.402    1651.0202    3103.7701    2775.6284     168.7425   -95.330358   -410.49897   -6005.1048 
24418000    124.37803   -6704.4316   -6384.4767   -6704.4316            0    1202.8927     23.20745    21.424327    21.791121    10834.633    1332.2491    640.93019    1635.4989   -552.61414    755.88543    1271.0158   -6194.4052 
24419000    127.15998   -6699.0009   -6371.8896   -6699.0009            0    2379.9674    23.167788    21.500807    21.689445     10804.08     3311.315    1476.1887    2352.3985    107.76801   -119.09165   -541.63913   -5996.8867 
24420000    118.11599   -6702.7928   -6398.9466   -6702.7928            0    1418.2333    23.238049    21.496207    21.702441    10841.018     1162.985    1474.3096    1617.4052   -706.40429    686.64333    178.40586   -6174.7166 
24421000    124.38975   -6716.1659   -6396.1808   -6716.1659            0    2231.2485    23.119362    21.479919    21.741748    10796.996    2826.1675    2059.7671     1807.811   -606.02199   -329.71659    70.969829   -6044.8415 
24422000    121.02397   -6704.7895   -6393.4627   -6704.7895            0    2512.2302     23.27065    21.394322     21.63002    10768.717    2176.1412    2200.7083    3159.8412    474.97369    493.73882   -98.563586   -5998.9152 
24423000    113.98907   -6698.2022   -6404.9723   -6698.2022            0    3063.9087    23.228557    21.328348    21.709385     10755.41    3175.5619    3476.6246    2539.5397   -329.09035   -132.74516   -609.66186   -5924.3779 
24424000     117.4748   -6714.8863   -6412.6896   -6714.8863            0    1815.5269    23.363291    21.385662     21.64594    10815.165    1437.6917    1416.4364    2592.4524   -522.29636    524.76559   -106.50535     -6126.33 
24425000     115.6754   -6694.9224   -6397.3545   -6694.9224            0    1287.6817    23.380453    21.292661    21.817853    10861.627    477.88634    2154.1738    1230.9851    1133.8943   -433.93439   -214.17384   -6193.3784 
24426000    118.51088   -6711.7836   -6406.9216   -6711.7836            0    1215.3536        23.39      21.3411    21.691096    10827.508    657.51528     1293.096    1695.4495    39.530092    185.81415    464.82326   -6215.0074 
24427000    123.84338   -6695.3207   -6376.7412   -6695.3207            0     1777.719    23.323316    21.352963    21.744983    10829.478    2177.5933    1760.7129    1394.8507    9.2097797    -90.67789    247.66183   -6095.9739 
24428000    123.37186   -6705.2497   -6387.8831   -6705.2497            0    2759.3937    23.258589    21.396295    21.641278     10769.73    2610.9343    2226.2711    3440.9756    171.48712    655.52129    106.08416   -5954.4776 
24429000    118.64519   -6700.7149   -6395.5074   -6700.7149            0    2486.5234     23.24719    21.426636    21.680804    10799.405    2294.7188    2437.0117    2727.8397    468.79996   -462.67641   -98.419871   -6003.8844 
24430000    120.51767    -6701.155   -6391.1307    -6701.155            0    2182.7305    23.173423    21.440217    21.718923      10790.9    1558.4288    2082.9751    2906.7878    81.870559    939.21462    401.38168   -6047.6252 
24431000    124.73125   -6721.1855    -6400.322   -6721.1855            0     2706.437      23.1982    21.425419     21.67561    10773.453    3244.1095    2341.0029    2534.1987    81.485313   -20.302174    53.625008   -5975.0872 
24432000     123.7051   -6705.3706   -6387.1467   -6705.3706            0     2237.403    23.219912    21.447909     21.68027    10797.177     2586.597    1411.6485    2713.9636    221.46391    305.16848    289.72519   -6034.8324 
24433000    116.25727   -6706.5762   -6407.5115   -6706.5762            0    2470.6704    23.262468    21.384599    21.697434    10793.574    2279.2933    2716.3009    2416.4169    1361.2596   -134.90543    93.432172   -6018.5953 
24434000    119.80955   -6714.7681   -6406.5653   -6714.7681            0    1110.7222    23.244929    21.400211    21.776329    10832.556    1657.8467    1269.9778    404.34217   -736.19648    477.55207   -92.705701   -6231.0915 
24435000    124.40082   -6705.2974   -6385.2839   -6705.2974            0    2867.2158    23.277378    21.343928    21.679179    10770.882    3206.0961    3380.6498    2014.9016   -44.443866   -631.19664   -158.27577   -5934.8952 
24436000    123.68713   -6702.5894   -6384.4118   -6702.5894            0    1164.3529    23.317794    21.354897    21.783153    10846.902    629.49633    1491.2744     1372.288   -198.01428    688.06538   -645.55523   -6200.2217 
24437000    119.78303   -6719.6248   -6411.4902   -6719.6248            0    2535.1681    23.395972    21.347996    21.570085    10773.333    1943.7797    2906.6974    2755.0272   -501.06628   -300.26173    442.63422   -6013.1697 
24438000    120.83624   -6693.9795   -6383.1356   -6693.9795            0    2160.1689    23.215376    21.337585    21.819617    10808.567    2811.2261    1972.3951    1696.8855   -1.0150909   -328.09325   -44.902568   -6042.6242 
24439000    116.07502    -6714.853   -6416.2571    -6714.853            0    1240.5296    23.366733    21.385605    21.674062    10830.783    1113.8268    1403.2483    1204.5137    876.62041   -63.336946   -34.721527   -6220.3081 
24440000    124.38721   -6691.1872   -6371.2086   -6691.1872            0    2361.9336    23.275164    21.387635    21.702325    10803.432    2283.9756    2258.7722    2543.0531   -278.55033   -842.31233    193.49209   -5999.0695 
24441000      123.743   -6699.8837   -6381.5623   -6699.8837            0    1662.6703    23.272654    21.399225    21.757019     10835.36    1971.3543    1473.1519    1543.5047   -117.34914     343.8404   -675.84854   -6118.8228 
24442000    121.85147    -6703.044   -6389.5886    -6703.044            0    2160.0777    23.306266    21.456112    21.601249     10801.96    1274.8024    2174.6351    3030.7957   -113.75236    -184.0646    921.97036   -6049.2996 
24443000    115.10998   -6701.0815   -6404.9681   -6701.0815            0    1195.7307    23.343112     21.34997    21.789176    10859.175    551.42403    1992.8903    1042.8777    309.75643   -272.29493    147.49258   -6215.6003 
24444000    123.72338   -6712.2944   -6394.0236   -6712.2944            0    1859.0417    23.378938    21.347902    21.660988     10810.81    1123.6939    2198.8464    2254.5847     623.2264   -414.25937   -603.96003   -6100.9186 
24445000    120.30475   -6695.5868   -6386.1102   -6695.5868            0     1943.788    23.272768     21.27899    21.862361      10826.7    1874.1526    2704.5277    1252.6837    1210.7535   -677.53327    291.32784   -6079.1932 
24446000    118.74587    -6706.674   -6401.2075    -6706.674            0    2330.4488    23.337861    21.326887    21.648051    10774.753    1275.2865    2776.4124    2939.6476    37.391121    17.581557    186.99847   -6035.0038 
24447000    119.01013   -6702.9418   -6396.7955   -6702.9418            0    2057.2021    23.302487    21.287565    21.772506    10800.322    2017.6756    2550.7859     1603.145    505.40164    73.366743   -162.84732   -6072.7622 
24448000    124.84721   -6710.2217   -6389.0599   -6710.2217            0    2593.4596    23.349389    21.353355     21.60535    10772.164    1241.8072    3159.2306    3379.3412   -47.772631   -134.62501     -510.833   -5981.6249 
24449000    124.82409   -6708.7296   -6387.6272   -6708.7296            0    1838.8024    23.239648    21.356215    21.814311    10826.681     1796.361    1900.0952    1819.9512    955.71399    392.48385   -12.092865   -6097.2876 
24450000    117.51616   -6709.8053   -6407.5021   -6709.8053            0    1944.4379    23.236525    21.509197    21.665223    10828.256    2188.9162    188.46097    3455.9366   -247.40009   -568.39688    1133.8549   -6100.4384 
24451000    121.74443   -6707.2141    -6394.034   -6707.2141            0    1686.0534    23.169082    21.544878    21.717307    10840.738    2162.5876    762.48481    2133.0879   -749.24268    414.71392    -352.5715   -6127.4672 
24452000    119.51495   -6706.2249     -6398.78   -6706.2249            0    1881.0579    23.223403    21.453516    21.701287    10812.094    1991.0541    2353.9954    1298.1241    88.305005    98.937343   -413.98115   -6102.1686 
24453000    114.49742   -6714.0092   -6419.4716   -6714.0092            0    2802.9365    23.198037    21.443304    21.627216    10758.298    2768.6886     2535.678    3104.4428    328.01102   -449.85008     473.3413   -5979.6944 
24454000    119.32142    -6710.527     -6403.58    -6710.527            0    2077.9561    23.224581    21.463609    21.640543     10787.45    1997.1155    2396.9563    1839.7966   -39.801449    62.403871   -1055.7525   -6076.6678 
24455000    122.72273   -6723.1761   -6407.4793   -6723.1761            0     2337.496    23.236237    21.400486    21.687958      10784.7    2353.4699    2078.1819    2580.8363    379.40475    344.85825   -207.97601   -6039.8291 
24456000    114.33393   -6708.4784   -6414.3613   -6708.4784            0    2274.4103    23.281332    21.330201      21.7195    10785.806    2352.1418    2138.1728    2332.9161    98.149757   -500.65804    837.77979   -6056.5967 
24457000     119.2063   -6718.7549    -6412.104   -6718.7549            0     1386.707    23.372531    21.295258     21.72212    10811.622    920.64816    2240.1147    999.35817   -394.06722    452.80123   -484.22047    -6193.453 
24458000     121.0992   -6706.9775   -6395.4571   -6706.9775            0    2497.5229    23.393178    21.259659    21.687904    10786.067    2220.1798    3268.3708    2004.0182   -116.13303   -424.32389   -260.28055   -6002.5875 
24459000    120.59332   -6697.7939    -6387.575   -6697.7939            0     1865.912    23.460362    21.231124    21.726363    10821.681    981.44112    2851.7481    1764.5468   -133.62173    289.32219    -625.1681   -6093.0909 
24460000    122.07892   -6717.3627   -6403.3221   -6717.3627            0    1660.0006    23.288574    21.298948    21.794133    10810.372    2215.0733    797.08652    1967.8418   -282.44345   -244.70475    731.27214   -6141.6094 
24461000    119.52588   -6692.8863   -6385.4132   -6692.8863            0    3199.5449    23.290207    21.369316     21.62502    10762.681    2329.0757    3078.5662    4190.9928    32.258447    771.57442    575.33035   -5883.2041 
24462000    120.67326   -6714.5897   -6404.1651   -6714.5897            0    1639.2556    23.176203    21.495757    21.694525    10807.996    2016.9835    1329.9553     1570.828   -269.02184   -555.68822    -622.8813   -6145.7798 
24463000    121.41834    -6714.564   -6402.2227    -6714.564            0    2388.5266    23.199046    21.485875    21.655052        10794    2118.2398    1765.9808    3281.3592    63.933235   -238.94096   -812.59665   -6026.2223 
24464000    122.17222   -6710.4244   -6396.1438   -6710.4244            0    1575.7403    23.224354    21.421672    21.726435    10808.999    1523.2702    1528.4968     1675.454    409.90115    553.69533    425.51311    -6147.747 
24465000    115.75475   -6715.4069   -6417.6348   -6715.4069            0     2411.058       23.201    21.444098    21.663704    10778.224    2511.6846    2491.4254    2230.0642   -418.74659   -71.444709    190.33411   -6038.6422 
24466000    117.12245   -6702.7385   -6401.4482   -6702.7385            0    1283.2085    23.343689    21.407572    21.702854    10845.604    1200.8967    1636.0452    1012.6837    396.26932   -381.73676   -833.57218   -6198.4805 
24467000    117.98952   -6703.4141   -6399.8933   -6703.4141            0    2253.7744    23.314138    21.312244    21.725567    10794.926    2241.2904    2622.3571    1897.6757    495.28601    316.95373    633.99981    -6045.075 
24468000    125.85166   -6711.6311   -6387.8853   -6711.6311            0    2286.2088    23.175097    21.350955    21.787809    10780.836    2066.6163    2719.5429    2072.4673    327.73569    11.526425    518.89997   -6028.4306 
24469000    123.35113   -6719.3805   -6402.0672   -6719.3805            0    1735.4302    23.315217    21.423217    21.620431    10799.123    1407.2619    2057.8253    1741.2034    6.4984732    734.80909    -1234.365   -6128.7471 
24470000    114.69813   -6712.8376   -6417.7836   -6712.8376            0    2157.6179    23.258446    21.424439    21.658028    10792.177    2804.2673    1719.4398    1949.1467   -714.72438   -647.25008   -691.09663     -6078.19 
24471000    113.00502   -6698.3693   -6407.6708   -6698.3693            0    1507.5429     23.28239    21.429978    21.712875    10833.446    1182.9386    1616.8743    1722.8158   -750.20715    437.96511    13.168113    -6169.487 
24472000    118.71668   -6711.3181   -6405.9267   -6711.3181            0    2428.8495    23.199732    21.350488    21.767196    10781.849    2677.1313    2509.5394    2099.8779    489.83819    350.14842    206.05902    -6024.009 
24473000    121.58631   -6721.1046   -6408.3313   -6721.1046            0    1527.0355     23.19741    21.439117    21.749452    10816.698     2182.115    942.00058    1456.9909   -494.34274   -24.570944    37.793159   -6167.4407 
24474000    121.12572   -6692.0516    -6380.463   -6692.0516            0    3171.6631    23.207856    21.477323    21.605804    10769.254    4101.0017    2036.1691    3377.8184   -379.88115   -98.334425   -250.92128   -5882.3263 
24475000    118.31577   -6709.9976   -6405.6375   -6709.9976            0     1324.525    23.233395    21.435915    21.717281    10815.837     1223.807    966.38197    1783.3859    389.96902    535.07981    507.32971   -6196.7098 
24476000    116.63511   -6695.5821   -6395.5454   -6695.5821            0    1938.8221     23.20647    21.396514    21.762359    10805.829    2120.4015    2324.0472    1372.0176   -202.47654   -207.26423    562.12199   -6090.0027 
24477000    123.70304   -6691.4122   -6373.1937   -6691.4122            0    2126.7172    23.303035    21.388867    21.679448     10805.59    2782.0313    1567.0983    2031.0219   -503.98658   -107.50426   -268.11689   -6038.0476 
24478000    121.92957   -6688.4353   -6374.7789   -6688.4353            0     2404.444    23.291663     21.34104    21.779418    10825.859    2774.6246    2629.1365    1809.5708   -222.69379   -1301.8376   -818.10047   -5995.1556 
24479000    113.98746   -6682.4525   -6389.2267   -6682.4525            0    2019.0362    23.383797    21.344963    21.631888    10797.044    986.32228    2879.8568    2190.9296    74.723755   -112.63878   -607.00598   -6071.3015 
24480000     121.8398   -6692.8112   -6379.3858   -6692.8112            0    2687.1803    23.252951    21.194857    21.862172    10774.618    3727.6326    3374.2977    959.61067   -280.99788   -386.23342    732.38704    -5957.131 
24481000    117.15445   -6682.8821   -6381.5095   -6682.8821            0    2091.9116    23.372276    21.347181     21.70448    10829.064    2414.3311    1742.5345    2118.8692   -766.65589    564.16442    8.1128767   -6051.1322 
24482000    121.60609   -6704.2762    -6391.452   -6704.2762            0    1333.5849    23.379577    21.369765     21.69477    10839.056    436.98229    1688.2037    1875.5687    -237.0436    334.63217    213.74871   -6180.6435 
24483000      116.993   -6703.3639   -6402.4065   -6703.3639            0    2864.0404    23.281154    21.245525    21.770356    10768.061    2543.4631    3661.5284    2387.1295   -431.18208   -409.65542   -18.676694   -5952.6344 
24484000    120.75662    -6707.428    -6396.789    -6707.428            0    2671.5481    23.224776    21.372657    21.664594    10753.766    2414.0394    2753.0918    2847.5133   -259.15346    133.29405     490.4562    -5977.803 
24485000    118.92245    -6707.161   -6401.2402    -6707.161            0    2017.5276    23.214346    21.435588    21.693991    10795.215     2252.656    1535.3291    2264.5977   -254.37639    542.49281   -50.870345   -6083.6064 
24486000    120.27264   -6713.7209   -6404.3269   -6713.7209            0    1810.7511    23.195649    21.564026    21.631522    10819.905    1602.7649    1424.3733    2405.1153   -548.88819    274.16842    566.71197   -6118.5954 
24487000    119.02275   -6715.6925   -6409.5138   -6715.6925            0    1830.9923    23.063089    21.587424    21.728928     10818.24    3064.7862    1209.7604    1218.4304    697.10806   -112.28173   -342.03397   -6120.6327 
24488000    123.18547   -6699.8248   -6382.9377   -6699.8248            0    2206.4825    23.134729    21.580342    21.650256    10809.006    2928.7763    787.23975    2903.4316    974.58401   -367.93319    629.73835   -6035.1116 
24489000    115.91373   -6699.5347   -6401.3537   -6699.5347            0    1772.9773    23.180432    21.521109    21.697901    10824.401    2342.8685    1505.6691    1470.3944   -91.635797   -47.265099    311.49498   -6121.4666 
24490000    122.12173      -6709.1   -6394.9493      -6709.1            0    690.95736    23.304694    21.440688    21.748905    10867.247    613.85227    1173.3281    285.69167   -587.02917    364.99319   -298.79598   -6285.4411 
24491000    118.89972   -6708.3112    -6402.449   -6708.3112            0    2631.1258    23.314951    21.361881    21.646855    10781.242    2322.8804    2666.0166    2904.4806    84.482659    74.701716    471.08643   -5988.7482 
24492000    121.30989   -6715.5891   -6403.5268   -6715.5891            0    2239.9961    23.293053    21.307748    21.746058    10793.058    2508.2867    1865.9306    2345.7711    585.32768   -515.97061    122.98387   -6050.9387 
24493000    122.70076   -6706.4135   -6390.7733   -6706.4135            0    2371.8969    23.397805    21.226289    21.735791    10795.049     2120.619    2819.1631    2175.9086   -287.25198   -796.52446   -359.96481   -6017.3544 
24494000    120.69668   -6706.7078    -6396.223   -6706.7078            0    1763.3344    23.412709    21.257773    21.710505    10805.363    2045.5983    1613.1803    1631.2247   -760.92186   -237.02788    566.12787   -6118.3477 
24495000    124.85733   -6699.2771   -6378.0892   -6699.2771            0    2456.4503    23.305805    21.299673     21.75536    10799.492    2147.1287     3088.989    2133.2331    -24.28374    637.25631    264.64227   -5991.1995 
24496000    117.04321     -6707.96   -6406.8735     -6707.96            0    1958.6037     23.34903    21.377715    21.702444    10832.751    2905.6895    1684.5562    1285.5655   -323.57502   -663.90003    130.97457   -6097.4443 
24497000    119.56547   -6705.3036   -6397.7287   -6705.3036            0    1172.0379    23.257319    21.500117    21.707049    10854.286    1379.4409     1069.219    1067.4538    1142.8328    65.860537   -299.74277   -6212.1967 
24498000    123.99728   -6706.9177   -6387.9423   -6706.9177            0    2955.1866    23.174619    21.398246    21.699741    10760.819    3020.6922    3213.5852    2631.2823   -538.00595    421.16301   -149.70388   -5924.1686 
24499000    120.59259   -6711.1276   -6400.9105   -6711.1276            0    2683.2866     23.19034    21.531791    21.563134     10767.11    3209.6552    722.71148     4117.493    664.22434   -320.42168    216.22458   -5979.5614 
24500000    127.42272     -6695.31   -6367.5229     -6695.31            0    2838.7372    23.180218    21.436862    21.663474    10764.821    3093.4937    2952.6221    2470.0959    632.27358   -220.66724   -406.23647   -5921.8585 
Loop time of 543.323 on 64 procs for 250000 steps with 1296 atoms

Performance: 79.511 ns/day, 0.302 hours/ns, 460.132 timesteps/s
384.5% CPU use with 16 MPI tasks x 4 OpenMP threads

MPI task timing breakdown:
Section |  min time  |  avg time  |  max time  |%varavg| %total
---------------------------------------------------------------
Pair    | 39.574     | 49.591     | 56.969     |  70.2 |  9.13
Bond    | 1.4714     | 1.8387     | 2.4875     |  22.3 |  0.34
Kspace  | 271.46     | 280.12     | 289.92     |  35.4 | 51.56
Neigh   | 1.3451     | 1.3938     | 1.4421     |   2.5 |  0.26
Comm    | 52.952     | 58.319     | 63.57      |  39.3 | 10.73
Output  | 0.51106    | 0.5114     | 0.51305    |   0.1 |  0.09
Modify  | 129.99     | 134.16     | 138.87     |  24.2 | 24.69
Other   |            | 17.38      |            |       |  3.20

Nlocal:        81.0000 ave          95 max          63 min
Histogram: 2 0 1 1 2 3 2 1 1 3
Nghost:        3679.56 ave        3710 max        3658 min
Histogram: 5 1 1 3 0 0 2 1 0 3
Neighs:        25942.2 ave       30439 max       20073 min
Histogram: 2 0 0 2 3 2 2 1 1 3

Total # of neighbors = 415075
Ave neighs/atom = 320.27392
Ave special neighs/atom = 2.0000000
Neighbor list builds = 3204
Dangerous builds = 0

unfix		3
unfix		2
unfix		1

write_data	data.final.${pid}
write_data	data.final.0
System init for write_data ...
PPPM initialization ...
  extracting TIP4P info from pair style
  using 12-bit tables for long-range coulomb (../kspace.cpp:340)
  G vector (1/distance) = 0.36612781
  grid = 30 40 32
  stencil order = 5
  estimated absolute RMS force accuracy = 0.0048352074
  estimated relative force accuracy = 1.4561084e-05
  using double precision FFTW3
  3d grid and FFT values/proc = 11832 2400
Last active /omp style is kspace_style pppm/tip4p/omp
WARNING: Not all mixed pair coeffs generated from mixing. Use write_data with 'pair ij' option to store all pair coeffs. (../write_data.cpp:312)

write_restart   restart.lmp.${pid}
write_restart   restart.lmp.0
System init for write_restart ...
PPPM initialization ...
  extracting TIP4P info from pair style
  using 12-bit tables for long-range coulomb (../kspace.cpp:340)
  G vector (1/distance) = 0.36612781
  grid = 30 40 32
  stencil order = 5
  estimated absolute RMS force accuracy = 0.0048352074
  estimated relative force accuracy = 1.4561084e-05
  using double precision FFTW3
  3d grid and FFT values/proc = 11832 2400
Last active /omp style is kspace_style pppm/tip4p/omp
Total wall time: 0:09:03
