LAMMPS (30 Jul 2021)
Processor partition = 1
  using 4 OpenMP thread(s) per MPI task
using multi-threaded neighbor list subroutines
variable        pid world 0 1
variable        phase world IceII IceIh

shell cd ${phase}
shell cd IceIh
include Restart.lmp
echo both
log log.lammps
#include		in.partitions
include		in.temp
variable        temperature equal 125.10
variable	tempDamp equal 100.0
include		in.pressure
variable        pressure equal 2056.6
variable        pressureDamp equal 1000.0 # This is 1 ps
include		in.seed
variable        seed equal 745823

units		real
atom_style	full
#include		in.box
read_restart	restart.lmp.${pid}
read_restart	restart.lmp.1
Reading restart file ...
  restart file = 30 Jul 2021, LAMMPS = 30 Jul 2021
  restoring atom style full from restart
  orthogonal box = (0.12286925 0.10138253 0.15397895) to (18.084703 23.527795 22.059217)
  2 by 4 by 2 MPI processor grid
  restoring pair style lj/cut/tip4p/long/omp from restart
  restoring bond style harmonic/omp from restart
  restoring angle style harmonic/omp from restart
  864 atoms
  576 bonds
  288 angles
Finding 1-2 1-3 1-4 neighbors ...
  special bond factors lj:    0        0        0       
  special bond factors coul:  0        0        0       
     2 = max # of 1-2 neighbors
     1 = max # of 1-3 neighbors
     1 = max # of 1-4 neighbors
     2 = max # of special neighbors
  special bonds CPU = 0.001 seconds
  read_restart CPU = 0.005 seconds
include 	in.setup
variable	out_freq equal 1000
variable	out_freq2 equal 10000
variable	out_freq3 equal 1000

timestep	2.0

neigh_modify    delay 7 every 1

include		in.tip4p
# This is TIP4P/Ice

# create groups ###
group ox type 2
288 atoms in group ox
group hy type 1
576 atoms in group hy

# set charges - beside manually ###
set group ox charge -1.1794
Setting atom values ...
  288 settings made for charge
set group hy charge 0.5897
Setting atom values ...
  576 settings made for charge

# ### TIP3P Potential Parameters ###
pair_style lj/cut/tip4p/long/omp 2 1 1 1 0.1577 8.5
pair_coeff 1 1*2 0.000 0.000
pair_coeff 2 2 0.21084 3.1668
bond_style  harmonic
bond_coeff  1 450 0.9572
angle_style harmonic
angle_coeff 1 55 104.52
kspace_style pppm/tip4p/omp 1.0e-5
pair_modify tail yes

thermo          ${out_freq}
thermo          1000
thermo_style    custom step temp pe etotal epair emol press lx ly lz vol pxx pyy pzz pxy pxz pyz enthalpy

restart 	${out_freq3} restart.lmp.${pid} restart2.lmp.${pid}
restart 	1000 restart.lmp.${pid} restart2.lmp.${pid}
restart 	1000 restart.lmp.1 restart2.lmp.${pid}
restart 	1000 restart.lmp.1 restart2.lmp.1


include         in.dump
dump            myDump all atom ${out_freq2} dump.water.${pid}
dump            myDump all atom 10000 dump.water.${pid}
dump            myDump all atom 10000 dump.water.1
dump            myDump2 all dcd ${out_freq2} dump.dcd
dump            myDump2 all dcd 10000 dump.dcd
dump_modify     myDump append yes
dump_modify     myDump2 append yes


variable natoms 	equal  "count(all)"                        # NUMBER ATOMS
variable H      	equal  "enthalpy/v_natoms"                 # ENTHALPY-per-atom
variable Vol      	equal  "vol/v_natoms"                 # volume-per-atom
fix AVG all 		ave/time ${out_freq} 1 ${out_freq} v_Vol v_H file vol_enthalpy.dat
fix AVG all 		ave/time 1000 1 ${out_freq} v_Vol v_H file vol_enthalpy.dat
fix AVG all 		ave/time 1000 1 1000 v_Vol v_H file vol_enthalpy.dat


timer           timeout 23:50:00 every 1000
New timer settings: style=normal  mode=nosync  timeout=23:50:00

fix 		1 all shake 1e-6 200 0 b 1 a 1
Finding SHAKE clusters ...
       0 = # of size 2 clusters
       0 = # of size 3 clusters
       0 = # of size 4 clusters
     288 = # of frozen angles
  find clusters CPU = 0.000 seconds
fix             2 all nph aniso ${pressure} ${pressure} ${pressureDamp}
fix             2 all nph aniso 2056.6 ${pressure} ${pressureDamp}
fix             2 all nph aniso 2056.6 2056.6 ${pressureDamp}
fix             2 all nph aniso 2056.6 2056.6 1000
fix             3 all temp/csvr ${temperature} ${temperature} ${tempDamp} ${seed}
fix             3 all temp/csvr 125.1 ${temperature} ${tempDamp} ${seed}
fix             3 all temp/csvr 125.1 125.1 ${tempDamp} ${seed}
fix             3 all temp/csvr 125.1 125.1 100 ${seed}
fix             3 all temp/csvr 125.1 125.1 100 745823


run             250000
PPPM initialization ...
  extracting TIP4P info from pair style
  using 12-bit tables for long-range coulomb (../kspace.cpp:340)
  G vector (1/distance) = 0.37189629
  grid = 24 27 25
  stencil order = 5
  estimated absolute RMS force accuracy = 0.0031355528
  estimated relative force accuracy = 9.4426241e-06
  using double precision FFTW3
  3d grid and FFT values/proc = 6300 1296
Last active /omp style is kspace_style pppm/tip4p/omp
Neighbor list info ...
  update every 1 steps, delay 7 steps, check yes
  max neighbors/atom: 2000, page size: 100000
  master list distance cutoff = 10.8154
  ghost atom cutoff = 10.8154
  binsize = 5.4077, bins = 4 5 5
  1 neighbor lists, perpetual/occasional/extra = 1 0 0
  (1) pair lj/cut/tip4p/long/omp, perpetual
      attributes: half, newton on, omp
      pair build: half/bin/newton/omp
      stencil: half/bin/3d
      bin: standard
Setting up Verlet run ...
  Unit style    : real
  Current step  : 23250000
  Time step     : 2
  Walltime left : 23:49:59.95
Per MPI rank memory allocation (min/avg/max) = 12.26 | 12.28 | 12.30 Mbytes
Step Temp PotEng TotEng E_pair E_mol Press Lx Ly Lz Volume Pxx Pyy Pzz Pxy Pxz Pyz Enthalpy 
23250000      124.599   -4494.8663   -4281.3079   -4494.8663            0    1635.4752    17.961834    23.426413    21.905238    9217.3152    1913.9607    1151.8583    1840.6066   -803.71954   -183.66753   -155.47331    -4061.459 
23251000    121.79027   -4505.7173    -4296.973   -4505.7173            0    1384.8579    18.018286    23.309795     21.99664    9238.6449    910.53124    1541.3242    1702.7182   -120.35364    615.94059    315.05736   -4110.3825 
23252000    123.06823   -4510.0283   -4299.0936   -4510.0283            0    2263.5436    17.993768    23.173446    21.990332    9169.4761    1956.5538    2563.2045    2270.8724    540.69821   -219.95935   -31.209848   -3996.3958 
23253000    124.25562   -4515.3307   -4302.3608   -4515.3307            0    2391.6043    17.909105    23.417092    21.883199    9177.3576    2133.7498    1809.9969    3231.0661    1045.1902   -44.345635    -553.4027   -3982.2629 
23254000     119.1058   -4520.7001   -4316.5568   -4520.7001            0    1602.9492    17.893768    23.469875    21.951382    9218.8014     2119.988    1884.0267    804.83284    99.652992    38.498584    12.283481   -4101.0455 
23255000    124.81753    -4508.137    -4294.204    -4508.137            0    1326.0435    18.032656    23.373853    21.977866    9263.5089    1313.0832    1727.0424    938.00489   -672.18604    107.95807   -308.67428   -4115.0572 
23256000    125.90531   -4503.5407   -4287.7433   -4503.5407            0     2438.262    17.866083    23.334347     22.01896    9179.5588     2494.798    3230.2522    1589.7357    22.991671   -78.112093    606.63501   -3961.3224 
23257000    127.51696   -4516.4005   -4297.8408   -4516.4005            0    1828.6069    17.905698    23.254055    22.063869     9186.956    2296.4469    1829.8623    1359.5115    289.49735   -59.365814   -338.47028   -4052.8398 
23258000    130.46411    -4515.667    -4292.056    -4515.667            0    752.61813    18.012441    23.258812    22.088973    9254.1306    286.52487    2777.9009   -806.57137    492.72744    426.35847    52.939302   -4190.4811 
23259000    131.64305   -4512.0581   -4286.4264   -4512.0581            0    975.18007    17.845177    23.625494    21.887718    9227.8867     2263.586    122.19871    539.75546    302.54041    41.930777    92.357807   -4155.1874 
23260000    126.74845    -4513.356   -4296.1135    -4513.356            0    2142.4425    17.955433    23.394565    21.956056    9222.8507     1389.257    2127.1014     2910.969    -1343.031   -45.235104   -190.43917   -4007.9425 
23261000    124.95401   -4514.2067   -4300.0398   -4514.2067            0    757.20865    18.023524    23.264013    22.134177    9280.8494    903.28537     542.0128    826.32777    775.65852   -134.34063     47.95326   -4197.5503 
23262000    132.82388   -4500.6275   -4272.9719   -4500.6275            0     2923.022    17.857327    23.234888    22.055035    9150.9206    3857.5073    2505.3821    2406.1767   -291.02423   -789.95978     87.69066   -3882.8748 
23263000    127.11776   -4504.3847   -4286.5092   -4504.3847            0    1127.5472    17.929508    23.456885    21.975363    9242.1873    472.16393     1171.943    1738.5347    658.14705    -173.7879   -158.85319   -4134.5296 
23264000    124.12122     -4522.46   -4309.7205     -4522.46            0    2593.3683    17.947202    23.515167    21.712919    9163.5346    2047.2478    3008.6618    2724.1953   -711.75806    359.39923    486.81966   -3963.1408 
23265000    124.35181   -4507.9406   -4294.8059   -4507.9406            0    2006.6499    17.980623    23.296508     21.95887    9198.2575    2270.0754    1432.9383    2316.9361    675.01744    312.41176     180.8723   -4025.6195 
23266000    124.40848   -4508.8246   -4295.5927   -4508.8246            0    903.73809    18.002187    23.365901    21.957682    9236.2206    1004.4773    656.19914    1050.5379    233.71761   -596.26787    675.52625   -4173.8585 
23267000    130.75492    -4518.103   -4293.9935    -4518.103            0    1836.1135    17.844907    23.470076    21.955902       9195.6    1179.1011     1770.191    2559.0484   -18.622147    29.624466    1021.9288   -4047.7553 
23268000    118.70362   -4514.6449    -4311.191   -4514.6449            0    2743.3671    17.967881    23.239108    21.921186     9153.356     3202.241    3821.8165    1206.0438    180.40931    299.78452    101.25624   -3944.9726 
23269000    121.57635   -4505.7375   -4297.3598   -4505.7375            0    2467.9199    17.909154    23.256461    21.944248    9139.8565    2587.5618    2933.7143    1882.4836   -646.29333    -419.0988   -75.852528   -3968.3974 
23270000    120.94189   -4514.7297   -4307.4395   -4514.7297            0     2345.407    17.773481    23.499738    21.950446    9168.0901    2861.3302    1858.3058    2316.5851    104.45276   -273.78308    765.74777   -3993.8417 
23271000    128.80017   -4528.4387   -4307.6796   -4528.4387            0    1479.6677    17.896495    23.359166    22.018019    9204.5712    1656.2288    752.27781    2030.4966   -402.36778    620.45525    603.08576   -4109.0501 
23272000    126.82595   -4506.2653   -4288.8899   -4506.2653            0    2271.9801    17.994764    23.296758    21.941742    9198.4096    2185.4246    1847.0728     2783.443    158.21699     110.7912     570.6772   -3984.1052 
23273000    116.22792   -4509.7247    -4310.514   -4509.7247            0    1984.7725    17.955687    23.378435    21.883972    9186.3634    1309.4073    2750.3424    1894.5677    494.83009   -86.206343   -147.16748   -4044.6067 
23274000    130.56177   -4495.5551   -4271.7767   -4495.5551            0    1922.3353    17.776276    23.576971    21.990642     9216.514    2094.3634    1233.4064     2439.236   -973.31241   -234.60985   -457.77831    -4013.389 
23275000    119.04797   -4497.7521   -4293.7079   -4497.7521            0    1907.9754    17.996213    23.264038    21.917042    9175.8889    1887.6783    2029.3186    1806.9292   -565.67009    251.15594   -266.94736   -4038.3809 
23276000    128.62914   -4506.3771   -4285.9111   -4506.3771            0    1911.5462    17.924203    23.276698    22.016469    9185.6293    1111.9116    2663.3855    1959.3413    739.93912    678.16826    259.63353   -4029.8347 
23277000    127.04516   -4504.1511      -4286.4   -4504.1511            0    2529.2707    17.784288    23.521214      21.8721    9149.2754    2714.2985    2315.7636    2557.7501   -575.78316    440.11669   -48.797395   -3948.9124 
23278000    121.95826   -4516.6377   -4307.6055   -4516.6377            0    2146.6025    18.005601    23.274393    21.886083    9171.7887    2906.4347    1769.3043    1764.0686    67.894539    451.36894    330.51901   -4020.4735 
23279000    121.20584    -4523.148   -4315.4054    -4523.148            0    2722.3181    17.953361    23.317704    21.847663    9146.1125     2294.022    3108.5848    2764.3475    385.62507    38.565894    24.467981   -3952.2844 
23280000    124.44578   -4499.8972   -4286.6014   -4499.8972            0    2589.1333    17.885802    23.484481    21.835991    9171.9625    2041.1008    2562.0605    3164.2387    159.39748    -410.2401   -207.86568   -3940.2695 
23281000    130.56734   -4504.7215   -4280.9335   -4504.7215            0    2477.5136    18.072181    23.272278     21.79201    9165.3016    1960.8867    2520.9255    2950.7287   -268.72113    142.58505    219.22133   -3949.7729 
23282000    124.32221    -4504.971    -4291.887    -4504.971            0     1961.653    17.963536      23.3416    21.911588    9187.4774     2710.324    2803.9244    370.71069    137.75753   -65.491698   -597.78295   -4029.0452 
23283000    132.66952   -4522.2689   -4294.8779   -4522.2689            0    2967.9791    17.928861    23.355068    21.836552    9143.6148    2846.6217    2828.6195    3228.6961   -200.21594    72.237582    144.05071   -3899.0972 
23284000    124.51383   -4523.1158   -4309.7033   -4523.1158            0    1896.0293    18.026198    23.288287     21.88922    9189.0783    1658.2095    1913.3617    2116.5167    1358.3619    209.01954     132.0858   -4055.6102 
23285000     120.6945   -4521.7537   -4314.8875   -4521.7537            0    3061.3767    17.974327    23.207742    21.885336    9129.3266    2588.3649    2843.8084    3751.9567    161.77451   -376.43853   -55.893474   -3907.2901 
23286000    116.76237   -4507.7298   -4307.6031   -4507.7298            0    2551.8232    17.871913    23.234769    21.976205    9125.6139    1912.5929    3389.1329    2353.7437   -406.85704    -65.54903     50.03896   -3967.9867 
23287000    128.33747    -4513.601   -4293.6349    -4513.601            0    1920.2329    18.102708    23.235838    21.824025    9179.8743    2118.1953    867.21454    2775.2889   -224.81095    -664.1884    292.08073    -4036.556 
23288000    128.18178   -4519.3695   -4299.6703   -4519.3695            0    1644.1232    18.039286    23.501236    21.730267     9212.449    759.32325    807.66958    3365.3768    109.86214    531.69543    19.940815   -4078.7756 
23289000    120.87151   -4500.5859   -4293.4163   -4500.5859            0    3040.9677    17.948662    23.327459    21.876015    9159.4147    2664.7947    2583.8207    3874.2877     -254.842    113.08935   -91.763358   -3887.2018 
23290000    120.61005   -4509.4351   -4302.7136   -4509.4351            0    2165.5306    17.993978    23.180618    22.056099    9199.8531    1720.4765    1957.3138    2818.8014   -684.62566    18.017541    428.44878   -4012.1634 
23291000    124.68125   -4516.9109   -4303.2115   -4516.9109            0    2395.6393    17.791033     23.39489     22.07771    9189.1681     2765.509    2177.2648    2244.1441    694.57359    646.33703    35.426316   -3982.1609 
23292000    123.15921   -4512.1559   -4301.0652   -4512.1559            0    1490.1467    17.894857    23.376062     21.98771    9197.7071    2318.1566    1454.4638    697.81958   -261.32201   -9.5827247    62.233712   -4101.1782 
23293000    122.74966   -4502.1238   -4291.7351   -4502.1238            0    2093.9252    18.064805    23.349111    21.799808    9195.0965    2355.3292    2109.7999    1816.6464    168.23203   -249.35757   -255.17959   -4010.9375 
23294000    130.68337   -4519.1605   -4295.1737   -4519.1605            0    1524.1652    18.098731    23.291998    21.860583    9215.4512    1902.6062    1669.7252    1000.1642   -82.466403    603.31191     331.4366   -4090.3291 
23295000    113.69311    -4515.171   -4320.3049    -4515.171            0     2735.928    17.853617    23.557454    21.768921    9155.6984    3402.7329    1348.8221    3456.2291   -429.74862   -75.905633   -25.357797    -3954.986 
23296000    128.14075   -4510.9503   -4291.3215   -4510.9503            0    2675.8469    17.970443     23.40143    21.860427    9193.0544    3585.5283    2471.8393     1970.173    228.90945   -134.73111   -317.04413   -3932.5673 
23297000    123.04841   -4518.7982   -4307.8974   -4518.7982            0    2884.0189    18.074395    23.190751    21.872794    9168.1737    2824.7005    2464.8455    3362.5107    258.80179   -294.09699    663.99733   -3922.2798 
23298000    124.16617   -4507.3655    -4294.549   -4507.3655            0    2202.7733    17.889176    23.494501    21.890213    9200.3963    2912.0782    1526.5806    2169.6612   -216.39003    -19.34853    684.32431   -3998.9845 
23299000    127.02102   -4509.5619   -4291.8522   -4509.5619            0    1927.1726    17.940783    23.417564     21.94155    9218.2911     2388.353    911.88171    2481.2831   -294.70747   -93.371303    336.74654   -4032.7644 
23300000    123.42343   -4513.9554   -4302.4119   -4513.9554            0    2471.1567    17.996884    23.174352    22.019948    9183.7744    1078.0152    3127.3518    3208.1031    39.546171    126.03559    349.55754   -3971.4352 
23301000    129.79001   -4514.1317   -4291.6761   -4514.1317            0    877.84733    18.013015    23.381733    21.992323    9262.6279   -127.39875     1686.329    1074.6117    221.18011   -75.566122    332.96131   -4173.0913 
23302000    128.39951   -4522.6971   -4302.6247   -4522.6971            0    877.02431    18.015682    23.412784    21.938484    9253.5928    1022.9754    355.44194    1252.6556     547.0054    383.24938   -57.326611   -4184.2666 
23303000    121.68534   -4515.0619   -4306.4973   -4515.0619            0    2183.1338    17.897401     23.44999    21.905346    9193.5397    2229.0508    1061.4546     3258.896    583.19782    559.54361    290.98559   -4013.7864 
23304000    127.26676   -4508.5352   -4290.4043   -4508.5352            0    1911.0929    17.904944    23.319481    22.047503    9205.5822    2669.5847    2051.2996    1012.3945   -537.83767   -462.54976   -123.43222   -4033.8325 
23305000    121.73938    -4513.871   -4305.2138    -4513.871            0    1946.9122    18.009181    23.329624    22.008617    9246.8635    2833.4053    1667.2217    1340.1096   -349.94934   -393.34098     819.2469    -4042.661 
23306000    129.15281   -4503.3112   -4281.9477   -4503.3112            0    1549.1855    17.845588    23.601368    21.966818    9251.9906    1716.1603    1172.9747    1758.4214   -186.70955    298.78524   -53.171139   -4072.9149 
23307000    127.02471   -4514.8546   -4297.1386   -4514.8546            0    2995.8943    17.960652    23.204615    21.987115    9163.5704    3236.0342    3865.4139    1886.2348   -67.370046    75.873419    384.91706   -3896.7634 
23308000    126.35359   -4511.5171   -4294.9514   -4511.5171            0    3157.0101    17.906247    23.335816    21.920417     9159.597    4059.4126    3384.4607    2027.1571    340.23069    205.02655    407.28666   -3873.2274 
23309000    122.86871   -4504.5953   -4294.0026   -4504.5953            0    2344.6043    17.985017    23.287509     21.97471    9203.5857    1929.1762     3039.576    2065.0606    353.94819    345.92546   -125.32145   -3979.2984 
23310000    118.09348   -4518.2743   -4315.8661   -4518.2743            0    2347.4251    18.002998    23.332075    21.880796    9190.9691    1890.1768    2676.0796    2476.0188    23.088314    302.50239   -477.35596   -4001.2153 
23311000    125.28413   -4514.3772   -4299.6445   -4514.3772            0    1226.8514    18.009004    23.419602    21.920082    9245.0949    1484.9892    1302.8383    892.72659   -508.62436    223.57257    166.17179   -4134.2279 
23312000     126.1982   -4505.5129   -4289.2135   -4505.5129            0    1951.0748     18.01846    23.393509    21.857117    9213.1029     2177.944    2295.9669    1379.3136   -55.559775    -1.599961    90.618691   -4027.0599 
23313000    135.16263   -4512.6106   -4280.9465   -4512.6106            0    2801.9176    17.985069     23.23676    21.902628    9153.4311    2747.3957    2178.8259    3479.5311     235.6727   -714.67272    288.57675    -3906.909 
23314000    126.85304   -4520.0149   -4302.5931   -4520.0149            0    2142.2991    17.806655    23.424598    22.061925     9202.332     2276.734    2178.4495    1971.7137   -437.71908    620.38896   -37.363315   -4015.0825 
23315000    126.47902    -4527.684   -4310.9033    -4527.684            0    2009.2072    18.005361    23.199524    21.993831    9187.1706    1130.6087    1336.3074    3560.7055   -281.45812    3.5046434    410.41111   -4041.6988 
23316000    128.53989   -4504.4883   -4284.1753   -4504.4883            0    2750.2895    18.046034    23.222673    21.927908     9189.485    2957.9283    2848.2699    2444.6703    699.67274    76.068889     91.38607   -3915.5837 
23317000    122.63167   -4525.1406   -4314.9541   -4525.1406            0    1911.9051    17.880612    23.446056    21.899136    9180.7713    2392.0021    1863.3103    1480.4028    9.6233863    152.93816    531.06667    -4058.965 
23318000    123.78003   -4513.9908    -4301.836   -4513.9908            0    1262.6188    18.000545    23.345649    21.894987    9201.0267    855.94832     1328.568      1603.34   -820.92642   -678.32993    331.91199   -4132.4083 
23319000    118.50875   -4520.1533   -4317.0334   -4520.1533            0    3137.1807    17.942385    23.324819    21.828357      9135.23    2622.2313    2610.6638    4178.6471    41.113005   -117.12438    379.93092   -3899.0732 
23320000    128.57301   -4522.1141   -4301.7444   -4522.1141            0    2359.9565    17.864585    23.440488    21.906131    9173.2933    2937.4872    1763.7587    2378.6236    228.85456    107.33921    280.00261   -3986.0221 
23321000    128.38434   -4521.7512   -4301.7048   -4521.7512            0    756.69665    17.904503    23.292096    22.162634    9242.5583    118.02001    1160.5928    991.47717    37.577032    136.65268   -336.98906   -4199.7073 
23322000    137.38546   -4508.8502   -4273.3762   -4508.8502            0    1670.0985    18.010429    23.216821    22.053226    9221.4441     1414.982    1745.9201    1849.3933   -225.86635    484.91439    79.502584   -4048.7725 
23323000    119.28982   -4520.5474   -4316.0887   -4520.5474            0    2177.7048    18.008389    23.253695     21.94595    9190.1207    1802.9176     1833.892    2896.3049   -716.64794    242.05205    166.08746   -4024.2142 
23324000    124.21847    -4516.859   -4303.9528    -4516.859            0    1834.9785    17.858691    23.417733    22.004748    9202.6069    1876.9153    1417.9289    2210.0914    557.62538    52.092316    270.93053   -4057.6792 
23325000    125.15881   -4516.9719   -4302.4539   -4516.9719            0    1418.6261    17.898791    23.365297    22.003611    9202.1431    1295.1912    1224.7943    1735.8928    397.42017   -364.64621    271.66911   -4112.0689 
23326000    123.14765   -4514.0421   -4302.9712   -4514.0421            0    1978.6833    18.166671    23.197944    21.888392     9224.412    1512.1552    1806.0794    2617.8153   -488.08226   -22.238608   -142.71298   -4036.7817 
23327000    127.10362   -4527.8248   -4309.9736   -4527.8248            0    1622.0561    18.032004     23.49804    21.762134    9220.9805    1997.0684    798.96103    2070.1388    56.089914    291.19848   -230.32272   -4091.8418 
23328000    128.87205   -4496.2658   -4275.3835   -4496.2658            0    2966.9462    17.856933     23.45792    21.862304    9157.8244    3808.9612    2028.6444    3063.2331   -245.95661   -208.95826    393.45844   -3879.1256 
23329000    128.14686   -4522.5169   -4302.8775   -4522.5169            0    2084.0118    18.031833    23.236899    21.917569    9183.5464    1663.4408    1844.3818     2744.213   -556.36461   -442.32045   -190.75202   -4023.7604 
23330000    133.19579   -4509.9827   -4281.6896   -4509.9827            0    2446.6622    18.033257    23.239698    21.861349    9161.8167    1367.6273    2706.0527    3266.3066    480.39269    392.81227    795.54241   -3954.7771 
23331000    119.03541   -4501.4743   -4297.4517   -4501.4743            0    2080.2426    17.971056    23.290397     21.93509    9180.9983    2005.7276    1926.8531    2308.1471    453.37437   -491.21962   -249.95625   -4018.9167 
23332000     123.9042    -4524.251   -4311.8834    -4524.251            0    475.50674     17.91275     23.41475    22.059599    9252.2938    963.02737   -106.57912    570.07196    95.417503   -100.34995   -210.35328   -4247.7208 
23333000    120.54516   -4518.1199   -4311.5096   -4518.1199            0     2901.926     17.86019    23.286687    22.017762    9157.2897    3249.1602    2443.4748    3013.1431    561.84155   -78.410097   -320.14789   -3923.9583 
23334000    134.00029   -4509.8939    -4280.222   -4509.8939            0     1981.892    17.860428    23.376794    22.080739    9219.1404    1757.7873    2239.0702    1948.8186    67.600322   -648.79655    482.91784   -4013.7532 
23335000    122.82069   -4508.8526   -4298.3421   -4508.8526            0    1994.8254    17.843702    23.334358    21.983655    9153.3637    2372.0648    2551.5418    1060.8697    179.76403   -426.29185   -207.16799    -4032.048 
23336000    128.30256    -4518.814   -4298.9078    -4518.814            0    1523.7509    17.944817    23.342661    21.992952    9212.4032    2069.1043    1058.8916    1443.2569   -35.078147    117.75121    125.41163   -4094.1866 
23337000    124.29233   -4520.5182   -4307.4854   -4520.5182            0    1918.5163     17.96087    23.266209    21.934774    9166.1326    2068.6117    1255.6964    2431.2406   -266.44507   -104.19967    129.64258   -4051.0208 
23338000     128.3739   -4505.6616   -4285.6331   -4505.6616            0    2413.0609    17.792912    23.440565    21.975252    9165.3483    3679.0833    2236.4867    1323.6128    65.374418   -250.56992   -249.64307    -3963.086 
23339000    118.56706   -4515.2609    -4312.041   -4515.2609            0    2331.7258    17.893922    23.351507    21.925925    9161.7488    2625.9233     2482.504      1886.75   -452.66856    150.49662   -4.3126972   -4000.4882 
23340000    119.84099   -4501.8475   -4296.4441   -4501.8475            0       2242.7    18.005291    23.162957    22.064392    9202.0822    2030.6084    2552.3419    2145.1496    -273.9468   -69.206735    662.99458   -3995.4672 
23341000    123.09464   -4525.8271   -4314.8471   -4525.8271            0    3119.7341    17.863258    23.274987    21.981015    9138.9826    3219.2391    2456.2895    3683.6738   -471.23043    44.611989     217.6419   -3899.0405 
23342000    131.05789   -4512.9364   -4288.3076   -4512.9364            0     2855.835    17.902325    23.289605    21.975084    9162.2494    2734.3395    2929.5122    2903.6533    94.925641   -126.21388   -234.18381   -3906.7052 
23343000    123.57055   -4521.8561   -4310.0604   -4521.8561            0     2226.412    17.943225    23.369741    21.921735    9192.4087    1804.7606    1980.3386    2894.1366    -189.8452   -38.153539    171.17358   -4011.5835 
23344000    124.33343   -4514.1703   -4301.0671   -4514.1703            0    1765.4891    18.055472    23.338204    21.850273    9207.3179     1809.182    1209.4397    2277.8457   -306.27857   -124.91662   -14.615687   -4063.9985 
23345000    122.22415   -4519.5012   -4310.0132   -4519.5012            0    2542.4493    18.015207    23.220649    21.952516    9183.2815    2013.5888    3125.8594    2487.8998   -188.92667    -73.39926   -205.63373   -3969.5062 
23346000    132.63587   -4519.1667   -4291.8334   -4519.1667            0     1606.837    17.993429    23.317079    21.896322    9186.6937    2231.8103     1208.026    1380.6746    467.70721    20.561004   -286.87436   -4076.5517 
23347000    127.15006   -4515.6173   -4297.6864   -4515.6173            0    1484.8597    17.920652    23.557242    21.867957    9231.8016    1711.3515    313.47669    2429.7509    14.891406   -205.82307    666.55266   -4097.7703 
23348000    122.00902   -4523.0857   -4313.9664   -4523.0857            0    2286.7493    18.040119    23.335074    21.830087    9189.7572    2532.4694    2798.7249    1529.0537   -350.85242   -20.941234    229.49256    -4007.489 
23349000    124.73992   -4510.9144   -4297.1144   -4510.9144            0    1861.0003    18.005247     23.33217    21.912229      9205.36    1567.8027     2446.339    1568.8593    -807.8484   -363.81352    328.75055   -4047.2738 
23350000    118.28164   -4512.6918   -4309.9611   -4512.6918            0    2040.3023    17.897507    23.493234    21.848232    9186.5333    2397.1767    1316.3112    2407.4189    615.82747   -83.351287   -533.23577   -4036.6092 
23351000    124.14217   -4529.5704    -4316.795   -4529.5704            0     1104.773    17.980274    23.409486    21.943937    9236.3999    171.97018    1375.3117     1767.037   -411.41635      -190.44    375.21084   -4167.9783 
23352000    132.73278   -4516.1547   -4288.6553   -4516.1547            0    2591.7307    18.020056    23.111297    22.050405    9183.2631    3738.1779    1447.2441      2589.77    470.45081    15.062326   -363.95865   -3941.5487 
23353000    124.89723    -4502.806   -4288.7364    -4502.806            0    2768.7566    17.889376    23.248791    22.020434    9158.4389    2420.4943    2973.9021    2911.8734    582.12376    49.508822    -70.72679   -3918.9235 
23354000    125.57049   -4516.0365    -4300.813   -4516.0365            0    2237.3288    17.874451    23.440495    21.920763    9184.4921    2072.6569    1686.0184     2953.311    386.09488    327.14504    297.93226   -4001.1309 
23355000    129.36607   -4509.6071   -4287.8781   -4509.6071            0    1753.3052    18.064317    23.145915    21.976622    9188.7587    1003.8925    1376.2805    2879.7426   -50.697749    102.66841    481.70612   -4052.9201 
23356000     119.9505   -4522.2934   -4316.7023   -4522.2934            0    1677.0244    18.000863     23.26437    21.995306    9211.1664    1250.8046    1778.0721    2002.1965    959.06614    -271.0092    444.46121   -4091.4185 
23357000    117.30879    -4511.756   -4310.6928    -4511.756            0     1881.852    17.845427    23.579212    21.944972    9234.0296     2072.286     1676.411    1896.8591   -549.39352    488.66809    134.22372   -4057.2659 
23358000    121.27747   -4507.3802   -4299.5148   -4507.3802            0    2539.3137     17.96772    23.322756    21.902497    9178.3893    2970.1007    2999.9047    1647.9357   -193.71318     362.2028    842.37312   -3959.6089 
23359000    122.76795   -4515.8282   -4305.4082   -4515.8282            0    1901.0157    17.984245    23.436015    21.816008    9194.9896    1777.3694     1585.094    2340.5836   -66.385362    215.00978   -243.17104   -4050.4829 
23360000    116.75666   -4502.4322   -4302.3153   -4502.4322            0    1780.7993    17.869134    23.479938    21.861038     9172.152    944.42318    2034.0851    2363.8897    17.417856     456.3284   -152.19628   -4064.1041 
23361000    123.47956   -4506.1364   -4294.4967   -4506.1364            0    2035.9092    18.067652    23.280804    21.789721     9165.399    1569.1183    1810.7185    2727.8908    454.26409    202.77715    519.74454   -4022.3609 
23362000    121.80457   -4508.7249    -4299.956   -4508.7249            0    2263.4352    18.044084    23.253468    21.911858     9193.942     1293.853     2470.547    3025.9056   -219.40666    558.64425   -28.674363   -3996.4651 
23363000     124.7171   -4516.1185   -4302.3577   -4516.1185            0    1706.8243    18.077042    23.129957    22.002323    9199.6376    1461.6275    1737.5455    1921.2998    400.35759   -469.66496   -18.471523   -4073.3577 
23364000    126.64957    -4498.677    -4281.604    -4498.677            0    1833.1663    17.796886    23.468647    22.055077    9211.7181    1767.3224     2282.939    1449.2376   -369.49478    201.23456   -181.83683   -4035.3301 
23365000    129.09532   -4508.3866   -4287.1217   -4508.3866            0    1844.0697    17.815585    23.467764    22.011499    9202.8306    2457.9909    2204.4078    869.81057    434.95028   -75.600811   -428.34644    -4039.622 
23366000    127.81518   -4525.9292   -4306.8584   -4525.9292            0    2603.8397     17.96241    23.181134    21.972519    9149.1159     2650.289    2293.3114    2867.9186   -351.03256   -694.90265   -157.95061   -3959.4268 
23367000    117.74265   -4517.9074   -4316.1005   -4517.9074            0     2008.069    17.968752    23.248759    21.953652    9171.1637    1847.1232    2248.6578    1928.4261   -104.23366    749.94846    -9.565482   -4047.5172 
23368000    124.57929    -4521.103   -4307.5784    -4521.103            0     2084.488    17.837453     23.41773    21.964008    9174.6446    2159.8196     1643.568    2450.0763   -59.770699    308.94109   -23.759766   -4028.6681 
23369000     125.9444   -4510.1972   -4294.3328   -4510.1972            0    1974.3791    17.876211    23.319539    22.051166    9192.3591    2234.6264    2924.2589    764.25194   -202.80467    46.220799    314.02231   -4029.6453 
23370000    120.27596   -4509.3081   -4303.1592   -4509.3081            0    2728.3439     17.97621    23.106766     22.05446    9160.8065    2952.0544    2656.4352    2576.5421   -185.01887   -272.56914    95.303719   -3938.6498 
23371000    127.10856   -4523.6136   -4305.7538   -4523.6136            0    2288.1076    17.836227    23.436047    21.931982    9167.8022    2541.9065    2634.9193    1687.4969    528.60317    364.85494   -27.843376    -3999.827 
23372000    129.61951   -4509.4477   -4287.2843   -4509.4477            0    2253.7189    17.919773    23.403301     21.87686    9174.7579    2133.4408    2111.7373    2515.9786   -428.59267    409.79994    85.302699   -3985.7267 
23373000    117.48523   -4516.8725   -4315.5068   -4516.8725            0     2004.507    17.980334    23.228627    22.024997    9198.9267    2591.4779    2573.1837    848.85947    329.98118   -539.50468   -337.81248   -4046.5884 
23374000    125.43549    -4504.235   -4289.2428    -4504.235            0    1113.0673    17.989578    23.314925     22.04143    9244.7416     319.6793    2873.1261    146.39642   -1114.4993    212.75549    158.06683   -4139.1734 
23375000    130.81652   -4505.3276   -4281.1125   -4505.3276            0    1557.7283     17.68334    23.607818    22.041715    9201.6459    2270.9125    2358.2943    43.978269    350.71511   -252.46298   -152.27732   -4072.0707 
23376000     121.5714   -4507.8442    -4299.475   -4507.8442            0    2895.9463    17.882862    23.311062    21.961521    9155.0663    3036.8826    2785.5337    2865.4227   -26.721296    36.705981    292.20579   -3912.8162 
23377000    128.44189   -4513.3033   -4293.1583   -4513.3033            0    2914.0648     18.02033    23.036387    22.057532    9156.5956    2580.0578    3703.5981    2458.5384    760.26438   -597.89426   -209.06515   -3904.0154 
23378000    123.36192   -4511.0523   -4299.6142   -4511.0523            0    1776.4362    17.860958    23.503687    21.946076    9212.9267    1982.7518    1177.3552    2169.2016    445.17117   -66.028907    199.22019   -4060.9303 
23379000    129.73234   -4509.4724   -4287.1157   -4509.4724            0    2474.3839    17.944208    23.338225    21.887252     9166.074    2627.8993    3109.7837    1685.4686   -147.13363    -168.0382     489.9788   -3956.3455 
23380000    115.75428   -4505.9665   -4307.5677   -4505.9665            0    2425.9489    17.963833    23.168706    22.050989    9177.5945    1516.3945    3557.0332    2204.4191   -20.356666   -198.14831   -111.35309   -3982.8646 
23381000    124.25661   -4525.8634   -4312.8919   -4525.8634            0    3278.5592    17.838469    23.248883    22.011569    9128.7361    3860.9961    3903.5158    2071.1656    329.37598      89.2535    216.76699   -3876.4066 
23382000    128.75124   -4507.2143   -4286.5391   -4507.2143            0    2029.3437    17.849462    23.275253    22.124088    9191.4689    2084.8915    2768.3697    1234.7699    210.24458   -439.69231   -305.78197   -4014.5093 
23383000    131.83943   -4533.3871   -4307.4188   -4533.3871            0    1942.3716    17.957295    23.317449    21.934755    9184.4837    1051.0867    2425.7406    2350.2876     223.8123   -236.73927     356.9437   -4047.2454 
23384000    122.01495   -4522.0755   -4312.9461   -4522.0755            0    2256.8031    18.041369    23.231453    21.892181    9175.6089      2205.04    1751.7304    2813.6389    308.49256   -422.57255    -699.2128   -4010.9478 
23385000     122.6877   -4528.1466   -4317.8641   -4528.1466            0    2821.2425    17.943749    23.237303    21.924777    9141.8501    2582.3852    3255.7602     2625.582    531.25398    443.81975   -287.86001   -3941.7234 
23386000    123.98579   -4513.9382   -4301.4308   -4513.9382            0    1486.1358    17.907326    23.470481    21.991139    9242.7344    1808.9952    882.71882    1766.6933   -608.93157    184.22685    389.44176    -4101.106 
23387000    121.18521   -4519.6984   -4311.9911   -4519.6984            0    1196.3259    17.991479    23.402892    21.941003    9238.3167    184.79023    438.51945    2965.6681    469.61004    119.12079     10.54607   -4150.8085 
23388000    129.68046   -4521.1259    -4298.858   -4521.1259            0    2191.3196    18.072657    23.436253    21.682446    9183.7161     2266.923    1936.4573    2370.5786   -413.69085    12.570558    142.35521   -4005.3635 
23389000    116.91487   -4523.4057   -4323.0176   -4523.4057            0    2478.4418    17.905818     23.46295    21.788039    9153.6628    2934.0398     2601.847    1899.4386   -172.59108    -308.8493    301.90867   -3992.1536 
23390000    121.60604   -4511.2803   -4302.8517   -4511.2803            0    1804.9187    18.029925    23.308738    21.901822    9204.3458    1172.4691     1185.712     3056.575   -237.49621   -133.47143    638.21845   -4060.5667 
23391000    113.60015    -4510.338   -4315.6312    -4510.338            0    2839.4752     18.03621    23.206933    21.877379     9157.108    2361.5467    4060.7441    2096.1348    394.68276    -578.4341     275.9396   -3936.4277 
23392000    120.64163   -4515.5821   -4308.8065   -4515.5821            0     1923.514    17.915527    23.383364    21.967416    9202.7065    2818.4372    1866.9056    1085.1991    117.89904    235.04215    29.659788   -4050.6478 
23393000    123.20804   -4521.5888   -4310.4145   -4521.5888            0    1939.6789    17.890567    23.448508    21.917201    9194.4218    1501.0832     2100.379    2217.5744   -140.63505   -29.178143    210.48452   -4050.3206 
23394000    118.56396   -4504.9848   -4301.7702   -4504.9848            0    1915.9393    18.073577    23.199829    21.987499    9219.4442     1431.343    3527.0306    789.44413   -303.05677   -199.44454    294.36824   -4044.1604 
23395000    127.02337   -4504.0143   -4286.3006   -4504.0143            0    1510.7555    17.996055    23.315289    22.026759    9242.0586    1202.3574    1793.5968    1536.3124    459.74604   -360.35856   -332.01082    -4082.672 
23396000    126.51099   -4526.0795   -4309.2439   -4526.0795            0    1742.6715    17.895058    23.461161    21.922895    9204.0824     1650.597    1352.0312    2225.3861   -402.31886   -152.38253    39.018061   -4075.3215 
23397000    120.32851   -4520.2695   -4314.0305   -4520.2695            0    2987.1918    17.969822    23.258799    21.930344    9165.9293    2443.4723    3465.4266    3052.6765   -749.39898    -230.9453    -203.3505   -3914.7156 
23398000    119.08844   -4519.1486   -4315.0351   -4519.1486            0    1953.9318    18.118296    23.223249     21.90566    9217.1501    1876.3733    2124.8828    1860.5393    151.87126    324.10436   -164.51518   -4052.3823 
23399000    127.57177   -4501.7533   -4283.0996   -4501.7533            0    2137.1206    17.972895    23.478743    21.830723      9212.15    2295.5029     533.5837    3582.2753    -1045.213   -54.600015    269.39489    -3995.978 
23400000    123.67554   -4517.3162   -4305.3405   -4517.3162            0     2138.095    18.007012    23.383125    21.824661    9189.4964    1973.4625    3179.7436    1261.0788   -304.09043   -231.95441    40.148563   -4018.7944 
23401000    127.35765   -4508.2368   -4289.9502   -4508.2368            0    1771.5615    18.059427    23.290197    21.852326    9191.2547    1778.8166    2024.8364    1511.0314     557.7831   -865.73108    144.56308   -4052.4812 
23402000    120.09289   -4525.3155   -4319.4804   -4525.3155            0    1571.0877    18.059147    23.362694    21.810542    9202.0931    900.38119    1780.6099     2032.272    832.78009   -164.62861   -472.84047   -4108.6356 
23403000    124.39275   -4509.9455   -4296.7405   -4509.9455            0    2098.1286    17.869315    23.508088    21.848526    9177.9852    2279.0725     1769.753    2245.5605   -338.94531    148.45005    327.78726   -4015.9029 
23404000    121.50961   -4519.6078   -4311.3445   -4519.6078            0    2774.2194    18.117987    23.275847    21.746036    9170.5531    2268.9951    2597.3695    3456.2935   -538.74876   -327.05336    170.92111   -3940.3118 
23405000    127.13515   -4523.5565   -4305.6512   -4523.5565            0    2370.4586    18.008448    23.293077    21.883167    9179.3794    1254.2563    2745.4486     3111.671   -702.50165   -567.92366    46.357191   -3988.3136 
23406000    117.19281   -4527.0721   -4326.2076   -4527.0721            0    2209.5708    17.795208    23.463503     22.03152    9198.9951    2870.7746     2584.919    1173.0188    784.85401    444.37529   -534.46713   -4029.7762 
23407000    123.19621   -4519.4744   -4308.3204   -4519.4744            0    2092.3077    17.846077    23.365068     22.03013    9186.0092    1663.1229    2460.9191    2152.8811   -434.90949   -326.27932    -77.14881    -4028.017 
23408000    122.10077    -4518.488   -4309.2114    -4518.488            0    1190.7023    18.065222    23.209262    22.003682    9225.7142    854.04049    1779.6521    938.41415     220.2865   -254.63497    409.12123   -4149.0053 
23409000    123.15761   -4513.1549    -4302.067   -4513.1549            0    2772.1436    17.914227    23.404035     21.89237    9178.7088    3549.6558    2140.1701    2626.6049     33.14396   -221.29055   -267.21224   -3930.9821 
23410000    124.48277   -4500.3951   -4287.0359   -4500.3951            0    2119.4793    17.911073    23.506071     21.83356    9192.3424    1660.0346    1556.0916    3142.3118   -161.98264   -230.09622    266.58098   -4002.8966 
23411000     122.8621   -4527.0065   -4316.4251   -4527.0065            0     2657.184    18.035444    23.248291    21.817143    9147.7809    2309.8177     2887.311    2774.4233   -51.778265     300.8103    151.00034   -3961.9275 
23412000    120.61582   -4513.8139   -4307.0826   -4513.8139            0    2330.0929    18.013007    23.173446    21.992853    9180.3323    1035.9922    2945.1934     3009.093    243.80335    -226.4603    153.80307   -3995.1164 
23413000    125.46046   -4513.4538   -4298.4189   -4513.4538            0    2258.2927      17.7484    23.457637     22.05297    9181.4353    3350.2342    1568.5344    1856.1096     158.3865    46.253981    288.59012   -3996.0294 
23414000     127.8924   -4528.4191   -4309.2159   -4528.4191            0    1679.4619    17.904953    23.342569    21.988445    9190.0176    1854.9791     1223.094    1960.3125    497.82488   -428.95683   -677.51033   -4084.1227 
23415000    120.92777   -4508.9613   -4301.6953   -4508.9613            0    2965.2797    17.793621    23.170489    22.159408    9136.0338    3185.3104    3650.5284    2060.0002    552.78342   -666.75139    74.449519   -3906.6024 
23416000    129.17359   -4515.6491     -4294.25   -4515.6491            0    1626.6808    17.947416    23.285308    22.074156    9225.0351    2718.5555    1602.5842    558.90251   -682.58225    266.40808    445.98962   -4075.4002 
23417000    112.86884   -4508.0679   -4314.6146   -4508.0679            0    2733.4396    17.825379     23.43741    21.924329    9159.5621     3209.641    2015.1019     2975.576   -399.43583    -774.2431   -146.08038    -3949.474 
23418000    131.96749   -4510.2226   -4284.0349   -4510.2226            0     1331.132    17.857698    23.367482    22.111746    9226.9981    2243.6456    1341.9079     407.8425    182.47822    368.94268    357.32782   -4104.9094 
23419000    128.48145   -4506.3888    -4286.176   -4506.3888            0    2523.6401    17.948356    23.186759    22.012877    9160.9713    2962.3163    2982.7729     1625.831    82.423617   -46.748744    470.44187   -3949.0092 
23420000    124.19309   -4513.5705   -4300.7078   -4513.5705            0    1943.3187    17.961245    23.257884    22.015573    9196.7979    1849.5129    1687.2449    2293.1983    8.1905326    65.431076    603.46553   -4040.0585 
23421000    127.75755   -4521.6338   -4302.6617   -4521.6338            0    1287.7039    17.981417    23.493797    21.816178     9216.283    1263.9743    1068.8118    1530.3257    846.32585   -98.560949    228.23624   -4129.5814 
23422000     123.2981   -4517.3057   -4305.9769   -4517.3057            0    2127.5898    18.222201    23.124786    21.780565    9177.9926    539.14695    2864.1626      2979.46    339.45323    42.212052    566.51605   -4021.1956 
23423000     119.5972   -4511.8608   -4306.8753   -4511.8608            0    931.74978    18.098013    23.330971    21.852195    9226.9631    126.50708    1755.3966    913.34562     70.19008   -224.14932    218.00705   -4181.4936 
23424000    120.38054    -4517.484   -4311.1558    -4517.484            0    2847.9398     17.89395    23.392225    21.815071    9131.3372    3718.8255    2260.3136    2564.6804   -324.21556    370.37492    70.064254   -3931.8923 
23425000    126.80975    -4512.942   -4295.5944    -4512.942            0     2194.234    17.867115    23.424065    21.923031    9175.2371    2132.1386    1661.5639    2788.9994   -381.13284    130.16685    77.928594   -4001.9808 
23426000    126.52795    -4522.571   -4305.7064    -4522.571            0    1910.3308    17.823302    23.367378    22.029654    9174.9947    3148.8704       2319.5    262.62211   -605.01799    229.58478    262.10079   -4050.0891 
23427000    122.36623   -4496.0786   -4286.3471   -4496.0786            0    1813.2278    17.960216    23.187404    22.073064    9192.3446    1977.3638    2382.7899    1079.5298     106.3754   -126.25501   -141.05798   -4043.2641 
23428000    122.00596   -4502.4533   -4293.3393   -4502.4533            0     1471.204    17.953236    23.410005     21.94734    9224.1456    2482.3945    573.30912    1357.9084   -63.339929   -170.07693    130.68571    -4095.426 
23429000    121.58724   -4512.4845   -4304.0882   -4512.4845            0    2566.7827    17.921694    23.396567    21.854668    9163.7961     2157.577    2500.1399    3042.6313   -276.81961   -249.33668   -354.57533   -3961.0516 
23430000    122.39746   -4514.6509   -4304.8659   -4514.6509            0    1762.8432    17.945321    23.369807    21.925079    9194.9108    1052.2579    2448.6191    1787.6528    2.3593223    118.46392    193.24423   -4068.4715 
23431000    127.69455    -4516.292   -4297.4279    -4516.292            0    1732.0384    17.851217    23.352244    22.037306    9186.6034    2354.9757    1712.2496    1128.8899   -965.97823    422.43336   -280.78038   -4065.3743 
23432000    128.40068   -4503.4637   -4283.3893   -4503.4637            0    2503.9154    17.895803    23.337442    21.975092    9177.7272    2709.8297    2049.2254    2752.6912   -1389.6164   -251.90715   -433.49697   -3948.2459 
23433000    125.36368   -4525.3295   -4310.4605   -4525.3295            0    2241.5722    18.028454    23.217718    21.888507    9162.0818    2370.0798    1862.1023    2492.5346   -107.35308    169.93804    6.9280942   -4010.9426 
23434000    122.04204   -4515.3997   -4306.2238   -4515.3997            0    2264.4894    17.997905    23.394372    21.733316    9150.8058    1538.3809    1821.6727    3433.4145   -584.64017    177.31084    168.19922   -4004.0161 
23435000    124.66014   -4502.6168   -4288.9536   -4502.6168            0    1929.1547    18.032174      23.3295    21.863462    9197.5562    2573.9276    1385.8759    1827.6607   -278.29491   -205.92167    393.99395   -4030.1827 
23436000    125.37689   -4505.3356   -4290.4439   -4505.3356            0    1906.7432    17.965784    23.469586    21.782534    9184.5947    2220.4628    1997.9001    1501.8667     -1021.44   -140.76373    336.33498   -4035.0396 
23437000    122.75196   -4518.6391   -4308.2465   -4518.6391            0    3126.4208    17.938339    23.443705    21.726425     9136.855    3709.2852    2505.9135    3164.0636    607.53284    176.93938    77.757952   -3891.6457 
23438000    128.59931   -4504.5988    -4284.184   -4504.5988            0    1257.6178    18.026079    23.428386    21.867806    9235.2543    572.56416    627.41757    2572.8716    699.11546    38.693936   -179.80173   -4114.7996 
23439000    121.52004   -4521.6916   -4313.4104   -4521.6916            0    2737.7342    17.913408    23.299977    21.886807    9135.1588    2658.1818    3442.0352    2112.9855   -539.30785     -404.441   -435.40416   -3948.6705 
23440000    133.49561   -4509.3951   -4280.5882   -4509.3951            0    1378.0076    17.960185    23.239798    22.075396    9214.0733    997.99595    1607.5324    1528.4944    565.58649   -274.89462   -310.83499   -4095.4146 
23441000    126.52238   -4515.1272   -4298.2721   -4515.1272            0    1684.9903    17.939871    23.235354    22.103295     9213.521    1663.0606    2387.0016    1004.9086    816.51207   -50.351507   -314.56595   -4071.8604 
23442000    119.64333   -4496.4333   -4291.3687   -4496.4333            0    3056.3759    17.834067    23.335199     21.94421    9132.3353    4046.9678    2079.6387    3042.5213   -396.48139    413.65197   -88.284555    -3884.303 
23443000    122.83389   -4509.7576   -4299.2245   -4509.7576            0    1334.5558    17.904873    23.448533    21.951153     9216.038    1046.7141    1238.7969    1718.1563    441.26113   -355.15941    -206.4814   -4119.8516 
23444000    127.96863   -4505.9836   -4286.6497   -4505.9836            0    1612.8057    17.969084    23.033033    22.241084    9205.1958    2556.9913    2590.2098   -308.78408    195.35465   -198.61817   -301.00562   -4070.1332 
23445000    123.74893   -4517.1004    -4304.999   -4517.1004            0    2141.7953     17.96358    23.238649    22.007107    9186.8519    2644.9632    1389.8928    2390.5299   -830.91677    272.92504   -497.59197   -4018.0395 
23446000    119.15695   -4505.6626   -4301.4316   -4505.6626            0    2273.1343    17.779528    23.499907    21.974233    9181.2138    3211.7108    1868.2516    1739.4404    68.674297   -323.88406    50.878553   -3997.0622 
23447000    127.89451   -4516.8001   -4297.5932   -4516.8001            0    2156.6644    17.901629    23.423525    21.952112     9204.943    2482.8235     3065.845    921.32471   -48.864394    315.91408   -45.523204   -4008.0726 
23448000     119.1217   -4498.4501   -4294.2796   -4498.4501            0    2484.9175    18.076025    23.287824    21.810881     9181.318    2739.4406    1877.1569    2838.1548    125.81274    368.37227    308.03136   -3961.5489 
23449000    126.19295   -4506.5525   -4290.2621   -4506.5525            0    1480.8749    17.984928    23.325976    22.005287    9231.5698    1928.3531    1636.1294    878.14221   -1089.0689    -414.5295   -377.55336   -4090.8875 
23450000    124.02141   -4514.1014   -4301.5329   -4514.1014            0      2282.81    17.850516    23.279054    22.085503     9177.479    2371.1101    1961.6376    2515.6824   -1482.2047   -358.38575   -521.95107   -3995.9922 
23451000    123.32966    -4510.674   -4299.2912    -4510.674            0    2216.8783    17.915266    23.337656    21.994768    9196.0198    2880.7328     2607.192    1162.7102    878.04262    623.76139    126.05922   -4001.9757 
23452000    129.67298   -4519.7767   -4297.5217   -4519.7767            0    1972.0425    17.951718    23.388838    21.906683    9197.9556    2003.5934    2022.7401    1889.7938    804.87655   -32.986792   -126.93079   -4032.9865 
23453000    120.12389    -4516.742   -4310.8538    -4516.742            0    1374.0503    18.051259    23.315849    21.929606     9229.742    1581.4071    1493.9927    1046.7512    517.00648   -289.40151    100.79891    -4125.898 
23454000    122.89406   -4521.1894   -4310.5532   -4521.1894            0     1599.074    18.011887    23.434077    21.860209    9227.0185    781.55314    2264.2178     1751.451     683.5736    288.00406    253.14758   -4095.3712 
23455000    118.43148   -4516.9887   -4314.0012   -4516.9887            0     2486.341    17.856404     23.41867    21.911377    9162.7517    3026.2672    2681.9942    1750.7615   -21.340341    521.41992     27.76825   -3981.7531 
23456000    128.95258   -4532.5028   -4311.4825   -4532.5028            0    1856.1988    17.937553    23.244786    22.094552    9212.4247    2039.7122    2572.2656    956.61854    1099.4578    342.18939   -112.07626   -4062.0952 
23457000    127.47945   -4522.9464   -4304.4509   -4522.9464            0    1241.2886    18.010165     23.15006    22.131459    9227.4114    462.90087    2283.8248    977.14014    753.88374     293.7637    104.26769   -4137.4078 
23458000    122.60467   -4501.0138   -4290.8736   -4501.0138            0    2233.5274    17.922244    23.213785    22.073569    9183.5565    1217.1784    3515.6362    1967.7677   -26.809206   -260.58065    228.05963   -3991.7311 
23459000      123.903   -4510.9546   -4298.5891   -4510.9546            0    3638.6846    17.879866    23.132264    22.047794    9119.0068    4078.4257    4300.6073    2537.0207     617.1334   -339.30175    35.601391   -3814.6755 
23460000    133.20956   -4516.5483   -4288.2316   -4516.5483            0    2622.7536     17.93461    23.142673    22.069841    9160.1943    2599.3234    3826.6783    1442.2591    118.11036    367.93415    407.08196   -3937.8526 
23461000    125.15209   -4522.3501   -4307.8436   -4522.3501            0    1010.6811    17.931782    23.356369    22.081363    9248.1456     1502.631    889.22203    640.19036    42.261146     -611.898    532.81189   -4171.5283 
23462000    125.63334   -4513.5781   -4298.2469   -4513.5781            0    2031.8428    17.935838    23.337714    21.994278     9206.397    1859.4235    2933.0306    1303.0744   -216.63682   -16.469738    165.83135   -4025.4398 
23463000    127.10303   -4511.3939   -4293.5436   -4511.3939            0    1992.2294    17.924584     23.42565    21.964508    9222.7876    2231.9954    1464.2947     2280.398   -518.17862   -3.2436068   -199.73388    -4025.579 
23464000    122.74226   -4517.0193   -4306.6433   -4517.0193            0    1866.1564     17.94571    23.502881    21.819014    9202.7336    1440.4625    1408.6795    2749.3272   -568.62332   -646.85452   -127.51344   -4056.1819 
23465000    112.85005   -4522.8156   -4329.3945   -4522.8156            0    1612.1747    18.087077    23.377346    21.796609    9216.2136     723.2453    2332.1044    1781.1743    316.14926    116.86515    244.66442   -4112.7037 
23466000    125.26963   -4522.3178   -4307.6099   -4522.3178            0    2196.7685    18.020917    23.308459    21.844537     9175.575      2075.51     1885.865    2628.9304    252.52149    171.68798   -458.94383   -4013.6464 
23467000    123.53548   -4525.6472   -4313.9116   -4525.6472            0     1929.453    18.148657    23.234779    21.847081    9212.4777    1819.1977    1709.8774     2259.284    -480.5211   -39.967426    -91.95985   -4054.6808 
23468000    128.24104   -4518.5062   -4298.7055   -4518.5062            0    2299.7263     17.92517    23.400668    21.884853     9179.841    2567.1684    2640.4516    1691.5588   -228.44011   -131.98286    853.24182   -3990.8214 
23469000    125.76583    -4511.423   -4295.8647    -4511.423            0     2815.339    17.984533    23.339892    21.812512    9155.9559    1456.3638    3556.5031      3433.15   -134.53821    676.38712   -116.16524   -3919.9318 
23470000    126.04379   -4528.9858    -4312.951   -4528.9858            0    1933.8576    18.182254    23.219372    21.762802     9187.831    1000.4073    2032.7463    2768.4191   -1.7473589    383.97775   -343.43134   -4053.8236 
23471000    121.87486    -4511.338   -4302.4487    -4511.338            0    2378.5225     18.02978    23.275423    21.909073    9194.1588     2374.421    2212.8899    2548.2565    18.402005   -281.84026     95.13201   -3983.5188 
23472000    121.68299   -4521.5159   -4312.9555   -4521.5159            0    1054.5676    18.047246    23.444078    21.877471    9256.3808   -145.65002     1344.525    1964.8279   -503.27632   -277.94659    402.56673   -4170.5943 
23473000    122.57871    -4516.863   -4306.7673    -4516.863            0    2304.2192    18.093748    23.254029    21.824698    9182.7974    910.37042    2911.5791    3090.7081    788.96848   -609.75111   -29.604656   -3998.1824 
23474000    124.93651   -4516.0616   -4301.9246   -4516.0616            0     2840.104    17.978835    23.298569    21.864186    9158.4944    4257.6776    1918.1531    2344.4814   -856.62715    556.29734    17.758644   -3922.5798 
23475000    128.01342   -4527.6321   -4308.2214   -4527.6321            0    1374.4523    17.881296    23.594601    21.793694    9194.8041     2125.536   -117.10644    2114.9273    -174.7996    27.850512   -602.52618   -4123.9118 
23476000     126.6445   -4515.1532   -4298.0888   -4515.1532            0    2202.8944    17.975322     23.31502    21.927245    9189.5987    2919.1901    2278.9299    1410.5632   -634.95239   -220.91957    192.67964    -4002.855 
23477000    129.73513   -4491.2255   -4268.8639   -4491.2255            0    2443.5382    18.061815    23.147995    21.964829    9183.3809    2377.3393    2404.8459    2548.4296    329.20015   -198.19213   -91.907161   -3941.6004 
23478000    127.20748   -4509.4031   -4291.3739   -4509.4031            0    1477.7701    17.962358    23.261474    22.043124    9210.2988    1950.8732    1131.3932    1351.0438    164.96349    81.567059    -301.0754   -4092.8757 
23479000    127.38872   -4513.6063   -4295.2664   -4513.6063            0    3167.5765    17.882231    23.297947    21.944858    9142.6504    3177.1291    2899.6851    3425.9153   -15.565695    521.24645    54.424086   -3872.9139 
23480000    132.02725   -4508.0686   -4281.7784   -4508.0686            0    2551.2298    17.952923    23.216843    21.958306     9152.446    1485.3472    3603.0719    2565.2703   -570.24396    337.88705    153.20598   -3941.2427 
23481000    123.21015   -4500.4926   -4289.3146   -4500.4926            0    3923.5723    17.916254    23.210631     21.96107    9132.4573    3369.9487    4709.5044    3691.2638   -632.25807   -82.105603    102.36593   -3766.7437 
23482000    126.77523   -4515.3615    -4298.073   -4515.3615            0    1570.1719    18.026936    23.353377    21.891115    9215.9367    1123.2911    1765.0859    1822.1388    288.90959   -511.66859    767.90716   -4087.0341 
23483000    117.44169   -4508.5595   -4307.2684   -4508.5595            0    3326.6216    17.902359    23.415959    21.796429    9137.0831    2217.5475    3809.2168    3953.1006   -655.87698    286.26208    217.82333   -3863.9795 
23484000    126.79578   -4508.1194   -4290.7958   -4508.1194            0    2004.8755    17.989432    23.385638    21.865558    9198.7165    2447.4353    2217.1311    1350.0601   -71.962097   -105.45763   -70.546522    -4021.834 
23485000    121.84121   -4519.5192   -4310.6875   -4519.5192            0     2692.749    17.965684    23.314691    21.870738    9160.8731     1920.281    2672.5945    3485.3715   -263.86217   -353.16739    43.983182    -3950.931 
23486000      122.766   -4517.2276   -4306.8109   -4517.2276            0    822.94277     17.92273    23.537843     21.97722     9271.363    1456.0404    1041.2454   -28.457501   -267.28399    -132.1208   -26.650925   -4195.5381 
23487000    128.85541   -4523.6938     -4302.84   -4523.6938            0    2397.6189    17.964945    23.339423    21.870351    9170.0509     2423.457    2499.6065    2269.7933    220.15224    422.04427    234.36476   -3982.1925 
23488000    128.75461   -4514.7065   -4294.0255   -4514.7065            0    716.71088    18.107425    23.176444    22.035423    9247.5116    1882.7589    558.83525   -291.46154   -63.721852   -316.57189    196.48501    -4197.366 
23489000    127.53066   -4514.7541   -4296.1709   -4514.7541            0    2375.6216    17.771902    23.392847    22.019179    9154.1521    3344.5245    1797.8441    1984.4963   -478.76879    129.49045    260.99854   -3979.0161 
23490000    124.35099   -4513.5417   -4300.4083   -4513.5417            0    2083.8823    17.839751     23.51584    21.930487    9200.2063    2271.9644    523.35179    3456.3308    163.45621   -771.61939   -143.85678   -4020.8022 
23491000     121.3415   -4522.3651   -4314.3899   -4522.3651            0     2082.168     17.95301    23.278812    21.977021    9184.7409    2020.6338    2272.1433    1953.7268    959.42804     146.7471   -15.444918   -4035.4835 
23492000    124.46768   -4513.6216   -4300.2882   -4513.6216            0     1597.537    18.032509    23.180305    22.003594    9197.4814    2109.6376    1421.1946    1261.7789   -83.949228    186.47375    157.46526   -4086.0013 
23493000    126.83094    -4507.472   -4290.0881    -4507.472            0    1613.5892    17.962898    23.412972    21.916984    9217.5129    892.11905    2025.4751    1923.1734   -455.85564    141.25073   -154.76371   -4073.1766 
23494000    125.30559   -4508.3869   -4293.6174   -4508.3869            0    2312.5632    17.988117    23.335479    21.896168    9191.1647    1551.9838    3648.8553    1736.8504   -462.80297   -525.62335    198.02975   -3983.6329 
23495000    128.80937   -4507.7662   -4286.9913   -4507.7662            0    2254.1679    18.041962    23.230883    21.959778    9204.0173    2833.7718    2278.5559    1650.1759    393.92811    103.97278   -269.47055   -3984.4118 
23496000    122.73433   -4511.0156   -4300.6532   -4511.0156            0    2359.1722    17.952031    23.335293    21.885308    9168.1035    2335.2488    2221.3307    2520.9373    719.86943   -4.4107247    530.25444   -3985.2144 
23497000    125.67801   -4516.3662   -4300.9584   -4516.3662            0    1596.8353    18.011477    23.377245    21.861044     9204.783    1858.6382    1379.7714    1552.0964    2.1371442    111.95866    474.29725   -4086.5955 
23498000    127.09719   -4503.1959   -4285.3557   -4503.1959            0    1945.6997     17.95385    23.492051    21.775905    9184.4838    2040.4546    835.71696    2960.9275    -144.0872    208.92016   -5.3010763   -4024.7364 
23499000    118.81818   -4517.3331   -4313.6828   -4517.3331            0    2041.3273    18.075662    23.224809     21.91747    9201.0372    1212.9102    2488.2159    2422.8559   -13.338782   -228.11904     265.5108   -4039.7618 
23500000    127.20318    -4501.841   -4283.8191    -4501.841            0    1361.7176    17.977367    23.374575    21.916619    9209.6547    1286.8142    1748.4735     1049.865    59.157438   -771.86169    111.44409   -4100.9222 
Loop time of 403.676 on 64 procs for 250000 steps with 864 atoms

Performance: 107.017 ns/day, 0.224 hours/ns, 619.309 timesteps/s
382.1% CPU use with 16 MPI tasks x 4 OpenMP threads

MPI task timing breakdown:
Section |  min time  |  avg time  |  max time  |%varavg| %total
---------------------------------------------------------------
Pair    | 24.638     | 28.984     | 35.633     |  56.2 |  7.18
Bond    | 1.6074     | 2.0347     | 3.2129     |  32.6 |  0.50
Kspace  | 211.25     | 221.38     | 229.33     |  30.3 | 54.84
Neigh   | 0.67554    | 0.75231    | 0.84339    |   6.6 |  0.19
Comm    | 55.049     | 59.489     | 65.348     |  41.9 | 14.74
Output  | 0.60318    | 0.60357    | 0.60525    |   0.1 |  0.15
Modify  | 60.683     | 69.024     | 75.418     |  63.0 | 17.10
Other   |            | 21.41      |            |       |  5.30

Nlocal:        54.0000 ave          61 max          47 min
Histogram: 2 2 1 3 0 1 2 0 3 2
Nghost:        2560.94 ave        2572 max        2550 min
Histogram: 4 0 0 3 1 1 2 0 3 2
Neighs:        13199.7 ave       14847 max       11594 min
Histogram: 2 2 2 2 0 1 1 2 2 2

Total # of neighbors = 211195
Ave neighs/atom = 244.43866
Ave special neighs/atom = 2.0000000
Neighbor list builds = 2711
Dangerous builds = 0

unfix		3
unfix		2
unfix		1

write_data	data.final.${pid} nocoeff
write_data	data.final.1 nocoeff
System init for write_data ...
PPPM initialization ...
  extracting TIP4P info from pair style
  using 12-bit tables for long-range coulomb (../kspace.cpp:340)
  G vector (1/distance) = 0.37192795
  grid = 24 27 25
  stencil order = 5
  estimated absolute RMS force accuracy = 0.0031315005
  estimated relative force accuracy = 9.4304206e-06
  using double precision FFTW3
  3d grid and FFT values/proc = 6300 1296
Last active /omp style is kspace_style pppm/tip4p/omp

write_restart   restart.lmp.${pid}
write_restart   restart.lmp.1
System init for write_restart ...
PPPM initialization ...
  extracting TIP4P info from pair style
  using 12-bit tables for long-range coulomb (../kspace.cpp:340)
  G vector (1/distance) = 0.37192795
  grid = 24 27 25
  stencil order = 5
  estimated absolute RMS force accuracy = 0.0031315005
  estimated relative force accuracy = 9.4304206e-06
  using double precision FFTW3
  3d grid and FFT values/proc = 6300 1296
Last active /omp style is kspace_style pppm/tip4p/omp
Total wall time: 0:06:43
