LAMMPS (30 Jul 2021)
  using 1 OpenMP thread(s) per MPI task
package omp 0
using multi-threaded neighbor list subroutines
echo both

include		in.partitions
variable        pid world 0
include		in.temp
variable        temperature equal 267.82
variable	tempDamp equal 100.0
include		in.pressure
variable        pressure equal 10625.0
variable        pressureDamp equal 1000.0 # This is 1 ps
include		in.seed
variable        seed world 745823

units		real
atom_style	full
read_restart	restart.lmp.${pid}
read_restart	restart.lmp.0
Reading restart file ...
  restart file = 30 Jul 2021, LAMMPS = 30 Jul 2021
  restoring atom style full from restart
  orthogonal box = (0.64726113 1.8539194 0.78965707) to (17.560311 21.775258 21.423539)
  4 by 4 by 4 MPI processor grid
  restoring pair style lj/cut/tip4p/long/omp from restart
  restoring bond style harmonic/omp from restart
  restoring angle style harmonic/omp from restart
  864 atoms
  576 bonds
  288 angles
Finding 1-2 1-3 1-4 neighbors ...
  special bond factors lj:    0        0        0       
  special bond factors coul:  0        0        0       
     2 = max # of 1-2 neighbors
     1 = max # of 1-3 neighbors
     1 = max # of 1-4 neighbors
     2 = max # of special neighbors
  special bonds CPU = 1.799 seconds
  read_restart CPU = 2.155 seconds
include 	in.setup
variable	out_freq equal 1000
variable	out_freq2 equal 10000
variable	out_freq3 equal 1000

timestep	2.0

neigh_modify    delay 7 every 1

include		in.tip4p
# This is TIP4P/Ice

# create groups ###
group ox type 2
288 atoms in group ox
group hy type 1
576 atoms in group hy

# set charges - beside manually ###
set group ox charge -1.1794
Setting atom values ...
  288 settings made for charge
set group hy charge 0.5897
Setting atom values ...
  576 settings made for charge

# ### TIP3P Potential Parameters ###
pair_style lj/cut/tip4p/long/omp 2 1 1 1 0.1577 8.5
pair_coeff 1 1*2 0.000 0.000
pair_coeff 2 2 0.21084 3.1668
bond_style  harmonic
bond_coeff  1 450 0.9572
angle_style harmonic
angle_coeff 1 55 104.52
kspace_style pppm/tip4p/omp 1.0e-5
pair_modify tail yes

thermo          ${out_freq}
thermo          1000
thermo_style    custom step temp pe etotal epair emol press lx ly lz vol pxx pyy pzz pxy pxz pyz enthalpy

restart 	${out_freq3} restart.lmp.${pid} restart2.lmp.${pid}
restart 	1000 restart.lmp.${pid} restart2.lmp.${pid}
restart 	1000 restart.lmp.0 restart2.lmp.${pid}
restart 	1000 restart.lmp.0 restart2.lmp.0


include         in.dump
dump            myDump all atom ${out_freq2} dump.water.${pid}
dump            myDump all atom 10000 dump.water.${pid}
dump            myDump all atom 10000 dump.water.0
dump            myDump2 all dcd ${out_freq2} dump.dcd
dump            myDump2 all dcd 10000 dump.dcd
dump_modify     myDump append yes
dump_modify     myDump2 append yes


variable natoms 	equal  "count(all)"                        # NUMBER ATOMS
variable H      	equal  "enthalpy/v_natoms"                 # ENTHALPY-per-atom
variable Vol      	equal  "vol/v_natoms"                 # volume-per-atom
fix AVG all 		ave/time ${out_freq} 1 ${out_freq} v_Vol v_H file vol_enthalpy.dat
fix AVG all 		ave/time 1000 1 ${out_freq} v_Vol v_H file vol_enthalpy.dat
fix AVG all 		ave/time 1000 1 1000 v_Vol v_H file vol_enthalpy.dat


timer           timeout 23:50:00 every 1000
New timer settings: style=normal  mode=nosync  timeout=23:50:00

fix 		1 all shake 1e-6 200 0 b 1 a 1
       0 = # of size 2 clusters
       0 = # of size 3 clusters
       0 = # of size 4 clusters
     288 = # of frozen angles
  find clusters CPU = 0.147 seconds
fix             2 all nph iso ${pressure} ${pressure} ${pressureDamp}
fix             2 all nph iso 10625 ${pressure} ${pressureDamp}
fix             2 all nph iso 10625 10625 ${pressureDamp}
fix             2 all nph iso 10625 10625 1000
fix             3 all temp/csvr ${temperature} ${temperature} ${tempDamp} ${seed}
fix             3 all temp/csvr 267.82 ${temperature} ${tempDamp} ${seed}
fix             3 all temp/csvr 267.82 267.82 ${tempDamp} ${seed}
fix             3 all temp/csvr 267.82 267.82 100 ${seed}
fix             3 all temp/csvr 267.82 267.82 100 745823

run             250000
PPPM initialization ...
  extracting TIP4P info from pair style
  using 12-bit tables for long-range coulomb (../kspace.cpp:340)
  G vector (1/distance) = 0.37456284
  grid = 24 24 24
  stencil order = 5
  estimated absolute RMS force accuracy = 0.0031268021
  estimated relative force accuracy = 9.4162717e-06
  using double precision FFTW3
  3d grid and FFT values/proc = 2535 216
Last active /omp style is kspace_style pppm/tip4p/omp
Neighbor list info ...
  update every 1 steps, delay 7 steps, check yes
  max neighbors/atom: 2000, page size: 100000
  master list distance cutoff = 10.8154
  ghost atom cutoff = 10.8154
  binsize = 5.4077, bins = 4 4 4
  1 neighbor lists, perpetual/occasional/extra = 1 0 0
  (1) pair lj/cut/tip4p/long/omp, perpetual
      attributes: half, newton on, omp
      pair build: half/bin/newton/omp
      stencil: half/bin/3d
      bin: standard
Per MPI rank memory allocation (min/avg/max) = 9.238 | 9.240 | 9.242 Mbytes
Step Temp PotEng TotEng E_pair E_mol Press Lx Ly Lz Volume Pxx Pyy Pzz Pxy Pxz Pyz Enthalpy 
26750000    286.10689   -3861.0488   -3370.6713   -3861.0488            0    9890.7194     16.91305    19.921339    20.633882    6952.1862    9905.4558    10689.141    9077.5614    1139.2824    619.71056    386.68882   -2367.8463 
26751000     261.0113   -3810.8675   -3363.5031   -3810.8675            0    12602.178    16.798824    19.786796    20.494526    6812.2761    12108.194    13310.705    12387.635   -423.05511   -614.99094    994.23923   -2111.4759 
26752000    259.24601   -3853.9803   -3409.6415   -3853.9803            0    10390.873    16.912963    19.921237    20.633776    6952.0793    10453.049    10480.955    10238.614   -1437.4248    1435.5965    43.581424   -2356.1219 
26753000    263.94395   -3843.3445   -3390.9536   -3843.3445            0    11918.391    16.846537    19.842995    20.552736    6870.4869    11233.171    10508.274    14013.728    588.05236   -836.64387    733.69737   -2196.7427 
26754000    262.58787   -3886.6689   -3436.6023   -3886.6689            0    8725.5173    16.862225    19.861474    20.571875     6889.699    9139.2598    8792.0136    8245.2784    333.12815    2058.2225    656.79503   -2559.8693 
26755000    281.18335   -3859.8717   -3377.9331   -3859.8717            0    8647.5641    16.842647    19.838414     20.54799    6865.7289    9455.1168    8465.9472    8021.6284     1740.961    668.27741   -772.47535   -2512.0558 
26756000    269.78055   -3843.5525   -3381.1578   -3843.5525            0    10256.317    16.890009      19.8942    20.605771    6923.8113    11092.154    9009.5357     10667.26   -400.98764    970.42151   -665.14606    -2345.509 
26757000    271.36234   -3852.2031   -3387.0973   -3852.2031            0    9953.1285    16.833755     19.82794    20.537141    6854.8598    10433.172    10014.711    9411.5021    2259.2393    554.07597   -409.11907   -2392.0721 
26758000    285.16137   -3854.9575   -3366.2006   -3854.9575            0    11311.487    16.816902    19.808089    20.516581    6834.2921    11476.203    11084.297    11373.962   -1988.6409    654.32672    1024.3035   -2238.7718 
26759000    282.98651   -3832.3398   -3347.3106   -3832.3398            0    12162.006    16.753167    19.733018    20.438825    6756.8824    12440.663    10811.001    13234.353   -236.97265   -341.93574    479.16271   -2148.8398 
26760000    262.58322   -3836.3671   -3386.3084   -3836.3671            0     10121.03    16.862285    19.861544    20.571948    6889.7718    10758.172    10328.424    9276.4927   -316.60687    550.43701   -415.33148   -2369.3448 
26761000    261.70523   -3810.4016   -3361.8478   -3810.4016            0    11961.881    16.802693    19.791353    20.499247    6816.9843    11070.073    13438.995    11376.576      1216.63    168.80122   -2188.9852   -2172.6128 
26762000    291.18333   -3849.0958   -3350.0175   -3849.0958            0    9616.1776    16.952964    19.968353    20.682577    7001.5233    9707.6893    9213.4321    9927.4113   -1293.4782   -313.42513    128.20714   -2368.1093 
26763000    270.26919   -3815.3008   -3352.0687   -3815.3008            0     12377.16    16.776636    19.760661    20.467456     6785.318    11410.861    13619.141    12101.477   -469.03959    -732.3635    398.09941   -2127.2633 
26764000    253.98318   -3852.0722   -3416.7537   -3852.0722            0    10335.167    16.883297    19.886294    20.597583    6915.5603    9411.8712     10075.26     11518.37    616.42682    686.79243    714.35227   -2374.3865 
26765000    271.38951   -3840.5109   -3375.3585   -3840.5109            0    11242.985     16.87138    19.872257    20.583044    6900.9261      11526.9    10775.073    11426.982    -2398.149    65.697244    33.839982   -2243.8316 
26766000    272.47565   -3835.4343   -3368.4204   -3835.4343            0    10900.889    16.856248    19.854433    20.564583    6882.3745    11232.779    11886.868     9583.021   -1033.8829    1259.6922    340.95705   -2274.2723 
26767000    286.08463    -3855.144   -3364.8047    -3855.144            0    10731.063    16.849539    19.846532    20.556399     6874.161    9580.8959    12431.675    10180.619   -738.17547    799.74048   -185.84738   -2288.9879 
26768000    266.20021   -3882.6243   -3426.3663   -3882.6243            0    8556.4453     16.97848    19.998407    20.713706    7033.1849    6338.1788    10511.213    8819.9441   -227.36794    697.28021     629.3017   -2548.7164 
26769000    257.91811   -3830.5309   -3388.4681   -3830.5309            0    12648.639    16.838476      19.8335    20.542901    6860.6285    13371.892    11973.315    12600.708     545.9846    47.588823    144.62192   -2122.9057 
26770000    263.87031   -3878.7537    -3426.489   -3878.7537            0    9266.3507    16.827237    19.820262     20.52919    6846.9005    6609.1986    10772.105    10417.748   -742.39568     2042.539   -287.27059   -2501.1974 
26771000    268.62804   -3885.1974   -3424.7781   -3885.1974            0    10243.297    16.829145     19.82251    20.531518    6849.2302    10480.679    8254.5209    11994.691    457.30506    398.14828   -247.66259   -2401.5855 
26772000    274.94876   -3820.7131   -3349.4603   -3820.7131            0    13238.167    16.772763    19.756099    20.462731    6780.6199    12821.306     14704.39    12188.805   -2326.4801    710.04363    109.13125   -2040.3593 
26773000    265.25015   -3843.7073   -3389.0777   -3843.7073            0    11270.506    16.849716     19.84674    20.556614     6874.377    10009.142    10520.306    13282.071   -1670.8433   -530.63909   -346.47975   -2259.1447 
26774000    282.29367   -3813.9836   -3330.1419   -3813.9836            0    9492.9385    16.909241    19.916852    20.629234    6947.4895    8438.2723    9538.9543    10501.589    768.99635    516.67441    350.53928   -2368.2984 
26775000    258.18351   -3799.4712   -3356.9535   -3799.4712            0    10847.628    16.899385    19.905243     20.61721    6935.3486    11095.522    12319.724     9127.638    26.493909   -849.44277    80.271261   -2259.7708 
26776000    276.20009   -3816.2814   -3342.8839   -3816.2814            0     11753.59    16.927398    19.938239    20.651386    6969.8949    12904.809    11145.058    11210.903    138.88185    317.03027    1471.2129   -2148.1459 
26777000    281.08148   -3842.4792   -3360.7152   -3842.4792            0    10914.001    16.859356    19.858095    20.568375     6886.183    10059.575     12551.72    10130.708     939.4326    1558.8704   -111.81503   -2264.6448 
26778000    269.27899    -3876.691   -3415.1561    -3876.691            0    10043.759    16.848192    19.844945    20.554755    6872.5123    11456.694    10776.801    7897.7812    2410.4629   -641.93971    -657.9422   -2408.4848 
26779000    253.54648   -3859.2397   -3424.6697   -3859.2397            0    10928.843     16.85614    19.854306    20.564451    6882.2422     10027.45    11411.026    11348.053   -2321.6992   -624.15783   -652.98557   -2327.7369 
26780000     270.1027   -3815.4549   -3352.5081   -3815.4549            0    11824.844    16.841085    19.836574    20.546084    6863.8186    14059.788     11989.07    9425.6732    274.26779     10.04607    -1474.319   -2168.8205 
26781000    269.34607   -3806.4859    -3344.836   -3806.4859            0    9617.7698    16.914786    19.923383    20.635999    6954.3266    8510.5481    8560.1179    11782.643    990.98072    21.869815   -5.9627007   -2369.3852 
26782000    275.01846   -3807.2399   -3335.8677   -3807.2399            0    7668.6448     16.96127    19.978135     20.69271    7011.8187    9124.5337    6425.5631    7455.8374    1009.8261   -1393.4789   -824.57712   -2551.6707 
26783000    270.92279    -3826.809   -3362.4566    -3826.809            0     10878.56    16.861146    19.860203    20.570558    6888.3759    10263.701    11939.518     10432.46    -1191.472   -1077.2502   -703.72503   -2269.5976 
26784000    267.08182   -3848.4261    -3390.657   -3848.4261            0    10925.606    16.805183    19.794285    20.502284    6820.0146    11643.579    11964.358    9168.8796   -770.14212    683.68712    310.53901   -2303.9644 
26785000    267.81842   -3851.7191   -3392.6875   -3851.7191            0     13908.59    16.688109    19.656388    20.359454    6678.4694    14553.558    13920.652    13251.559   -754.56365    371.54226    1077.2016     -2038.01 
26786000    266.48047    -3840.658   -3383.9195    -3840.658            0    9687.3638    16.772933    19.756299    20.462939    6780.8263    9708.5774    8177.6643     11175.85   -899.09387    607.82615    35.141299   -2425.9226 
26787000    276.46475   -3825.2266   -3351.3754   -3825.2266            0    10129.292    16.841283    19.836807    20.546326    6864.0607     10087.57    8473.6701    11826.635   -1102.8082    2251.5831   -1369.6384   -2337.3798 
26788000    268.55338   -3810.5285   -3350.2372   -3810.5285            0    10484.604    16.784418    19.769828    20.476951    6794.7657    9356.8184    12131.379    9965.6144    374.38233    1182.6351    403.20127   -2311.2687 
26789000     271.2354   -3818.7668   -3353.8786   -3818.7668            0    12485.295    16.797758     19.78554    20.493226    6810.9791    13359.972    12822.307    11273.605   -666.13067   -162.52399   -830.41053      -2113.7 
26790000    272.94796   -3833.1696   -3365.3462   -3833.1696            0    11025.316    16.836675     19.83138    20.540705    6858.4285     12773.66    11284.151    9018.1366   -372.87463    2171.0084     2104.903   -2262.5594 
26791000    263.94763   -3814.9212    -3362.524   -3814.9212            0     9930.594    16.844175    19.840213    20.549854    6867.5968    9590.2083    9924.5646    10277.009    -940.6706   -377.03971    1105.9037   -2367.9069 
26792000    275.72811    -3829.749   -3357.1605    -3829.749            0    11483.665    16.833723    19.827902    20.537103    6854.8212    10737.607    11261.634    12451.754   -207.47879    6.5472703    204.16547   -2209.1323 
26793000    280.21542   -3838.6139   -3358.3343   -3838.6139            0    9614.1873    16.875238    19.876802    20.587752    6905.6624    7092.2911    11559.359    10190.912   -2150.2065   -544.73372    647.00371   -2390.0702 
26794000    270.29696   -3820.1878   -3356.9081   -3820.1878            0    11739.419    16.828363    19.821589    20.530564    6848.2754    11342.813    11366.011    12509.432    1368.5758   -486.75642   -989.47731   -2184.4328 
26795000    245.48526   -3828.6571   -3407.9038   -3828.6571            0    11867.746     16.83181    19.825649    20.534769    6852.4847    12597.959    11775.371    11229.907    1054.8636   -317.04466   -455.12407   -2221.8833 
26796000    266.32628    -3801.411   -3344.9369    -3801.411            0    8813.0146    16.906839    19.914023    20.626304    6944.5293    7089.3058    10573.852    8775.8861   -319.77961    416.42391    9.4319496    -2452.365 
26797000    266.18191   -3830.0631   -3373.8364   -3830.0631            0    9530.8293    16.857037    19.855364    20.565546     6883.342    8592.1163    10014.503    9985.8686    64.458181    1134.8627    273.71786     -2417.07 
26798000    276.48517    -3805.723   -3331.8369    -3805.723            0    11556.243    16.796247    19.783761    20.491382    6809.1417    10563.039    12749.571    11356.119    157.38789   -1010.7339   -398.88898   -2184.2518 
26799000    269.86314   -3804.9626   -3342.4265   -3804.9626            0    9273.6695    16.933451    19.945368     20.65877    6977.3737    9222.8408    11166.202    7431.9653   -1068.0323    1265.0373     1202.781   -2398.7579 
26800000    260.06858   -3835.0033   -3389.2547   -3835.0033            0    12993.495    16.848499    19.845306    20.555129     6872.887    14177.246    11745.864    13057.374    127.66665   -163.83533    1430.9071   -2086.8646 
26801000    275.31818   -3833.4658   -3361.5799   -3833.4658            0    9951.0948    16.911775    19.919837    20.632326     6950.614    7415.3659     11630.88    10807.039   -1055.9426   -1221.9599   -209.34295   -2352.8616 
26802000    285.59108   -3850.7743    -3361.281   -3850.7743            0     12593.39    16.844933    19.841106    20.550779    6868.5248    12734.159    11467.953    13578.059    2790.2727   -1202.5827    529.49597   -2099.7962 
26803000    261.74168   -3849.2493    -3400.633   -3849.2493            0    10284.042    16.866816    19.866881    20.577476    6895.3276    10514.106      8905.59    11432.429     1385.361    1317.2685   -213.36142   -2366.4567 
26804000    272.10064   -3835.9571   -3369.5859   -3835.9571            0    9852.5443    16.839745    19.834996     20.54445    6862.1806    10475.508    9536.3581    9545.7664   -1513.1241    1392.9193   -196.53604   -2383.5643 
26805000    277.48931    -3856.098   -3380.4908    -3856.098            0    11883.387    16.733377    19.709707     20.41468    6732.9649    10112.758    13004.108    12533.296    152.87232    163.54477    1387.8808   -2213.6208 
26806000    278.61636   -3837.5363   -3359.9974   -3837.5363            0    11024.929    16.852286    19.849766    20.559749    6877.5224    10888.274    11092.311    11094.201   -1572.4676   -246.93983   -1842.6685   -2254.1793 
26807000     263.6485   -3836.7884   -3384.9039   -3836.7884            0    10585.133    16.813523    19.804109    20.512459    6830.1736     8888.739    10695.018    12171.642    60.251068   -866.51232   -1814.3172   -2330.5074 
26808000    257.26037   -3838.6116   -3397.6762   -3838.6116            0    8224.3869    16.889211    19.893259    20.604798    6922.8297    9818.1678    7699.3363    7155.6566    252.15901   -127.04224     235.8522   -2567.3226 
26809000    267.93436   -3849.0017   -3389.7714   -3849.0017            0    9853.8432    16.831857    19.825704    20.534826    6852.5417     11171.39    9962.8369    8427.3026     68.22415    -126.3103    666.62881    -2405.005 
26810000    259.51943   -3889.8777   -3445.0703   -3889.8777            0    11180.733    16.847104    19.843663    20.553427      6871.18    11348.742    12459.884    9733.5713   -1391.2514    752.71475    43.341606    -2324.659 
26811000    259.95779   -3841.7828   -3396.2241   -3841.7828            0    9955.2305    16.911422    19.919422    20.631896    6950.1789    9740.6134     11120.52    9004.5579   -601.76936   -802.41127    1247.8475   -2387.1497 
26812000    271.79957   -3841.7105   -3375.8553   -3841.7105            0    10786.618      16.8661    19.866038    20.576603      6894.45    12637.787    11797.165    7924.9033    489.24823    1226.0863   -181.56501   -2291.2773 
26813000     280.0808   -3827.5924   -3347.5435   -3827.5924            0    9497.2117    16.895919    19.901161    20.612981    6931.0819    8542.6428    10094.492    9854.4999    402.50959    1385.4288   -853.27494   -2387.5395 
26814000    268.91021   -3865.9614   -3405.0585   -3865.9614            0    10046.817    16.913652    19.922047    20.634615     6952.928    11127.675    10162.408    8850.3684   -1429.3046     1516.674   -513.15186    -2386.298 
26815000    252.12242   -3840.6099   -3408.4807   -3840.6099            0    11914.533     16.80788    19.797463    20.505574    6823.2991    12231.971    12354.871    11156.758   -2087.1954   -688.53825     935.5627   -2222.8558 
26816000    280.90345   -3834.0064   -3352.5474   -3834.0064            0    10635.469    16.870249    19.870925    20.581664     6899.539    11557.217    9675.6736    10673.517   -1503.3136   -251.45224   -39.782272   -2282.3778 
26817000    264.09439   -3839.6218   -3386.9731   -3839.6218            0    12844.444    16.777096    19.761203    20.468018    6785.8767    13395.452    12624.678    12513.202    711.40895   -191.90994    -21.85079    -2115.822 
26818000    273.57687   -3844.2652   -3375.3638   -3844.2652            0    11357.911    16.837649    19.832526    20.541892    6859.6181    9171.0396    12334.918    12567.774   -1072.0914   -648.58526    507.39154   -2239.1128 
26819000    246.11068   -3827.3581   -3405.5329   -3827.3581            0    11428.641    16.805289     19.79441    20.502413    6820.1438    10355.067      12583.2    11347.656    418.83259   -481.71537    209.98195   -2268.7854 
26820000    277.49914   -3872.4714   -3396.8474   -3872.4714            0    9298.0515    16.897245    19.902722    20.614599    6932.7137    9556.4978    9470.6054    8867.0513   -466.60116    447.27706    602.18414   -2456.7538 
26821000    263.52573   -3826.2659   -3374.5918   -3826.2659            0     9092.596    16.877967    19.880016    20.591081    6909.0129    8090.0215    9195.2601    9992.5063   -266.88595    18.719387   -1469.6426    -2458.414 
26822000    276.20638   -3793.7226   -3320.3143   -3793.7226            0    12474.184    16.829068    19.822419    20.531424    6849.1359    12796.731    11947.601     12678.22    302.24921   -357.58016   -1686.2392   -2074.2977 
26823000    247.62186   -3817.6246   -3393.2092   -3817.6246            0     11493.05    16.837618    19.832489    20.541854    6859.5799    13419.451    10307.016    10752.683    860.30657     1173.508    823.83986   -2243.4452 
26824000     281.3313   -3880.6411   -3398.4489   -3880.6411            0    10693.586    16.856696    19.854962     20.56513    6882.9243    11115.511    11924.143    9041.1043    1441.3855   -487.39926    699.32416   -2325.0225 
26825000     261.1595   -3817.2761   -3369.6577   -3817.2761            0    12041.222    16.855774    19.853875    20.564004    6881.7938    11722.266    13262.488    11138.913     1413.311   -92.548468    239.37634   -2161.1536 
26826000    273.59581   -3877.9305   -3408.9966   -3877.9305            0    9199.1069    16.899605    19.905502    20.617478     6935.619    10527.583    8277.3078    8792.4295   -597.45351    624.09248   -254.89731   -2478.5172 
26827000     267.3019   -3878.9745   -3420.8282   -3878.9745            0     10288.96    16.801727    19.790215    20.498068    6815.8082    10129.909     10048.67    10688.301   -1697.6556    -705.9142   -1679.1578   -2398.0894 
26828000    269.24487    -3831.994   -3370.5175    -3831.994            0     9260.606    16.926974     19.93774    20.650869     6969.371    9262.9351    9219.1424    9299.7405    901.48724    189.31359    935.14274   -2429.2591 
26829000    285.51507    -3899.615   -3410.2519    -3899.615            0    10339.248    16.804051    19.792953    20.500903    6818.6371    11240.567    11100.509    8676.6673    -2233.191   -475.15907   -215.78723   -2382.0879 
26830000    282.67115   -3822.9579   -3338.4693   -3822.9579            0    9481.6478    16.833254    19.827349     20.53653    6854.2477    10898.821    8756.3664    8789.7557   -1779.8732    1012.0302   -658.63064   -2390.6632 
26831000    265.20418   -3873.6447   -3419.0938   -3873.6447            0    9761.2312     16.82658    19.819489    20.528389    6846.0989    11113.007    9842.8515    8327.8346    1369.6847    507.98984    -1168.627      -2444.5 
26832000     255.9257   -3847.5177   -3408.8699   -3847.5177            0    12889.291     16.75263    19.732385    20.438169    6756.2319    14563.725    13250.039    10854.109   -315.76591    782.03693   -1921.5735    -2138.853 
26833000    261.15681   -3899.3125   -3451.6987   -3899.3125            0    10477.911     16.79331    19.780301    20.487799    6805.5701     10673.18    11826.364    8934.1879    75.569772    2770.3114   -221.39796   -2411.7424 
26834000    280.94263   -3872.2648   -3390.7388   -3872.2648            0    10292.956     16.85889    19.857545    20.567806    6885.6114    11255.874    9221.4435     10401.55    831.14222   -232.10857    1069.6608   -2357.1245 
26835000    263.67676    -3880.585    -3428.652    -3880.585            0    10860.404    16.852377    19.849874    20.559861    6877.6346    10660.862    13509.516    8410.8328    1164.3287   -474.63116   -608.04842   -2339.3183 
26836000    276.93132   -3886.1664   -3411.5155   -3886.1664            0      8925.66    16.876879    19.878734    20.589753    6907.6764    7488.8926      8841.72    10446.367      958.926   -705.53487    942.71433   -2512.3323 
26837000    268.16049   -3888.4469    -3428.829   -3888.4469            0    11607.693    16.837768    19.832667    20.542038    6859.7642    10999.207    12332.817    11491.055   -520.75092   -312.16286   -25.065823    -2267.565 
26838000    274.13213   -3827.6948   -3357.8417   -3827.6948            0     10635.26    16.843041    19.838877     20.54847    6866.2101    11100.298    10420.896    10384.587    -711.2714   -823.72659    780.18826   -2292.8626 
26839000    252.65784   -3873.5711   -3440.5242   -3873.5711            0    11018.527    16.841812     19.83743    20.546971    6864.7071    8838.6682    11433.488    12783.425   -232.94071   -177.31327    1936.9163   -2337.4076 
26840000     261.6464   -3836.4711   -3388.0182   -3836.4711            0    12625.977    16.845905    19.842251    20.551965    6869.7137    13638.168    13153.632    11086.131    96.915448    876.86257   -1354.6103   -2123.0502 
26841000    269.87024   -3898.1378   -3435.5894   -3898.1378            0    11641.605    16.841073    19.836559    20.546069    6863.8035    12514.825    12732.702    9677.2893   -2065.0126   -615.28641    1214.5881   -2270.2469 
26842000    274.04421   -3833.3417   -3363.6393   -3833.3417            0    11796.614    16.784225      19.7696    20.476715    6794.5304     13180.52     11700.08    10509.241   -2131.8196   -658.46512    -342.6262    -2194.698 
26843000    268.74969   -3859.9145   -3399.2867   -3859.9145            0    12861.561     16.74975    19.728993    20.434656    6752.7487     14478.93     12277.28    11828.472   -516.22676   -392.57685   -2233.5277   -2132.6556 
26844000    262.67247   -3830.1143   -3379.9027   -3830.1143            0     10097.61    16.833786    19.827976    20.537179    6854.8976    9217.9677    10759.281     10315.58   -203.44533   -236.60195    1025.7934    -2370.428 
26845000    272.34076   -3861.9218    -3395.139   -3861.9218            0    9181.4074      16.8318    19.825638    20.534757    6852.4727    10389.055    9135.2813    8019.8863    946.71589   -689.98109    1338.2966   -2477.5833 
26846000    280.52877   -3855.6249   -3374.8082   -3855.6249            0    12088.766     16.81342    19.803988    20.512334    6830.0489     12655.64     10761.72    12848.939   -775.03574   -183.94106   -393.44768   -2170.6552 
26847000    285.82635   -3904.5135   -3414.6169   -3904.5135            0    10805.263    16.839375     19.83456    20.543999    6861.7285    9704.5467    10933.023    11778.218   -712.33467   -706.52016   -709.72532   -2333.3205 
26848000    250.87365   -3844.8679    -3414.879   -3844.8679            0    11021.706    16.832806    19.826822    20.535984    6853.7012    12602.128    9819.1773    10643.814   -1056.8201   -366.22291   -415.35297   -2313.2132 
26849000      272.021   -3859.8086   -3393.5739   -3859.8086            0    11327.113    16.840983    19.836453    20.545959    6863.6933    10787.262    11918.171    11275.905   -801.30111    1680.7818    536.43294   -2259.7307 
26850000      258.633    -3862.295   -3419.0069    -3862.295            0    9743.1175    16.853852    19.851612     20.56166    6879.4407    9253.0923    9513.4729    10462.787    -1701.895    85.772645    330.08758    -2441.484 
26851000    264.16719   -3883.3734   -3430.5998   -3883.3734            0    11217.936    16.845031    19.841222    20.550899    6868.6446     10914.28    11425.565    11313.962    72.068143     1374.929   -698.35128   -2306.8752 
26852000    272.75328   -3850.0871   -3382.5974   -3850.0871            0    9748.9565    16.905271    19.912176    20.624391    6942.5973     9489.692    10418.356    9338.8212    -120.7625    1034.4327   -870.39038   -2395.5091 
26853000    261.83462   -3836.5944   -3387.8189   -3836.5944            0    12263.943    16.850854     19.84808    20.558003    6875.7699    10279.244    11450.596     15061.99   -1294.8785    318.17056   -917.94822   -2158.0391 
26854000    268.55624   -3857.1163   -3396.8201   -3857.1163            0    8620.0182     16.89805    19.903671    20.615582    6933.7053    7664.8027    9378.0565    8817.1955   -59.295635   -83.138278   -987.54064   -2525.1554 
26855000    275.18932   -3818.7438   -3347.0788   -3818.7438            0    8435.6811    16.909793    19.917502    20.629908    6948.1704     8402.541    7472.8033    9431.6992    1322.9051    907.27126    436.28859   -2492.2749 
26856000    253.40472   -3833.9901   -3399.6631   -3833.9901            0    11699.759    16.835741    19.830279    20.539565    6857.2868    11008.019    10203.037    13888.221   -883.78611    136.15777    199.69973   -2229.6112 
26857000    269.03216   -3883.2297   -3422.1178   -3883.2297            0    9396.6984    16.918164    19.927362     20.64012    6958.4942    9881.7151    9637.1281    8671.2521   -639.27711   -852.17653   -189.25018   -2468.5174 
26858000    265.08676   -3831.4352   -3377.0856   -3831.4352            0    9748.8625    16.863854    19.863392    20.573862    6891.6953    9696.5177    9134.4212    10415.649     82.63148    965.39186   -561.87087   -2397.2439 
26859000    258.38527   -3831.8041   -3388.9405   -3831.8041            0    11325.814    16.879509    19.881832    20.592961     6910.906    14907.119    10755.351    8314.9728   -324.42607   -1066.3928    804.37684    -2247.429 
26860000    266.62508   -3826.6187   -3369.6324   -3826.6187            0    10557.536    16.862341     19.86161    20.572016    6889.8407    9696.4513    11204.223    10771.933    153.87369    1009.3935    -245.0224   -2308.7979 
26861000     259.8772    -3811.274   -3365.8534    -3811.274            0    9921.6445    16.872645    19.873747    20.584587    6902.4787      10352.6    9673.4941    9738.8398    1240.7644    255.63481      -187.96   -2367.0854 
26862000    257.52155   -3809.7291    -3368.346   -3809.7291            0      11853.1    16.864254    19.863864    20.574351    6892.1861    10706.911    13689.143    11163.247   -888.16945   -456.61896   -1176.6944   -2176.9261 
26863000    253.88003   -3829.0032   -3393.8615   -3829.0032            0    12230.196     16.80728    19.796756    20.504842    6822.5684    11035.362    11927.185    13728.042    7.3373072    363.86219   -1744.2956    -2176.955 
26864000    281.03755   -3806.1753   -3324.4866   -3806.1753            0    12179.714    16.839933    19.835217    20.544679    6862.4102    12236.722    12756.674    11545.745    1346.3831    -1354.358    738.71589   -2105.5261 
26865000    264.88664   -3823.2584   -3369.2518   -3823.2584            0    10041.804    16.871987    19.872972    20.583785    6901.6715    9292.2223    10365.746    10467.443    101.27518   -667.07145   -93.274951   -2358.5061 
26866000    264.73502   -3855.7736   -3402.0268   -3855.7736            0      10576.9    16.821054     19.81298    20.521646    6839.3558    10264.317    11735.733    9730.6497    667.99535    1535.2457   -758.16657   -2347.0341 
26867000     248.7384   -3863.6082   -3437.2791   -3863.6082            0    11812.476    16.848927    19.845811    20.555652    6873.4117    12732.764    10906.577    11798.087   -558.22789    984.25406    911.93799   -2253.1769 
26868000    264.44125   -3864.3013   -3411.0581   -3864.3013            0    10415.827    16.845574    19.841861    20.551561    6869.3084    9220.6325    10302.846    11724.002   -1284.4533   -218.71781    477.26853   -2367.5816 
26869000    262.18757   -3820.8019   -3371.4214   -3820.8019            0    9567.0836    16.829575    19.823016    20.532042    6849.7547      11367.2    8819.4677    8514.5832    858.01601    1452.1637    682.45941   -2415.7019 
26870000    252.27146   -3834.0894   -3401.7047   -3834.0894            0    10120.878    16.826878     19.81984    20.528752     6846.463    10567.508    9214.3522    10580.772     1557.176    490.43106   -128.52052   -2391.1488 
26871000    273.83505   -3875.7514   -3406.4075   -3875.7514            0    11825.351    16.815449    19.806378    20.514809    6832.5213     12199.98    13221.232    10054.841     440.0491    2391.1053    -870.7041   -2228.0666 
26872000    279.34084   -3860.6677   -3381.8871   -3860.6677            0    7948.6622    16.928861    19.939962    20.653171    6971.7022    9190.5506     7896.487     6758.949    1009.4639    1236.5735    1054.9049   -2573.7058 
26873000     259.7747   -3886.9663   -3441.7213   -3886.9663            0    8955.7282     16.87478    19.876261    20.587192     6905.099    9411.8801    7668.9475     9786.357    90.467898    -113.4045   -744.74037   -2539.8456 
26874000    278.44259   -3844.4954   -3367.2543   -3844.4954            0     10746.87    16.865299    19.865095    20.575625    6893.4674    10164.758    10861.603     11214.25   -1103.2114    1480.0007   -94.454813   -2286.8268 
26875000    284.12557   -3830.4934   -3343.5119   -3830.4934            0     11904.51    16.865764    19.865642    20.576193    6894.0376    11512.655    11617.466     12583.41    1070.6853    398.29094    185.92418    -2146.603 
26876000    278.91953   -3847.9415    -3369.883   -3847.9415            0    10999.786    16.832123    19.826017     20.53515    6852.8662    10847.899    10905.915    11245.543    1211.3517    400.43736     3409.568   -2270.5421 
26877000    270.27279   -3843.2807   -3380.0424   -3843.2807            0    9080.2038    16.928678    19.939747    20.652948    6971.4763    8133.5478    9648.9004    9458.1631    416.38874    416.26435    -762.4967   -2456.8415 
26878000    267.54969   -3841.9344   -3383.3634   -3841.9344            0    9483.5111    16.919356    19.928767    20.641575    6959.9659    8530.4112    7452.0458    12468.076    697.15436    824.31224    1061.2606   -2420.7494 
26879000      268.634   -3804.8622   -3344.4328   -3804.8622            0    9679.4107    16.925414    19.935902    20.648966    6967.4443    9826.6787    11849.058    7362.4958    1804.2752    878.38359    -356.2462   -2360.8785 
26880000    269.45282   -3873.4479    -3411.615   -3873.4479            0    9609.1934    16.907806    19.915163    20.627484    6945.7219    8604.3972    10219.477    10003.706   -132.19274    163.57961   -139.04664   -2438.2399 
26881000    261.38185   -3864.3183   -3416.3188   -3864.3183            0    10542.728    16.824768    19.817354    20.526177    6843.8867    10008.196    9819.1594    11800.828    -1262.354   -614.15579   -234.07875   -2364.0379 
26882000    270.98247   -3835.6552   -3371.2005   -3835.6552            0    9406.4245      16.9091    19.916686    20.629062    6947.3157     8672.108    9797.3011    9749.8644   -325.85201   -665.00318   -1067.6264   -2418.1465 
26883000    271.19006   -3881.0583   -3416.2479   -3881.0583            0    9511.9652    16.908559    19.916049    20.628402     6946.649    8761.9032    9391.8259    10382.166    1878.3652   -538.25512      316.298    -2452.593 
26884000    259.12841   -3889.0463    -3444.909   -3889.0463            0    10597.822    16.883513    19.886548    20.597846    6915.8254    8249.0375    11941.701    11602.729     44.37255    288.68096    391.34062   -2376.0103 
26885000    249.41908    -3870.374   -3442.8783    -3870.374            0    10874.522    16.790183    19.776618    20.483984    6801.7694    9587.9012     11189.99    11845.675    784.04892    689.73603   -1123.0207   -2364.1601 
26886000    264.12745   -3861.7914    -3409.086   -3861.7914            0    11907.923    16.805579    19.794753    20.502768    6820.4975    12865.709    10608.433    12249.629    -394.5749    729.45318   -393.72155   -2224.6053 
26887000    267.42733   -3876.9988   -3418.6375   -3876.9988            0      9019.42    16.855365    19.853393    20.563505    6881.2929    8864.0742    9189.6096    9004.5761   -353.95797    839.87055   -361.20749   -2513.4792 
26888000    270.32158   -3859.1702   -3395.8483   -3859.1702            0    10614.669    16.874155    19.875525    20.586429    6904.3319    8814.3041    11023.674    12006.028   -1825.5455   -2342.1499    930.20056   -2327.0297 
26889000    244.97142   -3864.1895   -3444.3169   -3864.1895            0    11550.776    16.844436     19.84052    20.550172    6867.9163    11719.683    11606.209    11326.437    946.89978    507.74236   -144.12496   -2287.3736 
26890000    270.23636   -3852.3859   -3389.2101   -3852.3859            0    11880.837    16.811242    19.801423    20.509676    6827.3947    9592.2109    11980.228    14070.073    626.37819   -193.65995   -832.49942   -2206.2286 
26891000    251.79057   -3856.9875   -3425.4271   -3856.9875            0    10240.268    16.820084    19.811837    20.520463    6838.1723    10711.679    9973.9331    10035.192    233.51934    2460.6759   -527.20671   -2404.1884 
26892000     267.5198   -3869.8221   -3411.3024   -3869.8221            0    11542.989    16.791265    19.777892    20.485304    6803.0835    11421.477    9733.7858    13473.703     193.9979    -1297.178    1414.0462   -2266.0532 
26893000    265.80548   -3877.0084   -3421.4269   -3877.0084            0    11105.132    16.879534    19.881862    20.592993    6910.9378    10479.062    11223.606    11612.728    853.42266    1443.9849    770.71972   -2302.1525 
26894000    267.50048   -3845.8842   -3387.3975   -3845.8842            0    10767.846    16.801824    19.790329    20.498186    6815.9264    12560.281     10294.22    9449.0363    643.69116   -20.537049    292.73534   -2317.0382 
26895000    271.49189   -3792.9836   -3327.6558   -3792.9836            0    10756.667    16.820338    19.812136    20.520773    6838.4822    10747.304    10371.955    11150.743    547.68408    991.00961     247.6327   -2254.8692 
26896000    258.97772   -3828.3805   -3384.5015   -3828.3805            0    11017.307    16.860443    19.859374    20.569701    6887.5141    9730.9523    11534.603    11786.366    2295.6596    1793.7308    1480.5505   -2277.8424 
26897000    267.37528   -3860.1537   -3401.8816   -3860.1537            0     11284.22    16.778886    19.763311    20.470202    6788.0487    10164.158    12796.768    10891.734     1391.213    739.05609   -94.705006   -2284.7807 
26898000    260.92757   -3873.9153   -3426.6944   -3873.9153            0    10741.367     16.84736    19.843965     20.55374     6871.494    10758.087    11398.265    10067.748    556.54468    -222.2933    250.27858   -2350.2624 
26899000    282.98495   -3853.7168   -3368.6902   -3853.7168            0    8444.5205    16.867375     19.86754    20.578158    6896.0132    8268.5921    8604.7312    8460.2382   -658.16632    370.10855   -674.44957    -2519.414 
26900000     257.3147   -3844.4218   -3403.3932   -3844.4218            0    10385.465    16.838368    19.833373    20.542769    6860.4968     9567.878    11133.596     10454.92   -970.44381   -778.91105   -305.26524   -2364.2931 
26901000    256.64232   -3791.4172    -3351.541   -3791.4172            0    13339.304    16.785309    19.770877    20.478038    6795.8476      13293.2    12787.793    13936.917   -1322.0699   -369.23159   -1450.2021   -2029.4764 
26902000    266.32185   -3864.9705    -3408.504   -3864.9705            0    10705.253    16.849151    19.846074    20.555925    6873.6854    10365.281    11749.811    10000.666   -401.16072   -859.14573   -577.36872   -2335.3489 
26903000    266.07269   -3849.6323   -3393.5928   -3849.6323            0    11428.565    16.857078    19.855411    20.565596    6883.3915    10843.727    12264.658    11177.311   -1.0859842   -229.44497    1560.4516   -2246.3111 
26904000    257.85912   -3857.4422   -3415.4805   -3857.4422            0    8911.2742     16.87126    19.872116    20.582898    6900.7794    8324.5535    9302.9407    9106.3284    -49.06928   -334.81367   -164.68939   -2518.6428 
26905000     267.8983   -3847.6112   -3388.4427   -3847.6112            0    10316.456    16.865247    19.865033    20.575561    6893.4031    11205.059    9281.4444    10462.865    64.221365   -1406.3481   -45.699498   -2351.2962 
26906000    253.74832   -3870.8922   -3435.9763   -3870.8922            0    7723.7586    16.921628    19.931443    20.644347    6962.7697    6149.9681    9335.2982    7686.0094    785.04574    959.64386   -250.38687   -2651.6683 
26907000    265.77403   -3881.1653   -3425.6377   -3881.1653            0     11591.14    16.850988    19.848238    20.558165    6875.9334     12046.72    12180.102    10546.596    95.414991   -1307.2662   -140.18719   -2263.2964 
26908000    279.38461   -3902.5068   -3423.6511   -3902.5068            0    11932.941    16.818348    19.809792    20.518345    6836.0555    10687.869    13234.022    11876.933   -251.18505   -1308.2427   -602.21699   -2233.9743 
26909000    267.02535   -3864.6098   -3406.9375   -3864.6098            0    11306.878    16.868115    19.868412    20.579061    6896.9214    11616.168    13458.748    8845.7196   -86.347729    202.89307   -409.02377   -2269.6405 
26910000     280.7189   -3851.9823   -3370.8397   -3851.9823            0     10352.05    16.844737    19.840875     20.55054    6868.2846     11459.36    10665.135    8931.6562    1001.4821   -456.78775     505.8086    -2333.907 
26911000    249.90771   -3852.1199   -3423.7867   -3852.1199            0    10280.295    16.865237    19.865021     20.57555    6893.3912    11567.681    9439.6598     9833.545     -1454.67    1636.5737     1010.706   -2390.2773 
26912000    248.02765   -3835.1365   -3410.0256   -3835.1365            0    8275.3821    16.893368    19.898157     20.60987    6927.9438    7777.2144    7078.8885    9970.0434   -287.33081    509.09799   -576.22163   -2573.9062 
26913000    263.12492   -3815.3603   -3364.3732   -3815.3603            0    12366.222    16.811152    19.801317    20.509566    6827.2848    12782.976    13057.661    11258.029    62.505688    1210.9548   -905.04041   -2133.0815 
26914000    270.04812   -3868.3245   -3405.4713   -3868.3245            0    13121.156    16.813721    19.804342      20.5127    6830.4146    13476.866    12274.336    13612.265   -1696.5418    -871.0355    388.86618   -2098.4127 
26915000    264.51452   -3853.9689   -3400.6001   -3853.9689            0    9087.7284    16.902453    19.908858    20.620954     6939.127    8472.4922    8261.0165    10529.677   -259.41996   -384.96228   -447.19577   -2480.9215 
26916000    265.45105   -3812.5751   -3357.6011   -3812.5751            0    10885.803    16.829311    19.822705     20.53172    6849.4321    10218.333    9984.5572    12454.519   -1504.2382     265.0515    441.50012   -2270.1971 
26917000    252.45905    -3864.366   -3431.6598    -3864.366            0    10044.301    16.926791    19.937524    20.650646     6969.145    8539.0481    11384.754    10209.102    82.867299    1223.9867    806.38844   -2410.7788 
26918000    282.09108    -3848.452   -3364.9576    -3848.452            0    10690.412    16.875311    19.876887     20.58784    6905.7512    11604.838    10723.934     9742.463   -116.38635   -1482.6897    79.909733    -2288.291 
26919000    278.99979   -3834.3405   -3356.1444   -3834.3405            0    10659.245    16.863118    19.862526    20.572965    6890.7939    9373.6977    10618.751    11985.285     107.6301   -1305.3147    975.51253   -2284.9419 
26920000    275.22203   -3856.2955   -3384.5744   -3856.2955            0    10516.944    16.811718    19.801984    20.510257    6827.9749    10472.396    10015.309    11063.128    1957.5424   -1482.5474    300.91298   -2337.3075 
26921000    254.82037    -3852.419   -3415.6657    -3852.419            0    11544.876    16.790443    19.776924    20.484301     6802.085    10956.111    9148.5316    14529.986    702.81672   -2008.5478    161.26265   -2270.3974 
26922000     279.2537   -3889.7054   -3411.0741   -3889.7054            0    9697.5297    16.790652     19.77717    20.484556     6802.339     9827.685    9279.3001     9985.604    1769.2051   -924.99532   -2120.2555   -2449.0294 
26923000    277.63688   -3893.4588   -3417.5987   -3893.4588            0    11071.229    16.806915    19.796326    20.504397    6822.1239    10323.323    13233.282    9657.0815    10.822668   -1890.5701   -627.95087   -2316.0814 
26924000    265.24513   -3891.4161    -3436.795   -3891.4161            0    9697.1581    16.797338    19.785045    20.492713    6810.4677    8372.2176    11001.262    9717.9946    124.96041    356.23828    410.74399   -2473.6375 
26925000    284.98069   -3877.3484   -3388.9013   -3877.3484            0     11404.51    16.751552    19.731116    20.436854    6754.9283    10228.846    12274.736    11709.947    1.0521643    745.47278    1722.5996   -2265.4008 
26926000    270.19476   -3885.6025   -3422.4979   -3885.6025            0     11292.16     16.77032    19.753221    20.459751    6777.6573    9318.7248    10828.084    13729.672   -1375.4687   -2068.6219     1854.822   -2306.3223 
26927000    262.22356   -3814.7642    -3365.322   -3814.7642            0    10834.746    16.769234    19.751943    20.458427    6776.3416    11190.372    10142.043    11171.824   -1111.9058   -187.85707    2247.5873   -2294.5675 
26928000    267.98465   -3848.6955   -3389.3789   -3848.6955            0    10320.492    16.864642    19.864321    20.574824    6892.6623    9742.3924     11478.45    9740.6318   -169.73806   -743.10464   -1801.8907   -2351.9383 
26929000    265.73609   -3866.1474   -3410.6849   -3866.1474            0    8875.2687    16.838274    19.833263    20.542655    6860.3822    9905.4329    8131.7554    8588.6177   -787.79588   -421.18462    398.42871   -2522.6997 
26930000    261.36972   -3842.7057    -3394.727   -3842.7057            0    10724.936    16.809869    19.799805    20.508001    6825.7218    9293.6567    9356.2505    13524.901   -227.15122    563.25198   -273.60322   -2327.1009 
26931000     281.1193   -3863.7263   -3381.8974   -3863.7263            0    9238.4054    16.803256    19.792016    20.499933    6817.6694    8786.1438    7326.3942    11602.678    480.16901    421.55747   -1330.8264   -2463.3346 
26932000     276.1324   -3857.3512   -3384.0697   -3857.3512            0     9393.659    16.837348    19.832172    20.541525    6859.2502     11322.33    9079.4424    7779.2049    238.68599    998.55524    595.10086   -2444.3738 
26933000    254.45004    -3862.335   -3426.2163    -3862.335            0    11138.176    16.801011    19.789371    20.497194    6814.9364    11404.564    12094.387    9915.5775   -1339.7234   -294.13037     1750.284   -2319.2057 
26934000    263.16081   -3886.5308   -3435.4822   -3886.5308            0    9431.4208    16.808261    19.797911    20.506039    6823.7627    10263.003    9835.4322    8195.8275   -1036.8205   -2005.9536    1807.0669   -2496.8901 
26935000    270.52337   -3831.5854   -3367.9176   -3831.5854            0    11519.767     16.75258    19.732326    20.438108    6756.1719    12266.858    10927.203     11365.24    420.67795   -310.38739    1419.0652   -2232.8537 
26936000    278.19027   -3850.7601   -3373.9515   -3850.7601            0    12381.819    16.728722    19.704224    20.409001    6727.3473    12338.649    12683.911    12122.898    -1240.671    -560.6627     478.5904   -2159.1531 
26937000    265.99815   -3874.5798   -3418.6681   -3874.5798            0    11554.749    16.773424    19.756878    20.463538    6781.4218    11193.317    11129.283    12341.646   -647.82261    -229.7978    1055.4589   -2275.9025 
26938000    274.78441    -3823.386   -3352.4149    -3823.386            0    10614.206    16.838415    19.833429    20.542827    6860.5549    11231.373    10214.867    10396.379   -315.56776   -49.593517    2.8040904   -2290.4195 
26939000     265.9887   -3869.8684   -3413.9728   -3869.8684            0    10995.543    16.806588    19.795941    20.503998    6821.7258    9975.6848    11868.349    11142.595    1766.9809    929.52473   -922.08241   -2320.0496 
26940000    278.40363    -3827.261   -3350.0867    -3827.261            0    10225.968    16.826564     19.81947    20.528369    6846.0796    9151.1059    10957.287    10569.511   -782.03204   -450.67774   -439.88394    -2329.095 
26941000    258.48715   -3844.8292   -3401.7911   -3844.8292            0    10996.098    16.797204    19.784887    20.492549     6810.305    9780.4689    11435.425    11772.402    239.78082    83.234962   -1232.8764   -2309.6442 
26942000    271.26567   -3821.0174   -3356.0773   -3821.0174            0    12271.834    16.823889    19.816319    20.525105    6842.8145    12432.903    13018.388     11364.21    991.57101    905.96753    198.97559   -2131.4043 
26943000    267.24129   -3812.2116   -3354.1692   -3812.2116            0    9956.8105    16.837466    19.832311    20.541669    6859.3945    9302.2243    9329.3057    11238.902    692.74488    96.228144   -930.57845   -2358.1174 
26944000    274.54551   -3821.6464   -3351.0848   -3821.6464            0    10818.111    16.803518    19.792325    20.500253    6817.9882    9318.8668    11483.547    11651.918    791.64976    -578.3113   -14.215353   -2275.4037 
26945000    266.04699   -3832.4606   -3376.4652   -3832.4606            0     13266.19     16.85062    19.847804    20.557717    6875.4831    12696.875    13880.905    13220.791   -704.72168    661.92398   -1907.3003   -2046.2395 
26946000    280.40209    -3851.522   -3370.9224    -3851.522            0    8740.1055    16.865744    19.865619    20.576169    6894.0133    8391.0791    7747.2983    10081.939   -1723.7887    744.59434    1413.0416   -2492.1737 
26947000    269.68682   -3813.3352   -3351.1012   -3813.3352            0    13143.643    16.779395     19.76391    20.470822    6788.6662    14621.239    12973.046    11836.643    1173.9705    3267.0797    27.390094   -2049.8052 
26948000    266.83546   -3832.6436   -3375.2968   -3832.6436            0    11046.451    16.915799    19.924577    20.637235    6955.5763    10187.967    11092.423    11858.963    1570.2971    153.09492    217.16263   -2254.7454 
26949000    268.46463   -3813.2409   -3353.1017   -3813.2409            0    9707.2395     16.92145    19.931233     20.64413    6962.5502    10267.158    10878.228    7976.3334    941.68567   -121.06031     191.6206   -2367.4126 
26950000    268.38359    -3858.018   -3398.0177    -3858.018            0    9870.2569    16.907431     19.91472    20.627026    6945.2589    6938.2071    12220.303     10452.26    94.196981    -58.71677   -1174.9639   -2398.2645 
26951000    267.27685   -3867.5599   -3409.4565   -3867.5599            0    9370.7325    16.903429    19.910007    20.622144    6940.3286    9327.1697    8894.4099    9890.6179   -364.35767   -1206.1697    21.508114   -2460.9737 
26952000    265.27614    -3839.931   -3385.2568    -3839.931            0    8200.7028    16.922334    19.932274    20.645208    6963.6411    8374.9175    6776.2988    9450.8922    268.24069   -29.756255    100.79879   -2552.4134 
26953000    256.66224   -3860.5323   -3420.6221   -3860.5323            0     10821.95    16.855065     19.85304     20.56314    6880.9262    9102.3743     12778.12    10585.357    726.35519   -510.66159   -437.44046   -2334.6258 
26954000    264.27026   -3852.6589   -3399.7087   -3852.6589            0     13210.04    16.751929     19.73156    20.437315    6755.3847    12152.425    14610.657    12867.038   -2327.3417   -447.20792   -647.21189   -2098.2509 
26955000    267.49286    -3863.747   -3405.2734    -3863.747            0    12128.052    16.846239    19.842644    20.552372    6870.1218    11615.134    13113.485    11655.538   -642.20318   -1105.6938    1392.1001   -2190.1192 
26956000    267.31221   -3867.9515   -3409.7876   -3867.9515            0    10705.391    16.831531     19.82532    20.534429    6852.1438    11530.844    9924.7695    10660.559   -100.91438    811.41448    968.56979   -2339.9819 
26957000    263.60675   -3852.1281   -3400.3151   -3852.1281            0    8602.6794    16.923919    19.934141    20.647141    6965.5977    8286.7235    9849.0006    7672.3141   -361.76733    1806.1622    1227.3085   -2526.4025 
26958000    277.52329   -3827.4552   -3351.7897   -3827.4552            0    11666.834    16.832341    19.826274    20.535417     6853.133    12648.686      11507.8    10844.015   -116.41548   -399.43759    902.72135   -2185.7374 
26959000     254.9903   -3837.9531   -3400.9084   -3837.9531            0    10230.287    16.850934    19.848174      20.5581    6875.8676    10852.887    9051.3916    10786.584    1803.3324   -59.797038    1822.3378    -2375.041 
26960000    271.38577   -3843.2366   -3378.0907   -3843.2366            0    10572.752    16.859513    19.858279    20.568566    6886.3748    9895.3373    9818.5004    12004.419   -846.69331   -126.76414     175.3646   -2316.2617 
26961000    260.71276   -3857.8837   -3411.0309   -3857.8837            0     10329.87    16.799237    19.787283     20.49503    6812.7787      10238.6    10408.035    10342.976   -695.55416    1047.5819   -1203.3348   -2384.6819 
26962000    264.24706   -3866.0846   -3413.1742   -3866.0846            0    10414.332     16.89934    19.905191    20.617156    6935.2935    11370.002    7706.0065    12166.989    1142.4479    1942.6567   -898.18373   -2359.8254 
26963000    271.31052   -3844.9751   -3379.9581   -3844.9751            0    12229.664     16.82594    19.818734    20.527607    6845.3171    12668.088     12380.36    11640.543   -689.42931    -396.4458    536.44769   -2159.0472 
26964000    261.79385   -3865.6913   -3416.9856   -3865.6913            0    8713.2942    16.927489    19.938346    20.651497    6970.0072    7758.6632    10317.194    8064.0253   -472.65776   -1164.1098   -698.86793   -2531.2757 
26965000    255.61615   -3886.4914    -3448.374   -3886.4914            0    11144.583    16.838641    19.833695    20.543103    6860.8311    11252.704    10596.516    11584.531    1235.5015   -1007.6765    290.15373   -2333.2672 
26966000    259.44011   -3839.9226   -3395.2512   -3839.9226            0     9644.087    16.846347    19.842772    20.552505    6870.2549    12346.696    7265.1415    9320.4235    330.06913   -229.95105    -430.5559   -2428.9559 
26967000    267.17589   -3862.1376   -3404.2072   -3862.1376            0    12479.819    16.806894    19.796302    20.504372    6822.0988    12977.589    14379.644    10082.225    191.61355    722.14372   -1473.8217   -2162.5486 
26968000    260.65949    -3832.631   -3385.8696    -3832.631            0    11527.561    16.869744     19.87033    20.581048    6898.9187    11148.352    11314.232    12120.097    903.58345    -221.3315   -178.66711   -2226.0396 
26969000     257.3528   -3819.9121   -3378.8182   -3819.9121            0    10244.494    16.864532    19.864192     20.57469    6892.5275    11743.603    9297.1323    9692.7459   -1725.4755    524.49943   -1445.4574   -2349.0372 
26970000    261.22973   -3861.3256   -3413.5868   -3861.3256            0    11979.059    16.769396    19.752133    20.458624    6776.5375    13327.199    11920.931    10689.046   -601.86914    357.88261   -391.85195   -2229.7102 
26971000    272.60707   -3869.1353   -3401.8961   -3869.1353            0    10050.222     16.90056    19.906627    20.618644    6936.7951    12737.272    10766.894    6646.4993    1634.5447   -1238.6845    292.33303    -2385.155 
26972000    262.51873   -3842.9601   -3393.0119   -3842.9601            0    11493.425    16.821538     19.81355    20.522238    6839.9469    12273.724    11875.249    10331.302    414.17762    162.75609    -419.7142   -2246.5013 
26973000    257.08504   -3844.0133   -3403.3784   -3844.0133            0    10826.529    16.881911    19.884662    20.595893    6913.8578    11069.356    13365.497    8044.7343   -66.937961    1220.9912   -1369.9318   -2311.7229 
26974000    271.17673   -3848.4779   -3383.6902   -3848.4779            0    8713.3089    16.909013    19.916584    20.628957    6947.2093    9947.8101    8321.4238    7870.6928    1615.7535    236.08233    214.43783   -2500.8759 
26975000    264.57729   -3847.7125   -3394.2361   -3847.7125            0    11759.044    16.766755    19.749023    20.455402    6773.3367    12582.519    12231.337    10463.278   -99.087349    230.70529    447.85646   -2232.6522 
26976000    269.05825   -3870.5676    -3409.411   -3870.5676            0    11777.224    16.771047    19.754078    20.460638     6778.539     10552.76    10569.073    14209.839   -918.89133     953.1605   -38.336532   -2245.1377 
26977000    280.85766   -3805.9415   -3324.5611   -3805.9415            0    11351.555    16.820358     19.81216    20.520798    6838.5074    11554.218    12105.833    10394.615    306.88175    1502.1031   -237.97658   -2192.4408 
26978000    281.23322   -3838.5715   -3356.5474   -3838.5715            0    10789.951     16.77335    19.756791    20.463448    6781.3321    12558.987    10131.875    9678.9912    63.247692   -950.02849   -223.37919   -2289.4345 
26979000    267.24984   -3828.0333   -3369.9762   -3828.0333            0    12234.615    16.779703    19.764274    20.471198    6789.0404    11813.213    12500.971    12389.662    1155.0738    -284.4897   -1196.6886   -2158.6124 
26980000    281.90568   -3830.5584   -3347.3818   -3830.5584            0    8137.6809    16.889747    19.893891    20.605452    6923.4889    5184.1178    10760.255    8468.6698   -904.02779    1159.6482    269.36192    -2525.704 
26981000    268.31713   -3830.7372   -3370.8508   -3830.7372            0    8906.2256    16.897601    19.903142    20.615034    6933.1528    10561.349    9395.2643    6762.0633   -441.44121   -250.47674   -496.36004   -2470.3163 
26982000    269.44849   -3831.1466   -3369.3211   -3831.1466            0    10685.394    16.828365    19.821591    20.530566    6848.2775    12484.868    10782.862    8788.4515   -560.86218    768.25684   -2712.9207   -2302.1163 
26983000    267.28367   -3851.1164   -3393.0013   -3851.1164            0    9909.9858    16.830608    19.824233    20.533303    6851.0168    12293.568    9156.3582    8280.0315   -2132.8182   -331.30261    1656.4001   -2402.8446 
26984000     265.4986    -3829.879   -3374.8235    -3829.879            0    10230.452    16.849992    19.847065    20.556951    6874.7149    11473.144    9095.4837    10122.729   -607.41275    1007.4095     665.3363   -2349.1115 
26985000    260.55385   -3857.7771   -3411.1968   -3857.7771            0     12041.95    16.809529    19.799405    20.507586    6825.3072    10521.328    10721.298    14883.225    86.440208   -266.66683   -1003.4965   -2212.5398 
26986000    265.37583   -3871.8219   -3416.9768   -3871.8219            0      10661.8    16.837973    19.832908    20.542287    6860.0139     12095.16     9358.912    10531.329   -320.02182    1022.9274    499.08691   -2350.3035 
26987000    270.21865   -3881.8674   -3418.7219   -3881.8674            0    11094.125    16.825592    19.818325    20.527183    6844.8925    12080.088    10793.266    10409.022   -462.08258    839.70111    1364.4851   -2311.2427 
26988000    269.89563   -3855.6189   -3393.0271   -3855.6189            0    10666.639    16.855552    19.853613    20.563734     6881.522    10807.104    10420.736    10772.077    1621.4662   -2329.1396     82.44133   -2322.5238 
26989000    271.57429   -3861.3986   -3395.9295   -3861.3986            0    10260.573    16.770175     19.75305    20.459574    6777.4814    10727.284    9911.5516    10142.884    59.390645    -707.6344   -824.79776   -2381.7477 
26990000    268.63883   -3841.5611   -3381.1234   -3841.5611            0    9768.1072    16.807723    19.797278    20.505383    6823.1081    9686.1947    10360.656    9257.4711   -3064.5873    772.36865    421.70859   -2409.1182 
26991000    267.83931   -3889.6143   -3430.5469   -3889.6143            0     9010.089    16.852834    19.850412    20.560418    6878.1934    9652.4775    8962.1247    8415.6649     -1822.56   -1221.5583   -267.44842   -2526.7323 
26992000    276.09502   -3866.2949   -3393.0775   -3866.2949            0     8435.245    16.862241    19.861493    20.571895    6889.7184    7645.7852    7626.9467    10033.003    236.45669   -272.75796    -39.39454   -2545.5085 
26993000    277.60697   -3824.3507   -3348.5419   -3824.3507            0    9376.5895    16.864661    19.864343    20.574847    6892.6855    10783.085    8662.9573    8683.7258    1449.1215    2115.9594    296.03076   -2405.9813 
26994000    266.07964   -3830.0245   -3373.9731   -3830.0245            0    11141.934    16.827853    19.820988    20.529941    6847.6523     11438.39    10553.773     11433.64   -316.03104   -740.48383    33.970731   -2261.2729 
26995000    275.13531   -3806.1413   -3334.5687   -3806.1413            0    11759.083     16.79229    19.779099    20.486555    6804.3299    13372.371    11866.572    10038.307    308.94819   -795.08228   -732.03611   -2167.6658 
26996000    260.77138   -3820.4334   -3373.4801   -3820.4334            0    10414.597    16.871575    19.872486    20.583282    6901.1655    9470.3925    11172.513    10600.886   -1524.5006   -1026.1884    1060.2389   -2325.2882 
26997000     268.6062   -3845.3047   -3384.9229   -3845.3047            0     11009.76    16.884941     19.88823    20.599589    6917.5806    10227.413    11558.953    11242.913    1576.1263   -476.03362    2288.8543   -2274.1943 
26998000     279.7873   -3840.4578   -3360.9119   -3840.4578            0    8629.7588    16.853054    19.850671    20.560686    6878.4631    9146.6918    8489.2497     8253.335   -954.53587    599.60307    1245.9242   -2495.2148 
26999000    254.49366   -3878.0527   -3441.8593   -3878.0527            0    9151.5278    16.889066    19.893088    20.604621    6922.6513    7963.2245    8342.2947    11149.064    -325.2171    -330.1143   -763.52897   -2517.9232 
27000000    284.68171   -3850.7341   -3362.7994   -3850.7341            0    10056.806    16.904958    19.911808     20.62401    6942.2125    8224.7756    9851.1293    12094.513    144.25189   -972.51479   -429.98537   -2344.5976 
Loop time of 496.2 on 64 procs for 250000 steps with 864 atoms

Performance: 87.062 ns/day, 0.276 hours/ns, 503.829 timesteps/s
99.0% CPU use with 64 MPI tasks x 1 OpenMP threads

MPI task timing breakdown:
Section |  min time  |  avg time  |  max time  |%varavg| %total
---------------------------------------------------------------
Pair    | 22.496     | 28.008     | 32.876     |  48.3 |  5.64
Bond    | 0.26525    | 0.28746    | 0.3035     |   1.3 |  0.06
Kspace  | 206.71     | 216.5      | 228.07     |  38.4 | 43.63
Neigh   | 5.952      | 7.2083     | 8.7343     |  31.1 |  1.45
Comm    | 102.96     | 117.77     | 131.02     |  63.9 | 23.74
Output  | 0.97878    | 0.98731    | 0.99447    |   0.7 |  0.20
Modify  | 116.82     | 120.62     | 125.5      |  21.1 | 24.31
Other   |            | 4.808      |            |       |  0.97

Nlocal:        13.5000 ave          19 max           9 min
Histogram: 2 3 7 7 13 13 7 8 2 2
Nghost:        2274.25 ave        2327 max        2218 min
Histogram: 2 3 6 10 11 7 9 9 5 2
Neighs:        4438.67 ave        6468 max        3039 min
Histogram: 6 9 6 9 14 8 5 3 2 2

Total # of neighbors = 284075
Ave neighs/atom = 328.79051
Ave special neighs/atom = 2.0000000
Neighbor list builds = 14521
Dangerous builds = 0

unfix		3
unfix		2
unfix		1

write_data	data.final.${pid}
write_data	data.final.0
System init for write_data ...
PPPM initialization ...
  extracting TIP4P info from pair style
  using 12-bit tables for long-range coulomb (../kspace.cpp:340)
  G vector (1/distance) = 0.37460225
  grid = 24 24 24
  stencil order = 5
  estimated absolute RMS force accuracy = 0.0031223533
  estimated relative force accuracy = 9.4028741e-06
  using double precision FFTW3
  3d grid and FFT values/proc = 2535 216
Last active /omp style is kspace_style pppm/tip4p/omp
WARNING: Not all mixed pair coeffs generated from mixing. Use write_data with 'pair ij' option to store all pair coeffs. (../write_data.cpp:312)

write_restart   restart.lmp.${pid}
write_restart   restart.lmp.0
System init for write_restart ...
PPPM initialization ...
  extracting TIP4P info from pair style
  using 12-bit tables for long-range coulomb (../kspace.cpp:340)
  G vector (1/distance) = 0.37460225
  grid = 24 24 24
  stencil order = 5
  estimated absolute RMS force accuracy = 0.0031223533
  estimated relative force accuracy = 9.4028741e-06
  using double precision FFTW3
  3d grid and FFT values/proc = 2535 216
Last active /omp style is kspace_style pppm/tip4p/omp
Total wall time: 0:08:19
