LAMMPS (30 Jul 2021)
  using 1 OpenMP thread(s) per MPI task
package omp 0
using multi-threaded neighbor list subroutines
echo both

include		in.partitions
variable        pid world 0
include		in.temp
variable        temperature equal 262.93
variable	tempDamp equal 100.0
include		in.pressure
variable        pressure equal 8250.0
variable        pressureDamp equal 1000.0 # This is 1 ps
include		in.seed
variable        seed world 745823

units		real
atom_style	full
read_restart	restart.lmp.${pid}
read_restart	restart.lmp.0
Reading restart file ...
  restart file = 30 Jul 2021, LAMMPS = 30 Jul 2021
  restoring atom style full from restart
  orthogonal box = (0.57098651 1.7640780 0.69660221) to (17.636586 21.865100 21.516594)
  4 by 4 by 4 MPI processor grid
  restoring pair style lj/cut/tip4p/long/omp from restart
  restoring bond style harmonic/omp from restart
  restoring angle style harmonic/omp from restart
  864 atoms
  576 bonds
  288 angles
Finding 1-2 1-3 1-4 neighbors ...
  special bond factors lj:    0        0        0       
  special bond factors coul:  0        0        0       
     2 = max # of 1-2 neighbors
     1 = max # of 1-3 neighbors
     1 = max # of 1-4 neighbors
     2 = max # of special neighbors
  special bonds CPU = 0.952 seconds
  read_restart CPU = 1.257 seconds
include 	in.setup
variable	out_freq equal 1000
variable	out_freq2 equal 10000
variable	out_freq3 equal 1000

timestep	2.0

neigh_modify    delay 7 every 1

include		in.tip4p
# This is TIP4P/Ice

# create groups ###
group ox type 2
288 atoms in group ox
group hy type 1
576 atoms in group hy

# set charges - beside manually ###
set group ox charge -1.1794
Setting atom values ...
  288 settings made for charge
set group hy charge 0.5897
Setting atom values ...
  576 settings made for charge

# ### TIP3P Potential Parameters ###
pair_style lj/cut/tip4p/long/omp 2 1 1 1 0.1577 8.5
pair_coeff 1 1*2 0.000 0.000
pair_coeff 2 2 0.21084 3.1668
bond_style  harmonic
bond_coeff  1 450 0.9572
angle_style harmonic
angle_coeff 1 55 104.52
kspace_style pppm/tip4p/omp 1.0e-5
pair_modify tail yes

thermo          ${out_freq}
thermo          1000
thermo_style    custom step temp pe etotal epair emol press lx ly lz vol pxx pyy pzz pxy pxz pyz enthalpy

restart 	${out_freq3} restart.lmp.${pid} restart2.lmp.${pid}
restart 	1000 restart.lmp.${pid} restart2.lmp.${pid}
restart 	1000 restart.lmp.0 restart2.lmp.${pid}
restart 	1000 restart.lmp.0 restart2.lmp.0


include         in.dump
dump            myDump all atom ${out_freq2} dump.water.${pid}
dump            myDump all atom 10000 dump.water.${pid}
dump            myDump all atom 10000 dump.water.0
dump            myDump2 all dcd ${out_freq2} dump.dcd
dump            myDump2 all dcd 10000 dump.dcd
dump_modify     myDump append yes
dump_modify     myDump2 append yes


variable natoms 	equal  "count(all)"                        # NUMBER ATOMS
variable H      	equal  "enthalpy/v_natoms"                 # ENTHALPY-per-atom
variable Vol      	equal  "vol/v_natoms"                 # volume-per-atom
fix AVG all 		ave/time ${out_freq} 1 ${out_freq} v_Vol v_H file vol_enthalpy.dat
fix AVG all 		ave/time 1000 1 ${out_freq} v_Vol v_H file vol_enthalpy.dat
fix AVG all 		ave/time 1000 1 1000 v_Vol v_H file vol_enthalpy.dat


timer           timeout 23:50:00 every 1000
New timer settings: style=normal  mode=nosync  timeout=23:50:00

fix 		1 all shake 1e-6 200 0 b 1 a 1
       0 = # of size 2 clusters
       0 = # of size 3 clusters
       0 = # of size 4 clusters
     288 = # of frozen angles
  find clusters CPU = 0.012 seconds
fix             2 all nph iso ${pressure} ${pressure} ${pressureDamp}
fix             2 all nph iso 8250 ${pressure} ${pressureDamp}
fix             2 all nph iso 8250 8250 ${pressureDamp}
fix             2 all nph iso 8250 8250 1000
fix             3 all temp/csvr ${temperature} ${temperature} ${tempDamp} ${seed}
fix             3 all temp/csvr 262.93 ${temperature} ${tempDamp} ${seed}
fix             3 all temp/csvr 262.93 262.93 ${tempDamp} ${seed}
fix             3 all temp/csvr 262.93 262.93 100 ${seed}
fix             3 all temp/csvr 262.93 262.93 100 745823

run             250000
PPPM initialization ...
  extracting TIP4P info from pair style
  using 12-bit tables for long-range coulomb (../kspace.cpp:340)
  G vector (1/distance) = 0.37382204
  grid = 24 24 24
  stencil order = 5
  estimated absolute RMS force accuracy = 0.0032115198
  estimated relative force accuracy = 9.6713964e-06
  using double precision FFTW3
  3d grid and FFT values/proc = 2535 216
Last active /omp style is kspace_style pppm/tip4p/omp
Neighbor list info ...
  update every 1 steps, delay 7 steps, check yes
  max neighbors/atom: 2000, page size: 100000
  master list distance cutoff = 10.8154
  ghost atom cutoff = 10.8154
  binsize = 5.4077, bins = 4 4 4
  1 neighbor lists, perpetual/occasional/extra = 1 0 0
  (1) pair lj/cut/tip4p/long/omp, perpetual
      attributes: half, newton on, omp
      pair build: half/bin/newton/omp
      stencil: half/bin/3d
      bin: standard
Per MPI rank memory allocation (min/avg/max) = 9.237 | 9.238 | 9.241 Mbytes
Step Temp PotEng TotEng E_pair E_mol Press Lx Ly Lz Volume Pxx Pyy Pzz Pxy Pxz Pyz Enthalpy 
 5000000    263.85057   -3822.6782   -3370.4473   -3822.6782            0    6172.6355    17.065599    20.101022    20.819991    7142.0063    6374.4402    6335.5711    5807.8953   -537.81708    660.80622   -120.92568   -2727.5128 
 5001000    268.72598   -3821.7974   -3361.2103   -3821.7974            0    9428.2559    16.959636    19.976211    20.690716    7009.7924    10827.476    10471.431    6985.8611    1044.6543   -271.20722   -263.89331   -2397.3537 
 5002000    261.19242   -3842.1531   -3394.4783   -3842.1531            0    6761.6912    17.023524    20.051463     20.76866    7089.3105    7599.9339    6250.2191    6434.9205    851.25421    773.20832    934.56294   -2695.3848 
 5003000    266.37726   -3861.0175    -3404.456   -3861.0175            0    7182.6419    16.986267    20.007578    20.723206    7042.8656    6809.6609      6724.76    8013.5047   -1219.8649   -155.08374   -1056.7733   -2666.7055 
 5004000    239.79478    -3864.629   -3453.6289    -3864.629            0    7549.5104    16.966217    19.983963    20.698745    7017.9563    7363.4275    7850.1565    7434.9472    13.555476    360.27403    1462.2527   -2680.9389 
 5005000    269.45192   -3870.5395   -3408.7081   -3870.5395            0    8437.9303    16.971522    19.990211    20.705217    7024.5408    8179.6645    9198.7704    7935.3559   -1028.7329   -2310.5769   -278.74662   -2544.2783 
 5006000    264.26746   -3860.6407   -3407.6953   -3860.6407            0    9480.7582    17.053118    20.086321    20.804765    7126.3477    8453.6528    9831.2061    10157.416    1250.3022   -215.16494   -361.41158   -2422.3556 
 5007000    264.32449   -3838.8066   -3385.7634   -3838.8066            0    9975.5623    16.987561    20.009103    20.724785     7044.476    10233.318    10079.708    9613.6609    -715.8283    986.03116   -783.16846   -2360.9095 
 5008000    264.75759   -3849.9822   -3396.1968   -3849.9822            0    8723.3141    16.997111    20.020351    20.736436    7056.3629    8154.0809    9803.9152    8211.9463   -770.73984    719.72929    877.36943   -2498.4821 
 5009000    277.73003   -3873.3114   -3397.2916   -3873.3114            0    9280.5354    16.989401    20.011271     20.72703    7046.7656    10452.582    9766.1323    7622.8919   -1685.8325    1410.8035    2794.7587   -2443.5324 
 5010000    262.98955   -3880.1944   -3429.4393   -3880.1944            0    6605.0453    17.031211    20.060516    20.778037    7098.9177    7467.4874    5412.9294     6934.719    264.69366    652.07729       311.28   -2745.6161 
 5011000    260.24041   -3850.8955   -3404.8523   -3850.8955            0    8048.0865    16.954049     19.96963      20.6839    7002.8671    8436.0861    6825.1656    8883.0079   -195.03634   -269.05802    1720.6785   -2582.9042 
 5012000    274.39533   -3825.3335   -3355.0293   -3825.3335            0    9067.8681    16.952579    19.967898    20.682106    7001.0453     9379.942    7516.0876    10307.575   -220.68288     569.4957   -766.49032   -2429.1722 
 5013000    263.76885   -3829.3863   -3377.2955   -3829.3863            0    8446.9314    16.983564    20.004396    20.719909     7039.505    8053.8443    7442.9988    9843.9511   -138.84568    625.14844   -1939.3671   -2510.1001 
 5014000    250.63237   -3864.3501   -3434.7748   -3864.3501            0    7407.8174    17.023854    20.051851    20.769062    7089.7225    6938.1941    7512.3416    7772.9166    1060.7187    220.86395   -2489.0688   -2668.8337 
 5015000     273.6816   -3888.4834   -3419.4025   -3888.4834            0    6080.0039    17.081875    20.120192    20.839847    7162.4597     4912.184    6624.9342    6702.8936   -1111.9176   -1175.5834    1377.1624   -2784.3028 
 5016000    286.17736   -3905.4934   -3414.9952   -3905.4934            0    9043.3214    16.954837    19.970559    20.684862    7003.8443    8192.3767    10116.113    8821.4742   -1021.7642    484.92547   -1234.6618   -2491.2752 
 5017000    262.50902   -3869.2785   -3419.3471   -3869.2785            0    6856.5381    17.046759    20.078831    20.797007    7118.3786    5592.6658    7555.6976     7421.251   -1271.2639    909.58344    409.85997   -2707.5407 
 5018000    251.54618   -3890.0501   -3458.9086   -3890.0501            0    7745.7171     17.01375     20.03995    20.756735    7077.1064    6932.0866    8006.5857    8298.4789    1354.8894   -250.25301    -4.665613    -2659.455 
 5019000    255.81549   -3875.4732   -3437.0142   -3875.4732            0    7719.4944    17.055239    20.088818    20.807351    7129.0063    6176.6464    8793.0378    8188.7988    1026.9162    442.94854   -974.65469   -2634.4242 
 5020000    255.47429   -3899.4127   -3461.5385   -3899.4127            0     8057.889    16.996865    20.020062    20.736136    7056.0573    7131.8529    10486.637    6555.1775    1503.9663    523.17426   -1284.4173   -2632.3386 
 5021000    256.95787   -3862.5379   -3422.1209   -3862.5379            0    9356.6923    16.917281    19.926322    20.639043    6957.4045    8280.3869    8427.4888    11362.201   -471.67974    -309.4421    1068.6011   -2472.7291 
 5022000     262.3045   -3849.3946   -3399.8137   -3849.3946            0    8147.8291    17.009581    20.035039    20.751649     7071.905    8280.2439    8299.1615    7864.0818    1254.8721   -820.99416    -1138.005   -2559.4753 
 5023000    258.36622   -3890.1651   -3447.3342   -3890.1651            0    8757.9468     16.98164    20.002129    20.717561    7037.1124    7334.0675    7965.0611    10974.712    952.01272   -301.14993   -372.45125   -2548.5143 
 5024000    272.98232   -3835.5575   -3367.6752   -3835.5575            0    6573.3777    17.068664    20.104632     20.82373    7145.8545    7845.5921    5539.9985    6334.5424    325.21984    2140.5142   -158.04939   -2682.6309 
 5025000    267.49299   -3875.7447   -3417.2709   -3875.7447            0    5936.9735    17.034917    20.064883    20.782559     7103.554    5334.0132     7803.052    4673.8553   -52.423331   -1164.7351   -1357.5464    -2802.212 
 5026000    262.32327   -3823.5404   -3373.9273   -3823.5404            0    7274.0197    17.026359    20.054801    20.772118    7092.8523    6458.8542    6872.2347    8490.9701    -877.5039    592.34897   -1130.2881   -2621.4884 
 5027000    268.24926   -3873.3923   -3413.6223   -3873.3923            0    8922.4869    17.033816    20.063585    20.781215    7102.1759    9431.8881    9169.4722    8166.1003   -213.04865   -552.23294    -1702.836   -2489.4494 
 5028000    261.47901    -3886.615   -3438.4489    -3886.615            0    8272.5874    17.004776     20.02938    20.745787     7065.914    6428.8657    8832.9311    9555.9655   -1217.7032   -168.93764    235.19263   -2585.9661 
 5029000    246.85705   -3892.3552   -3469.2506   -3892.3552            0    8382.4106    17.022199    20.049902    20.767043    7087.6551    10221.523    7441.7461    7483.9626   -535.49371   -628.54534   -460.35878   -2602.7929 
 5030000    277.50327   -3880.2473   -3404.6162   -3880.2473            0    6820.3933     17.03346    20.063166    20.780781     7101.731    6737.2819    7701.9148    6021.9832    656.94541   -353.31047    1919.2667   -2698.2181 
 5031000    261.87653    -3830.341   -3381.4936    -3830.341            0     8442.792    17.074304    20.111274    20.830611    7152.9402    7619.1898    8305.4535    9403.7326   -369.26892   -1266.3455   -1028.3439   -2500.7559 
 5032000    259.26163   -3809.2182   -3364.8527   -3809.2182            0    8852.3214    16.957714    19.973948    20.688372    7007.4102    9441.4652     8104.438    9011.0609    33.358056    462.81487    662.25213   -2460.1818 
 5033000    275.99827   -3862.2139   -3389.1623   -3862.2139            0    7437.2307    16.961254    19.978116     20.69269    7011.7987    7675.8342    8073.7165    6562.1415    1176.9733    869.28947   -785.04882   -2628.6319 
 5034000    263.39383   -3859.8145   -3408.3665   -3859.8145            0    9142.9064    16.895201    19.900316    20.612106     6930.199    6876.1734    11490.236    9062.3101   -327.53289    1068.4197    1767.5093   -2484.2943 
 5035000    243.40012    -3856.519   -3439.3395    -3856.519            0    8000.2174    16.950151    19.965039    20.679145    6998.0383    7659.2892    9655.6345    6685.7285    547.33954    31.604608    357.58108   -2622.8436 
 5036000    257.07549   -3867.4091   -3426.7905   -3867.4091            0    8953.6541    16.952099    19.967334    20.681522    7000.4515    11322.837     7387.201    8150.9245   -404.20127    766.14292   -676.10467   -2512.6725 
 5037000    275.87501   -3883.6219   -3410.7816   -3883.6219            0    8089.0848    16.979101    19.999138    20.714463    7033.9558     6482.918    8155.2883     9629.048   -1003.3506    -2684.849   -623.92235   -2580.9788 
 5038000    265.58643   -3839.1773   -3383.9712   -3839.1773            0    7794.8198     16.90875    19.916274    20.628636    6946.8848    6126.2553    6372.7331    10885.471     -78.4671    1250.9602     93.52698   -2594.2532 
 5039000    267.79578   -3856.5999   -3397.6071   -3856.5999            0    7174.9299    16.953213    19.968645     20.68288    7001.8312     5828.954    5837.4732    9858.3625   -838.41403   -700.98036    547.10265   -2664.9425 
 5040000    273.37059   -3889.5745   -3421.0267   -3889.5745            0      8723.31    16.897972    19.903579    20.615487    6933.6094    7694.5762    9147.8871    9327.4667    349.47178    926.13693    -823.5684   -2538.9292 
 5041000    247.62143   -3840.3961   -3415.9814   -3840.3961            0    6513.5399    16.977644    19.997422    20.712686    7032.1454    6467.9536    6085.3112    6987.3548    -339.7816   -865.61209    1335.9121   -2747.9747 
 5042000    259.37304   -3841.2187   -3396.6622   -3841.2187            0    10585.869    16.915275     19.92396    20.636596    6954.9302    10323.409    11644.842    9789.3556    1002.7658    297.96944    1947.7981    -2322.932 
 5043000    269.08121     -3850.06    -3388.864     -3850.06            0    9252.3138     16.91382    19.922246    20.634821    6953.1362    7231.1672    9062.1686    11463.606   -955.89675   -328.16427    884.15742   -2450.6391 
 5044000    269.14583   -3859.8234   -3398.5166   -3859.8234            0    10355.803    16.897552    19.903084    20.614974    6933.0922     9676.565    9654.6711    11736.174   -198.13383    1987.8283    599.81243   -2351.4203 
 5045000    260.56446   -3896.1943   -3449.5957   -3896.1943            0    9945.3442    16.901081    19.907241     20.61928    6937.4371    9642.6297    9067.2415    11126.162   -1458.0488    645.45101   -447.06808   -2443.3715 
 5046000    273.60451   -3847.8683   -3378.9195   -3847.8683            0    10126.894    16.973981    19.993107    20.708217    7027.5945      10165.4    9686.8127     10528.47    907.87099   -861.73313   -201.72122   -2341.0115 
 5047000    256.23186   -3866.3931   -3427.2205   -3866.3931            0    8572.9113    16.983499    20.004319    20.719829    7039.4239    9056.8439    8848.6564    7813.2337    161.63627   -10.021615    691.52958   -2547.1016 
 5048000    268.14196   -3860.1298   -3400.5437   -3860.1298            0    8951.2189    16.949835    19.964667    20.678759    6997.6468    8749.6268    7821.2948    10282.735   -336.74382    744.86938    1201.5091   -2487.0405 
 5049000    270.37902   -3834.2403   -3370.8199   -3834.2403            0     8922.252    16.903872    19.910529    20.622685    6940.8745    9517.6794    8798.7627    8450.3138     1015.875     200.5789    216.16841   -2467.6602 
 5050000    263.72159   -3850.4124   -3398.4026   -3850.4124            0    9458.5809    16.956835    19.972912    20.687299    7006.3201    10723.162     8007.589    9644.9915    733.96258    193.41382    1560.2512   -2431.9249 
 5051000    258.55791   -3821.5555   -3378.3961   -3821.5555            0    6852.9733    17.058413    20.092558    20.811224     7132.988    6621.8783    8051.7478    5885.2938    602.44579    116.02598   -1082.3827   -2665.4997 
 5052000    259.17434   -3859.0496   -3414.8337   -3859.0496            0    9535.6008     17.02728    20.055886    20.773241    7094.0035    6816.7656    10905.125    10884.912   -596.30324    554.77798    46.144471   -2428.2922 
 5053000    265.07493   -3877.1828   -3422.8534   -3877.1828            0    8649.1504    16.959262    19.975771    20.690261    7009.3295    8180.9726    10479.348    7287.1311    80.146805   -242.67378   -1471.8909   -2538.7037 
 5054000    267.19911   -3868.3281   -3410.3579   -3868.3281            0    10313.521    17.011717    20.037556    20.754255    7074.5703    11780.223    10073.034    9087.3067    570.17055    1754.1517    777.91923   -2346.2567 
 5055000    257.08708   -3860.1317   -3419.4932   -3860.1317            0    8274.3676    17.038507     20.06911    20.786938    7108.0449    9255.9347    7452.3786    8114.7895   -420.74356    106.59631    -491.1746   -2561.7429 
 5056000    276.51141   -3850.2522   -3376.3211   -3850.2522            0    8290.3904    17.067131    20.102826     20.82186    7143.9299    8189.4636    9487.5147    7194.1931    769.95676   -375.51205    1152.1073   -2512.5711 
 5057000    265.01546   -3879.8954   -3425.6679   -3879.8954            0    8176.8521    17.027777    20.056472    20.773848    7094.6245    9793.0315     7587.584    7149.9409    1888.9923   -691.38137   -225.77542   -2579.6269 
 5058000    252.12108   -3827.6206   -3395.4937   -3827.6206            0    8903.8105    17.002313    20.026479    20.742782    7062.8442     12093.31    7262.6813    7355.4406   -691.27041   -668.72034   -216.21159   -2478.3626 
 5059000    265.16013   -3853.8453   -3399.3699   -3853.8453            0    8623.4255    17.039304    20.070049    20.787911    7109.0427    7120.2503    10911.944    7838.0828   -430.71611    1886.3837   -237.89756   -2505.3096 
 5060000    246.08793   -3861.0837   -3439.2974   -3861.0837            0    7715.9032    17.044421    20.076076    20.794153    7115.4493    7112.5115    7566.6048    8468.5932   -1610.2998   -379.23672   -2955.6332   -2638.6063 
 5061000    250.76967   -3842.7074   -3412.8968   -3842.7074            0    8058.9148    17.036567    20.066826    20.784572    7105.6181    8628.8855    8543.5934    7004.2655   -2477.7703   -2155.3244    258.92767   -2577.7663 
 5062000    255.93957   -3825.9722   -3387.3006   -3825.9722            0    5633.1903     17.12683    20.173144    20.894693    7219.1581     5937.359    4242.2951     6719.917   -245.83515    307.62494   -638.21189   -2794.2157 
 5063000    265.20073   -3809.2666   -3354.7216   -3809.2666            0     7339.722    17.033446    20.063149    20.780764    7101.7128    6987.3235     8328.197    6703.6455    373.28775    794.61448   -281.85182   -2594.5378 
 5064000    265.59005   -3844.6718   -3389.4596   -3844.6718            0    7002.5161    17.000389    20.024213    20.740435    7060.4467    7368.0567    6274.8062    7364.6855    1048.3052   -394.05083   -340.04465   -2668.4149 
 5065000    263.67218   -3904.3047   -3452.3796   -3904.3047            0     4749.055    17.101768    20.143624    20.864118    7187.5132    7116.3776    3062.7478    4068.0396   -773.47665   -1977.4751    1159.8901   -2954.5718 
 5066000    279.87883   -3843.4231   -3363.7204   -3843.4231            0    9085.0947    16.993609    20.016226    20.732163    7052.0019    7391.6626    10397.433    9466.1884    960.59146   -571.69347    1829.9264   -2429.3528 
 5067000    248.29771   -3856.9509   -3431.3771   -3856.9509            0    8971.4553    16.983292    20.004074    20.719576    7039.1659    8223.7151    8678.8963    10011.755   -525.52783   -845.48776    726.79212   -2510.3763 
 5068000    261.28918   -3863.3933   -3415.5526   -3863.3933            0    8954.7391    17.019248    20.046427    20.763443    7083.9702    7083.1713    10313.159     9467.887     -1210.86    -356.1682    677.34349   -2490.4166 
 5069000    249.84104   -3878.8355   -3450.6165   -3878.8355            0    7761.9484    17.031607    20.060983     20.77852    7099.4132    7047.4072    8242.3841    7996.0539   -168.79109    1368.0366    23.697773   -2646.9626 
 5070000    266.97142   -3870.4749    -3412.895   -3870.4749            0    6489.3571    17.039303    20.070048     20.78791    7109.0415    6202.6451    6753.1328    6512.2935   -509.27226   -1182.4971   -1389.8649   -2740.0909 
 5071000    258.19563   -3849.0485     -3406.51   -3849.0485            0    7185.0811    16.995096    20.017978    20.733977    7053.8538    7079.8474    7109.3364    7366.0593   -2182.7306   -654.57167    1006.1672   -2667.3576 
 5072000    277.12208   -3810.8806   -3335.9028   -3810.8806            0    10085.206     17.02849    20.057312    20.774719    7095.5169    10035.887    10392.204    9827.5283    933.69853     -962.895   -1654.8876   -2292.2773 
 5073000    250.95039   -3871.6044    -3441.484   -3871.6044            0    9917.8868    17.015012    20.041436    20.758274    7078.6808    8449.7363    10477.122    10826.802     970.3379    130.27519   -600.87738    -2417.608 
 5074000    259.17913   -3875.9044   -3431.6803   -3875.9044            0    9215.3898     16.97434     19.99353    20.708655     7028.041    9432.9393    8864.6236    9348.6066   -647.68146   -244.97757     290.5553   -2487.1326 
 5075000    266.38012   -3863.6227   -3407.0563   -3863.6227            0    8452.0887    16.955494    19.971332    20.685662    7004.6573    7764.1466    8323.1545     9268.965   -209.03141   -791.52746   -244.21803   -2543.6269 
 5076000    254.06132    -3862.177   -3426.7246    -3862.177            0     7641.367    17.029005    20.057918    20.775346    7096.1598    6966.8252    6216.5421    9740.7336   -109.86937    2362.3035    2453.4975   -2635.9179 
 5077000    266.48123    -3908.759   -3452.0193    -3908.759            0    7746.6249    17.014894    20.041298    20.758131    7078.5345    7067.1533    9053.6659    7119.0557   -1489.0921     689.4235    417.21327   -2652.3107 
 5078000    272.37039   -3828.5229   -3361.6894   -3828.5229            0     8165.199    16.995273    20.018186    20.734193     7054.074    8768.1769    6841.4649    8885.9551   -619.53304      537.873   -863.64357   -2521.6828 
 5079000    264.41273   -3858.1459   -3404.9515   -3858.1459            0    8808.1296    16.986812    20.008221    20.723871    7043.5438    8903.5152    8404.0754    9116.7983   -607.03182    932.66902    1121.8404   -2500.1553 
 5080000    282.76734   -3849.8116   -3365.1581   -3849.8116            0    8740.1279    17.017509    20.044377    20.761321    7081.7979    8500.2384    9554.8446    8165.3005   -1905.6769     1808.644   -1075.1085    -2462.471 
 5081000    262.18135   -3872.6796   -3423.3098   -3872.6796            0    7386.8455    17.085194    20.124102    20.843897     7166.636    9475.9028    7116.0317    5568.6018    -526.4807    835.41778   -274.91033   -2651.2512 
 5082000     258.2018   -3856.7476   -3414.1985   -3856.7476            0    8319.8203    16.970233    19.988692    20.703644    7022.9403    9245.3931    9900.4549     5813.613    -2949.264    1058.1181   -48.934659   -2562.0627 
 5083000    240.47702   -3843.7367   -3431.5673   -3843.7367            0    10009.975    16.960983    19.977797    20.692359    7011.4626    9848.9008    10687.715     9493.308    624.00357   -134.10845   -528.00588   -2407.9974 
 5084000    279.43299   -3859.8417   -3380.9032   -3859.8417            0    7853.8897    17.032737    20.062314    20.779899    7100.8265    7481.6218    7148.9098    8931.1375   -654.45095     902.8298   -815.63186   -2567.5679 
 5085000    267.17774   -3859.2791   -3401.3456   -3859.2791            0    10775.628    16.917918    19.927073    20.639821     6958.191    10426.527    10321.359    11578.999    1034.1871   -1353.3266   -1130.5438   -2307.8556 
 5086000     269.3212   -3862.7738   -3401.1665   -3862.7738            0    5075.3153    17.068767    20.104753    20.823856    7145.9841    5517.9581    5846.9731    3861.0148     1343.062     368.6685    893.41724   -2872.2332 
 5087000    265.83131   -3894.2378   -3438.6121   -3894.2378            0     7390.077     16.99998    20.023731    20.739936    7059.9367    9380.4601    6227.4555    6562.3153    601.55422    244.93611     132.7211   -2677.7154 
 5088000    258.87456    -3818.749   -3375.0469    -3818.749            0    8982.1355     16.96308    19.980267    20.694918    7014.0637    9280.8303    7845.4249    9820.1513   -649.20138    637.75641   -824.28576    -2456.238 
 5089000    253.45535   -3889.8464   -3455.4327   -3889.8464            0    8114.5274    16.992675    20.015126    20.731024    7050.8395    8779.5359    6376.0167    9188.0295    137.22143    662.48487   -840.52806   -2621.0218 
 5090000    268.62677   -3872.8226   -3412.4055   -3872.8226            0    8253.0224    16.998196     20.02163    20.737759    7057.7144     7962.149    8470.2925    8326.6256   -622.37749    507.87599   -221.78241   -2562.9259 
 5091000    250.31084   -3857.7147   -3428.6905   -3857.7147            0    8265.3715    16.970119    19.988558    20.703505    7022.7991    9959.3286    7114.9678    7721.8181    953.87438    495.21748   -164.55614   -2582.1485 
 5092000     271.8468   -3859.2327   -3393.2966   -3859.2327            0    9110.0734    17.025178    20.053411    20.770678    7091.3776      8194.03     8743.281    10392.909   -946.53211    525.87711   -324.46785   -2451.1285 
 5093000     263.8013   -3885.5251   -3433.3787   -3885.5251            0    9446.5873    16.993607    20.016224    20.732161    7051.9998    10310.233    7124.1846    10905.344    292.42829   -970.71653   -312.68698   -2461.8333 
 5094000    253.33254   -3869.2303   -3435.0269   -3869.2303            0    9868.1777    17.001312      20.0253    20.741561    7061.5965    10107.755    10828.889    8667.8888    2505.9697   -115.66122    1296.9834   -2418.7414 
 5095000     269.7065   -3904.1209   -3441.8532   -3904.1209            0    8816.8238    17.032352    20.061861     20.77943    7100.3454    9597.1817    9173.8813    7679.4085   -746.93396    386.01225   -183.75252     -2528.86 
 5096000    270.17197   -3855.4069   -3392.3413   -3855.4069            0    5559.7294    17.081811    20.120117     20.83977    7162.3797    6516.5334    4133.0286    6029.6261    -1256.587    610.93814    -197.8681   -2811.5945 
 5097000    276.95305   -3892.1651   -3417.4771   -3892.1651            0    7545.1945    16.994644    20.017446    20.733426     7053.291      8557.69    7444.8465    6633.0471    706.52064    996.99142   -427.75253   -2641.3405 
 5098000    262.94886   -3907.9497   -3457.2644   -3907.9497            0    8351.9893    16.972052    19.990836    20.705864    7025.1994     7039.885    8127.2207    9888.8623    817.36921    628.59367   -197.16443   -2601.5586 
 5099000    264.21064   -3863.3216   -3410.4736   -3863.3216            0    7614.4147    17.059208    20.093494    20.812194    7133.9852    7664.4033    8953.5592    6225.2817    -2268.011    472.44427     803.7957   -2618.2557 
 5100000    255.24644   -3870.3277   -3432.8441   -3870.3277            0     9245.883    16.968289    19.986403    20.701273    7020.5278    8426.6241    9420.2681    9890.7569    202.67685   -481.63015   -1441.0922    -2486.184 
 5101000    257.39426   -3892.0827   -3450.9177   -3892.0827            0     6515.053    16.990579    20.012657    20.728466    7048.2304    8054.6866    4565.1069    6925.3653    391.48985   -45.598118   -1437.5983   -2781.2275 
 5102000    267.99382   -3867.8025   -3408.4703   -3867.8025            0     8225.683    17.011551     20.03736    20.754053    7074.3631    8718.7165    7250.8583    8707.4743   -481.34697    462.47359   -1270.6017   -2559.8074 
 5103000     252.8972   -3854.0091    -3420.552   -3854.0091            0     7594.969    17.008936     20.03428    20.750863    7071.1014    8890.4017    7579.5749    6314.9305   -835.51395    688.05238   -105.14315   -2637.3226 
 5104000    259.96568   -3903.8387   -3458.2664   -3903.8387            0    7537.9274      16.9538    19.969337    20.683596    7002.5583    6540.8463    5822.2503    10250.685   -660.23656   -660.44307   -63.368855   -2688.4546 
 5105000     270.8443   -3862.5039   -3398.2861   -3862.5039            0    10494.779    16.928574    19.939624    20.652821    6971.3473    9432.0408    11823.264    10229.032   -2211.1056   -697.07632   -240.84268   -2331.2825 
 5106000    253.57442    -3880.216   -3445.5981    -3880.216            0    10120.038     16.92574    19.936286    20.649364    6967.8469    8311.7932    9855.7728    12192.549    -1128.602   -840.17962    454.90167   -2417.2109 
 5107000    257.29405   -3874.8544   -3433.8612   -3874.8544            0    7515.3455     16.98223    20.002824    20.718281    7037.8461    7398.7475    9912.6647    5234.6243   -192.56241    90.760147    291.54435   -2662.4879 
 5108000    263.81743    -3845.282   -3393.1079    -3845.282            0    9346.8982    16.965605    19.983242    20.697999    7017.1972    8541.5735     10306.69    9192.4312     511.2283   -1742.3493    328.21423   -2436.5592 
 5109000    272.91544   -3885.6705   -3417.9028   -3885.6705            0    7776.1739    17.010387    20.035989    20.752633    7072.9108    7627.5093    8412.8707    7288.1416   -83.903013   -1347.6012   -374.43166   -2615.7815 
 5110000    266.29617   -3892.9879   -3436.5654   -3892.9879            0    6961.3181    17.033308    20.062987    20.780596    7101.5412    7912.8982    6275.8957    6695.1604    122.69839   -72.104344   -1185.2246   -2715.5908 
 5111000    258.23867   -3848.1679   -3405.5557   -3848.1679            0     8757.614    16.950669    19.965649    20.679776    6998.6793    9053.5254    7186.8465     10032.47   -1216.1534    620.49413   -54.443523   -2511.6786 
 5112000    262.72324   -3875.8176    -3425.519   -3875.8176            0     8021.744    16.959528    19.976084    20.690585    7009.6588     5279.491    10644.338    8141.4028    397.36323   -908.62905     654.3415   -2605.4666 
 5113000    270.14644   -3883.2193   -3420.1975   -3883.2193            0    8221.0869    16.922933     19.93298    20.645939    6964.3807     8516.969    7453.2203    8693.0715    214.91699    -743.7522     168.8756   -2585.1953 
 5114000    269.89833   -3855.7799   -3393.1834   -3855.7799            0    7489.2876    17.031104    20.060391    20.777907    7098.7844     6411.527    8336.3194    7720.0164    1312.4886    963.88686   -229.97492   -2617.8287 
 5115000     266.6569   -3854.2539   -3397.2131   -3854.2539            0    9483.6358    17.026212    20.054629    20.771939    7092.6693    9145.0183    9337.1137    9968.7754   -632.95594    1567.5916    1106.7924   -2416.2324 
 5116000    249.15501   -3870.3067   -3443.2635   -3870.3067            0    7465.0242    17.025349    20.053612    20.770886    7091.5903    7828.8979    6688.9753    7877.1995   -789.36328   -173.25909    728.31528    -2671.204 
 5117000    259.68922   -3895.2554    -3450.157   -3895.2554            0    7986.1681    16.987488    20.009017    20.724695    7044.3846    9046.2496    7274.3122    7637.9426   -678.02395    -636.3346    1342.3605    -2629.697 
 5118000    262.15126    -3884.645   -3435.3267    -3884.645            0    8854.3952     16.95203    19.967252    20.681436    7000.3651    9431.0185    9816.5711    7315.5961   -26.300022    307.51004    1569.1036   -2531.3537 
 5119000     266.5359    -3849.828   -3392.9946    -3849.828            0    8050.3534    16.980014    20.000213    20.715577    7035.0907    8705.7912    9661.6778    5783.5913    226.88072   -1206.9709   -740.55062   -2567.0317 
 5120000    262.13447   -3872.3003   -3423.0108   -3872.3003            0    7599.8853     16.96554    19.983166     20.69792    7017.1163    7170.4213    7494.5552    8134.6794    -113.1606    1030.9175   -256.37962   -2645.2579 
 5121000    257.37296   -3828.6364   -3387.5079   -3828.6364            0    9355.0409    16.906963     19.91417    20.626456     6944.683    7013.2804    10172.423    10879.419    189.52508   -1658.1324    1414.0249   -2440.0193 
 5122000    271.80823   -3825.7486   -3359.8785   -3825.7486            0    8235.1644    16.962755    19.979885    20.694522     7013.661    7251.9416    8657.8856    8795.6659    794.34352    615.56548      85.6095   -2517.5279 
 5123000    262.44297   -3885.7847   -3435.9664   -3885.7847            0    8890.3203    16.949455     19.96422    20.678296    6997.1765    9263.0586    9044.8971    8363.0052      -420.53   -385.96443    367.21652   -2528.7391 
 5124000    259.96787   -3844.1183   -3398.5422   -3844.1183            0    9271.8411    16.959216    19.975717    20.690204    7009.2723    7499.3643    10775.748    9540.4111   -523.13662   -134.10917   -575.43366   -2450.7464 
 5125000    271.61691    -3837.819   -3372.2769    -3837.819            0    6809.8471    17.078502    20.116219    20.835732    7158.2178    10068.555    5609.1028    4751.8838    -1677.432   -592.37434   -942.05868   -2661.3611 
 5126000    266.63944   -3855.2385   -3398.2276   -3855.2385            0     7941.388    16.999458    20.023116    20.739299    7059.2861     8480.935    7335.0706    8008.1584   -64.447294    1685.7254    893.79923   -2580.6423 
 5127000    266.28494    -3859.319   -3402.9157    -3859.319            0     8865.228    17.009516    20.034964     20.75157    7071.8248    9470.7548    8151.4691    8973.4602    226.42901   -252.51013    651.92884   -2488.5977 
 5128000    269.52746   -3879.0422   -3417.0814   -3879.0422            0    8274.1486    17.025264    20.053512    20.770782    7091.4839    9292.5045    7581.5282    7948.4131    1155.8895    1298.9335    644.34178   -2561.3522 
 5129000    278.00086   -3835.7938   -3359.3098   -3835.7938            0    10602.485    16.978567    19.998509    20.713812    7033.2926    11772.529    11437.664    8597.2621    728.61802   -1077.1954    889.22467   -2271.7773 
 5130000    251.69513   -3831.0263   -3399.6294   -3831.0263            0    6864.2773    17.019978    20.047286    20.764334    7084.8814    7414.1307    6044.9374    7133.7639   -947.87093    870.00013   -317.75977    -2690.373 
 5131000    264.95468   -3896.1125   -3441.9892   -3896.1125            0     8728.776    17.030417    20.059581    20.777068     7097.925    8519.1914    9209.4976     8457.639    851.02138   -142.51658   -752.73907   -2538.4217 
 5132000    275.27647   -3830.2761   -3358.4617   -3830.2761            0    7493.1489    17.025626    20.053938    20.771224    7091.9367    7409.2368    7076.2796    7993.9303    1248.6623   -368.00232   -1088.7277   -2583.4556 
 5133000    261.17913   -3845.5485   -3397.8964   -3845.5485            0    8254.9323    17.047598    20.079819     20.79803    7119.4295    8048.3384    9131.1255     7585.333   -1979.3111    262.62072   -71.340623   -2540.7903 
 5134000    253.49041   -3869.9393   -3435.4654   -3869.9393            0    8145.1046    17.018755    20.045846    20.762842    7083.3543     7321.805    8387.9433    8725.5655   -1199.9398   -872.55239    1237.9113   -2594.0479 
 5135000    249.78567   -3869.8154   -3441.6913   -3869.8154            0    6647.6597    17.066378    20.101939    20.820941    7142.9841    6495.0498    7382.2311    6065.6983    549.18996   -458.06721   -1243.5418    -2749.184 
 5136000    259.82727   -3822.9483   -3377.6132   -3822.9483            0     9433.324    17.027373    20.055996    20.773355    7094.1203    9485.7001    10747.665    8066.6065    1139.8025   -1915.1601     344.1153   -2401.6371 
 5137000    264.11622   -3880.6751   -3427.9889   -3880.6751            0    9053.7281    17.069632    20.105771    20.824911    7147.0701    7152.0606    9658.7547    10350.369    380.83649    201.61574    162.37166   -2484.2945 
 5138000    270.07862   -3866.4033   -3403.4978   -3866.4033            0    7522.9825    17.053252    20.086478    20.804928    7126.5152    7173.1717    6785.9008    8609.8748    1417.3807    -995.2912   -1001.1871   -2621.6123 
 5139000    252.52748   -3866.7882   -3433.9647   -3866.7882            0    11032.167    16.909831    19.917548    20.629955    6948.2179      12124.7    8758.6285    12213.172   -809.58239   -1055.8432    90.538646   -2316.0462 
 5140000    259.31429   -3823.8985   -3379.4427   -3823.8985            0    7087.8786    17.044433     20.07609    20.794168    7115.4641    6946.2135    6401.6223    7915.8001   -1174.0374    101.22067   -392.72353   -2643.9211 
 5141000    261.21633   -3889.1493   -3441.4334   -3889.1493            0    8314.8025    16.988205    20.009861     20.72557    7045.2768    6997.4629    10098.777    7848.1678   -66.463471   -2217.1046    26.774658    -2587.103 
 5142000    255.15081   -3869.5381   -3432.2183   -3869.5381            0    7205.3792    17.040798    20.071809    20.789734    7110.9132    5544.8131    7753.0313    8318.2931   -1285.7831   -112.02929   -1244.4524   -2684.9818 
 5143000    262.23369   -3891.6259   -3442.1664   -3891.6259            0    7648.5534    17.033666    20.063408    20.781032    7101.9881    8608.0987    7562.7645    6774.7971   -774.28864    1465.8546   -428.33727   -2649.9658 
 5144000    267.84429   -3885.5318   -3426.4558   -3885.5318            0     9745.975    16.905929    19.912952    20.625194    6943.4087    9919.4376    8773.4954    10544.992    185.90921    587.11076   -122.66155   -2439.5541 
 5145000    262.46836    -3866.712   -3416.8502    -3866.712            0    6517.4772    17.022408    20.050148    20.767298    7087.9166      7131.46    6063.3556     6357.616    456.97054   -1603.7965   -986.28512   -2743.1387 
 5146000    257.09813   -3888.3545   -3447.6971   -3888.3545            0    8539.9404    16.994556    20.017342    20.733318    7053.1813    8559.9863    8532.5462    8527.2886   -1213.2541   -493.46363   -425.91502   -2569.2496 
 5147000    248.08577   -3876.5424   -3451.3318   -3876.5424            0    10035.955    16.984023    20.004936    20.720468    7040.0752    10372.118    10226.436    9509.3126    1149.7185   -12.279441   -51.954601   -2420.9175 
 5148000    250.68006   -3915.8657   -3486.2087   -3915.8657            0    6959.1786     17.09398     20.13445    20.854615    7177.6973    8816.3377    6422.2873    5638.9107    407.58989    321.05913   -188.89032   -2757.7264 
 5149000    270.08262   -3855.0743    -3392.162   -3855.0743            0    7844.1265     17.01724    20.044061    20.760993    7081.4626    6403.9199     8874.547    8253.9124   -175.61237   -966.08465   -1355.8094    -2582.053 
 5150000     258.2587   -3852.4858   -3409.8392   -3852.4858            0    8572.9808    17.041718    20.072893    20.790856     7112.065     8073.707    9165.7561    8479.4793    696.10956   -1243.1227     653.1065    -2520.631 
 5151000    265.12052    -3864.451   -3410.0435    -3864.451            0    6437.2581     17.11713    20.161718    20.882858    7206.8985    5844.0279    5644.3691    7823.3774    -221.3353    1114.6391   -1256.2692   -2733.4541 
 5152000    248.20578   -3891.6988   -3466.2826   -3891.6988            0    8225.5443    17.056752    20.090601    20.809197    7130.9039    8462.5225    7855.1676    8358.9427   -2191.0639   -548.52009   -1362.3504   -2610.8513 
 5153000    265.77411   -3887.3342   -3431.8065   -3887.3342            0    8593.3616    17.050388    20.083105    20.801434    7122.9253    8960.9313    8461.2361    8357.9173    493.07347   -1109.7215    779.35831   -2539.1233 
 5154000     266.8922   -3923.8473   -3466.4032   -3923.8473            0    6285.0248    17.053867    20.087203    20.805678    7127.2869    5784.1318    6251.0385    6819.9041    514.65155    1310.5245   -473.97423   -2813.1115 
 5155000    259.18662   -3882.1022   -3437.8652   -3882.1022            0    9927.6371    16.985174    20.006291    20.721872    7041.5064    9485.7222    8560.5069    11736.682    334.83049   -1605.7351    950.96594   -2418.3649 
 5156000    253.59119   -3904.9962   -3470.3496   -3904.9962            0    6413.1956    17.016962    20.043733    20.760654    7081.1151    6637.3085    6866.6414    5735.6368   -385.01581   -343.66288    125.95213   -2808.0538 
 5157000    254.33095   -3863.4976   -3427.5831   -3863.4976            0    7646.3129    17.035678    20.065779    20.783488    7104.5061    5670.7686    8855.7546    8412.4154   -140.62385   -375.43256    2107.3116   -2635.3338 
 5158000    259.39353    -3879.792   -3435.2004    -3879.792            0    7275.8048    17.009449    20.034884    20.751488     7071.741    7992.4088    6525.0195    7309.9862   -548.69146    884.56271    1290.5663   -2684.8169 
 5159000    258.07904   -3865.0066   -3422.6679   -3865.0066            0    6895.0236    16.988196    20.009851    20.725559    7045.2656    7922.6411    6326.5121    6435.9176   -1541.1745    566.26373    1407.7775   -2714.2182 
 5160000    274.75922   -3824.2769    -3353.349   -3824.2769            0    8373.6595    16.935064    19.947268    20.660738     6979.368    9825.4488     7640.678    7654.8518   -1787.7266   -892.83155    828.76451   -2501.0199 
 5161000    251.09315    -3886.038    -3455.673    -3886.038            0    7167.1114     16.95349    19.968972    20.683218    7002.1743    8767.3906    5728.7792    7005.1644   -559.47491    303.87661   -787.80742   -2723.7709 
 5162000    253.07919   -3842.6224   -3408.8533   -3842.6224            0    7254.1665    16.921995    19.931875    20.644794    6963.2223    9776.0404    6270.4948    5715.9642    290.36217    1189.7959   -5.7522983   -2672.1822 
 5163000    264.93406   -3844.1705   -3390.0826   -3844.1705            0     9462.121    16.887001    19.890656    20.602102    6920.1126    8160.0149    9846.3942    10379.954    2225.3913   -186.04976    787.21486   -2435.1393 
 5164000    271.04365   -3886.5169   -3421.9573   -3886.5169            0    8848.8961    16.857619    19.856049    20.566256    6884.0547    10361.401    7454.5999    8730.6875   -133.37123   -759.12695   -250.11581   -2533.5558 
 5165000     258.5041   -3860.3838   -3417.3167   -3860.3838            0    8522.9839    16.934897    19.947071    20.660534    6979.1615    8777.6525    7305.9695    9485.3298    -68.51421    306.58624    1561.4915    -2549.814 
 5166000    260.12074   -3843.4365   -3397.5985   -3843.4365            0    7532.9756    16.973972    19.993097    20.708206    7027.5835    6655.4265    8298.6862    7644.8141   -428.65931    566.63669    1859.1229   -2625.5431 
 5167000    250.50488   -3880.8997   -3451.5429   -3880.8997            0    4415.5603    17.044879    20.076616    20.794713    7116.0234    4114.4457     5256.321    3875.9143   -2545.8022   -94.229991    346.98875   -2993.2965 
 5168000    280.25761   -3860.9921   -3380.6402   -3860.9921            0    7311.4025    16.985739    20.006957    20.722562    7042.2098    7683.2598    6019.1364    8231.8115   -485.68907    765.04196    1703.5167   -2629.7342 
 5169000    276.32751    -3857.279   -3383.6632    -3857.279            0    6145.0931    17.022103    20.049789    20.766926    7087.5352    6705.4002    4798.7427    6931.1364    693.95958    432.80436   -466.06607   -2748.4791 
 5170000      268.436   -3887.7938   -3427.7037   -3887.7938            0    7593.0373    16.994881    20.017725    20.733715    7053.5862    6481.0163    9077.3993    7220.6962    -1162.611   -1151.0436    422.90054   -2646.6131 
 5171000    265.55681   -3888.2173    -3433.062   -3888.2173            0    7920.5321    17.020916    20.048391    20.765478    7086.0531    6722.7162    9584.0882    7454.7919    116.81757   -156.58384   -727.79788   -2614.5319 
 5172000    253.14479   -3866.7963   -3432.9148   -3866.7963            0    10029.035    16.964954    19.982475    20.697205    7016.3892    10315.212    10329.581    9442.3113   -1472.3315    379.47118   -1211.9429   -2406.6754 
 5173000    262.78199    -3892.719   -3442.3197    -3892.719            0    8180.0431    16.960885    19.977683    20.692241     7011.342    6658.3126     7455.901    10425.916    802.78828   -636.01111    155.02661   -2605.8839 
 5174000    257.19083   -3879.1266   -3438.3103   -3879.1266            0     9494.443     16.99018    20.012188     20.72798    7047.7342    10685.521     7466.245    10331.563   -329.77586   -292.32614    235.94849   -2462.4337 
 5175000    269.22348   -3865.7019    -3404.262   -3865.7019            0    9411.5767    17.011108    20.036838    20.753512    7073.8102    10019.576    6765.8792    11449.275    228.07805   -347.48428    350.75792   -2433.3236 
 5176000    258.51236   -3880.9847   -3437.9033   -3880.9847            0    8404.6502    17.013051    20.039127    20.755883    7076.2344    8103.9436    8726.6237    8383.3832    812.02052     1292.736   -1447.3723   -2570.5466 
 5177000    275.53314   -3859.2833   -3387.0289   -3859.2833            0    10205.336    16.943995    19.957788    20.671635    6990.4166    10820.262    11473.287    8322.4575    562.97209    2339.7171   -389.75256   -2346.6148 
 5178000    265.21199   -3859.7209   -3405.1567   -3859.7209            0    7360.4332    17.011862    20.037726    20.754431    7074.7502    8778.5065    5086.1825    8216.6106    1451.6528    1856.4441    1474.5825   -2645.7221 
 5179000    253.15597   -3818.8923   -3384.9916   -3818.8923            0    9741.3223    16.890815    19.895149    20.606755    6924.8028    7933.3459    7425.4456    13865.175    846.10253    919.99514    370.87218   -2401.2043 
 5180000    268.30941   -3855.5881    -3395.715   -3855.5881            0    6881.7191    16.988712    20.010458    20.726189    7045.9075    8482.6223    6087.3405    6075.1944    135.89483   -154.79266   -2022.5024   -2688.5679 
 5181000    266.56323   -3834.3589   -3377.4786   -3834.3589            0     10757.53    16.822099    19.814211    20.522922    6840.6313    10388.806    10096.614    11787.169    466.41505   -169.20102   -749.87767   -2304.2688 
 5182000    260.66467   -3825.5943    -3378.824   -3825.5943            0     9340.772    16.925544    19.936055    20.649124     6967.604    8612.9479    9561.4038    9847.9643    289.80643   -538.04163    547.83594   -2429.6581 
 5183000    267.04688   -3893.8297   -3436.1205   -3893.8297            0    8554.5777    16.887538    19.891289    20.602757     6920.773    8389.3073    9000.4411    8273.9848    1077.8885   -273.14441    622.13326   -2572.6867 
 5184000     254.6837    -3901.383   -3464.8639    -3901.383            0    7890.1941    16.927615    19.938495    20.651651    6970.1631    8229.5818    8206.9499    7234.0505    21.393226    1352.9253    -555.9166   -2662.8045 
 5185000    257.57436   -3868.1684   -3426.6947   -3868.1684            0    7728.6466    16.957753    19.973993    20.688419     7007.458    8277.1554    5702.0935    9206.6908    1334.3369   -117.50678   -342.00233   -2636.8534 
 5186000    267.90584   -3870.5886   -3411.4072   -3870.5886            0     6831.158    17.004433    20.028976    20.745369    7065.4866    7603.0283    6999.7867     5890.659   -812.40346    536.48028   -23.142204    -2707.505 
 5187000    257.86793   -3877.4279   -3435.4511   -3877.4279            0    6597.3281    16.962858    19.980006    20.694647    7013.7884    5040.5596    6538.0925    8213.3323   -178.12509    605.77675   -901.43004   -2760.6176 
 5188000    277.51841   -3856.2592   -3380.6021   -3856.2592            0    10266.858    16.897806    19.903384    20.615284    6933.4053    8972.2949    10812.902    11015.376   -531.39951    546.85127   -734.62501   -2342.4524 
 5189000    263.12244   -3915.0598    -3464.077   -3915.0598            0    8922.2538      16.9467    19.960974    20.674934    6993.7642    11168.771    8506.5324     7091.458    170.15107    401.76302   -1125.5646   -2554.0349 
 5190000    263.93276      -3838.8   -3386.4283      -3838.8            0    7448.0473    16.965978    19.983682    20.698454      7017.66     9492.277    6438.7025    6413.1625   -101.56654   -654.03918   -1255.0539   -2624.1551 
 5191000    259.42362   -3844.2115   -3399.5683   -3844.2115            0    8312.7397    16.906846    19.914031    20.626312    6944.5382    9188.6158     7217.463    8532.1402   -233.10724    624.91176   -683.95612   -2557.6626 
 5192000    264.48215   -3856.5564    -3403.243   -3856.5564            0    9812.8741    16.913896    19.922335    20.634913    6953.2289    9696.3642    8350.1031    11392.155   -133.43495    -112.2934    963.95096   -2408.1615 
 5193000    261.24944   -3851.2725   -3403.4999   -3851.2725            0    9283.4815    16.870906    19.871699    20.582466    6900.3451    9409.6071    10636.749     7804.088    60.196268   -412.72297   -893.48722   -2469.2618 
 5194000     273.8121   -3865.8111   -3396.5065   -3865.8111            0    9721.0251    16.924249     19.93453    20.647545    6966.0057    8949.6847    10778.312    9435.0785   -562.38969    971.92356     561.0513   -2408.9276 
 5195000    261.27116   -3879.7095   -3431.8997   -3879.7095            0    7166.3352    16.942578    19.956119    20.669906    6988.6627    7055.8264    7933.8046    6509.3746   -2807.0072   -553.24509   -1803.6875    -2701.489 
 5196000    264.52447   -3898.3494   -3444.9635   -3898.3494            0    7187.2811    17.008914    20.034255    20.750836    7071.0739    9417.0063    5001.5386    7143.2984    272.11139    455.61081    150.72601   -2703.7797 
 5197000    262.06963   -3882.0934    -3432.915   -3882.0934            0    9000.6052    16.950194     19.96509    20.679198    6998.0919      8898.89    9476.8331    8626.0925   -1378.0884   -343.37954    688.76742   -2514.3133 
 5198000    261.78185   -3874.9241   -3426.2389   -3874.9241            0    7954.6791    16.949339    19.964083    20.678154    6997.0329    7557.9844    9352.8261    6953.2267   -824.07212    -927.5979    722.98469   -2614.5073 
 5199000    274.68743   -3878.6632   -3407.8584   -3878.6632            0    10755.628    16.866822    19.866889    20.577484    6895.3356    13814.007    9288.8915    9163.9848   -344.26218   -487.34715   -34.286505   -2326.2574 
 5200000    263.76624   -3879.8962   -3427.8099   -3879.8962            0    9131.8038    16.943472    19.957172    20.670997    6989.7694    10673.442    11144.772     5577.198     775.8428   -74.004843    1506.5012   -2496.9264 
 5201000    252.86294   -3877.7074   -3444.3089   -3877.7074            0    8564.7766    16.978571    19.998513    20.713816    7033.2971    11081.612    8011.1202    6601.5979   -699.16634    408.74205   -1389.5876   -2565.7905 
 5202000    269.15405   -3895.9602   -3434.6394   -3895.9602            0     8945.717    16.963995    19.981345    20.696034    7015.1988    9131.2659    9543.2684    8162.6167     740.6737    -919.9737    -854.6483   -2519.4078 
 5203000    254.67776   -3882.0024   -3445.4934   -3882.0024            0    10574.162    16.871441    19.872329    20.583119    6901.0017    11974.691     8659.612    11088.182    13.660192    2467.1168    361.09667   -2381.2672 
 5204000    258.33049   -3899.0126   -3456.2429   -3899.0126            0    8290.6888    16.930941    19.942412    20.655708    6974.2718    8636.2771    7737.7929    8497.9965    1012.8498    1155.6842   -167.22599   -2612.9754 
 5205000    254.53727   -3908.7168   -3472.4486   -3908.7168            0    9831.1191    16.914463    19.923003    20.635605    6953.9282    8963.2017    10694.112    9836.0439    -1024.001    1077.3041    1137.3552   -2475.4167 
 5206000    254.34521   -3886.4759    -3450.537   -3886.4759            0    7176.3092    16.974956    19.994256    20.709407     7028.806    7531.3237    6178.1523    7819.4515    -881.3194    2583.3395    1075.6013   -2714.9084 
 5207000    258.11502    -3877.351   -3434.9507    -3877.351            0    7388.6535    16.996605    20.019756    20.735818     7055.733    6056.6438    7159.3442    8949.9724    259.37787     1003.715    1088.7817   -2674.6536 
 5208000    274.99957   -3887.6226   -3416.2827   -3887.6226            0    7997.2577    16.945684    19.959777    20.673695    6992.5069    8978.3656    6999.5671    8013.8404    636.14633   -1253.2565    -512.8347    -2600.734 
 5209000    265.20301   -3875.2656   -3420.7167   -3875.2656            0    9695.9264    16.914756    19.923348    20.635962    6954.2896    8857.4905    10104.705    10125.584    503.13911   -1571.3138   -296.84802   -2437.3444 
 5210000    268.40865   -3857.1669   -3397.1237   -3857.1669            0    10692.855    16.906829    19.914012    20.626292    6944.5177    9365.7891    10271.072    12441.705    824.66033    615.64862    842.06129   -2314.1655 
 5211000     251.9159   -3859.6774   -3427.9022   -3859.6774            0    7327.3298    16.936769    19.949277    20.662819    6981.4767    7623.7322    7729.3527    6628.9044     290.1193    133.78964   -209.58606   -2681.8505 
 5212000    271.81133   -3879.5351   -3413.6598   -3879.5351            0    7746.9088    16.958238    19.974564     20.68901    7008.0589    7937.8775    6013.5364    9289.3125   -1882.9201     33.02837   -658.83112   -2621.8842 
 5213000    275.53944    -3866.687   -3394.4219    -3866.687            0    8912.0033    16.974205    19.993371     20.70849     7027.873    9009.4328    9745.2848    7981.2922   -1776.9865    1466.7031   -1055.8467   -2480.9922 
 5214000    255.49211   -3868.6287    -3430.724   -3868.6287            0    7524.1005    17.037476    20.067897    20.785681    7106.7557    8025.4095     6396.046    8150.8461   -1368.0006   -405.19069    98.302021   -2650.8905 
 5215000    246.51267   -3894.1676   -3471.6533   -3894.1676            0    7548.7251    16.967737    19.985753      20.7006    7019.8426    8843.9243    7518.7715    6283.4795   -558.14394   -127.78247    1409.6877   -2698.8359 
 5216000    251.38672   -3859.9255   -3429.0573   -3859.9255            0    9859.7813    16.998085    20.021499    20.737624    7057.5759    12087.436    8656.1501    8835.7574   -669.49599   -1279.2374   -1344.8852   -2414.2146 
 5217000    262.56656   -3882.8635   -3432.8334   -3882.8635            0    10457.088    16.982102    20.002672    20.718124     7037.686    10802.009    8853.1124    11716.143    1492.7044    305.62904    592.63299   -2359.5447 
 5218000    265.11231    -3872.704   -3418.3106    -3872.704            0     7527.732    17.020793    20.048246    20.765328    7085.8989    9062.3741    7522.3212    5998.5008   -302.71432   -477.06437   -1156.2923   -2640.3905 
 5219000     269.0254   -3840.6499   -3379.5496   -3840.6499            0    7360.1405     17.01969    20.046946    20.763982    7084.5212    5474.8875    8929.2168     7676.317    36.021404    801.91907   -171.36802   -2619.0964 
 5220000      245.789   -3882.4104   -3461.1364   -3882.4104            0    7280.5593    17.072582    20.109246     20.82851    7150.7761    6406.5852    9408.2112    6026.8815   -615.80937   -492.04596    -767.8809   -2701.8707 
 5221000    269.42777   -3871.1346   -3409.3446   -3871.1346            0    7713.1268    16.985511    20.006688    20.722283    7041.9254      6599.36    7948.6687    8591.3518   -971.19887   -490.38535   -1470.1588   -2617.2122 
 5222000    252.16367   -3871.9711   -3439.7712   -3871.9711            0    6096.2386    17.048858    20.081302    20.799567    7121.0076    7803.4015    5894.8598    4590.4545    1319.9288    780.34893   -775.95552   -2806.6611 
 5223000     265.1433   -3897.4284   -3442.9818   -3897.4284            0    6820.8839    17.033666    20.063408    20.781032    7101.9882     6771.252    4953.1802    8738.2195    1553.9836   -37.967323   -835.16343   -2736.5073 
 5224000    275.94494   -3848.8941   -3375.9339   -3848.8941            0    8623.4026    16.948435    19.963018    20.677051    6995.9132    8249.1645    10068.589    7552.4539    143.78189   -17.262177   -1101.4744   -2496.1035 
 5225000    259.04583   -3865.9145   -3421.9188   -3865.9145            0    10003.617    17.033892    20.063675    20.781309    7102.2717     9795.379    11539.692     8675.779    1580.7686    403.21322     173.9107   -2385.7508 
 5226000    254.19822   -3850.5796   -3414.8925   -3850.5796            0    7656.1071    17.056056    20.089781    20.808348    7130.0308    6953.5328    8522.8022    7491.9864    1055.3386    785.36093   -342.19286   -2618.7785 
 5227000    276.35757   -3816.8715   -3343.2041   -3816.8715            0    7904.0028    17.060783    20.095349    20.814116    7135.9613    8262.4832    7947.9448    7501.5804    1000.7156    678.36079    2810.1953   -2520.6292 
 5228000    283.92188   -3865.2421   -3378.6097   -3865.2421            0       8838.2    16.986058    20.007332    20.722951    7042.6058     8953.081    7986.7329     9574.786   -1469.8497   -1428.1972   -347.31002   -2470.8455 
 5229000    255.49948   -3829.3813   -3391.4639   -3829.3813            0    9926.8413    16.917143     19.92616    20.638875    6957.2349    11757.503    7866.9748    10156.046   -67.956295    154.55702    1225.6994   -2384.2456 
 5230000     274.1925   -3846.2498   -3376.2932   -3846.2498            0    7917.0244    16.957421    19.973602    20.688014    7007.0468    9220.4411    6751.3078    7779.3242    1223.4731    686.22524   -1113.7867   -2567.2478 
 5231000    262.05992   -3858.2719   -3409.1101   -3858.2719            0    9746.5252    17.003587    20.027979    20.744336    7064.4315    8951.3662    10667.342    9620.8672    959.62055   -1385.9318   -512.78065   -2404.9501 
 5232000     267.5313   -3872.1012   -3413.5617   -3872.1012            0    6815.0534    17.042585    20.073914    20.791913      7113.15    7523.6732    6197.9482    6723.5389    150.15766   -90.331401   -1295.4733   -2706.5817 
 5233000    260.44217   -3860.4309   -3414.0419   -3860.4309            0    6101.6656    17.010408    20.036013    20.752658    7072.9365    5688.8889    7270.4751    5345.6328   -229.95481   -114.99123    1367.1018   -2784.6458 
 5234000    281.46477   -3861.3061   -3378.8851   -3861.3061            0    8994.5926    16.968046    19.986117    20.700977    7020.2265    7765.2779    10954.054    8264.4464   -104.48358    370.26226    9.7812903   -2457.9935 
 5235000    252.23802    -3845.897   -3413.5697    -3845.897            0    8852.9113    16.958099      19.9744    20.688841    7007.8867    8528.8132    11389.477    6640.4436   -905.82715   -666.93667    45.359615    -2508.777 
 5236000    262.55598   -3870.0923   -3420.0804   -3870.0923            0    8152.9389    16.981992    20.002543     20.71799    7037.5495    7830.7602    9347.7241    7280.3324   -119.76269    -1098.108    2097.9789   -2583.2999 
 5237000    267.61763   -3879.8149   -3421.1275   -3879.8149            0    9011.4188    16.983475     20.00429      20.7198    7039.3938    8027.4177    10762.237     8244.602    1951.2619   -1525.8344    377.54632   -2495.9941 
 5238000     261.1173   -3842.0563   -3394.5102   -3842.0563            0    7753.7641    17.024969    20.053165    20.770422    7091.1157    9096.2116    7724.6724    6440.4082     1099.317   -467.85039    173.53968   -2592.6419 
 5239000    259.10661   -3867.2544   -3423.1546   -3867.2544            0    7226.8153     17.02407    20.052105    20.769325    7089.9922    6541.7218     7482.008    7656.7161   -469.56904    478.24356    1123.8699   -2675.8999 
 5240000    258.24978   -3864.8084   -3422.1771   -3864.8084            0    6891.4336    17.054114    20.087494    20.805979     7127.596    7148.0026    8227.1253    5299.1729   -746.39192   -432.27767    1041.3903   -2705.8217 
 5241000    247.47298   -3855.2893   -3431.1291   -3855.2893            0    9826.5637    16.997083    20.020319    20.736402    7056.3285    9191.8899    11477.314    8810.4869    2276.1215    338.87051    312.79962   -2419.8842 
 5242000    262.22886   -3859.7734   -3410.3221   -3859.7734            0    8478.9772    16.958021    19.974309    20.688746    7007.7904    9120.0272    7414.6895    8902.2149   -237.16514   -213.91883   -254.17209   -2543.7584 
 5243000    274.92901   -3863.1218   -3391.9029   -3863.1218            0    7016.3121    17.051161    20.084016    20.802377    7123.8944    5299.6715     7232.661    8516.6038   -1870.6914    1107.7125   -481.58608   -2662.9453 
 5244000    276.86221   -3855.8782   -3381.3458   -3855.8782            0    9087.9197    16.965578     19.98321    20.697965    7017.1627    9010.9039    8918.5644    9334.2908   -31.412393   -2507.2561    655.02333   -2451.3052 
 5245000    278.43212   -3850.2512   -3373.0281   -3850.2512            0     9008.541    17.030306    20.059451    20.776934    7097.7871    9360.5261    9894.7745    7770.3223    86.113916   -1772.8024    123.21426   -2440.5185 
 5246000    259.84219   -3835.7341   -3390.3735   -3835.7341            0    8584.9981    16.993099    20.015626    20.731541    7051.3679    9052.8506    6612.7194    10089.424    161.81731    1520.2588    714.95962   -2507.5183 
 5247000     249.1564    -3806.855   -3379.8095    -3806.855            0    8806.4382    16.936513    19.948976    20.662507    6981.1606    7971.7275    10107.201    8340.3864   -1877.3979   -458.39094    -706.1372    -2483.199 
 5248000    269.90111   -3809.6954   -3347.0941   -3809.6954            0    9488.1232    16.964838    19.982338    20.697063    7016.2451    9985.8025    10016.538    8462.0286    260.87851     508.3517    556.39793   -2376.2244 
 5249000    258.81422   -3890.9663   -3447.3676   -3890.9663            0    8627.8426    16.989505    20.011393    20.727156    7046.8945    8675.8345    9656.4052    7551.2881    970.12425    440.48626    1398.6953   -2560.6693 
 5250000    267.55702   -3864.5471   -3405.9635   -3864.5471            0    6105.7081     17.08006    20.118054    20.837633    7160.1767     4503.683    6219.9117    7593.5295   -1346.5725   -2102.3472   -676.91892   -2768.3821 
Loop time of 464.94 on 64 procs for 250000 steps with 864 atoms

Performance: 92.915 ns/day, 0.258 hours/ns, 537.704 timesteps/s
99.1% CPU use with 64 MPI tasks x 1 OpenMP threads

MPI task timing breakdown:
Section |  min time  |  avg time  |  max time  |%varavg| %total
---------------------------------------------------------------
Pair    | 20.584     | 26.69      | 31.111     |  47.5 |  5.74
Bond    | 0.28756    | 0.29687    | 0.31192    |   0.9 |  0.06
Kspace  | 199.27     | 208.32     | 217.42     |  30.8 | 44.81
Neigh   | 5.408      | 6.0989     | 6.9254     |  22.1 |  1.31
Comm    | 96.497     | 108.2      | 118.43     |  54.2 | 23.27
Output  | 1.4883     | 1.4929     | 1.5077     |   0.5 |  0.32
Modify  | 104.82     | 109.3      | 113.83     |  26.6 | 23.51
Other   |            | 4.538      |            |       |  0.98

Nlocal:        13.5000 ave          18 max           9 min
Histogram: 1 4 6 8 13 13 7 8 3 1
Nghost:        2220.59 ave        2269 max        2188 min
Histogram: 5 9 6 15 7 11 3 6 0 2
Neighs:        4307.67 ave        6070 max        2787 min
Histogram: 4 3 5 16 12 9 7 3 3 2

Total # of neighbors = 275691
Ave neighs/atom = 319.08681
Ave special neighs/atom = 2.0000000
Neighbor list builds = 14294
Dangerous builds = 1

unfix		3
unfix		2
unfix		1

write_data	data.final.${pid}
write_data	data.final.0
System init for write_data ...
PPPM initialization ...
  extracting TIP4P info from pair style
  using 12-bit tables for long-range coulomb (../kspace.cpp:340)
  G vector (1/distance) = 0.37375203
  grid = 24 24 24
  stencil order = 5
  estimated absolute RMS force accuracy = 0.0032196338
  estimated relative force accuracy = 9.6958315e-06
  using double precision FFTW3
  3d grid and FFT values/proc = 2535 216
Last active /omp style is kspace_style pppm/tip4p/omp
WARNING: Not all mixed pair coeffs generated from mixing. Use write_data with 'pair ij' option to store all pair coeffs. (../write_data.cpp:312)

write_restart   restart.lmp.${pid}
write_restart   restart.lmp.0
System init for write_restart ...
PPPM initialization ...
  extracting TIP4P info from pair style
  using 12-bit tables for long-range coulomb (../kspace.cpp:340)
  G vector (1/distance) = 0.37375203
  grid = 24 24 24
  stencil order = 5
  estimated absolute RMS force accuracy = 0.0032196338
  estimated relative force accuracy = 9.6958315e-06
  using double precision FFTW3
  3d grid and FFT values/proc = 2535 216
Last active /omp style is kspace_style pppm/tip4p/omp
Total wall time: 0:07:46
