LAMMPS (30 Jul 2021)
  using 1 OpenMP thread(s) per MPI task
package omp 0
using multi-threaded neighbor list subroutines
echo both

include		in.partitions
variable        pid world 0
include		in.temp
variable        temperature equal 259.01
variable	tempDamp equal 100.0
include		in.pressure
variable        pressure equal 8875.0
variable        pressureDamp equal 1000.0 # This is 1 ps
include		in.seed
variable        seed world 745823

units		real
atom_style	full
read_restart	restart.lmp.${pid}
read_restart	restart.lmp.0
Reading restart file ...
  restart file = 30 Jul 2021, LAMMPS = 30 Jul 2021
  restoring atom style full from restart
  orthogonal box = (0.62750228 1.8306461 0.76555132) to (17.580070 21.798532 21.447644)
  4 by 4 by 4 MPI processor grid
  restoring pair style lj/cut/tip4p/long/omp from restart
  restoring bond style harmonic/omp from restart
  restoring angle style harmonic/omp from restart
  864 atoms
  576 bonds
  288 angles
Finding 1-2 1-3 1-4 neighbors ...
  special bond factors lj:    0        0        0       
  special bond factors coul:  0        0        0       
     2 = max # of 1-2 neighbors
     1 = max # of 1-3 neighbors
     1 = max # of 1-4 neighbors
     2 = max # of special neighbors
  special bonds CPU = 1.858 seconds
  read_restart CPU = 2.250 seconds
include 	in.setup
variable	out_freq equal 1000
variable	out_freq2 equal 10000
variable	out_freq3 equal 1000

timestep	2.0

neigh_modify    delay 7 every 1

include		in.tip4p
# This is TIP4P/Ice

# create groups ###
group ox type 2
288 atoms in group ox
group hy type 1
576 atoms in group hy

# set charges - beside manually ###
set group ox charge -1.1794
Setting atom values ...
  288 settings made for charge
set group hy charge 0.5897
Setting atom values ...
  576 settings made for charge

# ### TIP3P Potential Parameters ###
pair_style lj/cut/tip4p/long/omp 2 1 1 1 0.1577 8.5
pair_coeff 1 1*2 0.000 0.000
pair_coeff 2 2 0.21084 3.1668
bond_style  harmonic
bond_coeff  1 450 0.9572
angle_style harmonic
angle_coeff 1 55 104.52
kspace_style pppm/tip4p/omp 1.0e-5
pair_modify tail yes

thermo          ${out_freq}
thermo          1000
thermo_style    custom step temp pe etotal epair emol press lx ly lz vol pxx pyy pzz pxy pxz pyz enthalpy

restart 	${out_freq3} restart.lmp.${pid} restart2.lmp.${pid}
restart 	1000 restart.lmp.${pid} restart2.lmp.${pid}
restart 	1000 restart.lmp.0 restart2.lmp.${pid}
restart 	1000 restart.lmp.0 restart2.lmp.0


include         in.dump
dump            myDump all atom ${out_freq2} dump.water.${pid}
dump            myDump all atom 10000 dump.water.${pid}
dump            myDump all atom 10000 dump.water.0
dump            myDump2 all dcd ${out_freq2} dump.dcd
dump            myDump2 all dcd 10000 dump.dcd
dump_modify     myDump append yes
dump_modify     myDump2 append yes


variable natoms 	equal  "count(all)"                        # NUMBER ATOMS
variable H      	equal  "enthalpy/v_natoms"                 # ENTHALPY-per-atom
variable Vol      	equal  "vol/v_natoms"                 # volume-per-atom
fix AVG all 		ave/time ${out_freq} 1 ${out_freq} v_Vol v_H file vol_enthalpy.dat
fix AVG all 		ave/time 1000 1 ${out_freq} v_Vol v_H file vol_enthalpy.dat
fix AVG all 		ave/time 1000 1 1000 v_Vol v_H file vol_enthalpy.dat


timer           timeout 23:50:00 every 1000
New timer settings: style=normal  mode=nosync  timeout=23:50:00

fix 		1 all shake 1e-6 200 0 b 1 a 1
       0 = # of size 2 clusters
       0 = # of size 3 clusters
       0 = # of size 4 clusters
     288 = # of frozen angles
  find clusters CPU = 0.523 seconds
fix             2 all nph iso ${pressure} ${pressure} ${pressureDamp}
fix             2 all nph iso 8875 ${pressure} ${pressureDamp}
fix             2 all nph iso 8875 8875 ${pressureDamp}
fix             2 all nph iso 8875 8875 1000
fix             3 all temp/csvr ${temperature} ${temperature} ${tempDamp} ${seed}
fix             3 all temp/csvr 259.01 ${temperature} ${tempDamp} ${seed}
fix             3 all temp/csvr 259.01 259.01 ${tempDamp} ${seed}
fix             3 all temp/csvr 259.01 259.01 100 ${seed}
fix             3 all temp/csvr 259.01 259.01 100 745823

run             250000
PPPM initialization ...
  extracting TIP4P info from pair style
  using 12-bit tables for long-range coulomb (../kspace.cpp:340)
  G vector (1/distance) = 0.37437055
  grid = 24 24 24
  stencil order = 5
  estimated absolute RMS force accuracy = 0.0031485938
  estimated relative force accuracy = 9.4818968e-06
  using double precision FFTW3
  3d grid and FFT values/proc = 2535 216
Last active /omp style is kspace_style pppm/tip4p/omp
Neighbor list info ...
  update every 1 steps, delay 7 steps, check yes
  max neighbors/atom: 2000, page size: 100000
  master list distance cutoff = 10.8154
  ghost atom cutoff = 10.8154
  binsize = 5.4077, bins = 4 4 4
  1 neighbor lists, perpetual/occasional/extra = 1 0 0
  (1) pair lj/cut/tip4p/long/omp, perpetual
      attributes: half, newton on, omp
      pair build: half/bin/newton/omp
      stencil: half/bin/3d
      bin: standard
Per MPI rank memory allocation (min/avg/max) = 9.237 | 9.239 | 9.243 Mbytes
Step Temp PotEng TotEng E_pair E_mol Press Lx Ly Lz Volume Pxx Pyy Pzz Pxy Pxz Pyz Enthalpy 
19500000    263.65608   -3830.4054   -3378.5079   -3830.4054            0    7848.4674    16.952568    19.967886    20.682093     7001.032    9266.8136    6191.6643    8086.9242     868.6198   -1687.9171    208.91803   -2577.1568 
19501000     265.9075   -3872.6158   -3416.8594   -3872.6158            0    8608.9932    16.929403      19.9406    20.653832    6972.3712    10363.811    4869.9906    10593.178    2150.6705   -545.76053   -862.38043   -2541.4549 
19502000    249.26533   -3862.0369   -3434.8046   -3862.0369            0    9317.2091    16.925643    19.936172    20.649245    6967.7268    7586.9569    9992.2107     10372.46   -1120.5277   -328.24897    137.61105   -2488.0164 
19503000    258.94346   -3903.5361   -3459.7159   -3903.5361            0     9195.847    16.960257    19.976942    20.691473    7010.5621    9539.2842    10847.152    7201.1045   -359.14389    -823.0105    1585.0896   -2519.5154 
19504000    241.70781   -3894.8214   -3480.5425   -3894.8214            0    10448.089    16.895947    19.901194    20.613016    6931.1168    10919.088    8496.0823    11929.097    988.76266    211.37448   -86.432378   -2424.4159 
19505000    259.71505   -3878.8365   -3433.6938   -3878.8365            0    10164.314    16.960403    19.977115    20.691652    7010.7439    9631.4173    10870.248    9991.2771    1012.8357    307.51237   -433.90516   -2394.4485 
19506000    272.07965   -3888.6704   -3422.3352   -3888.6704            0    9248.3046    16.928837    19.939934    20.653142    6971.6725    10131.436    9220.7984    8392.6799    580.45698    1046.6605   -662.19913   -2482.0166 
19507000    252.86612    -3864.534   -3431.1301    -3864.534            0    9822.5676    16.943929    19.957711    20.671554    6990.3351    8028.0197    11023.699    10415.984    528.66235    1246.7107   -591.59742   -2429.7501 
19508000    264.45322   -3884.2153   -3430.9515   -3884.2153            0    11261.129    16.906107    19.913161    20.625411    6943.6281    11952.071    10877.775    10953.541    528.23464     827.9902     308.5394   -2290.5854 
19509000    275.22427   -3890.0032   -3418.2783   -3890.0032            0    8984.2365    16.888657    19.892607    20.604122    6922.1492    7927.2591    9528.7243    9496.7261   -494.12317    786.82071   -882.47483   -2511.2976 
19510000    249.46212   -3855.6126   -3428.0431   -3855.6126            0    10541.502    16.930441    19.941823    20.655099    6973.6542    10613.687    9685.8868    11324.932    991.59732   -367.16107    -1859.744   -2355.9345 
19511000    267.93336   -3875.4231   -3416.1945   -3875.4231            0    9196.3699    16.872222    19.873249    20.584071    6901.9597    8317.4696     10316.13    8955.5097    -879.0039   -2528.2248   -906.99058   -2490.5063 
19512000    273.03265   -3857.4505   -3389.4819   -3857.4505            0    8951.8432    16.938541    19.951363     20.66498    6983.6675    9496.2239    10768.615    6590.6911   -1780.6197   -1058.5571    870.29328     -2477.74 
19513000    258.52953   -3837.6617    -3394.551   -3837.6617            0    7955.4946    16.949287    19.964021     20.67809    6996.9675    8094.4088    8759.0017    7013.0733    868.92763   -54.629391   -95.986089   -2582.7437 
19514000    253.76971   -3899.6033   -3464.6507   -3899.6033            0    7771.5765    16.976492    19.996065     20.71128    7030.7141    9248.7417    6002.8841    8063.1036    139.97233    49.742249    47.630984   -2667.7863 
19515000    277.43338   -3895.1577   -3419.6464   -3895.1577            0    10391.349    16.866066    19.865998    20.576561    6894.4077    10356.164     8976.467    11841.417   -1069.3398    1506.2465    266.69647   -2374.8184 
19516000    250.04013   -3863.5633    -3435.003   -3863.5633            0    8519.0858    16.950536    19.965493    20.679615    6998.5153    10794.069    6738.5626    8024.6261   -804.80259   -1359.1155   -426.98122   -2565.4926 
19517000    266.21123   -3857.1151   -3400.8381   -3857.1151            0    9275.8566    16.957551    19.973756    20.688173    7007.2081     10190.23    7415.2588    10222.081   -215.80652   -2044.4875    930.28438   -2452.9111 
19518000    248.04598   -3885.9298   -3460.7875   -3885.9298            0    11902.465     16.94931    19.964049    20.678119    6996.9967    11265.739    12599.667     11841.99   -643.32274   -725.94243   -818.47158   -2246.2121 
19519000    255.18419   -3887.8478   -3450.4709   -3887.8478            0    9232.7767    16.954739    19.970443    20.684742    7003.7224     7730.668    9094.9522     10872.71     -1111.43   -63.963369   -186.58071   -2507.4156 
19520000    254.62838   -3891.5368   -3455.1125   -3891.5368            0    10057.949    16.916559    19.925472    20.638162    6956.5138    9218.5464    10530.014    10425.286    1028.5579   -893.29911   -1378.4674   -2434.6972 
19521000    253.89261   -3894.6834   -3459.5202   -3894.6834            0    9451.4899    16.920717    19.930369    20.643235    6961.6448    10526.378    8664.3937    9163.6982   -1401.8123    -275.2952   -252.01511   -2499.9251 
19522000    262.99792   -3868.8114    -3418.042   -3868.8114            0    7871.9966    16.946298    19.960501    20.674444    6993.2669    9037.5631    7946.0845    6632.3421   -361.93992    335.20398   -250.28344     -2615.18 
19523000    245.92113   -3882.7279   -3461.2275   -3882.7279            0    10698.267    16.938583    19.951414    20.665032    6983.7204    10822.209    12170.858    9101.7348   -577.45747    615.86578    299.55862   -2371.6047 
19524000    272.70095   -3840.8482   -3373.4481   -3840.8482            0    8713.2765    16.972235    19.991051    20.706087    7025.4261    9746.9066    7986.0419    8406.8809     -734.287    1713.0951    1537.2554   -2480.6977 
19525000    260.96565    -3845.217   -3397.9308    -3845.217            0    7549.7363    16.963165    19.980368    20.695022    7014.1694     8427.121    6848.0028    7374.0851    422.73601     225.8187   -1082.3923   -2625.6346 
19526000    265.25671   -3824.0555   -3369.4146   -3824.0555            0    8232.9665    16.958561    19.974945    20.689404    7008.4594    10059.503    7280.0756    7359.3209    682.77961   -358.54412    1649.6943   -2527.9132 
19527000     259.9015   -3836.5005   -3391.0383   -3836.5005            0    11369.177    16.924802    19.935181    20.648219    6966.6886     11617.53    11938.054    10551.948    167.88358    1248.4782   -627.25644    -2235.907 
19528000    254.16385   -3874.4991    -3438.871   -3874.4991            0    9226.9993    16.950766    19.965763    20.679894    6998.7993     8045.869    10058.354    9576.7745   -660.01389    763.83359    682.66821   -2497.0683 
19529000    250.67261   -3877.4337   -3447.7894   -3877.4337            0    9350.2141    16.947623    19.962061     20.67606    6994.9073    11471.661     8543.037    8035.9439    1709.4247    -205.1044    240.63995   -2493.9409 
19530000    266.37407   -3831.1067   -3374.5507   -3831.1067            0    10494.346    16.990082    20.012072     20.72786     7047.612     11300.98     10115.77    10066.287    454.45998     285.1286    735.77759   -2295.9188 
19531000    257.08208   -3807.4016   -3366.7717   -3807.4016            0    9191.3067    16.996356    20.019462    20.735514    7055.4222    10103.239    9295.9178    8174.7635     475.6248     125.6267    -1326.388   -2421.0222 
19532000    258.55341   -3852.9181   -3409.7664   -3852.9181            0    9072.0188    16.992283    20.014665    20.730546    7050.3518     9028.413    7409.7694    10777.874   -441.97153    348.48779    565.14728    -2476.962 
19533000    261.99834   -3850.9365   -3401.8803   -3850.9365            0    6770.5667    17.028951    20.057855    20.775281    7096.0928    6616.8581    6785.1152    6909.7269    68.659269   -1041.1413   -156.29451   -2701.1995 
19534000    251.01249   -3894.1769   -3463.9501   -3894.1769            0    9371.4849    16.960756     19.97753    20.692083    7011.1813     11165.19    9071.3766    7877.8884    514.40084    434.52944    1416.4757   -2505.7074 
19535000    250.49512   -3886.3472   -3457.0072   -3886.3472            0     8621.314    16.976906    19.996553    20.711786    7031.2289    8033.8827    8987.6149    8842.4444    1948.3045   -887.74497    -1861.232   -2572.9495 
19536000    263.62014   -3886.0139    -3434.178   -3886.0139            0    9894.5588    16.918267    19.927484    20.640246    6958.6215    8130.9479     9808.186    11744.543     929.9393    1132.9437    185.22746   -2430.0351 
19537000    266.97648   -3865.8809   -3408.2923   -3865.8809            0     10010.55    16.935086    19.947294    20.660765    6979.3955    10882.481    9614.8731    9534.2969   -184.51646    53.092801    1350.2044   -2389.3452 
19538000     263.4919   -3868.5073   -3416.8912   -3868.5073            0    8556.0055    16.960113    19.976772    20.691298    7010.3836    6728.9674    8394.1469    10544.902    -1234.231   -804.79691   -739.85427   -2542.1316 
19539000    262.18806   -3851.2557   -3401.8743   -3851.2557            0    9961.5348     16.88625    19.889772    20.601185    6919.1895    10708.536    10054.473    9121.5961     410.9266   -1436.7983   -950.62936    -2396.663 
19540000    252.32823     -3849.09    -3416.608     -3849.09            0    9812.6504    16.871491    19.872387    20.583179    6901.0622    9615.1879    9442.4631      10380.3    804.98354     -633.527    240.34986   -2429.0146 
19541000    256.09518   -3850.3102   -3411.3718   -3850.3102            0    10716.397    16.910423    19.918245    20.630677    6948.9475    9700.7639    8347.3816    14101.046    1286.3835    1965.1381   -482.51375   -2325.3371 
19542000    255.12403   -3859.8171   -3422.5433   -3859.8171            0    9439.6385     16.92044    19.930044    20.642898    6961.3034    7894.4177    8962.7164    11461.781   -1025.0145    394.67153   -1673.7067   -2464.1984 
19543000    264.03502    -3845.252    -3392.705    -3845.252            0    8639.6086    16.923894    19.934111    20.647111    6965.5667     10299.69    8475.6179    7143.5174   -803.79919    1254.7322    1070.5622   -2515.0448 
19544000    254.46654    -3841.101    -3404.954    -3841.101            0    8992.6397    16.917656    19.926764    20.639501    6957.8679    9234.9037    7660.1583    10082.857    378.83064   -1263.9271   -1111.4632   -2492.4406 
19545000    240.66119   -3887.3702   -3474.8852   -3887.3702            0    7645.1816    16.985132    20.006242    20.721821    7041.4542    8398.4013     8228.925    6308.2186    1375.1469   -873.82438    627.99769   -2689.7832 
19546000     280.7173   -3915.0209   -3433.8811   -3915.0209            0    8259.6564    16.982263    20.002863    20.718321     7037.887     9050.797     6722.365    9005.8073    544.22196     495.5041    103.49985   -2586.1069 
19547000    257.21278   -3872.9456   -3432.0917   -3872.9456            0    8439.4358    16.961272    19.978138    20.692712     7011.821    9596.0968    6598.3471    9123.8637    575.89253   -344.91081    2123.7743   -2569.0732 
19548000    255.28116   -3858.3676   -3420.8244   -3858.3676            0    8835.4644     16.92494    19.935344    20.648387    6966.8586     6339.268    9264.7551     10902.37    -78.40357     354.9787    319.33136   -2523.1016 
19549000    262.48317   -3853.0951   -3403.2079   -3853.0951            0    9020.8452    16.895947    19.901193    20.613015    6931.1162    10569.729    7411.5273    9081.2789   -904.53514    74.228423   -616.79632   -2491.3518 
19550000    260.96633   -3887.4236   -3440.1363   -3887.4236            0    7632.9249    16.913286    19.921617    20.634169     6952.477    6588.1978    8869.6696    7440.9074   -75.844239   -271.50093   -731.67089   -2666.1978 
19551000    259.03815   -3848.0619   -3404.0793   -3848.0619            0    9330.8705    16.944525    19.958412    20.672281    6991.0718    9642.6502    8362.4044     9987.557   -970.50868   -250.80229   -801.07449   -2452.7261 
19552000    258.53725   -3879.4617   -3436.3377   -3879.4617            0     8278.906    16.939209     19.95215    20.665795    6984.4938    9473.2782    6433.9772    8929.4627   -37.978181    678.62587   -1028.8086   -2593.0345 
19553000    254.98318   -3904.1689   -3467.1364   -3904.1689            0     10098.33    16.967058    19.984953    20.699771    7018.9991    10643.974    10275.438    9375.5776    421.73721   -1041.8638   -687.67101   -2433.4219 
19554000    273.15388   -3889.0751   -3420.8987   -3889.0751            0    9647.6592     16.95807    19.974366    20.688805    7007.8507    9621.9965     9231.672    10089.309    876.92662    334.58338    339.00406   -2434.8856 
19555000    260.34591   -3872.5942   -3426.3702   -3872.5942            0    9628.1719    16.924317     19.93461    20.647627    6966.0894    11575.463    9287.2464    8021.8063    915.56426   -469.09069    136.45147   -2448.2128 
19556000    270.60274   -3870.6678    -3406.864   -3870.6678            0    7569.5285    16.991928    20.014247    20.730113    7049.9105    7378.4358    6278.7621    9051.3877   -1105.7685   -453.79762    596.10521   -2628.5975 
19557000    262.98571   -3900.7762   -3450.0277   -3900.7762            0    9203.2674    16.959326    19.975846    20.690338    7009.4081    8576.0174    9637.9132    9395.8716    325.14953    96.918615    446.86952   -2509.2234 
19558000    254.77008   -3869.2329   -3432.5657   -3869.2329            0    8394.7034    16.960769    19.977545    20.692098    7011.1975    8630.2352    8402.3755    8151.4996   -787.75151    714.62327   -171.06077   -2574.1978 
19559000    258.77435   -3869.0531   -3425.5228   -3869.0531            0    8134.8267    16.965436    19.983042    20.697792    7016.9866    9777.1672    8052.5554    6574.7573   -586.84452   -28.816136    1167.0433   -2593.0408 
19560000    244.76498   -3888.2212   -3468.7024   -3888.2212            0    8928.1662    16.926297    19.936943    20.650043    6968.5351    11485.728    5883.7627    9415.0083   -648.53647   -67.117657    1033.2948   -2561.3424 
19561000    253.68316   -3857.1036   -3422.2994   -3857.1036            0    8460.9564    16.945095    19.959083    20.672976    6991.7772    8623.9656    8943.6942    7815.2094    131.35656    184.74645   -41.589962   -2559.5534 
19562000    258.01468   -3862.7594   -3420.5311   -3862.7594            0    6431.9282    16.982674    20.003347    20.718822    7038.3976    6243.6808    7686.3879     5365.716   -1773.1055   -434.53736    908.36221   -2760.3077 
19563000      271.381   -3846.3278   -3381.1901   -3846.3278            0    6929.5485    16.991401    20.013626     20.72947    7049.2543    4779.1655    7090.1878    8919.2922    10.671786    1239.1507   -396.56408   -2668.7899 
19564000    255.21577   -3851.0637   -3413.6326   -3851.0637            0    8552.1245    16.988803    20.010565      20.7263    7046.0205    8772.0187    7878.6481    9005.7067   -1359.9823    249.49997   -857.21415    -2534.825 
19565000    261.45008   -3913.5845    -3465.468   -3913.5845            0     9385.252    16.938933    19.951825    20.665458    6984.1527    9197.0003    8347.5342    10611.221   -1693.2911   -1017.1602    263.03326   -2509.5171 
19566000    270.08788   -3859.0372   -3396.1158   -3859.0372            0    8942.6115    16.940427    19.953585    20.667281    6986.0005    9644.5349    9737.1727    7446.1268    414.14465    57.182116    523.47047   -2485.0099 
19567000    233.24328     -3849.15    -3449.379     -3849.15            0    9379.4972    16.902271    19.908642    20.620731    6938.9018    7324.9262    11834.958    8978.6069    661.87378   -1900.3951    179.95738   -2500.2043 
19568000    265.80405   -3884.0726   -3428.4935   -3884.0726            0    10403.717    16.912886    19.921146    20.633682    6951.9844    11806.071    10226.936    9178.1447   -2579.6819   -559.89259    862.99403    -2373.686 
19569000    250.74661    -3908.509   -3478.7379    -3908.509            0    5501.7561    17.033915    20.063701    20.781336    7102.2995    5970.9114    5086.0687    5448.2883   -95.199223   -1246.6719   -476.24235   -2908.8674 
19570000    258.31446   -3853.3327   -3410.5906   -3853.3327            0    8578.7278    16.939311    19.952271     20.66592     6984.621    7571.4659    7038.3496    11126.368   -534.36397    1453.8237    412.73937   -2536.7311 
19571000    254.77573   -3862.6391   -3425.9623   -3862.6391            0    9367.9434    16.987752    20.009328    20.725018    7044.7132    11214.242    8724.2262    8165.3617   -576.71895   -1454.2072    414.13094   -2463.5005 
19572000    274.80149   -3832.3085   -3361.3082   -3832.3085            0    9873.9986    16.974171    19.993332     20.70845    7027.8316    8490.7138    12217.491    8913.7907    1390.2515   -672.63163   -780.76785   -2349.2854 
19573000    255.01128   -3885.5025   -3448.4219   -3885.5025            0    10127.795    16.923979    19.934211    20.647214    6965.6714    9587.0287    10669.502    10126.854    318.70136   -24.326318   -1290.0688   -2419.5679 
19574000    257.47615   -3870.2436   -3428.9383   -3870.2436            0    7685.1239    17.017844    20.044772     20.76173    7082.2167    8461.7007    6594.4257    7999.2454      403.881   -344.59055   -2485.9926   -2635.1659 
19575000    252.58449   -3856.3604   -3423.4392   -3856.3604            0    9707.1797    16.967859    19.985896    20.700748    7019.9935    8701.4918    10107.194    10312.853   -213.18787   -599.02748    100.56036   -2429.6239 
19576000    255.68889    -3860.908    -3422.666    -3860.908            0    8300.9538    16.975464    19.994854    20.710026    7029.4369    8419.3015    8062.0989    8421.4609   -1420.5328    29.488701   -1343.1751    -2571.676 
19577000    249.32276   -3876.2566   -3448.9259   -3876.2566            0    8866.1612    16.928458    19.939488    20.652679    6971.2041    9196.1001     9508.521    7893.8624   -1032.9935   -378.98369    224.36691   -2547.5223 
19578000    274.51165   -3855.2184   -3384.7148   -3855.2184            0     7346.094    17.095092     20.13576    20.855972    7179.0981    4547.5939    11171.909    6318.7794    697.22735    782.37922   -566.12828   -2615.5804 
19579000     267.8659   -3875.1713   -3416.0583   -3875.1713            0    8304.8797    16.966751    19.984592    20.699397     7018.619    7752.7257    9437.7293    7724.1843   -342.30285    945.92428    1048.3145   -2565.9761 
19580000    272.82536   -3868.1094   -3400.4961   -3868.1094            0    8695.0602     17.02369    20.051658    20.768862    7089.5181    6745.7078    10052.993    9286.4793    1.6299963    361.60544   -108.87216   -2501.4847 
19581000    260.24297   -3864.7519   -3418.7044   -3864.7519            0    8401.5598    16.977483    19.997233     20.71249    7031.9457    8202.5619     7980.288    9021.8295   -903.20058    134.34443     1285.296   -2557.0932 
19582000    263.76374   -3907.6328   -3455.5508   -3907.6328            0    7846.0195    16.970139    19.988583     20.70353    7022.8246    8570.6905    7653.4548    7313.9133   -221.04028   -364.91412   -394.32657    -2651.956 
19583000    250.23548   -3875.0341    -3446.139   -3875.0341            0    9189.6659    16.906386    19.913489    20.625751    6943.9713     8261.189    11385.313     7922.496    588.10763   -287.85344    404.42701   -2515.4951 
19584000    257.62137   -3792.0154   -3350.4611   -3792.0154            0    10614.447    16.922087    19.931984    20.644907    6963.3367    11626.155    11762.606    8454.5792    777.15033    364.38163    1475.7041   -2272.5309 
19585000    257.02985   -3854.7474   -3414.2071   -3854.7474            0    10393.552    16.957828    19.974082    20.688511    7007.5513    10256.009    9815.7196    11108.926    1887.1368   -185.21968   -453.98334   -2352.0074 
19586000    261.88472   -3882.9659   -3434.1044   -3882.9659            0    8965.5387    16.964072    19.981436    20.696128    7015.2948    8616.6891    8992.1366    9287.7906    -542.8228   -1292.2378    656.50728   -2516.8323 
19587000    258.88877   -3910.4267   -3466.7002   -3910.4267            0    7470.2968    16.955846    19.971747    20.686093    7005.0943    7675.8333     7985.507    6749.5499    340.73048   -153.92577    149.16782   -2703.5189 
19588000    254.05706   -3818.8333   -3383.3882   -3818.8333            0    11070.922    16.950949    19.965979    20.680119     6999.027    11680.117    11781.194    9751.4561    1992.7865   -156.56423    -657.3461    -2253.339 
19589000    256.63018   -3880.6097   -3440.7544   -3880.6097            0    9679.0466    16.905179    19.912068    20.624279    6942.4847    10474.104    10187.173     8375.863    2569.7799    -1841.257   -753.58441   -2460.7604 
19590000    263.69122   -3869.4453   -3417.4876   -3869.4453            0     8996.393    16.880826    19.883383    20.594568    6912.5237    7745.8498    9470.3878    9772.9415    -387.9489    560.28907    2052.3425   -2510.5426 
19591000    240.56718   -3881.9037   -3469.5798   -3881.9037            0    7073.3615    16.927374    19.938211    20.651357    6969.8652    8792.0399    5676.6812    6751.3634   -1176.9719      2695.77   -713.07573   -2750.5844 
19592000    265.94923   -3873.5064   -3417.6786   -3873.5064            0    8524.3194    16.895235    19.900355    20.612147    6930.2399    7958.6361    8965.3446    8648.9775    -2604.596    810.24189   -373.43908   -2556.1218 
19593000    254.06419   -3918.3237   -3482.8663   -3918.3237            0    5526.9807    16.969908     19.98831    20.703248    7022.5375    6313.6856    4959.4729    5307.7836    545.34302    1269.1027   -265.43878   -2916.8123 
19594000    256.53754    -3902.816   -3463.1195    -3902.816            0    9986.9555    16.854847    19.852783    20.562873    6880.6585    11501.443    7561.6152    10897.809   -443.75552    793.72269    434.73088    -2460.955 
19595000    259.15652   -3897.7365   -3453.5511   -3897.7365            0    9538.2552     16.88233    19.885155    20.596404    6914.3727     11117.33    8242.0058    9255.4298   -159.31127   -501.54473   -677.25478   -2491.7226 
19596000    264.37665   -3877.0604   -3423.9279   -3877.0604            0    9182.5181    16.938527    19.951347    20.664963    6983.6504    9237.3946    10781.164    7528.9959     821.8576     982.3563    52.694096   -2488.6941 
19597000    258.90347   -3876.8121   -3433.0604   -3876.8121            0    8536.5985     16.93269    19.944472    20.657842    6976.4333    8868.1623    8371.7994     8369.834    1134.2997   -27.512865    130.12566   -2564.5116 
19598000    244.15234   -3900.5035   -3482.0347   -3900.5035            0    8197.4768    16.925901    19.936475    20.649559    6968.0451    6735.9165    9785.3056    8071.2081   -651.74885    1015.1161    1225.3447   -2648.9925 
19599000    268.35197   -3911.0372   -3451.0911   -3911.0372            0    9514.3881    16.860885    19.859896    20.570241    6888.0569    8252.5033    8310.0219    11980.639    350.45487   -999.14801   -120.66478    -2495.321 
19600000    254.50998   -3912.1139   -3475.8925   -3912.1139            0    8307.8329    16.906998     19.91421    20.626498    6944.7254    8171.8372    8378.6297    8373.0318    1366.4716    674.42171    1245.0628   -2634.4611 
19601000    258.31801   -3922.6631   -3479.9148   -3922.6631            0    9599.8878    16.909831    19.917547    20.629954    6948.2169    9241.1283      8314.36    11244.175   -210.82411    565.04828    862.27185   -2507.1331 
19602000    275.48856   -3900.8637   -3428.6858   -3900.8637            0    7134.6594    16.959826    19.976435    20.690948    7010.0282     7054.616    9428.0305    4921.3317   -197.88605    -308.9109    747.25814   -2699.2805 
19603000      266.114    -3881.783   -3425.6727    -3881.783            0    9584.6615    16.874795     19.87628    20.587211    6905.1186    10017.099    8768.4794    9968.4066   -1475.7475   -1202.1048   -2182.8583   -2460.4582 
19604000    251.58566   -3878.4892     -3447.28   -3878.4892            0    7305.6137     16.97145    19.990126    20.705129    7024.4519    8079.0763    7357.6583    6480.1066   -232.73979    -845.6695    -836.4539   -2698.8606 
19605000    272.89077   -3886.2674    -3418.542   -3886.2674            0    9143.5849    16.867051    19.867158    20.577763    6895.6157    9542.4615    9281.6983     8606.595     6.591817    374.96513    1903.3735    -2499.013 
19606000    248.88714    -3906.238    -3479.654    -3906.238            0    8533.7385    16.919476    19.928907    20.641721     6960.113    6825.8277    9347.5007    9427.8872   -2357.9242   -966.58689    597.67037   -2613.4274 
19607000    259.27493   -3907.9184   -3463.5301   -3907.9184            0    8161.2773    16.943616    19.957341    20.671172    6989.9468    8258.6245    9211.5974    7013.6101   -369.67974   -256.58691    552.71056   -2631.5596 
19608000    257.99259   -3861.4024   -3419.2119   -3861.4024            0    8915.7697     16.88003    19.882445    20.593597    6911.5462    9271.6398    8901.1416    8574.5279    -31.39097   -746.35424    284.91925   -2520.5218 
19609000    264.10275   -3896.5685   -3443.9054   -3896.5685            0    7004.1704    16.896704    19.902085    20.613939    6932.0481    7173.4411    7828.9917    6010.0785    1131.9016    670.69354    20.020139   -2735.8061 
19610000    247.78096   -3882.3353   -3457.6472   -3882.3353            0     5404.092    17.040098    20.070985     20.78888    7110.0372    5783.7838    5530.2388    4898.2533   -173.14371    52.608468    756.16623   -2897.2828 
19611000    253.36867   -3870.4411   -3436.1759   -3870.4411            0    8809.7615    16.979414    19.999507    20.714845    7034.3452    10007.392    10310.076    6111.8161   -591.99559   -930.31393   -509.82177   -2532.3938 
19612000    263.36449   -3892.3617    -3440.964   -3892.3617            0    10343.639    16.896098    19.901371      20.6132    6931.3023    10195.615    11221.532    9613.7684     2074.961    172.40538    1025.0955   -2395.3676 
19613000    254.68306   -3905.6466   -3469.1286   -3905.6466            0    9407.2026    16.943552    19.957266    20.671094    6989.8678    9538.2765    7831.6582    10851.673    193.62067    1215.0083    1434.8262   -2510.1579 
19614000    276.80415   -3896.9281   -3422.4953   -3896.9281            0    7331.5498    16.977485    19.997235    20.712492    7031.9484    7336.5834    7338.6568    7319.4093   -447.86564    567.63566    -103.5496   -2670.6173 
19615000    275.05389   -3893.0204   -3421.5874   -3893.0204            0      8975.87    16.944799    19.958735    20.672616    6991.4118    8988.0227    7510.3722    10429.215    2330.8285    493.75059   -107.69053   -2506.3846 
19616000    253.73588   -3914.9449   -3480.0503   -3914.9449            0    10568.259    16.914942    19.923568     20.63619      6954.52    9729.2189    10459.141    11516.419    2040.1527   -1983.4396   -30.204185   -2408.1694 
19617000    253.85434   -3912.9392   -3477.8415   -3912.9392            0    12049.159    16.858489    19.857073    20.567317    6885.1204    11941.462    13185.957    11020.058   -916.88434    435.67925    49.855271   -2267.9563 
19618000    265.13749   -3922.5642   -3468.1276   -3922.5642            0    8855.1524    16.978824    19.998813    20.714126    7033.6126     8575.036    9279.8356    8710.5856   -158.03135    2059.1366   -1185.1591   -2559.7836 
19619000    250.36594   -3843.0066    -3413.888   -3843.0066            0    8943.3648    16.959843    19.976455    20.690969    7010.0492    11614.314    7864.8963    7350.8844    1889.0314   -418.80819   -123.12596   -2499.5687 
19620000    259.70588    -3890.775    -3445.648    -3890.775            0    10444.947    16.899701    19.905615    20.617595    6935.7371    8902.4447    12407.747    10024.649    946.93171   -1079.3056    896.70112   -2389.1353 
19621000    256.59743   -3869.3905   -3429.5913   -3869.3905            0    9483.6905    16.903956    19.910627    20.622787    6940.9775    9211.0617    10075.315    9164.6949   -443.47459    2350.9099    -1021.915   -2469.5854 
19622000    269.51399   -3856.9879   -3395.0501   -3856.9879            0    8805.4159    16.962446    19.979521    20.694144    7013.2774    9311.0754    9603.3159    7501.8565    1236.5726    758.82395    237.86593   -2494.4194 
19623000    253.70633   -3891.1785   -3456.3345   -3891.1785            0    7825.3463    16.924745    19.935114    20.648149     6966.618    7276.4975    9000.4886    7199.0526    1555.6912     1517.665    1861.9602   -2661.2717 
19624000    255.23839   -3836.7218    -3399.252   -3836.7218            0    7583.5579    16.985832    20.007066    20.722675    7042.3246    6709.3505    8569.1203    7472.2028   -358.92883     -557.271   -1053.2925    -2620.382 
19625000    284.31013   -3878.9035   -3391.6056   -3878.9035            0    8384.1585    17.005991    20.030811    20.747269    7067.4284    7886.5282    9393.3022     7872.645     -357.941    568.88673   -93.317687   -2527.4404 
19626000    268.72417   -3892.1811   -3431.5971   -3892.1811            0    7758.4816    16.971127    19.989746    20.704735    7024.0504    7920.6435     8092.397    7262.4043   -242.97937   -877.52374     342.5713   -2636.8293 
19627000    266.62994   -3876.2934   -3419.2988   -3876.2934            0    8117.8639    16.951474    19.966597    20.680759    6999.6767     7121.242    8657.1317    8575.2181   -31.666667     1726.612   -277.64622    -2590.602 
19628000    256.48549   -3837.0579   -3397.4506   -3837.0579            0    10476.732    16.820119    19.811879    20.520506    6838.2161    10609.169    10882.349    9938.6778     957.1389    1577.4054   -804.62674   -2352.6232 
19629000    266.13134   -3849.6094   -3393.4694   -3849.6094            0    8402.2379    16.949265    19.963995    20.678064    6996.9406    8525.2777    9060.4298    7621.0063   -1552.1557    359.10161   -601.69708   -2536.0781 
19630000    253.49636   -3881.5286   -3447.0445   -3881.5286            0    13320.969     16.83843    19.833447    20.542846    6860.5734    14097.885    11239.647    14625.374    2671.2662   -193.52203   -1564.1058   -2114.2227 
19631000    259.46042   -3904.6728   -3459.9665   -3904.6728            0    8284.0323    16.981533    20.002003     20.71743    7036.9791    8992.2498    7945.8299    7914.0174    284.70045     183.5529   -277.53913   -2609.8001 
19632000    260.63429   -3851.0625   -3404.3442   -3851.0625            0    6422.2827    17.018107    20.045083    20.762051    7082.5456    6446.4724    6535.0355    6285.3402    321.36817   -1660.5157    1936.4878    -2740.976 
19633000    251.61133   -3891.1494   -3459.8962   -3891.1494            0    7844.9122    17.005531    20.030269    20.746708    7066.8546    6878.2718     8288.323    8368.1418    1869.7132   -57.052168   -806.82354   -2651.3774 
19634000    252.45946   -3907.1231   -3474.4162   -3907.1231            0    8139.2082    16.926356    19.937012    20.650115    6968.6075    6756.6551    7545.3542    10115.615   -189.62567   -572.27656    123.10877   -2647.2285 
19635000    254.71639   -3900.0436   -3463.4684   -3900.0436            0    9546.0305    16.871796    19.872747    20.583551    6901.4367     8462.633     11905.86     8269.599   -381.79928    351.35274   -1181.9357   -2502.6569 
19636000    260.07535   -3869.3556   -3423.5954   -3869.3556            0    11140.412    16.930423    19.941802    20.655077    6973.6319    10091.283    12248.423    11081.531   -1263.7716    991.58585   -376.06333   -2290.5791 
19637000    258.10206    -3906.773   -3464.3949    -3906.773            0    8782.1831    16.961301    19.978172    20.692748    7011.8577    6724.8874    10315.472    9306.1895    33.740471   -1354.4178   -106.42912   -2566.3222 
19638000    270.24893   -3901.9193   -3438.7219   -3901.9193            0    8287.3942    16.970564    19.989083    20.704049    7023.3522    9944.1581    6931.5859    7986.4386   -899.90751    742.39728    1879.7845   -2589.8574 
19639000    245.51948   -3922.2725   -3501.4605   -3922.2725            0    8350.6493    16.980737    20.001065    20.716459    7035.9891    10210.692     8497.347    6343.9088    6.8242861    135.56622    328.75742   -2644.5779 
19640000    260.96982   -3904.2756   -3456.9823   -3904.2756            0    8996.3516     16.94492    19.958877    20.672763    6991.5608    9370.5564    9690.7986    7927.6997    -1509.342   -1283.3173    1460.1718   -2539.6716 
19641000     246.6794   -3889.0688   -3466.2688   -3889.0688            0    9004.2217    16.920037    19.929569    20.642406    6960.8059    9291.5863    9859.6376    7861.4412   -319.62132    -567.7722   -288.09123   -2552.1943 
19642000    260.01002   -3896.8059   -3451.1577   -3896.8059            0    8039.4907    16.940188    19.953304     20.66699    6985.7054    6261.8694    8034.5638     9822.039    276.53092   -1385.3229   -1612.9165   -2632.0996 
19643000    252.73269   -3882.3785   -3449.2033   -3882.3785            0    9398.0655    16.880446    19.882936    20.594105    6912.0573    9363.5688    9115.4762    9715.1516    234.34494   -741.26753   -1334.3372   -2501.8288 
19644000    247.53796   -3849.6345   -3425.3629   -3849.6345            0    9675.7537    16.923297    19.933409    20.646383    6964.8304    8216.3459    10217.619    10593.296    -1035.345   -1148.9898    1370.0908   -2442.5492 
19645000    271.49325   -3874.0088   -3408.6786   -3874.0088            0    9261.7081    16.948973    19.963651    20.677707    6996.5789    10295.907    8332.5125    9156.7044    -764.6363   -1298.0105   -93.791464   -2463.6331 
19646000    258.40164   -3901.5246    -3458.633   -3901.5246            0    8481.5563    16.901833    19.908127    20.620197    6938.3631    8285.4876     8582.807    8576.3742    246.49329   -2026.7175   -670.21576   -2600.3936 
19647000    249.32516   -3880.0498    -3452.715   -3880.0498            0    9780.6914    16.889755    19.893901    20.605462    6923.4995    10459.618    10299.291    8583.1647   -1108.8497   -26.532647    181.02584   -2465.1377 
19648000    248.08451   -3897.7744    -3472.566   -3897.7744            0    8165.9927    16.970545    19.989061    20.704025    7023.3283    8668.5208     7800.777    8028.6803    781.42159    558.22581    209.02335   -2636.1394 
19649000    267.34097   -3860.8549   -3402.6416   -3860.8549            0    6414.9418    16.965769    19.983435    20.698198    7017.3999    8387.3149    6524.3623    4333.1483   -1274.9426   -1078.7794    292.80701   -2746.1263 
19650000     254.0788    -3906.855   -3471.3726    -3906.855            0    8142.1735    16.922535    19.932511    20.645453    6963.8889    9790.0709     8971.821    5664.6285   -193.21831   -598.88942    27.662483   -2644.4439 
19651000    267.29296   -3887.2736   -3429.1426   -3887.2736            0    10487.444    16.885811    19.889254     20.60065    6918.6496    11526.492    11423.215    8512.6236   -1279.3149   -2560.1098    1337.1154   -2370.9448 
19652000    248.16579   -3905.2208   -3479.8732   -3905.2208            0    7760.6306     16.93592    19.948276    20.661782    6980.4262    8439.9402    6250.2825     8591.669    1498.8581   -1736.0629    296.02706   -2689.8227 
19653000    269.37942   -3894.2094   -3432.5022   -3894.2094            0    7705.1011     16.97967    19.999809    20.715158    7034.6636    9546.2478    6531.1204     7037.935    198.59898   -1377.6436    371.70111   -2642.0101 
19654000     261.3714   -3921.0477    -3473.066   -3921.0477            0    8743.9805      16.9261     19.93671    20.649802    6968.2908    10068.538    9663.5804    6499.8226   -300.06662    39.385963   -91.909754   -2584.4557 
19655000    265.60999   -3913.5512   -3458.3048   -3913.5512            0    7278.9646    16.905587    19.912548    20.624776    6942.9868    6999.9531    6705.5182    8131.4224    222.97436    1316.2357   -515.92583   -2721.2635 
19656000    234.88471    -3912.822   -3510.2376    -3912.822            0    8690.5782    16.943918    19.957697     20.67154    6990.3207    7901.3056    7749.9965    10420.432    264.97077   -992.51444   -1195.1866   -2624.2622 
19657000    255.95255   -3889.1005   -3450.4066   -3889.1005            0    8962.6259    16.916885    19.925856     20.63856    6956.9165    8942.6272    8883.9777    9061.2729    56.244857    274.92905    1133.8276   -2541.0631 
19658000     240.3687   -3868.6557    -3456.672   -3868.6557            0    10316.512    16.865197    19.864975    20.575501    6893.3427    11210.747    10703.559    9035.2291    526.99509    -1434.335   -468.52457    -2419.529 
19659000     246.5117    -3884.495   -3461.9824    -3884.495            0     9266.635    16.930643    19.942061    20.655345    6973.9034    9134.5291    9647.4856    9017.8901    1117.3728   -1314.7757    750.68222   -2519.4987 
19660000    276.20401   -3887.0478   -3413.6436   -3887.0478            0     8436.034    17.005907    20.030712    20.747167    7067.3239    9639.3571     8312.101     7356.644   -17.957386    107.08102   -156.63902   -2544.1443 
19661000    249.08272   -3894.9583    -3468.039   -3894.9583            0     7956.692    16.991625     20.01389    20.729742    7049.5324    7821.8376    8469.8219    7578.4165    1369.8368    556.48472    423.26243   -2650.0099 
19662000     246.5137   -3867.7741    -3445.258   -3867.7741            0    11042.903    16.910129    19.917899    20.630318    6948.5852     11997.74    10947.817    10183.151    468.21496   -1441.0808    1183.5665   -2326.1925 
19663000    254.68483   -3866.4719   -3429.9508   -3866.4719            0    9948.2641    16.898985    19.904773    20.616723    6934.8566    9720.7324    8199.9917    11924.068    516.28712   -1069.2655    1.6327534   -2423.8056 
19664000     262.5977    -3895.765   -3445.6815    -3895.765            0    8674.2693      16.8832     19.88618    20.597465    6915.4412    9162.0935    8977.5482    7883.1664    1153.7347   -1443.7646   -1216.4486   -2570.8414 
19665000    252.60692   -3870.8722   -3437.9126   -3870.8722            0    9685.4821    16.959107    19.975588    20.690071    7009.1371    8461.2898    12292.668    8302.4884   -489.34079   -370.32537    2246.3287   -2447.8522 
19666000    267.65073   -3888.0413   -3429.2971   -3888.0413            0    10251.698    16.947683    19.962132    20.676133    6994.9814    10408.028    12130.922    8216.1435   -704.88556   -79.843396   -155.70308    -2383.474 
19667000    244.71203   -3890.6474   -3471.2194   -3890.6474            0    7360.8683     16.93248    19.944225    20.657586    6976.1739    9209.9632     6489.863    6382.7787    731.40428   -652.59234    101.86831   -2722.3221 
19668000    268.08886   -3861.1662   -3401.6711   -3861.1662            0    7829.3441     16.94802    19.962529    20.676545    6995.3995    7873.4888    8200.1893    7414.3542    864.57421   -1543.4087    611.10961   -2602.9157 
19669000    266.60302   -3881.2809   -3424.3324   -3881.2809            0    7709.5457    16.973072    19.992037    20.707109    7026.4666    6833.5273    8719.1123    7575.9974   -1222.6964    483.92015   -1680.4663   -2634.3059 
19670000     251.0881    -3865.584   -3435.2276    -3865.584            0     8710.342    16.976802    19.996431    20.711659    7031.0997    10080.801    6309.7032    9740.5215   -816.50837    705.55155   -462.48614   -2542.0572 
19671000    256.48933    -3887.923    -3448.309    -3887.923            0    7840.9377    16.970662    19.989198    20.704168    7023.4737    7543.0492    6767.7983    9211.9655   -1946.3698    -952.6065    1055.7098   -2645.1605 
19672000    255.79475   -3875.3506   -3436.9271   -3875.3506            0    7285.8117    16.997529    20.020844    20.736946    7056.8837    7628.0252    6785.7265    7443.6835     158.8338   -489.60398    779.94834   -2687.0902 
19673000    251.81049   -3861.0859   -3429.4913   -3861.0859            0    9792.8417    16.927537    19.938403    20.651556    6970.0667    10074.606    10446.288    8857.6307    1086.6684    1467.5179   -947.77431   -2434.0365 
19674000    260.59312   -3903.8356   -3457.1879   -3903.8356            0    8006.4299    16.958518    19.974895    20.689353    7008.4068    7371.2496    9828.3293    6819.7108   -275.50692   -206.40064   -955.21975   -2638.8473 
19675000    258.23385   -3860.7085   -3418.1045   -3860.7085            0    10616.702    16.929084    19.940225    20.653443    6971.9777    10602.958    9125.2076    12121.941   -195.43234    585.41227    242.85735   -2338.6073 
19676000    264.46335   -3903.9876   -3450.7065   -3903.9876            0    8545.9506    16.943101    19.956735    20.670544    6989.3101    8272.9527    9144.0202     8220.879    145.94425   -173.80632    133.17165   -2579.6014 
19677000    274.78167   -3874.9395   -3403.9731   -3874.9395            0    9392.6626    16.884341    19.887523    20.598856    6916.8431    9757.8689    9703.6751    8716.4439    -1221.271   -474.96586    85.673899   -2456.4877 
19678000    255.78372   -3867.4713   -3429.0667   -3867.4713            0    7862.9644    16.943203    19.956855    20.670667    6989.4354    6268.1771    8359.6879    8961.0282    1190.6224    946.50684    1082.5286   -2627.5653 
19679000    267.22874   -3908.6741   -3450.6532   -3908.6741            0    7714.1284     16.94794    19.962434    20.676447    6995.2994    7810.9143    8159.9085    7171.5625    81.295714    1153.4721      336.562   -2663.6635 
19680000    241.57776   -3862.4166   -3448.3606   -3862.4166            0    10126.918    16.907083     19.91431    20.626602    6944.8303    10671.084     9496.633    10213.036   -1439.1221   -1183.0528   -153.30001   -2422.6737 
19681000    268.09101   -3898.3295   -3438.8307   -3898.3295            0    10647.173    16.927539    19.938405    20.651558    6970.0684    8573.8269    12140.538    11227.153   -450.12042    977.19055     295.6215   -2356.5318 
19682000    262.09057   -3867.3525   -3418.1383   -3867.3525            0    9436.1612    16.858319    19.856873     20.56711    6884.9122    8414.1631    9858.9153    10035.405   -1730.2815     615.8227     38.04469   -2470.6592 
19683000    253.97733   -3933.2944   -3497.9859   -3933.2944            0    6334.0191    17.018311    20.045322    20.762299    7082.7993    7646.4393    6053.9235    5301.6945    1105.2101   -444.64662   -596.37817   -2843.7111 
19684000    259.16179   -3901.1823   -3456.9879   -3901.1823            0    9727.1092    16.860405     19.85933    20.569654    6887.4676    10020.185    8530.0061    10631.137    201.66072   -398.90196   -1184.1118   -2479.9323 
19685000    267.22171    -3881.583   -3423.5742    -3881.583            0    10416.458    16.850335    19.847469    20.557369    6875.1346    11432.659    10760.702    9056.0135   -8.9170042   -1617.9689   -137.63322   -2379.1494 
19686000    260.70326   -3866.1311   -3419.2946   -3866.1311            0    8055.2086    16.940116    19.953219    20.666901    6985.6158    7164.6492    7866.0097     9134.967    635.32823   -1115.8365    177.99515   -2598.6458 
19687000    241.67076   -3876.5875   -3462.3721   -3876.5875            0    7490.7949    16.941875    19.955291    20.669048    6987.7923    6406.0023    7388.7819    8677.6004   -1311.2868     962.0035     397.5719   -2698.9869 
19688000    268.32953   -3848.0582   -3388.1506   -3848.0582            0    10430.737    16.898758    19.904505    20.616446     6934.577    12598.002    9110.8292    9583.3804   -625.57065    1201.6761    163.00996   -2333.2516 
19689000    241.74878   -3868.6194   -3454.2703   -3868.6194            0    9397.8182      16.9515    19.966628    20.680791    6999.7095    9363.2836      8658.54    10171.631    718.37651    1029.0411    -366.0371   -2494.9073 
19690000    269.38535   -3847.4432   -3385.7259   -3847.4432            0    10323.861    16.919468    19.928898    20.641711    6960.1034    10085.044    11446.421    9440.1189   -370.41347   -436.86579   -729.63737   -2337.7924 
19691000    257.36564   -3855.3861   -3414.2702   -3855.3861            0    9260.4468    16.932549    19.944306     20.65767    6976.2593    7370.6595    9754.3685    10656.312   -796.08582   -1230.9237    620.55718   -2472.0977 
19692000    259.00788   -3864.2465   -3420.3159   -3864.2465            0    10331.105    16.963161    19.980363    20.695016    7014.1639     12069.28    9101.7575    9822.2767    984.68666    1127.2949     391.8428   -2363.5019 
19693000    259.80473    -3887.262   -3441.9656    -3887.262            0    8826.6831    16.991686    20.013961    20.729817    7049.6083    9701.9322    7619.8168    9158.3002   -965.32984   -1293.6683    2282.1619   -2534.4828 
19694000    273.02589   -3867.9131    -3399.956   -3867.9131            0    10155.846    16.935128    19.947344    20.660816    6979.4471    8462.1951    10970.231    11035.111    453.21811   -507.20378   -363.78854    -2366.212 
19695000    258.59736   -3857.1963   -3413.9693   -3857.1963            0    9782.7785     16.90633    19.913423    20.625683     6943.902    9185.0861      9988.73    10174.519    810.86503   -490.40465   -93.316117   -2423.2704 
19696000    271.64574   -3901.5936   -3436.0021   -3901.5936            0    7060.4403    17.017083    20.043875    20.760801    7081.2659    5399.1526    8285.9315    7496.2369    1115.4382   -133.52272    1183.6708   -2706.8492 
19697000    256.39019   -3871.2494   -3431.8054   -3871.2494            0    7510.1762    16.948165      19.9627    20.676722     6995.579    7671.9745    7463.8977    7394.6564    364.99653   -206.02759    1742.9504   -2665.5921 
19698000    268.85204   -3878.4477   -3417.6445   -3878.4477            0    7909.6554    17.014415    20.040733    20.757546    7077.9362    7841.6128    9060.7743    6826.5791     421.7961    1290.1258    586.54693   -2601.1747 
19699000    270.87397   -3886.8964   -3422.6276   -3886.8964            0    9114.2838    17.006402    20.031295     20.74777    7067.9406     10668.94    9998.1378    6675.7736   -1404.5902    1523.2852   -1399.7435   -2483.1394 
19700000    252.12022   -3891.0842   -3458.9588   -3891.0842            0    8865.5189    17.005222    20.029905    20.746331    7066.4697    9673.0029    7264.9921    9658.5618    370.65916    11.714837    255.65003   -2545.3031 
19701000    265.39301   -3881.2716    -3426.397   -3881.2716            0    9677.6139    16.962817    19.979958    20.694597    7013.7375    11408.229    8890.7945    8733.8181    656.68547   -205.70509   -1312.7141   -2436.4916 
19702000    257.40701   -3885.1636   -3443.9768   -3885.1636            0    8147.0582    17.013232    20.039341    20.756104    7076.4607    10398.112    7166.5338    6876.5288   -152.55317    654.04152   -532.04283   -2603.1766 
19703000    256.58475   -3901.4671   -3461.6896   -3901.4671            0    11210.785    16.900106    19.906092     20.61809    6936.2361    12964.061    10539.806    10128.489   -1535.7807    109.62639   -247.76927   -2327.6302 
19704000    250.45328    -3894.829   -3465.5606    -3894.829            0    8243.3833     16.98481    20.005863    20.721429    7041.0541    8834.6421    7413.3169     8482.191   -1463.3705    605.10694    161.72238    -2619.076 
19705000    244.41713   -3904.0305   -3485.1078   -3904.0305            0    6762.4146    17.021676    20.049286    20.766405    7087.0022    7300.3576    6221.1533    6765.7329   -2138.6546    1383.8553    2.8669245   -2786.1673 
19706000     256.0359   -3906.4698   -3467.6331   -3906.4698            0    11306.753     16.86003    19.858888    20.569197    6887.0082    12228.225    11786.675    9905.3592    -1323.476     307.9685   -647.18269   -2331.9833 
19707000    255.69099   -3877.1561   -3438.9105   -3877.1561            0    8546.2143    16.924553    19.934888    20.647915    6966.3807    8346.3667     8069.963    9222.3133   -1231.0892    200.62087   -1128.5959   -2570.6364 
19708000    257.81852   -3863.8769   -3421.9848   -3863.8769            0    9337.0854    16.951986    19.967201    20.681384    7000.3114    9632.7607    8503.5753    9874.9201    971.97432    1727.0455   -1153.8528   -2468.7397 
19709000    263.20658   -3898.8169   -3447.6899   -3898.8169            0    9413.5967    16.923243    19.933345    20.646317    6964.7635    9145.8751    9462.8632    9632.0517   -294.93286   -1365.3188    20.527749   -2491.5138 
19710000    257.99249   -3854.5265   -3412.3362   -3854.5265            0    9565.9512    16.933516    19.945445     20.65885    6977.4542    8657.2251    8955.6103    11085.018    633.79986    699.34241   -3050.1311   -2438.9144 
19711000    268.06589    -3902.649   -3443.1932    -3902.649            0    9109.5265    16.912752    19.920988    20.633518    6951.8191    13150.913    7382.0711    6795.5957   -149.46049    491.29324    357.82463   -2519.6225 
19712000    262.17846   -3892.6774   -3443.3125   -3892.6774            0    9742.4261    16.887867    19.891677    20.603159    6921.1781    9404.0458    10159.135    9664.0979    1270.6553    791.43319   -1157.1834   -2459.9288 
19713000    273.67352   -3910.3498   -3441.2827   -3910.3498            0     8784.902    16.924116    19.934373    20.647382    6965.8413    9860.8802     9120.149    7373.6769    718.16349    1519.1475   -1289.4331   -2548.8276 
19714000     268.7136   -3919.3493   -3458.7834   -3919.3493            0    8120.3102     16.98473    20.005769    20.721331    7040.9548    8267.2725    7680.7268    8412.9313   -645.48158    1248.0275    727.10328   -2624.9485 
19715000    251.77259    -3923.866   -3492.3364    -3923.866            0    9057.4042    16.899674    19.905584    20.617563    6935.7043    11533.906    7288.9966    8349.3098    198.96636   -934.89457    1289.7702   -2576.1788 
19716000    255.40291   -3883.9842   -3446.2323   -3883.9842            0    7823.8449     16.90659    19.913729       20.626    6944.2224    8457.3102    7649.5835    7364.6411   -363.10497   -1323.7834   -360.09001   -2653.8774 
19717000    245.96529   -3890.1807   -3468.6046   -3890.1807            0    8208.8706    16.890431    19.894697    20.606286    6924.3304    8598.7872    6846.6878    9181.1368   -309.25602   -852.75784    -778.0066   -2639.6379 
19718000    265.98749   -3893.5609   -3437.6675   -3893.5609            0    8752.4692     16.92557    19.936085    20.649155    6967.6363    7206.0089    9334.9055    9716.4933   -2219.0037   -740.09181   -231.94798   -2548.2781 
19719000     271.5466   -3895.3269   -3429.9053   -3895.3269            0    9175.8735    16.891585    19.896056    20.607695    6925.7502    9773.3856    10411.835    7342.3996     509.3532   -880.65306      1474.23   -2503.0966 
19720000    247.05496   -3895.0064   -3471.5626   -3895.0064            0    10341.065    16.894889    19.899948    20.611725     6929.815      10774.2    8492.5598    11756.434    3158.9659    -1367.414   -99.343663   -2426.4507 
19721000    259.77186   -3905.1512   -3459.9111   -3905.1512            0    9401.9405    16.917873     19.92702    20.639766    6958.1356    9636.4178    9369.1436    9200.2601    1509.9521    836.52799   -1238.9567   -2505.8279 
19722000    250.97635   -3880.1068   -3449.9419   -3880.1068            0    10280.145    16.909729    19.917427     20.62983    6948.0916     9140.337    10759.469    10940.629   -731.82801   -1403.2899    1392.8174   -2408.2467 
19723000    253.08429   -3878.0549   -3444.2771   -3878.0549            0    7059.4685    16.944184    19.958011    20.671865    6990.6507    5779.9563    7344.7179    8053.7313    591.88223   -603.75194     73.03678   -2724.5539 
19724000    257.77798   -3883.5205   -3441.6979   -3883.5205            0    8815.5688    16.965795    19.983465     20.69823    7017.4321    8427.2213     7383.956    10635.529   -1795.5823    209.71598    1683.5921   -2539.4945 
19725000    252.72559   -3911.2878   -3478.1247   -3911.2878            0    11362.892    16.902572    19.908997    20.621099    6939.2733    11002.954    12500.003    10585.718   -496.25558    180.52751   -837.86563   -2328.1753 
19726000    267.80943   -3902.0278   -3443.0116   -3902.0278            0    8431.6621    16.948329    19.962892    20.676921    6995.7811    9307.5954    8008.0254    7979.3657   -105.70045   -894.14597   -403.17787   -2582.7603 
19727000    263.83812   -3834.5447   -3382.3352   -3834.5447            0    9612.1379    16.983806     20.00468    20.720203    7039.8049    10613.102    10112.249    8111.0627   -946.18424    520.58665   -955.72703   -2395.4731 
19728000     272.8066   -3884.0267   -3416.4456   -3884.0267            0    10413.738    16.904698    19.911501    20.623692    6941.8918    10062.077    9762.7251    11416.412   -97.299601   -924.83155    35.219261   -2362.1549 
19729000    268.50528   -3891.4135   -3431.2046   -3891.4135            0    7545.9781    16.961939    19.978924    20.693526    7012.6488    6916.4746    8738.7705    6982.6893    223.46863    691.11009   -1830.5061   -2659.4602 
19730000    252.12414   -3842.5503   -3410.4182   -3842.5503            0    10056.851    16.919249     19.92864    20.641444    6959.8332     11848.98    9009.4331    9312.1391   -533.78621    204.71017     697.8527   -2389.6275 
19731000     263.4736   -3878.2417   -3426.6569   -3878.2417            0    9496.0853    16.940573    19.953758     20.66746    6986.1822    9590.6129    9747.2517    9150.3911    346.05465    121.34158   -2.6811035   -2459.1359 
19732000    266.50414   -3900.2589   -3443.4799   -3900.2589            0    8248.6631    16.972289    19.991114    20.706153    7025.4932    8152.8284    9259.2428    7333.9181    1242.2695   -68.530312   -96.647978   -2598.3251 
19733000    255.99145   -3850.9909   -3412.2303   -3850.9909            0    11141.785    16.850554    19.847727    20.557636    6875.4026    9128.7549    11808.211    12488.387    90.451958   -571.76763    -513.2612   -2295.0358 
19734000    260.70585   -3843.4729    -3396.632   -3843.4729            0    9357.9205    16.965466    19.983078    20.697829     7017.024    8800.1081    8666.6626    10606.991    200.35059   -667.24928     -1626.64   -2438.9789 
19735000    263.91524   -3904.0842   -3451.7425   -3904.0842            0    6670.4227    16.968936    19.987165    20.702062      7021.33    6472.2588    6860.0258    6678.9836   -491.31155    1845.6794    901.70964   -2768.6986 
19736000    264.94542   -3871.7578   -3417.6504   -3871.7578            0    9134.5064     16.94826    19.962811    20.676837    6995.6957    9450.2451    9138.3801    8814.8939   -1146.3578    1576.0685    -1104.383    -2485.702 
19737000    255.80548   -3861.5218   -3423.0799   -3861.5218            0    10349.692    16.885418    19.888792     20.60017    6918.1668      10203.6    11428.713    9416.7627   -428.49069    829.24083    229.39071   -2378.8543 
19738000    263.79722   -3864.1906   -3412.0512   -3864.1906            0    10943.672    16.905475    19.912416     20.62464    6942.8489    9480.8257    12791.903    10558.288   -1214.5438   -491.43736    1108.8513    -2303.957 
19739000    263.64067   -3900.7725   -3448.9014   -3900.7725            0    9850.3053     16.97772    19.997512    20.712779    7032.2406     10554.69     8794.375    10201.851    350.55049   -1687.2606   -609.22046   -2438.6737 
19740000    271.73799   -3906.4063   -3440.6567   -3906.4063            0    9505.7172    16.956762    19.972825     20.68721    7006.2291    10771.546    8993.0902    8752.5151    1083.5406   -473.61257     214.6493   -2469.3752 
19741000    255.41162   -3893.5333   -3455.7665   -3893.5333            0    7529.0035    16.967534    19.985514    20.700352    7019.5902     7410.457    8420.5348    6756.0187    640.43686   -629.68172   -122.36453   -2684.9959 
19742000    261.26648   -3876.4457   -3428.6439   -3876.4457            0    8189.0416    16.993806    20.016459    20.732404    7052.2479     8829.736    8148.9612    7588.4277    415.67817    365.52302    252.49006   -2586.4026 
19743000    257.43989    -3832.162   -3390.9188    -3832.162            0    8382.3402    16.975786    19.995234     20.71042    7029.8374    9476.5737    8642.4729    7027.9741     1809.877    582.75168   -1711.3115   -2531.5364 
19744000    263.70471   -3862.5925   -3410.6116   -3862.5925            0     8905.958    16.922782    19.932801    20.645754    6964.1936    9960.9262    6601.0998    10155.848    969.50479   -1219.9557    88.216042   -2506.0725 
19745000    274.58335   -3847.5316   -3376.9052   -3847.5316            0    10489.945    16.930079    19.941397    20.654657    6973.2074    10013.716    11095.872    10360.249   -494.65196   -486.51237    1072.1234   -2310.1084 
19746000     264.8983   -3866.7204   -3412.6938   -3866.7204            0    9231.3773    16.951923    19.967126    20.681307    7000.2332    9920.7634    9130.9935    8642.3751   -1427.1561   -620.79742    350.48304   -2470.2512 
19747000    253.11471   -3880.1915   -3446.3616   -3880.1915            0    7942.0726    17.085641    20.124628    20.844442    7167.1984    7225.1171    8758.4462    7842.6546    256.52476     103.2213    -106.8961   -2616.2066 
19748000    263.94729    -3859.274   -3406.8774    -3859.274            0    9599.3838    16.936079    19.948464    20.661976    6980.6229    9115.8137    9191.4305    10490.907    135.73607    78.600256    916.84728     -2429.61 
19749000    250.11949   -3875.4153   -3446.7191   -3875.4153            0    7053.2764    17.006936    20.031924    20.748422    7068.6069    8695.2987    6903.6963    5560.8343   -1480.4801    -351.1569   -309.02492   -2719.6082 
19750000    272.55835   -3838.4256     -3371.27   -3838.4256            0    7243.6037    16.986581    20.007948    20.723589    7043.2561    6789.3582    6319.7438     8621.709   -1182.6905   -192.20386   -493.12906   -2627.2166 
Loop time of 543.926 on 64 procs for 250000 steps with 864 atoms

Performance: 79.423 ns/day, 0.302 hours/ns, 459.621 timesteps/s
99.2% CPU use with 64 MPI tasks x 1 OpenMP threads

MPI task timing breakdown:
Section |  min time  |  avg time  |  max time  |%varavg| %total
---------------------------------------------------------------
Pair    | 21.476     | 26.67      | 31.748     |  48.1 |  4.90
Bond    | 0.26668    | 0.27578    | 0.29341    |   1.1 |  0.05
Kspace  | 222.98     | 236.67     | 261.44     |  60.9 | 43.51
Neigh   | 4.9861     | 6.4744     | 9.4849     |  42.5 |  1.19
Comm    | 112.9      | 139.5      | 155.21     |  86.1 | 25.65
Output  | 1.645      | 1.647      | 1.659      |   0.2 |  0.30
Modify  | 124.97     | 128.47     | 131.07     |  13.6 | 23.62
Other   |            | 4.221      |            |       |  0.78

Nlocal:        13.5000 ave          19 max           9 min
Histogram: 3 3 12 7 10 3 11 7 3 5
Nghost:        2252.02 ave        2302 max        2196 min
Histogram: 4 3 3 7 13 9 5 11 7 2
Neighs:        4378.75 ave        7083 max        2568 min
Histogram: 3 10 11 8 11 11 4 4 1 1

Total # of neighbors = 280240
Ave neighs/atom = 324.35185
Ave special neighs/atom = 2.0000000
Neighbor list builds = 13793
Dangerous builds = 0

unfix		3
unfix		2
unfix		1

write_data	data.final.${pid}
write_data	data.final.0
System init for write_data ...
PPPM initialization ...
  extracting TIP4P info from pair style
  using 12-bit tables for long-range coulomb (../kspace.cpp:340)
  G vector (1/distance) = 0.37420527
  grid = 24 24 24
  stencil order = 5
  estimated absolute RMS force accuracy = 0.0031674362
  estimated relative force accuracy = 9.53864e-06
  using double precision FFTW3
  3d grid and FFT values/proc = 2535 216
Last active /omp style is kspace_style pppm/tip4p/omp
WARNING: Not all mixed pair coeffs generated from mixing. Use write_data with 'pair ij' option to store all pair coeffs. (../write_data.cpp:312)

write_restart   restart.lmp.${pid}
write_restart   restart.lmp.0
System init for write_restart ...
PPPM initialization ...
  extracting TIP4P info from pair style
  using 12-bit tables for long-range coulomb (../kspace.cpp:340)
  G vector (1/distance) = 0.37420527
  grid = 24 24 24
  stencil order = 5
  estimated absolute RMS force accuracy = 0.0031674362
  estimated relative force accuracy = 9.53864e-06
  using double precision FFTW3
  3d grid and FFT values/proc = 2535 216
Last active /omp style is kspace_style pppm/tip4p/omp
Total wall time: 0:09:08
