LAMMPS (30 Jul 2021)
  using 1 OpenMP thread(s) per MPI task
package omp 0
using multi-threaded neighbor list subroutines
echo both

include		in.partitions
variable        pid world 0
include		in.temp
variable        temperature equal 268.16
variable	tempDamp equal 100.0
include		in.pressure
variable        pressure equal 10875.0
variable        pressureDamp equal 1000.0 # This is 1 ps
include		in.seed
variable        seed world 745823

units		real
atom_style	full
read_restart    restart.lmp.${pid}
read_restart    restart.lmp.0
Reading restart file ...
  restart file = 30 Jul 2021, LAMMPS = 30 Jul 2021
  restoring atom style full from restart
  triclinic box = (-3.0628014 -0.29711961 -0.015942883) to (14.672800 22.877119 19.245941) with tilt (0.14555667 -6.3139400 0.26631199)
  4 by 4 by 4 MPI processor grid
  restoring pair style lj/cut/tip4p/long/omp from restart
  restoring bond style harmonic/omp from restart
  restoring angle style harmonic/omp from restart
  1008 atoms
  672 bonds
  336 angles
Finding 1-2 1-3 1-4 neighbors ...
  special bond factors lj:    0        0        0       
  special bond factors coul:  0        0        0       
     2 = max # of 1-2 neighbors
     1 = max # of 1-3 neighbors
     1 = max # of 1-4 neighbors
     2 = max # of special neighbors
  special bonds CPU = 0.848 seconds
  read_restart CPU = 1.013 seconds

include 	in.setup
variable	out_freq equal 1000
variable	out_freq2 equal 10000
variable	out_freq3 equal 1000

timestep	2.0

neigh_modify    delay 7 every 1

include		in.tip4p
# This is TIP4P/Ice

# create groups ###
group ox type 2
336 atoms in group ox
group hy type 1
672 atoms in group hy

# set charges - beside manually ###
set group ox charge -1.1794
Setting atom values ...
  336 settings made for charge
set group hy charge 0.5897
Setting atom values ...
  672 settings made for charge

# ### TIP3P Potential Parameters ###
pair_style lj/cut/tip4p/long/omp 2 1 1 1 0.1577 8.5
pair_coeff 1 1*2 0.000 0.000
pair_coeff 2 2 0.21084 3.1668
bond_style  harmonic
bond_coeff  1 450 0.9572
angle_style harmonic
angle_coeff 1 55 104.52
kspace_style pppm/tip4p/omp 1.0e-5
pair_modify tail yes

thermo          ${out_freq}
thermo          1000
thermo_style    custom step temp pe etotal epair emol press lx ly lz vol pxx pyy pzz pxy pxz pyz enthalpy

restart 	${out_freq3} restart.lmp.${pid} restart2.lmp.${pid}
restart 	1000 restart.lmp.${pid} restart2.lmp.${pid}
restart 	1000 restart.lmp.0 restart2.lmp.${pid}
restart 	1000 restart.lmp.0 restart2.lmp.0


include         in.dump
dump            myDump all atom ${out_freq2} dump.water.${pid}
dump            myDump all atom 10000 dump.water.${pid}
dump            myDump all atom 10000 dump.water.0
dump            myDump2 all dcd ${out_freq2} dump.dcd
dump            myDump2 all dcd 10000 dump.dcd
dump_modify     myDump append yes
dump_modify     myDump2 append yes


variable natoms 	equal  "count(all)"                        # NUMBER ATOMS
variable H      	equal  "enthalpy/v_natoms"                 # ENTHALPY-per-atom
variable Vol      	equal  "vol/v_natoms"                 # volume-per-atom
fix AVG all 		ave/time ${out_freq} 1 ${out_freq} v_Vol v_H file vol_enthalpy.dat
fix AVG all 		ave/time 1000 1 ${out_freq} v_Vol v_H file vol_enthalpy.dat
fix AVG all 		ave/time 1000 1 1000 v_Vol v_H file vol_enthalpy.dat



fix 		1 all shake 1e-6 200 0 b 1 a 1
       0 = # of size 2 clusters
       0 = # of size 3 clusters
       0 = # of size 4 clusters
     336 = # of frozen angles
  find clusters CPU = 0.075 seconds
fix             2 all nph tri ${pressure} ${pressure} ${pressureDamp}
fix             2 all nph tri 10875 ${pressure} ${pressureDamp}
fix             2 all nph tri 10875 10875 ${pressureDamp}
fix             2 all nph tri 10875 10875 1000
fix             3 all temp/csvr ${temperature} ${temperature} ${tempDamp} ${seed}
fix             3 all temp/csvr 268.16 ${temperature} ${tempDamp} ${seed}
fix             3 all temp/csvr 268.16 268.16 ${tempDamp} ${seed}
fix             3 all temp/csvr 268.16 268.16 100 ${seed}
fix             3 all temp/csvr 268.16 268.16 100 745823


run             250000
PPPM initialization ...
  extracting TIP4P info from pair style
  using 12-bit tables for long-range coulomb (../kspace.cpp:340)
  G vector (1/distance) = 0.38325438
  grid = 24 30 32
  stencil order = 5
  estimated absolute RMS force accuracy = 0.0019679493
  estimated relative force accuracy = 5.9264209e-06
  using double precision FFTW3
  3d grid and FFT values/proc = 3825 384
Last active /omp style is kspace_style pppm/tip4p/omp
Neighbor list info ...
  update every 1 steps, delay 7 steps, check yes
  max neighbors/atom: 2000, page size: 100000
  master list distance cutoff = 10.8154
  ghost atom cutoff = 10.8154
  binsize = 5.4077, bins = 5 5 4
  1 neighbor lists, perpetual/occasional/extra = 1 0 0
  (1) pair lj/cut/tip4p/long/omp, perpetual
      attributes: half, newton on, omp
      pair build: half/bin/newton/tri/omp
      stencil: half/bin/3d/tri
      bin: standard
Per MPI rank memory allocation (min/avg/max) = 9.329 | 9.335 | 9.339 Mbytes
Step Temp PotEng TotEng E_pair E_mol Press Lx Ly Lz Volume Pxx Pyy Pzz Pxy Pxz Pyz Enthalpy 
27750000    266.62894   -4772.9477   -4239.6568   -4772.9477            0    9258.0248    17.735602    23.174238    19.261884    7916.8088    11729.661    8652.9202     7391.493   -584.53607   -1170.8966   -1026.6397   -3170.7389 
27751000    265.17371   -4798.7353   -4268.3551   -4798.7353            0    8773.1847    17.718525    23.481684     18.96779     7891.754    8568.9766    7782.6511    9967.9264    664.71992    806.38127   -249.73676   -3258.6217 
27752000     274.0927   -4813.0969   -4264.8777   -4813.0969            0     10513.47    17.595577    23.390472    19.088863    7856.3815    11661.795    9619.8307    10258.785    217.38867   -527.84969   -971.18631    -3060.273 
27753000    254.01147   -4776.6777   -4268.6234   -4776.6777            0    12718.769    17.742129    23.367875    18.898275    7835.1463     13006.83    11343.046     13806.43   -328.34328   -407.20601    278.51969   -2815.2806 
27754000    260.15122   -4821.9494   -4301.6148   -4821.9494            0    10808.247    17.550189    23.255038    19.173433    7825.2592    11900.452    11049.298    9474.9899    11.003495   -335.04876    2342.6462   -3068.1412 
27755000    269.99375   -4807.7677   -4267.7468   -4807.7677            0     9311.816    17.725664    23.192481    19.143811    7870.0611    11962.077    7307.3079    8666.0629   -1034.2112   -457.62072   -1450.1059   -3198.9667 
27756000     267.8081   -4792.4734   -4256.8242   -4792.4734            0    9851.6536    17.818278    23.196172    19.135497    7909.0044    10172.591    9120.3017    10262.068   -452.35952    459.26879    447.60909    -3120.488 
27757000    267.20138   -4813.3799   -4278.9441   -4813.3799            0    11454.892    17.797893    22.984239    19.233689    7867.9449    13790.773      11078.3    9495.6031    1604.5278    703.58576    1488.4825   -2964.5421 
27758000    269.64413   -4794.9871   -4255.6655   -4794.9871            0    12434.766    17.627861    23.106951    19.145685    7798.5376    12450.774    13155.905     11697.62    1278.7076     820.4898   -1153.7904   -2841.4139 
27759000    275.51172   -4783.6101   -4232.5526   -4783.6101            0    11176.561    17.754452    22.955971    19.220117    7833.5562    11268.794    11442.739    10818.149    531.90635   -1213.5141   -1925.0183   -2955.6933 
27760000    277.99203   -4807.4708   -4251.4524   -4807.4708            0    11033.987     17.88916    22.927982    19.156714    7857.3627    10997.024    12366.919    9738.0184     -313.991   -766.17483     437.5093   -2987.0505 
27761000    258.62074   -4790.4625    -4273.189   -4790.4625            0    10411.758    17.973569    22.842149    19.148082    7861.3393     8775.874    10266.161     12193.24   -9.4943332   -1708.4987    1095.6499   -3079.4854 
27762000    273.62995   -4771.2328   -4223.9391   -4771.2328            0     9927.522    17.926779    22.712554    19.420127    7907.1556    10884.873    10247.714     8649.979    970.80857   -1850.1412    244.96101   -3079.1196 
27763000    263.10791   -4750.8187   -4224.5704   -4750.8187            0     11366.01    17.979645    22.728587    19.239617    7862.3064    13398.198    9884.8054    10815.026   -1856.5697   -473.76264   -1681.4784   -2921.3019 
27764000    283.85986   -4840.2004   -4272.4456   -4840.2004            0    10653.044    18.034868    22.632672    19.281754    7870.3734    8590.0421    12004.672    11364.417   -235.76648    1360.1834   -775.45061   -3049.6751 
27765000    265.70009   -4803.7134   -4272.2804   -4803.7134            0    10016.101    17.931293    22.654959    19.404295     7882.659    9010.5635    11078.059    9959.6809   -367.25263    -429.8712   -376.03133   -3120.8245 
27766000    258.29823   -4781.4491   -4264.8207   -4781.4491            0    11154.723    17.776029    22.928709    19.299083    7865.9474    13447.521    10916.664    9099.9839    686.41435    505.92669   -1074.6271   -2985.1869 
27767000    270.24685   -4798.7284   -4258.2013   -4798.7284            0    12104.973    17.837367    22.910299    19.100407    7805.5607    12646.169    12533.672    11135.079    940.21493    2049.4576    1392.5934   -2880.2184 
27768000    262.89107   -4828.3958   -4302.5812   -4828.3958            0    9545.5077    17.752087    23.303845    19.153804    7923.7731    9396.4246    9349.6423    9890.4563   -1771.2585     504.4486   -836.76428   -3199.5013 
27769000    255.54733   -4776.4934   -4265.3672   -4776.4934            0    10830.361    17.713182    23.170118    19.107682    7842.1084    10185.258    10929.546    11376.277   -2205.1743   -507.16663   -1478.5152   -3026.7085 
27770000    278.63682   -4813.8857   -4256.5777   -4813.8857            0    11528.266    17.815438    23.000113    19.035534    7799.9452    11964.631    10982.205    11637.963   -1303.3423     1027.636    660.87576    -2945.189 
27771000    267.69071   -4830.7698   -4295.3553   -4830.7698            0    10881.181    17.606797    23.337102    19.165912    7875.1127    12247.886     10426.71    9968.9476    -1141.557    386.21846    811.67147   -3045.6469 
27772000    260.92433   -4792.1531   -4270.2722   -4792.1531            0    8359.8471    17.858764    23.338987    19.022374    7928.6295    8322.4568    7505.2312    9251.8535    734.61937   -284.27516     940.3035   -3303.6153 
27773000    258.22734   -4818.5079   -4302.0213   -4818.5079            0    10164.727    17.772468    22.993927    19.284235    7880.6731    12927.259    8438.5094    9128.4113   -1344.0463    331.08652    35.748992   -3133.7737 
27774000    279.02899   -4773.6138   -4215.5214   -4773.6138            0    11620.137    17.953401    22.954081     19.08459    7864.8324    10878.651    10950.929    13030.832    229.03548    441.40848   -233.60013   -2882.6857 
27775000    270.67287   -4761.8506   -4220.4714   -4761.8506            0    12687.461    17.652258    22.791908    19.405754    7807.4907    14337.718     12612.51    11112.155    137.15553   -506.85392    89.329051   -2775.8233 
27776000    264.84306   -4771.0039   -4241.2851   -4771.0039            0    10602.722     17.90794    22.863596    19.211813    7866.0833    10063.164    10336.184     11408.82   -348.28156    740.40866    315.70208    -3024.954 
27777000    287.59627   -4815.0968   -4239.8688   -4815.0968            0    9775.9341    17.767698    22.933057    19.372347    7893.6043     11068.35    8883.9967     9375.456   -230.63625   -427.93065    110.29841   -3114.4621 
27778000    264.40676    -4813.263   -4284.4168    -4813.263            0    8793.1938    18.019337    22.746991    19.268979    7898.0787    9905.5085    8549.7246    7924.3482    80.978583    425.81463    706.97341   -3271.5695 
27779000    267.08943   -4784.6637   -4250.4518   -4784.6637            0    12243.023    18.002075    22.641327    19.190292    7821.7876     11999.52    12560.052    12169.496   -1743.9509    14.769921   -1742.4507   -2853.8566 
27780000    284.08374   -4809.3956    -4241.193   -4809.3956            0    10924.036     17.94875    22.589718     19.44428    7883.8233    12370.005    11419.924    8982.1787    2.7294527   -55.589727   -135.46934    -2985.175 
27781000    273.57979   -4783.9555   -4236.7621   -4783.9555            0    10111.645    17.925703    22.881914    19.253761    7897.4002    10167.908    10242.987    9924.0405   -895.15621   -90.557135   -520.01808   -3072.1485 
27782000    270.09369   -4802.2079   -4261.9872   -4802.2079            0     9771.134    17.829255    22.709477    19.499785    7895.3277    11825.107    9187.1499    8301.1447    807.55525   -1436.7854    91.165438   -3136.8874 
27783000    275.58227   -4813.9951   -4262.7965   -4813.9951            0    10197.744    17.942782    22.917116    19.126546    7864.7744    9136.3488    10565.476    10891.406    369.29162    1408.3202   -1275.6984   -3093.1187 
27784000    254.98426   -4799.7381    -4289.738   -4799.7381            0    10973.573    17.640574    23.046176    19.298599    7845.8024    13540.396    10692.351    8687.9712   -764.40708     86.74165   -2930.7929   -3034.1091 
27785000    262.54904   -4824.9801   -4299.8495   -4824.9801            0    9959.9852    17.876848    22.937361    19.133243    7845.5426    10504.592    8848.8419    10526.522    611.50991   -1545.9809   -224.25593   -3160.2361 
27786000    276.50252   -4860.3947   -4307.3555   -4860.3947            0    8813.9025    18.027727    22.675336    19.279658    7881.2307    9363.6212    9202.9309    7875.1553    1624.7339    150.32669    1831.9697   -3294.2885 
27787000    274.92435   -4807.4751   -4257.5924   -4807.4751            0     10387.91    17.746565    22.909974    19.276131    7837.1611    9956.4809     10697.31     10509.94    796.67052   -877.93108   -1125.8582   -3070.2859 
27788000    277.37778    -4825.592   -4270.8021    -4825.592            0    11249.197     17.98792    22.851641    19.071125    7839.2526    10749.021    10692.724    12305.845    1576.9743   -362.90576    -52.84752   -2984.7101 
27789000     265.2964   -4793.1732   -4262.5477   -4793.1732            0    12422.199    17.793051    22.606005    19.428848    7814.8617    12844.828    12014.189    12407.581   -811.00263   -80.889361   -700.39229    -2846.768 
27790000    272.82789   -4801.3898   -4255.7004   -4801.3898            0    11304.972    17.973715    22.666969    19.309248    7866.7736    10058.656    12500.007    11356.254    -1277.418    333.60845   -502.14599   -2958.6942 
27791000    261.49388   -4784.2612   -4261.2412   -4784.2612            0    11097.025    17.944563    22.613249    19.386726    7866.8398    12059.189    10796.901    10434.986   -556.48903   -536.15893    1500.8401   -2988.0818 
27792000    263.80297   -4786.4003   -4258.7618   -4786.4003            0    11140.036    18.193892    22.406982    19.305484    7870.2707    11690.342    11872.375    9857.3917   -176.37681   -609.64094    558.16559   -2980.1103 
27793000    281.30259   -4807.0476   -4244.4076   -4807.0476            0    10893.745    17.841128    22.844393    19.266425    7852.4114    10550.715    11274.802    10855.717   -2021.1525     1702.115    562.12792   -2996.8629 
27794000    264.33827   -4830.1484   -4301.4392   -4830.1484            0    11552.183    17.966602     22.77418    19.182329    7848.9228    12157.697    11738.568    10760.286    465.84398    1193.9283    899.03061   -2979.0783 
27795000    270.70725   -4824.0873   -4282.6393   -4824.0873            0    12733.707    17.816429    22.770124    19.185547    7783.2369     11951.81    13387.649    12861.661    187.33858     583.7254     1530.808   -2837.2296 
27796000    272.19452   -4830.7888   -4286.3661   -4830.7888            0    11494.004    17.944854    22.895584     19.07267    7836.1574    9528.9802    11951.804    13001.227   -198.21484    290.12623   -596.04948   -2972.8047 
27797000    266.35142   -4799.1259   -4266.3901   -4799.1259            0    11146.184    17.757392    22.891631    19.312292    7850.3629    10475.086    11137.436    11826.031    382.41267   -972.05427    2638.9147   -2990.2692 
27798000    261.09712   -4812.9961   -4290.7696   -4812.9961            0    11273.194    18.071421    22.671844    19.152752    7847.1206    10990.735    11552.645    11276.203    45.730166    1116.1232   -592.30299   -3000.6405 
27799000    268.73434   -4787.3875   -4249.8856   -4787.3875            0    11118.966    17.770094    22.837037    19.363957    7858.2091    11130.406    11459.611    10766.882    1000.9442   -105.76517    1124.1859   -2975.6085 
27800000    268.33521   -4834.2239   -4297.5203   -4834.2239            0    8954.1553    17.964451    22.988327    19.134784    7902.1431    8176.3265    9217.6629    9468.4767   -1374.2628   -251.06641    113.18305   -3265.6018 
27801000    280.01449   -4764.3573   -4204.2937   -4764.3573            0    9901.3536    17.833423    22.773597      19.4749    7909.3646    10675.128    10462.236    8566.6974    717.95825    506.80308    479.98923   -3062.1728 
27802000    267.84376   -4828.2564   -4292.5358   -4828.2564            0    10466.918    17.905321    23.050246    19.083598    7876.2218    10385.324    9933.1221    11082.309   -1678.1223   -351.03755   -1495.8593   -3090.2363 
27803000    261.06249   -4824.9446   -4302.7873   -4824.9446            0    12112.365    17.705175    23.000267    19.189023     7814.226    11056.124    12021.117    13259.855    855.44321    838.81526    1950.1592   -2922.4322 
27804000    270.34345   -4785.3765   -4244.6562   -4785.3765            0    10340.759    17.949019    23.157616    19.038131    7913.3228    8464.8847    9895.9011    12661.492    410.47738   -655.19998   -216.73763    -3051.253 
27805000     281.3508   -4796.2636   -4233.5273   -4796.2636            0    12720.962    17.617811    22.814237    19.398974    7797.1637    13718.069     13593.09    10851.729    495.45327    413.57316     2662.843   -2786.9804 
27806000    286.53379   -4780.3638   -4207.2608   -4780.3638            0     12794.82    17.818973    22.825157    19.241751    7826.0213     13065.69    12575.085    12743.683    1705.0405   -490.43497   -593.07215   -2746.9306 
27807000    266.05933   -4837.9816   -4305.8301   -4837.9816            0    9227.7496    17.891283    22.869301    19.248604    7875.7803    9174.5026    9187.3012    9321.4452    583.14288    827.09266   -661.09192   -3245.9291 
27808000    272.12998   -4813.0213   -4268.7277   -4813.0213            0    11128.855    17.978934    22.783301    19.164063    7849.9729     11543.15    11269.083     10574.33   -1113.4588    -282.2747   -1222.9855   -2994.6541 
27809000    262.69715   -4795.2856   -4269.8588   -4795.2856            0    10725.712    17.819497    22.929796    19.226347    7855.8356    13191.121    10506.973    8479.0437    803.31859   -220.96249    784.47036   -3041.0214 
27810000    278.18316   -4824.0835   -4267.6828   -4824.0835            0    10017.026    17.794337    22.939805    19.245954    7856.1722    8722.3607    10712.998     10615.72   -270.39208    287.77032   -84.983274     -3119.99 
27811000    279.99207   -4794.1464   -4234.1276   -4794.1464            0    11637.985    18.011652    22.506725    19.282107    7816.6443    9935.4284    12814.252    12164.275   -596.08231      549.864     338.1573   -2907.4237 
27812000    277.72044   -4779.0009   -4223.5257   -4779.0009            0    8428.5319    18.066504    22.777024     19.34291    7959.6303      9540.19    8765.9923    6979.4135     1338.124   -257.86178    1415.4442   -3245.1161 
27813000    285.07928   -4807.9801   -4237.7863   -4807.9801            0    9332.6193    18.003378    22.682471    19.420101    7930.4141      11116.6    8336.2756    8544.9826   -1109.9169    35.823108    728.74582   -3158.4039 
27814000    265.72875   -4804.3284   -4272.8381   -4804.3284            0      9768.54    17.899052    22.886405    19.274129    7895.5498    8431.3154    10144.202    10730.103    444.08418   -1290.4152   -493.58407   -3148.0054 
27815000    254.94381   -4802.0985   -4292.1794   -4802.0985            0    10254.186    18.017729    22.645945    19.341466    7891.8695    11881.183    11512.083    7369.2908    1574.5366    438.76977    315.25318   -3111.9757 
27816000    262.08526   -4758.5465   -4234.3436   -4758.5465            0    9252.4782    17.958158    22.784319    19.312542    7902.0047    8719.8869    9520.2772    9517.2706    298.02471   -580.77026   -481.20731   -3168.0637 
27817000    266.04686   -4816.9887   -4284.8621   -4816.9887            0    10697.562    17.972357    22.803122     19.24684    7887.8524    10360.478    10329.376    11402.832    686.51798    754.69795   -182.43633   -3054.2549 
27818000    273.51948   -4816.4235   -4269.3508   -4816.4235            0    8884.4509    18.040224    22.904095    19.136706    7907.1913    8178.7488    8253.9512    10220.653    1608.5564   -957.69568   -123.64597   -3244.8112 
27819000    260.01132   -4825.1335   -4305.0787   -4825.1335            0    11313.086    17.624583    22.976288    19.365503    7842.0117    12058.741    11555.167    10325.349    1005.5652   -164.14559   -110.12885   -3011.2272 
27820000    266.37952   -4795.0858   -4262.2938   -4795.0858            0    9314.2539    17.949728    23.023314    19.156633    7916.7127    8214.9805    9488.9655    10238.816    2571.4613    145.69161    1530.4751   -3186.8968 
27821000    259.65167    -4784.357   -4265.0216    -4784.357            0    11858.629     17.79491    22.860933    19.329766    7863.5081    13267.423    11036.302    11272.162    637.72646   -1082.5103    1255.3112   -2905.0598 
27822000    282.22667   -4772.0274   -4207.5392   -4772.0274            0    12073.344    17.851453    22.846642    19.225523    7841.0481      12107.6    11724.925    12387.507    78.489933   -1932.2304   -914.91262   -2826.9083 
27823000    250.72492   -4803.8435   -4302.3627   -4803.8435            0     10659.98    17.699718    23.020483    19.253205    7844.8349    9861.3074    10027.507    12091.125     1585.081    -1053.036    1492.6938   -3082.7664 
27824000    256.49784    -4823.178   -4310.1507    -4823.178            0     10538.17    17.821743    23.381717    18.876077     7865.717    11467.683    8942.7225    11204.105   -258.88285   -1251.2704   -192.94419   -3101.2812 
27825000    263.94927   -4804.0467   -4276.1156   -4804.0467            0    10961.691    17.682511    23.266794    19.083516    7851.2512    10538.486     10069.23    12277.356    976.35109    -906.2044    98.196401   -3020.9752 
27826000    269.39576    -4797.683   -4258.8582    -4797.683            0    8758.1181     17.71386    23.367974    19.106914    7909.0591     9705.845    7455.1008    9113.4084   -596.34418    28.593043   -592.48722   -3248.6486 
27827000    257.96869   -4832.9432    -4316.974   -4832.9432            0    9589.3601    17.667992    23.534192    18.927816    7870.2223    11328.497    8274.7315    9164.8516    996.71467   -1289.2828   -58.407179   -3216.3157 
27828000    275.74756    -4771.144   -4219.6149    -4771.144            0    10652.503    17.641093    23.309288     19.12455    7864.0405    11306.181    9923.0149    10728.315    728.05839   -1504.4097   -1184.1193   -2997.8903 
27829000    268.09833   -4831.7399   -4295.5101   -4831.7399            0    9895.9349    17.597024    23.288418    19.186813    7862.8876    10934.894      8504.06    10248.851    55.780876   -154.93103   -1224.0741    -3160.722 
27830000    280.58978   -4800.3011   -4239.0869   -4800.3011            0    10886.886    17.606487    23.378289    19.052444    7842.1676    11599.372    10638.345    10422.942   -223.11736   -525.19327    -651.4446    -2993.954 
27831000    271.61254   -4803.0112   -4259.7525   -4803.0112            0    11518.957    17.715092    23.097741    19.122862    7824.6659    11627.216    11642.138    11287.516    2668.2048   -357.55043    980.22623   -2945.2699 
27832000    264.44592   -4830.9489   -4302.0244   -4830.9489            0    10091.258    17.728279    23.074536    19.186969    7848.8481    8709.0918    9801.2614    11763.421   -237.67775   -360.88336    1278.7126   -3146.9043 
27833000    275.27348   -4795.7616   -4245.1806   -4795.7616            0    11537.523    17.731303    23.025998    19.210419    7843.2483    14676.531    9970.4531    9965.5845    1213.2023   -599.23008   -3509.4457   -2925.4526 
27834000    274.86804   -4784.2829   -4234.5129   -4784.2829            0    9730.1967    17.969257     22.87212    19.214484    7897.0569    7790.4545    10070.107    11330.028    161.13174   -410.06953    499.81261   -3113.8815 
27835000     259.3944   -4800.7008   -4281.8799   -4800.7008            0    11759.366    17.903488    22.772619    19.226573    7838.8528    12009.011     11365.04    11904.045    2135.6473   -447.04381   -493.91496   -2937.5301 
27836000    263.35069   -4805.5139     -4278.78   -4805.5139            0    12610.866    17.803688    22.854299    19.212461     7817.374    11592.106     12706.01    13534.481    130.98208    1358.0694    568.31684   -2841.0356 
27837000    267.14829   -4812.9958   -4278.6663   -4812.9958            0    10849.332    17.869374    22.927491     19.22152    7875.0549    11320.504    10797.223    10430.267   -526.46853   -392.74003   -328.55311   -3032.6249 
27838000    260.61311   -4799.4829   -4278.2245   -4799.4829            0     10064.68    17.885581    23.145317    19.065674    7892.5679    9961.0586    9656.4557    10576.524    6.6098205   -1195.1125   -925.01861   -3119.7295 
27839000    246.14517   -4805.6275   -4313.3068   -4805.6275            0    12510.326    17.725169    22.886871    19.286943    7824.2044    10908.391    14386.961    12235.625    517.10856    1230.4127   -1296.0574   -2885.7786 
27840000    261.39171   -4802.5116   -4279.6959   -4802.5116            0    11175.169    17.987908    22.952588    19.023923     7854.389    9112.8682    11889.267     12523.37    307.76367   -128.82136    197.27866   -2999.6004 
27841000    269.17517   -4824.5905   -4286.2069   -4824.5905            0     11142.16    17.778547    22.773248    19.395322    7852.6862    13010.621    11098.219    9317.6387   -928.62812    286.14407   -914.91275   -3010.1692 
27842000    281.09416   -4843.0515   -4280.8285   -4843.0515            0    12111.744    17.990306    22.806378    19.058317    7819.5078    12800.765    11597.492    11936.974    244.04699   -885.22185    542.08671   -2899.6113 
27843000    273.95652   -4795.7857   -4247.8388   -4795.7857            0    12324.678    17.797636    22.888606    19.281754    7854.6746    12035.267    12098.463    12840.304    356.35698   -992.63327    779.99462   -2836.0177 
27844000     265.6681   -4807.0966   -4275.7276   -4807.0966            0    11549.831    17.932431    22.891932    19.163504    7866.7715    10543.158    12242.578    11863.757    462.62558    503.53571   -219.67289   -2950.6294 
27845000    247.10242   -4806.2128   -4311.9774   -4806.2128            0    8343.2944    17.814823     23.12968    19.184614    7905.0423    6248.1006    9231.6662    9550.1164   -83.932916    1201.3788    -742.4655   -3350.1046 
27846000    256.34329   -4760.3782     -4247.66   -4760.3782            0    12155.178    17.758305    23.106363     19.06415    7822.5894    10560.051    13163.702     12741.78    469.40121   -677.03227   -1259.2564   -2860.9433 
27847000    258.19926    -4779.373   -4262.9426    -4779.373            0     14143.59    17.760015    22.913791    19.141217    7789.5042    13042.685    15328.206    14059.879   -1081.5728    127.31095    334.05728   -2656.2035 
27848000    264.37881   -4788.4889   -4259.6986   -4788.4889            0    14401.328    17.690113    22.772053    19.338582    7790.3584    16427.454    13593.821    13182.708   -837.87732   -269.96422    52.247872   -2623.5006 
27849000    263.56765   -4804.6618    -4277.494   -4804.6618            0    10941.654    17.946808    22.876377    19.073341    7830.7118    12230.505    10208.098    10386.359   -805.18657    1675.7642    317.31307   -3027.9254 
27850000    268.87444   -4799.8468   -4262.0647   -4799.8468            0    12607.851     17.70069    22.989782    19.189908    7809.0451    13878.161    12258.039    11687.353   -516.81612    270.74239    748.16854   -2826.1955 
27851000    257.27425   -4835.3217   -4320.7414   -4835.3217            0    9617.5344    17.835287    23.110678    19.143437    7890.6485    9777.4476    9948.5039    9126.6516   -338.13919     -56.2675   -170.07314   -3213.9843 
27852000      257.873   -4786.7234   -4270.9455   -4786.7234            0    10100.137    17.999791    22.885462    19.112597    7873.1198    6184.3043    11403.611    12712.496    1457.4177    663.02601    1725.4942   -3111.2339 
27853000    268.88491   -4795.5338   -4257.7307   -4795.5338            0    10000.157    17.924752    22.863848    19.242446    7886.1088    8501.2455    11485.409    10013.817   -1922.7468      492.428    485.82487   -3107.6046 
27854000    267.88225   -4781.8879   -4246.0903   -4781.8879            0    12595.068    17.850322    22.804398    19.217363     7822.732    12708.019    13020.113    12057.071    1654.9306    758.92491    1368.3999   -2809.1628 
27855000    278.50976   -4776.8484   -4219.7945   -4776.8484            0    11246.221    17.872922    22.727663    19.341754    7856.8091    13070.606    11936.531    8731.5246   -692.68603    -661.1768   -953.12386   -2931.1632 
27856000     263.5409    -4838.301   -4311.1866    -4838.301            0    9421.2336    18.043037    22.795644    19.237165    7912.2971    10296.353    8900.1621    9067.1858    448.57627    -897.2789   -1065.5973   -3224.0447 
27857000    274.79752   -4802.9654   -4253.3365   -4802.9654            0    11745.043    17.866187    22.579713    19.383992    7819.7618    11403.193    11743.958    12087.977    -1769.468    -795.3487    134.31448   -2913.8941 
27858000    267.60052   -4784.2391    -4249.005   -4784.2391            0    11592.462     18.00411    22.602766    19.241426    7830.1577    12197.662    11497.953    11081.771    591.34568   -69.838214   -119.83726   -2925.2059 
27859000    262.88235   -4805.9266   -4280.1294   -4805.9266            0    10911.601     17.95704    22.669235    19.334738    7870.6371    11095.987    11914.627      9724.19     741.6917    558.44399    366.12175   -3027.6394 
27860000    266.14285   -4777.7247   -4245.4062   -4777.7247            0    9890.6295    17.811212    23.010054    19.329481    7921.9355    9418.9275     10577.68    9675.2809   -393.31976   -887.46631   -1020.8152   -3102.7091 
27861000    290.15352   -4804.7516   -4224.4087   -4804.7516            0    11713.505     17.78136    23.035275    19.148382     7843.149    13916.285    10275.339    10948.891   -822.02767    -1042.273   -81.723621   -2884.5679 
27862000    266.89083   -4793.3778   -4259.5632   -4793.3778            0    11952.269    17.774989    22.991994    19.144978    7824.2162    11738.457    12399.674    11718.676    646.28452    128.37891    1224.6614   -2895.7117 
27863000    277.97113   -4832.8981   -4276.9215   -4832.8981            0    13253.456    17.855395    22.743193    19.142438    7773.5279    12098.447    13573.933    14087.987   -87.873155    1252.8085   -2144.1585   -2774.3914 
27864000    277.96753   -4798.5311   -4242.5617   -4798.5311            0    11612.117    17.840818    22.634704    19.354268     7815.672    13067.147    11014.396     10754.81    497.87171   -1113.4157   -55.802823   -2918.9712 
27865000     258.7453   -4785.3434   -4267.8208   -4785.3434            0    10459.398    17.983246    22.698373    19.181481    7829.6969    10820.213     10536.18    10021.802   -233.45821   -338.82105    1945.7638   -3073.4821 
27866000    274.26471    -4852.118   -4303.5547    -4852.118            0    8644.8152    17.792709    22.715222    19.542418    7898.3679    8788.9247    9864.7675    7280.7533    379.76366    452.63947    158.18221    -3307.762 
27867000    264.17655   -4850.6337   -4322.2479   -4850.6337            0    9946.4835    18.101424    22.767801    19.103526    7873.1289    8988.0218    9141.7875    11709.641    835.06253    -871.8768    1151.9688   -3180.1777 
27868000     259.5995   -4809.2246   -4289.9935   -4809.2246            0    12088.271    17.888205    22.632409    19.315383    7819.8942    13000.437     11500.01    11764.366     989.1595   -576.87141   -836.88006    -2911.385 
27869000    267.15027   -4816.2556   -4281.9221   -4816.2556            0    12687.086    17.893663    22.858415    19.041092    7788.2023    12078.728    13429.551    12552.978    1374.8989   -186.63428    585.00559   -2840.8856 
27870000    254.12269   -4769.5634   -4261.2867   -4769.5634            0    11575.128    17.746895    23.031521    19.215425    7854.0742    12599.761    11406.375    10719.249    1389.7649   -738.71524   -100.83398   -2935.4296 
27871000    254.88386    -4795.822   -4286.0228    -4795.822            0    11911.515    17.777241    23.098196    19.006807     7804.617    11243.605    12534.681     11956.26    969.70055    623.70831   -503.97679   -2930.2263 
27872000    271.60114     -4782.28   -4239.0442     -4782.28            0    11580.334    17.727546     23.17346    19.069822    7834.0463    12002.898    11473.548    11264.556   -1289.8686    135.40527   -2133.1267   -2915.9733 
27873000    269.06249   -4814.3142    -4276.156   -4814.3142            0    9345.8546    17.650156    23.393124    19.081205    7878.4828    10554.976    7790.3613    9692.2269   -580.48755   -504.98589   -683.87376   -3202.3212 
27874000    270.77221   -4791.5455   -4249.9676   -4791.5455            0     12283.95    17.617413    23.386253    19.009528    7832.0261    13156.307     11456.26    12239.283    432.08988   -470.77897    539.90009   -2846.8694 
27875000    274.36326   -4781.9361   -4233.1757   -4781.9361            0    11812.751    17.687564    23.059855     19.12842    7801.9596    10875.429    12309.145    12253.679   -648.38905    831.75731     562.3279   -2889.0786 
27876000     272.3493   -4822.4455   -4277.7133   -4822.4455            0    10885.821    17.836979    22.995315    19.134933    7848.5173    12036.514    10005.459    10615.489    1475.3441     36.69581    -180.8517   -3031.6942 
27877000    272.40822   -4833.1596   -4288.3095   -4833.1596            0    9324.6116    17.762151    23.115704     19.15359    7864.1698    10946.256    7270.8696    9756.7091   -66.647599   -1702.2989   -1204.9744   -3218.8619 
27878000    260.29411    -4810.232   -4289.6116    -4810.232            0    10379.227    17.869123    22.976771    19.187759    7878.0092     10450.71    10258.523    10428.448    2587.1651    248.73579     1231.844   -3097.1144 
27879000    262.80293   -4745.6156   -4219.9772   -4745.6156            0    11052.079    17.869191    22.841521    19.333269    7891.0573    10960.041    11608.611    10587.584    307.85849   -1021.4327    719.22724   -2948.0711 
27880000    256.74145   -4827.1319   -4313.6173   -4827.1319            0    9882.0558    18.022473    22.701847    19.244399    7873.7197    9402.2667    11077.986    9165.9147    315.91561    703.14437    1789.4879   -3178.8596 
27881000    272.75109   -4838.7751   -4293.2392   -4838.7751            0    12840.905    17.839834    22.765563    19.231941    7810.7425     11467.99    13000.006    14054.719    -2365.417   -853.78067   -106.15608   -2830.5104 
27882000    276.70833   -4801.0961   -4247.6453   -4801.0961            0    8995.2792    17.898416    22.958588    19.324116    7940.7115    9462.8971    9312.3418    8210.5988   -1244.0319    -106.1414    264.44897   -3205.9278 
27883000    265.08762   -4782.1914   -4251.9834   -4782.1914            0    10195.654    17.793987     22.95783    19.358274    7908.0741    12730.709    8623.7981    9232.4566   -400.53128   -783.23961   -974.66608   -3076.1069 
27884000     257.9231   -4823.3609   -4307.4829   -4823.3609            0    10108.589    17.888535    23.014885    19.156292    7886.6948    9313.3416    10767.449    10244.976   -1319.8072    920.97713    887.53193   -3144.7995 
27885000     258.1166   -4794.6428   -4278.3777   -4794.6428            0    11039.019    17.603957    23.092337    19.264619     7831.386    11613.852    11120.963    10382.243   -2402.4209   -598.38066    1431.1083   -3017.5811 
27886000     273.0389   -4778.5446   -4232.4331   -4778.5446            0    12774.182    17.881208    23.062911     18.95471    7816.7842    13084.619    11305.514    13932.412    117.95843    74.917161    172.60417   -2776.1792 
27887000    266.07433    -4811.549   -4279.3675    -4811.549            0    12810.098    17.768271    23.139947    19.040832    7828.7683    12967.707    11246.309    14216.278   -201.38602   -1002.2688   -1028.2637   -2816.7803 
27888000    281.52118   -4829.4883   -4266.4112   -4829.4883            0    11331.006    17.639319    23.066646    19.235562    7826.5642     11651.67    11223.655    11117.692   -979.30761    489.76882   -629.51683   -2973.0629 
27889000    261.26821   -4820.7528   -4298.1841   -4820.7528            0    11705.781    17.878519    22.958452    19.036908    7813.9489    10559.537    12124.366     12433.44    1308.2376    429.22366    1615.9459   -2964.2117 
27890000    273.08696   -4806.8151   -4260.6075   -4806.8151            0    9658.6468     17.89944    22.879254    19.359713    7928.3026    10131.252    10220.709    8623.9801    2233.8321   -425.99913   -707.88367   -3143.8152 
27891000    260.33596    -4804.293   -4283.5889    -4804.293            0    11501.786     17.89191    22.654233    19.305991     7825.249    11931.301    11842.045    10732.013   -1007.6065    180.46975   -662.81521   -2970.9679 
27892000    259.31588   -4789.4908    -4270.827   -4789.4908            0    12650.556    17.895009    22.610489    19.372674    7838.4727    14192.348    12658.398    11100.923    605.64091   -969.44898   -189.03111    -2824.665 
27893000     260.4606   -4802.5375   -4281.5841   -4802.5375            0    9370.8537    17.998006    22.650046    19.348323    7887.4537    8481.1567      10951.1    8680.3045    505.13409    119.58762    1655.0768   -3203.6509 
27894000    274.41157   -4828.4819   -4279.6248   -4828.4819            0    10495.179    17.960843    22.620437    19.417577    7889.0144    7942.3994    12348.357     11194.78    -522.6855    842.71409    1879.6295   -3072.1211 
27895000    272.23555   -4818.2328   -4273.7281   -4818.2328            0    11357.093    17.880552    22.828932    19.247171    7856.5778    12062.333    10647.068    11361.879    1798.2905    734.53928    317.75625   -2972.4309 
27896000     268.6274   -4813.3767   -4276.0887   -4813.3767            0    12615.241    17.988693    22.419842    19.366726    7810.6715    11669.468    13278.789    12897.467   -855.89887   -361.71834   -949.59952   -2839.0786 
27897000    259.16861   -4823.5332    -4305.164   -4823.5332            0    11225.133    17.858214    22.762327    19.308288    7848.7128      11763.1    10650.349    11261.952    -1791.952   -1896.8527   -1773.5039   -3020.2743 
27898000    265.70962   -4814.7806   -4283.3285   -4814.7806            0    10180.692    17.916684    22.778085     19.25092    7856.4499    10021.438    9697.7605    10822.879   -231.75683    5.4922169   -107.78713   -3116.8425 
27899000    280.52847   -4801.3885   -4240.2969   -4801.3885            0    11107.748    17.926457    22.846099    19.214582    7869.3243    10336.125    10739.632    12247.489   -4.8564435    -1438.636    22.072659   -2965.5048 
27900000    264.49385   -4819.1042   -4290.0838   -4819.1042            0    10079.342    17.860317    22.821301    19.316223    7873.2091    12017.635        10266    7954.3908    2921.4223   -175.81643   -389.17638   -3132.7468 
27901000    285.69375   -4801.4698    -4230.047   -4801.4698            0    11315.534    17.969459    22.685093    19.358488     7891.272     11197.81    12280.259    10468.534    1287.6483    480.39302   -668.01244   -2927.7862 
27902000    265.41569   -4802.2771    -4271.413   -4802.2771            0     11065.59    17.932727    22.740173    19.258874    7853.6402     7904.255    12059.864     13232.65    1933.3336   -120.62458    244.07854   -3003.9904 
27903000    272.94161   -4810.6791   -4264.7622   -4810.6791            0    10607.216    17.924611    22.829709    19.190985    7853.2133    10360.708    10590.032    10870.908    1421.4081   -696.13838    1837.8184   -3049.9065 
27904000    266.31829   -4811.4834   -4278.8139   -4811.4834            0    9903.1771    17.914814    22.874179    19.203124    7869.1839    9584.8943    10251.393    9873.2437    478.64303     281.6561   -1766.7046   -3142.2859 
27905000    268.09807   -4808.8669   -4272.6376   -4808.8669            0     13061.04    17.787392    22.714618      19.3084    7801.2466    13159.524    13706.745     12316.85    77.141543     335.6906    1508.3945   -2786.6416 
27906000    256.27628    -4818.129   -4305.5448    -4818.129            0    8819.1788    17.974914     22.93681    19.206842    7918.7349    9081.4785     8902.783     8473.275   -1129.4913    843.89224   -1774.8084   -3287.0476 
27907000    278.27983   -4828.0891    -4271.495   -4828.0891            0    9449.2497    17.726111    23.012526    19.296192    7871.3525    9100.1192    10348.135    8899.4948   -425.15452   -400.38782   -125.55197   -3186.7627 
27908000    249.50111   -4805.6744   -4306.6413   -4805.6744            0     10868.13    17.964099     22.81737    19.217109    7876.9683    11156.034    11294.431    10153.925      920.867   -574.00847   -781.03438   -3058.1377 
27909000    255.66248   -4811.7444   -4300.3878   -4811.7444            0    9836.8614    17.987264    22.681368    19.317788    7881.1888    9822.0075    10475.628    9212.9492   -795.94649    1130.7798   -1355.7759   -3169.7483 
27910000    275.48884   -4817.8983   -4266.8866   -4817.8983            0    10655.375    18.056901    22.819168    19.107818    7873.2516    9743.9905    11493.666     10728.47    300.11191    715.51709   -1123.8376   -3043.4013 
27911000    258.49527   -4799.1594    -4282.137   -4799.1594            0    13008.887    17.840376    22.840812    19.103099    7784.2968    12863.283    11758.325    14405.054   -794.11312   -1350.0539   -2134.3698   -2805.2903 
27912000    259.02681   -4778.4032   -4260.3176   -4778.4032            0    9168.4185    17.752189    23.006698    19.340218    7898.9177    9411.5701    9317.6615    8776.0239   -365.14812    1046.2481   -225.64096   -3204.1377 
27913000     269.8019   -4811.3332   -4271.6961   -4811.3332            0    11020.946    18.133316    22.736869     19.08211    7867.4555    10390.226     9937.095    12735.516   -1428.3237   -428.99673   -1258.0563   -3007.1664 
27914000    264.99861   -4825.6462   -4295.6163   -4825.6462            0    9047.8414    17.770593    22.867272    19.442384    7900.7037    10668.285    8389.4523     8085.787    1185.7004    -359.7792    -1126.323   -3253.0909 
27915000    266.66412   -4817.1885   -4283.8273   -4817.1885            0    10375.232    18.028771    22.759836    19.170732    7866.3623     9991.318    10474.935    10659.442   -748.01115   -454.14316   -1264.1755   -3093.5514 
27916000    285.96128   -4808.3876   -4236.4297   -4808.3876            0     10019.98    17.813834    22.908119    19.351643    7897.0462    9663.2866    11043.221    9353.4324    482.98806   -855.27872   -1316.0493   -3082.4255 
27917000    261.04697   -4809.6955   -4287.5693   -4809.6955            0    10424.713    17.858055    23.065842    19.094077    7865.0618    10608.779    9688.0754    10977.284     412.6525    407.19741    705.27913   -3091.8145 
27918000    264.44172   -4772.5505   -4243.6344   -4772.5505            0    12300.744     17.91904    22.891512    19.122119    7843.7772    12766.574    12049.207     12086.45   -459.19104    516.26145   -1140.0262   -2836.5099 
27919000    285.36832   -4799.2707   -4228.4988   -4799.2707            0    10912.325    17.943525    22.692181    19.331946    7871.5378    12144.773    10517.548    10074.656    153.64171   -2238.0043     1808.225   -2975.7824 
27920000    278.15978   -4817.0541   -4260.7002   -4817.0541            0    11067.001    17.881985    22.793362    19.291196    7862.9092    10365.331    10426.158    12409.514    249.51428   -1209.2209   -1986.6715   -2991.6198 
27921000    270.12891    -4794.261   -4253.9698    -4794.261            0    11827.648    17.828437    22.917214    19.202357     7845.663     11564.85    12365.011    11553.082   -21.885592    691.65622    537.47629   -2900.6392 
27922000    269.31217   -4823.8966    -4285.239   -4823.8966            0    12335.391    17.783632    22.799029      19.2312    7797.2813    12065.716    13076.332    11864.126    266.44382    1455.2965   -203.89264   -2882.5157 
27923000    250.50966   -4785.0767   -4284.0265   -4785.0767            0    13951.487    17.941643    22.717472    19.040943    7760.8743    12168.048    13896.268    15790.145    35.974338    16.309125    685.72268   -2704.9359 
27924000    264.21371   -4800.5443   -4272.0843   -4800.5443            0    11498.916    17.998009    22.512976    19.249113    7799.5239    10747.381    11438.343    12311.025   -275.36263   -641.35377   -472.14137   -2964.1049 
27925000    257.33819   -4788.0316   -4273.3234   -4788.0316            0    11258.085    17.890353    22.664625    19.304274    7827.4612    11542.415     13142.71    9089.1314     282.2881    671.18791   -528.86447   -2988.1511 
27926000    260.21556   -4801.1235   -4280.6603   -4801.1235            0    10571.644    17.845009    22.855882    19.340511    7888.2869    8071.5849    12136.069     11507.28    1174.7425   -73.449982    345.28703   -3064.4711 
27927000    280.50608   -4809.4483   -4248.4015   -4809.4483            0    12295.138    17.812728    22.964793    19.145501    7831.7661    12922.543    12030.648    11932.223    -881.2693    867.75032    599.03306    -2844.072 
27928000    270.89545   -4798.9609   -4257.1365   -4798.9609            0    11797.974    17.781508    23.066077    19.166958    7861.3203    11955.588     11509.02    11929.313   -1112.6181    510.96614   -1255.4846   -2904.5072 
27929000    265.53573    -4793.328   -4262.2237    -4793.328            0    8785.3684    17.840887     23.21036     19.16297    7935.2594    9248.2172    8132.5333    8975.3546    870.38434    1861.4468   -1035.8121   -3245.5139 
27930000    260.21101   -4780.7135   -4260.2593   -4780.7135            0    10661.539    17.717562    23.041545    19.273446    7868.1916    11077.266    10605.439    10301.911    370.45438    565.29286    1269.9759    -3036.853 
27931000    267.14854   -4817.5121    -4283.182   -4817.5121            0    10201.552    17.832463    23.002517    19.125807    7845.2443    9329.3665    9747.1031    11528.186   -311.68324   -236.11887    492.45733    -3115.973 
27932000    264.27172   -4797.0504   -4268.4743   -4797.0504            0    9873.1955    17.840144    23.113785    19.195461    7915.3108    8532.9476     10861.04    10225.599    150.50665    107.42768   -203.03499   -3128.7453 
27933000    265.99812   -4829.4164   -4297.3873   -4829.4164            0    9238.0646    17.812975    23.100017    19.214196    7906.2582    10162.204    8997.5136    8554.4756   -777.81184   -512.99066   -2538.0482   -3232.1953 
27934000    265.54947   -4840.7621   -4309.6304   -4840.7621            0    9819.8862    17.885533    22.896028    19.189891    7858.4078    11766.701    8896.3974    8796.5606    262.18689    765.33322   -772.76549   -3184.2045 
27935000    263.78828   -4767.2693   -4239.6601   -4767.2693            0    11749.055    17.662373    23.207204    19.128804    7840.7875    13026.631    11074.706    11145.827   -172.91909    226.74923    40.529509   -2896.1576 
27936000     260.7373   -4779.5901   -4258.0833   -4779.5901            0    8876.0984    17.741815    23.134284    19.336924    7936.7283    8751.5135    9120.8913    8755.8904    799.90905    225.30933   -504.38572   -3230.6834 
27937000    258.77102   -4798.9571   -4281.3831   -4798.9571            0    11245.616    17.828978     22.87774    19.138043    7806.1535    10578.125    12258.777    10899.947   -1496.8957   -240.30638   -869.74163   -3001.1288 
27938000    267.87078   -4778.2196   -4242.4449   -4778.2196            0    11846.139    17.731825    23.104581    19.175432    7855.9133    14193.261    10446.737    10898.419   -69.256579   -673.85933    646.32036   -2885.2276 
27939000    251.03183    -4803.769   -4301.6743    -4803.769            0    10399.965    17.772869    22.998472    19.216651    7854.7838    10872.667      9109.41    11217.818    -527.1215    -1417.792    1511.4675   -3110.3171 
27940000    276.14751     -4791.06   -4238.7309     -4791.06            0    9266.7366    17.815056    23.238053    19.155197    7930.0067    11282.866    8361.3705    8155.9729   -694.44843   -45.662561    -1767.822   -3167.0234 
27941000    280.60221   -4825.5467   -4264.3076   -4825.5467            0     10107.52    17.805488    23.004258    19.201657    7865.0377    10021.967    9780.6738     10519.92   -159.49887    -247.8041    828.30628   -3104.9395 
27942000     272.5295   -4800.0418   -4254.9492   -4800.0418            0    10670.758    17.655635    23.260343    19.127983    7855.4058    9359.6638      10029.1    12623.511   -1420.5324    291.49174   -786.93732   -3032.4747 
27943000     274.0922   -4828.8469   -4280.6286   -4828.8469            0    9795.7223    17.668255    23.510635    19.003347    7893.8366    10590.953    8548.4204    10247.793   -1265.4173   -806.88175   -137.15042   -3152.9107 
27944000      258.386   -4777.9727   -4261.1687   -4777.9727            0    11973.568    17.694526    23.126204    19.156503    7838.9793    10911.587    13195.887    11813.229     -112.487    2051.2479    15.983489   -2892.3089 
27945000    266.08879   -4802.6311   -4270.4207   -4802.6311            0    10480.189    17.850673     23.19433    19.008218    7870.0566     11628.88    9646.6949    10164.993    488.26993   -618.68843    1361.1092   -3067.5391 
27946000     269.3832   -4819.1723   -4280.3726   -4819.1723            0    9998.2958    17.674262    23.201297    19.198011    7872.4475    10451.395    9784.7601    9758.7328    706.87741   -290.51885    -1000.442   -3132.4526 
27947000    253.08069    -4775.418   -4269.2254    -4775.418            0     10147.48    17.787805     23.13344     19.18297    7893.6601    10852.008    9692.6658    9897.7648   -129.10194    474.32494   -1251.9733    -3101.038 
27948000    269.51722   -4794.9939   -4255.9261   -4794.9939            0    11191.626    17.626579    23.264012     19.03252    7804.5693    10362.256    11212.622    11999.999    1520.0597    680.91828    -113.2986    -2982.077 
27949000    278.79479   -4812.6814   -4255.0574   -4812.6814            0    10345.329    17.772086    23.031529    19.267166    7886.4041    10619.464    10426.307    9990.2167   -1315.2409    824.06285    419.97655   -3065.1882 
27950000    262.55318   -4802.2284   -4277.0896   -4802.2284            0    10916.005    17.864579     23.20503    18.981083    7868.5718    10001.241    10219.932    12526.841    105.46722   -303.83514   -950.92608    -3024.423 
27951000    256.05865   -4776.3345   -4264.1856   -4776.3345            0    10922.972    17.621959     23.06531    19.325838    7855.1015    10592.431    11000.368    11176.117    -604.1091    -387.3507   -393.18312   -3012.8652 
27952000    267.03788    -4815.836   -4281.7273    -4815.836            0    9469.5174    17.892352    23.180978    19.041306    7897.6145     9915.287    8107.4064    10385.859    1107.2802   -104.48662   -1279.9531   -3191.0415 
27953000    253.72182   -4817.3842   -4309.9092   -4817.3842            0    10774.261    17.784272    23.008989    19.216333    7863.2872    11221.271    9206.8377    11894.674   -1643.6892   -431.35792    71.457424   -3074.3387 
27954000    261.01969   -4839.1142   -4317.0425   -4839.1142            0    10271.073    17.816594    23.175236    19.113909    7892.2052     10677.52    9637.6522    10498.046    982.61193   -34.605517    1275.6317    -3134.845 
27955000    250.61082   -4804.6233   -4303.3707   -4804.6233            0    10285.925    17.710153    23.111455    19.186104    7853.0144    12057.478    9336.6825     9463.616    82.659421   -756.49677   -176.06599   -3125.3425 
27956000    259.54482   -4824.7986   -4305.6769   -4824.7986            0    9211.8491    17.847896    22.964646    19.262909    7895.3006    8098.7873    9634.1007    9902.6593    89.114921   -750.35337   -669.17035   -3244.9798 
27957000    281.09955   -4831.4675   -4269.2337   -4831.4675            0     11781.53    17.610723    23.084973    19.236285    7820.3783    12367.937    10947.536    12029.117   -323.98952   -1132.6637   -1351.9775   -2925.5244 
27958000    282.71931   -4812.5594   -4247.0859   -4812.5594            0    10526.908    17.894487    23.065595    19.035779    7856.9603    11173.343    9883.7336    10523.648   -240.95129    141.32033   -1933.5311   -3040.8526 
27959000     268.7609   -4807.3435   -4269.7885   -4807.3435            0    9313.4894    17.845704    22.936281    19.334487    7913.8776    10926.751    8143.7979    8869.9191    577.19509    659.52793   -1465.2213   -3194.8648 
27960000    277.56899    -4810.158   -4254.9857    -4810.158            0     10016.17    17.824365     22.95212    19.268379    7882.8281    9764.4438    10864.219    9419.8473    654.24685    531.65718    681.58869   -3103.4971 
27961000    274.86496   -4812.6192   -4262.8553   -4812.6192            0    10762.119    17.853138    22.756847    19.317044    7848.1504    11788.356    11225.014    9272.9878    389.53392   -319.25263   -407.07602    -3031.053 
27962000    267.36081   -4801.6148   -4266.8601   -4801.6148            0    11112.111     17.94312    22.689095    19.250738    7837.2287    10243.448    11758.544    11334.343   -1136.7321   -634.50771   -2094.2569   -2996.7687 
27963000    258.53364   -4785.3755   -4268.2763   -4785.3755            0     11873.36    17.762312    22.626199    19.486108    7831.3424    11441.807    13000.187    11178.087    230.69371    124.06762    1668.5064   -2912.1949 
27964000    264.27696   -4801.0613   -4272.4747   -4801.0613            0     10906.38    17.838031    23.000856    19.146969    7855.8092    11135.245    9915.5862    11668.309   -632.84572   -1139.5967    370.97171   -3022.9426 
27965000    264.06304   -4846.9065   -4318.7478   -4846.9065            0    11399.449    17.641444     23.15828    19.161638    7828.4011    12431.548    11163.967    10602.831   -878.91837    47.525258    833.04274   -3017.2819 
27966000    264.53055   -4802.7206   -4273.6268   -4802.7206            0     9860.236    17.920623     23.11799    19.008958    7875.1981    8654.6726    9398.5164    11527.519    484.12495   -1744.3984   -1858.2223   -3141.1621 
27967000    261.49872   -4837.5141   -4314.4843   -4837.5141            0    9485.3578    17.725913    23.027374    19.278636    7869.1771    8534.6258    8863.2644    11058.183    22.247537   -1074.6362    252.30305   -3225.9079 
27968000    266.32627   -4780.4062   -4247.7207   -4780.4062            0    12403.903    17.847955    23.072518    19.037741    7839.6899    13968.196    11388.566    11854.947   -1124.8443   -128.35989   -958.37045   -2829.5349 
27969000     269.4813   -4802.7768   -4263.7809   -4802.7768            0    13289.765    17.645824     22.98669    19.207707    7791.0125    15302.763    12542.157    12024.374    1962.9578    662.02895    2702.0717   -2753.7456 
27970000    256.14166   -4816.9629    -4304.648   -4816.9629            0    9800.5691    17.992742    22.973932    18.996812    7852.5991    6296.0562     10707.68    12397.971   -1691.2544    1173.2602    538.09424   -3182.2662 
27971000    265.13115   -4812.9444   -4282.6493   -4812.9444            0     11460.33    17.831443    22.883099    19.301561    7875.7832    12191.726    9998.6992    12190.565    1155.2104   -954.12798    1042.6506   -2966.3133 
27972000    259.71775   -4841.2711   -4321.8035   -4841.2711            0    8680.2589    18.029917    22.826427    19.245287    7920.5627    8371.9526    8724.5577    8944.2664   -455.01804    1619.8022   -1047.9854   -3319.1183 
27973000    258.38226   -4835.4294    -4318.633   -4835.4294            0    9678.0403    17.919909    22.766847    19.329462    7886.0307    9935.9553    8784.1496    10314.016    1114.9786    707.59623   -857.98949   -3205.5648 
27974000    264.84866   -4794.8341   -4265.1041   -4794.8341            0    11665.126    17.806035    22.801504    19.327599    7847.0895    12595.674    11817.212    10582.492   -93.986982   -647.18993   -193.14196   -2930.1266 
27975000    269.91482   -4828.5269   -4288.6639   -4828.5269            0    12385.542    17.847218    22.709547    19.277336    7813.1475    10787.856    12264.458    14104.312      1853.21   -856.91634    3190.4831   -2877.3717 
27976000    265.50346   -4809.8181   -4278.7783   -4809.8181            0     10251.33     17.87066    22.868302    19.294124    7884.9616    10844.079    9602.7116      10307.2   -1089.0481    773.04311    -2041.929   -3099.9361 
27977000    272.03747   -4769.5325   -4225.4239   -4769.5325            0    8370.0312    17.925252    23.214641    19.076325    7938.1985    8540.5957    7104.4549    9465.0429   -405.81415   -710.26716   -536.89693   -3256.4214 
27978000    276.85214   -4792.5603   -4238.8218   -4792.5603            0    13562.281    17.787449    22.714881    19.310278    7802.1208     14031.43    14191.972    12463.441   -1513.8874    742.34172    -3241.392   -2695.6251 
27979000     261.3169   -4767.6122   -4244.9461   -4767.6122            0    12081.455    17.901544    22.592786    19.364864    7832.0366    11212.079    13851.362    11180.923   -236.67089   -41.132215    -942.3414   -2864.9756 
27980000    282.15017   -4787.9202    -4223.585   -4787.9202            0    10778.499     17.94439    22.819897    19.254292     7884.423    11496.273    11870.724    8968.4999    163.98875   -832.33433    970.39292   -2984.2061 
27981000    274.23348   -4793.3451   -4244.8443   -4793.3451            0    10628.939    17.854689    23.011632    19.175033    7878.3599     10938.19     10930.38    10018.246    246.03185    863.34648   -275.36436   -3023.6026 
27982000    273.63758   -4806.9982   -4259.6892   -4806.9982            0    11885.389    17.673245    22.959833    19.282977    7824.5451    13752.388    10888.168    11015.612    194.53637       372.32   -1059.8552   -2903.4122 
27983000     266.7898   -4822.9468   -4289.3342   -4822.9468            0    10650.733    17.841207      23.0118    19.180102    7874.5502    10999.817    9406.2022    11546.179     245.5747   -1328.7902   -47.003523   -3066.1803 
27984000    278.49416   -4814.5676   -4257.5449   -4814.5676            0    9541.4784    17.926868    23.065288    19.142154    7915.0584    9199.2276    10049.198      9376.01    1497.6269     156.8789    2735.5839   -3156.1434 
27985000    250.10037   -4799.1596   -4298.9279   -4799.1596            0    9994.4275    17.651373    23.138485    19.351471    7903.6447    9286.1453    11447.155    9249.9821   -2019.6886    1356.8063    312.02049   -3146.9047 
27986000    268.27123   -4814.2096    -4277.634   -4814.2096            0    11304.014    17.837911    23.167634    18.962432    7836.4562    11800.852    10103.516    12007.675    192.93436   -10.895702   -819.69826   -2985.7358 
27987000    265.97993    -4817.857   -4285.8643    -4817.857            0    10539.361    17.674496    23.146895    19.228092    7866.3992    11459.183    10339.594     9819.306   -525.16246   -1.2920411   -2690.9867   -3076.7533 
27988000     268.7953   -4785.6507   -4248.0269   -4785.6507            0    13045.385    17.854469    22.946461    19.058588    7808.2437    12608.206     13975.49    12552.458   -433.26132    1552.4614    175.48152   -2762.4808 
27989000    259.06475   -4796.3828   -4278.2213   -4796.3828            0    8935.5595    17.829556    23.094393    19.229994    7918.1957    9576.7886    7333.2737     9896.616     1330.639   -420.24373   -1257.1706   -3246.3539 
27990000    271.76175   -4801.8428   -4258.2857   -4801.8428            0    10155.477    17.653259    23.118806    19.252058    7857.1938      10350.7    10810.733    9304.9992    419.19846    -553.6089    80.426847   -3094.5786 
27991000    260.68225   -4817.9563   -4296.5596   -4817.9563            0    10970.327    17.862646    23.002263    19.114688    7853.8671    9576.2865     10734.02    12600.675   -1101.0965   -96.737348    1100.5295   -3040.0117 
27992000    253.62004   -4785.8007   -4278.5293   -4785.8007            0    11758.302    17.997278     22.74477    19.182546    7852.2591    10471.573    13168.119    11635.214    816.26383    1029.9635    973.70494   -2932.0021 
27993000    277.12493    -4797.237    -4242.953    -4797.237            0    10011.813     17.99734     22.56595    19.470173    7907.3644    10177.976    10278.946    9578.5168    980.01108    1250.3097   -1621.2893   -3088.3827 
27994000    286.28107   -4810.0862   -4237.4886   -4810.0862            0    12943.705    18.003187    22.779604    19.030338    7804.4461    11524.365    12891.676    14415.073    609.96181   -355.31925    1354.6206   -2764.2382 
27995000    282.36792   -4806.7747    -4242.004   -4806.7747            0    8753.3765    17.796663    22.844166    19.439544    7903.1455    9830.7615     8371.077    8058.2912    389.97498    -699.9977    1739.3457   -3233.0962 
27996000    262.36263   -4801.1207    -4276.363   -4801.1207            0    10642.866    17.998758      22.8729    19.087233    7857.9049    10085.562    9901.7715    11941.265   -757.01857   -727.33389     710.5674   -3056.6961 
27997000    276.48791   -4826.3858   -4273.3759   -4826.3858            0    9548.7911     17.81514    22.890797    19.373061    7900.3874    10114.818    9454.0569    9077.4979    200.86106   -778.80364   -987.29537   -3173.1733 
27998000    275.67776   -4797.8937   -4246.5041   -4797.8937            0    11724.351    18.108348    22.692685    19.109863    7852.7594    10092.548    12622.388    12458.118    422.85248    263.38972    2248.3071   -2903.7793 
27999000    271.00184   -4832.8539   -4290.8167   -4832.8539            0    11091.973    17.755006    22.660264    19.486238    7839.9589    12662.646    10813.387     9799.885   -185.27481   -1592.7204   -219.98418   -3022.5854 
28000000    282.07431   -4807.4803   -4243.2969   -4807.4803            0    11523.116     18.04533    22.804756    19.127918    7871.5086    13824.156     9321.016    11424.176   -856.04229   -1037.7248   -992.18616   -2920.4676 
Loop time of 476.017 on 64 procs for 250000 steps with 1008 atoms

Performance: 90.753 ns/day, 0.264 hours/ns, 525.192 timesteps/s
99.2% CPU use with 64 MPI tasks x 1 OpenMP threads

MPI task timing breakdown:
Section |  min time  |  avg time  |  max time  |%varavg| %total
---------------------------------------------------------------
Pair    | 28.885     | 32.885     | 36.465     |  34.9 |  6.91
Bond    | 0.27118    | 0.28225    | 0.29271    |   0.9 |  0.06
Kspace  | 218.72     | 224.63     | 230.18     |  18.7 | 47.19
Neigh   | 4.6411     | 4.9707     | 5.2682     |   8.0 |  1.04
Comm    | 96.753     | 101.06     | 106.67     |  21.3 | 21.23
Output  | 1.2858     | 1.2878     | 1.3001     |   0.3 |  0.27
Modify  | 100.97     | 104.58     | 106.98     |  17.4 | 21.97
Other   |            | 6.319      |            |       |  1.33

Nlocal:        15.7500 ave          21 max          11 min
Histogram: 1 2 8 8 10 11 13 4 4 3
Nghost:        2514.12 ave        2539 max        2493 min
Histogram: 2 9 9 8 7 12 6 4 5 2
Neighs:        5309.86 ave        7160 max        3728 min
Histogram: 2 8 8 9 9 17 4 4 1 2

Total # of neighbors = 339831
Ave neighs/atom = 337.13393
Ave special neighs/atom = 2.0000000
Neighbor list builds = 9942
Dangerous builds = 0

unfix		3
unfix		2
unfix		1

write_data	data.final.${pid}
write_data	data.final.0
System init for write_data ...
PPPM initialization ...
  extracting TIP4P info from pair style
  using 12-bit tables for long-range coulomb (../kspace.cpp:340)
  G vector (1/distance) = 0.37921867
  grid = 24 27 32
  stencil order = 5
  estimated absolute RMS force accuracy = 0.0024648942
  estimated relative force accuracy = 7.4229557e-06
  using double precision FFTW3
  3d grid and FFT values/proc = 3825 384
Last active /omp style is kspace_style pppm/tip4p/omp
WARNING: Not all mixed pair coeffs generated from mixing. Use write_data with 'pair ij' option to store all pair coeffs. (../write_data.cpp:312)

write_restart   restart.lmp.${pid}
write_restart   restart.lmp.0
System init for write_restart ...
PPPM initialization ...
  extracting TIP4P info from pair style
  using 12-bit tables for long-range coulomb (../kspace.cpp:340)
  G vector (1/distance) = 0.37921867
  grid = 24 27 32
  stencil order = 5
  estimated absolute RMS force accuracy = 0.0024648942
  estimated relative force accuracy = 7.4229557e-06
  using double precision FFTW3
  3d grid and FFT values/proc = 3825 384
Last active /omp style is kspace_style pppm/tip4p/omp
Total wall time: 0:07:58
