LAMMPS (30 Jul 2021)
Processor partition = 1
  using 2 OpenMP thread(s) per MPI task
using multi-threaded neighbor list subroutines
variable        pid world 0 1
variable        phase world IceIII Liquid

shell cd ${phase}
shell cd Liquid
include Restart.lmp
echo both
log log.lammps
#include		in.partitions
include		in.temp
variable        temperature equal 247.07
variable	tempDamp equal 100.0
include		in.pressure
variable        pressure equal 750.0
variable        pressureDamp equal 1000.0 # This is 1 ps
include		in.seed
variable        seed equal 745823

units		real
atom_style	full
read_restart	restart.lmp.${pid}
read_restart	restart.lmp.1
Reading restart file ...
  restart file = 30 Jul 2021, LAMMPS = 30 Jul 2021
  restoring atom style full from restart
  orthogonal box = (0.14706703 1.2647568 0.17942144) to (18.060505 22.364421 22.033774)
  2 by 4 by 4 MPI processor grid
  restoring pair style lj/cut/tip4p/long/omp from restart
  restoring bond style harmonic/omp from restart
  restoring angle style harmonic/omp from restart
  864 atoms
  576 bonds
  288 angles
Finding 1-2 1-3 1-4 neighbors ...
  special bond factors lj:    0        0        0       
  special bond factors coul:  0        0        0       
     2 = max # of 1-2 neighbors
     1 = max # of 1-3 neighbors
     1 = max # of 1-4 neighbors
     2 = max # of special neighbors
  special bonds CPU = 0.002 seconds
  read_restart CPU = 0.008 seconds
include 	in.setup
variable	out_freq equal 1000
variable	out_freq2 equal 10000
variable	out_freq3 equal 1000

timestep	2.0

neigh_modify    delay 7 every 1

include		in.tip4p
# This is TIP4P/Ice

# create groups ###
group ox type 2
288 atoms in group ox
group hy type 1
576 atoms in group hy

# set charges - beside manually ###
set group ox charge -1.1794
Setting atom values ...
  288 settings made for charge
set group hy charge 0.5897
Setting atom values ...
  576 settings made for charge

# ### TIP3P Potential Parameters ###
pair_style lj/cut/tip4p/long/omp 2 1 1 1 0.1577 8.5
pair_coeff 1 1*2 0.000 0.000
pair_coeff 2 2 0.21084 3.1668
bond_style  harmonic
bond_coeff  1 450 0.9572
angle_style harmonic
angle_coeff 1 55 104.52
kspace_style pppm/tip4p/omp 1.0e-5
pair_modify tail yes

thermo          ${out_freq}
thermo          1000
thermo_style    custom step temp pe etotal epair emol press lx ly lz vol pxx pyy pzz pxy pxz pyz enthalpy

restart 	${out_freq3} restart.lmp.${pid} restart2.lmp.${pid}
restart 	1000 restart.lmp.${pid} restart2.lmp.${pid}
restart 	1000 restart.lmp.1 restart2.lmp.${pid}
restart 	1000 restart.lmp.1 restart2.lmp.1


include         in.dump
dump            myDump all atom ${out_freq2} dump.water.${pid}
dump            myDump all atom 10000 dump.water.${pid}
dump            myDump all atom 10000 dump.water.1
dump            myDump2 all dcd ${out_freq2} dump.dcd
dump            myDump2 all dcd 10000 dump.dcd
dump_modify     myDump append yes
dump_modify     myDump2 append yes


variable natoms 	equal  "count(all)"                        # NUMBER ATOMS
variable H      	equal  "enthalpy/v_natoms"                 # ENTHALPY-per-atom
variable Vol      	equal  "vol/v_natoms"                 # volume-per-atom
fix AVG all 		ave/time ${out_freq} 1 ${out_freq} v_Vol v_H file vol_enthalpy.dat
fix AVG all 		ave/time 1000 1 ${out_freq} v_Vol v_H file vol_enthalpy.dat
fix AVG all 		ave/time 1000 1 1000 v_Vol v_H file vol_enthalpy.dat


timer           timeout 23:50:00 every 1000
New timer settings: style=normal  mode=nosync  timeout=23:50:00

fix 		1 all shake 1e-6 200 0 b 1 a 1
Finding SHAKE clusters ...
       0 = # of size 2 clusters
       0 = # of size 3 clusters
       0 = # of size 4 clusters
     288 = # of frozen angles
  find clusters CPU = 0.000 seconds
fix             2 all nph iso ${pressure} ${pressure} ${pressureDamp}
fix             2 all nph iso 750 ${pressure} ${pressureDamp}
fix             2 all nph iso 750 750 ${pressureDamp}
fix             2 all nph iso 750 750 1000
fix             3 all temp/csvr ${temperature} ${temperature} ${tempDamp} ${seed}
fix             3 all temp/csvr 247.07 ${temperature} ${tempDamp} ${seed}
fix             3 all temp/csvr 247.07 247.07 ${tempDamp} ${seed}
fix             3 all temp/csvr 247.07 247.07 100 ${seed}
fix             3 all temp/csvr 247.07 247.07 100 745823

run             250000
PPPM initialization ...
  extracting TIP4P info from pair style
  using 12-bit tables for long-range coulomb (../kspace.cpp:340)
  G vector (1/distance) = 0.37280019
  grid = 24 25 25
  stencil order = 5
  estimated absolute RMS force accuracy = 0.0031551316
  estimated relative force accuracy = 9.5015852e-06
  using double precision FFTW3
  3d grid and FFT values/proc = 4116 672
Last active /omp style is kspace_style pppm/tip4p/omp
Neighbor list info ...
  update every 1 steps, delay 7 steps, check yes
  max neighbors/atom: 2000, page size: 100000
  master list distance cutoff = 10.8154
  ghost atom cutoff = 10.8154
  binsize = 5.4077, bins = 4 4 5
  1 neighbor lists, perpetual/occasional/extra = 1 0 0
  (1) pair lj/cut/tip4p/long/omp, perpetual
      attributes: half, newton on, omp
      pair build: half/bin/newton/omp
      stencil: half/bin/3d
      bin: standard
Setting up Verlet run ...
  Unit style    : real
  Current step  : 5000000
  Time step     : 2
  Walltime left : 23:49:59.93
Per MPI rank memory allocation (min/avg/max) = 10.20 | 10.21 | 10.22 Mbytes
Step Temp PotEng TotEng E_pair E_mol Press Lx Ly Lz Volume Pxx Pyy Pzz Pxy Pxz Pyz Enthalpy 
 5000000    257.05732   -3909.4524   -3468.8649   -3909.4524            0    516.87648    17.913438    21.099664    21.854353    8260.2359   -395.42176    39.475075    1906.5761   -846.58192   -171.61805   -351.14479   -3406.5984 
 5001000    247.37628   -3940.3668   -3516.3723   -3940.3668            0    1256.8679    17.955301    21.148973    21.905425    8318.2826    878.56866    2341.7438     550.2911   -805.27843    1148.5328      969.467   -3363.8971 
 5002000     250.2717   -3945.5013   -3516.5442   -3945.5013            0     549.3084    18.013993    21.218104    21.977029    8400.1212    1534.0208   -656.58353    770.48797   -1494.7316     121.0611    326.50548     -3449.25 
 5003000    246.98457   -3935.2639   -3511.9408   -3935.2639            0    944.12929    17.998624    21.200001    21.958279     8378.639    1592.7715    259.67276     979.9436    208.04401    180.26862    736.45514    -3396.574 
 5004000    231.83158    -3928.922   -3531.5706    -3928.922            0    253.98814    17.952055     21.14515    21.901466    8313.7724    1106.6896   -59.176125   -285.54905    2064.5357   -627.76299    723.27932   -3500.7751 
 5005000    242.78371   -3915.4676   -3499.3446   -3915.4676            0    1239.4284    18.012724    21.216609    21.975481    8398.3455    517.22901    2382.5114    818.54477    39.303717     -272.498     565.2917   -3347.5379 
 5006000    248.90233   -3922.8222   -3496.2121   -3922.8222            0    2172.8909    17.995464    21.196279    21.954424    8374.2266    5413.6698   -598.79075    1703.7936    1848.2941   -321.73714    1043.4243   -3230.8381 
 5007000     242.0751   -3912.1246   -3497.2161   -3912.1246            0    831.20109    18.013968    21.218074    21.976998    8400.0857   -100.97981    1875.2871    719.29602   -1269.6361   -2336.4885    476.61659   -3395.3885 
 5008000    251.89657   -3903.0449   -3471.3028   -3903.0449            0    721.75807    17.937078    21.127508    21.883193    8292.9808   -411.10963    1032.6139    1543.7699   -106.02527    362.27008    1616.7674     -3384.01 
 5009000    269.87507   -3910.4647   -3447.9081   -3910.4647            0    1545.6133    17.978765    21.176611    21.934051    8350.9362    1779.3556    804.33224    2053.1522   -115.79043   -299.09948    414.07688   -3259.6681 
 5010000    256.53246   -3926.5092   -3486.8214   -3926.5092            0    1290.6664    17.959424    21.153829    21.910455     8324.014    1658.4825    459.86148    1753.6553   -505.21185   -67.568782    454.20055   -3330.1381 
 5011000    244.13692   -3923.5419   -3505.0996   -3923.5419            0    2514.7091    17.933395     21.12317      21.8787    8287.8734    2760.2722    2150.0251    2633.8299    1715.5325    1117.4684    -1062.446   -3201.1463 
 5012000    248.84959   -3879.7479   -3453.2282   -3879.7479            0    403.02201    17.953394    21.146727    21.903099    8315.6325    1472.6851    -1769.339    1505.7199   -365.97841   -335.29129    898.76399   -3404.3517 
 5013000    242.70747   -3895.3362   -3479.3439   -3895.3362            0   -465.66532    17.994167    21.194752    21.952841    8372.4161   -553.12145   -819.60429   -24.270227   -528.97886    530.26502    486.26044    -3536.203 
 5014000    234.31371   -3909.4257     -3507.82   -3909.4257            0    724.33967    18.087005    21.304103    22.066104    8502.6748    2071.2747    764.76851   -663.02421    263.87439   -830.14814    232.28201   -3417.9999 
 5015000    246.51698   -3922.2796   -3499.7579   -3922.2796            0    1467.3711     18.01635     21.22088    21.979905    8403.4186    997.77716    607.92269    2796.4135    322.27996    771.81101    -846.6881   -3319.9239 
 5016000    245.95419   -3937.2921    -3515.735   -3937.2921            0    2193.4133    18.055527    21.267026    22.027701    8458.3593    3034.0606    2512.3618    1033.8176    987.12855    135.47857   -1147.6834   -3245.1633 
 5017000     250.7397   -3931.5036   -3501.7443   -3931.5036            0    3149.0501    17.980981     21.17922    21.936754    8354.0239    4250.8277    1976.4916    3219.8312   -630.03973    896.93896   -341.40023   -3118.0802 
 5018000     246.0747   -3956.9595   -3535.1959   -3956.9595            0   -55.903273    18.050285    21.260851    22.021305    8450.9937     712.0606    251.25956     -1131.03   -385.59326    24.677804    108.25472   -3542.0859 
 5019000     258.9433   -3947.0045   -3503.1846   -3947.0045            0     1119.409    17.992431    21.192707    21.950724    8369.9935    1765.0502    606.57704    986.59959    353.72757   -628.78623    172.25653   -3366.5408 
 5020000    239.05312   -3928.2132   -3518.4843   -3928.2132            0   -33.810808    18.023887    21.229758      21.9891    8413.9698    430.53907   -1140.6143    608.64285   -788.05493   -951.88552    1325.2683   -3522.6332 
 5021000    246.73988   -3950.4247    -3527.521   -3950.4247            0    1238.9564     17.99479    21.195486    21.953602    8373.2866    -41.90189    2029.8161    1728.9549   -182.14914   -339.07098   -886.46063   -3376.2248 
 5022000    254.71072   -3942.0828   -3505.5173   -3942.0828            0    1350.5111    17.965884    21.161438    21.918336    8332.9991    2333.8127    926.26373    791.45688   -1065.5471   -810.69834   -194.65292   -3341.3921 
 5023000    236.31111   -3936.3439   -3531.3147   -3936.3439            0    48.914975    18.035458    21.243387    22.003216    8430.1847    498.56022    376.75816   -728.57346   -373.05781   -185.43929    503.25916   -3525.3008 
 5024000    261.01328   -3899.8023   -3452.4344   -3899.8023            0    471.26319     18.02371     21.22955    21.988884    8413.7224   -488.26991    704.80733    1197.2521    910.77748   -1009.4869   -234.21645   -3394.6078 
 5025000    244.06378   -3924.2917   -3505.9748   -3924.2917            0    1802.4754    18.002145    21.204149    21.962575    8383.5579    432.37602    1815.4416    3159.6085   -737.87751   -234.11125    194.08303    -3285.594 
 5026000    248.15169   -3910.6899   -3485.3664   -3910.6899            0   -1372.6675    18.095242    21.313805    22.076153    8514.2971   -709.37994   -2206.7909   -1201.8318    1.0845494   -749.40518   -210.25529   -3655.8136 
 5027000     254.6072   -3902.8593   -3466.4713   -3902.8593            0    1196.1416    18.005105    21.207636    21.966187    8387.6943    1221.1706    2329.6646    37.589702    1046.5102   -178.00517    765.09115   -3320.1522 
 5028000    235.42555    -3909.164   -3505.6527    -3909.164            0    1820.4976    17.941323    21.132508    21.888372    8298.8702    314.97911    2288.7246    2857.7892    962.61233    92.227062   -162.44209    -3285.317 
 5029000    239.02977    -3939.466   -3529.7772    -3939.466            0    1843.7078    18.019093    21.224111    21.983251    8407.2573    1671.4133    633.44758    3226.2624   -1063.3292    250.62573    408.36545   -3303.7179 
 5030000    266.61178   -3935.6714   -3478.7079   -3935.6714            0    576.57425    18.087334    21.304491    22.066506    8503.1391    717.36373    570.27652    442.08251    1044.8655   -625.01265    101.16661   -3407.2072 
 5031000    253.80487   -3915.3088    -3480.296   -3915.3088            0    2127.5847    18.070325    21.284456    22.045755    8479.1733    1965.9883    2742.9773    1673.7885    1083.7187   -1208.9674   -170.18891   -3217.1988 
 5032000    238.50746   -3908.9953   -3500.2017   -3908.9953            0    1317.7454    18.039086     21.24766    22.007642    8435.2731    1492.7277    1864.0899    596.41872       104.93    1433.1717   -1059.4733   -3338.0929 
 5033000    243.01657   -3907.3404   -3490.8183   -3907.3404            0    782.81168    17.948372    21.140812    21.896972    8308.6562    1853.3448    334.69259    160.39766   -149.36382    698.30748    247.97807   -3395.9625 
 5034000    236.94149   -3930.6484   -3524.5388   -3930.6484            0   -545.84001    18.004954    21.207457    21.966001    8387.4823    591.52005   -1578.4185   -650.62159     94.20115    1262.1698   -513.96668   -3591.3075 
 5035000    238.53917   -3955.7626   -3546.9146   -3955.7626            0    970.43541    18.002407    21.204458    21.962895    8383.9239    691.98907    2027.9321    191.38509   -80.910552   -104.03087    78.315509   -3428.2586 
 5036000     244.0155   -3946.4872   -3528.2529   -3946.4872            0    1490.2134    17.981794    21.180178    21.937747    8355.1578    2642.7444    488.17781     1339.718   -348.05858   -390.37398    101.76456   -3346.6683 
 5037000    258.32763    -3954.366   -3511.6012    -3954.366            0    1550.8116    17.974589    21.171692    21.928957    8345.1186    2676.1274    570.83032     1405.477    -8.287245   -370.89834    909.30527   -3322.8597 
 5038000    250.98053   -3940.9619   -3510.7899   -3940.9619            0     1474.847    17.977441    21.175051    21.932436    8349.0909    1789.5618    1249.9454    1385.0339    563.51574   -234.35443    98.777836   -3331.2082 
 5039000    259.25788   -3963.5467   -3519.1876   -3963.5467            0    -1265.954    18.007163     21.21006    21.968697    8390.5704   -1655.2469   -719.75949   -1422.8556   -127.67459   -1032.4474    556.16332   -3674.0997 
 5040000    248.08256   -3941.7198   -3516.5148   -3941.7198            0    1284.6392    17.986594    21.185832    21.943603      8361.85    1287.0879    633.08749    1933.7422   -31.997386    -426.0542   -292.98832   -3359.8543 
 5041000    250.88125   -3951.7461   -3521.7442   -3951.7461            0    2460.8094    17.960476    21.155068    21.911739     8325.477    2130.0652    3514.5932    1737.7698   -1548.8574     430.4679   -156.59533   -3222.9564 
 5042000    243.97457   -3940.8861    -3522.722   -3940.8861            0    242.90041    18.018554    21.223477    21.982594    8406.5038   -320.43103    1119.6838   -70.551554      191.878    262.39677   -1333.9338   -3492.9424 
 5043000    245.45307   -3911.1713   -3490.4732   -3911.1713            0      893.268    17.994571    21.195228    21.953335    8372.9812    411.43176    119.63912    2148.7331   -1187.0804   -13.659361   -79.583834    -3381.395 
 5044000    244.08539   -3932.6096   -3514.2556   -3932.6096            0    2709.3084    17.899034    21.082697    21.836779    8240.3251    1101.2603    3533.4678     3493.197   -816.39083   -888.34435   -1087.2508   -3188.6599 
 5045000    237.85909   -3968.7975   -3561.1151   -3968.7975            0    146.98405    18.011845    21.215574    21.974408    8397.1163    884.77563   -1130.6932    686.86977   -386.59526   -417.45468   -448.90618    -3543.115 
 5046000    256.49015   -3944.3224   -3504.7071   -3944.3224            0    1864.8849    18.014008    21.218122    21.977047    8400.1421    2303.3956    1995.9785    1295.2806    -437.3755   -510.33368    285.28472   -3276.2448 
 5047000     239.1121   -3950.8045   -3540.9745   -3950.8045            0    656.93752    17.979222    21.177149    21.934609     8351.573    971.20651    1540.9804   -541.37438    307.72681   -183.82208    -436.6002   -3460.9601 
 5048000    246.99043   -3932.8871   -3509.5539   -3932.8871            0    1938.0981    18.010083    21.213499    21.972259    8394.6526    2137.5627    2318.5754    1358.1562    738.33951     337.2155    708.83316   -3272.2776 
 5049000    247.91875   -3931.6617   -3506.7374   -3931.6617            0    1050.9453    18.000796     21.20256    21.960929    8381.6736    858.01583    671.49354    1623.3266    766.37521   -47.526525    461.39128   -3378.2718 
 5050000    241.14117   -3948.8074   -3535.4997   -3948.8074            0    1067.1367    18.004478    21.206897    21.965422     8386.818    1062.1436    1448.2182    691.04833   -1149.1204   -356.61836   -161.58549   -3404.9748 
 5051000     228.5991   -3871.9297   -3480.1187   -3871.9297            0   -1006.0948    18.023496    21.229298    21.988623    8413.4223   -96.406707   -289.90589   -2631.9718    114.90901   -747.49657    269.56085   -3603.5676 
 5052000    237.70044   -3960.6733   -3553.2629   -3960.6733            0      1334.55    17.985229    21.184225    21.941938    8359.9471     2761.014   -126.56888    1369.2049   -1845.9128    357.83007    715.04762   -3390.5529 
 5053000    238.98691   -3971.9564    -3562.341   -3971.9564            0    411.41436    18.065208    21.278429    22.039512    8471.9718    688.22969   -532.11964     1078.133   -173.96891    -983.9812   -172.63947   -3511.5087 
 5054000    250.28146   -3959.2259   -3530.2521   -3959.2259            0    831.74393    18.089129    21.306604    22.068695    8505.6701    625.80495    1366.7646    502.66223   -275.70204    525.30935    625.84547   -3427.0772 
 5055000    249.27133   -3959.0102   -3531.7676   -3959.0102            0    -303.7449    18.091734    21.309673    22.071873    8509.3459   -536.33921   -906.09728    531.20177     1501.288    -1401.074   -372.42668   -3569.4624 
 5056000    261.38666    -3933.728   -3485.7202    -3933.728            0   -321.87393    18.048284    21.258495    22.018865    8448.1838   -181.32449    358.44453   -1142.7418    245.12041     679.5965    695.10469   -3525.3777 
 5057000    251.42162   -3962.4863   -3531.5583   -3962.4863            0    1183.5861    17.947135    21.139354    21.895463    8306.9381    1259.5558    1447.4504    843.75214   -390.33026    -1015.186   -627.38509    -3388.169 
 5058000    249.29355   -3972.2983   -3545.0177   -3972.2983            0    667.58677     17.95716    21.151163    21.907694    8320.8669    1531.3835   -224.10606    695.48284    136.34452   -1192.9945    940.96267   -3464.0051 
 5059000    245.86272   -3948.7345   -3527.3342   -3948.7345            0    674.86819    18.024874    21.230921    21.990305    8415.3529   -760.33397    1929.9445    854.99403   -343.54935    857.63473   -615.70681   -3444.5081 
 5060000    250.84667   -3996.4866    -3566.544   -3996.4866            0    580.43429    17.962133    21.157019     21.91376    8327.7806    546.57005   -812.06773    2006.8006   -847.98356   -353.05241   -818.94837    -3496.049 
 5061000    242.40503    -3931.406   -3515.9321    -3931.406            0    147.12315    17.966719    21.162422    21.919356    8334.1622    1024.1813    1313.6848   -1896.4967    59.929605   -626.91245   -657.54303     -3498.05 
 5062000    244.73751   -3928.9113   -3509.4396   -3928.9113            0    770.31607    17.897584     21.08099    21.835011    8238.3232    72.100324    409.51867    1829.3292   -1045.1771   -36.808854   -1561.6639    -3416.888 
 5063000    262.37477   -3919.6259   -3469.9245   -3919.6259            0    477.81919    17.942438    21.133822    21.889732    8300.4173     399.9257    724.79224    308.73962    66.498533   -335.07093    32.931872    -3412.083 
 5064000    245.35264    -3920.241   -3499.7149    -3920.241            0    60.323023    17.850232    21.025215    21.777241    8173.1066   -744.64714   -841.18981     1766.806    1216.2035    -1029.742   -436.37063   -3492.5246 
 5065000    239.58736    -3963.955   -3553.3104    -3963.955            0     716.9204    17.861778    21.038815    21.791327    8188.9764    939.66026   -26.603883    1237.7048    93.909245   -262.39127    228.06665   -3467.6902 
 5066000    250.09798   -3912.6588   -3483.9994   -3912.6588            0    2298.4116     17.86384    21.041244    21.793843    8191.8131    2694.6554    2702.3542    1498.2251    929.10725    870.13609    666.11695     -3209.41 
 5067000     230.5608   -3945.0645   -3549.8912   -3945.0645            0    1829.2284    17.870478    21.049063    21.801942    8200.9489    3194.2948     735.8822    1557.5082     597.2465    1825.5685    707.78022    -3331.111 
 5068000    244.08088   -3934.6943   -3516.3481   -3934.6943            0    1607.2273    17.979986    21.178048     21.93554    8352.6369     2926.263    2048.4063   -152.98743   -300.70278   -376.20876     290.2177   -3320.5642 
 5069000     243.0233   -3992.8862   -3576.3526   -3992.8862            0   -94.310796    17.949324    21.141933    21.898133    8309.9779   -122.19615   -142.13863   -18.597611    1567.8865     248.8412    -311.5677   -3587.7824 
 5070000    247.63058   -3934.1014   -3509.6711   -3934.1014            0   -276.22976    17.966676    21.162371    21.919302    8334.1014    1390.2634   -266.13248   -1952.8202   -441.35094    1411.0037    263.62304   -3543.2452 
 5071000    241.73358   -3935.0333   -3520.7103   -3935.0333            0    1444.1395    17.943852    21.135487    21.891457    8302.3801    2594.9212    1314.0406    423.45673   -194.96587    1418.6086   -1755.4499   -3345.8514 
 5072000    260.46524   -3908.4085     -3461.98   -3908.4085            0    1070.3616    18.055035    21.266446    22.027101    8457.6674    1820.2055   -88.041867    1478.9212   -429.32356   -523.91906   -95.857958   -3329.9548 
 5073000    239.42562   -3955.5874   -3545.2201   -3955.5874            0    707.93154    18.003587    21.205848    21.964334    8385.5726    68.113539    985.05644    1070.6246   -796.66613    929.46766    1247.0282   -3458.6436 
 5074000    260.91265   -3978.7922   -3531.5969   -3978.7922            0   -22.723054    18.120904    21.344031    22.107461    8550.5721   -878.94522    328.70859    482.06748    290.08253    957.04943   -1494.6303   -3534.4305 
 5075000     235.5969   -3951.5528   -3547.7478   -3951.5528            0    830.16197    18.095479    21.314084    22.076442    8514.6309    585.30465     1032.273    872.90825    205.42201    245.41266   -1421.0707   -3444.6606 
 5076000    239.53148   -3944.3269   -3533.7781   -3944.3269            0   -221.72616    18.168296    21.399853    22.165279    8617.8357    771.26221   -111.17372    -1325.267   -391.60789    460.42285    361.20004   -3561.6452 
 5077000    239.69083   -3960.8155   -3549.9937   -3960.8155            0    1007.1548    18.055101    21.266524     22.02718    8457.7593    266.86836    787.75266    1966.8433   -347.81699   -99.092543   -436.19535   -3425.7634 
 5078000    259.56945   -3927.2864   -3482.3933   -3927.2864            0    594.62775    18.160698    21.390903    22.156009    8607.0271    736.01345    804.89468    242.97511    553.50047   -197.84828    1565.7473   -3407.7528 
 5079000    246.68264   -3951.4605   -3528.6549   -3951.4605            0    52.613976     18.11112    21.332507    22.095524    8536.7297    577.50745    307.69406   -727.35958    1044.7211    803.08451   -152.16834   -3522.1044 
 5080000    261.24016   -3932.5989   -3484.8422   -3932.5989            0    407.21673    18.074456    21.289322    22.050795    8484.9897    103.87262    582.18943    535.58813   -618.75831   -439.60097   -1442.2342   -3434.4512 
 5081000    248.29517   -3964.1155    -3538.546   -3964.1155            0    776.97012     18.06809    21.281823    22.043027    8476.0265    1017.2917      70.3553    1243.2634    242.98741    520.30511   -5.9414424   -3442.5015 
 5082000    241.39237   -3967.8285   -3554.0903   -3967.8285            0    1362.9962    18.022358    21.227957    21.987235    8411.8289   -136.17589    2422.5453    1802.6192   -951.24567     299.4961   -805.73842   -3386.8808 
 5083000    241.39456   -3961.7404   -3547.9984   -3961.7404            0    686.43985    18.032848    21.240313    22.000033    8426.5262    771.61686    651.55791    636.14479   -681.76064   -481.60519   -607.50577   -3463.6403 
 5084000    257.08794   -3923.6526   -3483.0127   -3923.6526            0    2654.6448    18.008063    21.211119    21.969795    8391.8283    3803.6275    2550.0268    1610.2802   -928.71088    150.87906   -1342.3547   -3158.1208 
 5085000    239.04452      -3934.8   -3525.0859      -3934.8            0    285.16463    18.074771    21.289693    22.051178    8485.4328    1382.5456   -497.52291   -29.528834   -172.48086    862.64368   -327.25123   -3489.7964 
 5086000    241.22318   -3917.3808   -3503.9325   -3917.3808            0    337.18894    17.991676    21.191818    21.949802    8368.9397    1252.2589    -1201.489    960.79694    668.71761   -709.20473    176.07532   -3462.7778 
 5087000    243.90991   -3958.4225   -3540.3693   -3958.4225            0    172.44882    18.114977     21.33705    22.100229     8542.184    526.44158    239.84524   -248.94035    -316.3234    612.56058    1100.6027   -3518.8858 
 5088000    263.58617   -3930.5898   -3478.8122   -3930.5898            0    2562.7919    18.027474    21.233983    21.993476    8418.9943    3121.1557    1803.9601      2763.26   -568.22621   -1895.7041    60.334309   -3164.1464 
 5089000    252.90143   -3989.3331   -3555.8687   -3989.3331            0    3352.0882    17.993275    21.193701    21.951753    8371.1711    5587.0777    1360.7087    3108.4781   -137.05718    -766.2027    157.33229   -3146.6292 
 5090000    247.81553   -3965.7598   -3541.0125   -3965.7598            0    380.31428    18.120098    21.343081    22.106477    8549.4304    1843.7117    396.94893   -1099.7178   -1540.9956   -1406.2169    722.82501   -3493.5931 
 5091000    232.39602   -3973.1571   -3574.8383   -3973.1571            0   -171.54913    18.177148     21.41028    22.176078    8630.4379   -520.83067   -1171.8346    1178.0179     108.7812   -459.15889    540.02062   -3596.4305 
 5092000    257.25449   -3967.5506   -3526.6252   -3967.5506            0    1607.9913    18.053445    21.264573     22.02516    8455.4323    2449.9876    859.60243    1514.3838    350.76946   -601.54045    142.13615   -3328.3377 
 5093000    235.15165   -3953.1258   -3550.0839   -3953.1258            0    696.96083     18.02646    21.232789    21.992239    8417.5739    1211.3079    1292.0056   -412.43102    -1240.342   -414.91149    690.59427   -3464.5238 
 5094000    245.50339   -3958.8076   -3538.0232   -3958.8076            0    314.96111    18.066962    21.280494    22.041651    8474.4391   -248.09306    172.61457    1020.3618    593.74317   -29.018172    200.74064   -3499.0968 
 5095000    247.57522   -3984.5721   -3560.2367   -3984.5721            0   -153.33177    18.159425    21.389404    22.154457    8605.2184    1160.9616   -782.30439   -838.65258   -366.63917   -240.40832   -937.07619   -3579.4796 
 5096000    258.12802   -3957.6775   -3515.2549   -3957.6775            0   -812.49332    18.186148     21.42088    22.187058    8643.2635    11.050584    -2165.996   -282.53455   -514.67004     876.0481    778.41766   -3617.6722 
 5097000    249.87008   -3980.1467    -3551.878   -3980.1467            0    89.592086    18.153995    21.383008    22.147832     8597.501    146.23866    -399.2724       521.81    447.38993   -150.47005     467.3887   -3540.6444 
 5098000    233.64625   -3984.5366   -3584.0749   -3984.5366            0    541.65112    18.071227    21.285519    22.046855     8480.443   -569.86279    1150.8491    1043.9671   -843.33296    127.52183    1524.2148   -3517.0843 
 5099000    247.79476   -3985.7699   -3561.0582   -3985.7699            0   -144.37613     18.20521    21.443333    22.210314    8670.4707   -1409.4786    579.93915    396.41102   -611.18694   -367.12003   -423.58218   -3579.3145 
 5100000    237.98227   -3970.1559   -3562.2625   -3970.1559            0    621.54861    18.102737    21.322633    22.085296    8524.8803    -304.6369    302.12399    1867.1587    253.73771    594.80032    240.52835   -3484.9874 
 5101000    238.44532   -3991.6546   -3582.9675   -3991.6546            0    910.72714    18.171065    21.403114    22.168656    8621.7754   -116.45504    1748.2628    1100.3736   -25.311719   -197.13571    176.53378   -3468.4529 
 5102000     245.0371   -3945.1721   -3525.1869   -3945.1721            0    81.857291     18.18899    21.424227    22.190525    8647.3159   -391.39759    711.28452   -74.315058    821.89899   -430.24258   -1441.9019   -3514.8637 
 5103000    247.37188   -3960.9294   -3536.9425   -3960.9294            0     1737.759    18.096224    21.314961     22.07735    8515.6822     459.4548    525.13016    4228.6919   0.59821192   -1121.2168   -1192.1213   -3321.1259 
 5104000    241.42965   -3953.2979   -3539.4957   -3953.2979            0    1798.3556    18.045881    21.255665    22.015933    8444.8102     1821.823    2316.6925    1256.5512   -917.01928    1148.1036   -545.89709   -3318.0122 
 5105000    261.69935   -3959.2512   -3510.7075   -3959.2512            0     1111.459    18.092359    21.310409    22.072636    8510.2281    853.39157    79.318639    2401.6669     501.7451   -365.73578   -470.89739    -3372.761 
 5106000    248.10776   -3999.3873   -3574.1391   -3999.3873            0    1929.6531    17.964233    21.159493    21.916322    8330.7023    727.07963    1840.6279    3221.2518    1374.2197   -1500.6224    -534.3171   -3339.6964 
 5107000    244.90736   -3984.3237   -3564.5609   -3984.3237            0    309.90321    18.086056    21.302985    22.064946    8501.3366   -1232.8049    2016.8678    145.64678   -248.84894   -862.23705    160.08957   -3526.1381 
 5108000    246.12698   -3972.2532      -3550.4   -3972.2532            0      -650.23    18.158057    21.387793    22.152787    8603.2732   -963.10629   -314.36063   -673.22308   -554.98108      559.298     147.7897   -3631.9843 
 5109000    255.75378   -3985.7811   -3547.4279   -3985.7811            0    1328.9966    18.046399    21.256275    22.016565    8445.5374    447.61985    2036.6816    1502.6884    306.96343   -1054.8025    643.48463    -3383.736 
 5110000    250.94008   -3978.9262   -3548.8235   -3978.9262            0    1114.4831    18.120539    21.343602    22.107015    8550.0556     1411.534    487.11254    1444.8028    785.70898   -1057.3303    -193.0639   -3409.8543 
 5111000    245.30101   -3935.1958   -3514.7583   -3935.1958            0    1257.8417    18.112223    21.333806    22.096869    8538.2887    -1033.785     2832.042    1975.2682     639.6763   -207.54521   -4.6750084   -3358.1291 
 5112000    250.69457   -3960.3439    -3530.662   -3960.3439            0    -18.57804     18.10406    21.324192    22.086911    8526.7502    430.14495   -63.806027   -422.07304    814.59709    90.141572    1141.7324   -3532.9722 
 5113000    242.44391   -3956.3018   -3540.7613   -3956.3018            0     605.2097    18.124135    21.347837    22.111402    8555.1464    642.09807    953.79541    219.73564    1245.1376   -231.48975   -284.95398   -3465.2504 
 5114000    265.22133   -3947.1529   -3492.5726   -3947.1529            0    3159.2037     18.04953    21.259962    22.020384    8449.9329    2833.3509    4832.5588    1811.7014    396.20833     316.8821   -159.18111   -3103.2526 
 5115000    253.74685   -3936.3815   -3501.4681   -3936.3815            0    1006.8762    18.084551    21.301212     22.06311    8499.2145    1496.9766    2123.9574    -600.3053    1145.1933   -33.690068   -1285.7933   -3376.6635 
 5116000    238.09176   -3959.6509   -3551.5697   -3959.6509            0    205.33162    18.110259    21.331493    22.094474    8535.5119    993.99782     315.1186   -693.12157   -1155.1725   -629.89422    846.10392   -3526.0097 
 5117000    231.98405   -3967.3448   -3569.7321   -3967.3448            0    2091.8224    18.115299    21.337429    22.100623    8542.6402    2662.2892    1390.5469    2222.6312     590.8243     373.8252    192.85518    -3309.121 
 5118000    239.57831   -3967.1712   -3556.5422   -3967.1712            0    736.68641    18.136376    21.362256    22.126337    8572.4932    1849.9018   -407.10149    767.25889   -465.13533    428.12532    -46.19419   -3464.4409 
 5119000    248.54152   -3953.8649   -3527.8733   -3953.8649            0    1039.1158    18.196135    21.432644    22.199243    8657.5111    2296.9982    298.54644     521.8027     398.4094     261.9668    96.512019   -3396.6736 
 5120000    248.24032   -3980.0945   -3554.6191   -3980.0945            0    1215.6473    18.250717    21.496934    22.265832    8735.6531     1580.639     694.4348    1371.8682   -1393.5472   -914.33225    140.81361   -3399.7449 
 5121000     253.2369   -3983.3615   -3549.3221   -3983.3615            0    67.013177    18.245369    21.490634    22.259307    8727.9754   -355.23011    650.92276   -94.653114   -788.18483    301.72482   -974.63082   -3540.7921 
 5122000    252.68118   -3950.0667   -3516.9798   -3950.0667            0   -308.69452    18.241231    21.485761    22.254259     8722.039   -355.27392   -81.858212   -488.95143   -395.10098    23.108796   -1408.1243   -3556.2464 
 5123000    238.69394   -3980.6273    -3571.514   -3980.6273            0    1242.3024    18.099028    21.318264    22.080771    8519.6414    75.026673    1793.5772    1858.3033   -1480.4071    -105.7506    994.22382   -3417.1577 
 5124000    246.36332   -3933.1539   -3510.8956   -3933.1539            0    995.35628    18.135982    21.361792    22.125856    8571.9346    1210.0797   -304.87907    2080.8682    814.91395    251.50054   -878.13562   -3386.4633 
 5125000    254.57016    -3917.498   -3481.1734    -3917.498            0    1123.2974    18.249706    21.495743    22.264599    8734.2015    709.48348     279.7216    2380.6873   -227.92525    450.17534    -461.7464   -3338.0885 
 5126000    255.45955   -3971.3923   -3533.5434   -3971.3923            0   -182.34166    18.219277    21.459901    22.227475    8690.5846    63.804638    552.45057   -1163.2802   -801.70101    1263.7326    17.740936    -3556.654 
 5127000    260.54747   -3985.9844    -3539.415   -3985.9844            0    1912.9333    18.201834    21.439356    22.206195    8665.6479    2732.3169    1297.0694    1709.4136     1446.385   -13.048348     743.1647   -3297.6593 
 5128000    241.26242   -3933.8677   -3520.3522   -3933.8677            0    2389.3056    18.161722     21.39211    22.157259    8608.4843    1911.6127    3761.4127    1494.8915    75.692131   -191.26432   -293.57143   -3220.3846 
 5129000    252.23694    -3922.946   -3490.6206    -3922.946            0    604.14689    18.177693    21.410922    22.176743    8631.2143   -386.92009    2357.0862   -157.72542    844.48337      377.419    1654.1145   -3414.5721 
 5130000    237.99087   -3970.7894   -3562.8812   -3970.7894            0    1925.5649    18.238714    21.482796    22.251189    8718.4295    1816.9726     2417.291     1542.431    1399.0854    528.33527    356.44234   -3318.0469 
 5131000    237.09532   -3972.2798   -3565.9065   -3972.2798            0    2294.4498    18.092131     21.31014    22.072357    8509.9056    2564.6164    3379.3031    939.42999    -34.96206   -251.58615   -895.10887   -3281.1464 
 5132000    256.21564   -3943.1883   -3504.0435   -3943.1883            0    798.83507    18.128162     21.35258    22.116315    8560.8502     264.9436    1524.7046    606.85702   -365.37702    766.93973   -604.21468   -3404.3079 
 5133000    238.96544   -3949.8075   -3540.2289   -3949.8075            0   -29.178722    18.170519    21.402472    22.167991    8620.9992   -247.39147    369.18116   -209.32585     842.8102    127.49212    312.69038   -3543.8975 
 5134000    231.91637   -3961.4565   -3563.9598   -3961.4565            0    800.92873    18.129792      21.3545    22.118304    8563.1595    830.76081    328.14673    1243.8787    959.22523    353.36079   -1543.0165   -3463.9359 
 5135000    238.68058   -3989.3293   -3580.2389   -3989.3293            0    1332.2402    18.068328    21.282103    22.043317    8476.3611    2069.8934    734.04191    1192.7853   -154.89256    1442.3779   -311.63908   -3415.5487 
 5136000    243.78848    -3952.695   -3534.8499    -3952.695            0    374.27408    18.149811     21.37808    22.142727    8591.5573    -653.0817    430.14507    1345.7589    634.59363   -6.5739413    184.80716   -3487.9537 
 5137000    234.98759   -3966.6127   -3563.8521   -3966.6127            0    1971.3304    18.034414    21.242158    22.001943    8428.7216    2504.4003    1338.9804    2070.6106   -430.54268     737.0552   -849.62215   -3321.5277 
 5138000    247.48361   -3961.4678   -3537.2893   -3961.4678            0    1225.9553        18.06    21.272294    22.033157     8464.646    879.31607    1868.3246    930.22522    631.57524   -1226.2132    27.320262   -3385.9474 
 5139000    232.63213   -3994.3393   -3595.6158   -3994.3393            0      -305.32    18.093423    21.311663    22.073934    8511.7296    1039.6813   -1623.6973   -331.94397   -4.1909599   -303.82158    167.94941   -3633.5167 
 5140000    243.40634   -3956.4756   -3539.2855   -3956.4756            0    1337.0533    18.117477    21.339995     22.10328    8545.7219    246.40956    1600.4571    2164.2932     835.4221   -882.37238   -1388.6773   -3372.6478 
 5141000    243.65266    -3990.371   -3572.7586    -3990.371            0   -102.47652    18.104418    21.324612    22.087347    8527.2552   -167.15573   -1739.8048     1599.531   -491.61722   -128.40056    1300.3722   -3585.5027 
 5142000    239.67216    -3963.966   -3553.1761    -3963.966            0    683.30541    18.096756    21.315588       22.078    8516.4334    588.86756   -231.09876    1692.1474   -130.69345      592.446   -452.06138   -3468.3072 
 5143000    245.74619   -3975.6295    -3554.429   -3975.6295            0    137.32784    18.076519    21.291752    22.053311    8487.8952    -919.6567    617.50938    714.13083    1072.5759   -743.79751   -570.34513   -3537.4295 
 5144000    240.11232   -3951.3203    -3539.776   -3951.3203            0    382.85142    18.126782    21.350954    22.114631     8558.895    311.53463     810.2804    26.739225   -241.61761    459.86355    -2.463497   -3491.9875 
 5145000    249.83251   -3940.9125   -3512.7082   -3940.9125            0    1578.5176    18.136181    21.362026    22.126099    8572.2168    164.28804     1369.405    3201.8598    187.15461    1460.9498    883.12909   -3315.3667 
 5146000     250.1568   -3995.4897   -3566.7295   -3995.4897            0    1687.5466    18.088637    21.306025    22.068095     8504.977    1263.5679    1910.5094    1888.5625    934.47592    3.1941322    734.29164   -3357.4123 
 5147000    251.08775   -4025.5651   -3595.2093   -4025.5651            0    1176.2253    18.005357    21.207932    21.966493    8388.0454     -29.2389    1976.3435    1581.5714    458.34952   -687.40694    64.226418   -3451.3204 
 5148000    233.05528   -3985.0163   -3585.5675   -3985.0163            0    1749.2232    18.089966     21.30759    22.069716    8506.8506    3356.6381    787.03508    1103.9965    512.25369    130.83017   -142.34355   -3368.5524 
 5149000    242.18473   -3947.9049   -3532.8085   -3947.9049            0    770.05707    18.077072    21.292403    22.053986     8488.674    1504.6073   -701.43798    1507.0019    401.72548    923.80305    688.95618   -3437.4765 
 5150000    248.45859   -4007.3564   -3581.5069   -4007.3564            0   -17.889424    18.190076    21.425506     22.19185    8648.8647   -1412.0102   -99.624378    1457.9663   -28.363314   -402.60868    -18.44628   -3583.7634 
 5151000    254.79666   -3983.6392   -3546.9265   -3983.6392            0   -514.80087    18.186195    21.420936    22.187116    8643.3307   -417.12485   -874.56186    -252.7159   -78.627546    364.17394    196.81297   -3611.8193 
 5152000    243.86429   -3990.3074   -3572.3324   -3990.3074            0    441.37109    18.113864    21.335739    22.098871    8540.6098   -15.604603     2051.269   -711.55117    3.9386267    746.89913   -308.14111   -3517.3569 
 5153000    249.36774   -3970.1667    -3542.759   -3970.1667            0    2111.5889    18.124031    21.347715    22.111276    8554.9998    3747.8172    1397.3293    1189.6201    175.44503   -386.47141     -695.074   -3279.3047 
 5154000    249.90266   -4010.5057   -3582.1811   -4010.5057            0    408.59824    18.142761    21.369776    22.134127    8581.5504   -1134.6619    593.87381    1766.5828   -613.70464    349.28914   -320.46178   -3531.0437 
 5155000    246.77914   -3993.7455   -3570.7745   -3993.7455            0    84.963651    18.201662    21.439154    22.205985    8665.4021      835.249   -973.72748    393.36943    415.30591   -568.42007    580.19658   -3560.0372 
 5156000    242.12218   -4011.9498   -3596.9607   -4011.9498            0   -54.236837    18.193263    21.429261    22.195739    8653.4127   -280.79836   -1548.4873    1666.5752   -207.72776   -447.08239    -236.8343   -3603.8055 
 5157000    234.60851   -3989.7365   -3587.6255   -3989.7365            0    1166.5404    18.104685    21.324927    22.087673    8527.6326    2431.4118    334.62124    733.58818   -198.29512    1912.9515    389.80228   -3442.5466 
 5158000    245.16386    -4009.749   -3589.5465    -4009.749            0    1017.7196    18.165124    21.396116    22.161409    8613.3218    1203.2628    100.96656    1748.9296     1030.679   -562.73599   -9.9435686   -3461.7042 
 5159000    254.40404   -4006.1629   -3570.1231   -4006.1629            0    1690.9292    18.129242    21.353852    22.117633    8562.3807    2019.6069    2233.3798    819.80086   -484.13508    -770.8976   -308.52816   -3358.9708 
 5160000    264.39019   -3997.2696   -3544.1138   -3997.2696            0    1455.3472    18.126025    21.350063    22.113708    8557.8229    1790.8685    1562.9328    1012.2403   -216.35947   -496.99697   -30.380507   -3362.4762 
 5161000    237.10889   -4012.0688   -3605.6723   -4012.0688            0    1843.1199    18.128863    21.353406     22.11717    8561.8433    2131.1711     1338.003    2060.1856    1065.8732    88.740965    84.669421   -3375.5298 
 5162000    228.32108   -3965.5566   -3574.2221   -3965.5566            0   -508.78924    18.266046    21.514989    22.284533    8757.6831   -99.250742   -808.11344   -619.00354   -608.47703   -772.18877   -403.60639   -3639.2056 
 5163000      249.544   -3974.6749    -3546.965   -3974.6749            0    265.15583    18.153871    21.382862     22.14768    8597.3245   -325.04769   -195.72258    1316.2378     558.4011   -1466.9793    344.32199   -3513.7189 
 5164000    254.60247   -4007.8409    -3571.461   -4007.8409            0   -54.761874    18.149387    21.377581     22.14221     8590.956    1648.8449   -185.30615   -1627.8243   -259.97609    581.54565   -531.13672   -3578.3221 
 5165000    240.12899   -3961.6014   -3550.0286   -3961.6014            0    838.01255    18.187216    21.422138    22.188361    8644.7861    1117.8811    804.53498    591.62157   -914.53101   -773.31386    1062.4171   -3444.3758 
 5166000    250.74949   -3955.8066   -3526.0305   -3955.8066            0    1477.4785    18.193496    21.429535    22.196022    8653.7438    1779.4521    601.72195    2051.2614    361.23315   -652.85257   -545.80575   -3339.5639 
 5167000    247.51036    -3992.369   -3568.1447    -3992.369            0   -32.746113     18.18924    21.424522     22.19083    8647.6727   -219.73605    1072.5568   -951.05905   -1453.4833    327.96269    740.66882   -3572.2745 
 5168000    253.20975   -3944.5628     -3510.57   -3944.5628            0     1155.118    18.164001    21.394794    22.160039    8611.7246    355.69132    812.41323    2297.2494      1610.81   -955.07313   -451.30715   -3365.4951 
 5169000    267.35396     -3966.96   -3508.7244     -3966.96            0    1242.5999    18.256663    21.503938    22.273087    8744.1948    1182.5731    2241.3996    303.82703    342.65459    1167.6505   -118.33488   -3350.2617 
 5170000    251.98869   -3956.1714   -3524.2714   -3956.1714            0   -434.70519     18.26343    21.511908    22.281342    8753.9213   -1113.5495   -1482.6265    1292.0604    928.35439   -896.10722    521.31943   -3579.7689 
 5171000    244.40158   -3959.9622   -3541.0662   -3959.9622            0    205.90534    18.243668    21.488631    22.257232    8725.5352    -88.12751    204.94784    500.89568   -37.120546   -199.39635   -156.31184   -3514.8642 
 5172000    248.59015   -3966.7633   -3540.6883   -3966.7633            0    655.27344      18.1978    21.434605    22.201273    8659.8875    775.07394    1928.4087   -737.66232   -51.176741    523.97224   -151.74679   -3457.9301 
 5173000    257.02258    -3973.851   -3533.3231    -3973.851            0      1032.64    18.042605    21.251806    22.011936    8440.2118    1217.3874    1133.1798    747.35291    778.20928    387.40011    1363.2417   -3406.2135 
 5174000    233.45159   -3925.5857   -3525.4577   -3925.5857            0    244.44316     18.11901      21.3418     22.10515     8547.891    225.79552    230.03422    277.49973    896.74552   -883.37211    704.67946   -3494.9849 
 5175000      253.348   -3944.3189   -3510.0891   -3944.3189            0    2824.3421    17.943765    21.135385    21.891351    8302.2593    1372.7489    3471.4915    3628.7859    176.17615    711.29821    848.80925    -3168.118 
 5176000    246.36299   -3945.1683   -3522.9106   -3945.1683            0   -371.66263    18.095213    21.313771    22.076118    8514.2556   -2145.8421    853.01125    177.84294   -49.205354    -579.4505   -725.59924   -3569.0606 
 5177000    249.07673   -3920.3369   -3493.4279   -3920.3369            0    174.30935    18.076756    21.292031    22.053601    8488.2294   -1.1376494    528.02774   -3.9620382   -164.18358   -874.26392    671.10004   -3471.8498 
 5178000    260.19639   -3943.9485   -3497.9808   -3943.9485            0    752.85126    18.098732    21.317915     22.08041    8519.2234    905.11837    1616.0093   -262.57391   -675.51087    823.64999   -514.28834   -3404.4434 
 5179000    250.12073   -3949.9725   -3521.2742   -3949.9725            0   -18.710716    18.071278    21.285578    22.046917    8480.5139   -299.10903    477.28392   -234.30704    694.78562    877.34862   -263.61506   -3523.5883 
 5180000    242.36944    -3935.608   -3520.1951    -3935.608            0    945.73104    17.988856    21.188497    21.946363     8365.006    747.60121    1864.8368    224.75511   -1189.8873    161.69149    26.430563   -3404.8206 
 5181000    256.34862   -3946.7884   -3507.4156   -3946.7884            0    915.35453    17.997496    21.198673    21.956903    8377.0638    1304.3182    894.50857    547.23684    397.61292    265.35896    853.23689    -3395.586 
 5182000    254.03922   -3925.2366   -3489.8221   -3925.2366            0    1450.8667    17.970393    21.166749    21.923837    8339.2752    349.18758    2422.2759    1581.1365    186.18211   -113.55766    2120.3706    -3313.368 
 5183000    241.57956   -3947.1903   -3533.1312   -3947.1903            0    1636.9238    18.014554    21.218765    21.977713    8400.9055    2679.3122    1409.5029    821.95634   -1333.6939   -875.61331   -238.45296   -3332.5776 
 5184000    244.90033   -3971.6907   -3551.9399   -3971.6907            0      1600.31    17.964072    21.159304    21.916126    8330.4786    763.20457    1530.6205    2507.1048   -751.84533    1591.7278    519.70249   -3357.5159 
 5185000    249.17259   -3923.2788   -3496.2055   -3923.2788            0     1786.588    17.947574    21.139871    21.895998    8307.5476    3330.1069    1259.6023    770.05478   -31.303897    624.07908    199.71063   -3279.7478 
 5186000    253.11367    -3933.165   -3499.3368    -3933.165            0    1333.4262    18.020508    21.225778    21.984977    8409.2384    362.97417    1608.1025    2029.2018    442.91592    813.20824   -778.97303   -3335.8053 
 5187000     250.2619   -3957.8497   -3528.9094   -3957.8497            0    1127.5239    17.988027     21.18752    21.945351    8363.8495    2167.3667    -718.4223    1933.6272    -1172.192    986.45628    557.95302   -3391.3761 
 5188000    255.55189   -3927.7117   -3489.7045   -3927.7117            0    1201.0596    18.039658    21.248335    22.008341    8436.0767   -235.53985    1071.2155    2767.5032    439.96562    1230.8116   -252.43744   -3341.9363 
 5189000    244.90511   -3968.9797   -3549.2207   -3968.9797            0   -103.12841    18.029362    21.236207     21.99578    8421.6403   -1449.3086   -23.593427    1163.5168    486.63151    1134.8037    346.18238   -3561.8871 
 5190000    260.86379   -3925.7293   -3478.6177   -3925.7293            0     179.8205    18.092471    21.310541    22.072772    8510.3856    -1341.483    1131.0841    749.86037    1008.8378    644.37908    526.77397   -3456.2992 
 5191000    248.43356   -3934.1944   -3508.3878   -3934.1944            0    656.26279    18.085805    21.302689    22.064639    8500.9821    287.94201    572.45381    1108.3925   -47.993349    22.771192   -194.84427   -3427.0256 
 5192000     250.1327   -3949.1432   -3520.4243   -3949.1432            0    990.21152    18.010083    21.213499    21.972259    8394.6527    975.27873    943.87133    1051.4845     375.1674    229.68718   -559.53503   -3399.1953 
 5193000    253.47666   -3957.3491   -3522.8988   -3957.3491            0    1127.0005     18.02194    21.227465    21.986725    8411.2436    1125.5633    1434.2355    821.20281    586.70468    228.01713   -1210.1374   -3384.6504 
 5194000    244.41283   -3927.8542    -3508.939   -3927.8542            0    3084.7891    18.044813    21.254406     22.01463    8443.3104    2977.0822    2870.9306    3406.3545   -335.29428    666.70686   -1363.1898   -3129.0872 
 5195000    238.92391   -3946.6683   -3537.1609   -3946.6683            0    1217.1104    18.074796    21.289722    22.051209    8485.4682    762.04403    291.26323     2598.024    265.83648    232.15733    1700.4529   -3386.5412 
 5196000    255.25971   -3949.5731   -3512.0667   -3949.5731            0   -947.19835    18.110963    21.332322    22.095333    8536.5078    503.82903   -961.31896   -2384.1051    270.38866    192.14958   -122.58889   -3629.9893 
 5197000    238.63481   -3921.4865   -3512.4746   -3921.4865            0    601.14761    18.051091    21.261801    22.022289    8452.1262    1082.4901    1849.0854   -1128.1327    293.52057    -353.2405    208.46229   -3438.3737 
 5198000    244.81122   -3928.2603   -3508.6622   -3928.2603            0   -71.155427    18.045917    21.255706    22.015976    8444.8594   -396.76162   -295.89102    479.18636   -434.32948    67.619747    -477.4718   -3517.4257 
 5199000    256.07487   -3933.2321   -3494.3286   -3933.2321            0     927.9259    17.981104    21.179366    21.936905    8354.1962    215.06533    896.62156    1672.0908    575.29299   -392.05257    535.51939   -3381.2725 
 5200000    259.30375   -3970.2936   -3525.8558   -3970.2936            0    1437.8467     18.09232    21.310363    22.072588    8510.1725    2410.2583    2582.3191   -679.03714    156.53311    -150.5917   -978.10932   -3347.4016 
 5201000     244.3246   -3941.8263   -3523.0623   -3941.8263            0     1055.875    17.980931    21.179161    21.936693    8353.9542    726.24025    960.73465    1480.6501   -16.298137    693.16365    72.231303    -3394.421 
 5202000    250.16676    -3938.147   -3509.3697    -3938.147            0    1122.2337    17.949606    21.142265    21.898477    8310.3694    2347.0552    117.76576    901.88026    406.11278   -639.76048   -516.90053    -3373.357 
 5203000    243.83404   -3960.3453   -3542.4221   -3960.3453            0    640.29532    17.972231    21.168914    21.926079    8341.8339    1127.0219   -160.45805    954.32205    249.12572   -792.34573   -46.645717   -3464.5256 
 5204000    236.23835   -3941.8377   -3536.9332   -3941.8377            0    1542.1252     17.95701    21.150986    21.907511    8320.6582    1824.8738    905.81267     1895.689    352.72427   -829.99285   -973.11285    -3349.799 
 5205000    234.30304   -3945.9908   -3544.4034   -3945.9908            0    1031.9454    17.941158    21.132315    21.888171    8298.6418    3373.7703   -570.64358    292.70929   -719.17347   -149.51972   -134.17466   -3419.5099 
 5206000    241.11454    -3944.341   -3531.0789    -3944.341            0    1193.9044    17.867932    21.046064    21.798835    8197.4442    886.15267    2009.7133    685.84735   -551.25221   -412.61356   -270.97784   -3388.3461 
 5207000    228.57628   -3898.0968   -3506.3249   -3898.0968            0    787.46018    17.931283    21.120683    21.876123    8284.9457    -1089.215    2002.6401    1448.9553    288.63823   -1337.6936   -777.91404   -3411.1781 
 5208000    248.23001   -3919.6971   -3494.2394   -3919.6971            0    1283.3298    17.978234    21.175985    21.933403    8350.1961    782.51705    1649.7844    1417.6881    442.66184    1305.4227    374.29234   -3337.9567 
 5209000    237.87403    -3930.062   -3522.3541    -3930.062            0    1922.8921     18.05091    21.261588    22.022068     8451.872    2333.3012    2257.3079    1178.0672    426.38338   -608.81139    171.96661   -3285.3348 
 5210000    250.79234   -3924.3445   -3494.4951   -3924.3445            0    2670.1141    18.055257    21.266708    22.027372    8457.9798    1370.4931    4041.3273    2598.5217    133.62645    389.25742    672.81136   -3165.1339 
 5211000    227.66724   -3930.2172   -3540.0033   -3930.2172            0    23.281502    18.107705    21.328485    22.091358    8531.9015   -62.693392    891.77167   -759.23377   -197.30155    486.70883    1.0051751   -3537.1064 
 5212000    242.54725   -3927.6142   -3511.8965   -3927.6142            0    1050.5656    18.003844     21.20615    21.964648    8385.9318    639.51671    826.61753    1685.5626   -1422.1005   -203.33913    340.44255   -3383.4121 
 5213000     263.5328    -3933.056   -3481.3698    -3933.056            0    726.89588    17.941315    21.132499    21.888362     8298.859    1955.4975    464.28028   -239.09019   -11.929035    297.42951   -25.954792   -3393.3933 
 5214000    237.76704   -3916.4426    -3508.918   -3916.4426            0    88.370884    17.939265    21.130085    21.885862    8296.0155    2331.3739    -1350.811   -715.45017    153.20428    -245.1856    352.54336   -3498.2261 
 5215000    228.21269   -3953.6847    -3562.536   -3953.6847            0    335.19783    17.996752    21.197796    21.955995     8376.025    866.73663    437.55079   -298.69394    286.40347   -224.73908    959.80953   -3521.5896 
 5216000    247.13977   -3945.0775   -3521.4884   -3945.0775            0    679.67025    18.028433    21.235113    21.994646    8420.3379    1485.6035    1043.9036   -490.49637    879.65405   -539.39484   -64.300895   -3438.0235 
 5217000    239.67331   -3956.7276   -3545.9357   -3956.7276            0    836.66218    18.104068    21.324201    22.086921    8526.7611    1438.0507    1401.3811   -329.44532    1400.6571    2260.9378    361.88522   -3441.8934 
 5218000    244.57977   -3943.4132   -3524.2118   -3943.4132            0     1302.587    18.003741    21.206029    21.964522    8385.7879    1809.0919    1474.7776    623.89137   -1582.8739    952.04473   -902.53873   -3364.9079 
 5219000    250.10063   -3927.8739     -3499.21   -3927.8739            0    -276.4859    18.103047    21.322999    22.085676    8525.3194   -43.177585   -912.86367    126.58356   -237.18172    594.40045    427.24043   -3533.5863 
 5220000    232.60323   -3954.8632   -3556.1892   -3954.8632            0    1276.7144    18.043319    21.252646    22.012807    8441.2132    2396.8473    1551.2702   -117.97418    410.23249   -1562.9282   -898.19296   -3399.0175 
 5221000    244.40113   -3929.6415   -3510.7463   -3929.6415            0    1388.1473    17.960758      21.1554    21.912083    8325.8687    872.32176    608.67668    2683.4434    492.03159   -411.39733    593.28484   -3342.1916 
 5222000     241.0853   -3946.9964   -3533.7845   -3946.9964            0    1397.6511    18.000141    21.201789     21.96013    8380.7585    2554.3171    526.53166    1112.1047    -190.0775    1016.2363   -423.73459   -3362.9569 
 5223000    239.07589   -3944.2883   -3534.5204   -3944.2883            0    2037.0962    17.984682     21.18358     21.94127    8359.1844    3620.2474    1521.2664    969.77486   -421.58066    71.255921   -68.695603   -3286.1777 
 5224000    262.73055   -3973.5994   -3523.2882   -3973.5994            0    505.66624    18.042525    21.251711    22.011838    8440.0989    598.80517     1555.937    -637.7434    571.77445    255.43604   -410.84968   -3461.0456 
 5225000    243.53794   -3951.1189   -3533.7032   -3951.1189            0    2918.4501     18.01465    21.218878    21.977831    8401.0405    3338.3759    2656.9828    2759.9914   -10.256831   -240.26778    777.06502    -3176.133 
 5226000    240.61677   -3917.9466   -3505.5377   -3917.9466            0    1814.8558    18.050042    21.260565    22.021009    8450.6526    1498.2785    1863.4161     2082.873    748.38748    1778.1691    452.44349   -3281.8674 
 5227000    266.31197   -3896.0422   -3439.5926   -3896.0422            0    1530.9619    18.025001     21.23107    21.990459    8415.5303   -419.22095    3032.9604    1979.1464    -500.2637   -296.64856    1306.2219   -3251.6948 
 5228000    251.26735   -3900.9266    -3470.263   -3900.9266            0    2626.7145    17.977192    21.174757    21.932132    8348.7439    2575.4344     3228.671    2076.0381    -185.4072   -416.38982    222.99075   -3150.4398 
 5229000    248.03918   -3917.6624   -3492.5318   -3917.6624            0    793.19528    17.997101    21.198207    21.956421    8376.5121    1722.8629    749.38439   -92.661397    545.26898     1315.103   -81.783509   -3395.6328 
 5230000    246.56399   -3912.3808   -3489.7786   -3912.3808            0   -773.90277    18.079569    21.295344    22.057032    8492.1919   -2547.8831     40.06034    186.11445   -144.21909    538.88204   -1153.3333   -3585.6264 
 5231000    248.19327   -3918.0718    -3492.677   -3918.0718            0   -544.38563    18.056975    21.268732    22.029468    8460.3944   -435.33144   -593.21998   -604.60546    1304.7347    445.17082     81.00405   -3559.8466 
 5232000    238.70005   -3910.5508   -3501.4271   -3910.5508            0   -119.90367    18.063094    21.275939    22.036932    8468.9974   -1112.2889    179.26234    573.31552    149.36331   -506.22111    2043.1019   -3516.2366 
 5233000    251.14041   -3950.2251   -3519.7791   -3950.2251            0    1514.8566    17.905784    21.090648    21.845015    8249.6517    1798.2845    1528.5956    1217.6895   -354.65074   -843.82163    831.44676   -3337.5226 
 5234000    246.54168   -3907.0507   -3484.4867   -3907.0507            0    1413.3448    17.887962    21.069657    21.823272    8225.0434    1115.2277    2106.8824    1017.9243    227.35486    1136.0035    362.47821   -3314.9506 
 5235000    234.42864   -3940.1196   -3538.3169   -3940.1196            0   -428.80292    18.018232    21.223097    21.982201    8406.0528    -662.8444   -26.473418   -597.09094   -431.58006   -17.150956    837.84523   -3590.8855 
 5236000    244.66687   -3959.9075   -3540.5569   -3959.9075            0    2207.7905    17.919709     21.10705    21.862003    8268.9131    1787.9008    1564.8063    3270.6646   -318.02121   -657.59104     723.0361   -3274.3115 
 5237000    251.85921    -3951.717   -3520.0389    -3951.717            0    572.95163    18.011141    21.214745     21.97355    8396.1324    1232.9629   -379.89106    865.78306    1945.4915    103.13941    143.56827   -3449.8815 
 5238000    243.15741    -3918.097   -3501.3335    -3918.097            0    1901.6784    18.016635    21.221217    21.980253    8403.8184    2521.7882    1686.5617    1496.6854   -1003.2656   -509.67402    1010.7733   -3268.2618 
 5239000     244.5137   -3940.7614   -3521.6733   -3940.7614            0    282.57132    18.143205    21.370299    22.134668    8582.1799    261.48404   -198.04669     784.2766   -1186.0456    1067.6345    403.70259   -3486.3061 
 5240000    236.85406   -3899.4704   -3493.5106   -3899.4704            0    960.79023    18.043193    21.252498    22.012653    8441.0361     496.4856    403.74514    1982.1399     21.38891   -406.67681   -790.60179   -3375.2336 
 5241000     256.8727   -3974.6369   -3534.3659   -3974.6369            0    1244.3189     18.07937     21.29511    22.056789    8491.9115    2234.3657    309.40493    1189.1862    873.25078    290.47657    192.72709   -3380.2622 
 5242000    244.09048   -3932.4004   -3514.0376   -3932.4004            0    705.16734    18.041101    21.250034    22.010101    8438.1008    2889.6967    178.16751    -952.3622    621.88508    147.34024   -96.692393    -3427.259 
 5243000    247.42995   -3913.9729   -3489.8864   -3913.9729            0    719.35308    18.117457    21.339972    22.103256     8545.694    1112.7717     1429.697   -384.40949    1286.9561   -1057.6149   -1172.4021   -3400.2333 
 5244000    248.79523   -3950.5072   -3524.0807   -3950.5072            0    287.58441     18.07499     21.28995    22.051445    8485.7408    616.35464    719.99733   -473.59874   -567.16887   -714.14439   -4.5339131   -3488.4905 
 5245000    258.61546   -3935.3733   -3492.1153   -3935.3733            0    1181.9815    18.086916    21.303998    22.065995    8502.5493    672.50499     997.3518    1876.0876    29.196737   -1280.1983    90.235771   -3345.5485 
 5246000    248.13025   -3945.4192   -3520.1325   -3945.4192            0    430.66361    18.056923     21.26867    22.029403      8460.32    203.24333    905.44124    183.30627    1352.4825   -251.84308   -391.29096    -3466.995 
 5247000    230.44556   -3905.6068    -3510.631   -3905.6068            0    859.24976     18.10463    21.324862    22.087606    8527.5548    679.10619     1191.649    706.99408    1215.1709    1180.5032   -1520.1491   -3403.7698 
 5248000    262.97989   -3913.7856   -3463.0471   -3913.7856            0    216.97577    18.087621    21.304828    22.066855    8503.5435    1061.1074   -795.70641    385.52626    842.33496   -206.36647   -1670.5407   -3436.1387 
 5249000    235.74621   -3942.3089    -3538.248   -3942.3089            0   -270.80698    18.093621    21.311896    22.074176    8512.0093   -458.68039   -863.88875    510.14819   -1884.2783   -807.62709   -414.35881   -3571.8657 
 5250000    264.08506    -3934.188   -3481.5553    -3934.188            0    2817.5776    17.958975      21.1533    21.909907    8323.3894    3512.0376    3171.4494    1769.2458    814.96458   -673.74966   -2086.2684   -3139.5349 
Loop time of 416.496 on 64 procs for 250000 steps with 864 atoms

Performance: 103.722 ns/day, 0.231 hours/ns, 600.246 timesteps/s
192.3% CPU use with 32 MPI tasks x 2 OpenMP threads

MPI task timing breakdown:
Section |  min time  |  avg time  |  max time  |%varavg| %total
---------------------------------------------------------------
Pair    | 24.396     | 27.277     | 32.301     |  34.8 |  6.55
Bond    | 0.78374    | 1.1307     | 1.7767     |  18.1 |  0.27
Kspace  | 201.01     | 206.81     | 216.75     |  26.8 | 49.66
Neigh   | 2.6759     | 3.2438     | 4.0258     |  19.5 |  0.78
Comm    | 74.87      | 84.273     | 92.5       |  44.3 | 20.23
Output  | 0.55551    | 0.55582    | 0.5575     |   0.0 |  0.13
Modify  | 75.153     | 77.681     | 84.214     |  21.9 | 18.65
Other   |            | 15.52      |            |       |  3.73

Nlocal:        27.0000 ave          33 max          20 min
Histogram: 2 1 1 5 4 3 10 4 1 1
Nghost:        2283.50 ave        2322 max        2232 min
Histogram: 2 4 0 3 2 3 6 3 3 6
Neighs:        7407.38 ave        9236 max        5646 min
Histogram: 4 2 3 2 5 1 7 6 1 1

Total # of neighbors = 237036
Ave neighs/atom = 274.34722
Ave special neighs/atom = 2.0000000
Neighbor list builds = 11523
Dangerous builds = 0

unfix		3
unfix		2
unfix		1

write_data	data.final.${pid}
write_data	data.final.1
System init for write_data ...
PPPM initialization ...
  extracting TIP4P info from pair style
  using 12-bit tables for long-range coulomb (../kspace.cpp:340)
  G vector (1/distance) = 0.37259004
  grid = 24 25 25
  stencil order = 5
  estimated absolute RMS force accuracy = 0.0031790452
  estimated relative force accuracy = 9.5736002e-06
  using double precision FFTW3
  3d grid and FFT values/proc = 4116 672
Last active /omp style is kspace_style pppm/tip4p/omp
WARNING: Not all mixed pair coeffs generated from mixing. Use write_data with 'pair ij' option to store all pair coeffs. (../write_data.cpp:312)

write_restart   restart.lmp.${pid}
write_restart   restart.lmp.1
System init for write_restart ...
PPPM initialization ...
  extracting TIP4P info from pair style
  using 12-bit tables for long-range coulomb (../kspace.cpp:340)
  G vector (1/distance) = 0.37259004
  grid = 24 25 25
  stencil order = 5
  estimated absolute RMS force accuracy = 0.0031790452
  estimated relative force accuracy = 9.5736002e-06
  using double precision FFTW3
  3d grid and FFT values/proc = 4116 672
Last active /omp style is kspace_style pppm/tip4p/omp
Total wall time: 0:06:56
