LAMMPS (30 Jul 2021)
  using 1 OpenMP thread(s) per MPI task
package omp 0
using multi-threaded neighbor list subroutines
echo both

include		in.partitions
variable        pid world 0
include		in.temp
variable        temperature equal 280.87
variable	tempDamp equal 100.0
include		in.pressure
variable        pressure equal 11000.0
variable        pressureDamp equal 1000.0 # This is 1 ps
include		in.seed
variable        seed world 745823

units		real
atom_style	full
read_restart	restart.lmp.${pid}
read_restart	restart.lmp.0
Reading restart file ...
  restart file = 30 Jul 2021, LAMMPS = 30 Jul 2021
  restoring atom style full from restart
  orthogonal box = (0.0091626080 -0.17399565 -0.11206848) to (24.720838 24.903997 22.922068)
  4 by 4 by 4 MPI processor grid
  restoring pair style lj/cut/tip4p/long/omp from restart
  restoring bond style harmonic/omp from restart
  restoring angle style harmonic/omp from restart
  1920 atoms
  1280 bonds
  640 angles
Finding 1-2 1-3 1-4 neighbors ...
  special bond factors lj:    0        0        0       
  special bond factors coul:  0        0        0       
     2 = max # of 1-2 neighbors
     1 = max # of 1-3 neighbors
     1 = max # of 1-4 neighbors
     2 = max # of special neighbors
  special bonds CPU = 1.784 seconds
  read_restart CPU = 2.142 seconds
include 	in.setup
variable	out_freq equal 1000
variable	out_freq2 equal 10000
variable	out_freq3 equal 1000

timestep	2.0

neigh_modify    delay 7 every 1

include		in.tip4p
# This is TIP4P/Ice

# create groups ###
group ox type 2
640 atoms in group ox
group hy type 1
1280 atoms in group hy

# set charges - beside manually ###
set group ox charge -1.1794
Setting atom values ...
  640 settings made for charge
set group hy charge 0.5897
Setting atom values ...
  1280 settings made for charge

# ### TIP3P Potential Parameters ###
pair_style lj/cut/tip4p/long/omp 2 1 1 1 0.1577 8.5
pair_coeff 1 1*2 0.000 0.000
pair_coeff 2 2 0.21084 3.1668
bond_style  harmonic
bond_coeff  1 450 0.9572
angle_style harmonic
angle_coeff 1 55 104.52
kspace_style pppm/tip4p/omp 1.0e-5
pair_modify tail yes

thermo          ${out_freq}
thermo          1000
thermo_style    custom step temp pe etotal epair emol press lx ly lz vol pxx pyy pzz pxy pxz pyz enthalpy

restart 	${out_freq3} restart.lmp.${pid} restart2.lmp.${pid}
restart 	1000 restart.lmp.${pid} restart2.lmp.${pid}
restart 	1000 restart.lmp.0 restart2.lmp.${pid}
restart 	1000 restart.lmp.0 restart2.lmp.0


include         in.dump
dump            myDump all atom ${out_freq2} dump.water.${pid}
dump            myDump all atom 10000 dump.water.${pid}
dump            myDump all atom 10000 dump.water.0
dump            myDump2 all dcd ${out_freq2} dump.dcd
dump            myDump2 all dcd 10000 dump.dcd
dump_modify     myDump append yes
dump_modify     myDump2 append yes


variable natoms 	equal  "count(all)"                        # NUMBER ATOMS
variable H      	equal  "enthalpy/v_natoms"                 # ENTHALPY-per-atom
variable Vol      	equal  "vol/v_natoms"                 # volume-per-atom
fix AVG all 		ave/time ${out_freq} 1 ${out_freq} v_Vol v_H file vol_enthalpy.dat
fix AVG all 		ave/time 1000 1 ${out_freq} v_Vol v_H file vol_enthalpy.dat
fix AVG all 		ave/time 1000 1 1000 v_Vol v_H file vol_enthalpy.dat




fix 		1 all shake 1e-6 200 0 b 1 a 1
       0 = # of size 2 clusters
       0 = # of size 3 clusters
       0 = # of size 4 clusters
     640 = # of frozen angles
  find clusters CPU = 0.289 seconds
fix             2 all nph aniso ${pressure} ${pressure} ${pressureDamp}
fix             2 all nph aniso 11000 ${pressure} ${pressureDamp}
fix             2 all nph aniso 11000 11000 ${pressureDamp}
fix             2 all nph aniso 11000 11000 1000
fix             3 all temp/csvr ${temperature} ${temperature} ${tempDamp} ${seed}
fix             3 all temp/csvr 280.87 ${temperature} ${tempDamp} ${seed}
fix             3 all temp/csvr 280.87 280.87 ${tempDamp} ${seed}
fix             3 all temp/csvr 280.87 280.87 100 ${seed}
fix             3 all temp/csvr 280.87 280.87 100 745823


run             250000
PPPM initialization ...
  extracting TIP4P info from pair style
  using 12-bit tables for long-range coulomb (../kspace.cpp:340)
  G vector (1/distance) = 0.37450081
  grid = 30 30 30
  stencil order = 5
  estimated absolute RMS force accuracy = 0.0032645965
  estimated relative force accuracy = 9.8312354e-06
  using double precision FFTW3
  3d grid and FFT values/proc = 3600 512
Last active /omp style is kspace_style pppm/tip4p/omp
Neighbor list info ...
  update every 1 steps, delay 7 steps, check yes
  max neighbors/atom: 2000, page size: 100000
  master list distance cutoff = 10.8154
  ghost atom cutoff = 10.8154
  binsize = 5.4077, bins = 5 5 5
  1 neighbor lists, perpetual/occasional/extra = 1 0 0
  (1) pair lj/cut/tip4p/long/omp, perpetual
      attributes: half, newton on, omp
      pair build: half/bin/newton/omp
      stencil: half/bin/3d
      bin: standard
Per MPI rank memory allocation (min/avg/max) = 9.333 | 9.340 | 9.347 Mbytes
Step Temp PotEng TotEng E_pair E_mol Press Lx Ly Lz Volume Pxx Pyy Pzz Pxy Pxz Pyz Enthalpy 
 4000000    287.21973   -9018.1535   -7923.1409   -9018.1535            0    10225.231    24.711676    25.077992    23.034137    14274.697    12547.367    7580.5039    10547.822    714.78701   -827.48746   -660.26751   -5794.4338 
 4001000    281.90716   -9034.0802   -7959.3215   -9034.0802            0     10293.33    24.824688    25.052959    22.972815    14287.526    11286.297    9814.9308     9778.761   -1114.1522    840.16816    365.66914   -5814.5116 
 4002000    282.70224    -9025.139   -7947.3491    -9025.139            0    10784.301    24.871849    25.070167    22.923277    14293.612    10303.517    9998.7119    12050.673   -166.66574    1126.0478   -726.77453   -5699.2788 
 4003000      282.982   -9024.4841   -7945.6276   -9024.4841            0    10133.562    24.930485    24.983452    22.958795    14299.876    9737.2339    10274.813     10388.64   -193.64978   -93.056951    579.25362   -5832.2831 
 4004000    276.79056   -9044.7732   -7989.5213   -9044.7732            0    11031.855    24.867931     24.90205    23.012143    14250.556    11034.167    10236.101    11825.296    214.22112    546.18962    -1018.808   -5696.7738 
 4005000    271.62339   -8968.7809   -7933.2287   -8968.7809            0    10891.187    25.131333    24.924662    22.806629    14285.844    9240.5518    10960.727    12472.283      732.639   -947.81111    170.08271    -5664.111 
 4006000    281.52664   -8977.1911   -7903.8832   -8977.1911            0    10449.117    25.001379    24.886614    22.998779    14309.832    7835.8454    12139.438    11372.067   -55.326758     409.9541   -641.62033   -5723.2128 
 4007000    272.18149   -9026.3928   -7988.7129   -9026.3928            0    10178.028    24.866171    24.962797    23.038967    14300.959    9784.2458    10746.731    10003.108    311.98892   -3.2777397    625.89687   -5865.9342 
 4008000    281.52019   -9051.6017   -7978.3183   -9051.6017            0    10008.188    24.989383    24.984922    22.889477    14291.223    8766.5197    10117.713    11140.331   -40.854032   -476.21827     716.8107   -5892.3835 
 4009000    284.30003   -8998.4741   -7914.5927   -8998.4741            0    9676.0194    24.848829    25.131385    22.947952    14330.663    10886.373    9142.7546    8998.9306   -758.26463    627.81105    521.40283   -5892.3238 
 4010000    276.32831   -8993.6776   -7940.1881   -8993.6776            0    9920.8695    24.855173    25.059173    23.004949    14328.634    9993.0709    9737.1593    10032.378    478.99812   -959.81897   -1392.9834   -5867.0395 
 4011000     277.8438   -9018.6066   -7959.3393   -9018.6066            0    11323.774    24.848253    24.968314    22.978967    14256.588    12563.711    9513.4304    11894.181    1087.5118    855.18129    301.37313    -5604.926 
 4012000    289.46253    -9010.121   -7906.5578    -9010.121            0    10395.955     24.94238    25.108668    22.864739    14319.498    10635.556    10244.041    10308.269    46.482401    482.24975    344.86802   -5735.5165 
 4013000    286.43835   -9016.3845   -7924.3508   -9016.3845            0    11146.298    24.845953    24.906825    23.037635    14256.467    11563.073    10483.542    11392.279    513.01322    347.00427    329.14717   -5606.8577 
 4014000    273.12576   -9050.0663   -8008.7864   -9050.0663            0    10248.849    24.988587    24.918288     22.89992    14259.157    9373.3392     11150.09    10223.117   -196.24561     550.7535   -433.99799   -5877.4852 
 4015000    268.68983    -8974.543   -7950.1748    -8974.543            0    11550.914    24.990703    24.869196     22.93037    14251.194    11606.424    11617.522    11428.796   -292.27249   -159.51337    1000.4134   -5549.4438 
 4016000    281.36943   -9008.8407   -7936.1321   -9008.8407            0    11629.362    24.850993    24.754853    23.181999    14261.164    11988.517    13035.228    9864.3416   -111.07008   -755.84726    230.82631   -5517.4056 
 4017000    280.86879    -8996.337   -7925.5371    -8996.337            0     13006.24    24.945523    24.864593      22.8501    14173.009    12758.809    13181.051     13078.86   -1249.4541   -1098.0998   -778.31391   -5237.1628 
 4018000    277.62781   -9045.7162   -7987.2723   -9045.7162            0    11085.441    24.974173    24.901391    22.888525    14234.182    10040.362    10670.512    12545.449   -1389.4552    760.30125   -360.34961    -5686.035 
 4019000    282.63644   -9031.6285   -7954.0895   -9031.6285            0    11345.285    24.960545    24.857638    22.954753     14242.51    10518.663    11540.546    11976.645    341.83836   -877.74647    -138.9706   -5597.5331 
 4020000    276.97781   -9025.8584   -7969.8926   -9025.8584            0    10470.148    24.874873    24.985726    22.901042    14233.381    10025.986    11102.264    10282.193   -1086.6151    802.46985   -741.81715   -5796.5071 
 4021000    280.88184   -9049.4495   -7978.5998   -9049.4495            0    9366.9555     25.00792    24.995512    22.917062     14325.13    10827.753    7746.7699    9526.3435    234.46589   -885.97208   -515.99293   -6021.6806 
 4022000    278.77426   -8991.0576   -7928.2429   -8991.0576            0    10088.073    25.009327    24.965871    22.985927    14351.945    9086.1003    10294.645    10883.473   -144.81119    -602.0748   -189.08328   -5816.7246 
 4023000     269.1621   -9036.3132   -8010.1446   -9036.3132            0    10136.192    24.952116    24.973927     22.97762    14318.557    9876.0329    9897.0276    10635.516    134.88745    553.86589    152.54502     -5893.49 
 4024000    287.92406   -8981.9915   -7884.2937   -8981.9915            0    10228.063    24.867918    24.923012    23.117432    14327.801    11318.087    10354.381    9011.7222    470.21265    92.255887     203.1501   -5747.0757 
 4025000    277.61088   -8996.6388   -7938.2595   -8996.6388            0    10376.033     25.04831    24.937699    22.909192    14310.163    10346.315    10596.128    10185.656    1012.7409   -225.63151    930.21209   -5772.7913 
 4026000    289.90466   -9015.9788     -7910.73   -9015.9788            0    10291.506    25.027862    24.789288    23.065138    14310.139    10635.185    11247.315    8992.0173    943.14086    310.18872    1045.0458   -5762.9061 
 4027000    274.57544   -8993.5824   -7946.7756   -8993.5824            0    10696.588    25.030701    24.925399    22.916602    14297.673     10922.43    9827.8067    11339.527   -84.824452    1132.0779    -413.1703   -5716.3563 
 4028000    276.01233   -9032.0568   -7979.7719   -9032.0568            0    10501.058    24.977386    24.943017    22.916532     14277.26    10314.065    10010.388    11178.721   -1254.7528    1211.0747    971.97187   -5793.2501 
 4029000    269.06201   -9008.9917   -7983.2046   -9008.9917            0      9925.57    24.859578    24.988185    23.071611    14331.987    10528.102    9116.8038    10131.805   -1360.8793   -287.73093   -524.47627   -5908.5886 
 4030000    278.69959   -8985.4406   -7922.9107   -8985.4406            0    9225.3629    25.020463    25.044022    22.900036     14349.46    8357.0139    9487.0923    9831.9825    513.42519    523.83407    1866.2447    -5992.299 
 4031000    284.74755   -8979.9584   -7894.3709   -8979.9584            0    10264.482    24.929474    24.819262    23.178255    14341.108    9697.7553    12073.967    9021.7239   -505.24001   -799.05704    125.98182   -5747.5508 
 4032000    279.85221   -8982.5923    -7915.668   -8982.5923            0    11085.584    24.929653    25.002404    22.896816    14271.614    12239.647    8974.4099    12042.696    145.04128   -1866.7593   -1207.3008   -5608.3494 
 4033000    279.33198   -9000.6223   -7935.6814   -9000.6223            0     10266.74    24.843953    25.006048    23.029797    14307.241    12179.541    8954.0327    9666.6457   -8.1059014   -204.30436    249.53029   -5793.4601 
 4034000    279.69395   -9070.4536   -8004.1327   -9070.4536            0    10073.905    24.916727    25.003806    22.911448     14274.13    9879.6931    10384.866    9957.1567     525.9734   -168.41803     408.5535   -5907.0122 
 4035000    275.76392   -9074.7813   -8023.4435   -9074.7813            0    10828.645    24.872308    24.942979     22.94724    14236.226    10382.764    11211.407    10891.763   -285.99609   -284.10386    82.900074   -5775.1921 
 4036000    283.74742   -9046.2773   -7964.5027   -9046.2773            0    11152.066    24.804421       25.131    22.893809    14271.083    11490.176    9880.8285    12085.193    446.25454    928.89799   -561.99446   -5643.4332 
 4037000    285.62766   -9043.8155   -7954.8726   -9043.8155            0     11194.02    24.689011     25.11139    22.958141    14233.482    14659.721    7445.0378    11477.302   -505.13175    175.60327   -753.56361   -5631.2096 
 4038000    269.16601   -8951.4706    -7925.287   -8951.4706            0    11788.561    24.840537    24.995438    22.955107    14252.828    12656.325     10158.69    12550.669   -13.433328   -570.14463   -245.87982   -5474.8828 
 4039000    273.97081   -9025.9282   -7981.4265   -9025.9282            0    10297.773    24.824411    25.093391    22.968137     14307.51    11544.713    9356.7375    9991.8703   -541.83805    761.12929    1059.3419   -5832.6894 
 4040000    281.65762   -9042.8349   -7969.0276   -9042.8349            0     11174.55    24.854722    24.995392    22.915702    14236.461    11690.209    11109.418    10724.024   -283.62789   -586.69096    84.106506   -5648.9207 
 4041000     275.5205   -9061.5349   -8011.1251   -9061.5349            0     11097.49    24.978056    24.945526    22.833537    14227.366    10664.848    10680.699    11946.924   -608.67369   -325.11451     50.51083   -5708.4899 
 4042000    285.13642   -9049.7162   -7962.6461   -9049.7162            0    10812.292    24.968286    24.804616    23.041138    14270.039    9613.8921    12108.445     10714.54   -146.53535     899.9088   -223.53983    -5712.458 
 4043000    272.08662   -8976.8642   -7939.5459   -8976.8642            0    10596.684    25.021934    24.899108    22.939118    14291.617     10974.46    10218.537    10597.054    132.95247   -19.654956   -182.88888   -5730.8943 
 4044000    286.70723   -9044.5895   -7951.5308   -9044.5895            0    10852.919    25.047808    24.956258    22.801449    14253.176    9995.6924    10888.231    11674.833   -131.31649    223.20049    109.88461   -5695.5568 
 4045000    266.22365   -9036.9514   -8021.9854   -9036.9514            0    11168.012    24.862842    24.881426     23.01179    14235.622    11004.863    11369.057    11130.115   -626.87827   -892.71161    192.50721   -5703.3729 
 4046000    286.21276   -8995.7687   -7904.5952   -8995.7687            0    9509.6331    24.967272    25.016947    22.945575    14331.919    9397.1127    10683.167    8448.6195    614.16099   -1084.0709    496.84509   -5916.9265 
 4047000    275.45882   -9018.3538   -7968.1792   -9018.3538            0    11353.821    24.738816    25.014456     23.02121     14246.17     12751.37    9934.8958    11375.198   -261.61048    858.06277   -1037.4641   -5609.2437 
 4048000    271.21846   -9003.7509   -7969.7424   -9003.7509            0    10487.264     24.91431    25.166516    22.820799    14308.786    10879.596    9666.8777    10915.319   -373.96854   -741.74758    677.01659   -5781.2709 
 4049000    284.35045   -9006.0812   -7922.0076   -9006.0812            0    10492.283    24.907668    25.017487    22.886713    14261.335    10900.059    9932.8257    10643.963   -416.50964    1036.4655   -386.89322   -5739.7499 
 4050000    286.35943    -8993.273   -7901.5402    -8993.273            0    12064.533    24.707728    24.896615    23.128509    14227.244    13988.238     11978.46    10226.902    343.69258   -157.12732    371.23846   -5398.2731 
 4051000    281.24516   -9011.4091   -7939.1743   -9011.4091            0    10364.827    24.904842    25.035718    22.911373    14285.484    10183.631    11097.383    9813.4661   -497.26208   -1492.9716   -484.89904   -5779.7753 
 4052000    280.62307   -9020.2233   -7950.3602   -9020.2233            0    10753.507    24.951497    24.953372    22.882616    14247.265    9948.8544    11611.938     10699.73    18.230542    -848.4362    249.38921   -5715.9776 
 4053000    279.41465   -9017.1875   -7951.9314   -9017.1875            0     11935.99    24.977466    24.747043    22.952537    14187.386    12534.412    12314.147    10959.411    764.98355   -1373.2329   -968.49489   -5482.2739 
 4054000    276.97362   -8987.1222   -7931.1724   -8987.1222            0    11059.984    24.982579    24.902521    22.937835    14270.297    11209.265    10376.534    11594.154   -817.89179    40.292528    665.65121   -5629.3946 
 4055000    287.13549   -9010.8684   -7916.1769   -9010.8684            0    11581.353    25.092576    24.972068    22.733214    14244.939    11348.291    10720.055    12675.714   -537.70708   -129.88103    240.56119    -5510.176 
 4056000     284.0975   -8993.3714   -7910.2622   -8993.3714            0     11567.58    24.880517    24.927271    22.980943    14252.858    11937.187    11388.556    11376.997   -598.22181   -172.72348    -89.91761   -5505.7866 
 4057000    278.89276   -9013.4953   -7950.2289   -9013.4953            0    11269.438    24.862483    25.014351    22.956499     14277.08    11973.017    10716.527     11118.77   -666.26356   -1859.4417    461.17835   -5603.7453 
 4058000    268.75608   -8986.4156   -7961.7949   -8986.4156            0    11823.331    24.911502    25.006443    22.806046    14206.982    11245.668    10653.157    13571.167    691.59842   -261.54297     280.7677   -5512.0686 
 4059000    284.33005   -9020.7936   -7936.7977   -9020.7936            0    13038.682    24.672069    24.992206    22.974122     14166.06    14358.037    12464.891    12293.118   -278.32573     366.3265    378.88856   -5243.0393 
 4060000    272.05829   -9037.1181   -7999.9079   -9037.1181            0    11497.647     24.78543    24.996878    22.955168    14222.067    12625.937    11486.764    10380.239   -939.85629   -661.85338    600.58635   -5615.1319 
 4061000    280.30285   -9042.9902   -7974.3479   -9042.9902            0    10126.668    24.915206    24.984685    22.917477    14266.097    9483.2609    9343.1386    11553.605   -172.91711    475.45662    1034.2379   -5867.4298 
 4062000    281.65724    -9007.508   -7933.7022    -9007.508            0    12200.218    24.987256    24.896226    22.859992    14220.935    11313.721    12693.006    12593.926   -102.12031   -308.93013    540.20218   -5403.4043 
 4063000    288.26549   -8997.8476   -7898.8481   -8997.8476            0    10989.135    24.938448     24.95872    22.927417    14270.752    10251.975     11165.67    11549.761    64.430586   -750.71313    24.298739   -5611.7422 
 4064000    277.46515    -8973.665   -7915.8413    -8973.665            0    12208.978    24.863114    24.885972    22.976523    14216.557    13304.811    12775.931    10546.192    -761.7622   -1050.8951   -365.32909   -5384.5063 
 4065000    270.16227   -9031.2496   -8001.2678   -9031.2496            0    9238.5123    25.000524    24.963514    22.911562    14299.127     7977.428    11139.998    8598.1106    284.28584    1363.5933   -254.48912   -6074.6859 
 4066000    292.43631   -8988.4521   -7873.5516   -8988.4521            0     10698.31    24.944602    24.966603     22.96435    14301.783    10980.385     11240.37    9874.1754    531.73769    804.65323    211.67149   -5642.1319 
 4067000    278.99207   -9057.2826   -7993.6376   -9057.2826            0    10009.275    24.931846    24.873671    23.044772    14291.136    11387.987    9530.8162    9109.0212   -508.17913   -593.20737     1121.917   -5907.4889 
 4068000    277.15859   -9020.7992   -7964.1442   -9020.7992            0    10473.614     25.00686    24.959916    22.866913    14272.821     10007.61     10751.14    10662.092   -318.79717   -1423.7444    210.75705   -5784.0148 
 4069000    276.23485   -9032.7329   -7979.5996   -9032.7329            0     10977.31    24.835184    24.789464    23.144414    14248.879    11688.619    12120.251    9123.0614   -1042.0959    480.21505    422.00016   -5698.4565 
 4070000    275.79456   -9026.3393   -7974.8847   -9026.3393            0    11331.496    25.010083     24.91749    22.841452     14234.53    10497.261    11055.902    12441.324    121.92619   -1273.8281     952.0617   -5622.5113 
 4071000     281.1986   -9018.7118   -7946.6545   -9018.7118            0    10194.953     24.96967    24.831673    23.101993    14324.129     9512.303    11775.418    9297.1368   -117.42995    294.51058    119.64044   -5816.9011 
 4072000    287.88548   -9015.9262   -7918.3755   -9015.9262            0    9710.0957    25.029975    24.913312    22.940973    14305.522    9014.9541    9945.3418    10169.991     166.8353    568.07884   -46.845611    -5892.545 
 4073000    275.84009    -9083.311   -8031.6828    -9083.311            0    11034.948    24.917058    24.937874    22.937811    14253.062    9864.5335    10576.779    12663.532   -304.93464     -87.3472    1895.5052   -5737.8891 
 4074000      286.953   -9016.0716   -7922.0759   -9016.0716            0    11461.203    25.037747    25.109277    22.649965    14239.574     11494.61     9871.337    13017.663   -448.85256     602.2137    190.62834   -5541.9327 
 4075000    286.74734   -8992.9298   -7899.7181   -8992.9298            0    12111.543    24.859625    24.887329    23.012835    14237.803    12371.351    12045.151    11918.127    398.03933    939.68056   -670.11225   -5384.8318 
 4076000     280.7497   -9008.4088   -7938.0629   -9008.4088            0     12193.49    24.808965     24.90854    22.975344    14197.731    12154.416    13080.897    11345.158   -837.96367    705.39283    1042.1403   -5413.2868 
 4077000    272.34142   -9033.2591   -7994.9694   -9033.2591            0     11083.58    24.707897    25.101719    22.923334    14217.297      12343.7    10142.372    10764.667    200.95359   -422.48839     424.3853    -5696.848 
 4078000    281.40519   -8987.3992   -7914.5543   -8987.3992            0    11220.505    24.859594    24.972852    23.004108    14281.294     12091.97    10815.998    10753.546    140.46246   -800.70841   -234.22484   -5577.5697 
 4079000    286.20033   -9058.0941   -7966.9679   -9058.0941            0    10505.131    24.905279    25.035831    22.867312    14258.326    10582.279    9869.2297    11063.885    457.61454     433.8147    1022.7137   -5782.4988 
 4080000    274.53896   -9008.4822   -7961.8145   -9008.4822            0    10383.239    24.907864     24.98319    22.963654    14289.774    10612.421    10510.786     10026.51    -842.4488   -515.43874    174.13679   -5797.9299 
 4081000    285.68936   -9004.4773   -7915.2992   -9004.4773            0    12589.401    24.850403    24.837558    23.009526    14202.016    12745.971    12398.813    12623.418    1130.6352   -26.079281    682.22934   -5307.7593 
 4082000    279.91683   -9015.4896    -7948.319   -9015.4896            0    12796.862    24.906479    24.958392    22.777225    14158.908    12150.931    12797.719    13441.937   -219.36687    708.47916    308.03554   -5305.8546 
 4083000    270.18438   -9030.3867   -8000.3206   -9030.3867            0    12617.696    24.779703    24.911241    22.959037    14172.457    12986.109    12805.254    12061.725   -545.37125   -295.35313    1493.8535   -5392.3596 
 4084000    295.30792   -9025.5771   -7899.7286   -9025.5771            0    10885.141    24.858528    24.981024    22.986617    14274.494    11769.164    11266.588    9619.6706    308.72923   -1046.2567    857.56605   -5633.6724 
 4085000    283.52529   -9051.6056   -7970.6779   -9051.6056            0    9953.5085    24.874176    25.059168    22.898144    14273.012    11054.637    8989.4318    9816.4564    1081.7563   -1206.3443    773.57116    -5898.783 
 4086000    277.79945   -9003.2133   -7944.1151   -9003.2133            0    10170.768    24.926334    25.120232    22.867655    14318.703     10740.81      9168.01    10603.483   -955.68933   -4.3514934    1134.2744   -5820.2188 
 4087000    281.93576   -9034.9485   -7960.0808   -9034.9485            0    11178.452    24.735824    24.900943    23.104492    14231.105    11605.845    11811.866    10117.643   -1275.6921   -1224.3177   -274.05651   -5640.0372 
 4088000    298.06126   -9030.3107   -7893.9652   -9030.3107            0    12081.935    24.920787    24.863187    22.920128    14201.545    12101.208    11642.041    12502.557   -382.01171   -525.55881   -248.45152   -5391.6156 
 4089000    277.11219   -9061.0154   -8004.5374   -9061.0154            0    12646.372    24.894196     24.88376    22.888693    14178.657     11932.25    12421.579    13585.287   -10.286676   -513.61964   -234.92799   -5389.5058 
 4090000    285.73181   -9026.3618   -7937.0218   -9026.3618            0    11112.873    24.890606     24.89948    23.039416    14278.981    11006.761    12744.649    9587.2104    669.43004   -767.60543    43.211513   -5622.8294 
 4091000    279.58981    -9062.823   -7996.8991    -9062.823            0    10618.188    24.909856    24.862309    23.010889    14251.023    10368.807    10956.527     10529.23    724.11979    119.71204    343.38313   -5790.0515 
 4092000    285.73997   -9034.0947   -7944.7236   -9034.0947            0    11003.962    25.058244    24.884077    22.862164    14255.731    10586.098    12143.781    10282.007    -626.7734   -584.10507    333.20512   -5656.9424 
 4093000      281.296   -9010.1245   -7937.6959   -9010.1245            0    9689.8796    25.015674    24.833851    23.039534    14312.977    10761.309    9715.0628    8593.2669   -803.36876     389.7979   -195.03655   -5915.0296 
 4094000     278.0295   -9021.6339   -7961.6586   -9021.6339            0    10429.381    24.944062    25.003712    22.944376    14310.273     10189.11    10168.978    10930.055   -847.96378    282.35119   -519.01847     -5785.04 
 4095000    276.23227   -9080.1796   -8027.0562   -9080.1796            0    9743.6995    24.892197    25.103393    22.870915    14291.546    9377.5465    10341.867     9511.685   -175.38777    635.07381   -879.90713   -5996.2009 
 4096000    284.58671   -9034.1648   -7949.1905   -9034.1648            0    10359.402    24.852659    24.958552    23.019291    14278.553    10512.928    10164.842    10400.436   -396.69655    866.52999    145.19902   -5791.9688 
 4097000    287.98484   -9046.2247   -7948.2951   -9046.2247            0    9483.6294    24.963849    25.168969    22.817455    14336.534    9942.8104    8185.5471    10322.531    951.54066    734.56155   -160.77164   -5965.4233 
 4098000    270.42332   -9053.4137   -8022.4367   -9053.4137            0    9654.9767    24.904835    25.030363    22.894149    14271.687    9388.1666    9438.5536     10138.21   -533.01643   -41.834735    -1364.595   -6012.8699 
 4099000    282.50057   -9015.2078   -7938.1868   -9015.2078            0    9537.8868    24.907866    25.000909    23.022542    14336.582    9168.8288    10166.715    9278.1165    265.20702     57.02762   -545.70165    -5943.964 
 4100000    273.15931   -9037.1521   -7995.7442   -9037.1521            0    10178.641    24.970508    24.936215    22.912664    14267.027    10428.088    9518.1835    10589.651   -19.887091   -796.59331   -974.73271   -5877.8748 
 4101000    287.83237   -9046.7258   -7949.3775   -9046.7258            0    10822.549    24.898803    24.812028    23.026847    14225.751    10706.366    11691.414    10069.868   -191.74853   -702.84103     758.9139    -5704.045 
 4102000    285.37252   -9002.4232    -7914.453   -9002.4232            0    10461.167    24.961255    24.976717    22.913507     14285.43    10188.635    10881.833    10313.032    47.434425    189.53022   -151.02547   -5734.9909 
 4103000    287.98574   -9038.1921   -7940.2591   -9038.1921            0     9592.624    24.955219    24.965635    22.992968    14325.145    9445.1109    9561.7672    9770.9939   -1171.6965    568.65053    1233.9091   -5936.1917 
 4104000    285.33097   -9061.9533   -7974.1416   -9061.9533            0    9154.4273    24.868591    24.935364    23.155488    14358.888    10047.699    8975.6242    8439.9585    211.55375    -178.2982    601.88962   -6057.1161 
 4105000    286.28451   -9031.5857   -7940.1385   -9031.5857            0    9310.4062    24.988468    25.073028    22.845094    14313.287    9237.4287    8139.7906    10553.999   -641.01973   -701.57704   -181.95026   -5996.6415 
 4106000    277.22992   -9046.7271   -7989.8002   -9046.7271            0    11405.957    24.870518    24.890873     22.93777    14199.601    11225.659     12125.61    10866.603    383.51593   -527.88185    81.798273    -5627.779 
 4107000    282.48004   -9032.7012   -7955.7585   -9032.7012            0    10154.415    24.756633    25.057356    23.047759    14297.349    10702.621    10045.555    9715.0692    1258.9397   -1681.5706    629.25229   -5838.4393 
 4108000    282.18355   -9030.2036   -7954.3913   -9030.2036            0    10553.956    24.874653    25.094911    22.855263    14266.877    11800.957    8661.9415     11198.97    984.48276   -1172.1288    -1170.579   -5758.4532 
 4109000    279.75461   -9042.5193   -7975.9672   -9042.5193            0    9824.0464    24.827682    25.028651    23.032546    14312.502    10928.837    9745.4233    8797.8786   -762.28346   -1166.0897    230.01087   -5925.3629 
 4110000    281.67529   -9047.9831   -7974.1084   -9047.9831            0    10749.405    24.832277    24.974634    22.982135    14252.992    12293.401    10144.859    9809.9535    374.34844    1191.7266    312.94316   -5739.6805 
 4111000    280.70567    -9024.144   -7953.9659    -9024.144            0    10816.007    24.935511    25.044679     22.84923    14269.387    10791.781    10685.971    10970.268    405.58388   -297.11264    151.47427   -5703.1075 
 4112000    279.50299   -9014.3684   -7948.7755   -9014.3684            0    9440.4504    25.000354    24.982081    23.007393    14369.518    8470.6203     10915.63    8935.1015    -710.1162   -873.57153   -473.41868   -5970.3906 
 4113000    282.96484   -9039.6653   -7960.8743   -9039.6653            0    9879.7796    24.913248    25.002403    22.968557    14306.909    9419.6427    9658.6746    10561.021    379.92514   -567.55858    920.65565   -5899.4426 
 4114000     287.3201   -8981.0015   -7885.6062   -8981.0015            0    10322.341    25.075877    24.996765    22.809771    14297.525    7994.5656    11424.448    11548.011    -78.87648    248.77705    1593.8753    -5733.246 
 4115000    280.59431   -8971.3708   -7901.6174   -8971.3708            0    11305.629    24.932934     24.90994    23.032201    14304.791    10931.906    11360.417    11624.563   -367.67948    883.23101   -663.65908   -5543.0292 
 4116000    273.67711   -9019.3194   -7975.9374   -9019.3194            0    11397.821    24.973799    24.874946    22.906472    14230.002    11596.405    11455.439    11141.619   -107.42651   -117.21673    657.03499   -5610.5478 
 4117000    279.79837   -9083.9023   -8017.1833   -9083.9023            0    9713.4158    24.919043    25.061249     22.83523    14260.655    10008.163    8062.1545     11069.93   -42.707101    595.92127   -203.97154    -5997.016 
 4118000    265.59064   -9015.8247   -8003.2721   -9015.8247            0    11993.677    24.726136    24.903256    23.084829    14214.744    12772.518    13477.818    9730.6941    817.02991    494.93786     1034.347   -5516.8934 
 4119000    285.25615   -9038.9985    -7951.472   -9038.9985            0    10854.555    25.010299    24.947663    22.830766    14245.222    9546.3582    11079.341    11937.965    263.69126    328.40633   -975.06356    -5696.417 
 4120000    274.61981   -9015.0096   -7968.0336   -9015.0096            0    11148.894    24.938509    24.865407     22.98992    14256.192     10551.52    12040.869    10854.293    142.99301    -166.9595    306.95436   -5650.0455 
 4121000    280.91377   -9027.3612   -7956.3897   -9027.3612            0     11866.14    24.912049    24.885293    22.903493    14198.875    11637.587    12252.617    11708.215   -550.56485    -1398.241   -57.254855   -5499.1966 
 4122000     283.7511   -9014.2604   -7932.4718   -9014.2604            0    10428.157    25.011984     24.92212    22.915852    14284.635    9739.5941    11139.125    10405.751    -80.36282    -723.1085   -924.46664   -5760.0078 
 4123000    277.76052   -9056.7402   -7997.7904   -9056.7402            0    9499.5152    24.848337    24.932348     23.12562    14326.955    11300.627    9165.0943    8032.8247   0.60763641   -256.67114    246.03901   -6012.9242 
 4124000    276.97616   -8972.0588   -7916.0993   -8972.0588            0    10591.467    25.017553    25.035854    22.876335    14328.268    10611.347    9723.2194    11439.836   -469.65508    -998.9035   -1250.2839   -5702.8736 
 4125000    280.79452   -8981.2259   -7910.7091   -8981.2259            0    10092.846    24.796509    24.982088    23.114023    14318.411    10950.152     9857.474    9470.9123   -130.79795    350.10418    1548.2564   -5803.1277 
 4126000    282.93202   -9043.4753   -7964.8094   -9043.4753            0    10734.182    24.925527    25.004651    22.881329    14260.882    9993.0221    10408.054    11801.471   -64.075656    187.98253    881.33123   -5732.3106 
 4127000    276.84431   -8996.5059   -7941.0491   -8996.5059            0    9764.1535    24.962348    24.974898    22.983323    14328.541    9769.2467    9831.8596    9691.3542    317.26663    775.77036    848.29004   -5900.6625 
 4128000    284.98494   -9072.3507   -7985.8581   -9072.3507            0    9362.4641    24.895166    24.958355    23.050078    14321.991    9808.5948    8928.4825    9350.3149   -379.52491   -290.30473    498.67292   -6030.3058 
 4129000    281.95049    -8998.423   -7923.4991    -8998.423            0    10767.279    25.003958    25.118995    22.695924    14254.727     10914.09    9135.0273     12252.72    903.38604   -648.15305   -209.74329   -5685.0833 
 4130000    275.04687   -9047.4869   -7998.8828   -9047.4869            0    10965.004    24.846844    24.933917     22.98477    14239.735    11828.036    10207.797     10859.18   -408.59704   -324.29097    -534.4679   -5721.7593 
 4131000    278.53957   -9061.7271   -7999.8072   -9061.7271            0    11342.063    24.960858    24.865092    22.878213    14199.455    11467.863     11275.76    11282.567    -173.3006    467.81587   -1093.5417   -5651.0419 
 4132000    280.56192   -9043.8751   -7974.2451   -9043.8751            0    9531.5099     25.01799    24.894696    22.976511    14310.121    9683.8783    10509.505    8401.1465    77.338744    -875.0527    560.30027   -5985.0338 
 4133000    278.64718   -9042.3806   -7980.0504   -9042.3806            0    9075.4249    24.933794    25.050282    22.935232    14325.313     8334.407    9689.5068    9202.3607    879.79999   -7.2494593    1129.9506   -6084.0127 
 4134000    269.95859   -9042.0629   -8012.8577   -9042.0629            0    10503.697    24.949944    24.960428     22.93344    14282.059    10102.076     11185.25    10223.764    401.57107    668.97809   -231.69913   -5825.0513 
 4135000    272.43286   -9064.7531   -8026.1148   -9064.7531            0    10385.312    24.804026    24.857597    23.124762    14257.999    11630.681    11347.427    8177.8279    237.04481   -694.49941   -553.59924   -5866.6107 
 4136000    277.72134   -9019.9388   -7961.1384   -9019.9388            0    9953.6712    24.936902    25.065752    22.896881    14311.975    9619.7044    9961.7839    10279.525   -372.60923     12.31285    474.64885   -5883.5537 
 4137000    274.23566    -9037.257   -7991.7456    -9037.257            0    10459.324    24.898967    25.032238    22.882938    14262.406    9165.9301    11048.699    11163.342   -9.8298936   -81.385709   -721.85632   -5816.1795 
 4138000    279.19842   -9019.2924   -7954.8607   -9019.2924            0    11280.357    24.807024    24.929965    23.046154    14252.622    12413.743    11068.256    10359.073   -1239.0704   -1639.6779    190.18865    -5610.127 
 4139000    274.80538   -9044.0644   -7996.3809   -9044.0644            0    12618.964    24.844972    24.985443    22.785015    14144.086    13245.701    11323.469    13287.723    203.74988   -1988.1073    2054.8681    -5393.379 
 4140000    282.56989   -9023.5438   -7946.2586   -9023.5438            0    11849.186    24.819979    24.939891    22.979045    14224.203    11874.313    12028.312    11644.935    438.80759    408.15273    981.92379   -5488.1992 
 4141000    276.28487   -9047.9342   -7994.6103   -9047.9342            0    10469.225    24.897195    24.878671    23.038464    14270.235    9782.2631    12122.719    9502.6918    180.98089   -535.06339    228.32294   -5815.7894 
 4142000    276.82317   -9052.5749   -7997.1987   -9052.5749            0    10188.353    25.076891    24.962996    22.827316     14289.77    9955.7979    10115.174    10494.087   -546.09541    128.67361    400.21881   -5873.9292 
 4143000    275.94179   -9003.3972   -7951.3812   -9003.3972            0    10430.976    24.924025    24.918502    22.991893     14279.56    11074.389    10532.281    9686.2593    705.93648    464.78855    267.57823   -5779.1018 
 4144000    280.21537   -9042.5318   -7974.2231   -9042.5318            0    9583.9406    25.001735    24.893961     23.01332    14323.311    8396.5761    10529.377     9825.869    600.06291   -69.733557    -225.1489    -5972.226 
 4145000    291.95821    -9003.297   -7890.2191    -9003.297            0     11166.21    25.035564    24.687706    23.108134     14282.46    10993.518    11291.868    11213.243    75.435759    327.19384   -590.17812   -5564.3532 
 4146000    279.89571   -9045.8029   -7978.7128   -9045.8029            0    9719.5263    24.945313    25.068185    22.840409    14282.878    8553.0634    10459.482    10146.034    -734.2228     507.5071    530.16943   -5954.1245 
 4147000    280.01661   -9032.7564   -7965.2053   -9032.7564            0    11302.906     24.76942     24.96394    23.052063    14254.066    11821.213    11332.029    10755.476    143.13539     -949.695    125.10317   -5615.5466 
 4148000    277.41058   -9060.3977   -8002.7821   -9060.3977            0    11386.941    24.843639    24.953094    22.917141    14206.924    13114.791    11012.746    10033.286   -520.47877   -110.30034    -202.2244   -5643.4829 
 4149000    278.70943   -9017.2937   -7954.7263   -9017.2937            0    10331.919    25.009924    25.039882    22.817893    14289.604    10431.585    9427.8268    11136.345    262.73842    1984.5523   -759.77778   -5801.5624 
 4150000    275.78941   -9025.5099   -7974.0749   -9025.5099            0    10205.153    24.937893    24.886834    23.049918     14305.36    9658.6723    11243.037    9713.7485   -532.23978   -893.49368   -436.50903   -5844.9841 
 4151000    275.39868   -8995.8755   -7945.9302   -8995.8755            0    10857.632    25.024918    24.952643    22.872928    14282.722    10529.494    10419.434    11623.967     759.4409   -158.50029    824.64079    -5684.298 
 4152000     269.8285   -9027.2015   -7998.4922   -9027.2015            0    10537.749    24.913769    24.889578    23.034849    14283.753    11162.012    9885.9817    10565.252     37.15487   -509.22453    278.79089   -5803.3328 
 4153000    282.46516   -9018.1099   -7941.2239   -9018.1099            0    9210.3623    25.037921    24.928765    22.910399    14299.857    8537.6402    10022.266     9071.181   -620.70691    195.14101    288.37403   -6020.4145 
 4154000    272.65669   -9043.4941   -8004.0025   -9043.4941            0    9949.2554    25.083604    24.829727    22.926237    14278.897    8523.7622     10812.04    10511.964   -93.203747    904.96681   -87.689573   -5932.1391 
 4155000    276.74549    -9009.227   -7954.1469    -9009.227            0    11351.654    24.938457    24.750447    23.057908    14232.216    11175.358    12447.621    10431.983    191.34842     474.2221    1030.1532   -5597.9718 
 4156000    266.72422    -9069.703   -8052.8286    -9069.703            0    11050.062    24.882666    24.900922    22.953476    14222.004    10720.221     10896.01    11533.956   -277.83828   -715.40114    271.61368   -5760.8983 
 4157000    276.50859    -9028.428   -7974.2512    -9028.428            0    10376.676    24.898749    25.017622    22.923617    14279.293     11155.36    10883.879    9090.7894   -290.89295   -167.93029   -1021.0095   -5813.3204 
 4158000    281.78071   -9030.9348   -7956.6582   -9030.9348            0    10687.936    24.867846    24.952022    22.992649    14267.009    10393.745    10323.888    11346.174    319.28054     1673.562    420.38656   -5732.8227 
 4159000     288.8259   -9028.2176   -7927.0815   -9028.2176            0    11716.557    24.971913    24.971895    22.801837    14219.134    11975.089    10124.913    13049.669   -391.19618   -951.49876    706.34976   -5497.4017 
 4160000    274.90597   -9002.7243   -7954.6574   -9002.7243            0    12738.012    24.923663    24.859784     22.87973     14176.21     11180.32    13435.936    13597.779    230.39038    817.39512    727.15535    -5321.131 
 4161000    278.69156   -9067.9274   -8005.4281   -9067.9274            0    12185.334    24.826526    24.849537    22.927108    14144.368    13340.341    12031.574    11184.085    204.84051   -456.73825    757.77981   -5491.8242 
 4162000    280.79002   -9018.5656    -7948.066   -9018.5656            0    12021.772    25.073368    24.844678    22.801591    14204.017    10561.988    12457.306    13046.021     -304.913   -30.692382   -151.78858   -5457.7437 
 4163000    280.13546   -9004.8814   -7936.8773   -9004.8814            0    11307.245    24.910191    24.956324    22.926762    14252.807    11070.582    11637.373    11213.779   -195.16849    -150.1923    830.05963   -5586.5244 
 4164000    272.27876   -9029.7255   -7991.6747   -9029.7255            0    10867.504    24.961793    24.942287     22.92632    14274.023     10294.14    10986.692    11321.682   -376.88497    -805.6673   -496.30441   -5729.3647 
 4165000    277.58632   -9005.2378   -7946.9521   -9005.2378            0    11275.657    24.892229    25.074512      22.7766    14216.254    11884.066    9456.4957    12486.409   -20.770267    378.61537    1177.2769   -5609.1759 
 4166000    287.34227   -9029.9465   -7934.4667   -9029.9465            0    9938.4312    24.838659    24.983677    23.061284    14310.935    11055.847    9233.2778     9526.169     -511.038    874.78117   -629.46998   -5860.2138 
 4167000    266.17138   -9048.9773   -8034.2106   -9048.9773            0      9493.28    24.897957    25.059639    22.937331    14311.376     9512.455    9004.0264    9963.3585    353.53128   -574.95133   -214.09028   -6052.8041 
 4168000    284.80715   -8998.3104   -7912.4956   -8998.3104            0    10596.714    24.969474     24.93539    22.965151    14298.644    10412.801    10853.482    10523.858    411.41892   -525.56186    993.92276   -5702.7517 
 4169000    273.71663   -9004.9349   -7961.4022   -9004.9349            0    10641.093     25.01286    24.786927    23.018555    14271.318     9037.634    12031.047    10854.599     462.0454   -1119.4077    1267.5757   -5746.6445 
 4170000    271.52071   -8994.8822   -7959.7214   -8994.8822            0    12149.341    24.926074    24.941464    22.853968    14208.147    12104.007    11241.353    13102.662    134.44907   -1688.9422   -127.14644   -5442.2413 
 4171000    278.37997    -9030.511   -7969.1996    -9030.511            0    11111.091    24.845123     25.02675    22.918599    14250.617    10949.662    10968.228    11415.382     486.2478    889.45231    184.85076   -5659.9746 
 4172000    271.27663   -8998.7952    -7964.565   -8998.7952            0    11511.145    24.894787    25.004248    22.911082    14261.586    11264.537    12094.818    11174.081     -113.127    962.72711    438.03261   -5570.3549 
 4173000    286.41115   -9035.9772   -7944.0473   -9035.9772            0     12319.67    24.741572    24.965698    22.984594    14197.368    12820.686     12954.95    11183.375   -1092.9153   -706.62686    -247.2912   -5393.2096 
 4174000    281.46431   -9041.2951   -7968.2248   -9041.2951            0    12139.123    24.871477    24.924224     22.89062    14189.947    11070.205    12405.539    12941.626    104.02184   -241.05441    626.37441   -5456.0839 
 4175000    281.24055   -9039.4182   -7967.2009   -9039.4182            0    10657.389     24.89342    24.933372    22.981381    14264.012    11897.849    10068.336     10005.98   -296.32628   -457.64623    85.110607   -5750.1872 
 4176000    277.17904    -9042.644   -7985.9111    -9042.644            0    11837.994    24.987177    24.850694     22.84015    14182.561    11201.189    12151.123     12161.67   -647.77792    440.18604    397.17198   -5537.3628 
 4177000    282.70003   -9030.8953   -7953.1138   -9030.8953            0    10444.004    25.012188    24.820935    22.985485    14269.985     10665.94    11207.477    9458.5955     290.7953    891.13095    507.09053   -5779.5799 
 4178000    280.19391   -9037.8687   -7969.6417   -9037.8687            0    10459.013     25.02869    24.812699    22.985438    14274.632      10162.5    10734.553    10479.987   -299.61265    999.27673   -69.757409   -5792.2754 
 4179000    282.96104   -9047.8266   -7969.0501   -9047.8266            0    10380.909    24.960342    24.882702    22.971503    14267.158    10044.996    11579.355     9518.377    749.63618   -900.81518    1912.2153   -5809.0749 
 4180000    282.69438   -9067.7501   -7989.9902   -9067.7501            0    10768.531    24.879192    24.975592    22.937909    14252.987    10474.826    10341.528     11489.24    90.253269    170.71148   -449.11882   -5751.5873 
 4181000    284.92326   -9042.1321   -7955.8747   -9042.1321            0    12228.859    24.840203    25.047166    22.793814    14181.779     13527.78    11040.751    12118.045     1062.647   -959.89106   -274.23361   -5426.6202 
 4182000      275.241    -8958.924   -7909.5798    -8958.924            0    12018.639    24.786966    25.090054    22.894563    14238.273    13165.466    10451.617    12438.833   -105.27659    656.37313    1372.9218   -5413.9021 
 4183000    286.00746   -9050.6564   -7960.2655   -9050.6564            0    10845.236      24.8195    24.981352    22.944727    14226.297    11336.433    10448.201    10751.073   -363.28692   -61.671151    694.01099     -5710.14 
 4184000    287.76457   -9039.1981   -7942.1083   -9039.1981            0    11342.309    24.891187    24.981682    22.883591    14229.559    11911.838    10684.133    11430.956    561.02403    457.48711  -0.83265605   -5588.3124 
 4185000    286.23855    -8983.974   -7892.7021    -8983.974            0    11851.551    24.916494    25.012583    22.804321    14212.243    12537.929    12045.454     10971.27   -81.617838   -214.58604   -11.455954   -5436.2194 
 4186000    295.19528   -9035.9023   -7910.4833   -9035.9023            0    11199.759     24.83674    24.886977    23.053304     14249.51     12448.54    11894.668    9256.0697     1273.899   -534.84649   -189.39759   -5583.0111 
 4187000    274.21956   -9066.5108   -8021.0607   -9066.5108            0    10260.014    24.931806    24.938655    22.917401    14249.254    10109.533    10098.107    10572.401   -535.58157    19.164777    552.81732   -5888.9195 
 4188000    287.39038   -9003.3206   -7907.6574   -9003.3206            0    11926.449    24.934582    24.785474    22.969369    14195.425    12632.906    11824.097    11322.343    376.58818    94.405501    282.83765   -5438.5758 
 4189000    272.62724   -9051.1027   -8011.7233   -9051.1027            0    11909.132    24.900954    24.918704    22.856146    14182.227        12738     12114.54    10874.855   -282.21142    915.38899   -943.25226    -5548.519 
 4190000    277.16524   -8960.2425   -7903.5622   -8960.2425            0    10861.823    24.958844    25.047551    22.845988     14282.35    10171.033    11241.349    11173.088      727.438   -684.10509    98.801347   -5641.1158 
 4191000    283.56798   -9026.7645   -7945.6741   -9026.7645            0    10834.473    24.834359    24.919937    23.043749      14261.1    12241.035     10408.08    9854.3042    46.958769   -610.48694   -1033.4551   -5692.2823 
 4192000    282.81443   -9009.6967   -7931.4792   -9009.6967            0    11363.044     25.07457     24.97873    22.767575    14260.036    11016.048    10633.319    12439.765    -11.60831    880.42454     219.5738   -5568.3297 
 4193000    283.33091   -9038.6495   -7958.4628   -9038.6495            0    11340.477     24.96747    24.919305    22.875883    14232.734    10555.929    11810.155    11655.347    167.20728    953.77638    1377.9619    -5604.522 
 4194000    282.13472   -9035.9574   -7960.3312   -9035.9574            0    11718.528    24.767985    25.047673    22.938467    14230.576    13210.524     10876.19    11068.872    978.03519   -951.76407   -60.953551   -5528.2872 
 4195000    281.09064   -9025.2245   -7953.5788   -9025.2245            0    10780.195    24.847674    25.063294     22.89907    14260.729    10720.714    10358.021     11261.85   -197.54047    1018.2694    672.87851   -5711.5342 
 4196000    283.96228    -9008.954   -7926.3602    -9008.954            0    11802.623    24.807143    25.022018    22.930239    14233.367    12226.119    11201.758    11979.992   -1003.7404   -651.25147    642.28927   -5476.3828 
 4197000    282.87672   -9035.8403   -7957.3852   -9035.8403            0    10808.253    24.808332    24.965295    22.997683    14243.553    11418.231     10489.44    10517.088    600.01259    45.853893    39.674132   -5712.2127 
 4198000    284.47477   -9023.7309   -7939.1833   -9023.7309            0    11171.995     24.96718     24.94399    22.876714    14247.185    10458.431    11686.428    11371.125   -207.51426   -580.44559    1135.8365   -5617.8598 
 4199000    286.19841   -9003.6303   -7912.5114   -9003.6303            0    11433.673    24.878712    24.767787    23.088826    14227.119     10871.67    14560.736    8868.6142   -100.98898   -435.38733   -614.44932   -5540.1622 
 4200000    275.00096   -9006.0791   -7957.6501   -9006.0791            0    10914.505    25.085207    24.950794    22.812095    14277.995    8748.2041    11388.159    12607.151     507.3021   -1415.8428    1004.5757   -5684.9237 
 4201000    291.06703   -9017.2405   -7907.5603   -9017.2405            0    12146.216    24.917774    24.922884    22.865814    14200.192    9695.2728    13585.305    13158.071   -865.50289     634.5517    957.89085   -5392.1368 
 4202000    285.84347   -9043.9627    -7954.197   -9043.9627            0    12690.932    24.802372    24.867451    22.989511    14179.282    12968.603    13586.472    11517.721   -272.97707    176.60149    -12.58817   -5329.8356 
 4203000    272.18436   -9039.8601   -8002.1692   -9039.8601            0      12498.7     24.95233    24.945621    22.745666     14158.07     11591.21    12054.889    13850.001   -864.65505    19.427537    292.91956   -5421.4259 
 4204000    282.63577   -9001.6742   -7924.1377   -9001.6742            0    12495.309    24.865149    24.816352    23.043834    14219.481     11621.48    13316.839    12547.609   -1200.3114   -510.50858    243.53986   -5332.9037 
 4205000    282.05635   -9072.1109   -7996.7835   -9072.1109            0    11491.236    24.854894    24.935358      22.9206    14205.401    12116.721    9894.2014    12462.786    8.6273045   -1226.6562    478.43237   -5616.1303 
 4206000    266.89129   -9071.1429   -8053.6316   -9071.1429            0    10292.297    24.848417    25.059733     22.89455    14256.315    10661.762    9171.5442    11043.584   -228.37091     194.9867    1099.7569   -5913.7218 
 4207000    277.92895   -9008.0062   -7948.4142   -9008.0062            0    12136.983    24.791919    24.916524     22.99485    14204.573    13254.436    11533.862    11622.652    -247.6895    509.63362    517.01774   -5434.1274 
 4208000    278.89621   -9019.9064   -7956.6268   -9019.9064            0      11620.8    24.968961    24.871015    22.892828    14216.525    10215.893      12743.3    11903.206   -196.24141    411.24288   -385.76239   -5547.2466 
 4209000    280.15745   -8987.2087   -7919.1208   -8987.2087            0    11416.079    25.005216    24.894637    22.917741    14266.197    11282.575    11402.509    11563.152    924.15698    235.39506    -110.1218   -5543.9159 
 4210000    277.69759   -8998.7335   -7940.0237   -8998.7335            0    11446.753    24.997637     24.87295    22.933085    14258.989    10575.898    12127.883    11636.479    697.39252   -413.75412    727.58473   -5559.6401 
 4211000    284.90214    -9001.301   -7915.1241    -9001.301            0    11414.185    24.892624    24.782015    23.083755    14240.123    11241.059     13271.99     9729.506   -80.191694    465.20425   -62.858062   -5544.6536 
 4212000    279.39132   -9033.6721    -7968.505   -9033.6721            0    11043.039    24.962517    24.898831    22.937588    14256.571    10512.025    11870.127    10746.965   -86.285882   -179.82012   -155.00374   -5672.4643 
 4213000    280.57146   -9034.8498   -7965.1834   -9034.8498            0    11372.862    25.107844    24.948763    22.747934    14249.525    9975.8072        10902    13240.779   -41.204773   -284.21371   -149.18725   -5601.7355 
 4214000    278.57647   -8998.5956    -7936.535   -8998.5956            0    11774.291     24.90689    24.897464    22.951986    14232.949    12065.348    10685.239    12572.285   -274.06049   -202.90059   -144.81507   -5492.5107 
 4215000    277.97307   -9052.8851   -7993.1249   -9052.8851            0     10830.42    24.889368    24.914625    22.920243    14213.055     10601.36    9960.8692    11929.031   -356.70288    -812.8915   -47.678669   -5748.1648 
 4216000    273.75278   -9043.9475    -8000.277   -9043.9475            0    11942.072    24.871975     24.90529    22.910319    14191.654    11642.153    11688.142    12495.919    102.64391   -889.52902    481.06448   -5528.6179 
 4217000    290.22242   -9018.7227   -7912.2625   -9018.7227            0    12500.706    24.836544    25.061267    22.763786    14168.983    13709.575    10862.716    12929.826   -846.99497    50.045683    1107.0616   -5329.1156 
 4218000    272.46707   -8996.3157    -7957.547   -8996.3157            0    11031.046     24.78725    24.948381    23.104894    14288.107    11125.104    10791.919    11176.115   -165.08079   -1074.7463    48.506274   -5658.9264 
 4219000    275.58865   -9052.0029   -8001.3332   -9052.0029            0     10372.98    24.975391     25.04465    22.786564    14252.994     9143.022    10936.126    11039.793    187.48736    -717.2291    764.50669   -5845.1506 
 4220000    280.40324   -9039.4819   -7970.4569   -9039.4819            0    10761.533    24.975491    24.872211    22.955274    14259.717    9760.2293    11241.459    11282.911   -602.81872    198.32657   -247.74712   -5732.4524 
 4221000    272.94478   -9013.2101   -7972.6202   -9013.2101            0    11275.505    25.085591     24.77974    22.928735    14252.832    9963.8274    11925.468    11937.218   -426.43554   -1512.1044    1003.0315   -5628.8606 
 4222000    283.67436   -9064.5512   -7983.0552   -9064.5512            0    11968.768    24.952959    24.862699    22.869751    14188.346    9642.0012    12690.187    13574.116   -513.34379    -1103.435    839.86998   -5506.4481 
 4223000    281.69096   -9032.6068   -7958.6724   -9032.6068            0    11303.236    24.719426    24.931959    23.102949    14238.434    13140.313    10499.876     10269.52    520.16122     823.7668     669.9753    -5611.522 
 4224000    288.48269   -8966.6767   -7866.8491   -8966.6767            0    13987.128    24.867415    24.887209    22.874945    14156.859    13849.931    13109.089    15002.364    726.51868    1630.5212     586.1231    -4979.021 
 4225000    281.09364    -9045.893   -7974.2359    -9045.893            0    11295.128    24.906249    24.939421    22.925802    14240.303    10966.606    11763.876    11154.902    -23.86402   -115.94513   -415.88916   -5628.4613 
 4226000    287.66073   -9045.4585   -7948.7646   -9045.4585            0    11622.332    24.815098    24.967183    22.918219    14199.283    12897.178    10684.321    11285.496   -908.13823   -47.242079    150.27952   -5541.9892 
 4227000    281.89563   -9018.1858   -7943.4711   -9018.1858            0     9515.115    25.020812    24.989236    22.934639    14339.905    8381.1571    9047.5555    11116.632   -476.32879   -324.88298    801.87528   -5953.5484 
 4228000    282.30573   -9016.5532    -7940.275   -9016.5532            0    9354.1792    25.054556    24.880238    23.005113    14340.543    8471.6815    10598.696    8992.1607    10.486004    254.30361    970.74377   -5983.9222 
 4229000    285.82458   -9061.3908   -7971.6971   -9061.3908            0    10223.736    24.879225    25.013058    22.933206     14271.46    11465.673    8901.2642    10304.269    57.666705   -710.47948    432.79467    -5843.784 
 4230000    282.58934   -9008.0583   -7930.6988   -9008.0583            0    9868.6268    24.905847    25.075808    22.935648    14324.097    10019.814    9068.1323    10517.934    -1695.172    655.03503    1427.9912   -5869.1204 
 4231000    294.33174   -9042.9687   -7920.8419   -9042.9687            0    9978.3263    24.879616    25.001777    23.000807    14307.298    10459.173    9965.6328    9510.1729   -225.32394   -27.408893   -1050.5812   -5838.7916 
 4232000    281.42162   -9016.7975     -7943.89   -9016.7975            0     11173.58    24.846252    25.081975    22.838882    14233.033    12553.409    9145.1813    11822.148    1155.9699    -471.1109    1254.9537   -5624.5432 
 4233000    276.31166   -8966.3689   -7912.9428   -8966.3689            0    11650.781    24.907356    24.868155    22.983704    14236.106    9723.9697    12583.431    12644.942   -249.31763   -585.45414    966.18999   -5494.0192 
 4234000    286.45856   -9036.6827    -7944.572   -9036.6827            0    10699.702    25.097926    24.974575    22.704828    14231.614     10613.73    9099.9781    12385.398   -640.83808    83.618235    1057.9322   -5723.8115 
 4235000    278.61724    -9039.664    -7977.448    -9039.664            0    11013.766    24.930275    24.807812    23.016506    14234.917    11866.608    10773.825    10400.864    871.49088    69.426491    795.44135    -5690.972 
 4236000    288.51958   -9030.4172    -7930.449   -9030.4172            0    12603.511    25.015222     24.81677     22.86176    14192.512    11649.078    13466.565    12694.891    26.011246   -251.18557    137.37982   -5321.7334 
 4237000    285.00929    -9065.326   -7978.7406    -9065.326            0    10390.115    24.928625    24.921579    22.932331    14246.956    10087.055    10840.218    10243.072   -628.48879   -904.37779   -781.63132   -5819.9112 
 4238000    284.98893   -8978.8152   -7892.3074   -8978.8152            0    10353.825    24.869069     25.10876    22.926628    14316.108    11929.123    9909.4577     9222.895   -159.01673    37.193946    902.90178   -5730.5762 
 4239000      281.199   -9020.4809   -7948.4221   -9020.4809            0    9799.5398    24.872388    24.945709    23.034906    14292.223    10468.169    10387.671    8542.7797   -176.04602   -1092.7995   -272.11349   -5905.8314 
 4240000    281.90968   -8997.4248   -7922.6565   -8997.4248            0    10325.336    25.141954    24.986795    22.761607    14299.225    7832.1614    10838.383    12305.465    322.15259   -251.55811   -262.79775   -5769.4157 
 4241000    286.90413   -9033.9897   -7940.1803   -9033.9897            0    10830.636    24.911132     24.82639    23.077895    14272.604    10796.716    11609.036    10086.155   -947.65367    755.25591   -310.32061   -5685.7694 
 4242000    299.41919   -9063.8406    -7922.318   -9063.8406            0    10034.906    24.954743    25.006565    22.836248    14250.559    9074.7604    11405.748    9624.2102   -123.64595    1369.8061    166.04386   -5836.7656 
 4243000    284.68651   -9052.7482   -7967.3934   -9052.7482            0    10074.769    24.815386    25.044704    22.984162    14284.519    11652.231    8302.0318    10270.043     281.8541    135.20602    1096.0054   -5868.5667 
 4244000    279.40263    -9055.735   -7990.5248    -9055.735            0    9348.0926    24.825141    25.146415     22.92272    14309.812    9622.8502      8445.37    9976.0578   -627.82656   -1460.3001    448.41007   -6039.6345 
 4245000    280.96335   -9013.4691   -7942.3087   -9013.4691            0    11083.281    24.901695    25.014963    22.865885    14243.502    10981.804    10296.719     11971.32   -91.186679   -266.98748    239.57014   -5640.0135 
 4246000    282.37839   -9041.5673   -7965.0121   -9041.5673            0    10861.187    24.848572     24.73298    23.149506    14227.206    12148.778    10966.902    9467.8815   -223.85057    459.07078   -1099.7574    -5711.433 
 4247000    285.71647   -8998.4761   -7909.1946   -8998.4761            0     11080.92    25.003073    24.974782    22.854484    14271.397    10138.686    11552.791    11551.284   -483.53649    1458.4559   -737.59572   -5602.8817 
 4248000    283.12714   -9078.4253   -7999.0156   -9078.4253            0    9369.7497     24.90727    25.000333    22.967406    14301.575    9121.6065    9808.7117    9178.9309    990.80951   -989.57359   -68.066722   -6044.7312 
 4249000     271.2936    -9059.225   -8024.9301    -9059.225            0    10791.769    24.792051    25.004989    22.985866    14249.512    12152.384    9244.3529     10978.57    711.04104    29.389607    -342.1101   -5782.2439 
 4250000    277.29544   -8972.4425   -7915.2658   -8972.4425            0     11121.55    24.874591    25.095933    22.871649    14277.652    10722.575    10443.778    12198.297    129.83904    128.69622   -159.54915    -5599.482 
Loop time of 585.774 on 64 procs for 250000 steps with 1920 atoms

Performance: 73.749 ns/day, 0.325 hours/ns, 426.786 timesteps/s
99.1% CPU use with 64 MPI tasks x 1 OpenMP threads

MPI task timing breakdown:
Section |  min time  |  avg time  |  max time  |%varavg| %total
---------------------------------------------------------------
Pair    | 62.315     | 65.198     | 68.041     |  13.7 | 11.13
Bond    | 0.27056    | 0.27952    | 0.29223    |   0.9 |  0.05
Kspace  | 246.16     | 262.31     | 278.65     |  47.8 | 44.78
Neigh   | 6.6318     | 8.2824     | 10.698     |  35.4 |  1.41
Comm    | 91.663     | 114.76     | 132.37     |  83.9 | 19.59
Output  | 0.95188    | 0.97104    | 0.9819     |   0.7 |  0.17
Modify  | 116.15     | 126.19     | 133.62     |  40.4 | 21.54
Other   |            | 7.79       |            |       |  1.33

Nlocal:        30.0000 ave          33 max          26 min
Histogram: 1 4 6 0 10 20 0 13 5 5
Nghost:        2824.11 ave        2860 max        2789 min
Histogram: 4 5 4 13 7 9 6 4 11 1
Neighs:        10642.2 ave       11854 max        9227 min
Histogram: 1 7 2 6 12 11 10 6 4 5

Total # of neighbors = 681098
Ave neighs/atom = 354.73854
Ave special neighs/atom = 2.0000000
Neighbor list builds = 13372
Dangerous builds = 0

unfix		3
unfix		2
unfix		1

write_data	data.final.${pid}
write_data	data.final.0
System init for write_data ...
PPPM initialization ...
  extracting TIP4P info from pair style
  using 12-bit tables for long-range coulomb (../kspace.cpp:340)
  G vector (1/distance) = 0.37440991
  grid = 30 30 30
  stencil order = 5
  estimated absolute RMS force accuracy = 0.0032804211
  estimated relative force accuracy = 9.8788907e-06
  using double precision FFTW3
  3d grid and FFT values/proc = 3600 512
Last active /omp style is kspace_style pppm/tip4p/omp
WARNING: Not all mixed pair coeffs generated from mixing. Use write_data with 'pair ij' option to store all pair coeffs. (../write_data.cpp:312)

write_restart   restart.lmp.${pid}
write_restart   restart.lmp.0
System init for write_restart ...
PPPM initialization ...
  extracting TIP4P info from pair style
  using 12-bit tables for long-range coulomb (../kspace.cpp:340)
  G vector (1/distance) = 0.37440991
  grid = 30 30 30
  stencil order = 5
  estimated absolute RMS force accuracy = 0.0032804211
  estimated relative force accuracy = 9.8788907e-06
  using double precision FFTW3
  3d grid and FFT values/proc = 3600 512
Last active /omp style is kspace_style pppm/tip4p/omp
Total wall time: 0:09:48
