LAMMPS (30 Jul 2021)
Processor partition = 0
  using 2 OpenMP thread(s) per MPI task
using multi-threaded neighbor list subroutines
variable        pid world 0 1
variable        phase world IceII IceIh

shell cd ${phase}
shell cd IceII
include Restart.lmp
echo both
log log.lammps
#include		in.partitions
include		in.temp
variable        temperature equal 152.60
variable	tempDamp equal 100.0
include		in.pressure
variable        pressure equal 2066.8
variable        pressureDamp equal 1000.0 # This is 1 ps
include		in.seed
variable        seed equal 745823

units		real
atom_style	full
box tilt large
read_restart	restart.lmp.${pid}
read_restart	restart.lmp.0
Reading restart file ...
  restart file = 30 Jul 2021, LAMMPS = 30 Jul 2021
  restoring atom style full from restart
  triclinic box = (-10.677291 -9.2371600 0.042973686) to (12.657291 12.227158 21.817025) with tilt (-9.0624376 1.9609466 2.9847928)
  4 by 2 by 4 MPI processor grid
  restoring pair style lj/cut/tip4p/long/omp from restart
  restoring bond style harmonic/omp from restart
  restoring angle style harmonic/omp from restart
  1296 atoms
  864 bonds
  432 angles
Finding 1-2 1-3 1-4 neighbors ...
  special bond factors lj:    0        0        0       
  special bond factors coul:  0        0        0       
     2 = max # of 1-2 neighbors
     1 = max # of 1-3 neighbors
     1 = max # of 1-4 neighbors
     2 = max # of special neighbors
  special bonds CPU = 0.002 seconds
  read_restart CPU = 0.011 seconds
include 	in.setup
variable	out_freq equal 1000
variable	out_freq2 equal 10000
variable	out_freq3 equal 1000

timestep	2.0

neigh_modify    delay 7 every 1

include		in.tip4p
# This is TIP4P/Ice

# create groups ###
group ox type 2
432 atoms in group ox
group hy type 1
864 atoms in group hy

# set charges - beside manually ###
set group ox charge -1.1794
Setting atom values ...
  432 settings made for charge
set group hy charge 0.5897
Setting atom values ...
  864 settings made for charge

# ### TIP3P Potential Parameters ###
pair_style lj/cut/tip4p/long/omp 2 1 1 1 0.1577 8.5
pair_coeff 1 1*2 0.000 0.000
pair_coeff 2 2 0.21084 3.1668
bond_style  harmonic
bond_coeff  1 450 0.9572
angle_style harmonic
angle_coeff 1 55 104.52
kspace_style pppm/tip4p/omp 1.0e-5
pair_modify tail yes

thermo          ${out_freq}
thermo          1000
thermo_style    custom step temp pe etotal epair emol press lx ly lz vol pxx pyy pzz pxy pxz pyz enthalpy

restart 	${out_freq3} restart.lmp.${pid} restart2.lmp.${pid}
restart 	1000 restart.lmp.${pid} restart2.lmp.${pid}
restart 	1000 restart.lmp.0 restart2.lmp.${pid}
restart 	1000 restart.lmp.0 restart2.lmp.0


include         in.dump
dump            myDump all atom ${out_freq2} dump.water.${pid}
dump            myDump all atom 10000 dump.water.${pid}
dump            myDump all atom 10000 dump.water.0
dump            myDump2 all dcd ${out_freq2} dump.dcd
dump            myDump2 all dcd 10000 dump.dcd
dump_modify     myDump append yes
dump_modify     myDump2 append yes


variable natoms 	equal  "count(all)"                        # NUMBER ATOMS
variable H      	equal  "enthalpy/v_natoms"                 # ENTHALPY-per-atom
variable Vol      	equal  "vol/v_natoms"                 # volume-per-atom
fix AVG all 		ave/time ${out_freq} 1 ${out_freq} v_Vol v_H file vol_enthalpy.dat
fix AVG all 		ave/time 1000 1 ${out_freq} v_Vol v_H file vol_enthalpy.dat
fix AVG all 		ave/time 1000 1 1000 v_Vol v_H file vol_enthalpy.dat


timer           timeout 10:00:00 every 1000
New timer settings: style=normal  mode=nosync  timeout=10:00:00

fix 		1 all shake 1e-6 200 0 b 1 a 1
Finding SHAKE clusters ...
       0 = # of size 2 clusters
       0 = # of size 3 clusters
       0 = # of size 4 clusters
     432 = # of frozen angles
  find clusters CPU = 0.001 seconds
fix             2 all nph tri ${pressure} ${pressure} ${pressureDamp}
fix             2 all nph tri 2066.8 ${pressure} ${pressureDamp}
fix             2 all nph tri 2066.8 2066.8 ${pressureDamp}
fix             2 all nph tri 2066.8 2066.8 1000
fix             3 all temp/csvr ${temperature} ${temperature} ${tempDamp} ${seed}
fix             3 all temp/csvr 152.6 ${temperature} ${tempDamp} ${seed}
fix             3 all temp/csvr 152.6 152.6 ${tempDamp} ${seed}
fix             3 all temp/csvr 152.6 152.6 100 ${seed}
fix             3 all temp/csvr 152.6 152.6 100 745823


run             250000
PPPM initialization ...
  extracting TIP4P info from pair style
  using 12-bit tables for long-range coulomb (../kspace.cpp:340)
  G vector (1/distance) = 0.36593167
  grid = 30 40 32
  stencil order = 5
  estimated absolute RMS force accuracy = 0.0048537097
  estimated relative force accuracy = 1.4616803e-05
  using double precision FFTW3
  3d grid and FFT values/proc = 7888 1280
Last active /omp style is kspace_style pppm/tip4p/omp
Neighbor list info ...
  update every 1 steps, delay 7 steps, check yes
  max neighbors/atom: 2000, page size: 100000
  master list distance cutoff = 10.8154
  ghost atom cutoff = 10.8154
  binsize = 5.4077, bins = 7 5 5
  1 neighbor lists, perpetual/occasional/extra = 1 0 0
  (1) pair lj/cut/tip4p/long/omp, perpetual
      attributes: half, newton on, omp
      pair build: half/bin/newton/tri/omp
      stencil: half/bin/3d/tri
      bin: standard
Setting up Verlet run ...
  Unit style    : real
  Current step  : 17500000
  Time step     : 2
  Walltime left : 9:59:59.92
Per MPI rank memory allocation (min/avg/max) = 10.65 | 10.66 | 10.66 Mbytes
Step Temp PotEng TotEng E_pair E_mol Press Lx Ly Lz Volume Pxx Pyy Pzz Pxy Pxz Pyz Enthalpy 
17500000    155.59319    -6574.186    -6173.932    -6574.186            0    1677.7192    23.334581    21.464318    21.774052    10905.771     1251.173    1569.1617    2212.8228   -279.58843   -698.99639    1134.1279   -5907.0917 
17501000    156.82857   -6616.3488   -6212.9169   -6616.3488            0    2554.3666    23.323525    21.307215    21.760194    10813.932    2539.0336    3680.5444    1443.5218   -753.57492    -90.94446    369.30977   -5810.0674 
17502000     156.8169   -6614.9547   -6211.5528   -6614.9547            0    1734.4703    23.463306    21.450415    21.615635    10879.099    737.15622    1944.4607    2521.7939    662.23126   -259.01024   -539.06887   -5936.3608 
17503000    155.35141   -6616.9609   -6217.3289   -6616.9609            0    2055.7368    23.315146    21.432697    21.778689    10882.952    912.80023    1400.6224    3853.7879    1124.2225   -112.33486    678.31494   -5891.0491 
17504000    153.08635   -6633.4465   -6239.6412   -6633.4465            0    1193.1859    23.322795    21.412039    21.902276    10937.747    1000.5267    2349.2243    229.80663    761.98539    166.91464   -112.48717   -6049.3092 
17505000    150.27026   -6605.4642   -6218.9031   -6605.4642            0    1262.4294    23.371574    21.341211    21.891434    10918.959    1055.1722    2276.8074    455.30859   -169.27641    39.570667    457.33623   -6017.8716 
17506000    155.19665   -6605.3182   -6206.0842   -6605.3182            0    2721.7456     23.42949    21.409609    21.688548    10879.327     580.1693    3628.5768    3956.4907    554.12261    438.62877    543.62482   -5774.2417 
17507000    149.24185   -6611.4715   -6227.5559   -6611.4715            0    2251.1357    23.318196    21.423295     21.71006    10845.316    2661.9451    2183.3348    1908.1273    506.02845   -935.40856    572.00185   -5871.4987 
17508000    150.22944   -6594.3264   -6207.8703   -6594.3264            0    3099.7889    23.226787    21.403319    21.797427    10836.162    2987.3192    3597.0525    2714.9949    119.96441    672.84262    182.65713   -5717.9973 
17509000    157.71601    -6593.607   -6187.8922    -6593.607            0    3153.0812    23.250489    21.546629    21.640699    10841.334    3635.3563    2126.7938    3697.0936    152.93891   -956.58397   -406.21832   -5689.3594 
17510000    161.97982   -6623.2812    -6206.598   -6623.2812            0    1592.4941    23.260938    21.566522    21.678256    10875.061    1654.9382    1515.6647    1606.8792    1393.1724    567.85312    461.70743   -5954.0259 
17511000    148.90328   -6601.2167    -6218.172   -6601.2167            0    1629.5077    23.301978    21.540865    21.716176    10900.321    1849.2966    814.70142    2224.5252   -399.46748   -307.02368   -445.85095   -5959.1292 
17512000    149.74683   -6577.6767   -6192.4621   -6577.6767            0    2280.0502    23.360335    21.337006    21.831235    10881.553    2047.2364    2654.3711     2138.543   -331.26909    146.13847   -247.31384   -5830.6266 
17513000     153.1469    -6590.955   -6196.9939    -6590.955            0    1746.8411    23.516757    21.254507    21.792762     10892.83    1266.1511    1808.5218    2165.8505   -653.82756    225.45646   -710.11017   -5919.4894 
17514000    146.25899   -6609.6066   -6233.3642   -6609.6066            0    1749.6575    23.511933    21.175694    21.886113    10896.691   -122.76735    3811.9461    1559.7938   -705.46723    592.34834   -326.91798   -5955.3138 
17515000    155.21293   -6612.1998    -6212.924   -6612.1998            0    1987.1004    23.471149    21.312661    21.740054    10875.084     1844.564    2013.9838    2102.7533    830.53226   -410.91051    79.171386    -5897.766 
17516000      158.907   -6629.2142   -6220.4356   -6629.2142            0    1769.1004    23.368074    21.378867    21.809684    10895.746    1872.1938    1737.1298    1697.9776   -433.38968    606.67917   -144.72869   -5939.3197 
17517000    155.47057   -6619.4106    -6219.472   -6619.4106            0    2092.0481    23.259355    21.467151    21.827772    10898.871    2454.9006     2352.462    1468.7816   -624.68649   -355.56558   -366.00804   -5886.9434 
17518000    148.63856   -6617.0809   -6234.7173   -6617.0809            0     3400.149    23.186381    21.442068    21.753322    10814.968    4163.0047    3792.8463    2244.5961   -955.76198    146.57304   -248.20661    -5698.428 
17519000    155.37964   -6621.0772   -6221.3726   -6621.0772            0    2055.0869     23.20938    21.548445    21.703518    10854.495    2619.2279    1485.1418     2060.891   -40.800646     631.2381   -954.58809   -5896.0489 
17520000    154.60856   -6624.0502   -6226.3291   -6624.0502            0    1072.4047     23.32555    21.562752    21.671119    10899.772     838.5794    732.44552    1646.1891   -259.84214     1079.883    357.66017   -6055.8575 
17521000    149.59651   -6621.6337   -6236.8058   -6621.6337            0    1084.8258    23.363077    21.508432    21.707305    10907.989    327.51055    813.87337    2113.0935    756.02395    109.62471    102.20097   -6064.2297 
17522000    157.90108   -6618.1958   -6212.0049   -6618.1958            0    3051.6244    23.349514     21.26247    21.800897    10823.455    3304.1418     3325.555    2525.1766   -562.05245    917.92502    559.20753   -5730.3091 
17523000    157.34979   -6632.2545   -6227.4818   -6632.2545            0    2736.5977    23.455232    21.243934    21.731146    10828.226    2572.3527    2950.7233    2686.7172    91.806479   -1168.3499   -173.19117   -5795.3222 
17524000    162.83245   -6590.8464   -6171.9698   -6590.8464            0    1898.7584    23.459103    21.370858     21.74528    10901.804     1045.036    2995.3514    1655.8878   -754.87258    323.51589   -116.41421   -5870.0831 
17525000    156.38354   -6596.7545   -6194.4674   -6596.7545            0     1365.393    23.429842    21.404741    21.786194    10925.987    1354.5435    2044.4748    697.16067   -83.730196   -336.92402   -981.01077   -5976.8998 
17526000     154.1892   -6592.5493    -6195.907   -6592.5493            0    1725.0839    23.345167    21.458241     21.78559    10913.409    2324.8831    1655.4074    1194.9614   -355.46332   -458.82209    428.91697   -5921.3411 
17527000    153.91635   -6600.1845   -6204.2441   -6600.1845            0    2071.2427    23.271061    21.523325     21.73064    10884.239    2140.6571    1174.1511    2898.9198    30.045855    1104.2705     80.69723   -5875.4644 
17528000    148.22841   -6618.8683   -6237.5598   -6618.8683            0    1853.2573    23.235533    21.527656    21.741739    10875.361    2482.7212    786.98831    2290.0623   -243.90516   -379.90804   -484.20248   -5943.6221 
17529000    152.70986   -6619.0625   -6226.2257   -6619.0625            0    1514.5064    23.233494    21.444096    21.830073    10876.207     1066.442    2225.4982    1251.5789    372.68349    865.44495    470.87792   -5985.9973 
17530000    165.42842   -6619.3118   -6193.7572   -6619.3118            0    2317.0008    23.366265    21.428338      21.7611    10895.787    1665.3193    2930.5591    2355.1238   -53.655228    109.62707   -631.42188   -5825.5768 
17531000     154.6857   -6595.3472   -6197.4276   -6595.3472            0    1482.2265    23.447571    21.360031    21.745617    10891.093    1292.3203    2092.9276    1061.4316    893.57837    557.95336    156.29411   -5961.9976 
17532000    155.41556   -6600.7503   -6200.9533   -6600.7503            0    1874.3898    23.447294    21.395177    21.695718    10883.852    1962.8375    2697.6474    962.68455   -249.57689   -1087.1768    91.020255   -5903.4317 
17533000    149.19258   -6602.8937   -6219.1049   -6602.8937            0    2129.7215       23.327     21.43657    21.779526    10890.871    2582.0915     1805.687    2001.3861    929.30642   -860.25142   -775.48711   -5880.8366 
17534000    151.49648   -6618.2106   -6228.4951   -6618.2106            0    1469.3466    23.277361    21.431064     21.84089    10895.516     1198.889    2230.3503    978.80047   -874.65747    516.78011   -323.38203   -5995.0161 
17535000    153.44926   -6628.2403   -6233.5014   -6628.2403            0    1308.7238    23.321707    21.464814    21.784117    10905.044    377.92896    1631.3431    1916.8994    612.54386   -19.405667    263.39678   -6025.3634 
17536000    153.37398   -6621.6992    -6227.154   -6621.6992            0    2638.7985    23.324227    21.419498    21.679048    10830.706    2355.1409    2535.9028     3025.352    60.892294    306.21913    193.13168   -5810.3432 
17537000    151.33531   -6602.6506   -6213.3498   -6602.6506            0     2567.583    23.380509    21.471319    21.632915    10859.948    2691.7559    2527.0681     2483.925    1899.7462   -859.99985   -458.07112   -5806.6929 
17538000    155.35079   -6617.8908   -6218.2604   -6617.8908            0    1346.1643    23.290959    21.401037    21.886293    10909.238    327.56807    2018.5146    1692.4103    767.40481    175.05323    1480.8603   -6004.0856 
17539000    148.29665   -6596.0881    -6214.604   -6596.0881            0     1579.658    23.256624    21.367651    21.975539    10920.512     1098.766    2387.6833    1252.5246      461.609    304.47408   -282.44656   -5963.0206 
17540000    150.66256   -6615.5376   -6227.9673   -6615.5376            0    1855.2849    23.382061    21.379463    21.785066    10890.265    1685.8523     2538.806    1341.1964    471.65997   -691.57422   -803.10278   -5933.3048 
17541000    154.17261   -6622.9046   -6226.3049   -6622.9046            0     2110.625    23.494006    21.375197    21.603834    10849.208    572.93045    2269.9568    3488.9878    173.85467    477.38338    1242.0195   -5892.3522 
17542000    147.33116     -6600.58   -6221.5795     -6600.58            0    2510.9962    23.319722    21.425595    21.730721    10857.514    3154.6931    1891.4508    2486.8447   -290.11063   -336.21229   -298.87392   -5823.9741 
17543000    156.97349   -6611.7839   -6207.9792   -6611.7839            0     2638.509     23.20855    21.437833    21.869833    10881.139    4017.8553    1930.6824    1966.9894   -837.24829    40.608275    66.384218   -5789.2735 
17544000    150.30091   -6597.9005   -6211.2606   -6597.9005            0    2446.5293    23.296624    21.444483    21.778339    10880.111    1863.7129    2728.7224    2747.1526     604.1615   -340.02258    274.30882    -5823.057 
17545000    142.91353   -6626.4327   -6258.7963   -6626.4327            0    1927.9398    23.441515    21.474191    21.527176    10836.512    1096.9374    1940.3793    2746.5028    142.34496    50.524347   -278.78703   -5954.1058 
17546000    155.81504    -6611.698   -6210.8733    -6611.698            0    1774.3734    23.323699    21.446565    21.751832    10880.554    2244.4101      1595.84      1482.87    431.42829   -237.91001   -623.09845   -5929.3127 
17547000     147.5731   -6611.1442   -6231.5214   -6611.1442            0    1737.4667    23.158789    21.385517     21.97031    10881.074    1747.0398     3496.046   -30.685753   -243.27451    160.70558   -615.19605    -5955.804 
17548000    155.03748   -6602.0233   -6203.1989   -6602.0233            0    2402.5315    23.324165    21.369312    21.818821    10874.966    2662.1235    3295.5104    1249.9606    154.46967   -157.30495   -1187.8642   -5822.1568 
17549000     155.2828   -6600.5583   -6201.1027   -6600.5583            0    2246.4715    23.389693    21.481096    21.595001    10850.111    2575.9759    1613.4793    2549.9592    -666.6785     -566.845    80.789446   -5845.6262 
17550000    153.32956   -6606.9468   -6212.5158   -6606.9468            0    2592.8051    23.300438    21.480385    21.686335    10854.062    3394.8725    2341.8403    2041.7027   -54.025534   -362.49539    323.07662   -5802.0868 
17551000    153.63589   -6594.9759   -6199.7569   -6594.9759            0    1354.0004    23.204013    21.537483    21.828819    10909.084    2016.7953    1568.4872    476.71876   -194.56666    52.364518   -510.93839   -5984.3384 
17552000    153.75174   -6629.2635   -6233.7465   -6629.2635            0    878.50047    23.224547    21.543441    21.871855    10943.291    1042.0444    869.93044    723.52661    1854.6993    202.76533   -347.34679   -6093.5407 
17553000    155.78234   -6628.5383   -6227.7977   -6628.5383            0    2107.7479    23.320856     21.45703    21.729718     10873.47    2220.2858      2494.31    1608.6478    854.48605   -243.90163    251.45275   -5893.5544 
17554000    157.97081   -6612.2572   -6205.8869   -6612.2572            0    3083.5931    23.409196    21.510566    21.519908    10836.243    2567.4864    2293.9987    4389.2942    694.10479   -804.33813    359.04258   -5718.5698 
17555000    153.10595   -6607.0246   -6213.1689   -6607.0246            0    2717.7575    23.341984    21.344817    21.773854    10848.396    2548.3058    3097.3271    2507.6397     441.6125   -249.27618   -347.73594   -5783.1851 
17556000    161.33954   -6608.4552   -6193.4191   -6608.4552            0    1382.4712    23.318345    21.274988    22.003929    10916.094    1560.7255    3174.8677   -588.17952   -137.03992   -469.71821   -633.29983   -5973.3296 
17557000    152.71979   -6606.8908   -6214.0284   -6606.8908            0     2829.809    23.397343    21.307872    21.776942    10856.842     2271.945    3703.9618      2513.52   -405.95522    278.39749   -398.27335    -5765.968 
17558000    154.73907   -6616.2754   -6218.2186   -6616.2754            0    2796.8957    23.392381    21.432914    21.647887    10853.534    2671.8276    2370.7838    3348.0756   -323.23811    1030.1316    241.70535   -5775.5045 
17559000    152.75189   -6605.0414   -6212.0964   -6605.0414            0    1827.4685    23.360877    21.564467    21.608705    10885.706     1730.725    628.92976    3122.7507    29.513546    696.34479    334.72849   -5921.9733 
17560000    150.60937   -6628.2283   -6240.7949   -6628.2283            0    1833.4649    23.156253    21.450163    21.907365    10881.507    2739.7908    2368.9959    391.60809    253.41636   -20.312447    -387.4595    -5949.832 
17561000    153.66597   -6615.2925   -6219.9961   -6615.2925            0    1455.2099    23.231423    21.440315    21.937807    10926.981    1855.0133    1916.9806     593.6357    1072.7526   -398.82888    258.47004   -5988.0956 
17562000    153.40886    -6604.891   -6210.2561    -6604.891            0    1504.9766     23.36512    21.466956    21.765156    10916.923    661.17853    2184.6176    1669.1338    520.82308    584.49868    317.29688   -5970.6456 
17563000    162.60666   -6608.6475   -6190.3517   -6608.6475            0    1854.0357    23.398805    21.507385    21.618961    10879.679    1054.4681    1401.6134    3106.0256    1330.8801    104.75852    526.21024   -5896.1738 
17564000    149.30785   -6608.4202   -6224.3348   -6608.4202            0    2560.5162     23.26632    21.472641     21.70608    10844.126    2746.9215    2563.0566    2371.5705   -681.93839   -149.07867    221.77814    -5819.388 
17565000    148.29623   -6626.7118   -6245.2288   -6626.7118            0    1934.7479    23.279398    21.408782    21.786882    10858.223    2139.7541    2570.1064    1094.3833   -2.9881201    219.38967    540.61627   -5938.8498 
17566000    159.77745   -6603.4726   -6192.4548   -6603.4726            0    2067.9202    23.429008    21.364581    21.728204    10876.073    2253.2952    1440.9678    2509.4977   -447.85999   -796.58828   -299.25786   -5864.4488 
17567000    150.99741   -6629.4457   -6241.0141   -6629.4457            0    1787.6465    23.413061    21.334703    21.829351    10903.994    1175.0428    1846.4633    2341.4333    994.45979   -61.303905    493.70621   -5956.7361 
17568000    147.44822   -6613.9269   -6234.6253   -6613.9269            0    1928.2216    23.362908    21.438158    21.729505     10883.39     1304.857    2517.8519     1961.956    700.22634    120.33375   -44.810106    -5928.572 
17569000    143.47323   -6619.3784   -6250.3023   -6619.3784            0     857.4574    23.264004    21.560177    21.767714    10918.164    1788.8226    413.53025    370.01931   -349.86691    139.25689   -198.34205   -6113.7691 
17570000    156.07324   -6621.2929    -6219.804   -6621.2929            0    1961.8527    23.282793    21.648553    21.563003     10868.59    2297.8614    1298.4584    2289.2382   -193.88009    410.62017     -765.373   -5908.8361 
17571000    156.89405   -6617.5381   -6213.9377   -6617.5381            0    2528.2239    23.273764    21.466297    21.697432     10840.07    2529.4569    2334.6462    2720.5686   -1309.9191    1437.3555    176.30106   -5814.2475 
17572000    153.07184   -6572.8351   -6179.0671   -6572.8351            0    2754.6112    23.237628    21.398989    21.841372    10860.879    2133.7124    3264.2279    2865.8933    516.97173     416.5172   -360.59029   -5742.7511 
17573000     147.0046   -6613.5093   -6235.3489   -6613.5093            0    1862.3247    23.271264     21.44982      21.8196    10891.568    2529.0789    2119.9661    937.92903    -335.0512   -78.128624   -809.76092   -5939.5329 
17574000    148.03725    -6600.115   -6219.2982    -6600.115            0    2399.5877    23.290959    21.431195    21.755055    10859.103    1583.5197    3362.2801    2252.9633    1101.2398    859.41662   -156.14179   -5839.2782 
17575000     155.2998   -6619.4515   -6219.9522   -6619.4515            0      2026.46    23.340614    21.543079    21.590504    10856.325    2769.9745    727.52711    2581.8782   -28.891785   -1636.9271   -294.95519   -5899.1061 
17576000    155.91948   -6617.3486   -6216.2552   -6617.3486            0    2395.3367    23.270681     21.39496    21.784302    10845.866    2015.1342    3090.4821     2080.394    218.01156    410.28358    417.04425   -5837.3708 
17577000    149.62443   -6616.0881   -6231.1884   -6616.0881            0    2919.4615    23.191195    21.318348    21.912153    10833.324    3479.7754    3971.2289    1307.3803     349.3871   -80.736844   -94.164982   -5769.9342 
17578000    158.85598   -6599.0134   -6190.3661   -6599.0134            0      1893.42    23.420283    21.400297     21.72996    10891.078     1221.388    1989.0487    2469.8234    924.55448   -928.81069   -799.99879   -5889.6244 
17579000    148.34752   -6611.9802   -6230.3653   -6611.9802            0    2895.3368     23.45773    21.263411    21.753255    10850.336    3052.5183    2790.7748    2842.7172   -1606.3297   -57.624091    565.14547   -5772.2042 
17580000    159.56575   -6605.9951   -6195.5219   -6605.9951            0    1665.8938    23.512406    21.320061    21.771275    10913.634    1332.0339    2064.3976    1601.2498   -273.83873    402.06605   -733.60952   -5930.3714 
17581000    148.58652    -6612.878   -6230.6482    -6612.878            0    1114.4965    23.374151    21.396435    21.795497     10900.44      622.804    1130.5306     1590.155   -185.69546   -409.43514    1097.3535   -6053.4747 
17582000    149.48241   -6612.4168   -6227.8824   -6612.4168            0    2980.5309    23.278672     21.48921    21.662004    10836.207    2620.6549    2391.9313    3929.0064    564.73887     648.0547   -99.469794   -5756.8543 
17583000    154.05738   -6616.2795   -6219.9763   -6616.2795            0     2251.568    23.133235    21.642423     21.66358    10846.071    3711.1965    537.23292    2506.2746    108.71175   -675.95006    237.43641   -5863.8259 
17584000    157.86495   -6594.4362   -6188.3383   -6594.4362            0    2063.8562    23.205864    21.566276    21.776901    10898.556    2975.2704    1657.1334    1559.1648    749.30799    384.45351    797.10977   -5860.3002 
17585000    154.26673   -6624.7993   -6227.9576   -6624.7993            0    1925.6756    23.218912    21.461149    21.827332    10876.659    2164.7804    2120.7411    1491.5054   -200.82012     156.3405     34.48583   -5922.4974 
17586000    152.66237   -6621.3809   -6228.6663   -6621.3809            0    1679.3143     23.38564    21.493819    21.630695    10872.598    1232.4691    1644.4762    2160.9976   -568.69621    309.80204   -48.698283   -5962.3846 
17587000    145.69579   -6610.0887   -6235.2951   -6610.0887            0    2711.2939    23.451313      21.3175    21.653366    10825.023    1831.2802    3043.3488    3259.2528     1081.676    1158.7502    221.51631   -5807.2581 
17588000    150.62361   -6597.8498   -6210.3798   -6597.8498            0    3545.3934    23.398224    21.308028    21.747262    10842.533    2613.6632    5146.9675    2875.5496   -41.875969   -1159.8008   -521.03715   -5649.7565 
17589000    147.73039   -6628.4838   -6248.4563   -6628.4838            0    2303.8351    23.387205    21.194951    21.891451    10851.388    1930.9242    3872.6109    1107.9703    771.72558    188.40479   -83.397105   -5883.8598 
17590000    151.81038   -6618.0775   -6227.5545   -6618.0775            0    383.95852    23.486258     21.43797     21.73946    10945.768   -981.19589    785.00217    1348.0693   -215.71985   -912.32323    834.96879   -6166.2622 
17591000    151.05535   -6625.1243   -6236.5436   -6625.1243            0    1340.0206    23.331982     21.49516    21.731526    10898.897    1995.0787    670.69444    1354.2886    353.00826   -328.56816   -344.16069   -6023.5484 
17592000    147.02314   -6595.6219   -6217.4138   -6595.6219            0    2780.2172    23.205879    21.564543    21.666929    10842.655    3902.1683    1281.6527    3156.8307   -595.89089   -242.13039    1143.5085   -5777.7808 
17593000    153.36966   -6613.3009   -6218.7668   -6613.3009            0     1142.473     23.28546     21.58385    21.715057    10913.768    989.34691    478.63245    1959.4397     1399.737    -715.3588     -505.454   -6036.9238 
17594000    151.12556   -6598.8628   -6210.1015   -6598.8628            0    1859.0177    23.267277     21.48059    21.815813    10903.431    2014.2606    1906.4485     1656.344   -542.10878   -366.79795    931.71008   -5914.4892 
17595000    148.33694    -6629.944   -6248.3562    -6629.944            0    1578.1242    23.349159    21.366279    21.849526    10900.393    1728.1686    1938.0328    1068.1711    140.39347   -215.12246   -148.91596   -5997.4802 
17596000    153.08849   -6597.7295   -6203.9187   -6597.7295            0     2656.613    23.445459    21.304271    21.787748    10882.728    2461.6282    3351.8212    2156.3897    157.18189    437.56346    1104.6771   -5782.2786 
17597000    154.18856   -6619.3724   -6222.7317   -6619.3724            0    1799.9579    23.438443    21.392877    21.674836    10868.104    1359.7802    1251.2445    2788.8489    -368.0396    1290.8373    362.02467   -5937.4382 
17598000    147.86855   -6625.8053   -6245.4225   -6625.8053            0    2302.6723    23.291171    21.461403    21.712302    10853.137    2148.5012    1849.8845    2909.6311    -237.3648    139.02959    15.314078   -5880.9512 
17599000    153.59585   -6608.6594   -6213.5434   -6608.6594            0      2295.47     23.17835    21.473959     21.85234    10876.586    3409.4403    2388.3561    1088.6137    -268.5467    -112.8434     -1243.31   -5849.4272 
17600000     151.5574   -6621.6264   -6231.7542   -6621.6264            0    915.47029    23.216185    21.546546    21.869186    10939.592     823.4983    1327.0449    595.86769    -706.5983    330.58636    173.58125   -6085.6976 
17601000     150.8263    -6627.581   -6239.5895    -6627.581            0    1490.5512    23.387952    21.506614    21.687045    10908.489    1669.8937    1702.9138    1098.8462   -167.17231    1043.1878   -921.13207    -6002.459 
17602000    152.54706   -6618.0364   -6225.6184   -6618.0364            0    2571.2153     23.34049    21.355737    21.784184      10858.4    1945.2262    4230.1527     1538.267    1111.7055    333.65576    262.91385   -5818.4443 
17603000    150.79051   -6586.5049   -6198.6055   -6586.5049            0    3265.6263    23.385147    21.354843    21.700594    10836.976    3385.0302    2742.3325    3669.5161    176.98034   -811.10136   -469.77563   -5682.4858 
17604000    156.74497   -6614.7602   -6211.5433   -6614.7602            0    1562.6242    23.389671     21.34443    21.769133    10868.004     1570.256    1586.3298    1531.2868   -313.27128    782.47175    546.25157   -5963.8694 
17605000    152.67408   -6602.5256   -6209.7809   -6602.5256            0    1078.6392    23.436329    21.422225     21.75419    10921.872    616.21094    1141.6388    1478.0677   -531.11048   -763.20504   -673.04445   -6037.9706 
17606000    155.21717   -6629.1164   -6229.8297   -6629.1164            0    2120.7061    23.276037    21.501464    21.693186    10856.764    2061.7023    2179.7302    2120.6858   -454.50967    399.78697    210.21522   -5894.0482 
17607000     146.3858   -6605.8408   -6229.2723   -6605.8408            0    2493.0162    23.253096     21.59931    21.641039    10869.229    2398.0882    1362.9996    3717.9608   -408.01995    203.09037    457.70182   -5834.0879 
17608000    149.58437   -6607.6194   -6222.8228   -6607.6194            0    1322.2775    23.294948     21.48933    21.766582    10896.195    2366.8035    629.56801    970.46085    322.34604   -203.58482   -135.81793   -6012.6999 
17609000    154.61938   -6625.7394   -6227.9904   -6625.7394            0     2286.997    23.302949    21.332129    21.823976    10848.731    2422.5348    1987.4636    2450.9928    444.91431    -325.5026    1484.6839   -5866.1472 
17610000    148.84402   -6611.7877   -6228.8955   -6611.7877            0    2561.2366    23.398208    21.311858    21.784527    10863.057    2972.1435    3031.3742    1680.1922   -187.50056   -862.18817   -584.07107   -5823.1276 
17611000    147.22792   -6593.5994   -6214.8646   -6593.5994            0    1554.4846    23.466153    21.298151     21.74134     10866.01    648.92625    2662.2713    1352.2562   -469.27573    86.588083    124.84387    -5968.526 
17612000    150.92137   -6607.1647   -6218.9287   -6607.1647            0    1864.5583    23.410339    21.410599    21.746754    10900.112    1564.5144    2564.9748    1464.1856     842.5196    -659.4539   -358.40875   -5922.5255 
17613000    157.36613   -6622.8339   -6218.0191   -6622.8339            0    1446.3368    23.261307    21.409832    21.868368    10890.899    2679.2009    846.56784    813.24162   -455.22462   -490.87709    518.98475   -5988.2937 
17614000    157.07748   -6613.8464   -6209.7742   -6613.8464            0    1805.8595    23.316529    21.572074      21.6503    10889.795     1502.018     454.1498    3461.4108    196.92397    867.40922    351.16075   -5922.9739 
17615000    157.81277   -6617.5025   -6211.5387   -6617.5025            0      1842.57    23.383847    21.557033    21.558205    10867.197    1271.2726    1682.5101    2573.9273   -1172.6365    770.52618    317.71208   -5919.5155 
17616000    143.66507    -6614.745   -6245.1753    -6614.745            0    2222.2804    23.196815    21.472254    21.796256    10856.452    1979.6395    2233.8618      2453.34    86.255618    645.37392    218.32554   -5893.3212 
17617000    146.10322   -6635.9575   -6260.1159   -6635.9575            0     1863.248     23.22943    21.458812    21.818835    10876.165     2288.771    1506.9088    1794.0642   -432.06282   -196.15624   -203.41926   -5964.5718 
17618000    150.63247   -6624.7363   -6237.2435   -6624.7363            0    620.88897    23.414319    21.471033    21.738381    10928.528   -721.97297    1040.6553    1543.9846    583.99229    611.40419   -80.995405   -6138.2853 
17619000    155.09185   -6627.8321   -6228.8678   -6627.8321            0    1281.0912    23.443371    21.443982    21.663001    10890.408    1163.6845    605.24787    2074.3411   -435.50683   -447.22838    851.22925   -6025.3979 
17620000    154.14784   -6624.6955   -6228.1596   -6624.6955            0    2000.8911    23.304071    21.418898    21.775398    10869.135     1728.594    1855.3031     2418.776    58.462726    88.832099   -133.74854   -5910.9879 
17621000    147.22369   -6604.2916   -6225.5676   -6604.2916            0    2380.4661    23.216974    21.373824    21.906544    10870.805    2963.1786    3103.8015    1074.4182    263.70818    175.59808    385.14155   -5848.1696 
17622000    162.69841   -6610.5719   -6192.0402   -6610.5719            0    3141.9148    23.335953    21.510087    21.513024    10798.643    3564.6734    1876.8473    3984.2238    811.42846   -206.27536   -623.15866    -5697.229 
17623000    150.89627   -6612.6103   -6224.4388   -6612.6103            0    2417.5595    23.297085    21.442564    21.679031    10829.743    2446.6575    2146.0851    2659.9358    23.199672     739.2332   -156.22324   -5842.6078 
17624000    152.50857   -6606.8159   -6214.4969   -6606.8159            0    1043.3968     23.30946    21.460915    21.858272    10934.433    1359.0143    534.02261    1237.1535   -1022.9374   -79.412258     -620.563   -6048.1091 
17625000    155.59106   -6604.8036   -6204.5551   -6604.8036            0    719.95481    23.402479     21.37992    21.880438    10947.727    1029.5497    707.58793    422.72679    182.56233   -1378.5536    721.52933   -6089.6061 
17626000    155.04387   -6620.3159    -6221.475   -6620.3159            0    1319.7098    23.460022     21.40007    21.747592    10918.294     620.9925    1930.0327    1408.1043   -77.319317    736.24398   -510.25011   -6011.3348 
17627000    156.67772   -6630.4447   -6227.4008   -6630.4447            0    1164.9481    23.331498    21.479501    21.746512    10898.241    540.71745    1070.8236    1883.3032    641.60493     123.1944    1467.3596   -6042.2444 
17628000    150.91492   -6611.1493   -6222.9299   -6611.1493            0    1037.2623    23.291278    21.493931    21.840154    10933.643      1757.94    791.14064     562.7063   -493.21779   -484.14018   -133.14182   -6057.5322 
17629000     155.5989   -6596.3094   -6196.0407   -6596.3094            0    1697.1294    23.182252    21.493273    21.905048    10914.463    2350.8266    1490.1648    1250.3969    66.669676    502.64182   -192.00221    -5925.898 
17630000    146.48695   -6628.0592   -6251.2305   -6628.0592            0    2643.7176    23.228788    21.505298    21.711688    10845.901    1994.0455    3250.3408    2686.7664    245.98379    160.08232    4.2547268   -5833.0569 
17631000     150.6259   -6632.7418   -6245.2659   -6632.7418            0    2484.7838    23.478689    21.401499    21.579953    10843.476    1369.2455    2099.8515    3985.2543    520.93542    46.533776    510.16896   -5852.3197 
17632000    157.36636   -6600.5441   -6195.7288   -6600.5441            0    3302.7888    23.410063    21.316996    21.674986    10816.517    3387.2384    2927.0279       3594.1    -1195.939   -84.832861     231.4657   -5674.7211 
17633000    157.62753   -6614.4942    -6209.007   -6614.4942            0    2570.5197    23.408133    21.357495     21.74156    10869.456    1923.8748     2774.385    3013.2993    732.75522   -663.01887    582.01589   -5801.5286 
17634000    149.17191   -6624.4761   -6240.7405   -6624.4761            0    1731.3833    23.364072    21.333159     21.82351     10877.48    960.26629     2662.825    1571.0586   -38.538971    260.52047    468.35665   -5966.0792 
17635000    146.72837   -6620.3367   -6242.8869   -6620.3367            0    1685.2923    23.374809    21.424195    21.753267    10893.742    1613.9441    1956.9448    1484.9881    458.14216   -678.35662    263.83097   -5975.1377 
17636000    159.37268   -6617.9853   -6208.0088   -6617.9853            0    1843.4852    23.387888    21.444246    21.692166    10879.394    1710.1526    2236.9545    1583.3486    287.48957   -1005.5284   -530.68605   -5915.5126 
17637000    151.16175   -6612.1583   -6223.3039   -6612.1583            0    2262.0487    23.281288    21.463474    21.729315    10858.081    1942.4361     2504.714    2338.9959   -214.61102    366.79145   -484.12304   -5865.0995 
17638000    147.95939   -6616.4746    -6235.858   -6616.4746            0    2371.2451    23.245533    21.449928    21.808707    10874.149    2980.5052    2747.1808    1386.0493    502.57917   -913.08362   -128.49206   -5859.8063 
17639000    156.13217   -6633.2397   -6231.5992   -6633.2397            0    2099.6525    23.251112    21.491889    21.735384    10861.396    2400.0433     1711.359     2187.555    557.73023    432.65023   -14.204744   -5899.0093 
17640000    148.15092   -6606.7284   -6225.6191   -6606.7284            0    1181.0289    23.276179    21.552419    21.744987    10908.546    1630.6973    823.32006    1089.0692   -87.954436    -397.8753     892.4457   -6037.7293 
17641000    152.58809   -6625.0793   -6232.5558   -6625.0793            0     2157.384    23.369095    21.449655    21.692231    10873.427    1743.0482    1694.9313    3034.1724   -443.31384   -150.47857    285.03498   -5890.4426 
17642000    152.41552    -6609.378   -6217.2984    -6609.378            0    1856.1828    23.306267    21.374625    21.835687    10877.725    987.00545    2647.1076    1934.4354    541.42859    -330.3912     209.3856   -5922.8326 
17643000    145.54692   -6590.1053   -6215.6947   -6590.1053            0    2841.4059    23.406487    21.474203    21.587801    10850.798    2450.2968    2346.0743    3727.8465    987.27407   -199.85369    526.26202   -5766.0485 
17644000    153.75487   -6620.8654   -6225.3403   -6620.8654            0    2648.6426     23.32759    21.436006    21.713034     10857.61    2118.6574    2292.7806    3534.4899    303.96895   -598.99577    476.10906   -5805.9355 
17645000    157.49421   -6598.7829   -6193.6386   -6598.7829            0    2190.1026    23.308197    21.431022     21.77178    10875.406    1014.8874    3025.6423    2529.7782   -316.43507    562.90311    446.21348   -5846.2738 
17646000    155.82433   -6628.1625   -6227.3139   -6628.1625            0    1533.4134    23.417108    21.431077    21.708074     10894.28    1548.5383     1131.477     1920.225    188.39874   -1070.4077   -439.93987   -5983.6823 
17647000    151.70367   -6628.0938   -6237.8454   -6628.0938            0    1201.5379    23.359344    21.473013    21.724217    10896.769    646.97879    1073.5222    1884.1126    624.53051    234.89556     1173.766   -6046.8991 
17648000    142.40239   -6604.4791   -6238.1576   -6604.4791            0    1750.2686     23.30183    21.530139    21.725425    10899.464    2019.3679    1147.2911    2084.1469   -1162.1981    311.73772   -483.28932   -5959.9393 
17649000    154.10489   -6597.7223   -6201.2969   -6597.7223            0    2662.9378    23.238952    21.410766    21.883154    10888.264    3175.7747    3128.5213    1684.5174    178.30621   -100.23748    331.54089   -5778.4379 
17650000    145.51685   -6605.3636   -6231.0304   -6605.3636            0    2987.0584    23.264843    21.325386    21.859495    10845.189    4212.5999     2629.747    2118.8282   -164.00612    400.06435    725.25195   -5758.5794 
17651000     154.3413   -6604.9913   -6207.9577   -6604.9913            0    2133.2788     23.37546    21.401614    21.724102    10867.972    1778.4722    1604.9194    3016.4447    57.140503    7.9639916     9.231122   -5869.8368 
17652000    149.13942    -6622.389   -6238.7369    -6622.389            0    1770.9492    23.326457    21.441877    21.737473     10872.28    1412.4382    2612.7136    1287.6958    906.73102    53.278307    118.83305   -5957.9333 
17653000     155.0672   -6599.1614   -6200.2604   -6599.1614            0    342.33318    23.343669    21.621333    21.745312    10975.321     664.3923   -177.71029    540.31752    268.75179   -475.21853   -259.13086   -6145.4653 
17654000    152.86974    -6614.452   -6221.2039    -6614.452            0    422.40027    23.286464    21.512684     21.84643    10944.064    1379.3538    460.25555    -572.4085   -306.86287    348.89278   -913.97203   -6153.7854 
17655000    152.43725   -6629.9702   -6237.8346   -6629.9702            0    3155.8877    23.347715    21.459443    21.626248    10835.377    2600.5431    1961.7045    4905.4155   -251.56451   -358.43104      678.997   -5739.1322 
17656000    146.44892   -6628.9202   -6252.1893   -6628.9202            0    3032.1095    23.413559    21.305444    21.644369    10796.996    3194.6199    2911.7102    2989.9984   -360.38352    251.17742    138.08916   -5774.7439 
17657000    149.36978   -6616.5986    -6232.354   -6616.5986            0    1932.5554    23.300461    21.363352    21.826187     10864.55    1934.6853    2922.4422    940.53873    298.46533   -434.90891   -282.93946   -5926.1438 
17658000    149.36519   -6623.0907   -6238.8578   -6623.0907            0     1240.923    23.361096    21.360386    21.887313    10921.814    1452.0846    1633.9481    636.73618     389.9854   -812.07912   -886.44168   -6041.1993 
17659000    154.03457   -6615.3882   -6219.1437   -6615.3882            0     944.2635    23.403864    21.381893    21.845142    10931.722   -709.44919    1708.5292    1833.7105    481.98605    116.81849    1129.7133   -6068.6017 
17660000    154.20129   -6622.2467   -6225.5732   -6622.2467            0    2513.2466    23.511378    21.417927    21.525288    10839.381    1672.7774    2667.0058    3199.9566   -1020.8687   -381.85133   -1045.4193   -5828.2761 
17661000    146.95517    -6619.908   -6241.8748    -6619.908            0    2376.9957    23.288398    21.469272    21.709942    10854.644    2058.3298    2094.3082    2978.3492    602.17594   -116.20227    128.68788   -5865.5872 
17662000    152.28942   -6609.1859   -6217.4307   -6609.1859            0    1303.3822     23.19893    21.551132     21.84064    10919.516    2381.1263    705.87984    823.14063   -635.43212   -755.46157   -488.51993   -6009.8671 
17663000    155.03101   -6619.1242   -6220.3163   -6619.1242            0    1249.9412    23.182354    21.574214    21.795222    10900.685     1648.218    637.48264    1464.1229    658.52462     100.3599   -209.16038   -6021.6065 
17664000    152.18238   -6625.1512   -6233.6713   -6625.1512            0    2896.4488    23.285252    21.424532    21.724371    10837.759    2874.6213    2892.8609    2921.8641   -520.36052    107.60276     46.61538   -5775.8656 
17665000     151.0156   -6610.8125   -6222.3341   -6610.8125            0    1911.8311    23.479965    21.317301    21.711113    10867.052    1931.7771    2207.0247    1596.6916    339.77798   -900.15498   -812.12511   -5919.3379 
17666000    156.00828   -6602.3711   -6201.0493   -6602.3711            0    2393.8465    23.466256    21.320458    21.700959    10857.236    1480.4501    3794.9378    1906.1517   -356.55618    48.315703    334.65808   -5822.0036 
17667000    152.54744   -6617.5788   -6225.1598   -6617.5788            0    2241.6286    23.470013    21.295805    21.755855    10873.855    2216.0299    2769.3247    1739.5312   -93.330017    261.33293   -395.25638   -5869.6733 
17668000    154.66469   -6598.8113   -6200.9458   -6598.8113            0    2028.9389    23.333275    21.407258    21.789439    10883.856    2754.7901    2132.3064    1199.7202    61.738773   -1483.9074   -96.357788   -5878.8926 
17669000    159.97988   -6595.5365   -6183.9981   -6595.5365            0    2610.9526    23.279727    21.453373    21.677706    10826.468    3375.9579    1882.1731    2574.7267    -142.8554    477.40284   -517.14066   -5771.7471 
17670000    152.06336   -6616.2818   -6225.1081   -6616.2818            0    2321.4205    23.220668    21.541979    21.690483    10849.995     2652.965    1987.5276    2323.7687   -1507.4778   -15.719795    11.928393   -5857.7757 
17671000    154.01032   -6618.1451    -6221.963   -6618.1451            0    2176.6428    23.198113    21.551948    21.731878    10865.168    3039.7246    1284.5166    2205.6873    359.83517   -43.979868   -396.63841    -5877.058 
17672000       148.67   -6604.2034   -6221.7589   -6604.2034            0    1104.2078    23.204463    21.547542    21.814894    10907.428    1871.7449     589.2479    851.63053   -627.12078    -592.0138    51.250038   -6046.1085 
17673000    148.77391   -6613.5092   -6230.7974   -6613.5092            0    2287.9417    23.280425    21.435541    21.787322    10872.495    2717.9505    2341.0493    1804.8253    85.001758   -46.933707   -1144.5513   -5868.0118 
17674000    151.49531   -6624.0981   -6234.3856   -6624.0981            0    2185.6505    23.462402    21.230318    21.784375    10851.108    1998.9187    2268.0648    2289.9681   -117.51061    -367.6411    891.28267   -5888.5015 
17675000     152.2251     -6609.56   -6217.9702     -6609.56            0    2332.6985     23.44732    21.294387    21.790726    10880.029    1017.5367    3821.3952    2159.1636    200.73088    332.85581   -89.081155   -5847.8314 
17676000    147.48455   -6618.6019   -6239.2069   -6618.6019            0    1787.8392    23.416028    21.398031    21.707001    10876.443    1172.8485    1938.4336    2252.2356     61.74013   -302.98916    1016.7754   -5955.6167 
17677000    156.91799   -6601.9333   -6198.2714   -6601.9333            0    2136.8267    23.350862    21.393065    21.739027    10859.655    2678.0783    2064.4257     1667.976    -374.3094    388.28031   -117.24074   -5859.8473 
17678000    154.15294   -6609.8182   -6213.2692   -6609.8182            0     2716.754    23.113628    21.493318    21.863785    10861.678    4159.3874    1976.6532    2014.2215    845.07799   -438.14497   -81.519775   -5782.9178 
17679000    151.49347   -6609.2076   -6219.4998   -6609.2076            0    2787.9187    23.104708    21.573458    21.792084     10862.23    4195.2935    1326.9633    2841.4993   -1232.1569    474.18832    477.46523   -5777.8531 
17680000    158.79937   -6622.3704   -6213.8687   -6622.3704            0    1783.7948    23.203448    21.629852    21.633732    10857.692    2456.4713    964.37914    1930.5339   -342.47159    481.61234    841.18662   -5931.4078 
17681000    150.93366   -6610.6787   -6222.4111   -6610.6787            0    2858.6348     23.28285    21.539155    21.604211    10834.359    3340.1451    1424.9154    3810.8439   -425.89599    6.2494501    200.57428   -5770.7239 
17682000     150.5784   -6596.9085   -6209.5548   -6596.9085            0    2127.4048    23.299017    21.403664     21.80345    10873.039    1960.5733    2940.7505    1480.8907    1049.2074   -633.92998    157.16304   -5872.2077 
17683000    149.56776    -6616.502    -6231.748    -6616.502            0    1822.4556     23.43719    21.380569    21.691434    10869.588    1335.4778    2267.2153    1864.6737   -592.95564   -1146.4679   -615.63557   -5942.8491 
17684000    148.30386   -6610.1364   -6228.6337   -6610.1364            0    2808.6565      23.4679    21.231874    21.754225    10839.423    2161.2727    3802.0725    2462.6243    1039.8018    -855.6871    87.657371   -5784.6361 
17685000    152.94366   -6603.6853    -6210.247   -6603.6853            0    2066.0672    23.375149    21.385321    21.743929    10869.465    1481.5463    2595.9248    2120.7305   -762.23521    944.00907    265.59012   -5882.7341 
17686000    156.79412   -6610.9198   -6207.5765   -6610.9198            0    1952.0037    23.339722    21.389363    21.788802    10877.445    1613.0266    2124.9311    2118.0534    723.20771    395.58119   -19.086072   -5897.9177 
17687000    147.51392    -6621.567   -6242.0965    -6621.567            0    1987.9535    23.272941    21.451453    21.796012    10881.406    2055.6083    1166.3982    2741.8539    -456.3243    -449.1138    940.44326   -5926.6199 
17688000    158.98735   -6613.1941   -6204.2089   -6613.1941            0    1815.5401    23.275791    21.560994    21.667706     10873.92    1924.4768    789.88333    2732.2601    26.720214    655.58604    450.06375   -5916.2915 
17689000     149.0196   -6633.3158   -6249.9719   -6633.3158            0    1388.7129    23.170709    21.586919    21.720985    10864.494    1782.1937    720.31082    1663.6342   -35.843048    722.18714    612.81292   -6029.9339 
17690000    159.38968   -6591.9325   -6181.9122   -6591.9325            0    3534.4631    23.145448    21.519102    21.766109     10841.03    3745.3488    3207.2393    3650.8011   -320.40055    294.11029   -760.89606   -5623.0949 
17691000    153.47817   -6595.6119   -6200.7987   -6595.6119            0    1886.0572    23.288503    21.464658     21.76714    10880.952    2221.7843    1654.3731    1782.0141    742.57922   -112.55528    720.11456   -5901.5049 
17692000    153.60121   -6610.5166   -6215.3868   -6610.5166            0    1226.6111    23.329075    21.463204    21.805636    10918.446    1568.3684     1177.575    933.88986   -796.58574     781.0532    330.04955   -6020.0682 
17693000    150.40543   -6617.5778    -6230.669   -6617.5778            0    2813.3144    23.411727    21.313453    21.760062    10857.939    2193.6933    3734.5048    2511.7451   -270.83933   -13.612971   -440.15769   -5785.1753 
17694000    146.95544   -6596.2546   -6218.2207   -6596.2546            0    1476.6857    23.423506    21.343202    21.830375    10913.717    1309.3337    2697.5725    423.15109    221.64429   -814.46613   -412.95852   -5983.1835 
17695000    152.56805   -6602.1123   -6209.6403   -6602.1123            0    2392.2917    23.384951     21.40589    21.691979    10858.478    2672.9353    2597.1659    1906.7738   -777.27662    458.86654   -136.75663   -5830.7975 
17696000    152.39532    -6618.232   -6226.2043    -6618.232            0    3546.8953    23.264394    21.405865     21.71015    10811.535    3831.4549    2636.6342    4172.5967     825.0432    349.00455     1138.167   -5666.9471 
17697000    155.32021    -6612.562   -6213.0103    -6612.562            0    1714.6833    23.217574    21.521354    21.836878    10911.312    886.15951    3333.2539    924.63639     191.2379   -705.92966   -536.77686   -5940.1522 
17698000    153.40774    -6603.953   -6209.3209    -6603.953            0    3114.9835    23.251997    21.433741     21.77474    10852.036    4151.2815    1836.1295    3357.5396   -190.55954    797.92272    911.72136   -5716.3255 
17699000    159.06086   -6614.0189   -6204.8445   -6614.0189            0    1046.1125    23.418043    21.511298    21.638746    10900.572    642.48219    1712.0411    783.81414   -255.33663   -715.00335   -903.12281   -6038.5402 
17700000    147.72779   -6611.3564   -6231.3356   -6611.3564            0    1442.2228    23.429219     21.35102    21.759428    10884.886    933.84018    2272.9058    1119.9225    268.86019   -90.373589   -565.57813   -6002.3901 
17701000    158.02728   -6626.5245   -6220.0089   -6626.5245            0    1475.5502    23.375922    21.349001    21.858004    10908.294    1930.9231    1452.9184     1042.809    96.583681   -350.83427   -21.296722   -5985.2692 
17702000    154.15658   -6619.7072   -6223.1488   -6619.7072            0    2160.7245    23.413794    21.408068    21.690768     10872.37     1264.244     2704.311    2513.6184    1438.4114   -391.26109    156.16107   -5880.5393 
17703000    148.85823    -6637.639   -6254.7103    -6637.639            0     1975.961    23.319546    21.469879    21.680147    10854.552    2520.7101     1191.276    2215.8969    551.84892    381.12962    427.14619   -5941.9107 
17704000     150.7628   -6618.4776   -6230.6495   -6618.4776            0    2806.0982    23.213099    21.562932    21.660261     10841.88    2137.6803    3302.0415    2978.5729   -1167.5619   -170.61497   -945.59676   -5786.9557 
17705000    146.94893   -6615.1488   -6237.1316   -6615.1488            0    2146.8924    23.204039    21.451803    21.797113    10849.916    2441.5584     2102.298    1896.8207    934.08932   -354.51895     175.5653   -5897.4183 
17706000    151.14774   -6629.8462   -6241.0279   -6629.8462            0     1901.688    23.307451     21.42184    21.761525    10865.279    1573.8233      2182.96    1948.2806   -590.25155    295.66991    234.49018   -5939.6884 
17707000    150.78933   -6626.2406   -6238.3443   -6626.2406            0    1507.5416    23.476586    21.384945     21.70016    10894.468    953.10941    1997.5274    1571.9881     841.2807   -677.39712    -447.3523   -5998.8191 
17708000    149.45565    -6601.508   -6217.0424    -6601.508            0    1591.3801    23.449258    21.322331    21.782905    10891.297    531.38373    3104.8004    1137.9561   -131.35809   -34.701136   -567.03956   -5964.2702 
17709000    155.17705   -6609.6839   -6210.5004   -6609.6839            0    2166.8534    23.379833    21.381472    21.745215     10870.33     2228.132    1803.2593    2469.1688    198.01687   -478.17559   -218.08207   -5866.9834 
17710000    152.19168   -6623.5577   -6232.0539   -6623.5577            0    1778.3389    23.345734    21.404587    21.768143    10877.667    1618.8691    2720.0264    996.12117    579.92417    886.40528     599.5377   -5949.9389 
17711000    149.21859   -6599.2735   -6215.4177   -6599.2735            0    2465.8745    23.302434    21.566373    21.660945    10885.686    3206.5381    2057.3908    2133.6945   -701.98384   -85.936513   -558.58719    -5823.944 
17712000    152.87855   -6626.4788    -6233.208   -6626.4788            0    1984.3282     23.23705    21.450455    21.836231    10884.166    2041.6325    2880.0545    1031.2975     883.5688    -77.23192   -222.47191   -5918.2269 
17713000    145.62333   -6602.6541   -6228.0469   -6602.6541            0    1582.9671    23.282057    21.531857    21.740884    10898.834    2244.6948    996.83123    1507.3751    448.91324    271.09823    505.73236    -5976.437 
17714000    152.49627   -6613.8514    -6221.564   -6613.8514            0     2486.852    23.271703    21.491236     21.69971    10852.842    2266.9307    1992.9555    3200.6698   -761.37152     738.6699    391.02553   -5827.9512 
17715000    147.65475   -6624.9142   -6245.0813   -6624.9142            0    2225.4363    23.301592    21.342684    21.821631    10852.301    2395.8505    2661.3353     1619.123     500.9278   -87.597012    50.242367   -5892.8623 
17716000    150.16178     -6609.86    -6223.578     -6609.86            0    2882.9774    23.403103    21.409542    21.640858    10843.146     1891.379     2362.822    4394.7313    195.38218    374.11704    82.863368    -5767.675 
17717000    147.70292   -6602.9446   -6222.9879   -6602.9446            0    2706.1565    23.366107    21.326595      21.7315     10829.23    2439.4589    3021.1454    2657.8651   -152.15003   -638.99492     300.2102   -5795.5959 
17718000     155.2604   -6601.6103   -6202.2124   -6601.6103            0    1660.8947    23.264138    21.424866    21.896868    10914.078    2313.0339    2169.3173    500.33293   -77.559546     65.18487   -1180.7266   -5937.8467 
17719000    148.72315   -6609.8301   -6227.2489   -6609.8301            0    2622.6783      23.1847    21.474778    21.843252    10875.456    2244.4758    2753.3185    2870.2408    37.081457   -309.33602   -7.4501419   -5811.2728 
17720000    152.52862   -6644.3497   -6251.9791   -6644.3497            0    1612.5694    23.300677    21.516067    21.678417    10868.235    1765.9747     333.3238    2738.4098   -305.41325    994.69981    900.12956   -5996.3836 
17721000    151.36684   -6617.6627   -6228.2807   -6617.6627            0    2003.4269    23.353507    21.524538    21.568221    10841.772    1816.7244     1222.876    2970.6803   -405.58845   -148.68993    748.17801   -5911.5066 
17722000    149.33995    -6620.547   -6236.3791    -6620.547            0    1376.2665    23.300502    21.437285    21.804936    10891.555    1020.2367    2405.0227    703.54017   -519.11924    894.43886    156.17794   -6017.7699 
17723000    151.73296   -6625.7569   -6235.4331   -6625.7569            0    1201.8891    23.280275    21.399225    21.901525    10910.898    954.08528    2497.9209    153.66127    82.693747     439.4815   -520.09659   -6044.1834 
17724000    149.91595   -6588.6347   -6202.9851   -6588.6347            0    2587.0625    23.378177    21.337075    21.769637    10859.172    2247.9787    1934.3393    3578.8694    616.44427   -59.998917    1397.3999   -5793.2723 
17725000    147.86426   -6616.2405   -6235.8687   -6616.2405            0    1600.3655    23.392828    21.446456    21.659498    10866.424    760.40943    2041.1764    1999.5106   -874.50493     1382.077   -462.54946   -5982.2497 
17726000    148.78823    -6606.208   -6223.4593    -6606.208            0    1900.4208    23.353466    21.428207    21.716612     10867.49    2303.4026    1646.8295    1751.0303    332.17396   -817.09309    110.52292   -5922.2594 
17727000     160.4148    -6596.596   -6183.9387    -6596.596            0    1892.6162    23.387074    21.436916    21.776398    10917.526    1642.6828    2015.6783    2019.4877    923.84665    -542.4616    216.03871   -5882.5946 
17728000    161.64806   -6606.7942   -6190.9644   -6606.7942            0    1565.2737    23.252999    21.424415    21.860835    10890.672    2255.9461    1873.4689      566.406    -160.7075   -131.60272   -204.55565   -5942.3531 
17729000    151.34706   -6603.0967   -6213.7656   -6603.0967            0    1694.1528    23.290694     21.53127    21.751649    10907.978    1509.7136    2020.0078     1552.737   -49.173612    545.51289   -452.36762    -5944.257 
17730000    151.36925   -6588.8846   -6199.4964   -6588.8846            0    2109.0758    23.276154    21.629088    21.654209    10901.638    2523.2437    1036.0465    2767.9371    73.207499   -481.63241    543.15138   -5864.1761 
17731000    154.51175   -6601.1892   -6203.7171   -6601.1892            0    1093.9548    23.235728    21.626294    21.712449    10910.564    1454.5219   -342.30697    2169.6494   -867.64621    753.32082   -294.37986   -6029.6477 
17732000    157.43434   -6621.6845   -6216.6943   -6621.6845            0    1875.6357    23.375538    21.397041    21.751971    10879.626     1101.175    2460.0368    2065.6951    112.62734    493.29988     140.5042   -5919.0906 
17733000    149.19363   -6614.9306   -6231.1391   -6614.9306            0    2351.8832    23.385016     21.22421    21.864961    10852.203    1756.0174    3207.6594    2091.9728   -281.40346   -12.275661   -328.22538   -5858.9107 
17734000    150.19309   -6602.7297   -6216.3671   -6602.7297            0    2409.7582    23.461627    21.339681    21.683758    10856.269    1374.5088    3197.4711    2657.2947    211.20663    39.609106     12.15332    -5834.836 
17735000    150.81191   -6615.0802   -6227.1258   -6615.0802            0    2623.3988    23.352698    21.396578    21.702379     10843.98    2123.8581    3666.4999    2079.8383    -15.24414    691.34654   -528.98396   -5812.2396 
17736000    155.25644   -6624.6127    -6225.225   -6624.6127            0    1372.8256    23.364776     21.57315    21.616819    10895.996    1801.0822    246.71527    2070.6793    138.84179     -471.911   -154.19215   -6007.0735 
17737000    151.46219   -6624.0747   -6234.4475   -6624.0747            0    781.38234    23.224322    21.488379    21.902798    10930.658    1609.1031    213.41652    521.62738   -380.38313    240.05128    294.35806   -6109.8854 
17738000    158.41834   -6612.3864   -6204.8649   -6612.3864            0    1326.3692    23.263987    21.483608    21.868215    10929.611    1612.5341    1428.2068    938.36684   -236.39844    -458.9773    63.895678   -5993.4454 
17739000    149.10514   -6612.0259    -6228.462   -6612.0259            0    2047.8754    23.336316    21.428184    21.746833     10874.61    948.66614    1939.2278    3255.7323    583.16677    160.42602    156.34179   -5903.6791 
17740000    150.47405   -6600.5564   -6213.4711   -6600.5564            0    3569.6874    23.355919    21.361107    21.644025    10798.383    3134.0104      3668.06    3906.9918   -43.788357   -933.68773   -709.52153   -5651.3048 
17741000    152.51475   -6620.5927   -6228.2578   -6620.5927            0     2695.152    23.413244    21.353508    21.685637     10841.84    1917.5802    3276.5588    2891.3171    701.86685   -891.23122   -444.07017   -5802.1081 
17742000    153.31514   -6623.3652   -6228.9713   -6623.3652            0    2653.0139    23.271853    21.385097    21.751094    10824.885    2832.3235    2694.1073     2432.611    446.80891   -263.39492   -44.075651   -5810.1404 
17743000    154.59256   -6607.0057   -6209.3258   -6607.0057            0    1723.0099    23.166234      21.4646    21.885311    10882.557    2573.0158    991.41058    1604.6034   -131.21433   -263.83372     762.7546   -5935.8653 
17744000    153.78329   -6617.2021   -6221.6039   -6617.2021            0    1497.8264    23.308606     21.52952    21.710858     10895.01    1689.2411    1051.3052    1752.9329    1572.0833   -89.930787   -82.842757   -5983.6105 
17745000    160.58608   -6604.4714   -6191.3735   -6604.4714            0    2357.9317    23.341463    21.499405    21.686509    10882.888    2231.2002    2454.7981    2387.7969   -525.87955     295.4672   -946.47311   -5817.1326 
17746000    144.24067    -6600.314   -6229.2636    -6600.314            0    3260.6967    23.237865    21.379607     21.79249    10826.867    3249.4268    2809.9674     3722.696    -342.7593    962.39967    1041.5151   -5714.4037 
17747000    150.88273   -6607.2666   -6219.1299   -6607.2666            0    2864.8081    23.340829    21.424963    21.692121    10847.717    3019.8594    3432.5807    2141.9841    264.84359   -701.45641   -1207.5615   -5765.9092 
17748000      155.004   -6606.2406   -6207.5023   -6606.2406            0    2081.0242    23.324321      21.4086    21.767936    10869.624    2663.5687    1774.7146    1804.7895   -884.38122    994.23919    414.34207   -5877.6135 
17749000    151.82436   -6618.5499    -6227.991   -6618.5499            0    2908.4257    23.323968    21.452286    21.656742    10836.004    2781.6719    2960.7333     2982.872    823.39284   -174.62222   -718.00415   -5768.3667 
17750000    159.64084   -6595.4342   -6184.7678   -6595.4342            0    2031.7148    23.298641    21.459831    21.780857    10890.099    1837.8518    2800.4303    1456.8623    539.83098    382.72529    136.57073    -5862.089 
Loop time of 567.607 on 64 procs for 250000 steps with 1296 atoms

Performance: 76.109 ns/day, 0.315 hours/ns, 440.446 timesteps/s
196.0% CPU use with 32 MPI tasks x 2 OpenMP threads

MPI task timing breakdown:
Section |  min time  |  avg time  |  max time  |%varavg| %total
---------------------------------------------------------------
Pair    | 36.736     | 47.909     | 57.233     |  98.0 |  8.44
Bond    | 0.6432     | 0.97219    | 1.4568     |  19.7 |  0.17
Kspace  | 297.27     | 309.75     | 322.45     |  38.2 | 54.57
Neigh   | 1.8293     | 1.9881     | 2.1611     |   6.3 |  0.35
Comm    | 75.745     | 81.573     | 86.587     |  29.1 | 14.37
Output  | 0.64592    | 0.64624    | 0.64772    |   0.0 |  0.11
Modify  | 107.34     | 109.79     | 111.81     |  12.3 | 19.34
Other   |            | 14.97      |            |       |  2.64

Nlocal:        40.5000 ave          50 max          28 min
Histogram: 2 2 3 2 7 0 2 4 5 5
Nghost:        3058.66 ave        3080 max        3034 min
Histogram: 3 2 2 6 2 2 2 5 4 4
Neighs:        12822.8 ave       15852 max        8953 min
Histogram: 2 2 3 4 5 0 2 4 6 4

Total # of neighbors = 410328
Ave neighs/atom = 316.61111
Ave special neighs/atom = 2.0000000
Neighbor list builds = 4243
Dangerous builds = 0

unfix		3
unfix		2
unfix		1

write_data	data.final.${pid}
write_data	data.final.0
System init for write_data ...
PPPM initialization ...
  extracting TIP4P info from pair style
  using 12-bit tables for long-range coulomb (../kspace.cpp:340)
  G vector (1/distance) = 0.36758197
  grid = 30 40 32
  stencil order = 5
  estimated absolute RMS force accuracy = 0.0044486798
  estimated relative force accuracy = 1.3397067e-05
  using double precision FFTW3
  3d grid and FFT values/proc = 7888 1280
Last active /omp style is kspace_style pppm/tip4p/omp
WARNING: Not all mixed pair coeffs generated from mixing. Use write_data with 'pair ij' option to store all pair coeffs. (../write_data.cpp:312)

write_restart   restart.lmp.${pid}
write_restart   restart.lmp.0
System init for write_restart ...
PPPM initialization ...
  extracting TIP4P info from pair style
  using 12-bit tables for long-range coulomb (../kspace.cpp:340)
  G vector (1/distance) = 0.36758197
  grid = 30 40 32
  stencil order = 5
  estimated absolute RMS force accuracy = 0.0044486798
  estimated relative force accuracy = 1.3397067e-05
  using double precision FFTW3
  3d grid and FFT values/proc = 7888 1280
Last active /omp style is kspace_style pppm/tip4p/omp
Total wall time: 0:09:27
