LAMMPS (30 Jul 2021)
  using 1 OpenMP thread(s) per MPI task
package omp 0
using multi-threaded neighbor list subroutines
echo both

include		in.partitions
variable        pid world 0
include		in.temp
variable        temperature equal 263.47
variable	tempDamp equal 100.0
include		in.pressure
variable        pressure equal 6375.0
variable        pressureDamp equal 1000.0 # This is 1 ps
include		in.seed
variable        seed world 745823

units		real
atom_style	full

read_restart	restart.lmp.${pid}
read_restart	restart.lmp.0
Reading restart file ...
  restart file = 30 Jul 2021, LAMMPS = 30 Jul 2021
  restoring atom style full from restart
  orthogonal box = (0.026626404 0.011653977 -0.029368491) to (19.973375 19.988347 20.729366)
  4 by 4 by 4 MPI processor grid
  restoring pair style lj/cut/tip4p/long/omp from restart
  restoring bond style harmonic/omp from restart
  restoring angle style harmonic/omp from restart
  972 atoms
  648 bonds
  324 angles
Finding 1-2 1-3 1-4 neighbors ...
  special bond factors lj:    0        0        0       
  special bond factors coul:  0        0        0       
     2 = max # of 1-2 neighbors
     1 = max # of 1-3 neighbors
     1 = max # of 1-4 neighbors
     2 = max # of special neighbors
  special bonds CPU = 1.108 seconds
  read_restart CPU = 1.356 seconds
include 	in.setup
variable	out_freq equal 1000
variable	out_freq2 equal 10000
variable	out_freq3 equal 1000

timestep	2.0

neigh_modify    delay 7 every 1

include		in.tip4p
# This is TIP4P/Ice

# create groups ###
group ox type 2
324 atoms in group ox
group hy type 1
648 atoms in group hy

# set charges - beside manually ###
set group ox charge -1.1794
Setting atom values ...
  324 settings made for charge
set group hy charge 0.5897
Setting atom values ...
  648 settings made for charge

# ### TIP3P Potential Parameters ###
pair_style lj/cut/tip4p/long/omp 2 1 1 1 0.1577 8.5
pair_coeff 1 1*2 0.000 0.000
pair_coeff 2 2 0.21084 3.1668
bond_style  harmonic
bond_coeff  1 450 0.9572
angle_style harmonic
angle_coeff 1 55 104.52
kspace_style pppm/tip4p/omp 1.0e-5
pair_modify tail yes

thermo          ${out_freq}
thermo          1000
thermo_style    custom step temp pe etotal epair emol press lx ly lz vol pxx pyy pzz pxy pxz pyz enthalpy

restart 	${out_freq3} restart.lmp.${pid} restart2.lmp.${pid}
restart 	1000 restart.lmp.${pid} restart2.lmp.${pid}
restart 	1000 restart.lmp.0 restart2.lmp.${pid}
restart 	1000 restart.lmp.0 restart2.lmp.0


include         in.dump
dump            myDump all atom ${out_freq2} dump.water.${pid}
dump            myDump all atom 10000 dump.water.${pid}
dump            myDump all atom 10000 dump.water.0
dump            myDump2 all dcd ${out_freq2} dump.dcd
dump            myDump2 all dcd 10000 dump.dcd
dump_modify     myDump append yes
dump_modify     myDump2 append yes


variable natoms 	equal  "count(all)"                        # NUMBER ATOMS
variable H      	equal  "enthalpy/v_natoms"                 # ENTHALPY-per-atom
variable Vol      	equal  "vol/v_natoms"                 # volume-per-atom
fix AVG all 		ave/time ${out_freq} 1 ${out_freq} v_Vol v_H file vol_enthalpy.dat
fix AVG all 		ave/time 1000 1 ${out_freq} v_Vol v_H file vol_enthalpy.dat
fix AVG all 		ave/time 1000 1 1000 v_Vol v_H file vol_enthalpy.dat


timer           timeout 02:55:00 every 1000
New timer settings: style=normal  mode=nosync  timeout=02:55:00

fix 		1 all shake 1e-6 200 0 b 1 a 1
       0 = # of size 2 clusters
       0 = # of size 3 clusters
       0 = # of size 4 clusters
     324 = # of frozen angles
  find clusters CPU = 0.020 seconds
fix             2 all nph aniso ${pressure} ${pressure} ${pressureDamp}
fix             2 all nph aniso 6375 ${pressure} ${pressureDamp}
fix             2 all nph aniso 6375 6375 ${pressureDamp}
fix             2 all nph aniso 6375 6375 1000
fix             3 all temp/csvr ${temperature} ${temperature} ${tempDamp} ${seed}
fix             3 all temp/csvr 263.47 ${temperature} ${tempDamp} ${seed}
fix             3 all temp/csvr 263.47 263.47 ${tempDamp} ${seed}
fix             3 all temp/csvr 263.47 263.47 100 ${seed}
fix             3 all temp/csvr 263.47 263.47 100 745823


run             250000
PPPM initialization ...
  extracting TIP4P info from pair style
  using 12-bit tables for long-range coulomb (../kspace.cpp:340)
  G vector (1/distance) = 0.37255383
  grid = 24 24 25
  stencil order = 5
  estimated absolute RMS force accuracy = 0.0033899351
  estimated relative force accuracy = 1.0208689e-05
  using double precision FFTW3
  3d grid and FFT values/proc = 2366 288
Last active /omp style is kspace_style pppm/tip4p/omp
Neighbor list info ...
  update every 1 steps, delay 7 steps, check yes
  max neighbors/atom: 2000, page size: 100000
  master list distance cutoff = 10.8154
  ghost atom cutoff = 10.8154
  binsize = 5.4077, bins = 4 4 4
  1 neighbor lists, perpetual/occasional/extra = 1 0 0
  (1) pair lj/cut/tip4p/long/omp, perpetual
      attributes: half, newton on, omp
      pair build: half/bin/newton/omp
      stencil: half/bin/3d
      bin: standard
Per MPI rank memory allocation (min/avg/max) = 9.228 | 9.231 | 9.238 Mbytes
Step Temp PotEng TotEng E_pair E_mol Press Lx Ly Lz Volume Pxx Pyy Pzz Pxy Pxz Pyz Enthalpy 
 9750000    267.81592   -4657.8231   -4141.3176   -4657.8231            0     5706.315    19.946748    19.976693    20.758735    8271.7345    6376.0996    5625.4583    5117.3871   -320.31146    466.30209   -120.83239   -3452.9377 
 9751000    253.87793   -4675.9097   -4186.2848   -4675.9097            0    7161.3176    20.155391    19.746058    20.567935    8185.8226    7408.8597    6438.7486    7636.3447    826.94432    1990.2683    693.14599   -3331.3536 
 9752000    266.31194   -4704.0235   -4190.4186   -4704.0235            0    4589.6144    19.830471    20.174951     20.64518    8259.6983    3913.5628    5376.0825    4479.1978   -236.62344   -778.89335   -5.8307571   -3637.5572 
 9753000    259.54421   -4688.2435   -4187.6907   -4688.2435            0    6889.4551    19.888028    19.929918    20.586339    8159.7407    7265.8818    6379.6899    7022.7935    870.15263   -249.46668    302.64625   -3367.8356 
 9754000    262.35738   -4727.9143    -4221.936   -4727.9143            0    3377.8328    20.080776    20.057852    20.644886    8315.2899    2786.8219     3364.791    3981.8856   -280.78775    528.95017   -1326.8755   -3812.3063 
 9755000    270.24999   -4701.7124   -4180.5125   -4701.7124            0    6039.6229    20.047326    19.986383    20.470681    8202.0601    9000.6721    3400.2313    5717.9652   -12.745838   -108.45376    2004.2452   -3458.0611 
 9756000    267.76176   -4684.9516   -4168.5506   -4684.9516            0    6531.4852    19.892607    19.959576    20.673022    8208.1819     4650.854    8009.9798    6933.6219    847.46521    770.48517   -503.69992   -3386.6801 
 9757000    271.79552    -4696.433   -4172.2525    -4696.433            0    8036.0502    19.855391    19.849464    20.708658    8161.6731    8244.8597    8271.6396    7591.6513   -279.43129    -1098.158   -1013.0505   -3215.7244 
 9758000    274.94166   -4710.6028   -4180.3547   -4710.6028            0    5534.4338    19.986995    20.002691    20.622634    8244.7985    5235.2282    5428.9943     5939.079   -349.85443   -643.88288   -1316.1317   -3514.8837 
 9759000    266.48044   -4661.0376   -4147.1076   -4661.0376            0    8287.9126    19.921844    20.080259    20.518883    8208.2878    7480.6806    9103.3188    8279.7384   -941.13877   -463.38502    730.94549   -3154.9661 
 9760000    262.31108   -4656.4276   -4150.5387   -4656.4276            0    6963.6399    20.057243    20.057868    20.386846     8201.741    8404.0749    5351.8701    7134.9745   -177.75856     1359.648    254.08104     -3317.59 
 9761000    260.32528   -4686.3697   -4184.3105   -4686.3697            0     6680.871    19.836916     20.02093    20.630505    8193.4771    6085.6211    7898.0909     6058.901   -107.47438   -173.23706    836.50459   -3385.9901 
 9762000     281.3936   -4667.5867   -4124.8954   -4667.5867            0     7414.796    20.209824    19.956326    20.315012    8193.3254      5437.79    8596.4766    8210.1215   -131.89082   -872.91576    530.27552   -3238.8922 
 9763000    280.58923   -4685.6438   -4144.5038   -4685.6438            0    5583.1765    20.042649    19.970857     20.71804    8292.7868    6577.0942    6998.6708    3173.7645   -249.02126   -12.463713   -335.35755   -3469.2645 
 9764000    253.29589   -4677.6084    -4189.106   -4677.6084            0    6688.1207    19.944363    20.015054    20.515086    8189.3658    8174.5027     4721.285    7168.5745    20.194424    418.45317   -1648.0384   -3390.3203 
 9765000     262.0785   -4694.4875   -4189.0471   -4694.4875            0    5561.2745     19.94159    20.129296    20.609883    8273.0163    4262.3271    6209.2724    6212.2239   -339.85842    1550.8812   -659.28231   -3518.0601 
 9766000    257.51034   -4674.9106   -4178.2802   -4674.9106            0    8442.6768    19.850365    19.751288    20.825849    8165.1967    8158.3714    10389.069    6780.5903   -1013.2037   -194.75077   -788.01876   -3172.9177 
 9767000    264.21026    -4696.877   -4187.3253    -4696.877            0    7063.4168    20.029931    19.942613    20.504576    8190.5359    4852.0992    8378.7104    7959.4407   -182.23231     552.4153    1034.2665   -3343.5961 
 9768000    265.61731   -4720.6404   -4208.3751   -4720.6404            0    6791.0361    19.770865    20.043848    20.574018    8153.1586    6553.9629    5830.1921    7988.9535   -482.29424    859.66674   -312.53936   -3400.8839 
 9769000    255.71837   -4670.3811   -4177.2067   -4670.3811            0    8275.2996    19.862392    19.697675    20.800444     8138.027    8402.7296    10453.184    5969.9849    435.85069   -689.12793    54.979764   -3195.0546 
 9770000    259.34853   -4683.4576   -4183.2821   -4683.4576            0    7300.4871    19.875927    20.000656    20.535473     8163.499    7277.6059     7491.702    7132.1534   -121.21791   -109.31916   -140.55571   -3314.1134 
 9771000    255.91739   -4696.8436   -4203.2854   -4696.8436            0    7894.7564    20.018206    19.837657    20.507601     8143.862    10376.158    5956.0109       7352.1    -686.7073    649.38907   -1231.5009   -3265.6262 
 9772000    262.28816    -4693.611   -4187.7662    -4693.611            0    4812.3569    19.891919    19.988868    20.758403    8253.8928    5244.1961    4350.8232    4842.0513   -734.95908     834.0939    404.77768   -3608.4808 
 9773000    255.83598   -4694.2422    -4200.841   -4694.2422            0    7159.4386     19.96816    19.775965    20.569126    8122.5347    5169.7754    9204.7074    7103.8332    171.48012    424.38218    598.22404   -3352.7423 
 9774000    276.10907   -4672.0103   -4139.5107   -4672.0103            0    4378.6208    20.013019    20.138408    20.685443    8336.8614    4816.1225    3394.1871    4925.5529    -529.2031    104.91023    567.19337    -3607.138 
 9775000    270.71241    -4663.276   -4141.1844    -4663.276            0    9197.9989     19.89033    19.949426     20.54528     8152.381    12283.437    7533.5787    7776.9812     236.8255   -978.85455   -1289.6555   -3047.5964 
 9776000    276.81234   -4686.6948    -4152.839   -4686.6948            0    5676.7335    19.988594    20.005396    20.614278     8243.232    5011.8912    5172.8872    6845.4221   -717.16347    407.23364    447.11115   -3470.3873 
 9777000    271.99425    -4657.574   -4133.0102    -4657.574            0    7468.0497    20.228757    19.722171    20.591539    8215.0972    7215.8366    8773.1667    6415.1458   -224.29189   -560.52346    911.70269   -3238.2724 
 9778000    260.46261    -4698.116    -4195.792    -4698.116            0    6932.8819    20.026167    19.900788    20.544311    8187.6581    6893.0516    6869.3637    7036.2304    163.46733   -370.29836   -92.762585   -3367.9463 
 9779000    254.30298   -4666.7679   -4176.3232   -4666.7679            0    6536.0114    19.759193    19.915242    20.936805    8238.8236    5813.8496    7226.4488    6567.7358    411.70105    -962.1865     131.2429   -3390.9901 
 9780000    273.48373   -4689.5156   -4162.0792   -4689.5156            0    5739.6353    20.029297    19.911502    20.693469    8252.8321    5568.3381    6789.8811    4860.6868    193.90221   -1375.0615    717.97294   -3471.2619 
 9781000    271.25924   -4676.1604   -4153.0142   -4676.1604            0    6298.4794    20.163594    20.315359      20.2923    8312.3485    5941.3059    5666.6618    7287.4703    37.449464    1437.7282    1105.2807   -3389.4679 
 9782000    262.31406   -4669.0548   -4163.1601   -4669.0548            0    5524.5769    20.199184    19.932016     20.39405    8210.8576    4167.9834    6175.7652    6229.9822    451.56026     43.66047     522.3103   -3501.6089 
 9783000     257.3236   -4668.0315   -4171.7613   -4668.0315            0    8450.4908    19.884489    19.846696    20.850583    8228.5034    7729.0095    11185.869     6436.594    589.52363   -398.61126     90.44251   -3157.6662 
 9784000    253.90505   -4686.2057   -4196.5285   -4686.2057            0    6281.7316    20.116576    19.758186    20.831384     8279.789    6690.2109    6103.4513    6051.5326    270.92576    204.67384    1749.2222   -3437.9954 
 9785000    254.66768   -4726.7084   -4235.5603   -4726.7084            0    6267.7694    19.971381    20.179221    20.499367    8261.3866    7210.2992      5803.14    5789.8691   -45.681411    538.66998   -133.34941   -3480.3953 
 9786000    264.95602   -4721.0431   -4210.0531   -4721.0431            0    4993.5362     20.06533    19.846127    20.566891    8190.1282    4815.7677    6232.6508    3932.1901    375.88785   -985.17524   -199.24791   -3613.6021 
 9787000     267.4083   -4707.0706   -4191.3512   -4707.0706            0    6842.2036     20.09854    19.809577     20.78336    8274.7614     6749.096     7237.228    6540.2867   -1141.8248    1303.2909    1096.3732   -3365.6415 
 9788000    286.27018   -4711.8319   -4159.7358   -4711.8319            0    8807.0219    19.618421    20.078495    20.579237    8106.3338    7923.5863    9866.0329    8631.4464    350.88903    733.73211    932.23906   -3118.5471 
 9789000    250.29181   -4687.1869   -4204.4781   -4687.1869            0     6277.051    20.189253    19.901649    20.636856     8291.877    6999.0936    4740.9248    7091.1345    -257.6058    396.44009    679.99498   -3445.4036 
 9790000    238.97302   -4642.9243   -4182.0447   -4642.9243            0     6729.088    19.785218    19.974497      20.7551    8202.4111    7022.0179    8038.6887    5126.5574    -608.2837   -107.76229   -918.25607    -3377.086 
 9791000    256.76564   -4672.9219   -4177.7277   -4672.9219            0    5259.5774    20.039714     20.09579    20.456725    8238.2073    3502.7395    6212.0822    6063.9105    365.45607   -12.464919    543.30909   -3545.8116 
 9792000    281.20204   -4729.5342   -4187.2125   -4729.5342            0    6829.1343    20.097774    19.775598    20.547395    8166.4698    4694.4157    9290.1805    6502.8066   -669.34659    411.09145    1041.8096   -3373.8654 
 9793000    275.32095    -4685.983   -4155.0034    -4685.983            0    5646.6262    19.923781    19.883131    20.650491     8180.633    6543.0022     5401.789    4995.0875    177.07017    265.49437    1263.7796   -3481.3263 
 9794000    256.27038   -4710.4192   -4216.1802   -4710.4192            0    5392.9356    19.914618    20.071824    20.661322    8258.7994     5379.667    5659.5225    5139.6172   -192.76864    366.18269    577.38911   -3566.6221 
 9795000    252.59172   -4702.9721   -4215.8277   -4702.9721            0    8012.1635    20.031498    19.949273    20.355955    8134.5211    7227.3223    8070.8186    8738.3497    307.95007   -1172.3765    261.46337   -3265.3156 
 9796000    256.40835   -4697.0563   -4202.5512   -4697.0563            0    3772.4172    19.836107    20.248769    20.566607    8260.7169     6080.531    2162.5112    3074.2094   -19.166944    1417.0535    18.843946   -3748.0727 
 9797000      263.334   -4695.1716   -4187.3099   -4695.1716            0     7493.881    20.121416    19.832238    20.492031    8177.4004    6966.7466    9692.5957    5822.3006   -412.20396    754.60635    3.1703704   -3293.5971 
 9798000    243.56052   -4674.9296   -4205.2026   -4674.9296            0    5728.6243    19.637217    20.288726     20.62079    8215.6138    7094.1812    4276.1362    5815.5555    78.519758    25.395836   -136.37022   -3518.8201 
 9799000    262.47844   -4675.0317   -4168.8199   -4675.0317            0    6347.8673    20.203951    19.888527    20.537674    8252.5882    7017.7042    5554.0268     6471.871   -754.50994    410.97105   -100.29581    -3404.819 
 9800000    263.05229   -4719.1593   -4211.8409   -4719.1593            0    7144.3189     20.00777    20.037685    20.481863    8211.3714    7214.3998    6133.4336    8085.1232   -252.36242   -802.82433    246.93373    -3356.277 
 9801000    294.50176   -4685.6443   -4117.6729   -4685.6443            0    6116.7904    19.943463    20.020436    20.725505    8275.2139    7315.5386     5756.854    5277.9786    789.10589   -951.73545   -690.50596   -3379.4649 
 9802000    254.34967   -4696.9715   -4206.4368   -4696.9715            0    7880.3068     19.90818    20.002402    20.484322    8157.0912    8694.8467    8299.4269    6646.6469    -1039.288   -694.37289    944.71524   -3268.9734 
 9803000    244.62631   -4693.8255   -4222.0431   -4693.8255            0    6366.7476    20.172796    19.921876    20.610211      8282.83    7289.8107    5966.2814    5844.1507   -564.14505    798.72692   -1159.7665   -3452.9618 
 9804000    265.94301   -4663.8188   -4150.9253   -4663.8188            0    5992.8002    19.972615    19.863402    20.849613    8271.5439    6403.5523     5763.834    5811.0142    42.635647    390.96789   -94.706801   -3428.0019 
 9805000    267.44819   -4695.6033    -4179.807   -4695.6033            0    8683.3051    19.827814    20.004856     20.68786    8205.8924    9176.0702    7429.8343    9444.0107   -1480.2329   -687.01152    2438.7424   -3140.6366 
 9806000    276.83467   -4678.6784   -4144.7794   -4678.6784            0    4972.5519    19.939565     20.33753    20.372624    8261.5372    3412.5034    4749.6116    6755.5407   -374.30645    625.54086   -938.84672   -3545.6563 
 9807000    243.30304   -4687.7754    -4218.545   -4687.7754            0    5768.7033    20.122357    20.010589     20.41824    8221.6127    6602.8321    4881.4913    5821.7864    26.163299    256.23901   -1439.4795   -3526.8557 
 9808000    266.93406    -4699.128   -4184.3233    -4699.128            0     6248.217    19.770096    20.055781    20.735126    8221.5756    7420.5939    5087.9266    6236.1303    7.8629185   -530.48151    898.88328   -3435.1418 
 9809000    265.66077   -4690.1929   -4177.8438   -4690.1929            0    5806.1894    19.944412    19.713583    20.791922    8174.8807      5697.37    7073.7812     4647.417   -189.58372    1038.7518    -1541.699   -3485.6168 
 9810000    272.86499   -4713.3036   -4187.0605   -4713.3036            0    6836.5966    20.210569    19.876866    20.434336    8208.9381    7435.1175    6897.0117    6177.6607    1.2906662    162.14576    740.02576   -3368.5904 
 9811000    269.02092    -4706.083   -4187.2536    -4706.083            0     4529.466    19.950286    20.301357    20.537299    8317.9733    3460.8195    5741.4618    4386.1167   -46.506993   -814.53347    284.45956   -3637.7881 
 9812000    281.11169   -4671.9625   -4129.8149   -4671.9625            0    5933.7684    20.091462    19.784281    20.630293    8200.4409    6961.2555    7283.0612    3556.9885    135.44353    787.53304   -934.97856   -3420.1658 
 9813000    273.79048   -4674.7101   -4146.6821   -4674.7101            0    8428.3735    19.755942    19.955616    20.627517    8132.2332    10146.615    7878.6535    7259.8521   -676.75667   -397.89303   -244.67949   -3147.0747 
 9814000    266.15181   -4695.6566   -4182.3604   -4695.6566            0    6177.8726    19.913556    20.045278    20.620301    8231.0626    7476.4704    5784.1946    5272.9529    44.664759    1178.5222    190.32612   -3440.7587 
 9815000    261.95048   -4701.3881   -4196.1946   -4701.3881            0    6522.5163     20.06205    20.151281    20.363587    8232.5095    6543.7379    5940.6119    7083.1991    941.36976   -272.68059    245.26692   -3413.0836 
 9816000    263.92473   -4655.9799   -4146.9788   -4655.9799            0    6088.4101     19.99788    19.910222    20.713043    8247.1511    4481.7511    7054.4836    6728.9956   -22.291173    294.22474   -274.57354   -3414.6878 
 9817000      253.967   -4693.5416   -4203.7449   -4693.5416            0    6490.1666    19.741492    19.934172    20.830725    8197.5213    8070.4232    5449.5978    5950.4787   -582.24432    534.50787    7.3989489   -3427.8296 
 9818000    258.54602   -4680.0395   -4181.4118   -4680.0395            0    7279.0891    19.716608    20.079107     20.75211    8215.5919    7866.2108    5834.5587    8136.4979    85.261891    970.87758   -509.94262   -3309.2606 
 9819000    253.66553   -4714.0768   -4224.8615   -4714.0768            0    7254.2881    20.027788    20.150206    20.383083    8225.8795    6371.8834    6563.6858    8827.2951    1402.7328    250.60114   -27.930523   -3354.5935 
 9820000    264.53883   -4683.8465   -4173.6611   -4683.8465            0    6567.5846    19.895142    19.908195    20.734423    8212.4152    6890.4658    7162.7999    5649.4882     247.9322    426.99241   -1282.9405   -3387.0638 
 9821000    267.33049   -4686.6416   -4171.0723   -4686.6416            0    5449.0997    19.752007    19.919807    20.822335     8192.676    7466.1414    5032.5775    3848.5802    3.6710726    -1146.115   -117.34429   -3520.0042 
 9822000    284.08023   -4680.8947    -4133.022   -4680.8947            0     4442.082    19.930084    20.195539    20.652074    8312.4345    3194.9284    3976.7426     6154.575   -652.16422   -448.14494   -105.30069   -3594.5159 
 9823000    256.36813   -4705.5119   -4211.0844   -4705.5119            0    5222.8463    20.049125    20.040387    20.563788    8262.3703    5454.5966    4485.0062    5728.9362    503.05599    362.82416    260.90716   -3581.7408 
 9824000    260.86774   -4703.3157   -4200.2103   -4703.3157            0    5969.1751    20.088339    19.966054    20.408454    8185.5218      6347.22    4094.2616    7466.0438   -835.39715    310.55269    275.50486   -3487.6255 
 9825000    259.82216   -4687.9283   -4186.8394   -4687.9283            0    7634.9882    19.871045    19.922832    20.678665    8186.4252    8716.4831    7634.6942    6553.7873     970.2296    3.3358096    1696.1185   -3275.2934 
 9826000    267.65943   -4711.6796   -4195.4759   -4711.6796            0    5619.0316    19.866773    19.917582    20.766072    8217.0945    6453.3652    6104.7997      4298.93    470.12165   -863.09142   -173.78304    -3522.103 
 9827000    244.53283   -4706.3008   -4234.6987   -4706.3008            0    5745.8815    20.043717    19.976791    20.658888    8272.0076    6106.4944    4937.7069    6193.4433    123.64038    -402.4482    557.97389   -3541.5228 
 9828000    267.82598   -4663.8564   -4147.3315   -4663.8564            0     8589.147    20.070554    19.962984     20.37002    8161.6179    5534.8401    11247.792    8984.8089    559.42892    1487.8094    433.90443   -3124.9754 
 9829000    252.56381   -4685.8917   -4198.8012   -4685.8917            0    8438.4479    19.934771    19.909646    20.514318    8142.0142    8332.2845    8784.7374    8198.3216    113.29594    422.32651   -270.23554   -3196.7952 
 9830000     260.8445   -4664.6524   -4161.5918   -4664.6524            0    5827.8565    20.189876    19.802858    20.617419    8243.1995     6017.174    4924.5963    6541.7992    186.20006    30.628046   -1287.8046    -3460.975 
 9831000    269.17111   -4695.9166   -4176.7975   -4695.9166            0    5246.0773    19.881686    20.055499    20.663147     8239.164    5879.1728    4749.6439    5109.4153    -16.29186    620.02744    699.56084   -3546.4301 
 9832000    254.32148    -4713.779   -4223.2987    -4713.779            0    3977.6147     20.04988    19.935921    20.835295    8328.1344    2479.8407    6091.2645    3361.7389   -138.42252    386.48122    -1433.988   -3740.1884 
 9833000    261.28993   -4670.5789   -4166.6593   -4670.5789            0    6913.4367    19.982756    19.885548    20.628314    8197.0328    6810.9715     7186.339    6742.9996    136.87968   -774.68263     577.3648   -3340.1903 
 9834000     275.6591   -4670.4328   -4138.8011   -4670.4328            0    6904.0148    20.067242    19.573825    20.871953    8198.3504    6772.7053    7917.7022    6021.6369    925.20416   -100.95348    78.160456   -3313.3258 
 9835000    259.66308   -4712.6816   -4211.8995   -4712.6816            0    6483.1438    19.970803    20.071642     20.44919    8196.9924     6350.514     6073.279    7025.6386   -1182.9361    -1048.893   -191.99602   -3436.8739 
 9836000    253.66326   -4686.5617   -4197.3507   -4686.5617            0    5577.3926    20.249599     19.94635    20.362849    8224.6688     3796.664    6396.6119    6538.9019    250.56871    458.62528     758.9946   -3528.3517 
 9837000    262.53387   -4708.9479   -4202.6292   -4708.9479            0    6257.7938    20.040406    19.913736    20.621157    8229.4779     4266.261    8685.4816    5821.6386    390.47683    1444.3493   -263.97154   -3451.5782 
 9838000    271.99099   -4701.1155    -4176.558   -4701.1155            0    6265.5301    19.898799    19.806708    20.790603    8194.1943     6530.072    4814.0096    7452.5086    456.02857   -973.59797   -1572.4207   -3427.8026 
 9839000    246.64488   -4705.1169   -4229.4415   -4705.1169            0      6443.04    20.025363    19.763632      20.6828    8185.7126     6935.636    6055.4938    6337.9902    314.92783   -568.23643   -1130.4197   -3460.2699 
 9840000    266.94495   -4704.0237   -4189.1979   -4704.0237            0    7879.2578    19.878786    19.905875    20.551287    8132.2393    5161.3229    10504.932    7971.5184   -759.33403    1445.4538   -596.18829   -3254.7151 
 9841000    265.76238   -4713.8042   -4201.2591   -4713.8042            0    6165.2698    20.003154    20.131206    20.436003     8229.325    5120.5649    7399.6153    5975.6292   -22.170225    1537.4377   -577.06742   -3461.3265 
 9842000    251.05324   -4671.6591   -4187.4818   -4671.6591            0    6378.1341    19.997048     19.77475     20.69074    8181.8763      7003.76    6187.1372    5943.5051   -152.11383    75.299859    558.98013   -3426.4156 
 9843000    269.93367   -4689.6558    -4169.066   -4689.6558            0    5124.9267    19.888964    20.121487    20.733147    8297.3128    5512.4134    4653.3229    5209.0439    144.77876    476.08069    964.75153   -3548.9099 
 9844000    267.78718   -4705.5825   -4189.1324   -4705.5825            0    5951.6248    20.118684    19.933651    20.517016      8228.12    3107.3758     8364.575    6382.9236   -362.99374    398.50016   -1335.5683   -3474.9452 
 9845000     259.9546    -4728.285   -4226.9407    -4728.285            0    5363.5906    19.903223    20.134927    20.414272     8181.018    3559.4649    6413.2594    6118.0475   -184.72303     10.39197    438.73654   -3587.0013 
 9846000    260.82752   -4677.0552   -4174.0274   -4677.0552            0    7354.1642    19.971595    19.903745    20.555133    8170.8613    6360.6991    8471.7254    7230.0681    467.46942   -1183.4902    869.13832   -3297.6785 
 9847000    267.09262   -4699.1246    -4184.014   -4699.1246            0    6928.9577    19.874159    19.968468    20.693647    8212.4088    6601.9834    7759.7333    6425.1563    32.075756    121.76439   -595.17136   -3354.1358 
 9848000    273.66011   -4720.2003   -4192.4237   -4720.2003            0    6091.9911    19.836616    20.100188    20.587019    8208.4501    7064.3919    4979.8063    6231.7751   -955.32777    -221.9083    764.00139   -3463.1403 
 9849000    258.93555   -4684.8129   -4185.4339   -4684.8129            0    7920.7343    19.978861     20.01528    20.470239    8185.6903    6738.8414    8647.5284     8375.833    17.689997    304.72911    425.36394   -3239.8575 
 9850000    261.05416   -4684.5992   -4181.1342   -4684.5992            0    5486.7215    20.314043    19.627764    20.763228    8278.6988    2869.9711    9056.4179    4533.7753     99.85151    312.40754   -702.88304   -3518.6876 
 9851000    247.91034   -4711.5249    -4233.409   -4711.5249            0    4876.6497    19.949877    20.241221     20.55404     8299.924    6604.0475    2589.9184    5435.9831    118.95784   -322.47332   -889.04426   -3643.1107 
 9852000    265.28091   -4692.3137   -4180.6972   -4692.3137            0    8327.4619    19.842282    19.885591    20.715482    8173.8216     11258.14    6522.6348    7201.6108   -376.25403    152.36499    199.28259   -3188.0071 
 9853000    266.22841   -4677.7074   -4164.2635   -4677.7074            0    7529.8102    19.899388    19.872714    20.659178    8169.7718    6340.1464     8193.247    8056.0373      357.994    -142.4177    1528.1276   -3267.1036 
 9854000    266.55871   -4675.4033   -4161.3224   -4675.4033            0    5902.3095    19.718384     20.32748    20.412593    8181.8786    4953.4219    5535.8713    7217.6354   -703.15435    471.41833    397.31672   -3457.0334 
 9855000    273.86255   -4663.7162   -4135.5493   -4663.7162            0      6343.38    19.828044    19.896285    20.737646    8181.0928     5917.587     8503.481    4609.0721    206.22291   -336.40335   -1158.3995   -3378.7025 
 9856000     261.6285   -4714.8817   -4210.3091   -4714.8817            0    6650.3983    19.988761    19.828973    20.863002    8269.1885    6283.6152    8101.1356     5566.444    382.24325   -47.499014    -619.3957   -3408.2868 
 9857000    270.83067   -4720.7766   -4198.4569   -4720.7766            0    4263.2643     19.94785     20.03042    20.835478    8325.1029     4927.966    3794.4334    4067.3935   -664.89981    487.85707    337.77168   -3680.8408 
 9858000    270.93646   -4680.1606   -4157.6369   -4680.1606            0    7067.9886    19.967958    19.922434      20.5259    8165.4153    7201.3148    6698.2522    7304.3987    635.82421    210.92731    1450.8137   -3315.9511 
 9859000    260.86929   -4689.0458   -4185.9374   -4689.0458            0    5774.4205    20.148667    20.158101    20.231615    8217.2499    5457.3791    4596.8335     7269.049    220.99582    424.03405   -986.46293     -3493.93 
 9860000    258.31988   -4664.1893   -4165.9976   -4664.1893            0    7548.6582    20.060777     19.79522    20.719938    8228.0426    3448.5413    11872.199     7325.234   -419.05691    41.020408   -521.20902   -3260.1771 
 9861000    279.26007   -4696.3052   -4157.7287   -4696.3052            0    5299.0608    19.952717    20.061454    20.721161    8294.2768    4775.5221    6412.8325    4708.8276    610.81713   -718.99277    244.71263   -3516.7357 
 9862000    267.58014   -4693.8389   -4177.7881   -4693.8389            0    3969.9449    19.992666    20.254918     20.41166    8265.6977    2748.1741    3686.6627    5474.9978   -623.48128   -428.58412    636.83645   -3699.2243 
 9863000    259.96838   -4714.1857   -4212.8149   -4714.1857            0    5117.4756      20.0072    20.020484    20.559283    8235.0995    6006.0727    3928.2866    5418.0676   -138.41877     753.4619    631.24638   -3598.2036 
 9864000    255.52831   -4665.9771   -4173.1692   -4665.9771            0    5406.4213    19.982452    19.858391    20.780185    8245.9796    5599.3044    4767.9869    5851.9726    176.29562    582.46387    429.41485   -3522.9976 
 9865000    259.93482   -4699.9256   -4198.6194   -4699.9256            0    5039.6935    20.020591    19.882444    20.797926    8278.7862    5466.7638    6004.2151    3648.1015   -625.71005    1025.4975   -172.73182   -3590.1389 
 9866000    244.11447   -4692.3587   -4221.5634   -4692.3587            0    5122.6644     19.94248    20.102649    20.716224    8305.0656    6774.8791    3342.3625    5250.7515   -697.14324   -871.64897    734.78696   -3601.1019 
 9867000    252.87374   -4703.5107   -4215.8225   -4703.5107            0    6913.1286    20.074502    19.913988    20.467823    8182.2863    4965.8348    10492.057    5281.4937   -278.86888    692.40539   -568.33733   -3390.8771 
 9868000    257.58886    -4707.613   -4210.8312    -4707.613            0    6278.4668    20.010968    20.270787    20.284214    8228.0493    5409.9154    5331.5907    8093.8943    122.42211    1166.6401    1016.8619   -3457.4299 
 9869000    258.60808   -4721.8733   -4223.1259   -4721.8733            0    4044.8667    19.999296    20.018435    20.711038    8291.7598     4612.894    2718.7755    4802.9305    -36.41068    1496.4304   -1215.3874    -3733.993 
 9870000    261.71782   -4685.0908   -4180.3459   -4685.0908            0    7108.6698    19.959654     19.89721    20.679264    8212.5922    7485.0617    7467.9036     6373.044    70.528917    338.54126   -6.3333986   -3328.9247 
 9871000    259.74535   -4717.5694   -4216.6286   -4717.5694            0     8777.174    19.928852     19.87643    20.533687      8133.69    8774.6463    10374.247     7182.629   -91.924949     781.9939   -290.35682   -3175.4668 
 9872000    257.78523   -4650.2382   -4153.0777   -4650.2382            0    7503.7027    19.968167    20.115149     20.46683    8220.7614    7516.1466    6347.4033    8647.5583   -1312.7298   -224.44384   -1296.5028   -3253.4485 
 9873000    273.10274   -4698.8169   -4172.1152   -4698.8169            0    7442.5406    20.114756    19.947535    20.408544    8188.7197    6386.0356    7531.2812    8410.3051    86.829407    1018.2018    546.50301   -3283.2967 
 9874000    261.13263   -4680.0582   -4176.4419   -4680.0582            0    5458.3655    19.907873    19.925992    20.861998    8275.6231    7241.2608    4237.7875    4896.0483    41.049363    1615.7369   -286.65542   -3517.6637 
 9875000    276.36242   -4686.6093   -4153.6211   -4686.6093            0    6998.1237    19.905499    19.909976    20.739117    8219.2857    7001.8444    6988.6358    7003.8909    143.74854   -894.29244    1692.8935   -3314.7571 
 9876000    255.30186   -4718.5121    -4226.141   -4718.5121            0     4959.989    19.796771     20.27131    20.561803    8251.5847    5686.2299    4040.4173    5153.3199    95.450642    1082.8517   -732.53376   -3629.2515 
 9877000    262.44916   -4694.6893   -4188.5341   -4694.6893            0    6292.7417    20.027282    19.932926    20.580822    8215.9121    8717.8343    3448.7328    6711.6579   -974.37868    553.99278    118.10718   -3434.5337 
 9878000     264.2812   -4711.5997   -4201.9112   -4711.5997            0    5436.1547    19.825108    19.890319    21.067239    8307.3964    7155.6154    5649.3853    3503.4633   -175.44986    798.75813    999.88688   -3543.2946 
 9879000     266.9066   -4652.7348    -4137.983   -4652.7348            0     6148.008    19.806202    19.992367    20.763864    8221.9265    5291.3136    6561.4974     6591.213   -102.31855    808.94686    1486.6997   -3400.7854 
 9880000    254.13829   -4708.1239   -4217.9968   -4708.1239            0    6686.0738    19.800267    20.009326    20.578097    8152.8364    8374.2627    5528.6191    6155.3396   -15.954503    1261.4986    -1074.303   -3423.0176 
 9881000    251.76229   -4714.0018    -4228.457   -4714.0018            0    5819.1469    20.034298    19.922858    20.570212    8210.4039    4449.4553      7137.52    5870.4653    149.44304    1026.4291    650.30763   -3531.6705 
 9882000     268.5169   -4670.3523   -4152.4948   -4670.3523            0    5032.1316    20.192136    19.870436    20.616484    8271.8809      5161.68    4885.1002    5049.6147   -375.91656    538.47425    656.31848   -3545.4341 
 9883000    271.97998   -4673.0558   -4148.5195   -4673.0558            0    7996.5187    19.936884    19.859856    20.608861    8159.9475    9381.2016    8133.8676     6474.487    -35.43595    604.40581    650.69427   -3196.8981 
 9884000    247.35253   -4683.7471   -4206.7069   -4683.7471            0    5371.4698    19.935425    20.106881    20.695011    8295.3718    6026.4941    4704.2736    5383.6416   -812.54076   -1405.9289   -1668.3306   -3556.8692 
 9885000    264.69724   -4708.4266   -4197.9358   -4708.4266            0    6958.9333     19.90327    19.811873    20.860845    8225.8706    8505.5659    7061.2657    5309.9683   -65.504248    64.441955    1391.9011   -3363.1012 
 9886000    266.17821   -4693.2851    -4179.938   -4693.2851            0    5272.5569    19.978098    19.863798    20.736948    8229.2689    4843.0828    6137.6908    4836.8972   -838.01929   -844.68513    435.22186   -3547.1498 
 9887000    256.14782   -4680.6531   -4186.6505   -4680.6531            0    6014.2934    19.875913    19.885868    20.687806    8176.8507    7170.2145    5010.2123    5862.4535     611.3672    141.04319    -406.5603   -3469.4401 
 9888000    258.61734   -4704.1395   -4205.3742   -4704.1395            0    6157.1455    20.127204    19.913978    20.616336    8263.2892    6949.7031    6401.3275    5120.4058   -299.32746   -52.395505    582.45831   -3463.3668 
 9889000    248.97248   -4712.4048   -4232.2404   -4712.4048            0    6126.2805    20.016849    20.168792    20.537695    8291.3887    8701.6248      4388.34    5288.8768    23.031325    75.302729   -110.12525    -3491.442 
 9890000    259.33979   -4683.6561   -4183.4976   -4683.6561            0    4997.4839    19.806846    20.050488    20.879643    8292.0771    5996.1328    3644.5845    5351.7345    308.40409    1510.1983   -292.49958   -3579.1446 
 9891000    259.30274   -4698.3586   -4198.2715   -4698.3586            0    6867.9439    20.173823    19.796617    20.620622    8235.3289     6274.577    7123.9083    7205.3465   -573.90835   -358.66713   -1313.0033   -3373.4052 
 9892000    254.41139    -4676.039   -4185.3852    -4676.039            0    6659.4978    19.961892    20.293684    20.295083    8221.5448    7738.3151     4586.367    7653.8112    365.53181    214.80723   -935.89979   -3386.8928 
 9893000    264.51014   -4710.5907   -4200.4607   -4710.5907            0    6091.5621    19.855947    19.956493    20.696323     8201.023     5574.614    6810.8223    5889.2499   -153.40436    550.68841    53.122021   -3471.8885 
 9894000    261.70739   -4682.6914   -4177.9667   -4682.6914            0    5652.9599    20.115195    19.682981    20.738064    8210.7596     6757.414    4494.4909    5706.9748    406.98715    410.90965    1077.7563   -3501.0502 
 9895000     263.6206   -4688.6619   -4180.2474   -4688.6619            0     7119.121    20.039665    19.936845    20.495069    8188.3477      7217.16    6949.7145    7190.4885   -344.30183    902.82273   -571.10418   -3330.0915 
 9896000    262.36501   -4707.0035   -4201.0105   -4707.0035            0    7600.6442    19.936502    20.101313     20.33663    8149.9018    5810.2773    8829.7755      8161.88   -200.79243    1633.3358   -531.35382   -3297.6135 
 9897000    252.32742    -4699.973   -4213.3384    -4699.973            0    7656.5018    19.835266     19.93318    20.726139    8194.6994    7166.7938    8726.8677    7075.8439    267.09502   -670.79131    371.91376      -3298.3 
 9898000    254.68679   -4695.3936   -4204.2087   -4695.3936            0    7029.7547    19.952221    19.790823    20.700565    8174.0498    7423.5815    5543.2689    8122.4135      194.431    17.592501   -1455.5772   -3366.1908 
 9899000    265.47089   -4673.7653   -4161.7824   -4673.7653            0    5683.7229     20.11656    20.031334    20.430161    8232.5691    3507.0157    7642.0905    5902.0625    586.20191   -1062.7808   -796.28504   -3479.3743 
 9900000    257.80649    -4692.233   -4195.0315    -4692.233            0    6127.4023    19.897137    19.948075    20.754427    8237.6307    6793.4942     5303.024    6285.6886    -40.85172    1918.0584    1526.0684   -3458.9013 
 9901000    272.36087   -4672.3245   -4147.0536   -4672.3245            0    5993.9645    19.952966    19.860378    20.850264    8262.4055    7889.1566    4868.3109    5224.4261   -485.34263    285.00184   -626.07802   -3424.7886 
 9902000    276.33005   -4702.1645   -4169.2388   -4702.1645            0    6948.1872    19.904942    20.020282    20.604395     8210.904    8570.0325    5636.9122     6637.617    132.50581   -447.98318   -11.078169   -3337.2099 
 9903000     273.1858   -4714.7802   -4187.9184   -4714.7802            0    5764.9284    19.987272    20.038586    20.462371    8195.5207    7482.2703    4087.8125    5724.7024   -563.93959   -955.47453   -351.64217   -3498.8754 
 9904000    256.66662   -4682.2325   -4187.2293   -4682.2325            0    7925.2743     19.85418     19.95563    20.654153    8183.2306    8115.6589    8254.0879     7406.076    226.60406   -627.38599    2168.7518   -3241.3952 
 9905000    263.06951   -4694.5015   -4187.1498   -4694.5015            0    6437.4003    19.762478    19.936131    20.873307     8223.819    5948.8571    6973.3172    6390.0265     -400.572   -72.130896    451.56188    -3415.074 
 9906000    247.23733   -4687.3404   -4210.5224   -4687.3404            0    5209.6709    20.038469     20.00952    20.510886    8224.0477    3881.1621    4723.4777     7024.373   -251.77992    20.211389   -738.34043   -3585.6781 
 9907000    265.88448   -4693.9652   -4181.1846   -4693.9652            0    4498.4054    19.940163    20.051016    20.735695    8290.5565    3838.8864    5225.4115    4430.9183    1068.3122   -5.1451415    297.69282   -3637.2857 
 9908000    240.47126   -4682.4342   -4218.6651   -4682.4342            0     5239.325    20.061904    20.067575    20.515906     8259.576    4811.5478    5230.5402     5675.887   -177.04305   -734.50362    178.09799   -3587.5494 
 9909000    263.28531   -4715.2155   -4207.4476   -4715.2155            0    7266.9168    19.996727    20.044403    20.461454    8201.4102    7658.7111    5542.3467    8599.6927   -684.83225    502.12964   -53.610867   -3338.2578 
 9910000    263.46164   -4685.9543   -4177.8464   -4685.9543            0    5967.7644    20.233963    19.708597    20.591318    8211.4682    3362.7243    8157.0906    6383.4783   -1057.3234   -360.83027    -27.13327   -3463.1718 
 9911000     253.7027   -4697.9552   -4208.6682   -4697.9552            0    5647.3542     19.78479    20.133692    20.688447     8241.054    5993.4833    5519.2368    5429.3426    106.54698   -534.12239    370.58216   -3529.9278 
 9912000    255.30547   -4680.8746   -4188.4965   -4680.8746            0    4461.9881    20.074768    20.012691    20.790715    8352.6724    3451.0717    4679.6369    5255.2556    314.57952     210.6521    490.34571   -3644.9587 
 9913000    264.49001   -4685.2522    -4175.161   -4685.2522            0     7179.614    19.877385    20.042419    20.498089    8166.2519    8599.4485    5814.1615    7125.2318   -162.65302    1913.1355   -198.25791   -3320.0948 
 9914000    260.63791   -4700.2528   -4197.5906   -4700.2528            0    6698.2953    19.913091    19.883677    20.559489    8140.4367    5500.6992    7845.0233    6749.1634    335.84904   -77.096811   -212.64305   -3402.3696 
 9915000    261.46252    -4701.362   -4197.1095    -4701.362            0    8728.4714    19.932779    19.918211    20.652392     8199.522    8984.2932    8181.7492    9019.3717    127.90031    1403.0111    1093.7661   -3153.3448 
 9916000    261.03087   -4669.5141   -4166.0941   -4669.5141            0    6909.0611    19.826069    19.945458     20.71289    8190.7057    5935.4924    7634.3821    7157.3086   -72.010163   -369.67413   -156.96594   -3340.7858 
 9917000    264.79106   -4686.0226   -4175.3508   -4686.0226            0    6779.2799    20.026256    20.074013    20.332157    8173.6759    6698.1129     6214.471    7425.2558   -379.61587    134.04986    264.95497   -3367.2289 
 9918000    265.76175    -4664.917   -4152.3731    -4664.917            0    8245.6433    19.811168    19.920426    20.765475    8195.0305    8778.2147    8365.8332     7592.882    -309.9307    1469.7408   -1185.0016   -3166.8859 
 9919000    261.09381   -4662.6517   -4159.1103   -4662.6517            0    6379.3531     20.04313    19.827247    20.712699    8231.2281    6927.9411    6723.9212     5486.197   -49.677571    221.75851   -561.11354   -3393.3071 
 9920000    263.22708   -4690.9973   -4183.3417   -4690.9973            0    6598.7947     19.94286    20.179487    20.530657    8262.2895    6889.7809    5235.3459    7671.2572   -289.07774    338.78274   -1215.0641   -3388.2066 
 9921000    268.23283   -4682.2166    -4164.907   -4682.2166            0     5454.434     19.86753    19.753038    20.908887    8205.5687    4216.7076    8212.8771    3933.7172    143.80778   -119.44202   -1034.9162   -3512.1759 
 9922000    254.51857   -4692.3572   -4201.4967   -4692.3572            0    6727.3791    19.870953     20.05624    20.581604    8202.5223    5140.4113    8372.1579    6669.5682   -42.789965     726.7033   -2194.5481   -3396.7315 
 9923000    252.81269   -4702.1973   -4214.6268   -4702.1973            0    6959.9251    19.699092    19.814788    21.139807    8251.5712     7852.426    8229.2114     4798.138   -253.08168   -615.66357    675.21232   -3377.0645 
 9924000    259.26197   -4690.7327   -4190.7242   -4690.7327            0    5728.8735    19.935441    20.065965    20.599067    8240.1181    5725.0751    6671.8013    4789.7443    238.80988   -824.99277    340.32383   -3502.2644 
 9925000    256.64826   -4693.7078   -4198.7401   -4693.7078            0    6426.0247    20.071303    20.116635    20.463158    8262.3494    8536.6551    4574.0621    6167.3568   -26.577001   -1257.9926    900.73248   -3424.4177 
 9926000     248.1309   -4689.5341   -4210.9928   -4689.5341            0    9055.3675    20.021651    19.962677    20.370482    8141.7916    7877.0924    10102.053    9186.9569   -42.407481    795.64596    279.82713   -3135.7614 
 9927000    259.25236   -4687.5871   -4187.5971   -4687.5871            0    4602.9864    20.137163    19.877182     20.69058    8281.8192    3759.0364    5538.8215    4511.1014     481.8108   -200.65441    939.12056     -3631.64 
 9928000    267.12816   -4705.1996   -4190.0204   -4705.1996            0    5974.0734    19.951465    19.985294    20.680976    8246.2474    5515.3806    6470.9496    5935.8898    534.35576    763.45554   -2183.0838   -3471.5601 
 9929000    269.42853   -4666.9637   -4147.3481   -4666.9637            0    6732.4324    19.846964    19.956601    20.636291    8173.5797    8200.6665    5817.7619    6178.8687    672.40806   -147.14895    1372.4057   -3344.8201 
 9930000    249.80861   -4643.4155   -4161.6385   -4643.4155            0    6875.1122    20.035745    20.052538    20.628405    8287.8235    8653.0263    7244.5905    4727.7198    466.26465    588.52278    34.949883   -3330.6478 
 9931000    263.29359   -4700.2566   -4192.4727   -4700.2566            0    7939.8265    20.083944    20.001797    20.491717    8231.8293    7004.5388    7766.8436     9048.097   0.10142158    1447.8479   -563.96959   -3239.2744 
 9932000    263.80321   -4694.4148   -4185.6482   -4694.4148            0    5899.6879    19.929865     19.95272    20.653662    8213.0324    4991.5655    6565.2421    6142.2561   -286.77943   -1563.0105    1645.8321   -3478.9915 
 9933000    256.83086   -4707.4234   -4212.1035   -4707.4234            0    7904.0743    19.774357    20.130405     20.41972    8128.3922    8792.4022    6480.0133    8439.8075    348.91491    1472.9993    347.06715   -3275.1208 
 9934000    259.52081   -4718.6534   -4218.1457   -4718.6534            0    7069.0891     20.18499     19.97681    20.378155    8217.1183      6752.72    6829.5849    7624.9625     1273.512    1480.5744    598.35473   -3370.9985 
 9935000    265.23529   -4678.3908   -4166.8622   -4678.3908            0    7205.2321    19.914096    19.994234    20.689045    8237.6972    8842.1347    6407.7154    6365.8461    554.31159   -905.06951    513.74772   -3301.2375 
 9936000    256.09678   -4643.9258   -4150.0216   -4643.9258            0    8001.3884    20.043608    19.761425    20.707879    8202.1889    7910.0887     8844.131    7249.9454    293.53987    -1082.802    352.09634   -3192.8914 
 9937000    252.86321   -4687.8019   -4200.1339   -4687.8019            0    4606.7646    19.893691    20.018571     20.75551    8265.7419     5976.113    4247.9305    3596.2502    350.40696   -361.85063     44.30819   -3644.8006 
 9938000    276.30999    -4708.427   -4175.5399    -4708.427            0    5429.3972    20.094178    19.892043    20.670617    8262.3404    5441.9724    6055.8046    4790.4146    523.72346    916.32101    16.484842   -3521.3098 
 9939000     252.4575   -4703.8115   -4216.9259   -4703.8115            0    6140.2064    19.891732     20.11473    20.596419    8240.9738    8005.8107    3559.5465     6855.262   -408.64858    947.78528    352.00034   -3478.9582 
 9940000    287.91127   -4716.2806   -4161.0196   -4716.2806            0    6253.9899    20.060894    20.018809    20.502708    8233.7893    5632.8672      6931.47    6197.6325     132.6287    1032.5215    503.95258   -3410.0319 
 9941000    267.75724   -4699.3821   -4182.9897   -4699.3821            0    6150.4549    19.934534    19.972704    20.643307    8219.0614    5499.7124    7203.4583    5748.1939    894.19096    1117.8948    161.05714   -3445.7557 
 9942000    257.38672   -4681.6502   -4185.2583   -4681.6502            0    5531.4369    19.955349    19.935272    20.771389    8263.1767    5658.5667    6079.7829     4855.961    100.12841    2251.0092   -1059.9162   -3518.6651 
 9943000    259.19577    -4677.712   -4177.8312    -4677.712            0    6223.3748    19.835894    19.860041    20.866367    8220.1314     6600.775     6343.014    5726.3355    795.34022   -537.61372   -459.00032   -3431.7594 
 9944000    274.44083   -4695.2864   -4166.0042   -4695.2864            0     5219.048     19.91588    20.097458    20.607841    8248.4648    5135.3181    4135.0197    6386.8061    1116.4953    16.982173    1345.0284   -3538.1768 
 9945000    266.99121   -4703.1223   -4188.2073   -4703.1223            0    5182.6794    19.894003    20.219667    20.540139    8262.2731    5781.5606    4634.2808    5132.1969   -605.67184   -1118.6722    1045.2134   -3563.7111 
 9946000    264.75028   -4708.2376   -4197.6445   -4708.2376            0    5276.4221    20.070048     20.13318    20.563728    8309.2654    7252.9881    3700.9629    4875.3151    786.36526    1694.6482    517.01114   -3558.2365 
 9947000    267.30316   -4683.5379   -4168.0213   -4683.5379            0    8576.0114    19.820427    20.022818    20.400335    8096.0934    10748.028    6709.7276    8270.2785   -224.39026   -110.24277    526.79472    -3155.424 
 9948000    268.40846    -4703.254   -4185.6057    -4703.254            0    4424.1303    20.232895    19.936671    20.530324    8281.4517    2476.4523     4864.264    5931.6746   -128.72519    253.45303    414.71778   -3651.2749 
 9949000    277.03603   -4691.1904   -4156.9031   -4691.1904            0    6220.3907    19.624532     20.10377    20.848694    8225.3744    6076.5535      6609.15    5975.4687   -516.28521    1126.8157    -138.5291   -3410.7135 
 9950000    255.27061   -4689.8371   -4197.5262   -4689.8371            0    6215.0489     19.96316    19.815538    20.785842    8222.4791    6406.9592    7256.0507    4982.1368    11.825617   -682.72574    870.79482   -3452.2398 
 9951000    252.85034   -4679.4483   -4191.8052   -4679.4483            0    6212.0039     19.98679    20.029319    20.472936    8195.7621    4000.5117    7319.7577    7315.7424    727.24656   -1019.7195    1768.3234   -3449.3043 
 9952000    258.61831   -4685.9732    -4187.206   -4685.9732            0    6563.4127    20.036979    20.113685    20.495228    8259.9355    7292.8934     6296.198    6101.1466   -1010.9915   -107.55547    1240.3138   -3396.5597 
 9953000    254.53211   -4705.9105    -4215.024   -4705.9105            0    6810.4435    19.931305    19.918461    20.669711    8205.8943    9273.0785    5768.5319    5389.7202   -127.41274    1685.4753    555.64929   -3399.9872 
 9954000    252.17199   -4705.2158   -4218.8809   -4705.2158            0     6006.745    19.845426    19.837589    20.803661    8190.0973    6966.0132    6393.8225    4660.3995    572.59846    1407.1921    308.13062   -3501.4102 
 9955000    260.65812   -4724.4452   -4221.7441   -4724.4452            0    5696.9728    19.946611    19.878998    20.702482      8208.92    6473.7783    5891.1625    4725.9775    309.35232     1238.922    -488.8718     -3539.71 
 9956000    252.88361   -4704.9259   -4217.2186   -4704.9259            0    7662.0096     19.85452    20.040221    20.499722     8156.613    6996.5353    7313.6207    8675.8728    699.14006   -415.80571    1233.2372   -3305.7779 
 9957000    263.24139   -4709.6613   -4201.9781   -4709.6613            0    5894.4725    20.195354    20.107325    20.542469    8341.7741    4394.5333    6940.8101     6348.074   -100.10557    630.91996    444.88915   -3484.8789 
 9958000    263.54419   -4682.4417   -4174.1746   -4682.4417            0    4218.7703    20.063026    19.992657     20.64308    8280.2116    5918.3754    2946.3488    3791.5867   -784.87961    97.534654    143.34991   -3664.7227 
 9959000    262.96964   -4703.2983   -4196.1392   -4703.2983            0    4181.3237     19.86181    20.121893    20.645058    8250.9461     4798.723    3669.5371    4075.7109    149.05791   -73.742607    65.463541   -3692.9939 
 9960000    272.81565   -4684.8516   -4158.7037   -4684.8516            0    5884.2421    19.928279    20.082622    20.633941    8257.9525    4488.7097    6667.6104    6496.4062    837.58381    2565.4169    772.76664   -3450.0423 
 9961000    273.58878   -4712.8465   -4185.2076   -4712.8465            0     5938.159    20.062847     19.99861    20.576419    8255.8573    6460.4083    5131.3807     6222.688   -409.55104    59.168111    259.11335   -3470.2342 
 9962000    257.28925   -4690.5183   -4194.3144   -4690.5183            0    5706.8551    19.919233    20.019917    20.840178    8310.6751    6968.1156    4509.0754    5643.3744    719.61472    327.36399   -181.57829   -3502.6283 
 9963000    266.68381   -4662.9055   -4148.5834   -4662.9055            0    6969.7259    19.943315    19.924992    20.654111    8207.3321    6269.4326      8528.39    6111.3551   -214.25724    1279.3304   -1142.8312   -3314.3384 
 9964000    263.01374   -4684.2321    -4176.988   -4684.2321            0    6766.2227    19.817553      20.0672    20.711767    8236.7133    8359.7403     4371.468    7567.4599   -292.30237   -503.41708    216.07569   -3364.2022 
 9965000    260.51918   -4736.7962   -4234.3631   -4736.7962            0    5316.2558    20.149807    19.982935    20.455272    8236.3619    4236.9796    5581.9647    6129.8232   -275.83457    570.08514    630.71264   -3595.7803 
 9966000    265.71158   -4704.1382   -4191.6911   -4704.1382            0    7746.4041    20.253471     19.66714    20.459334    8149.5223    6390.0324    8732.0805    8117.0995    129.48253   -1033.5588   -1126.1169   -3271.0122 
 9967000    257.88655   -4720.4808   -4223.1249   -4720.4808            0    7228.8924    19.689583    19.984236     20.75295    8165.8972    9098.7749    5554.0558    7033.8464   -458.84721    214.39357   -1704.3279   -3362.2272 
 9968000    265.15212   -4675.6042    -4164.236   -4675.6042            0    6581.9866    20.047531    19.990735    20.534977    8229.6976    6698.1297    5841.3012    7206.5288   -810.52573    177.76324    880.65066   -3374.2548 
 9969000    255.54875   -4670.1486   -4177.3013   -4670.1486            0    7506.1447    19.772001    20.066333    20.746702    8231.2867    9711.2594    6355.8566     6451.318    257.53284    551.88815    687.97695   -3276.2271 
 9970000    253.95907   -4709.4877   -4219.7063   -4709.4877            0    6245.3801    19.922698      20.0012    20.672432    8237.5065    7317.0324    4292.6079       7126.5    1152.2267    921.52773    120.41285   -3469.4139 
 9971000    261.70345   -4699.1175   -4194.4004   -4699.1175            0    7486.5056    20.126247     19.87306    20.540677    8215.6569    8090.0282     6323.827    8045.6615   -38.480324    1703.1752   -559.87548   -3297.3903 
 9972000     268.2122   -4737.4882   -4220.2184   -4737.4882            0     6133.758    19.964251    20.118164    20.574621    8263.6745    8500.2539    3556.4171     6344.603   -660.53694   -138.61603    772.06612   -3480.9949 
 9973000    257.46176   -4700.9092   -4204.3725   -4700.9092            0    5050.2509    20.070022    19.870729    20.658394    8238.6909    5290.4418    4852.2921    5008.0188   -284.73441   -14.220791   -527.06725   -3597.5704 
 9974000    260.97507   -4687.2323     -4183.92   -4687.2323            0    6314.2797    19.816062    19.903354    20.794722    8201.5651    4596.9644    8435.9408     5909.934   -315.50271    1309.1055    1496.4033     -3428.66 
 9975000    254.48799   -4692.9651   -4202.1636   -4692.9651            0    7956.7255    19.977876     19.93012    20.426561    8133.0691    7575.6405    7441.7222    8852.8138   -607.01701    925.77688   -1628.1307   -3258.3968 
 9976000    262.39937   -4693.8895   -4187.8302   -4693.8895            0    5602.7634    20.032166      20.0057      20.5787    8247.0685    6057.5821    5011.2641    5739.4438     889.5522    -1280.263    292.39459   -3513.9577 
 9977000    280.95794   -4658.6925   -4116.8414   -4658.6925            0    6263.5532    19.821725    19.982784    20.925173    8288.3198    6620.2955    6732.1557    5438.2083     971.2454    901.51641    169.09788   -3359.7242 
 9978000    270.18077   -4673.3649   -4152.2986   -4673.3649            0    7315.2046    19.922197    19.990113    20.654612    8225.6367    9329.5332    4829.9484    7786.1321    93.810665    208.03316   -593.91569   -3274.7486 
 9979000    278.59155   -4705.7677   -4168.4805   -4705.7677            0    6383.7117    20.017727     20.02151    20.502475     8217.087    6363.0852    6394.2098    6393.8402    237.52217    1372.0294   -898.82502   -3403.4706 
 9980000    270.57636   -4672.2892     -4150.46   -4672.2892            0    5397.5743     19.98126    20.005499    20.657692     8257.604    5627.2953    4877.8386    5687.5892   -403.70498    1526.7929   -712.63288   -3500.4372 
 9981000    275.52944   -4689.7976   -4158.4159   -4689.7976            0    7523.6892    20.049065    19.873795     20.51932    8175.9437    5937.8769    9224.3211    7408.8696    1029.6383   -561.48549   -1517.6793   -3261.3081 
 9982000    261.11044   -4674.5261   -4170.9527   -4674.5261            0    7718.3271    19.879006    19.794881    20.591721    8102.8947    4511.8287      10884.5     7758.653   -513.59219    62.312482    440.28222   -3258.8594 
 9983000    267.16848   -4713.0303   -4197.7734   -4713.0303            0    5665.3061    19.861162    20.117278    20.586982    8225.5804    5932.0851    6154.5868    4909.2466   -1308.1826   -789.21405   -550.76184    -3518.154 
 9984000     269.8474   -4688.6802   -4168.2568   -4688.6802            0     6824.606    19.853796    19.876865    20.889519    8243.6561    8198.0309     5605.623    6670.1641   -302.21675    553.88458    1061.8644   -3347.7667 
 9985000    258.98615   -4705.7638   -4206.2873   -4705.7638            0    5369.3422    19.551057    20.003394    20.824043     8144.023    3671.2752    7444.5459    4992.2056     311.1727     -1276.06   -997.84132   -3568.5585 
 9986000      264.027   -4712.9516   -4203.7534   -4712.9516            0     7301.932    20.053294    19.874145    20.660733    8234.1712    7076.6279    8538.7398    6290.4282    161.91874   -529.72501    610.59993   -3326.8867 
 9987000    269.17424   -4702.8868   -4183.7616   -4702.8868            0    6621.2991    19.947328    19.899059     20.54699    8155.7797    8659.5185    4807.4002    6396.9785     394.7898    973.33474    1134.3672      -3396.2 
 9988000    263.19215   -4673.3836   -4165.7954   -4673.3836            0    5960.3348    19.923398    19.868512    20.642759    8171.4008    5942.0171    6331.7544     5607.233   -133.63957    1724.1297    1365.0474   -3455.4934 
 9989000    260.39286   -4687.1518   -4184.9622   -4687.1518            0     5641.177     19.75294    19.792042    20.926393    8181.1945    5253.2162    6181.0978     5489.217   -1204.0023     1331.881    205.51595    -3511.889 
 9990000    272.16588   -4698.9906   -4174.0958   -4698.9906            0    6010.1265    19.977473    20.053842    20.672739    8282.0178    6548.2444    6614.5302     4867.605   -97.374873    1580.7486   -206.11316   -3448.1643 
 9991000    255.10916   -4712.7906   -4220.7912   -4712.7906            0    7081.1594    20.053443    20.035253    20.495102    8234.4362    5900.4309    8069.5038    7273.5436    596.70475   -91.734466   -311.59324    -3370.409 
 9992000    269.20143   -4707.6869   -4188.5093   -4707.6869            0     6662.358    19.909773    19.780854    20.674732    8142.3776    7170.1632    6191.6745    6625.2363   -406.10571    51.146439   -195.17633   -3397.3661 
 9993000     264.8552   -4676.4492   -4165.6536   -4676.4492            0     7538.777    19.908676    19.993041    20.686887    8234.1045    7424.0302    8037.2155    7155.0853    177.13753   -1429.2006   -252.45692   -3260.3523 
 9994000    269.93263   -4697.8127    -4177.225   -4697.8127            0    6913.6343    20.000417    20.067702    20.519973    8235.9458    7861.9097     5306.364    7572.6292   -236.18969   -581.36001   -1882.9733   -3346.8088 
 9995000    269.92456   -4664.8654   -4144.2931   -4664.8654            0    8575.2258    19.903019    20.005009    20.666242    8228.4725    10228.145    7222.5558    8274.9769   -298.63177    1041.4038   -862.24788   -3115.2332 
 9996000     261.4645   -4672.8931   -4168.6368   -4672.8931            0    7048.8476    20.089856    19.865974    20.618129    8228.7896    6164.0371    8187.3363    6795.1694   -112.47284    576.63829   -192.03503   -3322.7155 
 9997000    252.72095   -4672.3912   -4184.9976   -4672.3912            0    8563.7538    20.146964    19.905347    20.314611    8146.8149    7104.7838     8682.344    9904.1336    246.04164   -421.32291    362.26109   -3167.5128 
 9998000    260.89444   -4659.2045   -4156.0477   -4659.2045            0    6048.7886    19.925258    19.962972    20.699594     8233.623     5084.395    6975.6053    6086.3653    170.66127    978.07671    442.61537   -3429.7155 
 9999000    244.38932   -4686.5868   -4215.2614   -4686.5868            0    5406.5683    19.977298    19.835578    20.851989    8262.8355    4280.0472    6616.1072    5323.5505   -96.959813   -114.33363   -617.71154    -3563.743 
10000000    279.67012   -4688.0274   -4148.6601   -4688.0274            0    4780.3178    20.046386    19.973527    20.592002    8244.9764    3558.4852    6220.3158    4562.1523    190.35313   -217.55582   -497.73504   -3573.8531 
Loop time of 481.467 on 64 procs for 250000 steps with 972 atoms

Performance: 89.726 ns/day, 0.267 hours/ns, 519.246 timesteps/s
99.2% CPU use with 64 MPI tasks x 1 OpenMP threads

MPI task timing breakdown:
Section |  min time  |  avg time  |  max time  |%varavg| %total
---------------------------------------------------------------
Pair    | 20.67      | 28.675     | 37.359     |  77.9 |  5.96
Bond    | 0.26306    | 0.28031    | 0.29193    |   1.0 |  0.06
Kspace  | 194.55     | 210.22     | 225.2      |  50.4 | 43.66
Neigh   | 2.989      | 3.7532     | 4.5027     |  19.8 |  0.78
Comm    | 99.831     | 112.67     | 124.15     |  54.5 | 23.40
Output  | 0.95797    | 0.95917    | 0.96492    |   0.1 |  0.20
Modify  | 115.54     | 117.59     | 121.81     |  11.1 | 24.42
Other   |            | 7.324      |            |       |  1.52

Nlocal:        15.1875 ave          21 max          10 min
Histogram: 2 6 7 10 12 8 9 5 4 1
Nghost:        2236.06 ave        2272 max        2206 min
Histogram: 3 3 7 15 10 8 13 1 2 2
Neighs:        4769.55 ave        7454 max        3032 min
Histogram: 2 8 12 13 14 7 4 3 0 1

Total # of neighbors = 305251
Ave neighs/atom = 314.04424
Ave special neighs/atom = 2.0000000
Neighbor list builds = 8227
Dangerous builds = 0

unfix		3
unfix		2
unfix		1

write_data	data.final.${pid}
write_data	data.final.0
System init for write_data ...
PPPM initialization ...
  extracting TIP4P info from pair style
  using 12-bit tables for long-range coulomb (../kspace.cpp:340)
  G vector (1/distance) = 0.37147747
  grid = 24 24 24
  stencil order = 5
  estimated absolute RMS force accuracy = 0.0035981818
  estimated relative force accuracy = 1.0835818e-05
  using double precision FFTW3
  3d grid and FFT values/proc = 2197 216
Last active /omp style is kspace_style pppm/tip4p/omp
WARNING: Not all mixed pair coeffs generated from mixing. Use write_data with 'pair ij' option to store all pair coeffs. (../write_data.cpp:312)

write_restart   restart.lmp.${pid}
write_restart   restart.lmp.0
System init for write_restart ...
PPPM initialization ...
  extracting TIP4P info from pair style
  using 12-bit tables for long-range coulomb (../kspace.cpp:340)
  G vector (1/distance) = 0.37147747
  grid = 24 24 24
  stencil order = 5
  estimated absolute RMS force accuracy = 0.0035981818
  estimated relative force accuracy = 1.0835818e-05
  using double precision FFTW3
  3d grid and FFT values/proc = 2197 216
Last active /omp style is kspace_style pppm/tip4p/omp
Total wall time: 0:08:03
