LAMMPS (30 Jul 2021)
Processor partition = 0
  using 2 OpenMP thread(s) per MPI task
using multi-threaded neighbor list subroutines
variable        pid world 0 1
variable        phase world IceV IceIII

shell cd ${phase}
shell cd IceV
include Restart.lmp
echo both
log log.lammps
#include		in.partitions
include		in.temp
variable        temperature equal 241.47
variable	tempDamp equal 100.0
include		in.pressure
variable        pressure equal 7671.4
variable        pressureDamp equal 1000.0 # This is 1 ps
include		in.seed
variable        seed equal 745823

units		real
atom_style	full
read_restart    restart.lmp.${pid}
read_restart    restart.lmp.0
Reading restart file ...
  restart file = 30 Jul 2021, LAMMPS = 30 Jul 2021
  restoring atom style full from restart
  triclinic box = (-3.2228121 -0.12420602 -0.028281779) to (14.832811 22.704205 19.258280) with tilt (-0.31369456 -6.1451964 0.23911822)
  2 by 4 by 4 MPI processor grid
  restoring pair style lj/cut/tip4p/long/omp from restart
  restoring bond style harmonic/omp from restart
  restoring angle style harmonic/omp from restart
  1008 atoms
  672 bonds
  336 angles
Finding 1-2 1-3 1-4 neighbors ...
  special bond factors lj:    0        0        0       
  special bond factors coul:  0        0        0       
     2 = max # of 1-2 neighbors
     1 = max # of 1-3 neighbors
     1 = max # of 1-4 neighbors
     2 = max # of special neighbors
  special bonds CPU = 0.002 seconds
  read_restart CPU = 0.007 seconds

include 	in.setup
variable	out_freq equal 1000
variable	out_freq2 equal 10000
variable	out_freq3 equal 1000

timestep	2.0

neigh_modify    delay 7 every 1

include		in.tip4p
# This is TIP4P/Ice

# create groups ###
group ox type 2
336 atoms in group ox
group hy type 1
672 atoms in group hy

# set charges - beside manually ###
set group ox charge -1.1794
Setting atom values ...
  336 settings made for charge
set group hy charge 0.5897
Setting atom values ...
  672 settings made for charge

# ### TIP3P Potential Parameters ###
pair_style lj/cut/tip4p/long/omp 2 1 1 1 0.1577 8.5
pair_coeff 1 1*2 0.000 0.000
pair_coeff 2 2 0.21084 3.1668
bond_style  harmonic
bond_coeff  1 450 0.9572
angle_style harmonic
angle_coeff 1 55 104.52
kspace_style pppm/tip4p/omp 1.0e-5
pair_modify tail yes

thermo          ${out_freq}
thermo          1000
thermo_style    custom step temp pe etotal epair emol press lx ly lz vol pxx pyy pzz pxy pxz pyz enthalpy

restart 	${out_freq3} restart.lmp.${pid} restart2.lmp.${pid}
restart 	1000 restart.lmp.${pid} restart2.lmp.${pid}
restart 	1000 restart.lmp.0 restart2.lmp.${pid}
restart 	1000 restart.lmp.0 restart2.lmp.0


include         in.dump
dump            myDump all atom ${out_freq2} dump.water.${pid}
dump            myDump all atom 10000 dump.water.${pid}
dump            myDump all atom 10000 dump.water.0
dump            myDump2 all dcd ${out_freq2} dump.dcd
dump            myDump2 all dcd 10000 dump.dcd
dump_modify     myDump append yes
dump_modify     myDump2 append yes


variable natoms 	equal  "count(all)"                        # NUMBER ATOMS
variable H      	equal  "enthalpy/v_natoms"                 # ENTHALPY-per-atom
variable Vol      	equal  "vol/v_natoms"                 # volume-per-atom
fix AVG all 		ave/time ${out_freq} 1 ${out_freq} v_Vol v_H file vol_enthalpy.dat
fix AVG all 		ave/time 1000 1 ${out_freq} v_Vol v_H file vol_enthalpy.dat
fix AVG all 		ave/time 1000 1 1000 v_Vol v_H file vol_enthalpy.dat



fix 		1 all shake 1e-6 200 0 b 1 a 1
Finding SHAKE clusters ...
       0 = # of size 2 clusters
       0 = # of size 3 clusters
       0 = # of size 4 clusters
     336 = # of frozen angles
  find clusters CPU = 0.000 seconds
fix             2 all nph tri ${pressure} ${pressure} ${pressureDamp}
fix             2 all nph tri 7671.4 ${pressure} ${pressureDamp}
fix             2 all nph tri 7671.4 7671.4 ${pressureDamp}
fix             2 all nph tri 7671.4 7671.4 1000
fix             3 all temp/csvr ${temperature} ${temperature} ${tempDamp} ${seed}
fix             3 all temp/csvr 241.47 ${temperature} ${tempDamp} ${seed}
fix             3 all temp/csvr 241.47 241.47 ${tempDamp} ${seed}
fix             3 all temp/csvr 241.47 241.47 100 ${seed}
fix             3 all temp/csvr 241.47 241.47 100 745823


run             250000
PPPM initialization ...
  extracting TIP4P info from pair style
  using 12-bit tables for long-range coulomb (../kspace.cpp:340)
  G vector (1/distance) = 0.37957834
  grid = 24 27 32
  stencil order = 5
  estimated absolute RMS force accuracy = 0.0024048866
  estimated relative force accuracy = 7.2422447e-06
  using double precision FFTW3
  3d grid and FFT values/proc = 5355 672
Last active /omp style is kspace_style pppm/tip4p/omp
Neighbor list info ...
  update every 1 steps, delay 7 steps, check yes
  max neighbors/atom: 2000, page size: 100000
  master list distance cutoff = 10.8154
  ghost atom cutoff = 10.8154
  binsize = 5.4077, bins = 5 5 4
  1 neighbor lists, perpetual/occasional/extra = 1 0 0
  (1) pair lj/cut/tip4p/long/omp, perpetual
      attributes: half, newton on, omp
      pair build: half/bin/newton/tri/omp
      stencil: half/bin/3d/tri
      bin: standard
Setting up Verlet run ...
  Unit style    : real
  Current step  : 4250000
  Time step     : 2
Per MPI rank memory allocation (min/avg/max) = 10.31 | 10.32 | 10.33 Mbytes
Step Temp PotEng TotEng E_pair E_mol Press Lx Ly Lz Volume Pxx Pyy Pzz Pxy Pxz Pyz Enthalpy 
 4250000    244.08195    -4841.717    -4353.523    -4841.717            0    7445.2083    18.055623    22.828411    19.286562    7949.5579    8064.1004    6848.5946    7422.9301   -109.60465   -1624.5631   -652.47449   -3490.3542 
 4251000    241.52748   -4871.4014   -4388.3166   -4871.4014            0    7910.8926    17.976226    22.659079    19.465614    7928.8259    9984.0704    7155.8523     6592.755    2540.6478   -2105.5969    472.54052   -3473.5501 
 4252000    233.60548    -4853.923   -4386.6832    -4853.923            0    7953.9445    18.283563    22.659163    19.211178    7959.0032    7683.3498    8818.2933    7360.1904    607.45131    220.95027   -81.574093   -3463.4379 
 4253000    238.35389   -4868.3593   -4391.6221   -4868.3593            0    8566.1197    17.904913    22.848769    19.341711    7912.7949     7280.169    8427.8625    9990.3278    577.30735    163.20727     1476.496   -3403.0919 
 4254000     237.0836   -4886.1526   -4411.9561   -4886.1526            0    9086.0912    17.911281    22.917262    19.234821    7895.4618    8008.9164    8535.3278     10714.03   -1778.8781   -123.45381   -2168.3662   -3365.7181 
 4255000    248.09273   -4883.3748   -4387.1587   -4883.3748            0    6970.0298    17.925602    22.996242    19.298627    7955.3088    6172.8048    6578.7419    8158.5425   -368.15008    -1323.377   -1243.6915   -3578.4957 
 4256000    243.05101   -4848.3036   -4362.1715   -4848.3036            0    8378.9307    17.679656    23.033433    19.493461    7938.1889    9464.7974    9439.3025    6232.6923    1562.4228    1116.7826   -290.74612   -3392.1399 
 4257000    236.49787   -4855.0655   -4382.0405   -4855.0655            0    9367.6514    17.976867    22.956902    19.147687    7902.1195    7642.2011    9601.4875    10859.266   -415.43256     788.7225   -3115.1059    -3302.472 
 4258000    246.35047   -4870.8796   -4378.1482   -4870.8796            0    8811.2923    17.924372    22.862037     19.33977    7925.1989    9006.6864     8430.251    8996.9395   -591.87981    -139.3789    218.70424   -3359.7312 
 4259000    249.13166   -4846.5517   -4348.2576   -4846.5517            0    9545.4316    17.726567    23.069065    19.256277    7874.5719    11542.015    8468.4638    8625.8164   -405.00421   -564.02783   -115.88955   -3252.0359 
 4260000    235.97106   -4837.0799   -4365.1087   -4837.0799            0    8436.2473    18.067969    22.941273    19.111335    7921.6904    6809.8161    8875.7586    9623.1672     815.2441   -332.71295     108.0059   -3390.4713 
 4261000    243.22152   -4878.3409   -4391.8679   -4878.3409            0    8015.0846    17.840849    22.948766    19.320475    7910.2944    9045.8618    8624.2574    6375.1346   -939.04432    88.174083   -1343.7037   -3467.2194 
 4262000     251.3867   -4847.3516   -4344.5472   -4847.3516            0    6760.4902    17.955292    22.936618    19.378141    7980.5709    6996.8324    7344.8309    5939.8073    366.25288   -384.13842   -13.194975   -3557.7043 
 4263000    245.67748   -4837.0344   -4345.6491   -4837.0344            0    7453.5024    17.990967    23.004848     19.25344    7968.6032    8783.0396    6493.3062    7084.1614    928.11589     421.8523   -267.95507   -3479.4485 
 4264000    248.36675   -4882.4246   -4385.6604   -4882.4246            0    7655.3585    17.857323    22.653954    19.559787    7912.6958    9003.9695    8615.3948    5346.7112    2.0554778   -712.76628   -120.98446   -3502.2432 
 4265000    237.01317   -4867.0287   -4392.9731   -4867.0287            0    5432.5403    18.280872    22.653883    19.369559    8021.5683    3559.9672    5427.4126    7310.2409    482.26303     -436.563   -625.36618     -3757.44 
 4266000      247.684   -4873.0891   -4377.6905   -4873.0891            0    7293.0155    18.089651    22.598361    19.434139     7944.607     7459.898    7529.9851    6889.1634    228.18747    168.81104   -516.74648    -3532.693 
 4267000    249.51158   -4873.7822   -4374.7282   -4873.7822            0    9316.6858    18.121105    22.461311    19.328433    7867.1315    9736.2854    9794.0064    8419.7657     2017.738   -1901.3128    1273.9965   -3305.7872 
 4268000    239.57757   -4885.2541   -4406.0694   -4885.2541            0    6740.9144    18.020105    22.688106    19.467211    7959.0146    6166.4338     8561.498    5494.8114    95.166864    1241.2404   -1412.3987   -3623.6241 
 4269000    238.56666   -4857.7184   -4380.5556   -4857.7184            0    8608.6811    17.982068    22.714544    19.306132     7885.676    7518.1017    9097.8979    9210.0436     30.97928   -461.32574    1378.5269   -3390.5186 
 4270000    237.56231   -4864.0929    -4388.939   -4864.0929            0    8435.6776    17.881788    22.909567    19.351526    7927.6236    9467.8934    7508.3202    8330.8191   -762.16064   -9.8676914   -2324.6432   -3413.6375 
 4271000    240.10424   -4886.3622   -4406.1241   -4886.3622            0    5878.9866    17.926397    23.135716    19.194467    7960.7137    5728.3413    5477.3867     6431.232    1233.2632     227.4961    6.2719242   -3723.5806 
 4272000    234.27803   -4849.3632   -4380.7782   -4849.3632            0    7377.8153    17.936785    23.097652    19.198318    7953.8176    6621.0654    7421.9811    8090.3994    963.53792   -295.36287    -910.3214   -3524.9644 
 4273000    244.42477   -4899.8883   -4411.0086   -4899.8883            0    7924.0374    17.745089     23.14864    19.248226     7906.684    7357.0276    8292.3938    8122.6909   -81.233649    183.09512    582.28754   -3497.2809 
 4274000    249.05051   -4845.2491   -4347.1173   -4845.2491            0    5696.3422    18.122718    23.141307    19.130509    8023.0173    4574.6696    6009.5132    6504.8438   -497.51375    1453.0405   -1244.4403   -3680.6026 
 4275000    255.55295   -4867.4264   -4356.2889   -4867.4264            0    7999.4729    18.034745    22.997656    19.237123    7978.7285    7003.2342    8588.5884    8406.5962    593.55936    610.68665    809.93986   -3425.4577 
 4276000    245.75995   -4858.3404   -4366.7902   -4858.3404            0    7159.2823    17.902266    22.994706    19.343041    7962.7048    8191.6303     7705.689    5580.5276    859.43268   -118.79297    -208.7889   -3535.3979 
 4277000      250.387   -4860.1762   -4359.3713   -4860.1762            0    7691.2349     17.92822    23.054674    19.275994    7967.3325    8998.6109    7667.0596    6408.0343   -1184.0081    901.08541   -685.50421   -3465.6854 
 4278000    232.57253   -4869.7361   -4404.5623   -4869.7361            0    6763.3075    18.044776    22.746726    19.412262    7967.9492     7095.492     6909.296    6285.1346     -178.393    425.18996   -657.28499   -3618.6365 
 4279000    251.86916    -4891.608   -4387.8386    -4891.608            0    7361.6501    18.054923    22.676323    19.414021    7948.4747    8497.3239    8120.8114    5466.8148   -727.45855   -156.78223    -278.7671   -3534.4735 
 4280000    241.32022   -4844.7139   -4362.0436   -4844.7139            0    6758.6563    18.157553    22.477414    19.561061    7983.5506    5466.5216    8267.1686    6542.2789    1309.9421   -5.1617182   -1041.1536   -3575.1204 
 4281000    243.11812   -4842.9645   -4356.6982   -4842.9645            0    6743.6382    18.211646    22.625386    19.411347     7998.359    5757.6904    8468.7763    6004.4479    14.119943    86.099295   -305.77143   -3570.0672 
 4282000    249.85866   -4871.4538   -4371.7057   -4871.4538            0    6779.0994    17.975192    22.688847    19.445803     7930.706    5059.7698    7242.8325     8034.696   -335.89629    126.53009    140.42458   -3587.6268 
 4283000    238.13427   -4862.0376   -4385.7396   -4862.0376            0    8143.4038    18.068696    22.905838     19.19542     7944.574    6918.4658    8420.8231    9090.9226    1060.9246    47.137367    1279.1105   -3442.2167 
 4284000    228.86234   -4871.7325   -4413.9796   -4871.7325            0    6572.8134    17.868526    23.024252    19.337277    7955.5384    8140.4958    5696.5109    5881.4336    894.39101   -282.36159   -1174.6485   -3651.3796 
 4285000    242.66643   -4896.7584   -4411.3955   -4896.7584            0    7738.0749    17.893956    23.250622     19.04887    7925.1986    9899.1271    6089.1177    7225.9799     535.0707    -570.4433    -743.0676   -3517.0219 
 4286000    221.02753   -4853.0768   -4410.9945   -4853.0768            0    8498.1712    17.859128    23.144391    19.189789    7931.8813    7471.2074    9076.1735    8947.1327    440.41953    84.846698   -411.83194     -3427.94 
 4287000    242.98784   -4860.5676   -4374.5619   -4860.5676            0    8108.5955    17.785655    23.108413    19.265566    7918.1141    7689.1017    8140.0303    8496.6545    658.75883   -89.573711   -126.28973    -3438.201 
 4288000    236.21165   -4851.3049   -4378.8524   -4851.3049            0    8228.0404     17.82756    23.150182    19.257573    7947.8173    8844.3222    7009.5191    8830.2799   -399.13999    781.29599   -1298.1802    -3425.134 
 4289000    232.40857   -4857.7563   -4392.9104   -4857.7563            0    7078.8802    18.009081    22.874276    19.289869    7946.3588     6656.491    7479.4931    7100.6565    1242.3576    -326.8491    1654.1304   -3572.5426 
 4290000    242.37956   -4870.6264   -4385.8373   -4870.6264            0    5088.9134    18.060031    22.900082    19.413473      8028.95    5790.7474    4314.0679    5161.9249   -659.55051    112.99769   -1552.7004   -3789.9561 
 4291000    235.08291   -4860.0869   -4389.8921   -4860.0869            0    6173.7724    18.124788    22.841793    19.289245    7985.7986    6341.7467    6493.6216    5685.9489   -598.72603    885.43046   -930.55204   -3670.8656 
 4292000    249.11128    -4874.406   -4376.1526    -4874.406            0    8002.4925    17.996544    22.741959    19.364663     7925.505    9396.5107    7404.2024    7206.7643    2379.6961   -631.47423    890.01083   -3451.1816 
 4293000    241.65045   -4854.9329   -4371.6021   -4854.9329            0    6507.4423    18.025148    22.958275     19.26425    7972.0533    6914.8689    5986.6567    6620.8012   -1124.9091   -472.54098   -406.81887   -3615.0194 
 4294000    237.45552   -4886.3216   -4411.3812   -4886.3216            0    8615.0321    17.911779    22.933402    19.202844    7888.1061    8043.5656    8131.8208    9669.7097     780.6513   -598.16742    482.81336   -3420.3084 
 4295000    234.66721   -4884.6446   -4415.2812   -4884.6446            0    7903.1281    17.953737    22.989687    19.132015    7896.7547     7395.582     7959.343    8354.4595   -1045.0477      195.702   -2933.6894    -3505.109 
 4296000    243.28084   -4888.0629   -4401.4712   -4888.0629            0     7114.447    17.823628    23.086118    19.319226    7949.4437    10055.984    6227.5521    5059.8051    924.68001    219.27061    707.39783   -3576.6615 
 4297000    237.02976   -4862.0929   -4388.0041   -4862.0929            0    7610.2434    17.973965    23.049684    19.193547    7951.7753    9721.6887    6724.9377    6384.1037    379.57342   -333.37836   -773.89138   -3505.4557 
 4298000    236.28819   -4879.5485   -4406.9429   -4879.5485            0    7319.4902    17.917893    23.064103    19.235752    7949.3692    8232.6267    6024.0722    7701.7719   -869.21028   -1584.8705   -421.09753   -3558.3695 
 4299000    248.49694   -4859.3307   -4362.3061   -4859.3307            0    8876.4111    17.851342    22.853478     19.38794    7909.6061    9429.0916    9350.0385    7850.1033    1221.4294   -149.89676    174.36131   -3338.3811 
 4300000    233.20128   -4874.0154    -4407.584   -4874.0154            0    7250.4901    18.046836    22.923983    19.181949    7935.6751    7118.8133    6981.8402    7650.8167    1024.2389   -321.03636   -354.33887   -3568.4581 
 4301000     247.8967    -4827.189    -4331.365    -4827.189            0    6541.6345    17.949106    22.980481    19.437102    8017.3981    7777.8007    5036.4156    6810.6872    347.54933    326.07051    70.840557   -3566.4809 
 4302000     245.2241   -4890.3626   -4399.8841   -4890.3626            0    8762.6851    18.070239    22.678234    19.300909     7909.534    6025.8873    10717.857    9544.3107   -24.538303    1301.3576    396.70194    -3389.087 
 4303000    239.21084   -4902.1654   -4423.7142   -4902.1654            0    7056.4798    18.112061     22.89424    19.171126    7949.5349    5920.9886     7658.645    7589.8058    495.74708     341.8416    220.42289   -3605.6154 
 4304000    247.79033   -4846.2782   -4350.6669   -4846.2782            0    8933.0121    17.890193    22.810031    19.486612    7952.0158    10915.908    7852.9798    8030.1482   -1096.5027   -852.36337   -1430.0895   -3314.6877 
 4305000    251.65389   -4863.4048   -4360.0659   -4863.4048            0    6357.9108     18.18808    23.009171     19.04871    7971.7449    6316.9227    4725.9125    8030.8972    972.72434   -1366.0323    159.28462    -3620.897 
 4306000    257.50642    -4855.637   -4340.5923    -4855.637            0    7781.1993    17.824325    22.885307    19.395922    7911.8905    8381.3492    8824.1599    6138.0888   -426.72731    441.49667    495.96967   -3442.7446 
 4307000    238.50092   -4897.0061   -4419.9748   -4897.0061            0    7833.7644    17.902872    22.856436    19.417581    7945.5937    6959.7779    8214.0326    8327.4827    1275.9632    271.08757    915.04959   -3512.2112 
 4308000    239.11281   -4860.3443   -4382.0891   -4860.3443            0    8245.3342    18.040325    23.128031    19.058384    7951.8667    7507.8808    8371.8667    8856.2552   -72.366619    763.82998     273.2343   -3425.8792 
 4309000    242.76588   -4875.8338   -4390.2721   -4875.8338            0    7040.9721    17.750347      23.1756    19.289897    7935.3801    7755.8536    5965.9549    7401.1076   -1448.9076   -242.81189   -1985.7769   -3575.4247 
 4310000    243.86404   -4873.2846   -4385.5264   -4873.2846            0    7206.8219    17.930549     23.17232    19.119215     7943.889    7690.9884    7494.0117    6435.4655    125.92424    1152.7539   -654.59853   -3550.5911 
 4311000    249.52306    -4872.438    -4373.361    -4872.438            0    6467.3244    18.012858    23.167733     19.11936    7978.8357    5651.9902    5633.5793    8116.4037    200.85988    187.40151   -1019.7824   -3620.8029 
 4312000    248.76884   -4844.4464    -4346.878   -4844.4464            0    4509.6389    17.882478     23.10049    19.489388    8050.9496    5452.5913    4757.5208    3318.8047    1543.2179    660.65196    602.33029   -3817.3794 
 4313000    254.31705   -4864.4136   -4355.7481   -4864.4136            0    7586.0774    18.034439    23.111331    19.064505    7946.0837    7316.6595    6872.9022    8568.6707     1004.962    586.04917   -877.05834   -3476.6318 
 4314000    238.81096   -4865.5035   -4387.8521   -4865.5035            0    7215.5676    17.856911    22.911868    19.414847    7943.2972    6514.4229    8005.8353    7126.4446    974.59071    741.80737    662.09868   -3551.9658 
 4315000    236.88164    -4874.751   -4400.9584    -4874.751            0     7337.428    17.965857    23.152905    19.051982     7924.896     6790.713    6688.9696    8532.6016    724.87646   -1017.0047    143.36465   -3552.9243 
 4316000    247.33279   -4850.9724   -4356.2762   -4850.9724            0    8124.4001    17.964915    22.956488    19.220312    7926.6749    6246.3811    8641.9064    9484.9127    1429.3988    871.09302   -239.02854   -3417.0759 
 4317000    239.04193   -4881.3228   -4403.2094   -4881.3228            0    7375.8687    17.987711    22.913491    19.235338    7928.0614    7083.6002    7731.8269    7312.1791     1407.062   -1647.5486    163.29027   -3550.3919 
 4318000    241.22425   -4867.6751   -4385.1968   -4867.6751            0    6782.6724    18.027729    22.892659    19.369876    7993.9993    6713.9799    6376.5649    7257.4724    305.65302    224.55361   -490.34598   -3594.4438 
 4319000    242.33653   -4898.0709   -4413.3679   -4898.0709            0    8882.3852    17.934186    22.913908    19.207804    7893.2989    8923.5431    9260.2016    8463.4109     -891.774    746.30929    -1555.488   -3390.8662 
 4320000    244.40389   -4862.9294   -4374.0914   -4862.9294            0    9307.8433    17.910617    22.845914    19.332693    7910.6367    9882.2734    9418.9862    8622.2702    1520.3312    -461.9709   -349.29441   -3300.2593 
 4321000    240.30944   -4866.0976    -4385.449   -4866.0976            0    8466.4786    17.988321    22.960934    19.187907    7925.1552    8536.7293    8540.8589    8321.8475   -24.187592     818.3041    152.18545   -3406.8912 
 4322000    260.99737   -4856.3332   -4334.3062   -4856.3332            0    6769.0569    17.957764    23.023417     19.33751    7995.0762    5881.4384    7391.7124    7034.0198   -2277.5154    1238.0845   -1212.9449   -3545.0343 
 4323000    236.62111   -4893.9058   -4420.6344   -4893.9058            0    8161.1414    18.006774     22.90528    19.182557    7911.8496    7558.1962    7350.9384    9574.2896   -153.22123   -1078.3157    2166.6456   -3478.9512 
 4324000    234.37326   -4894.6847   -4425.9092   -4894.6847            0     7289.222     17.84537    22.900399    19.446063    7946.9467    7927.4989    8281.7836    5658.3835   -942.91903    -101.8461   -1421.9939   -3581.1025 
 4325000    231.26437   -4846.3646   -4383.8073   -4846.3646            0    8609.1482      17.9033    22.955095    19.223179    7900.1874    8297.5792    8372.7146    9157.1508   -1557.2705   -738.32895   -1048.3463   -3391.8945 
 4326000    242.83579   -4863.6067   -4377.9052   -4863.6067            0    8396.6641    17.884303     22.92058    19.358297    7935.3257    10088.379    7823.1713    7278.4423    1119.7261    434.56617    1551.9028   -3406.1711 
 4327000    225.82995   -4877.0434   -4425.3556   -4877.0434            0    8385.6664    17.944101    22.856064    19.281336     7907.884    8177.9548    7665.2322    9313.8121    213.99342   -992.84823    514.04488   -3458.2503 
 4328000    253.71071   -4839.5178   -4332.0651   -4839.5178            0    10371.443    17.998998    22.899509     19.07322    7861.3754    9077.9162    9542.6897    12493.723     966.3167    214.75727    49.851098   -3142.9781 
 4329000    243.12452   -4887.4767   -4401.1976   -4887.4767            0    6220.0239    17.839344    23.074801     19.33392    7958.6019    5891.4316    6034.0112    6734.6289    930.41729   -707.76569    1169.8275   -3679.2516 
 4330000    236.46464   -4839.3915    -4366.433   -4839.3915            0    7362.9698    18.004754    22.938421    19.285547     7964.943    7564.3383    7591.7348    6932.8364   -875.00977    638.84028    681.05371   -3511.1465 
 4331000    239.17372   -4860.9677   -4382.5907   -4860.9677            0    7531.0276    17.931598    22.870987    19.362889     7940.979    8346.2554    8793.0588    5453.7687   -1326.4993   -558.73005    295.31441   -3510.4146 
 4332000    231.86087   -4874.2981   -4410.5477   -4874.2981            0    8014.1505    18.063498    22.831195    19.229883      7930.62     7097.318    7700.2257    9244.9077   -537.68068   -86.528661   -1273.4613   -3483.6314 
 4333000    240.70072   -4856.6304   -4375.1992   -4856.6304            0    8249.7313    17.994723     22.85492     19.33326    7951.1507    8672.1325    8511.8798    7565.1816    -777.6878    191.05326    1485.0344   -3418.5655 
 4334000    243.01864   -4833.3815   -4347.3142   -4833.3815            0    6908.5241    18.099676    22.857918     19.30849    7988.3263    4674.0652    7882.7513    8168.7558    -1378.448    60.279842    1698.0879   -3542.4605 
 4335000    241.61693    -4881.126   -4397.8623    -4881.126            0    8699.7989    18.028046    22.591644    19.393483    7898.6402    9552.6286    8920.6918    7626.0763   -175.93737   -938.10213    965.79288   -3395.7015 
 4336000    241.39136   -4887.4079   -4404.5953   -4887.4079            0    6415.1549    18.065757      22.7272    19.412379    7970.4133    6615.4602    6382.4501    6247.5544    54.750961   -64.499646    601.33959   -3658.8958 
 4337000    238.19963   -4881.8557    -4405.427   -4881.8557            0    7775.5339    18.023758    22.932518    19.232159    7949.2313    8077.9026    7010.7029    8237.9963   -495.34308    211.63741   -380.92066   -3503.9986 
 4338000    242.62901   -4874.5191   -4389.2311   -4874.5191            0    6599.4021    17.862256     22.97486     19.45867    7985.5039    5387.9364    6585.2906    7824.9793   -569.77171    841.03019   -985.27931   -3620.6622 
 4339000    232.61059   -4896.0824   -4430.8325   -4896.0824            0    6844.5111    17.924444    22.979632    19.355826    7972.6093     7816.581    6051.9501    6665.0023   -640.77342   -892.34695   -669.52572   -3635.0053 
 4340000    239.67597   -4878.0684   -4398.6869   -4878.0684            0    6438.5032    17.981602    22.906282    19.253927    7930.5316    4732.1604    7117.4941    7465.8551   -87.366173    251.67757    2064.4921   -3654.0182 
 4341000    238.24118   -4879.9765   -4403.4647   -4879.9765            0     6682.877    17.837305    22.851777    19.498761      7947.97    8050.8515    7235.6836    4762.0959   -1202.6667   -518.33076    -3470.078   -3628.8325 
 4342000     243.1455   -4880.2313   -4393.9102   -4880.2313            0    9681.0522    18.048321    22.631709    19.260643    7867.2857    9392.3214    9042.5847    10608.251    967.37647   -847.73762     442.8513   -3283.1422 
 4343000    242.63296   -4858.4951   -4373.1992   -4858.4951            0    6174.3064    18.100591    22.899546    19.310135    8003.9602    5614.0371    5750.4641    7158.4179    139.77912   -61.488438   -340.43993   -3652.4752 
 4344000    235.12312    -4851.694   -4381.4187    -4851.694            0    9534.4527    17.878679    22.901038    19.315173    7908.4104      10330.6    8164.2825    10108.476    132.83459   -167.13639    788.95643   -3281.7526 
 4345000    236.58852   -4897.4093    -4424.203   -4897.4093            0    8133.6693    17.911387    23.028562    19.196414    7918.0122    8621.2813     7126.783    8652.9436   -33.324526   -1045.7795   -349.54055   -3484.9587 
 4346000     245.5671   -4856.9658   -4365.8013   -4856.9658            0    8605.5835    17.790744    23.125588    19.202481    7900.3121    7475.1476    7870.9705    10470.632    726.43908    -1014.686   -456.42748   -3374.2836 
 4347000    236.56565   -4857.8416    -4384.681   -4857.8416            0     8910.727    17.816442    22.982508    19.205835    7864.1461    8526.9147    8677.6497    9527.6167    575.27571   -1179.6049    1293.4361   -3362.7053 
 4348000    242.55163   -4871.7799   -4386.6467   -4871.7799            0    8727.4111    17.848819    23.239084    19.090897    7918.7171    9442.7319    7519.3988    9220.1027    697.05325    176.04576   -919.00615   -3378.7497 
 4349000    241.29654   -4872.0404   -4389.4175   -4872.0404            0    9204.3436    17.867828    22.974092    19.180879    7873.6955    8853.0806    9338.3498    9421.6004    1620.2639    725.12376   -152.09672   -3332.4848 
 4350000    237.29934   -4866.9554   -4392.3274   -4866.9554            0    7167.3278     17.98737    22.938226     19.23614    7936.7994    7021.6464     6991.351     7488.986    829.45052    912.34387    1914.2519   -3562.7087 
 4351000    240.36916   -4906.7133   -4425.9453   -4906.7133            0    7920.4067     17.86099    22.982175    19.297695    7921.4025    8643.5172    7358.4912    7759.2116    144.55039    587.41212   -93.092191   -3510.9361 
 4352000    244.49125   -4872.2155   -4383.2028   -4872.2155            0    7342.8668     17.95726    22.934291    19.285049    7942.2973    5771.8742    8003.2396    8253.4865   -105.71839    61.298981    282.07113   -3532.6767 
 4353000    242.38431   -4858.9884   -4374.1898   -4858.9884            0    8906.3451    17.845781     22.82248    19.425793     7911.834    8387.1983    8163.5996    10168.237   -250.83387    312.39595    150.35539   -3346.5224 
 4354000      247.071   -4862.6049   -4368.4323   -4862.6049            0    7243.3312    17.914612    23.067782    19.185064    7928.2345    7879.0543     6192.333    7658.6064    658.40485   -1213.5582    460.51153    -3530.921 
 4355000    251.85161   -4847.1587   -4343.4244   -4847.1587            0    8332.5434    17.853143    23.197152    19.156002    7933.3063    7442.1738     7676.559    9878.8975    -434.3606    570.74501    873.69695   -3379.3563 
 4356000    224.42902   -4856.0507    -4407.165   -4856.0507            0    9593.8581    17.875851     22.93075    19.250482     7890.901    11060.009    8619.2074    9102.3576    250.81367   -543.73148   -415.27694   -3303.0971 
 4357000    244.27469   -4867.3772   -4378.7976   -4867.3772            0    7124.5908     17.97381    23.025458    19.284603    7981.0336    5768.0957    7720.1102    7885.5665    302.78268    450.79404    671.06972   -3549.5295 
 4358000    243.71555   -4846.4777   -4359.0165   -4846.4777            0    9271.9761    17.905163    22.956517    19.269657    7920.6032     9849.408    9801.6335     8164.887    1715.4545   -390.00739    12.268046   -3287.9747 
 4359000    241.66815   -4877.9349   -4394.5687   -4877.9349            0     7318.759    18.061104     22.82456    19.353866     7978.375    6817.3669    7713.5169    7425.3932    294.33296   -408.51223    -163.8996   -3542.9841 
 4360000    257.49647   -4874.9133   -4359.8885   -4874.9133            0    7921.3149    18.029408    22.764806    19.327591    7932.7383    7512.5893    8063.2964    8188.0592    114.03797    770.90068   -1139.8633   -3443.4648 
 4361000     253.6353   -4857.0717   -4349.7698   -4857.0717            0    7343.8113    18.068346    22.804935    19.369389    7981.1077     8231.111    7565.4881    6234.8348   -21.812679    1066.8251   -1547.4461   -3494.9776 
 4362000    240.63681   -4855.2103    -4373.907   -4855.2103            0    7924.8944    18.024847    22.603583    19.514287    7950.6304    7267.6247    8831.3732    7675.6852    446.22883   -458.29749    217.55269   -3455.0013 
 4363000    241.07659   -4877.5069    -4395.324   -4877.5069            0    9116.8034      18.0871    22.806763    19.078024    7869.8416    7981.5366    9062.8438     10306.03   -202.24429    -50.47281   -961.58958   -3348.9559 
 4364000    241.33522   -4852.2101   -4369.5099   -4852.2101            0    8371.6301    17.834742    22.894009     19.44844    7940.9682    7787.5149    9497.7773    7829.5983    135.74671   -340.37045    829.68608    -3399.984 
 4365000    240.22787   -4870.3423   -4389.8568   -4870.3423            0    6668.5837    18.043112     22.98619    19.249424    7983.5522    6122.0635    6985.6843    6898.0033    308.55263     865.7995     2446.363   -3613.4208 
 4366000     239.6515   -4884.5652   -4405.2326   -4884.5652            0    9546.2536    17.837813    22.993404    19.216767     7881.796    11547.564    7769.4711    9321.7257    541.38638   -229.01254    -1300.339   -3307.9107 
 4367000    238.00358   -4901.1211   -4425.0845   -4901.1211            0     6253.493    17.914031    22.966161    19.326383    7951.1935      8023.22    5885.6269     4851.632   -839.21836    218.70014   -1480.6983   -3699.9294 
 4368000    234.33562   -4873.8262    -4405.126   -4873.8262            0    8575.6335    17.963534    22.885854    19.194785    7891.1833    7262.0847    8825.6212    9639.1947    832.83042   -517.37025    981.93175   -3418.2008 
 4369000    245.26853   -4901.7781   -4411.2107   -4901.7781            0    7371.6833     17.86214    22.874411     19.46109    7951.5277    9587.9216    6832.4583    5694.6701   -910.88723   -1655.1945   -2115.2538   -3556.3544 
 4370000     246.8521     -4883.36   -4389.6253     -4883.36            0    7527.7305    18.099895    22.768605    19.243919    7930.5992    5419.1427    8266.1121    8897.9368    708.29708   -1113.8201   -952.68247   -3518.9706 
 4371000    238.52089   -4885.2036   -4408.1323   -4885.2036            0    9019.7417    17.999267    22.648608     19.45221    7929.8557    10245.401    8641.6569    8172.1671    469.58516    296.54763     586.6518   -3365.0099 
 4372000    248.02712   -4854.9487   -4358.8639   -4854.9487            0     7688.417    18.238818    22.452404    19.397241     7943.273    5585.0592    9926.8922    7553.2996   -414.66472   -1041.4564    -420.4989   -3468.2031 
 4373000    249.69771   -4895.5365   -4396.1102   -4895.5365            0    6071.2524    18.201519    22.461319     19.57443    8002.6166    4197.6118    7660.6071    6355.5384    949.09141    1318.2808    669.21614   -3687.5346 
 4374000    238.35528   -4856.6587   -4379.9187   -4856.6587            0    6472.1009    18.083317    22.662561    19.397782    7949.4879    6692.5762    7341.3446    5382.3819   -257.84025    1197.0476   -574.45807   -3629.5749 
 4375000    243.70314    -4850.947   -4363.5106    -4850.947            0    7512.2627    17.953116    22.877546    19.455314    7990.7495    8655.6013    7454.3141    6426.8728    1285.0739    1859.7928    1315.0837   -3488.0549 
 4376000    239.44596   -4874.4932   -4395.5717   -4874.4932            0     8956.159    17.972449    22.940379    19.198745    7915.5428    10559.458    8031.7439     8277.275   -202.75318    306.26812   -415.89565   -3361.6721 
 4377000    234.12379    -4871.243   -4402.9665    -4871.243            0    7751.1565     17.79356    23.206633    19.240717    7945.0428    9765.7398     6664.317    6823.4126    496.04553    176.59369    1493.2979   -3504.8377 
 4378000    233.66988   -4874.1948   -4406.8262   -4874.1948            0    8593.0181    17.884322    22.927923    19.300291    7914.0914    8837.0147    7652.0648    9289.9749    232.64169    73.358142   -241.20021   -3415.0295 
 4379000        250.1   -4846.0912   -4345.8604   -4846.0912            0    6087.6838    18.132308    22.908649    19.175986    7965.4491    3998.2717    6237.1129    8027.6667    112.07275    69.394686   -442.87562   -3638.6669 
 4380000     231.6088   -4884.3763   -4421.1301   -4884.3763            0    6949.1551    18.012618    22.741134    19.386841    7941.3807     6051.273    7628.4999    7167.6922   -1080.9248    593.32626    -391.4488   -3616.3006 
 4381000    232.90409    -4883.832    -4417.995    -4883.832            0    7127.7477    17.954217     22.87647    19.332491    7940.4168    9234.5992    5951.6877    6196.9562    534.43627   -406.03636    1944.5064   -3592.5817 
 4382000    243.18507   -4850.0009   -4363.6007   -4850.0009            0    5548.5041    17.958706    23.018947    19.344511    7996.8373    5286.0909    5639.1798    5720.2416   -653.17162   -137.58562   -638.41908   -3716.5027 
 4383000    254.12321    -4875.087   -4366.8092    -4875.087            0    7560.1515    17.705406    23.156361    19.386452    7948.3048    7946.1339    8091.5038    6642.8166   -27.190464    1528.8866    1883.3326   -3490.4525 
 4384000    229.92555   -4871.5544   -4411.6749   -4871.5544            0    8850.2039    17.886711    22.939519    19.273637    7908.2154    8988.3653     8276.933    9285.3132   -20.840101    754.59892   -589.17509   -3390.9525 
 4385000    238.49832   -4870.6514   -4393.6253   -4870.6514            0     10960.75    17.967681    22.809116    19.162087    7853.1391    8959.3718    11258.824    12664.056    786.62747    907.83293    1961.4133   -3138.2908 
 4386000      256.893   -4874.7493   -4360.9316   -4874.7493            0    8245.9406    17.790885    23.147206    19.221383    7915.5441    7983.4016     7705.165     9049.255   -1287.0103   -115.56336   -2852.6284   -3409.0194 
 4387000    229.38885    -4854.634   -4395.8279    -4854.634            0      8881.77    17.820796    22.960069    19.301457    7897.5137    8720.1183       9387.1    8538.0917   -663.51696   -920.03151   -519.06324   -3372.8511 
 4388000    246.91055   -4875.3637   -4381.5121   -4875.3637            0    8916.7487    17.937568    22.865526    19.239998    7891.3222     9134.071    8770.9029    8845.2723   -1097.1631   -12.753811   -855.37284   -3355.3117 
 4389000    233.26618   -4881.6446   -4415.0834   -4881.6446            0    9123.3629    17.856971    22.623932    19.469779    7865.6912     10872.86    9444.4698     7052.759    -694.5864    797.89327    644.55991   -3368.5147 
 4390000    246.30364   -4868.9667    -4376.329   -4868.9667            0    7135.7249    18.114551    22.673498    19.347244    7946.3047     5389.227    7964.5232    8053.4245   -349.08796    967.19049    715.62634   -3549.3791 
 4391000    232.68856   -4863.5374   -4398.1315   -4863.5374            0    6255.9529     18.02792    22.772634    19.459621    7989.0157    5191.7104    7061.9139    6514.2345    996.19369   -226.86631    1610.3082   -3669.2404 
 4392000    251.17748   -4885.7329   -4383.3469   -4885.7329            0    8257.9944    17.961897    22.680873    19.366104    7889.5862     6766.001    9210.3164    8797.6657    339.26406    86.160289   -272.37965   -3433.1695 
 4393000    239.10296   -4882.2542   -4404.0187   -4882.2542            0    6769.1736    17.849932    23.003094    19.382456    7958.5071    5975.1804    6807.2284    7525.1119   -139.87017   -109.99155    584.19105   -3618.3433 
 4394000    242.19088   -4874.3647    -4389.953   -4874.3647            0    6803.0689    18.006791    23.101766    19.161219    7970.8498    4225.8316    7023.3568    9160.0182    189.31188    129.96807    1060.2419   -3599.1189 
 4395000     243.9972   -4873.7216   -4385.6971   -4873.7216            0    9002.1696    17.857119    23.067154    19.181694    7901.1873    10821.701    8323.7726     7861.035   -184.13757    902.85275   -322.10317   -3348.3707 
 4396000    233.93234   -4871.6228   -4403.7292   -4871.6228            0    7711.3484    17.876569    23.102503     19.22075    7938.0446    7136.3953     8185.079    7812.5707    215.12675    1193.5507    758.60986        -3511 
 4397000    237.19125   -4897.0369   -4422.6251   -4897.0369            0    6859.1423    17.908535    23.070323    19.249373     7952.988     6071.885     6273.785     8231.757   -542.76713   -872.73533   -831.14654   -3627.0594 
 4398000    237.74451   -4877.6026   -4402.0842   -4877.6026            0    6594.8393    17.938685    22.930522    19.343115    7956.6631    5831.6793    7261.3742    6691.4644   -871.02941    204.37832   -1420.8131   -3636.8206 
 4399000    250.56804   -4856.7554   -4355.5884   -4856.7554            0     6717.644    17.951668    22.787712     19.52466    7987.0982    6210.6539    7539.5736    6402.7046    1753.7714   -913.27155     739.5104   -3573.0928 
 4400000    232.28563   -4875.2799     -4410.68   -4875.2799            0    7092.5614    17.961351    22.933536    19.321606    7958.9034    5434.4472    7202.6412    8640.5959    -605.6703    394.26118    1050.7529    -3587.429 
 4401000    250.63143   -4843.1807   -4341.8869   -4843.1807            0    8781.8424     18.09001    22.906579    19.166483    7942.2116    7624.5942    9243.3744    9477.5584    640.47071    551.39039   -2733.2722   -3324.6948 
 4402000    244.51555   -4869.4232   -4380.3619   -4869.4232            0    7864.4516    18.042492    22.899732    19.206851    7935.6609    8294.6271    8506.5606     6792.167    65.160576    1674.5135    1019.5044   -3470.1816 
 4403000    248.20054   -4869.1041   -4372.6724   -4869.1041            0    7346.6432    17.875367    22.999315    19.335731     7949.329    8716.9947    6755.2827    6567.6522    422.78805   -343.12216    1015.4612   -3520.9554 
 4404000    242.08935   -4872.7533   -4388.5447   -4872.7533            0    7596.8669     18.00955    23.082484    19.052199    7920.0972    8066.9501    6892.4344    7831.2161   -51.865718    -997.2355   -127.95085   -3511.0572 
 4405000    247.54753   -4894.5551   -4399.4295   -4894.5551            0    6509.8107    17.851888    22.918436    19.410727    7941.6535    6335.2733    7343.9946    5850.1641    215.74227   -924.82715     282.0145   -3645.4576 
 4406000    227.20378   -4865.5866    -4411.151   -4865.5866            0    6406.7567    17.855902    23.112795    19.250477    7944.6677    7185.5535    6477.7895    5556.9272    339.84136   -501.82261     968.8914   -3668.8332 
 4407000    238.10685   -4875.2846   -4399.0414   -4875.2846            0     8637.362    17.990231    22.919118    19.309314    7961.6207     8848.183    7998.1028    9065.8003    1937.0479    870.82008    713.38159   -3396.1394 
 4408000    232.79315    -4881.642   -4416.0269    -4881.642            0    8010.7811    18.065214    22.723092    19.316217    7929.2593      7979.07    7426.9983     8626.275    61.084472   -99.067939   -545.76245   -3489.6593 
 4409000    231.44571     -4880.68     -4417.76     -4880.68            0     6569.393    18.077732    22.822144    19.356402    7985.9214    5441.4683    7343.2067    6923.5042    581.94989    1515.4395   -605.76108    -3652.646 
 4410000    242.53433   -4862.8391   -4377.7404   -4862.8391            0    7649.9376    18.056653    22.579991    19.566652    7977.6972    5831.5123    9373.7825    7744.5181    958.56443    415.51734    40.309888   -3487.6967 
 4411000    238.31303   -4892.0552   -4415.3997   -4892.0552            0    7022.5946    18.097223    22.591699     19.47516    7962.3608    6433.8992    8017.5929    6616.2917    965.31887   -1090.5936    858.99149   -3599.9159 
 4412000    238.03816   -4866.0798    -4389.974   -4866.0798            0    6127.9856    17.977097    22.860068    19.381568    7965.0035    8618.4769    4925.5541    4839.9256    290.42817   -1277.1148    184.15601   -3678.1386 
 4413000     237.5469   -4867.8213   -4392.6982   -4867.8213            0    7121.2271    18.043808    22.870874    19.219752    7931.5622    5522.5567    8250.9527    7590.1718   -609.53921    28.527074   -1329.1793   -3568.9595 
 4414000    243.08342    -4886.429   -4400.2321    -4886.429            0    7482.9394    18.035627    22.594073    19.494982    7944.1716     7447.107     8184.043    6817.6683    1473.9613     591.5135    260.32747   -3533.2768 
 4415000    238.38116   -4872.4873   -4395.6955   -4872.4873            0    9323.7093    18.101918    22.631974    19.273269     7895.914    9370.1733    9106.3017    9494.6528    438.19515    322.75112   -426.83742   -3322.0349 
 4416000    256.68605   -4857.0588    -4343.655   -4857.0588            0    8784.0934    18.144777    22.636711    19.302045    7928.0846    8344.6151    9847.5101    8160.1549    871.85899   -304.90163    3087.4445   -3328.0119 
 4417000    235.36841   -4865.3683   -4394.6024   -4865.3683            0    6946.9392     18.15676    22.449877    19.528022    7959.9544    4877.2244    9111.1186    6852.4746    -1149.732   -333.72492    1141.8638   -3588.1477 
 4418000    250.06089   -4863.3202   -4363.1675   -4863.3202            0    8646.3203    18.164481    22.525233    19.355622    7919.5302    5580.3367    9554.7235    10803.901    543.10412    119.27596    115.70731   -3364.5328 
 4419000    248.47806   -4845.4512   -4348.4644   -4845.4512            0    8595.5171    17.987156    22.767642    19.402736    7945.9079    11344.523     6939.459    7502.5694    1547.6597   -1349.0028   -352.30625   -3352.3908 
 4420000    247.67751   -4863.6924   -4368.3068   -4863.6924            0    10385.614    18.066244    22.605157    19.238036    7856.6272    10165.912    10840.942    10149.989    135.09768   -303.92763   -885.46822   -3178.3143 
 4421000     248.4785   -4864.0627    -4367.075   -4864.0627            0    8269.0565    17.976303    22.745081    19.348994    7911.2713    7796.3636    9127.9805    7882.8253   -776.50554    341.88135    152.58875   -3413.0096 
 4422000    240.80132   -4880.2395   -4398.6071   -4880.2395            0    6725.2279    18.146382    22.677105    19.331787    7955.1737    5026.6485    7631.5879    7517.4475     203.9679   -812.01644    904.62265   -3618.3593 
 4423000    240.30099   -4889.3222   -4408.6906   -4889.3222            0    5396.1671    18.053031    22.552091    19.619593    7987.7958    7286.4303    5134.4772    3767.5937    47.474851   -970.28586    791.24857   -3780.0705 
 4424000    241.65057   -4882.4541   -4399.1231   -4882.4541            0     7379.076     18.04547    22.718811    19.431685    7966.4393    8556.9959     7084.124    6496.1081   -728.36874   -900.19262   -32.136622   -3541.8047 
 4425000    240.31814   -4877.6731   -4397.0072   -4877.6731            0    9128.2769    18.132225    22.685325    19.232033    7910.8164    6445.7452    10892.992    10046.094   -541.15837    -261.7232   -703.89143   -3343.8674 
 4426000    240.16346   -4881.5923   -4401.2357   -4881.5923            0    8181.5977     17.90902    22.782819    19.411967    7920.4312    8283.3145    7792.3406    8469.1379   -1589.8926     398.1375    287.73565   -3456.1682 
 4427000    244.30174   -4852.4434   -4363.8097   -4852.4434            0    8619.9191    18.119401    22.913117    19.089629    7925.4788    7509.6672    9069.2943    9280.7958    1114.5781    625.25695    1001.0187   -3367.4765 
 4428000    236.91928   -4854.9048   -4381.0369   -4854.9048            0    6723.8346    17.784155    23.086557    19.371954    7953.6382    6779.1037    7080.8656    6311.5345    448.97321     35.86954    1909.4258   -3601.1013 
 4429000    246.37146   -4862.7646   -4369.9913   -4862.7646            0     8128.527     17.81701    23.176345    19.193785    7925.7501     7846.703     7233.435    9305.4432   -189.65257    122.31479    1679.8621   -3430.4235 
 4430000    239.22684   -4856.5014   -4378.0181   -4856.5014            0    8302.7239    17.884469    23.145766    19.152717    7928.2623    8485.8465    7687.6862    8734.6389   -82.361102   -389.49143   -341.23097   -3418.0109 
 4431000    235.17781   -4873.3608   -4402.9761   -4873.3608            0    7622.2789    18.014826    22.730231    19.365589    7929.8438     9097.597    7653.9498    6115.2898   -1482.5283    454.70432   -1490.1412   -3521.4699 
 4432000    247.99257   -4870.1047   -4374.0889   -4870.1047            0    9224.4641    18.046851    22.649632    19.304654    7890.8649    10379.463    8974.6715    8319.2583    86.626561    417.32724    1719.3094    -3312.536 
 4433000    233.54682   -4883.4183   -4416.2958   -4883.4183            0    6686.4986    18.148798    22.658622    19.392855    7974.8607    6000.7126    7888.4859    6170.2975       249.61    775.53392   -348.31871   -3638.6215 
 4434000    235.22523   -4894.4129   -4423.9334   -4894.4129            0    6503.5054    17.985751    22.754455    19.500848    7980.8384    5926.3137    7023.9023    6560.3003    396.83882   -838.18651   -256.29161   -3666.9751 
 4435000    237.49503   -4843.7619   -4368.7425   -4843.7619            0    8775.4387    18.095509    22.728482    19.293977    7935.2935    6388.5925    9895.9414    10041.782     364.2649   -647.46306    -263.9953   -3353.1775 
 4436000    243.60282   -4862.4979   -4375.2622   -4862.4979            0    6638.5005    18.014545      22.7687    19.413828    7962.9264    4427.1207     8290.239    7198.1418    2344.1999     573.3672    2223.1825   -3604.3257 
 4437000    232.96694   -4871.4268   -4405.4642   -4871.4268            0    7242.8187    18.000046    22.905373    19.309595     7961.303    7640.5795    7286.0567      6801.82    710.51653   -1252.6035   -2151.1617   -3564.5191 
 4438000    247.10442   -4851.6358   -4357.3964   -4851.6358            0    9089.1761     17.88782    23.003042    19.175452    7890.2051    10365.261     8139.067    8763.1999    991.67001   -40.372871    3642.7406   -3311.4999 
 4439000    235.05805   -4882.9158   -4412.7707   -4882.9158            0    7232.1399    17.808875    22.944499    19.384937      7920.99    7881.8776    7018.2439    6796.2984   -1199.2727   -20.443826   -736.76637   -3577.3174 
 4440000    248.65172   -4834.8227   -4337.4885   -4834.8227            0    8399.8308    17.896785    23.140334    19.112229    7915.0925    7953.2756     8556.805    8689.4118   -600.30889   -1081.5358   -439.98821   -3367.8666 
 4441000    242.63149   -4868.4961   -4383.2031   -4868.4961            0    7843.5234     17.90412    22.807781     19.46289    7947.7346    8888.0649    8539.7616    6102.7436    716.32495    874.40021     1098.793   -3474.0638 
 4442000    244.54323   -4863.4087    -4374.292   -4863.4087            0    8864.7251    17.966621     22.76666    19.349301    7914.6375    8693.9688    9694.3501    8205.8563   -291.67708    977.68986   -817.04689   -3351.0646 
 4443000    238.19115   -4860.6497    -4384.238   -4860.6497            0    9224.4326    17.920948    22.803819    19.261966    7871.7119    10013.917    9125.6456    8533.7353   -884.71659   -261.97079   -2735.3355   -3325.2653 
 4444000     249.4959   -4864.9984   -4365.9757   -4864.9984            0    10103.089    17.942832    22.476633     19.47987    7856.1236    12140.461    10542.152     7626.655   -1804.7715     571.8618   -1157.7086   -3208.4294 
 4445000    249.46063   -4887.1381    -4388.186   -4887.1381            0    7750.8074    18.102527    22.621073    19.337017     7918.481    8063.1744    8729.8549    6459.3929   -213.67061   -534.00826    -1649.526   -3493.1002 
 4446000     237.2544    -4877.594   -4403.0558    -4877.594            0    7707.1567    18.188002    22.680373    19.355845    7984.4925    6400.4208    8161.2021    8559.8471    1571.3646   -733.11848    595.68485   -3505.5911 
 4447000    233.53312    -4851.877   -4384.7819    -4851.877            0    7405.3701    17.987763    22.677657    19.527374    7965.6128    7617.6374    7790.9486    6807.5242    -537.7618    1274.5963   -1014.6002   -3524.4979 
 4448000    238.75789   -4868.7284   -4391.1831   -4868.7284            0    7048.5025    18.163222    22.699286    19.333382    7971.0021    7548.1823    7189.4211    6407.9042   -497.84599    121.29902    912.92391   -3571.8025 
 4449000    254.70765   -4890.5252   -4381.0784   -4890.5252            0      5826.98    18.092388    22.736926    19.461688    8005.8626    6524.5966    6209.3564    4746.9868    393.06193   -346.08757    1291.6725    -3700.736 
 4450000    233.07282   -4867.5358   -4401.3613   -4867.5358            0    6777.6041    18.053423    22.840433    19.276625    7948.6779    5430.0318    7933.0455    6969.7349    191.24294   -45.373999   -1125.9699    -3615.679 
 4451000     239.3733   -4863.4107   -4384.6346   -4863.4107            0    9482.4613    17.966033    22.770751    19.316421    7902.3493    7844.6491    9516.8359    11085.899    1113.4265    1030.5012    664.78567   -3291.8031 
 4452000    239.28276   -4869.2272   -4390.6322   -4869.2272            0    7304.5807    17.913807    22.932929    19.347621    7948.3133    7460.8996    7054.6252    7398.2171   -424.23973   -1305.9036    532.43588   -3543.8998 
 4453000    234.90711   -4893.4243    -4423.581   -4893.4243            0    8710.9883    17.823824      23.0222    19.263726    7904.7477    11090.435    7774.4407    7268.0889    -604.0501    136.38037   -699.21561   -3419.3553 
 4454000    232.95342   -4884.1095   -4418.1739   -4884.1095            0    8672.2415    17.854185    23.004097    19.269049    7914.1724    8153.1379    8216.4575    9647.1289    546.60804    1074.1655    153.28511    -3417.223 
 4455000    237.28255   -4887.2298   -4412.6354   -4887.2298            0    7309.7956    17.887917    23.119192    19.147917    7918.7009    7231.9827    6740.2443    7957.1598   -1634.2312    607.26189   -968.77015   -3568.4554 
 4456000    241.23047   -4894.7991   -4412.3084   -4894.7991            0    6619.7577    17.848887    23.218088    19.283857    7991.5591    7701.3717    5970.1294    6187.7719   -786.19504   -649.90973    910.37066   -3640.7843 
 4457000    245.07957    -4872.519   -4382.3295    -4872.519            0    9320.6704    17.952049    22.737741    19.321039    7886.6364    9404.3695    9589.2121    8968.4295   -1349.4901    1463.5575     1939.271     -3310.28 
 4458000    240.52505    -4847.742   -4366.6622    -4847.742            0    7658.0024    18.050326    22.816493    19.320394    7957.0099    8676.0275    7330.7501    6967.2295   -787.96914     31.94485   -749.39403   -3477.9907 
 4459000    240.51541   -4875.8514   -4394.7909   -4875.8514            0     7048.675    18.037493    22.595264    19.525906    7958.0159    6143.8765    7840.3746    7161.7738    169.30832    707.01337   -12.490348   -3576.7252 
 4460000    243.44342   -4863.4507   -4376.5338   -4863.4507            0    8774.8628    18.270114    22.564241     19.24644    7934.3689    5767.0257    9160.3701    11397.193    21.127046    972.97002   -1436.7154   -3361.1538 
 4461000    242.22941   -4868.6432   -4384.1545   -4868.6432            0    8226.2334    18.230817    22.675172    19.162551    7921.5478    7685.3653    7971.7704    9021.5646    107.00325   -273.70886   -551.51848   -3433.7971 
 4462000    239.46133   -4870.2263   -4391.2741   -4870.2263            0    7646.5303    17.909633    22.762312    19.481324     7941.847    8235.8363    8567.1222    6136.6324   -1292.9012    1031.4522    228.62566   -3505.6247 
 4463000    241.53668   -4862.1569   -4379.0537   -4862.1569            0    9339.5715    17.836959    22.984693    19.243094    7889.2264    7697.9332    9518.3674    10802.414    1023.6668   -56.292138    1086.7056   -3304.4774 
 4464000    237.18683   -4860.3131   -4385.9102   -4860.3131            0    7777.3225    17.765655    23.012189    19.384683    7924.9742    8941.1306    7082.3744    7308.4624    741.20406    -790.2997    467.27359   -3487.0257 
 4465000    225.88118   -4877.3544   -4425.5641   -4877.3544            0    9878.7589    17.926375    22.832146    19.298423    7898.7983    9643.5829     10477.86    9514.8338   -599.66764    -150.1453    132.45292   -3287.5719 
 4466000    242.61598   -4886.7732   -4401.5112   -4886.7732            0    6646.8548    18.093966    22.842776     19.31745    7984.2191    6533.9496    7708.9143    5697.7004    848.07816    1827.9433    515.17392   -3627.5405 
 4467000    224.07073   -4873.8013   -4425.6322   -4873.8013            0    7269.8056    17.835597    22.903412    19.473307    7954.7683    8448.7094    8371.1028    4989.6045   -280.15314    1838.5055    619.47616   -3582.2465 
 4468000    246.51929   -4868.0484   -4374.9794   -4868.0484            0    7084.2101    17.975721    23.151857    19.129406    7961.1097    6149.7757    6297.3936    8805.4611   -364.72085   -889.69114   -1108.2538   -3552.4699 
 4469000    231.46363   -4860.3038    -4397.348   -4860.3038            0    7391.8939    17.790556    23.061127    19.360083    7942.8664    7776.1756    7431.7401    6967.7659    1311.1265    1052.1469    446.03092   -3541.0816 
 4470000    232.39643   -4890.6229   -4425.8013   -4890.6229            0    7033.9135    17.873571    23.086416    19.207409    7925.6818    7054.5034    5240.8495    8806.3876    248.17064   -737.97874    1358.5868   -3612.7657 
 4471000    232.66813   -4857.0743   -4391.7093   -4857.0743            0    9341.8876    17.840188    23.274307    19.049683    7909.7714    9320.9066    8394.2742    10310.482    928.77909    853.72252    1920.4968   -3314.0675 
 4472000    219.24119    -4863.216   -4424.7065    -4863.216            0      8521.99    17.829015    23.081166    19.256976     7924.524    9565.2804    8836.0849    7164.6047    518.54089   -501.63792    1697.7724   -3439.8111 
 4473000    230.29296   -4879.1968   -4418.5824   -4879.1968            0    7001.4589    17.704349    23.250934    19.316778    7951.6096    9031.9791    6039.2162    5933.1814    339.70626   -137.34951    362.72208   -3606.6508 
 4474000    240.70848   -4876.1696   -4394.7229   -4876.1696            0     6371.983    17.897544    23.339151    19.110023    7982.5142    5836.8279    5669.4106    7609.7105   -194.48399    89.254963   -299.89714   -3652.9171 
 4475000      239.528    -4882.652   -4403.5664    -4882.652            0    8084.9123    17.859695     22.96451    19.236103    7889.4787     9479.213    6582.4835    8193.0404   -238.70197   -752.86812   -424.67196   -3473.3168 
 4476000    232.56451   -4857.1952   -4392.0375   -4857.1952            0     6441.858    18.025799    23.098587    19.191855    7990.9222     7334.956    6316.1712    5674.4467   -249.64501    159.15339    1922.4587   -3641.3072 
 4477000    251.63102   -4828.3244   -4325.0313   -4828.3244            0     8862.023      17.8179    22.953086    19.384329    7927.7214    11280.349    8465.4678     6840.252   -145.09661   -371.14944    845.80264   -3300.4247 
 4478000    239.58248   -4852.2371   -4373.0425   -4852.2371            0    7268.8299    18.097802    22.847299    19.274411    7969.6972    7297.5081    7269.5017    7239.4798    59.789798   -852.94982    571.93719   -3528.1875 
 4479000    246.77634   -4866.6013   -4373.0181   -4866.6013            0    8739.3152    18.082315    22.649581    19.362638    7930.1013    8529.0486    9045.6274    8643.2695   -183.45307    586.21286   -1052.2466   -3362.2954 
 4480000    251.80199    -4847.111   -4343.4759    -4847.111            0    8498.9513    18.317496    22.497585    19.252763    7934.0527    7888.7948    7916.6069    9691.4522   -74.802249   -78.640436    764.20576   -3360.0621 
 4481000    254.69285   -4868.6398   -4359.2226   -4868.6398            0    8834.1568     17.98472    22.602938    19.478859    7918.3022    8873.9276     8023.314    9605.2287    725.92343   -668.20529   -749.15946   -3339.0514 
 4482000     242.1913   -4866.9303   -4382.5177   -4866.9303            0    7502.8338    18.092904    22.746775    19.307308    7946.0235     7086.843    9078.8799    6342.7784    1963.0029   -28.735768    766.06758   -3513.0548 
 4483000    234.93764   -4870.6832   -4400.7789   -4870.6832            0    8648.0667    18.014499    22.551634    19.461822    7906.4893    7905.9811    9676.9224    8361.2966   -60.566858   -1172.0456    1235.4694   -3403.5873 
 4484000    254.05073   -4879.9212   -4371.7884   -4879.9212            0    5361.2516    18.127127    22.803406    19.365969    8005.1217    5551.5091     5452.344    5079.9017    101.13022   -1221.1218    589.26828   -3745.8811 
 4485000    234.50521   -4886.1759   -4417.1365   -4886.1759            0    8125.1448    18.014253    22.733374    19.321437    7912.6066    6973.2821    8499.9993    8902.1531    2044.4481   -134.32982   -195.80458   -3479.5171 
 4486000    243.00937   -4888.6458   -4402.5971   -4888.6458            0    6401.4763    18.079292     22.80633    19.321423    7966.6537    6259.1944    7141.2304    5804.0041    69.180771    558.33616   -15.464844   -3658.8385 
 4487000    242.21251   -4888.3924   -4403.9375   -4888.3924            0    6135.5227    18.062412    22.793653    19.336592    7961.0363    6597.4144    6087.1148     5722.039    336.32088   -447.74483   -1062.7572   -3691.5815 
 4488000    247.41477   -4870.8267   -4375.9666   -4870.8267            0    8537.6048    18.152726    22.668286    19.291041    7938.0933    8850.7036    8324.0269    8438.0838    167.57419    671.86629   -1274.5121    -3387.577 
 4489000     243.1825   -4885.6248   -4399.2298   -4885.6248            0    5338.9267    18.109264    22.767816    19.402116    7999.6552    7203.1429    4277.8743     4535.763    -193.1732   -779.90309    729.98752   -3776.3545 
 4490000     234.6667   -4845.4113   -4376.0489   -4845.4113            0    9060.1002    17.924632    22.844649    19.340634    7919.6403    8626.3308    9204.1555    9349.8143   -981.31049   -862.53681    1141.3687   -3329.6089 
 4491000    233.66276   -4876.0255   -4408.6711   -4876.0255            0    8224.4054    18.005957    22.852202    19.211352     7905.006    8428.0676    7700.3545     8544.794   -1211.0945   -824.05474   -1193.7537    -3460.509 
 4492000    241.50103   -4872.1092   -4389.0773   -4872.1092            0    8400.2117    17.798964    22.772215    19.569839    7932.0833     9533.763    8654.5061     7012.366    256.14928   -87.332319    562.44842   -3417.3299 
 4493000    245.00442   -4857.3744   -4367.3353   -4857.3744            0    6589.5787    18.095763    22.946124    19.166645    7958.5204    5568.2515    6769.4532    7431.0313   -536.36191   -271.33705    773.50343   -3602.5036 
 4494000    242.29314   -4861.7913   -4377.1751   -4861.7913            0     6855.955    17.931323    22.984709    19.372956    7984.4911    5404.8246    6828.7206    8334.3197    431.62148   -711.49754    -1406.253   -3578.8292 
 4495000    237.92285   -4834.6334   -4358.7583   -4834.6334            0    5763.6897     18.03664    23.258705    19.170639    8042.2532    6355.3314    4773.7588    6161.9788   -1183.3544    1088.0189   -2195.1817   -3682.7466 
 4496000    238.71801   -4882.3047   -4404.8391   -4882.3047            0    6418.9551    17.920161    23.116791    19.252776      7975.59    4041.9645    6910.2463    8304.6544   -184.41653    179.42322   -230.32153   -3658.2133 
 4497000    241.06675   -4871.6599   -4389.4966   -4871.6599            0    7879.9559    17.865057    22.985286    19.276937    7915.7548    7500.7698    7383.5555    8755.5423    42.577534    569.39085   -328.10969   -3479.8096 
 4498000    250.03361   -4858.1284   -4358.0303   -4858.1284            0    7917.7516    17.873059    23.212091    19.101635    7924.7156    10003.279    5971.2919    7778.6834    2925.8192   -1784.8633    1343.6643   -3442.9453 
 4499000    249.22912    -4895.791    -4397.302    -4895.791            0    7030.8849    17.867941    23.033757    19.284009    7936.6387    8427.9491    6255.9283    6408.7772    421.86371   -997.06796    327.61781    -3583.493 
 4500000    234.56981   -4832.0013   -4362.8327   -4832.0013            0    6792.8101    18.119074    22.896145    19.318974    8014.6107    6942.7791    7277.7189    6157.9322   -209.54916    429.99836   -1472.1418   -3568.8559 
Loop time of 461.381 on 64 procs for 250000 steps with 1008 atoms

Performance: 93.632 ns/day, 0.256 hours/ns, 541.851 timesteps/s
195.3% CPU use with 32 MPI tasks x 2 OpenMP threads

MPI task timing breakdown:
Section |  min time  |  avg time  |  max time  |%varavg| %total
---------------------------------------------------------------
Pair    | 37.73      | 40.518     | 45.245     |  28.3 |  8.78
Bond    | 1.0545     | 1.2615     | 1.5684     |   8.4 |  0.27
Kspace  | 223.7      | 231.06     | 237.37     |  23.0 | 50.08
Neigh   | 3.2011     | 3.5037     | 3.7574     |   9.2 |  0.76
Comm    | 75.261     | 81.197     | 86.983     |  38.6 | 17.60
Output  | 0.51725    | 0.51762    | 0.5193     |   0.0 |  0.11
Modify  | 88.942     | 91.412     | 92.762     |   9.4 | 19.81
Other   |            | 11.91      |            |       |  2.58

Nlocal:        31.5000 ave          35 max          27 min
Histogram: 1 2 4 3 0 4 8 4 3 3
Nghost:        2889.72 ave        2923 max        2859 min
Histogram: 3 3 4 2 3 4 8 3 0 2
Neighs:        10449.4 ave       11741 max        8975 min
Histogram: 2 2 3 3 3 7 4 3 2 3

Total # of neighbors = 334382
Ave neighs/atom = 331.72817
Ave special neighs/atom = 2.0000000
Neighbor list builds = 7957
Dangerous builds = 0

unfix		3
unfix		2
unfix		1

write_data	data.final.${pid}
write_data	data.final.0
System init for write_data ...
PPPM initialization ...
  extracting TIP4P info from pair style
  using 12-bit tables for long-range coulomb (../kspace.cpp:340)
  G vector (1/distance) = 0.37883589
  grid = 24 27 32
  stencil order = 5
  estimated absolute RMS force accuracy = 0.0024945243
  estimated relative force accuracy = 7.5121858e-06
  using double precision FFTW3
  3d grid and FFT values/proc = 5355 672
Last active /omp style is kspace_style pppm/tip4p/omp
WARNING: Not all mixed pair coeffs generated from mixing. Use write_data with 'pair ij' option to store all pair coeffs. (../write_data.cpp:312)

write_restart   restart.lmp.${pid}
write_restart   restart.lmp.0
System init for write_restart ...
PPPM initialization ...
  extracting TIP4P info from pair style
  using 12-bit tables for long-range coulomb (../kspace.cpp:340)
  G vector (1/distance) = 0.37883589
  grid = 24 27 32
  stencil order = 5
  estimated absolute RMS force accuracy = 0.0024945243
  estimated relative force accuracy = 7.5121858e-06
  using double precision FFTW3
  3d grid and FFT values/proc = 5355 672
Last active /omp style is kspace_style pppm/tip4p/omp
Total wall time: 0:07:41
