LAMMPS (30 Jul 2021)
Processor partition = 1
  using 2 OpenMP thread(s) per MPI task
using multi-threaded neighbor list subroutines
variable        pid world 0 1
variable        phase world IceIh IceIII

shell cd ${phase}
shell cd IceIII
include Restart.lmp
echo both
log log.lammps
#include		in.partitions
include		in.temp
variable        temperature equal 57.72
variable	tempDamp equal 100.0
include		in.pressure
variable        pressure equal 2122.5
variable        pressureDamp equal 1000.0 # This is 1 ps
include		in.seed
variable        seed equal 745823

units		real
atom_style	full

read_restart	restart.lmp.${pid}
read_restart	restart.lmp.1
Reading restart file ...
  restart file = 30 Jul 2021, LAMMPS = 30 Jul 2021
  restoring atom style full from restart
  orthogonal box = (0.024032585 0.033439287 0.014670551) to (19.975968 19.966562 20.685327)
  4 by 2 by 4 MPI processor grid
  restoring pair style lj/cut/tip4p/long/omp from restart
  restoring bond style harmonic/omp from restart
  restoring angle style harmonic/omp from restart
  972 atoms
  648 bonds
  324 angles
Finding 1-2 1-3 1-4 neighbors ...
  special bond factors lj:    0        0        0       
  special bond factors coul:  0        0        0       
     2 = max # of 1-2 neighbors
     1 = max # of 1-3 neighbors
     1 = max # of 1-4 neighbors
     2 = max # of special neighbors
  special bonds CPU = 0.002 seconds
  read_restart CPU = 0.008 seconds
include 	in.setup
variable	out_freq equal 1000
variable	out_freq2 equal 10000
variable	out_freq3 equal 1000

timestep	2.0

neigh_modify    delay 7 every 1

include		in.tip4p
# This is TIP4P/Ice

# create groups ###
group ox type 2
324 atoms in group ox
group hy type 1
648 atoms in group hy

# set charges - beside manually ###
set group ox charge -1.1794
Setting atom values ...
  324 settings made for charge
set group hy charge 0.5897
Setting atom values ...
  648 settings made for charge

# ### TIP3P Potential Parameters ###
pair_style lj/cut/tip4p/long/omp 2 1 1 1 0.1577 8.5
pair_coeff 1 1*2 0.000 0.000
pair_coeff 2 2 0.21084 3.1668
bond_style  harmonic
bond_coeff  1 450 0.9572
angle_style harmonic
angle_coeff 1 55 104.52
kspace_style pppm/tip4p/omp 1.0e-5
pair_modify tail yes

thermo          ${out_freq}
thermo          1000
thermo_style    custom step temp pe etotal epair emol press lx ly lz vol pxx pyy pzz pxy pxz pyz enthalpy

restart 	${out_freq3} restart.lmp.${pid} restart2.lmp.${pid}
restart 	1000 restart.lmp.${pid} restart2.lmp.${pid}
restart 	1000 restart.lmp.1 restart2.lmp.${pid}
restart 	1000 restart.lmp.1 restart2.lmp.1


include         in.dump
dump            myDump all atom ${out_freq2} dump.water.${pid}
dump            myDump all atom 10000 dump.water.${pid}
dump            myDump all atom 10000 dump.water.1
dump            myDump2 all dcd ${out_freq2} dump.dcd
dump            myDump2 all dcd 10000 dump.dcd
dump_modify     myDump append yes
dump_modify     myDump2 append yes


variable natoms 	equal  "count(all)"                        # NUMBER ATOMS
variable H      	equal  "enthalpy/v_natoms"                 # ENTHALPY-per-atom
variable Vol      	equal  "vol/v_natoms"                 # volume-per-atom
fix AVG all 		ave/time ${out_freq} 1 ${out_freq} v_Vol v_H file vol_enthalpy.dat
fix AVG all 		ave/time 1000 1 ${out_freq} v_Vol v_H file vol_enthalpy.dat
fix AVG all 		ave/time 1000 1 1000 v_Vol v_H file vol_enthalpy.dat


timer           timeout 02:55:00 every 1000
New timer settings: style=normal  mode=nosync  timeout=02:55:00

fix 		1 all shake 1e-6 200 0 b 1 a 1
Finding SHAKE clusters ...
       0 = # of size 2 clusters
       0 = # of size 3 clusters
       0 = # of size 4 clusters
     324 = # of frozen angles
  find clusters CPU = 0.001 seconds
fix             2 all nph aniso ${pressure} ${pressure} ${pressureDamp}
fix             2 all nph aniso 2122.5 ${pressure} ${pressureDamp}
fix             2 all nph aniso 2122.5 2122.5 ${pressureDamp}
fix             2 all nph aniso 2122.5 2122.5 1000
fix             3 all temp/csvr ${temperature} ${temperature} ${tempDamp} ${seed}
fix             3 all temp/csvr 57.72 ${temperature} ${tempDamp} ${seed}
fix             3 all temp/csvr 57.72 57.72 ${tempDamp} ${seed}
fix             3 all temp/csvr 57.72 57.72 100 ${seed}
fix             3 all temp/csvr 57.72 57.72 100 745823


run             250000
PPPM initialization ...
  extracting TIP4P info from pair style
  using 12-bit tables for long-range coulomb (../kspace.cpp:340)
  G vector (1/distance) = 0.37152884
  grid = 24 24 24
  stencil order = 5
  estimated absolute RMS force accuracy = 0.0035935357
  estimated relative force accuracy = 1.0821826e-05
  using double precision FFTW3
  3d grid and FFT values/proc = 3211 432
Last active /omp style is kspace_style pppm/tip4p/omp
Neighbor list info ...
  update every 1 steps, delay 7 steps, check yes
  max neighbors/atom: 2000, page size: 100000
  master list distance cutoff = 10.8154
  ghost atom cutoff = 10.8154
  binsize = 5.4077, bins = 4 4 4
  1 neighbor lists, perpetual/occasional/extra = 1 0 0
  (1) pair lj/cut/tip4p/long/omp, perpetual
      attributes: half, newton on, omp
      pair build: half/bin/newton/omp
      stencil: half/bin/3d
      bin: standard
Setting up Verlet run ...
  Unit style    : real
  Current step  : 39000000
  Time step     : 2
  Walltime left : 2:54:59.93
Per MPI rank memory allocation (min/avg/max) = 10.18 | 10.19 | 10.19 Mbytes
Step Temp PotEng TotEng E_pair E_mol Press Lx Ly Lz Volume Pxx Pyy Pzz Pxy Pxz Pyz Enthalpy 
39000000    62.853227   -5129.1192   -5007.9015   -5129.1192            0     2129.488    19.951936    19.933122    20.670657    8220.8108    2062.1415    1962.3561    2363.9665   -448.91154    92.351939    476.86246   -4752.5927 
39001000    55.399725    -5134.969    -5028.126    -5134.969            0    2324.9678    19.923429    19.867913     20.78669    8228.1398    2508.9967    2966.3767    1499.5301    151.24196   -332.83842    5.3440711   -4749.1322 
39002000    58.475295   -5139.6012   -5026.8267   -5139.6012            0    2522.7211    19.991321    19.834999    20.697935    8207.3071    2657.3256    2773.2627     2137.575   -197.26057   -164.81495    -933.9045   -4724.8692 
39003000    57.299685   -5140.7412   -5030.2339   -5140.7412            0    2238.7726    19.901836    19.861619    20.768707    8209.5105    2696.4509    2511.6434    1508.2236   -232.05904   -49.388014    137.21983   -4762.1918 
39004000    54.659692   -5139.3176   -5033.9017   -5139.3176            0    2477.1906    20.018363    19.876328    20.545119    8174.7294    2253.7065    2589.3433    2588.5221   -386.92715    542.14623    79.045315    -4738.571 
39005000    58.050442   -5140.4612    -5028.506   -5140.4612            0    1898.9204    19.929551    19.876089    20.778274    8230.7218    1034.9169    2741.5394    1920.3048   -71.328323    229.47474    64.941432    -4800.566 
39006000    60.275265    -5139.499   -5023.2531    -5139.499            0    1915.1908    19.894115    19.941121    20.648844    8191.6226    2798.9694    844.74408    2101.8589    -211.5585    383.52093    305.84774   -4794.4521 
39007000    58.554491   -5137.7403   -5024.8131   -5137.7403            0    1987.5123    19.858438    19.898781    20.775608    8209.6627    1832.4688    2523.8647    1606.2033    4.4043058   -123.72934   -457.58025   -4786.8492 
39008000    60.534187   -5141.4985   -5024.7533   -5141.4985            0    2659.6124    19.917063    19.958326    20.595126    8186.7939     2932.578    1945.6639    3100.5952   -157.38842   -273.68796   -205.47548   -4707.2062 
39009000    62.513245   -5142.3592   -5021.7972   -5142.3592            0     2409.527    19.849929    19.853927    20.873485    8226.2203    3456.5433    2473.0172    1299.0206    -153.9921    521.48536    346.93886   -4732.7239 
39010000    59.773501   -5138.6303   -5023.3521   -5138.6303            0    2513.9155    19.967188    19.928197    20.590573    8193.1959    2637.5323    2200.7169    2703.4972   -206.38613    845.33571    399.76111   -4722.9659 
39011000    56.333441   -5137.9321   -5029.2884   -5137.9321            0    2113.4869    19.973664    19.766061    20.799696    8211.7336     1982.617     2127.864    2229.9797   -133.94491   -310.96378   -601.26743   -4776.1778 
39012000    60.156425   -5133.4004   -5017.3837   -5133.4004            0    1655.4697    20.018051    19.945355    20.531436    8197.5278    1000.5941     2714.797    1251.0179   -205.98797    924.30335   0.71657745   -4819.4681 
39013000    60.184436   -5134.1913   -5018.1206   -5134.1913            0     2360.131    19.950179    19.871508    20.718936    8213.8177    1243.6733     3724.506    2112.2138   -68.328375    930.76075    468.52854   -4735.4003 
39014000     54.06011     -5134.16   -5029.9005     -5134.16            0    1714.6447    19.866997    19.948794    20.759574    8227.4888    1877.9547    1254.7949    2011.1845    74.453707   -313.53213    182.99211   -4824.1612 
39015000    59.057947    -5142.688   -5028.7898    -5142.688            0    1932.3855    19.932912    19.916723    20.727335    8228.7163    2644.2085    2066.5544    1086.3935    156.98189    615.91981      133.218   -4796.8893 
39016000    58.801089   -5141.7258    -5028.323   -5141.7258            0    1989.9536    19.975485    19.962873    20.576183    8205.1249    1746.3824    2515.9385    1707.5399     -379.258     370.0837     167.5467   -4790.1985 
39017000    58.704368   -5142.2884   -5029.0721   -5142.2884            0    1681.2811    19.920993     19.88884    20.784344    8234.8703     712.6932    2556.3819    1774.7681     129.8905    462.06698   -931.72737    -4827.155 
39018000    56.191286   -5140.8141   -5032.4445   -5140.8141            0    1992.0132    19.804067    19.918234    20.830736    8216.9343    2106.5322    2488.4081    1381.0994   -278.96497    504.71785    121.13645   -4793.7305 
39019000    57.126581   -5139.3661   -5029.1927   -5139.3661            0    2686.7944    19.899185     19.87241     20.66491    8171.8302    3130.9767    2346.0886    2583.3179   -138.83042    505.12296   -299.60607   -4708.9866 
39020000    57.201055   -5138.1932   -5027.8762   -5138.1932            0    2325.7096    19.901018    19.936169    20.637342    8187.8667    2780.0658    2255.0934    1941.9696    43.114745    101.78248    144.03037   -4750.1594 
39021000    56.021816   -5142.0399   -5033.9971   -5142.0399            0    2276.8803    19.885771    19.963715    20.632356     8190.919    2837.2788    1370.3226    2623.0394   -57.081745   -135.59766    311.75094   -4762.0097 
39022000    57.427208   -5136.4565   -5025.7033   -5136.4565            0    3397.9882    19.924783    19.855954    20.680395    8181.6932    3726.9312    3401.8474    3065.1861    344.04266    968.29774   -137.23441   -4620.2499 
39023000     54.92304    -5139.348   -5033.4243    -5139.348            0    1377.6522     19.97063    19.982144    20.643887    8238.0669    489.49624    1452.7621    2190.6983   -67.835856    584.66439    87.513451    -4867.908 
39024000    58.212429   -5128.4452   -5016.1776   -5128.4452            0    2714.8943    19.952418    19.850248    20.660849    8182.9452    1598.3585    3639.5263    2906.7983   -247.86632   -9.9689247   -327.97548   -4692.1825 
39025000    57.849921   -5132.0521   -5020.4837   -5132.0521            0    1647.9689    20.000599    19.968514    20.566941    8214.0711    921.47008    1801.8884    2220.5482   -23.257026    463.39276   -299.34158   -4823.0672 
39026000     60.55186    -5137.063   -5020.2837    -5137.063            0    1889.5689    19.935006     19.99588    20.650681    8231.7329    1716.9965    1699.5045    2252.2057    75.682618   -173.48956     31.11336   -4793.4383 
39027000    59.802578   -5136.1417   -5020.8074   -5136.1417            0    783.45986    20.019594      19.9241    20.724065    8266.2578   -67.434038    1305.4013    1112.4123    -278.8945   -116.58314     208.0811   -4926.3575 
39028000    56.610454   -5140.0017   -5030.8237   -5140.0017            0    1911.8501    19.951649     19.84583    20.797382    8234.8694     2159.359    1924.8795    1651.3119   -250.38226    411.51621    183.39094    -4801.216 
39029000    59.404366   -5140.7671   -5026.2008   -5140.7671            0    2482.0607    19.879268    19.828171     20.72692    8169.9204    2560.1191    2915.4337    1970.6294   -193.13873    139.60544   -756.66733   -4730.4635 
39030000    60.645739   -5139.2413   -5022.2809   -5139.2413            0    2789.0991    19.911418    19.896188    20.643607    8178.1983    2804.0662    2439.1528    3124.0782    17.249805    343.96057    581.87598   -4689.6232 
39031000     60.78673   -5138.7707   -5021.5384   -5138.7707            0     2535.907    19.890892    19.892067    20.724007    8199.8879    3187.8715    1739.3497    2680.4999     357.8674    471.92866    691.97796    -4718.277 
39032000    57.532521   -5135.0473    -5024.091   -5135.0473            0    1912.3263    19.875921    19.859831    20.846696    8228.8672    2562.3285    1277.2265    1897.4239   -381.89013   -401.08255     121.7403   -4794.5935 
39033000    56.988876   -5136.3766   -5026.4688   -5136.3766            0    1911.2728    19.989502    19.838646    20.739903    8224.7123    2189.7662    2015.7593    1528.2928   0.55294482    684.17268   -143.19213   -4797.2136 
39034000    55.550473   -5137.9062   -5030.7725   -5137.9062            0    2332.5938    19.921318    19.888123    20.667375    8188.3644    2117.1168    1950.7589    2929.9056   -285.94988    173.35709    125.93691   -4752.2167 
39035000    55.987006   -5145.2619   -5037.2862   -5145.2619            0     1988.744    19.895513    19.909127     20.70424    8200.9972    2400.8194    2452.8211    1112.5916    -57.04744    451.45386   -237.18354   -4799.4262 
39036000    57.806835   -5145.3757   -5033.8903   -5145.3757            0    1766.9811    19.923003    19.904288    20.718091     8215.825     1482.548     2161.601    1656.7943    141.17759   -10.993383    398.14694   -4822.1718 
39037000    58.269973   -5139.4955    -5027.117   -5139.4955            0     2452.958    19.798983      19.9178    20.763041    8187.9505     2296.487    3131.6273    1930.7597    68.186164   -19.929054    24.975817   -4734.2023 
39038000    60.161907   -5141.1939   -5025.1666   -5141.1939            0    1656.1767     19.93272    19.938399    20.785899    8260.8677    1040.8249    1540.5267    2387.1786   -160.52472     436.2944    775.65083   -4825.6366 
39039000    56.878987   -5140.9915   -5031.2955   -5140.9915            0    2352.0269    19.905987    19.977097    20.578281     8183.238      2225.83    2043.4985    2786.7522    40.944925    158.53566    69.077202   -4750.5949 
39040000    55.905522   -5135.6228   -5027.8043   -5135.6228            0    2141.3161    19.983536    19.882609    20.644673    8202.6411    1601.4961    2228.0479    2594.4043   -426.46373    1033.5121   -108.94333   -4771.6449 
39041000    58.354243   -5141.0053   -5028.4642   -5141.0053            0    2403.7627    19.945355    19.929329      20.6396      8204.19    2383.7213    1721.5332    3106.0337   -63.272043    91.392998     552.2569   -4740.8547 
39042000    61.119033    -5147.761   -5029.8878    -5147.761            0    2245.2295    19.916155    19.911681    20.681118    8201.3891    1925.1116    2610.5797     2199.997   -136.77424   -90.539197   -332.58846   -4761.3385 
39043000    60.288934   -5139.6445   -5023.3722   -5139.6445            0    1830.6685    19.921053    19.964809    20.618706    8200.4721    1086.7635     1887.082    2518.1599   -55.833234    575.57461    819.62289   -4804.4326 
39044000    57.854133   -5146.9723   -5035.3957   -5146.9723            0    1571.8907    19.906495    19.922609    20.701639    8210.0488    1120.7974    1956.0349    1638.8396   -45.087777    33.656635   -744.87034   -4847.1852 
39045000     55.67217   -5143.5137   -5036.1453   -5143.5137            0    2373.7056    19.867805    19.920531    20.723855      8202.03    3633.1734    1850.8144    1637.1291   -93.986549     239.4631   -380.90251   -4752.2069 
39046000       56.445   -5141.1762   -5032.3173   -5141.1762            0    1828.0819    19.885401    19.824193    20.908734    8242.4744    1256.4645    3023.7417    1204.0393    321.30888    458.54126   -338.31229   -4812.5671 
39047000    57.921886   -5139.2344   -5027.5272   -5139.2344            0    2420.7622    19.827619    19.880819     20.77384    8188.8256    2501.0345    2113.6061     2647.646   -114.08953     260.5959    287.29315   -4738.4262 
39048000    57.107973    -5144.309   -5034.1715    -5144.309            0     2634.174    19.948436    19.833728    20.779366    8221.3943    2029.0104    3345.0337    2528.4779   -192.13079    814.15299   -141.67509   -4718.3325 
39049000    57.900911   -5136.6491   -5024.9823   -5136.6491            0    2737.6842    19.876813    19.860797    20.677002    8162.6464    2721.6886    2648.1853    2843.1788   -262.82576   -5.7891256     95.64014   -4699.0779 
39050000    55.809222   -5140.3649   -5032.7322   -5140.3649            0    1650.2573    19.938527    19.887676    20.683881    8201.7995    1739.0137      1733.25    1478.5083   -46.330426   -59.421453    382.96222   -4835.3369 
39051000    62.328312   -5133.6627   -5013.4573   -5133.6627            0    1639.3099    19.965385    19.872828    20.752615    8233.9875    1636.4748    1891.2146    1390.2405    122.14854    261.88858   -381.24298    -4816.602 
39052000    56.893741   -5142.3444   -5032.6201   -5142.3444            0    1522.8403    20.032842    19.889306    20.648463      8227.16    499.54369    2182.3942    1886.5831    33.765472    279.56757     716.6072   -4849.9026 
39053000     53.61813   -5138.9818   -5035.5747   -5138.9818            0    2330.7611     19.93361    19.929626    20.668604    8211.0035    2466.9791    2072.2308    2453.0735    175.86277    453.15719    236.61213   -4756.4683 
39054000    61.139533   -5138.6514   -5020.7387   -5138.6514            0    2253.3438     19.87174    19.992533    20.653237    8205.2508     2591.272    2012.0286    2156.7308   -228.55272   -530.76025    584.00261   -4751.0919 
39055000    58.802591   -5138.9968   -5025.5911   -5138.9968            0    2299.9339    19.889828    19.937892    20.782367    8241.4812    2653.1199    2065.3385    2181.3433    253.28657    924.05615    9.8452899   -4749.1539 
39056000    60.099793   -5134.0374   -5018.1299   -5134.0374            0    2017.8395    19.913363    19.898064     20.73769    8217.0481     2150.173    2120.6559    1782.6897    158.87598     110.8313   -18.707185   -4776.3176 
39057000    54.449732   -5141.9426   -5036.9318   -5141.9426            0      1440.74    19.932551    19.968493    20.690688    8235.3693    1922.5464     649.5403    1750.1334    50.301146    553.20472   -812.05369   -4863.8925 
39058000    57.954194   -5137.6815   -5025.9119   -5137.6815            0     1941.861    19.898692    19.974227    20.636055    8202.0271    1602.1013    1968.5434    2254.9383   -202.70346    71.651048   -426.55012   -4793.6301 
39059000    58.100244   -5139.4355   -5027.3843   -5139.4355            0    2560.8201    19.919153    19.926767    20.610072    8180.6384    2560.3254    2176.4209     2945.714    12.877594   -363.75148   -153.18935   -4721.8626 
39060000    59.921201   -5143.6864   -5028.1234   -5143.6864            0    1755.3853     19.91817    19.964166    20.684149    8225.0443     1804.251    1664.0721    1797.8328   -147.89083   -287.60619    555.49851   -4817.5582 
39061000    58.734574   -5138.0099   -5024.7354   -5138.0099            0    2272.4209    19.993887    19.855521    20.708126    8220.8991    2005.0628    2290.6935    2521.5062   -387.74827    485.20111    93.437839   -4752.2871 
39062000    62.825322   -5138.2203   -5017.0564   -5138.2203            0    2445.8088    19.860921    19.911273    20.651771    8166.8712    2958.4094    2259.3587    2119.6582   -133.59296    586.82938   -301.56961   -4725.7473 
39063000     59.04991   -5137.2803   -5023.3976   -5137.2803            0    2373.1057    19.854025     19.88561    20.833851    8225.4002    2830.5249    2226.8413    2061.9509    7.3678058   -106.53361   -456.87813   -4738.7221 
39064000    58.150999   -5140.6686   -5028.5195   -5140.6686            0    1811.8785    19.876946    19.896046    20.779263    8217.6299    1218.2362    2520.0272    1697.3721   -312.26578    688.01709   -296.42795   -4811.3737 
39065000    58.298476   -5141.5969   -5029.1634   -5141.5969            0    2352.4675    19.995776    19.811941    20.789242     8235.765    967.91916    3471.1196    2618.3636   -240.88518   -555.18427    151.48458   -4746.6081 
39066000    59.946239   -5131.7749   -5016.1635   -5131.7749            0    2586.0551    19.986514    19.844878    20.607621    8173.5995    2599.8611    2719.6142    2438.6901    86.571359    160.62869    24.389559   -4707.8965 
39067000    56.220798   -5138.2676    -5029.841   -5138.2676            0    2142.3494     19.93586    19.908392    20.651237    8196.2886    2472.9627    1711.6709    2242.4145    96.532694    720.07224   -376.38194   -4773.7565 
39068000    57.905799    -5140.649   -5028.9728    -5140.649            0    2678.9744    19.961595    19.887124    20.670708    8205.8314    2609.1587    3054.9503    2372.8142   -184.97544   -322.11188   -31.083976   -4708.3702 
39069000    55.428879   -5143.1986   -5036.2994   -5143.1986            0    1800.5176    19.888301    19.927164    20.775748    8233.7913    2302.9776    1561.9393    1536.6359    274.03605    298.96491   -318.96791   -4820.0907 
39070000    56.181312   -5133.2561   -5024.9057   -5133.2561            0    2872.3797    19.940446    19.847103    20.718235    8199.4504     2714.319    3033.7543    2869.0657   -148.80121    359.68463    7.0718376   -4681.4249 
39071000    60.854576   -5142.3146   -5024.9514   -5142.3146            0    2888.7352    19.903394    19.896117    20.690207    8193.3272    2435.3917    3091.1023    3139.7115    27.481899    413.14142   -390.09657   -4679.7728 
39072000    61.018798   -5132.5126   -5014.8328   -5132.5126            0     2380.316    19.966731    19.888968     20.69633    8218.8787    2239.4322    2727.2291    2174.2866    97.897425   -318.32763    309.58729   -4729.5188 
39073000    55.113073   -5140.8925   -5034.6023   -5140.8925            0    2093.9793    19.858924    19.907563    20.709008    8187.1571    2793.0463    1900.0707     1588.821    88.321412   -177.45113    630.30379   -4784.5785 
39074000    55.127511   -5140.2411    -5033.923   -5140.2411            0    2155.6227    19.892511    19.838968    20.825166    8218.5865    2621.7467    1722.8916    2122.2299    56.396295   -37.656328   -390.59746   -4775.5508 
39075000    57.725852   -5143.4593   -5032.1301   -5143.4593            0    1928.7668     19.92092    19.928879    20.717152    8224.7427    2589.1182      653.837    2543.3452   -433.05452    406.72729    138.90732   -4800.7756 
39076000    57.797056   -5139.4052   -5027.9387   -5139.4052            0    2437.9659    19.910717    19.968476    20.596835    8189.0273    2756.7679    2199.3891    2357.7409    15.695564    517.12853    800.15971    -4736.776 
39077000    56.877129   -5147.1853   -5037.4929   -5147.1853            0    2261.1618    19.909189    19.902508    20.668087    8189.5806    2899.4869    1316.1616    2567.8369    27.220571    453.63507   -720.29894   -4767.4274 
39078000    58.191547   -5130.7575   -5018.5302   -5130.7575            0    3285.7793    19.908226       19.821    20.716719    8174.8373    3830.9973    2541.7818    3484.5589   -362.80754    -578.4934    564.69513   -4626.7943 
39079000    57.482079   -5145.8497   -5034.9907   -5145.8497            0    1824.6162    19.990835    19.931394    20.718807    8255.3094    1968.4256     1542.784    1962.6388    60.244365    222.10851   -183.25925   -4815.3156 
39080000    57.019815   -5134.0818   -5024.1143   -5134.0818            0    1564.3735    19.997604    19.940701    20.619985     8222.554    1996.4564    863.14371    1833.5205    152.36673    465.11547    273.34114   -4836.5185 
39081000    58.232217   -5134.5047    -5022.199   -5134.5047            0      2359.71    19.941283    19.890236    20.595067    8168.7623    2482.3537    2049.7973     2546.979   -217.18947    418.41164    16.590779   -4741.0796 
39082000    57.686988   -5144.5562    -5033.302   -5144.5562            0    2119.2031    19.848569    19.923301    20.733411    8199.0067    2755.8954    2007.4193    1594.2945   -133.22242    114.80524   -244.41452   -4779.9002 
39083000     59.94919    -5140.326   -5024.7089    -5140.326            0    2542.2103    19.910102    19.869859    20.635385    8163.5836    2970.1968    2293.4034    2363.0308    134.98219   -425.33129    63.963585   -4722.0397 
39084000    60.758454   -5136.3251   -5019.1473   -5136.3251            0    2245.0093    19.918681    19.905437     20.70857    8210.7423    2717.6791    1959.9464    2057.4023   -22.395238     333.8503    368.78124   -4750.3181 
39085000     55.80078   -5141.3618   -5033.7453   -5141.3618            0    1654.7873    19.967299    19.846404    20.757286    8225.6783     903.4703    2771.3685    1289.5231   -278.87347    670.52344    164.95776   -4835.2319 
39086000    56.719792   -5140.5337   -5031.1448   -5140.5337            0    1692.8023    19.980256    19.942648    20.636524    8222.8135     1110.015    1826.9628     2141.429   -4.5669917   -1188.4816     -1.25496   -4828.1417 
39087000     58.24991   -5142.8727   -5030.5328   -5142.8727            0    1461.7813    19.988153    19.919447    20.627046    8212.7194    2155.9248    856.96249    1372.4568   -325.92912    265.47157   -183.96463   -4855.4493 
39088000    58.067989    -5139.388    -5027.399    -5139.388            0    1640.5863    19.975957    19.864819      20.6982    8213.4343    2120.1186    1606.6421    1194.9982   -260.76031    800.68735    6.4326332   -4830.8821 
39089000    56.237363    -5146.644   -5038.1855    -5146.644            0    2468.8457    19.869568    19.885986    20.710236    8183.1518    2232.4406    2844.2359    2329.8605   -344.58495    155.19054   -111.78871   -4743.5464 
39090000    55.440412   -5137.5565    -5030.635   -5137.5565            0    2227.3085    19.944219     20.00085    20.635737    8231.6236    1460.7166    2225.3091    2995.8997    261.88095   -507.42587     531.0834   -4763.2471 
39091000     56.10391   -5139.3906   -5031.1895   -5139.3906            0    1350.8209    19.986158     19.91186    20.676324    8228.3829    916.59003    1442.7861    1693.0865    157.17944    561.99789    642.16906   -4869.0875 
39092000    56.520248   -5139.4442   -5030.4402   -5139.4442            0    2045.8868    19.910577     19.87755    20.763711    8217.7265    2645.7542    1370.0866    2121.8197   -116.92112    113.59612     318.9616   -4785.2465 
39093000    59.930357    -5139.338   -5023.7572    -5139.338            0    1551.5881    19.943503    19.847221    20.746995      8212.14    928.67395    2303.8215    1422.2688   -236.61725    306.59284   -242.40856   -4837.9303 
39094000    58.298664   -5139.8088   -5027.3749   -5139.8088            0    2483.4571    19.986118    19.829766    20.680047    8195.9171     2942.255    2349.0576    2159.0588   -19.269789    490.80481   -281.77232   -4730.5296 
39095000    53.919805   -5138.1237   -5034.1348   -5138.1237            0    2414.2144    20.017757     19.85872    20.562712    8174.2337    1883.2922    2366.4001     2992.951   -102.82686   -256.77986   -24.522608   -4746.3295 
39096000    59.490091   -5139.7064   -5024.9748   -5139.7064            0    2631.9293    19.935811    19.883667    20.657614    8188.6167    2247.2027    2541.1287    3107.4566    183.31483    169.58781    393.33277    -4710.663 
39097000    61.025735   -5146.5812   -5028.8879   -5146.5812            0    1990.7159    20.042277    19.806988    20.704146    8219.0726    1046.7692    2524.0395    2401.3389   -60.289024    277.20319   -417.00865   -4790.2673 
39098000    57.927364   -5140.1467   -5028.4289   -5140.1467            0    1493.2909    19.986858    19.808648    20.749527    8215.0002    1301.0247    1659.9701     1518.878    48.681042    56.016038   -60.790157   -4849.5216 
39099000    56.827714   -5137.5907   -5027.9936   -5137.5907            0    1910.6464    19.993534    19.834838    20.715449    8215.0945    1738.9594    2096.1704    1896.8093   -366.29655    448.94536   -526.39887   -4799.0815 
39100000    56.607665    -5138.397   -5029.2243    -5138.397            0     1048.735    19.859964    19.963919    20.764071    8232.5949    1035.1008     828.3475    1282.7567   -418.88013   -321.85713    219.62937   -4903.3091 
39101000    54.710609   -5144.5672   -5039.0532   -5144.5672            0    2161.8103    19.978557    19.943513    20.626193    8218.3543     1921.293    1758.9006    2805.2373   -127.36478    354.52994   -17.359275   -4779.9467 
39102000    56.882522   -5135.1944   -5025.4916   -5135.1944            0    3150.2882    19.843345    19.924405    20.695324    8182.2448    3244.7665    3151.4514    3054.6467   -536.53242   -157.40054  -0.22730161   -4649.5689 
39103000    58.403849   -5136.9467     -5024.31   -5136.9467            0    1234.8987    19.947367    19.945471    20.651205    8216.2809     1113.481    927.23069    1663.9845   -26.901065    285.66341    210.78445    -4876.337 
39104000    59.228871   -5137.8678   -5023.6399   -5137.8678            0    1890.8712    19.885994    19.942303    20.659775    8193.0987    2428.9766    1213.4626    2030.1745    12.557034    374.21781    246.31418   -4797.7036 
39105000    59.513745   -5132.1449   -5017.3676   -5132.1449            0    772.87875    19.975512    19.918849    20.675611    8226.6025    299.83241    1191.1266    827.67729    95.739178    498.35383    492.73771   -4924.6403 
39106000    56.327732   -5142.0714   -5033.4386   -5142.0714            0    1285.5093    19.986123    19.899685    20.709273    8236.4416    1147.4401    1217.5062    1491.5816   -48.326964   -181.04867   -530.40406   -4879.0232 
39107000     57.65885   -5138.0629    -5026.863   -5138.0629            0    1971.6809    19.860354    19.926023    20.791597    8228.0225    1894.2031    2918.2268    1102.6128   -467.13646    471.83293    179.14466   -4790.2666 
39108000    59.832931   -5138.7153   -5023.3225   -5138.7153            0    1990.7763    19.935836    19.904991    20.707112    8217.0509    1734.5331    2378.1591    1859.6369     344.3239    182.57682    164.38951   -4784.7533 
39109000     57.02981   -5136.0663   -5026.0795   -5136.0663            0    2735.3057    19.892422    19.868734    20.729975    8193.2584    2381.3264    2691.2956     3133.295   -365.28391    171.53525   -171.38021   -4699.2371 
39110000    59.648468   -5135.2197   -5020.1826   -5135.2197            0    2597.9789    19.890621    20.008254    20.588114    8193.5878     2668.982    2167.3389    2957.6158   -20.777836    699.16635    168.11762   -4709.7369 
39111000    59.575432   -5135.7496   -5020.8534   -5135.7496            0    2000.4541    19.859782    19.954067    20.792835     8239.856     3073.226    1181.1112    1747.0251   -430.53419    337.74996    44.619572   -4780.4591 
39112000    57.525855   -5137.0911   -5026.1476   -5137.0911            0    1455.5965    19.950721    19.934954    20.689607    8228.6019    1772.5795    1357.2695    1236.9404   -44.165158    363.68132   -81.489315   -4851.4677 
39113000    56.664646   -5142.7443   -5033.4618   -5142.7443            0    1638.7649    19.927559    19.884434    20.765032    8228.1073    1806.0529    1703.9331    1406.3087   -14.898234   -242.64474   -432.91275   -4836.8125 
39114000    56.053364   -5130.8751   -5022.7715   -5130.8751            0    2668.0045    19.980488    19.845024    20.608583    8171.5765    2405.0073    3338.2455    2260.7607   -290.64264     42.88532    315.74798   -4704.8146 
39115000    55.914105   -5135.2119   -5027.3769   -5135.2119            0    1892.3338    19.964337     19.86371     20.70291     8210.066    926.58896    3088.7238    1661.6886   -181.64459    582.64843    471.40407   -4800.7976 
39116000    53.796164   -5137.1493   -5033.3989   -5137.1493            0    2555.7919    19.887646    19.940628    20.562087    8154.3511    2039.9429    2971.9447    2655.4882   -423.86081    297.20987   -286.28675   -4729.4568 
39117000    53.682284   -5136.2976   -5032.7668   -5136.2976            0    1553.2418    19.933584    19.942866    20.715539    8235.1064    1093.2332    1547.1539    2019.3383   -54.732729    139.80796    1.7445739   -4846.2216 
39118000    56.832393   -5141.6904   -5032.0843   -5141.6904            0    2208.3887    19.978814    19.931772    20.609712    8207.0586    1841.1412    2321.3276    2462.6973    167.48193     28.85236    334.44273   -4767.7589 
39119000    55.143579   -5140.2806   -5033.9315   -5140.2806            0    3026.5385    19.907177    19.807902    20.818139    8208.9968    4058.3005    2954.7388     2066.576   -363.01492   -372.18939    1040.5974    -4671.595 
39120000    59.106051   -5139.7345   -5025.7435   -5139.7345            0    2196.7437    19.819166       19.967    20.716877    8198.2751    2609.8482    2206.9412    1773.4417   -119.71029    291.00001    352.67589   -4763.0933 
39121000    57.073598   -5145.3603   -5035.2891   -5145.3603            0    2667.4376    19.868319    19.871522    20.819182     8219.699    3273.3217    2343.9435    2385.0475    296.86925   -62.471884   -396.54185   -4715.5276 
39122000    58.632797   -5134.1654   -5021.0871   -5134.1654            0    2287.2629    19.954634    19.854143    20.681455    8193.6234    2370.6168    1865.9702    2625.2017   -240.70255   -91.604155    -14.71654   -4747.7693 
39123000    56.030491   -5135.5256   -5027.4661   -5135.5256            0    2435.1141    19.940415    19.857781    20.666236     8183.259    2590.1165    2237.0961    2478.1295   -381.05281    413.99565    13.320797   -4736.8488 
39124000    60.391737   -5142.5209   -5026.0504   -5142.5209            0    2322.9874    19.950721    19.884385     20.64375    8189.5371     3442.019    1362.3122     2164.631   -213.68235   -227.14966   -540.62885   -4748.6021 
39125000    60.895167   -5140.9474    -5023.506   -5140.9474            0    1994.4432    20.063485    19.812176    20.712717    8233.3322    989.74908    3083.8871    1909.6933    219.20347    602.84162   -559.95498   -4784.0238 
39126000    54.794439   -5140.8111   -5035.1354   -5140.8111            0    2014.4123    19.893925    19.905352    20.676914    8187.9666    1222.1051    3024.6907    1796.4411   -124.94788    27.030256   -53.273799   -4794.5882 
39127000     57.68894   -5140.0275   -5028.7695   -5140.0275            0    2581.9074    19.903412    19.893158    20.650589    8176.4298    2897.7324     2564.094    2283.8959   -218.88071    764.36278   -208.31804   -4720.8904 
39128000    58.402613   -5141.7211   -5029.0868   -5141.7211            0    2182.8701    19.931583    19.824916    20.685928     8173.878    1810.2586    2618.3704    2119.9815    236.53521   -46.548112    42.089727    -4768.872 
39129000    60.468377     -5134.04   -5017.4216     -5134.04            0    3000.9961    19.907885    19.843499     20.67669    8168.1632     3109.348    3411.3676    2482.2728    205.95948    444.62393    -132.8569   -4659.9301 
39130000    55.801927   -5145.1727    -5037.554   -5145.1727            0    2128.1749    19.840525    19.873811    20.797077    8200.4297    2379.3931    2344.4978    1660.6338   -98.828905    212.13252   0.40663156   -4783.0352 
39131000    54.248984   -5141.5865   -5036.9628   -5141.5865            0    1937.6292    19.923165    19.888268    20.740304    8218.0809    1570.1079    2301.7629    1941.0166    128.66631    146.60925    -153.7404   -4804.7335 
39132000    61.144464   -5136.1167   -5018.1945   -5136.1167            0     2253.614    19.866882    19.896118    20.686637    8176.8862     2145.823    2842.7807    1772.2382   -83.992503    243.42651   -305.10358   -4749.4476 
39133000    60.180946   -5135.6676   -5019.6036   -5135.6676            0    2802.1772    19.859349    19.907468    20.658225    8167.2156    2350.0362    3333.5354    2722.9599    60.697823    282.14522    227.78316    -4685.835 
39134000    56.422431    -5141.531   -5032.7155    -5141.531            0    1483.1898     19.95942    19.995887    20.558426    8204.9976    1050.4665    903.37921    2495.7237    23.266176    441.07233   -263.65266   -4855.2349 
39135000    56.880703   -5138.5253   -5028.8261   -5138.5253            0    2085.3896    19.950279    19.906019    20.677067    8211.4966    1520.3396    3015.4626    1720.3665   -249.63389    486.08869   -861.37311   -4779.0877 
39136000    58.361583   -5138.5607   -5026.0055   -5138.5607            0    2120.8512    19.868628    19.876999    20.759106    8198.3668    2206.0543    2206.9453    1949.5541    150.23297    -47.33758     798.5414   -4772.4264 
39137000    56.428359   -5139.6363   -5030.8094   -5139.6363            0    2277.3618    19.921107    19.874103    20.655495    8177.8024    2018.0413    2985.6299    1828.4142   -415.92131    321.05247    17.149216   -4759.2002 
39138000    60.014691   -5146.3379   -5030.5945   -5146.3379            0    3166.4997     19.90927    19.838929    20.674335    8165.9195    3512.5072    3217.1608    2769.8309   -540.14352    441.69382     168.1073   -4653.4911 
39139000    55.925897   -5144.9783   -5037.1205   -5144.9783            0    1621.7971    19.892173    19.955255    20.660695    8201.3328    1859.6678    1811.6377    1194.0857   -207.13343     370.5908   -480.30762   -4843.1406 
39140000    59.787857   -5140.9927   -5025.6868   -5140.9927            0    1597.4489     19.97027     19.86298    20.737568     8225.952    1272.6475    2068.2009    1451.4983   -82.959138    280.86547   -363.20315   -4834.0455 
39141000    57.576427   -5138.8297   -5027.7887   -5138.8297            0    2633.6076    19.908058    19.810656    20.718968    8171.3886    3167.5738    2235.4675    2497.7814    -121.6973   -8.4451329    0.4924783   -4713.9382 
39142000      55.2943   -5133.7173   -5027.0776   -5133.7173            0     2108.579    19.979937     19.88163    20.622939    8192.1266    1856.5969    2693.2295    1775.9105   -137.05733    577.62756    145.34214   -4775.1577 
39143000    55.947348   -5139.7277   -5031.8285   -5139.7277            0    2004.4477    19.994738    19.873895    20.703774    8227.1272    2561.9918    1400.4009    2050.9504   -114.03215    131.58331   -693.75712   -4791.3264 
39144000     57.86542   -5140.9259   -5029.3275   -5140.9259            0    1564.1918    19.909592    19.907813    20.769776    8232.2342    2013.4458    1304.3624    1374.7671    101.27504   -521.37763    92.492677   -4841.5327 
39145000    59.737604   -5143.4154   -5028.2064   -5143.4154            0    1870.7509    19.940051     19.90499    20.693139    8213.2414    2300.5389    1371.7448    1939.9691   -152.23547    133.33936    301.87292   -4804.1247 
39146000    56.463196   -5140.7959   -5031.9019   -5140.7959            0    2370.7461    19.951404    19.915021    20.639823     8200.875    2882.5032    1222.5445    3007.1907    179.96565   -228.88911    -16.29464   -4748.3574 
39147000    56.315641    -5143.248   -5034.6386    -5143.248            0     1985.271    19.943572    19.825519    20.778995    8215.8417    1588.5615    2816.7499    1550.5016   -414.76387   -173.74331    330.87833   -4796.7641 
39148000    56.071802   -5141.0304   -5032.8912   -5141.0304            0    2093.9565    19.990673    19.829767    20.704087    8207.3155    3463.5527    1304.4758     1513.841   -130.05005    40.205223     201.7733   -4782.2545 
39149000    59.258218    -5137.773   -5023.4886    -5137.773            0    2929.3286    19.903689    19.916272     20.68925    8201.3692    3716.2717    2601.3752    2470.3387   -267.14955    531.94131   -545.23945   -4673.1158 
39150000    56.106454   -5137.7602   -5029.5541   -5137.7602            0    2745.7713    19.916433    19.850587    20.739817    8199.5468    2274.6073    3281.1589    2681.5476     348.6902    253.23054    109.64794   -4701.2094 
39151000     57.96815   -5129.0757   -5017.2792   -5129.0757            0    2629.7673    19.980913    19.836416    20.640221    8180.7455    1988.2983    2946.4814    2954.5221   -243.61204    10.131194    291.73582   -4703.5275 
39152000    59.492056   -5140.0863   -5025.3509   -5140.0863            0    1510.3807     19.94309    19.812737    20.862712    8243.4251    1473.2913    1847.6613    1210.1896   -72.976918    239.27573    406.27027     -4843.77 
39153000     55.88454   -5139.3584   -5031.5803   -5139.3584            0    2134.5243    19.952692    19.968484    20.648464    8226.8647    3474.8085    948.98253    1979.7817    177.68927    519.01221    211.41075   -4775.4793 
39154000    57.263774   -5139.8959   -5029.4579   -5139.8959            0    2240.0187    19.926501    19.877941    20.704291    8200.9241    1565.8337    2720.1954     2434.027   -291.96413    622.47386   -57.305591   -4761.5471 
39155000    56.928932   -5139.7416   -5029.9494   -5139.7416            0    2303.2402    19.871876    19.847874    20.797528    8202.8464    2672.2096      2604.65     1632.861   -13.968773   -194.29613   -544.11066   -4754.4125 
39156000    55.356989   -5140.9952   -5034.2346   -5140.9952            0    2792.5748    19.849546    19.874537    20.773391    8195.1137    2286.2079    3330.0408    2761.4758   -151.73902   -372.79078     413.1163   -4700.4735 
39157000    58.786274   -5140.6179   -5027.2437   -5140.6179            0    1700.2739    19.919015       19.934     20.71566    8225.4767    756.60026    2867.1584     1477.063   -116.54661    423.36116   -66.132574   -4823.2786 
39158000    57.214542   -5146.2947   -5035.9517   -5146.2947            0    2300.4336     19.81208    19.949582    20.818744     8228.457    2203.4644    2357.7821    2340.0544    339.94804    42.057299   -164.54506   -4759.8913 
39159000    55.992818   -5139.4894   -5031.5026   -5139.4894            0    2354.8162    19.856278    19.900905    20.720171    8187.7395    2381.1203    2307.3769    2375.9514    69.838134   -254.14425   -109.58254   -4750.3145 
39160000    56.985022   -5138.0702   -5028.1698   -5138.0702            0    1324.4384    19.862428    19.974866    20.759006    8236.1222    1183.6325    1490.7254    1298.9572   -475.47175    606.80389    190.46483   -4869.0844 
39161000    54.734284   -5138.4985   -5032.9388   -5138.4985            0    2036.8765    19.903412    19.929595    20.771241    8239.2644    2463.6705    1196.8184    2450.1407   -7.4383918   -295.80812    261.12552   -4788.1852 
39162000    59.619117   -5142.0164   -5027.0359   -5142.0164            0    2505.3087    19.987163    19.854761    20.638415    8190.1558    1877.2746    2318.4347    3320.2168   -78.069829   -143.87767    233.51662   -4727.7893 
39163000    57.986081   -5136.1984   -5024.3674   -5136.1984            0    2714.8241    19.943904    19.805355    20.720643    8184.5733    3136.8725    2721.3925    2286.2073    291.77843    544.81942   -485.52836   -4700.3162 
39164000    55.122964   -5138.8578   -5032.5486   -5138.8578            0    3460.0212    19.787986    19.867794    20.719403    8145.7013    3377.8577    4042.6203    2959.5854    356.54956    206.22037    431.46169   -4621.5095 
39165000    57.225508   -5138.1716   -5027.8074   -5138.1716            0    2142.6278    19.841988    19.859183    20.716213    8163.1338    2110.1652    2045.2805    2272.4377   -185.46751    387.94419   -157.39043   -4772.7256 
39166000    57.298364   -5135.7875   -5025.2828   -5135.7875            0    2362.2536    19.942375    19.828444    20.716965    8192.0323    1774.3117    2905.9081    2406.5411   -193.15189    387.80395   -138.06944   -4743.0587 
39167000    57.902983   -5137.0221   -5025.3513   -5137.0221            0    2856.7757    19.873807    19.871971    20.721802    8183.6968    3196.2655    2624.2712    2749.7904   -243.33928   -203.40011    383.63413   -4684.3928 
39168000     58.47814   -5132.7133   -5019.9333   -5132.7133            0    1891.3681    19.952465    19.898011    20.671485    8206.8765    1095.5346    2796.2319    1782.3378    96.138855   -392.13485    387.43059   -4793.5575 
39169000    63.717982    -5142.659   -5019.7735    -5142.659            0    1760.1004     19.85449    19.862538    20.813796    8208.1405    2531.9657    1475.1551    1273.1804   -179.76026   -297.09134    52.300596   -4809.0766 
39170000    57.073794   -5135.8853   -5025.8137   -5135.8853            0    3047.0144    19.822065    19.978926      20.6149     8163.986    4116.7676    2229.6843    2794.5912    -95.51991   -74.165672    188.32442    -4663.026 
39171000    58.920003   -5136.9796   -5023.3475   -5136.9796            0    3139.8967    19.933078    19.868959    20.695337    8196.3779    2944.1179    3572.3116    2903.2607   -113.80513   -243.42176   -109.36702   -4648.0175 
39172000    56.577405   -5140.7946   -5031.6804   -5140.7946            0     2102.161    19.954817    19.902622    20.685621    8215.3598    2660.6303    1391.1982    2254.6546   -5.5379865   -723.31923   -384.94247    -4779.815 
39173000    54.519535   -5139.0983   -5033.9528   -5139.0983            0    2250.8005    19.973651    19.892334     20.64711    8203.5623    2511.4468    1778.8099    2462.1449   -101.28623    -255.4061    283.38259   -4764.6658 
39174000    57.171232   -5138.4862   -5028.2267   -5138.4862            0    1323.7988    19.923527    19.997992    20.720217    8255.5672    2077.4758    928.82798    965.09266   -217.81938   -306.72637   -140.12661   -4868.8427 
39175000    56.828204   -5138.1703   -5028.5723   -5138.1703            0    1712.3257    19.978761    19.929159    20.595536    8200.3169    682.21993    2080.4212    2374.3358   -25.552157     590.4558    318.95662   -4823.7898 
39176000    55.591501   -5140.3188   -5033.1059   -5140.3188            0    2612.7746    19.939269    19.819715    20.639934    8156.7084    2077.3946    2412.2124    3348.7167   -233.66136    383.25004    889.08745   -4722.2975 
39177000     58.37305   -5139.2628   -5026.6855   -5139.2628            0    3010.3119    19.905555    19.978297    20.589915     8188.179    3214.3578    2384.4715    3432.1063   -254.30891    335.17024   -615.69832   -4667.2055 
39178000    56.658138   -5137.6527   -5028.3827   -5137.6527            0    1963.4588    20.115018    19.816178    20.612382    8216.1527    1285.3902    2361.8738    2243.1125   -325.14555   -305.39016   -252.56612   -4793.1129 
39179000    59.802555   -5138.7496   -5023.4154   -5138.7496            0    2635.6907    19.918175    19.884734    20.694945    8196.5973    2742.3328    2996.3016    2168.4378    206.28859   -623.84024    200.08124   -4708.3476 
39180000    57.471898    -5136.154   -5025.3146    -5136.154            0    2029.8953     20.04158    19.858979    20.645041    8216.8364    1324.7738     2302.375    2462.5373    183.13593    468.53668     358.2038   -4782.0638 
39181000    56.863542   -5141.3084   -5031.6423   -5141.3084            0    2081.6401    19.952218    19.923692    20.672443    8217.7477    1848.5333    2326.6184    2069.7686   -83.575262    291.13903   -567.36032   -4782.1631 
39182000    56.706102   -5137.6009   -5028.2384   -5137.6009            0    1945.2434     19.89992    19.916253    20.763155    8229.0994    1527.5369    2906.2457    1401.9475   -422.84889     537.5447     543.4032    -4794.784 
39183000    54.290838   -5138.3363   -5033.6319   -5138.3363            0    2467.3033     19.93666    19.764681    20.858799    8219.2375    3433.7259     2107.335     1860.849   -307.12938    277.92458    367.92949   -4737.8784 
39184000    53.789718   -5136.8819   -5033.1439   -5136.8819            0    2325.4546    19.911235    19.909302    20.709193    8209.5133    2710.4595    2396.4278    1869.4765    364.46915    257.78773   -121.27231   -4754.7234 
39185000    58.423631   -5135.2661   -5022.5912   -5135.2661            0    2098.7948    19.899618    19.906359    20.710062    8203.8546    2392.9539     1880.121    2023.3094   -43.682816    311.55225    381.87525   -4771.4813 
39186000    60.352299   -5137.5774   -5021.1829   -5137.5774            0    2327.8117    19.946698    19.952883    20.600133     8198.732    2280.9004    2239.3274    2463.2073   -350.42305    143.79002    617.49565   -4742.8463 
39187000    56.149427    -5140.504   -5032.2152    -5140.504            0    1695.9302    19.857158    19.946764    20.741941    8215.5936    2563.1059    1673.8303    850.85431   -208.85373   -79.293116    416.18609   -4829.0156 
39188000    62.216619   -5144.8567   -5024.8667   -5144.8567            0    2096.3997    19.846007    19.935838    20.641617    8166.7895    1852.4306    2273.5354     2163.233   -528.80199     617.9207    77.369343   -4775.1766 
39189000    56.354085   -5144.0192   -5035.3356   -5144.0192            0    1616.5216    19.974177    19.878018    20.761999    8243.4905    1102.6581    2550.5415    1196.3652   -74.921443    500.15377    989.02363   -4840.9927 
39190000    59.550885   -5136.1454   -5021.2965   -5136.1454            0    1468.7925    19.948654    19.981984    20.643622    8228.8302    831.12115    1616.0654    1959.1911    -112.3971    730.24515    95.818296   -4845.0281 
39191000    55.456411   -5133.3642   -5026.4118   -5133.3642            0    1732.9677    19.829364    19.937099    20.805113    8225.0936    2291.5359    1012.4381     1894.929   -181.89487    190.32574   -21.616159   -4818.5344 
39192000    57.844639   -5137.5251   -5025.9668   -5137.5251            0    2540.3258    19.932227    19.930279    20.606091    8185.8698    2189.1415    3162.2666    2269.5693   -82.808293   -417.32463   -134.29747   -4722.6964 
39193000     59.53916   -5142.8681   -5028.0418   -5142.8681            0    2033.7826    19.930515    19.874687    20.815221    8245.1745    1570.1291    2535.2473    1995.9714    22.403012    553.01388    185.92659   -4783.4847 
39194000    56.801807   -5129.2556   -5019.7086   -5129.2556            0    2664.8782    19.838867    19.880738    20.729906    8176.1093    3425.8458    2681.4455    1887.3433    -223.1458    381.62734    365.30176   -4701.9481 
39195000    55.534745   -5132.5212   -5025.4177   -5132.5212            0    3157.0209    19.977325    19.911246    20.609948    8198.0899    2828.0628    3197.0164    3445.9836   -49.920862    153.73939    222.37605    -4647.962 
39196000    58.418764   -5141.1323   -5028.4668   -5141.1323            0     2218.451    20.008404    19.862956     20.58533    8181.1462    1154.4366    2867.9902    2632.9263   -24.060323    202.53381     225.1253   -4763.7754 
39197000    57.579381   -5137.0744   -5026.0277   -5137.0744            0    2211.8262    19.885487    19.886948      20.6971    8184.9092     2646.994    2279.9518     1708.533   -426.53026    283.79068    468.36803   -4762.0053 
39198000    58.539221   -5140.3671   -5027.4693   -5140.3671            0    2487.6158     19.92118    19.857149    20.752325    8209.1598    1757.3453    3013.4552    2692.0469   -660.46483   -583.78992    1078.0587   -4729.6466 
39199000    61.331093   -5139.0318   -5020.7497   -5139.0318            0    2190.0173    19.926347    19.830214    20.670982    8168.0089    1563.7423    3391.3049    1615.0047   -507.07618   -13.902515   -73.246855   -4759.8703 
39200000    56.092235   -5139.0899   -5030.9113   -5139.0899            0    2311.5386    20.036914    19.897269    20.628775    8224.2772     2264.247     2453.474    2216.8948   -184.36112    19.551333    338.05241   -4753.6592 
39201000     56.77945   -5139.5255   -5030.0215   -5139.5255            0    1975.0796    19.877806    19.993403    20.678436     8218.127    1949.4252    1691.8084    2284.0053   -394.16106    281.00329    376.13977   -4793.3024 
39202000    58.205912   -5141.0955   -5028.8406   -5141.0955            0     1829.942    19.950077    19.880984    20.715793    8216.4461    1326.5645    2512.0535     1651.208    114.09456    68.664883    567.81811   -4809.5615 
39203000    58.252062   -5145.2875   -5032.9435   -5145.2875            0    2667.8239    19.833451    19.948919    20.669705    8178.0912     3191.768    2032.0523    2779.6514    396.68832    868.55639    141.43324   -4714.7546 
39204000    57.329248   -5145.3125   -5034.7482   -5145.3125            0    1768.2146    19.875476    19.918856    20.760418    8218.9818      1974.43    1708.1738      1622.04    75.772772   -439.27338   -783.64002   -4822.8004 
39205000    56.206517   -5143.0463   -5034.6473   -5143.0463            0    1822.1122    19.813172    20.019617    20.690992    8207.1259    2559.8463    489.81726    2416.6731     21.71178    381.99734   -673.37204   -4816.5541 
39206000    55.209579   -5138.7165   -5032.2402   -5138.7165            0    2744.0949    20.005797    19.833462    20.584707    8167.6867    1956.0864     3351.912    2924.2865    -126.2773    263.87369   -499.09552   -4705.3709 
39207000    57.701275   -5139.4327    -5028.151   -5139.4327            0    2510.6964     19.91085    19.968867    20.622737    8199.5408    2007.1622    3284.9911    2239.9359    172.51845   -316.45054   -47.715702   -4727.9171 
39208000    59.730971    -5139.627   -5024.4308    -5139.627            0    2356.3933    19.812704     19.92026    20.788366    8204.6319    2534.8217    2792.5762    1741.7821   -552.25617    236.42931    88.679299   -4742.4738 
39209000    58.597127   -5142.7757   -5029.7662   -5142.7757            0     2385.523    19.911205    19.947811    20.686716    8216.4522    2335.7547    1901.1844    2919.6299   -507.22399    529.89883   -141.13461   -4743.9125 
39210000    59.442541    -5137.345   -5022.7051    -5137.345            0    1750.2931    20.004522    19.897778    20.734646    8253.3331    1445.5246    2141.5114    1663.8432    270.10653    228.71542    530.89154   -4812.0286 
39211000    59.883949   -5142.8269   -5027.3357   -5142.8269            0    1674.1868    19.952955    19.821915    20.851134    8246.7441    1827.4633    2099.2032    1095.8939   -8.4292388    386.51542   -12.012412   -4825.9807 
39212000    60.797621   -5144.2051   -5026.9517   -5144.2051            0    2741.7649     19.96366    19.792859    20.750412    8199.2745    3596.5392    2032.6949    2596.0608   -277.59996    1028.1952   -519.50826   -4699.0969 
39213000     57.87299   -5133.0635   -5021.4506   -5133.0635            0    2191.1369    19.996586    19.820005    20.716729     8210.712     1857.326    2977.5955    1738.4892    -248.4275   -571.14065    695.40894   -4759.0733 
39214000    58.854231   -5138.9912   -5025.4859   -5138.9912            0    2160.2503    19.974851    19.901647    20.606894    8191.9087    1389.7229    2579.2429     2511.785    118.64542    658.21827    135.47443   -4767.3995 
39215000     56.68566   -5147.1503   -5037.8272   -5147.1503            0    2327.1117    19.879298    19.866201    20.798473    8213.8606    1941.6812    2887.1708    2152.4833   -17.615912    245.65255    302.52711   -4759.0608 
39216000    54.835868   -5136.6853   -5030.9297   -5136.6853            0    1850.7815    19.990214    19.898982    20.637558    8209.3093    2064.9767    1487.4677    1999.9001   -192.22343     203.3245   -105.61956   -4809.3461 
39217000    54.479618    -5141.387   -5036.3185    -5141.387            0    2073.8198    19.891443    19.927078    20.699382    8204.7865     1963.604    2664.5998    1593.2556    -225.1493    592.59521    336.59117   -4788.1686 
39218000    57.220939   -5132.6395   -5022.2841   -5132.6395            0    2572.7733    19.921745    19.922833    20.603749    8177.5787    1707.7769     2498.928    3511.6151    129.71361    596.49293    148.68505    -4715.451 
39219000    57.370547   -5135.7014   -5025.0575   -5135.7014            0    2760.4369    19.984162    19.747669    20.776741    8199.3461    2097.3617    3321.3048    2862.6441   -405.29345    467.60865    71.204854   -4694.9671 
39220000     56.59539   -5142.7455   -5033.5966   -5142.7455            0     2240.305    20.034504    19.812228    20.624549    8186.4645    2598.7541    1920.1654    2201.9955   -141.79388    929.72457    292.86156   -4766.1239 
39221000    56.165813   -5139.3586   -5031.0381   -5139.3586            0    1811.3966    19.976803    19.842957    20.738823    8220.8453    1319.8573    2160.4723    1953.8601   -13.558119   -69.060871    460.03369   -4813.8651 
39222000     55.83208   -5142.4993   -5034.8224   -5142.4993            0    1803.3865    19.916942    19.953641    20.780438    8258.4686    2871.5149    905.42925    1633.2152   -163.68208    761.44169   -289.51604   -4817.6202 
39223000    57.908306   -5145.2523   -5033.5712   -5145.2523            0    1744.9293    19.932787    19.912791    20.728743     8227.599    1655.0699    1551.7416    2027.9763   -126.84599    23.325782    253.28011   -4824.1953 
39224000    58.215063   -5139.3243   -5027.0516   -5139.3243            0    2565.4262    20.038008    19.821413    20.631158    8194.3168    1966.7357    2973.3496    2756.1931    30.137423    432.08467    729.72946   -4720.4685 
39225000    56.507224   -5142.0885   -5033.1096   -5142.0885            0    2108.2583    19.941937    19.887229    20.678492    8200.8806    2924.8951    1465.4703    1934.4094    212.10761    239.51287    -20.79814   -4780.9589 
39226000    57.311313    -5138.632   -5028.1023    -5138.632            0    2333.5888    19.915923    19.867441     20.69079    8186.8994    2236.9574    2493.7892    2270.0199     62.16572   -486.85138   -370.37201   -4749.4776 
39227000    60.991074   -5132.3937   -5014.7672   -5132.3937            0      2195.55    19.967828    19.869382    20.668444    8200.1724    2037.4904    2296.5017     2252.658   -280.63598   -453.51537    546.54264    -4752.199 
39228000    59.629299   -5136.2643   -5021.2642   -5136.2643            0    2601.9735    19.889118    19.914946    20.736603    8213.5757    2532.3698     2808.064    2465.4868     66.95444    794.05396   -236.65843   -4709.5827 
39229000    61.296204   -5143.6755   -5025.4606   -5143.6755            0    1920.5975    19.911514    19.933311    20.647276    8194.9535    2120.4434    1645.4425    1995.9068    135.66407    145.25188   -493.58466   -4795.9204 
39230000    59.591152   -5135.9307   -5021.0041   -5135.9307            0    1649.3533    19.892879    19.909511    20.753339    8219.5152    2379.2648    1035.4652    1533.3299   -156.61813    27.488136     360.5212   -4823.2909 
39231000    61.089637   -5143.4787   -5025.6622   -5143.4787            0    1868.8517    19.947672    19.964217    20.666122    8230.0692    1829.3625    2357.3209    1419.8717   -287.58695    547.35266     317.1757   -4801.3494 
39232000    59.837823   -5142.9359   -5027.5336   -5142.9359            0    1662.4948     19.95411    19.873917    20.748956    8228.3374    978.12309    2009.1664    2000.1949   -157.55399     416.6574    398.21119   -4828.0311 
39233000    55.788577   -5138.6784   -5031.0854   -5138.6784            0    1755.3813    19.909293    19.986474    20.646447    8215.5633    2268.8622    794.71475    2202.5669   -327.31053     481.3815    328.63098   -4820.7634 
39234000    59.651313   -5140.6974   -5025.6548   -5140.6974            0    1450.5272     19.93944    19.919803    20.715952    8228.1631     -12.3704    2918.3084    1445.6437   -48.906768   -494.57901    451.03725   -4851.5926 
39235000    55.496633   -5138.9047   -5031.8748   -5138.9047            0    2427.0047    19.882186    19.945447    20.614279    8174.7794    3019.5329     1906.677     2354.804   -136.83428   -223.94589    -920.7294   -4742.5254 
39236000    54.503223   -5137.2879   -5032.1738   -5137.2879            0    2671.5119    19.919136    19.924752    20.631146    8188.1683    2397.8425    2674.0706    2942.6227    330.87489    1270.4797    846.82454   -4713.1524 
39237000    56.914688   -5137.3898   -5027.6251   -5137.3898            0    2293.8195    19.967803    19.830233    20.697485     8195.504    1549.7131    2984.0204     2347.725    58.751682    505.80033   -204.67875   -4753.4608 
39238000    58.282982   -5137.3689   -5024.9652   -5137.3689            0    2694.6787    19.947364    19.907204    20.645994    8198.4466    2264.3863    3004.0171    2815.6326   -36.506622    -106.1719   -94.940611   -4702.7735 
39239000    57.131341   -5138.6833   -5028.5007   -5138.6833            0    2117.9864    19.940754    19.789585    20.782937    8201.3468    1866.7179    2880.7897    1606.4516   -229.18534   -4.9130247    -408.0233   -4775.1721 
39240000    57.056281   -5136.3232   -5026.2854   -5136.3232            0    1775.9803    19.937238    19.948388    20.616187    8199.3825    1529.9799    1962.5578    1835.4031   -345.93784    431.47433   -196.03862   -4813.9144 
39241000     54.39477   -5138.3527   -5033.4478   -5138.3527            0    2246.8511    19.877255    19.882696    20.790869    8216.8306    3287.5706    1961.0696    1491.9131   -200.43909     452.3542   -209.88166   -4764.1985 
39242000    55.093919   -5135.2297   -5028.9764   -5135.2297            0    1975.3901    19.851059    19.978061    20.660128    8193.5104    2127.4093    2049.3285    1749.4326    47.982007    223.79406   -278.14343   -4792.9293 
39243000    59.836078   -5137.9618   -5022.5629   -5137.9618            0    2877.0178    19.910004    19.815164    20.641017     8143.294    2484.5063    3184.2114    2962.3357   -315.83284    422.83917   -130.17389   -4680.8836 
39244000    57.826085   -5136.2099   -5024.6875   -5136.2099            0    1357.9125    19.982055    19.876096    20.704548     8223.127    666.58929     1982.704    1424.4442    155.11725    477.91144    111.43861   -4861.8386 
39245000    60.141063   -5135.1822   -5019.1951   -5135.1822            0    1828.4388     19.90028     19.88735    20.755622    8214.3249    2148.4053    1728.2618    1608.6494   -414.51087    119.43327    403.98289   -4800.1527 
39246000    60.148013   -5139.3411   -5023.3406   -5139.3411            0    2507.7342    19.890758    19.859329    20.764092    8202.1718    1876.2153    3410.3612    2236.6262   -469.63829    356.93158    -241.0802   -4723.3648 
39247000    57.179688   -5139.2217   -5028.9458   -5139.2217            0     1988.061    19.951407    19.880579    20.703758    8212.0529    2487.0828    1610.5318    1866.5683   -197.98778    655.96622    1072.5131    -4790.847 
39248000     55.33516   -5129.2302   -5022.5116   -5129.2302            0    2191.3831    19.910801    19.882434    20.748391    8213.7729     2915.393    1801.7782     1856.978    7.9590215    851.58956    657.01269   -4760.0071 
39249000    57.323233   -5140.2622   -5029.7095   -5140.2622            0    3272.6185    19.858718     19.92117    20.576765    8140.3515    3855.1069    2724.7306     3238.018    39.191126    95.385888    406.63196   -4641.1886 
39250000    59.385509   -5130.7676   -5016.2377   -5130.7676            0    3654.2298    19.839005    19.843683     20.71035    8153.2283    4457.1717    3138.5956     3366.922    51.099881   -20.072925    272.32782   -4581.7261 
Loop time of 400.202 on 64 procs for 250000 steps with 972 atoms

Performance: 107.945 ns/day, 0.222 hours/ns, 624.684 timesteps/s
193.9% CPU use with 32 MPI tasks x 2 OpenMP threads

MPI task timing breakdown:
Section |  min time  |  avg time  |  max time  |%varavg| %total
---------------------------------------------------------------
Pair    | 24.7       | 34.453     | 44.416     |  83.1 |  8.61
Bond    | 1.0435     | 1.2004     | 1.5518     |  10.0 |  0.30
Kspace  | 176.27     | 187.38     | 197.8      |  47.4 | 46.82
Neigh   | 0.090247   | 0.1037     | 0.11561    |   2.8 |  0.03
Comm    | 67.836     | 74.361     | 81.157     |  44.2 | 18.58
Output  | 0.50047    | 0.50082    | 0.50241    |   0.0 |  0.13
Modify  | 79.317     | 82.271     | 85.952     |  16.6 | 20.56
Other   |            | 19.93      |            |       |  4.98

Nlocal:        30.3750 ave          36 max          22 min
Histogram: 1 0 3 3 3 5 4 5 5 3
Nghost:        2686.94 ave        2720 max        2669 min
Histogram: 5 6 6 5 2 2 2 2 0 2
Neighs:        9665.47 ave       12313 max        6775 min
Histogram: 2 2 2 2 5 6 7 4 0 2

Total # of neighbors = 309295
Ave neighs/atom = 318.20473
Ave special neighs/atom = 2.0000000
Neighbor list builds = 266
Dangerous builds = 0

unfix		3
unfix		2
unfix		1

write_data	data.final.${pid}
write_data	data.final.1
System init for write_data ...
PPPM initialization ...
  extracting TIP4P info from pair style
  using 12-bit tables for long-range coulomb (../kspace.cpp:340)
  G vector (1/distance) = 0.37295744
  grid = 24 24 25
  stencil order = 5
  estimated absolute RMS force accuracy = 0.0033408965
  estimated relative force accuracy = 1.0061011e-05
  using double precision FFTW3
  3d grid and FFT values/proc = 3458 576
Last active /omp style is kspace_style pppm/tip4p/omp
WARNING: Not all mixed pair coeffs generated from mixing. Use write_data with 'pair ij' option to store all pair coeffs. (../write_data.cpp:312)

write_restart   restart.lmp.${pid}
write_restart   restart.lmp.1
System init for write_restart ...
PPPM initialization ...
  extracting TIP4P info from pair style
  using 12-bit tables for long-range coulomb (../kspace.cpp:340)
  G vector (1/distance) = 0.37295744
  grid = 24 24 25
  stencil order = 5
  estimated absolute RMS force accuracy = 0.0033408965
  estimated relative force accuracy = 1.0061011e-05
  using double precision FFTW3
  3d grid and FFT values/proc = 3458 576
Last active /omp style is kspace_style pppm/tip4p/omp
Total wall time: 0:06:40
