LAMMPS (30 Jul 2021)
  using 1 OpenMP thread(s) per MPI task
package omp 0
using multi-threaded neighbor list subroutines
echo both

include		in.partitions
variable        pid world 0
include		in.temp
variable        temperature equal 261.13
variable	tempDamp equal 100.0
include		in.pressure
variable        pressure equal 8000.0
variable        pressureDamp equal 1000.0 # This is 1 ps
include		in.seed
variable        seed world 745823

units		real
atom_style	full
read_restart	restart.lmp.${pid}
read_restart	restart.lmp.0
Reading restart file ...
  restart file = 30 Jul 2021, LAMMPS = 30 Jul 2021
  restoring atom style full from restart
  orthogonal box = (0.56645762 1.7587435 0.69107697) to (17.641115 21.870434 21.522119)
  4 by 4 by 4 MPI processor grid
  restoring pair style lj/cut/tip4p/long/omp from restart
  restoring bond style harmonic/omp from restart
  restoring angle style harmonic/omp from restart
  864 atoms
  576 bonds
  288 angles
Finding 1-2 1-3 1-4 neighbors ...
  special bond factors lj:    0        0        0       
  special bond factors coul:  0        0        0       
     2 = max # of 1-2 neighbors
     1 = max # of 1-3 neighbors
     1 = max # of 1-4 neighbors
     2 = max # of special neighbors
  special bonds CPU = 1.593 seconds
  read_restart CPU = 1.996 seconds
include 	in.setup
variable	out_freq equal 1000
variable	out_freq2 equal 10000
variable	out_freq3 equal 1000

timestep	2.0

neigh_modify    delay 7 every 1

include		in.tip4p
# This is TIP4P/Ice

# create groups ###
group ox type 2
288 atoms in group ox
group hy type 1
576 atoms in group hy

# set charges - beside manually ###
set group ox charge -1.1794
Setting atom values ...
  288 settings made for charge
set group hy charge 0.5897
Setting atom values ...
  576 settings made for charge

# ### TIP3P Potential Parameters ###
pair_style lj/cut/tip4p/long/omp 2 1 1 1 0.1577 8.5
pair_coeff 1 1*2 0.000 0.000
pair_coeff 2 2 0.21084 3.1668
bond_style  harmonic
bond_coeff  1 450 0.9572
angle_style harmonic
angle_coeff 1 55 104.52
kspace_style pppm/tip4p/omp 1.0e-5
pair_modify tail yes

thermo          ${out_freq}
thermo          1000
thermo_style    custom step temp pe etotal epair emol press lx ly lz vol pxx pyy pzz pxy pxz pyz enthalpy

restart 	${out_freq3} restart.lmp.${pid} restart2.lmp.${pid}
restart 	1000 restart.lmp.${pid} restart2.lmp.${pid}
restart 	1000 restart.lmp.0 restart2.lmp.${pid}
restart 	1000 restart.lmp.0 restart2.lmp.0


include         in.dump
dump            myDump all atom ${out_freq2} dump.water.${pid}
dump            myDump all atom 10000 dump.water.${pid}
dump            myDump all atom 10000 dump.water.0
dump            myDump2 all dcd ${out_freq2} dump.dcd
dump            myDump2 all dcd 10000 dump.dcd
dump_modify     myDump append yes
dump_modify     myDump2 append yes


variable natoms 	equal  "count(all)"                        # NUMBER ATOMS
variable H      	equal  "enthalpy/v_natoms"                 # ENTHALPY-per-atom
variable Vol      	equal  "vol/v_natoms"                 # volume-per-atom
fix AVG all 		ave/time ${out_freq} 1 ${out_freq} v_Vol v_H file vol_enthalpy.dat
fix AVG all 		ave/time 1000 1 ${out_freq} v_Vol v_H file vol_enthalpy.dat
fix AVG all 		ave/time 1000 1 1000 v_Vol v_H file vol_enthalpy.dat


timer           timeout 23:50:00 every 1000
New timer settings: style=normal  mode=nosync  timeout=23:50:00

fix 		1 all shake 1e-6 200 0 b 1 a 1
       0 = # of size 2 clusters
       0 = # of size 3 clusters
       0 = # of size 4 clusters
     288 = # of frozen angles
  find clusters CPU = 0.016 seconds
fix             2 all nph iso ${pressure} ${pressure} ${pressureDamp}
fix             2 all nph iso 8000 ${pressure} ${pressureDamp}
fix             2 all nph iso 8000 8000 ${pressureDamp}
fix             2 all nph iso 8000 8000 1000
fix             3 all temp/csvr ${temperature} ${temperature} ${tempDamp} ${seed}
fix             3 all temp/csvr 261.13 ${temperature} ${tempDamp} ${seed}
fix             3 all temp/csvr 261.13 261.13 ${tempDamp} ${seed}
fix             3 all temp/csvr 261.13 261.13 100 ${seed}
fix             3 all temp/csvr 261.13 261.13 100 745823

run             250000
PPPM initialization ...
  extracting TIP4P info from pair style
  using 12-bit tables for long-range coulomb (../kspace.cpp:340)
  G vector (1/distance) = 0.37377818
  grid = 24 24 24
  stencil order = 5
  estimated absolute RMS force accuracy = 0.0032166006
  estimated relative force accuracy = 9.6866972e-06
  using double precision FFTW3
  3d grid and FFT values/proc = 2535 216
Last active /omp style is kspace_style pppm/tip4p/omp
Neighbor list info ...
  update every 1 steps, delay 7 steps, check yes
  max neighbors/atom: 2000, page size: 100000
  master list distance cutoff = 10.8154
  ghost atom cutoff = 10.8154
  binsize = 5.4077, bins = 4 4 4
  1 neighbor lists, perpetual/occasional/extra = 1 0 0
  (1) pair lj/cut/tip4p/long/omp, perpetual
      attributes: half, newton on, omp
      pair build: half/bin/newton/omp
      stencil: half/bin/3d
      bin: standard
Per MPI rank memory allocation (min/avg/max) = 9.236 | 9.238 | 9.240 Mbytes
Step Temp PotEng TotEng E_pair E_mol Press Lx Ly Lz Volume Pxx Pyy Pzz Pxy Pxz Pyz Enthalpy 
16000000    272.14655   -3865.3553   -3398.9055   -3865.3553            0    7492.6526    17.074657    20.111691    20.831042    7153.3844    8551.4391    7123.0834    6803.4353    394.95506    515.74904    93.534372   -2617.2362 
16001000    278.80581   -3899.4798   -3421.6162   -3899.4798            0     6198.671    17.128264    20.174833    20.896442    7220.9719    6401.6304    6386.0181    5808.3647    224.39455    766.60836    741.37869   -2768.8312 
16002000    251.12163   -3840.4602   -3410.0464   -3840.4602            0    7497.5051    17.073753    20.110626    20.829939    7152.2479    8502.9328     6514.617    7474.9654    314.36038    1092.8227   -160.54038   -2627.9951 
16003000    260.87603   -3874.4208   -3427.2882   -3874.4208            0    8019.9323    16.986363    20.007692    20.723323    7042.9856    7133.0615    8739.0821    8187.6534   -1338.8547   -948.60809   -448.40049   -2603.5231 
16004000    255.74569   -3900.4997   -3462.1604   -3900.4997            0    8480.8172    16.984155    20.005092     20.72063    7040.2399    7300.0194    10312.972    7829.4601    353.19645    280.85534   -702.50357   -2591.3952 
16005000    258.12796   -3862.6255    -3420.203   -3862.6255            0    5982.0068    17.174785    20.229628    20.953197    7279.9687    5974.0406     5609.548    6362.4317    -193.0838    14.029573    644.20529   -2785.0881 
16006000    258.70867   -3863.4488    -3420.031   -3863.4488            0     6193.997    17.092036    20.132161    20.852244    7175.2495    5741.2276    4798.7478    8042.0155   -164.67455   -1424.4542    981.97073   -2771.8685 
16007000    262.38244    -3884.992   -3435.2774    -3884.992            0    7294.8741    17.048279    20.080621     20.79886    7120.2823    7539.6191    5379.6196    8965.3835    1048.1064   -893.06272    214.58217    -2677.763 
16008000    268.73127   -3872.2438   -3411.6476   -3872.2438            0    8055.7017    17.045125    20.076906    20.795013    7116.3312     8780.717    4891.0223    10495.366    1445.7598    1902.1107    1040.4594   -2575.5915 
16009000    277.09076    -3859.467   -3384.5429    -3859.467            0    7826.3294     17.06062    20.095157    20.813916    7135.7564     8307.524    7511.8973    7659.5668    1335.8385    2368.6315   -749.90753   -2570.0749 
16010000    258.11623   -3847.1946   -3404.7922   -3847.1946            0    7472.1163    17.023836     20.05183     20.76904       7089.7    8853.1511    6898.0002    6665.1975   -466.97208    6.1828251    349.23334   -2632.2053 
16011000    260.90154   -3861.6212   -3414.4449   -3861.6212            0    9306.5672    17.005666    20.030428    20.746873    7067.0232    9073.8532    10108.658    8737.1899   -58.076118    -183.2702   -338.72526   -2455.2609 
16012000    265.59565   -3807.4649   -3352.2431   -3807.4649            0     8236.638    17.043076    20.074492    20.792513     7113.765    7717.3879    9197.7398    7794.7861   -250.08404   -297.16519   -512.35825   -2497.7169 
16013000    256.74066   -3813.7953   -3373.7506   -3813.7953            0    7666.4219     17.02276    20.050563    20.767728    7088.3561    5155.6756    7248.4972    10595.093    288.34725   -316.66541   -758.98087   -2581.2235 
16014000    251.06962   -3878.6087   -3448.2839   -3878.6087            0    6979.1629    17.082707    20.121172    20.840863    7163.5066    8260.7753    7518.8082    5157.9052    374.21561    481.02071   -253.28129   -2719.1541 
16015000    252.83612   -3852.7983   -3419.4458   -3852.7983            0    7651.3257    17.076859    20.114284    20.833728    7156.1517    9176.9909    7157.0756    6619.9107   -969.66329    214.78304    173.99609   -2620.9142 
16016000    259.35106   -3868.4913   -3423.9725   -3868.4913            0    7489.4979    17.020039    20.047357    20.764407     7084.957    6414.4509    8613.3312    7440.7118   -1392.2361    2608.8705   -76.330009   -2650.1064 
16017000    262.55069   -3867.9265   -3417.9236   -3867.9265            0    6878.2477    17.069112     20.10516    20.824277    7146.4177    6833.7641    7496.9551    6304.0238    381.65769    218.94993    197.58582   -2701.0508 
16018000    246.53744   -3889.7709   -3467.2142   -3889.7709            0    7377.6994     17.01515    20.041599    20.758443    7078.8535    8483.9358    8026.6239    5622.5386   -260.96217   -561.13846    476.02537   -2705.5566 
16019000    261.77342   -3886.5304   -3437.8597   -3886.5304            0     7136.049    16.946434    19.960661     20.67461    6993.4358    5827.1909     8390.503     7190.453   -548.28853    10.701224   -506.28832   -2710.0392 
16020000    264.40871   -3903.1268   -3449.9393   -3903.1268            0     8772.385    16.950414    19.965349    20.679465    6998.3639    9339.5477    8261.9825    8715.6246   -766.06437   -2248.3758    637.91968    -2554.595 
16021000    255.39705   -3914.7845   -3477.0427   -3914.7845            0     8681.369     17.00764    20.032754    20.749281    7069.4848    9309.7112    8392.8566    8341.5393   -154.12465   -358.15631      909.407   -2581.9832 
16022000    253.17771   -3868.6989    -3434.761   -3868.6989            0    7432.0151    17.045518    20.077369    20.795492    7116.8235    7678.8639    6548.9875    8068.1938    1469.9014   -862.97417    1153.6703   -2663.3805 
16023000    249.34694   -3888.5724   -3461.2003   -3888.5724            0    8837.2324    16.994669    20.017475    20.733456    7053.3216    8886.1836    9260.0663    8365.4474    555.68034    1388.2055   -411.67396   -2552.1543 
16024000    279.28115   -3864.9292   -3386.2509   -3864.9292            0    7603.1363    17.032628    20.062186    20.779767    7100.6909    9442.5925    7332.0815     6034.735    -1925.975   -434.27627   -1024.2599   -2598.8983 
16025000    266.99954   -3890.5971    -3432.969   -3890.5971            0    7069.3757    17.010955    20.036658    20.753325    7073.6187    5429.1009     7877.248    7901.7783   -942.11968   -11.103219    182.01102   -2703.6818 
16026000    276.12784   -3894.7917   -3421.5181   -3894.7917            0    6717.4519     17.08133     20.11955    20.839182     7161.774    8665.3559    5444.1221    6042.8777    -356.1024    764.98601    587.35007   -2719.8995 
16027000    276.92504   -3912.1158   -3437.4758   -3912.1158            0    8587.8999    17.059389    20.093706    20.812414    7134.2115    8780.0887    10017.036    6966.5747    1273.8642    1425.6024    -83.17267   -2543.9464 
16028000    255.08314    -3914.662   -3477.4583    -3914.662            0    7269.3049    17.073174    20.109944    20.829232    7151.5206    8693.6261    7104.0797    6010.2088   -318.18305    268.61037    2182.6335   -2719.2873 
16029000    260.34664   -3946.4319   -3500.2067   -3946.4319            0    7693.6919    17.022257     20.04997    20.767113     7087.727    8682.9156       7715.3    6682.8601   -412.58954   -1658.0565    1164.4329   -2704.9311 
16030000    260.09654   -3868.9411   -3423.1445   -3868.9411            0    8813.7664    17.030914    20.060167    20.777675    7098.5468    9145.3531    10229.509    7066.4368   -63.333157    713.35758    217.48695   -2510.6991 
16031000    261.38756   -3870.4415   -3422.4322   -3870.4415            0    5309.3913     17.06498    20.100292    20.819235    7141.2281    6733.2153    5483.3291    3711.6295    1915.3785    -332.1426      278.949   -2869.4724 
16032000    258.81143   -3872.1609    -3428.567   -3872.1609            0    7239.6298    17.038743    20.069389    20.787227    7108.3413    7582.1293    7419.3903    6717.3698    1753.1507    1176.9398    610.06758     -2678.05 
16033000    257.72822   -3866.4869   -3424.7496   -3866.4869            0    7404.5111    16.979155    19.999202     20.71453     7034.024     6152.361    6462.5152    9598.6571    168.11292    872.61408   -1150.6105    -2665.165 
16034000    257.93847   -3916.5144   -3474.4166   -3916.5144            0    6514.7317    16.942877    19.956471     20.67027    6989.0325     9056.434    4504.3678    5983.3934    -771.8669    1696.7007    451.00434   -2810.3839 
16035000    245.01013    -3905.421    -3485.482    -3905.421            0    8915.0006     16.90906     19.91664    20.629014    6947.2673    9717.1547    7942.9807    9084.8664   -2072.7395    468.15426    128.53344   -2582.2251 
16036000     254.4022   -3909.8011   -3473.7644   -3909.8011            0    7322.4504     16.98556    20.006746    20.722344    7041.9871    7415.6832    8237.9162    6313.7519   -175.99268    114.71719    246.06721   -2721.7476 
16037000    280.01611    -3894.534    -3414.596    -3894.534            0    8537.7446    17.016533    20.043228     20.76013    7080.5798     7728.375    7754.7756    10130.083   -843.18891    933.21634   -654.76501   -2532.9629 
16038000    260.01018   -3861.0746   -3415.4261   -3861.0746            0    8799.4256    16.971491    19.990175    20.705179    7024.5028    8558.9124    9024.5481    8814.8164    383.21999   -323.45745    141.75522   -2513.9674 
16039000     269.5082   -3903.3436   -3441.4158   -3903.3436            0    9260.9284    16.923801    19.934002    20.646998    6965.4524    8917.1824    8922.0806     9943.522   -2786.0962   -407.68356    1733.0661   -2500.6539 
16040000     253.0998   -3884.2696   -3450.4652   -3884.2696            0    8305.3306    17.031741    20.061141    20.778684    7099.5812    7589.8434    9451.8136    7874.3348    1044.7055    429.66196    465.65595   -2590.5304 
16041000    264.49658   -3885.2028   -3431.8647   -3885.2028            0    8385.1915    17.031031    20.060305    20.777818    7098.6934    6738.3846    8467.5354    9949.6545      1154.95    431.34619   -2116.4458   -2563.7697 
16042000    262.33961   -3897.6718   -3448.0307   -3897.6718            0    6516.2506    17.091279    20.131269    20.851321    7174.2962    5800.6665    7625.0267    6123.0586   -680.63973   -1598.9486    1024.7188    -2766.237 
16043000    258.65718   -3876.1144   -3432.7849   -3876.1144            0    9111.6078    17.069712    20.105867    20.825009    7147.1715    8523.4659      9575.03    9236.3275    1080.9499    -126.2879    506.82246    -2483.044 
16044000    262.27686   -3861.1066   -3411.5731   -3861.1066            0    7495.7504    17.031144    20.060438    20.777956    7098.8344    7053.6152    7501.9896    7931.6463   -614.06507   -239.45411    1007.4208   -2635.5439 
16045000    245.61635   -3895.7346   -3474.7566   -3895.7346            0    6781.0129     17.03081    20.060045    20.777549    7098.4173    8016.1774     7755.498    4571.3632    -455.5444    234.49164    220.15382   -2772.7649 
16046000    272.91229   -3868.6548   -3400.8925   -3868.6548            0    9787.9643    16.964022    19.981377    20.696067    7015.2324    11323.241    9638.6713    8401.9805    -1790.681    1217.0209    741.77157   -2399.4862 
16047000    260.72768   -3858.6343    -3411.756   -3858.6343            0    8091.5072    16.952293    19.967562    20.681758     7000.692    7883.1137    8680.4688     7710.939    401.69846   -697.98785   -864.53423     -2585.63 
16048000    255.28645   -3853.0581   -3415.5058   -3853.0581            0    9586.1947    16.951832    19.967018    20.681195    7000.1199    10341.752    9631.9395    8784.8927    1220.1124    670.59101   -1382.6465   -2436.8554 
16049000    259.76674   -3849.9812   -3404.7499   -3849.9812            0     8009.227    16.985828    20.007061     20.72267    7042.3197    6724.0873    8545.9695    8757.6243    1704.9339    1624.1979   -19.985023   -2582.1621 
16050000     256.1988   -3875.5591   -3436.4431   -3875.5591            0    7770.0247    17.053242    20.086466    20.804915    7126.5026    8890.1998    7781.2447    6638.6297   -127.73493   -459.80854    1102.4105   -2628.8832 
16051000    265.77412   -3857.4752   -3401.9474   -3857.4752            0    8477.7928    17.045232    20.077032    20.795144    7116.4658    7358.3408     9680.006    8395.0316    175.30481    1056.5945    186.65846   -2522.0682 
16052000    255.64137   -3883.5922   -3445.4316   -3883.5922            0    6567.6328    17.075611    20.112814    20.832205    7154.5831    6060.8797    5819.2115    7822.8074    382.09938    149.17603    1012.1166     -2760.15 
16053000    254.31751   -3861.8563   -3425.9648   -3861.8563            0    8747.8181    17.006351    20.031235    20.747709    7067.8777     9068.195    9782.5148    7392.7446   -571.62573   -2081.9499     469.2141   -2524.2594 
16054000    271.19306   -3855.3172   -3390.5016   -3855.3172            0    8266.7522    17.015046    20.041477    20.758317    7078.7243     8338.947    9109.8257     7351.484    178.38625    413.85071   -173.21651   -2537.0757 
16055000    255.48878   -3857.1569   -3419.2579   -3857.1569            0    8290.2861    17.059921    20.094333    20.813063    7134.8791    7894.3138     8313.447    8663.0974    589.97067    754.27273   -1229.8284   -2556.6131 
16056000    272.47456   -3855.7406   -3388.7286   -3855.7406            0    7292.5542    17.030016    20.059109     20.77658    7097.4241    6616.6715    7257.5885    8003.4027    641.92226    1416.0793     466.4152   -2633.8861 
16057000    257.34549   -3865.5898   -3424.5085   -3865.5898            0    9403.4699     16.97304    19.991999    20.707069    7026.4259    8897.2576    10035.962    9277.1904    467.33701   -158.92072   -474.90727   -2460.9047 
16058000    261.20196   -3868.9843   -3421.2931   -3868.9843            0    7509.5785     17.02964    20.058666    20.776121    7096.9538    6501.8233    8375.3377    7651.5745   -789.12616    762.23965   -899.30085   -2644.0382 
16059000    274.57471   -3874.7323   -3404.1206   -3874.7323            0    8967.0193      16.9886    20.010327    20.726052    7045.7683    9285.5256    8274.8714     9340.661    581.79429   -404.75812    1523.8301   -2482.7118 
16060000    246.17315   -3871.4887   -3449.5564   -3871.4887            0    6290.0165    16.994773    20.017598    20.733584    7053.4518    5574.5443    5200.1104    8095.3949   -404.82785    859.81023   -734.31018    -2802.519 
16061000    254.81822   -3860.1967    -3423.447   -3860.1967            0    7251.3196    17.023215    20.051099    20.768283    7088.9244      7870.71     7913.412     5969.837    86.561368    652.07836    462.87916   -2673.7715 
16062000    250.90198   -3849.4775   -3419.4401   -3849.4775            0      7036.01    17.046163    20.078128    20.796279    7117.6313    6307.5546    7043.2522    7757.2234    401.37412    2085.4903    129.73812   -2689.0786 
16063000    278.73642   -3863.8709   -3386.1262   -3863.8709            0    8543.7835    17.101396    20.143185    20.863663     7187.043    8519.4484    8957.2324    8154.6697   -33.299843    822.70876   -1004.4964    -2490.604 
16064000    273.53481    -3881.874   -3413.0447    -3881.874            0    5700.7138    17.074297    20.111267    20.830602    7152.9318    4477.8193    6478.7262     6145.596   -452.62106    184.42661    -987.8346   -2818.3566 
16065000    252.51711   -3885.8569   -3453.0512   -3885.8569            0    6142.0337    17.083099    20.121635    20.841341    7164.0003    7186.5552     4535.433     6704.113    1342.7168   -1324.4509   -1292.2931    -2811.334 
16066000    267.37589   -3836.1452   -3377.8721   -3836.1452            0    7533.5149    16.985386    20.006542    20.722132    7041.7708    8460.9258    7625.6797    6513.9393    1018.1495   -68.116185    1075.7188   -2604.2027 
16067000     260.9639   -3890.1583   -3442.8751   -3890.1583            0    6268.1846    17.010437    20.036048    20.752693    7072.9731    6870.7722    4849.9458     7083.836    970.58887    96.186043   -760.74962    -2796.299 
16068000    253.57988   -3853.5041   -3418.8769   -3853.5041            0    5526.3698    17.057454    20.091428    20.810054    7131.7844    5110.2498    6330.5971    5138.2624   -658.21762   -873.14456    874.50526   -2844.0805 
16069000    257.59507   -3907.5424   -3466.0333   -3907.5424            0    7612.4411    17.019051    20.046194    20.763203     7083.724    7980.1586    6303.0338     8554.131    717.00407    1825.7823    35.883102   -2679.6008 
16070000    251.95652   -3843.3703   -3411.5254   -3843.3703            0    8497.9365    16.975209    19.994554    20.709716    7029.1207    11267.961    6933.4446    7292.4037    1464.7001   -478.89877     510.6075   -2540.3806 
16071000    267.19301   -3892.4713   -3434.5116   -3892.4713            0     7871.787    16.932077     19.94375    20.657094    6975.6757     8956.014     7059.123    7600.2239    1860.2859   -353.35722    -1252.358   -2633.6905 
16072000    281.02632     -3853.91   -3372.2405     -3853.91            0    6175.1623    17.082293    20.120685    20.840357    7162.9856     5071.428    5051.7806    8402.2784   -58.584325    895.47993   -228.87478   -2727.1534 
16073000    251.48203   -3862.3185   -3431.2869   -3862.3185            0    10847.816    16.962627    19.979734    20.694366    7013.5023    10117.801    11341.955    11083.693   -491.02936   -1655.7855    1605.2202   -2321.7208 
16074000    261.32298   -3863.3419   -3415.4432   -3863.3419            0    7216.9543    17.058438    20.092587    20.811255    7133.0191    7480.5716    5770.7546    8399.5365    187.12821   -1119.8618   -1611.0746   -2664.6796 
16075000    257.39364   -3858.1334   -3416.9695   -3858.1334            0    8007.5668    17.043807    20.075354    20.793405    7114.6812    8613.4311    8365.1468    7044.1225   -183.93693    -137.0954    1458.2013   -2586.1018 
16076000    248.37236   -3858.0903   -3432.3886   -3858.0903            0    7128.0088    17.097007    20.138015    20.858308    7181.5109    7291.5672     7838.819    6253.6403   -5.2385655   -918.22191   -240.13659   -2685.8368 
16077000    246.52806    -3870.976   -3448.4354    -3870.976            0    10172.103    16.959694    19.976279    20.690787    7009.8641    11572.667    8242.2789    10701.361    2205.8179    1334.3226    1588.8797   -2408.5243 
16078000    276.74642   -3862.2349    -3387.901   -3862.2349            0      8908.35    16.970412    19.988904    20.703864    7023.1636    7895.8615    10172.702    8656.4865    840.76652   -939.96031    275.99679   -2475.4576 
16079000    256.98685   -3856.5455   -3416.0788   -3856.5455            0    7738.6384    16.979699    19.999842    20.715193     7034.699    7947.8912    7678.0292     7589.995    1016.8398   -1295.6213   -1334.8872    -2622.142 
16080000    269.60874   -3831.5289   -3369.4287   -3831.5289            0    7676.6996    17.010378    20.035978    20.752621    7072.8988    7020.4462    7872.8408    8136.8118   -202.56485    1273.3788    1220.0327   -2577.5697 
16081000    249.11807   -3838.9377   -3411.9579   -3838.9377            0    8907.5955    17.010976    20.036683    20.753351    7073.6453    6939.0558    9277.5957    10506.135   -158.23326    -119.5549   -876.90385   -2493.0337 
16082000    256.95955   -3876.3696   -3435.9497   -3876.3696            0    9829.2227    16.946099    19.960266    20.674201    6993.0201    8726.6295    10680.644    10080.395    315.48952   -375.91356    1675.9854   -2433.5063 
16083000    248.53744   -3855.8948   -3429.9102   -3855.8948            0    8201.3246    16.964412    19.981837    20.696543    7015.7165    9625.0108    8123.6987    6855.2642    -691.0385   -613.77421   -551.91852    -2590.775 
16084000    267.53898   -3828.5905   -3370.0378   -3828.5905            0    7428.9567     17.04074    20.071741    20.789663    7110.8404    8680.4033    5666.2154    7940.2515   -136.01628     720.1792   -754.76964    -2599.623 
16085000    267.15933   -3866.6633   -3408.7614   -3866.6633            0    7524.9135    17.007475    20.032559    20.749079    7069.2783    7960.0917    7308.9906    7305.6581   -45.462491    2474.0491   -884.09467   -2632.9566 
16086000    259.20732   -3872.3858   -3428.1133   -3872.3858            0    5590.3432    17.083231     20.12179    20.841502    7164.1661    6438.1993    4613.1626    5719.6677    -1045.925     204.1468    824.29862    -2844.023 
16087000    271.18659   -3899.3834   -3434.5789   -3899.3834            0    9104.3348    16.964056    19.981417    20.696108    7015.2743    10289.699    8859.4121    8163.8934   -413.54754   -539.28581   -492.47484   -2503.1091 
16088000    265.99129   -3865.6052   -3409.7052   -3865.6052            0    6942.4465    17.064612    20.099859    20.818787     7140.767    7777.9458    6655.0999    6394.2937   -398.67367   -330.28119   -232.48823   -2686.7136 
16089000    258.71796   -3887.1264   -3443.6926   -3887.1264            0    9496.9777    16.964338     19.98175    20.696453    7015.6252    9833.0535    9702.0716    8955.8079   -1056.4338   -31.486841   -404.44183   -2472.0028 
16090000     265.4865   -3867.3614   -3412.3266   -3867.3614            0    8684.5118    16.971308    19.989959    20.704956    7024.2753     7925.367    9085.1553    9043.0131   -1661.3318    137.85247   -1735.0602   -2522.6692 
16091000    247.67024   -3861.2806   -3436.7823   -3861.2806            0    7014.0541    17.049234    20.081746    20.800026    7121.4791    6975.9887    7499.4601    6566.7135   -659.06813   -786.85799   -645.19547   -2708.3064 
16092000    260.02231   -3821.1768   -3375.5075   -3821.1768            0    8983.7401    16.978042    19.997891    20.713172    7032.6403    12048.954    7214.4472    7687.8197   -400.89642    563.28178    1941.8579   -2454.1006 
16093000    252.34341   -3854.1401   -3421.6321   -3854.1401            0    8142.7402    17.085044    20.123926    20.843714    7166.4475    7938.6709    7702.2669    8787.2829   -1043.2571    105.21352    679.81737   -2570.5913 
16094000    260.38454   -3866.1185   -3419.8283   -3866.1185            0    8341.1159    17.009077    20.034445    20.751034    7071.2761     9590.733     7489.126    7943.4886   -76.331891    461.56308   -437.45173   -2559.6315 
16095000    245.90941   -3859.1018   -3437.6215   -3859.1018            0    8200.1098    17.046317     20.07831    20.796467    7117.8247    8437.9009    8330.4184      7832.01    1408.5904    240.02081   -269.96859   -2586.3995 
16096000    267.62046   -3853.3459   -3394.6535   -3853.3459            0    7877.7963    17.051527    20.084447    20.802823    7124.3529    5867.7547    9060.9987    8704.6355    418.18817   -232.48118    2593.1501   -2576.1396 
16097000    267.47363   -3875.9605   -3417.5198   -3875.9605            0    6315.1394    17.089105    20.128708    20.848668    7171.5579    8506.1328    5892.8624    4546.4229    2528.9787   -103.69781       1210.6   -2757.0206 
16098000    249.24619   -3879.1221   -3451.9227   -3879.1221            0    10795.946    16.932366    19.944091    20.657447    6976.0333    11139.354    11469.562    9778.9232    1156.4855   -349.27074   -2096.1317   -2353.5615 
16099000    259.51805   -3864.2212   -3419.4162   -3864.2212            0    8955.8292     16.95336    19.968819     20.68306    7002.0141    8252.3789    8848.6037    9766.5051   -403.14851    1007.8242   -316.59073    -2504.872 
16100000    256.51856   -3909.5087   -3469.8447   -3909.5087            0    9548.0047    16.944925    19.958883    20.672769    6991.5672    10975.939    8868.6119     8799.463   0.86167831    75.458791     853.4239    -2496.284 
16101000    249.58938   -3902.1248   -3474.3371   -3902.1248            0    10172.607    16.970809    19.989372    20.704348    7023.6563    10436.255     9617.365    10464.201    2478.8884    1342.3046    682.86553   -2432.3283 
16102000    270.23888   -3892.4167   -3429.2365   -3892.4167            0    6927.4337    17.046106    20.078061    20.796209    7117.5596    7464.9227    7559.5038    5757.8747   -855.75258   -347.59877    653.82631   -2710.1529 
16103000    251.63598   -3835.3532   -3404.0577   -3835.3532            0    8072.1415    16.998194    20.021627    20.737757    7057.7116    8161.5056    9025.2289    7029.6899    694.11208   -1657.6859   -556.92805   -2573.1964 
16104000    262.12431   -3844.2321     -3394.96   -3844.2321            0    8458.9345    16.964725    19.982205    20.696925    7016.1046    9115.2538    8999.2056     7262.344    747.02359   -2664.4514    198.40704    -2529.419 
16105000    273.97249   -3845.7195     -3376.14   -3845.7195            0    9093.7752    16.986515    20.007871    20.723508    7043.1741    7617.8018    9766.0711    9897.4527   -299.96273    402.26789   -638.14848   -2442.0504 
16106000    248.35888   -3876.3897   -3450.7111   -3876.3897            0    9139.6126    17.003981    20.028443    20.744817    7064.9225    6536.0481    11425.379    9457.4106    352.85319   -376.91708   -1190.3442   -2509.0143 
16107000    246.84671   -3870.6005   -3447.5137   -3870.6005            0    6213.7271    17.042946     20.07434    20.792355     7113.603    3169.9373    8414.0856    7057.1586   -1772.3665    314.57294     1656.226    -2802.873 
16108000    261.95689   -3880.3088   -3431.3236   -3880.3088            0    7732.7428    17.030893    20.060143     20.77765    7098.5211    7893.0784    6284.6798    9020.4703   -481.78176    257.55785   -1016.3611   -2630.7941 
16109000    264.02807   -3874.4273   -3421.8922   -3874.4273            0    5703.7151    17.092312    20.132486    20.852581    7175.5971    5827.1305    6918.3958     4365.619   -769.13808    649.34777   -708.94723   -2825.0057 
16110000      264.036   -3877.7135   -3425.1648   -3877.7135            0    7209.8934    17.007575    20.032677    20.749202    7069.4041    7092.7453     8423.704     6113.231    320.74053   -14.243997   -1532.3215   -2681.8247 
16111000    254.82348   -3859.7522   -3422.9935   -3859.7522            0    8698.8432    17.033904    20.063689    20.781323    7102.2861    8707.4317    7428.0099     9961.088   -2448.4155    861.26025    168.99563   -2521.9712 
16112000    257.94487   -3873.6442   -3431.5355   -3873.6442            0    10467.612     16.97742    19.997158    20.712413    7031.8673    11157.805    11397.443    8847.5888    668.57397    704.05249   -2045.5902   -2358.0549 
16113000     261.7361   -3916.8105   -3468.2038   -3916.8105            0    7332.1018     17.06443    20.099645    20.818565    7140.5387    7189.2559    8043.6805    6763.3691   -1118.6998   -863.92668    710.31861   -2704.6575 
16114000    282.57891   -3879.6491   -3395.3185   -3879.6491            0    7875.6821    17.040688    20.071679    20.789599    7110.7752    8566.4673    8222.1241    6838.4549    15.271173    1595.7905   -540.21609   -2578.5838 
16115000    260.39345   -3843.6932   -3397.3877   -3843.6932            0    8131.0616    17.029956    20.059039    20.776506     7097.349    8502.6839    5681.2549    10209.246   -722.63054    831.56658   -1897.3861   -2555.7614 
16116000    264.92419    -3908.972    -3454.901    -3908.972            0     7239.087    17.031778    20.061185     20.77873    7099.6279    7948.8261    5374.3183    8394.1167   -1490.9763   -1576.7708    1904.0967   -2705.3602 
16117000    248.17287    -3881.175   -3455.8151    -3881.175            0    7882.7614    17.008897    20.034234    20.750814     7071.052    9346.0633    7072.6187    7229.6023   -564.07219   -246.76093     1733.667   -2642.9129 
16118000    267.97871   -3903.9227   -3444.6164   -3903.9227            0    5993.9001    17.005411    20.030128    20.746561    7066.7052     6687.944    4847.0934    6446.6628    414.07233   -217.53592    440.02223   -2826.8812 
16119000    258.05104   -3851.8544   -3409.5637   -3851.8544            0    8056.4532    17.044355    20.075998    20.794073    7115.3666    8490.8234    6985.8567    8692.6796    260.64182    44.295747   -22.814337    -2573.543 
16120000    256.44825   -3865.9912   -3426.4476   -3865.9912            0    6187.4945    17.036519    20.066769    20.784513    7105.5578     4110.968    7059.3731    7392.1423   -228.87146    491.23439   -1026.3323   -2785.2545 
16121000    263.11954   -3875.9605   -3424.9826   -3875.9605            0    10373.937    16.937717    19.950393    20.663975    6982.6488    9608.0705    10573.939    10939.801    73.600724   -1580.6207    542.25804   -2368.5551 
16122000    270.90688    -3859.073   -3394.7479    -3859.073            0    6337.4623    16.979248    19.999311    20.714643    7034.1386    7174.1511    4308.4344    7529.8014    2085.7273   -1377.2118   -345.49654   -2744.6149 
16123000    254.80579   -3912.1946   -3475.4662   -3912.1946            0    7117.6361     17.03845    20.069043    20.786869    7107.9736    6928.2307    8731.3802    5693.2976   -12.461837    8.0303257    494.29296   -2737.6342 
16124000    260.48272   -3866.0723   -3419.6138   -3866.0723            0    7205.3844    16.982209    20.002799    20.718256    7037.8201    6118.8543    7956.5487    7540.7501   -1011.7985    -284.1756   -1038.1097   -2680.0576 
16125000    281.57517   -3881.1575   -3398.5473   -3881.1575            0    7390.6222    17.020924      20.0484    20.765488    7086.0629    6299.2829     8604.957    7267.6266   -884.52262    1315.4091    -1100.332   -2634.7785 
16126000    268.77683   -3901.0891   -3440.4148   -3901.0891            0    8013.3276    16.977732    19.997525    20.712793    7032.2547    9434.1376    6295.5502    8310.2948    1206.1791    2576.9018    806.36574   -2618.5822 
16127000    264.44882   -3869.7179   -3416.4616   -3869.7179            0     11031.68    16.951406    19.966518    20.680676    6999.5932     9805.517    13397.548    9891.9749   -902.40084    3630.5786   -245.37708   -2290.3269 
16128000    266.50232   -3876.7905   -3420.0147   -3876.7905            0    8943.3982    16.994639     20.01744     20.73342    7053.2853    9654.9751    8317.8108    8857.4088    692.93492    123.38352    164.39122   -2500.0526 
16129000    274.09526   -3878.9277   -3409.1378   -3878.9277            0    8015.6643    17.017148    20.043952    20.760881    7081.3474    8244.8902    8261.2733    7540.8293    373.91169    1464.0454   -1618.3463   -2581.3266 
16130000    256.61705   -3874.9962   -3435.1634   -3874.9962            0    8847.3615    16.957282    19.973438    20.687844    7006.8742    9786.9355    6390.7422    10364.407   -50.669322    -942.4507    712.38409   -2531.0686 
16131000    253.59755    -3895.461   -3460.8035    -3895.461            0    8682.9246    16.941201    19.954497    20.668226    6986.9586    10643.392    7675.1826    7730.1989    752.68817   -58.012308   -2321.2357   -2576.0341 
16132000    263.08404   -3849.1594   -3398.2423   -3849.1594            0    7580.9047     17.04264    20.073978    20.791981    7113.2189    6614.4697    8807.1283    7321.1163    852.57135    683.53828   -1585.6901   -2611.8069 
16133000    254.06152   -3901.4601   -3466.0073   -3901.4601            0    6211.9806    17.034613    20.064524    20.782188    7103.1728    6663.6534    7075.9566    4896.3317   -1249.1553   -491.21205    464.21124   -2822.4928 
16134000    253.47052   -3922.0401   -3487.6003   -3922.0401            0    6584.6763    17.094018    20.134496    20.854662    7177.7459    7072.9996    6752.8497    5928.1796   -1309.9579   -428.48526    -280.4163    -2798.316 
16135000     241.9753   -3895.9336   -3481.1962   -3895.9336            0    8077.3561    16.970544    19.989059    20.704024    7023.3265    8263.7243    9385.9299    6582.4141    280.46121    1211.2915   -369.53187   -2653.8487 
16136000    264.36349   -3880.5263   -3427.4164   -3880.5263            0    6945.4925    16.996057    20.019111     20.73515     7055.051    5370.3937      7474.23    7991.8537   -299.06294    135.17411   -288.70484   -2712.7899 
16137000     260.4302   -3891.4057   -3445.0372   -3891.4057            0    7373.2271     16.98659     20.00796    20.723601    7043.2682    5828.5179    9562.5112    6728.6522    6.7575863    404.70028   -2056.1515   -2687.6679 
16138000      265.178   -3865.3736   -3410.8676   -3865.3736            0    10080.074    16.965999    19.983705    20.698479    7017.6849    10550.294    10849.003    8840.9234    1870.3267    629.77377   -836.85645    -2379.215 
16139000     237.5844   -3885.8761   -3478.6645   -3885.8761            0    7583.6055    17.000186    20.023973    20.740187    7060.1931    7789.6401    8636.8608    6324.3157     2792.837   -165.05862   -627.40652   -2697.8135 
16140000    261.65439    -3856.708   -3408.2413    -3856.708            0    8477.0277    17.014618    20.040973    20.757794    7078.1897    6671.1213    10032.981     8726.981    314.71931   -1500.3225     97.61266   -2533.1735 
16141000    249.76724   -3875.9746   -3447.8821   -3875.9746            0    7804.2316    17.017262    20.044087     20.76102    7081.4902    8052.8886    7353.1236    8006.6825   -653.61459   -947.37383    534.16473   -2641.8901 
16142000    254.74392   -3888.4571   -3451.8347   -3888.4571            0    8067.4122     17.02237    20.050104    20.767252    7087.8693    7792.7291    8185.3388    8224.1686   -238.39727    1028.7389    1683.1321    -2617.912 
16143000    254.37753   -3868.4272   -3432.4328   -3868.4272            0    7219.4644    17.029402    20.058386     20.77583    7096.6559    7733.2905    7278.8595    6646.2433    1002.9197    494.45443    -1713.646   -2685.2367 
16144000    253.02697   -3875.5002   -3441.8207   -3875.5002            0    5671.8299    17.048104    20.080415    20.798647    7120.0631    6489.5776     5111.235     5414.677   -361.38932    83.463331   -428.92235   -2852.8645 
16145000    268.80637   -3844.7447   -3384.0198   -3844.7447            0    7155.5836    17.070102    20.106325    20.825484    7147.6602    8292.9354    6411.3643     6762.451    1925.4779   -43.340933    883.42453   -2638.1125 
16146000    258.62943   -3871.9494   -3428.6674   -3871.9494            0    6698.7382    17.065591    20.101012    20.819982    7141.9961    7797.8897    6244.2895    6054.0353     490.2866   -803.93714   -1346.3225   -2730.9356 
16147000    257.29906   -3859.1339   -3418.1321   -3859.1339            0    8201.1019    17.010637    20.036284    20.752938    7073.2228    7330.6314    8626.0956    8646.5788   -340.16486    1352.4968     600.0836   -2572.1417 
16148000    261.06998   -3884.9937   -3437.5286   -3884.9937            0    9928.9483    16.953581    19.969079     20.68333    7002.2877    10810.149    9584.3725    9392.3237    537.72336    80.861499    156.09561   -2423.5727 
16149000    279.76075   -3847.6852   -3368.1849   -3847.6852            0    8083.7962      17.0004    20.024225    20.740448    7060.4598     7283.997    8638.9621    8328.4295    122.89408   -563.39669    557.24167   -2535.7999 
16150000    270.67704   -3875.4198   -3411.4886   -3875.4198            0    6481.8118    17.010718    20.036379    20.753036    7073.3236     7821.832    7209.8114    4413.7921     807.8608    700.30447    1279.4789   -2742.8432 
16151000    263.49433   -3834.9436   -3383.3233   -3834.9436            0    8014.8813    17.034002    20.063804    20.781443     7102.409    6897.2406    9389.7937    7757.6096    208.53408    976.07415    149.85705   -2553.1311 
16152000    239.13391   -3887.2902   -3477.4229   -3887.2902            0    5832.5877    17.058222    20.092332    20.810991    7132.7476    5639.1447     3885.518    7973.1004    439.15139    -1266.455    651.24887   -2870.6949 
16153000    277.03221   -3885.2956   -3410.4719   -3885.2956            0     8360.823    16.985296    20.006435    20.722021    7041.6582    7214.6272    9800.9394    8066.9025   -32.024699    137.23329    269.18274   -2551.8542 
16154000    248.84363   -3868.6084   -3442.0989   -3868.6084            0    6878.4115    17.062543    20.097422    20.816263    7138.1696    4568.5878    8694.3899    7372.2568    572.08712   -678.35882    701.61814   -2726.0364 
16155000    261.33049   -3876.6802   -3428.7687   -3876.6802            0    8065.7294    16.997474    20.020779    20.736879    7056.8154    7004.7097    9844.3448    7348.1336    1763.4075   -976.95016    496.88746   -2598.6727 
16156000    252.54939   -3870.0345   -3437.1735   -3870.0345            0    8767.5909    16.972183     19.99099    20.706024    7025.3624    11262.243    6932.7506    8107.7792    1367.7145    182.99368    872.36435   -2538.8663 
16157000    254.50555   -3894.4906   -3458.2768   -3894.4906            0    8085.0448    17.100829    20.142518    20.862971    7186.3286    9853.1849    6449.8193    7952.1301    333.46155     600.5447    -181.9253   -2610.9218 
16158000     266.7895   -3901.8803   -3444.6122   -3901.8803            0    7666.1091    16.996281    20.019374    20.735423     7055.329    7279.1304    6962.7456    8756.4514   -365.04656    903.22032   -1719.3011     -2655.81 
16159000    262.56131   -3883.2895   -3433.2684   -3883.2895            0    7600.4644    16.998711    20.022237    20.738388    7058.3566    6513.6246    7485.8074    8801.9612    886.01345   -1367.3766    522.02253    -2650.885 
16160000    272.98804   -3839.3678   -3371.4757   -3839.3678            0     9657.063    16.916412    19.925299    20.637983    6956.3327    8353.7836     9493.702    11123.704    1636.2351    1283.5519    1725.0924   -2391.7572 
16161000     250.2836   -3885.8057   -3456.8282   -3885.8057            0     7239.497    16.969771    19.988148    20.703081    7022.3668    5633.1493    9151.4374    6933.9042    616.37588    104.76901   -63.453484   -2715.4022 
16162000    265.47324   -3893.8626   -3438.8506   -3893.8626            0    6811.2635    17.059647    20.094011     20.81273    7134.5359    6474.7602    7218.9155    6740.1148   -1422.5054    296.34568    585.68907   -2730.1394 
16163000    268.24184   -3904.6235   -3444.8661   -3904.6235            0    7364.0474    17.001779     20.02585    20.742131    7062.1787    7574.3865    7920.5564    6597.1993   -1248.0265    1368.9811   -889.39852   -2686.4088 
16164000    261.00467   -3896.1202   -3448.7671   -3896.1202            0    8169.6868    16.965986    19.983691    20.698464    7017.6697    7797.7689    7401.2031    9310.0884    1067.1701   -1041.9479    -804.4311   -2612.6363 
16165000    272.09934   -3929.6054   -3463.2364   -3929.6054            0    8713.6086    16.999891    20.023627    20.739828    7059.8266     6970.511    8791.8395    10378.475    85.693407   -2689.3075    583.40572   -2566.0804 
16166000    265.73943    -3898.472   -3443.0038    -3898.472            0    7546.0838    16.999539    20.023212    20.739398    7059.3878    7553.4963    7171.4485    7913.3065    1551.7852    1093.3144    673.61627   -2666.1048 
16167000    250.12381   -3905.4538   -3476.7502   -3905.4538            0    8246.4858    16.923121    19.933201    20.646168    6964.6128    7580.7204    8652.9445    8505.7924     495.6193    1352.1655   -574.17514   -2639.1403 
16168000    274.08524   -3883.0922   -3413.3194   -3883.0922            0    8147.2659    17.014307    20.040606    20.757414    7077.8012    6168.4965    9183.3338    9089.9675   -530.95004    357.61094    324.57988   -2572.3385 
16169000    273.50967    -3880.044   -3411.2577    -3880.044            0    6649.3767    17.015842    20.042415    20.759288    7079.7177     5022.534    7365.0027    7560.5934   -1556.1891   -1172.2337    1065.5262   -2724.7068 
16170000    276.57529    -3889.281   -3415.2404    -3889.281            0    9084.9442    17.024586    20.052714    20.769955    7090.6374    10854.244    7057.2453     9343.343    1506.8318   -352.88766    1187.9331   -2475.7693 
16171000    258.09496   -3866.4974   -3424.1315   -3866.4974            0    7482.7745    16.998069     20.02148    20.737605    7057.5565    6686.0428    8615.6105    7146.6702   -40.771618   -133.12132    1194.1885   -2653.9503 
16172000    254.03608   -3885.0501   -3449.6409   -3885.0501            0    7011.5567    16.976622    19.996219     20.71144    7030.8762     6508.979     7090.623     7435.068    1083.9034   -863.22586    1925.5211   -2730.6891 
16173000    253.16627   -3896.2532   -3462.3349   -3896.2532            0    8228.9092    16.994918    20.017769     20.73376    7053.6322    9252.4685    7598.7983    7835.4609    224.01161    382.92897    359.04094   -2615.8271 
16174000     261.4704   -3891.2649   -3443.1136   -3891.2649            0     7762.659    17.016733    20.043464    20.760375    7080.8297    6976.9831    9381.5382    6929.4558    1321.5489    405.32781    935.44834   -2641.4899 
16175000     264.5324   -3887.3949   -3433.9954   -3887.3949            0    9533.8295    16.989868     20.01182    20.727599    7047.3459    9248.0637    8613.0384    10740.386    518.48641    306.61123    6.9963679   -2454.1245 
16176000    253.34765   -3910.3657   -3476.1365   -3910.3657            0    6630.9263     17.05697    20.090858    20.809464    7131.1778    7954.9452    7203.6708    4734.1629    486.87545   -351.21908    499.49347   -2786.5141 
16177000    278.58626   -3902.2999   -3424.8126   -3902.2999            0    7384.6074    17.024489    20.052599    20.769837    7090.5159     8045.603    7402.6805    6705.5388    1442.1847   -437.67759   -248.41152   -2661.1858 
16178000    254.73812   -3845.3773   -3408.7648   -3845.3773            0    10747.328    16.988316    20.009992    20.725705    7045.4144    11387.273    11156.279    9698.4328    571.05671   -651.77764    122.90991   -2304.4753 
16179000    270.16465    -3898.448    -3435.395    -3898.448            0    7465.0736    16.953385    19.968849    20.683091    7002.0449    6481.6358    11069.371    4844.2135    935.16519   -1654.3678     16.88226   -2673.0793 
16180000    244.76311   -3881.8067   -3462.2911   -3881.8067            0     7234.851    17.065199     20.10055    20.819503    7141.5035    7711.4632    7787.5141    6205.5759    1313.4263   -1511.9598    1155.1412   -2708.7705 
16181000    258.46322   -3836.9793   -3393.9822   -3836.9793            0    9447.4525     16.94367    19.957405    20.671238    6990.0138        10050    8810.8386    9481.5189    1573.7261    15.986174    678.83974   -2430.8883 
16182000    274.38556   -3838.8869   -3368.5995   -3838.8869            0    7235.8099    16.937817    19.950511    20.664097    6982.7725    7104.2503     8239.111    6364.0684    982.82707    1035.2706    1126.6077   -2631.7294 
16183000    258.18068   -3871.6584   -3429.1456   -3871.6584            0    7803.6254    16.961753    19.978704    20.693299    7012.4176    6912.5213    7757.2021    8741.1528    1137.5363    683.76612   -777.24059   -2631.0773 
16184000    255.58031   -3878.9699    -3440.914   -3878.9699            0    7763.0186    16.991427    20.013657    20.729501    7049.2866    6465.7851    8862.0104    7961.2604    675.60761   -575.97028    -701.3424   -2642.8243 
16185000    264.26057   -3842.0944   -3389.1609   -3842.0944            0    6425.8175    17.062837    20.097768    20.816621     7138.538    6285.0206    7234.2869    5758.1451   -501.02218   -1038.1296   -180.67601   -2720.1802 
16186000    259.76755    -3842.976   -3397.7433    -3842.976            0    7282.7292    16.977363    19.997091    20.712343    7031.7961    7448.2017    7259.4414    7140.5446     1372.601   -1252.8958    44.324917   -2650.8883 
16187000    256.32148   -3880.4553    -3441.129   -3880.4553            0    8292.3689    16.975547    19.994953    20.710128    7029.5409    9257.2691    7657.4428    7962.3947   -51.741015    1206.6481   -1073.7596   -2591.0066 
16188000    277.20051   -3865.8546   -3390.7424   -3865.8546            0    8722.4031    16.925251     19.93571    20.648767    6967.2427    10311.287    9101.4023    6754.5198      2276.79    283.31661    512.12388   -2504.4582 
16189000    249.92547   -3886.9183   -3458.5546   -3886.9183            0    5951.4922    17.024076    20.052113    20.769333    7089.9997    6634.4513     7459.466    3760.5592    243.26013    787.92338    511.32893   -2843.1681 
16190000    275.87163   -3850.2732   -3377.4387   -3850.2732            0    8408.1126    17.012167    20.038086    20.754804    7075.1313    9714.3124    6884.7096    8625.3159    1091.8787   -1183.8826     1322.502   -2509.8599 
16191000     258.7118    -3861.092   -3417.6689    -3861.092            0    6942.0694    17.063469    20.098513    20.817392    7139.3321    6567.2386    6427.6223    7831.3472    1514.8579    16.043535    731.28838   -2694.8618 
16192000    272.07011   -3864.0818    -3397.763   -3864.0818            0     7983.649    16.928753    19.939835    20.653039    6971.5688    7323.6249     8713.465    7913.8571    554.07789    12.017681    -213.6598     -2586.04 
16193000    263.28922   -3866.4936   -3415.2248   -3866.4936            0    8809.8747    16.989843    20.011791    20.727569    7047.3149    10257.799    9353.6378    6818.1873   -1640.9957    1336.8276   -1830.3775   -2509.7648 
16194000    254.86851    -3865.501   -3428.6651    -3865.501            0    8851.9119    16.979023    19.999047    20.714369    7033.8596    8452.9228     8734.156    9368.6568     183.4947   -612.70808   -798.57629   -2520.6216 
16195000    264.22359   -3889.4001   -3436.5299   -3889.4001            0    6298.8084    17.034792    20.064734    20.782406    7103.3966    5709.6001    7509.4575    5677.3674    -474.1685    300.38007    140.19941   -2784.0001 
16196000    263.02959    -3892.195   -3441.3713    -3892.195            0    7133.9449    17.057647    20.091655    20.810289    7132.0264    7482.8461     5618.157    8300.8316   -783.35681    727.85322   -1606.1501   -2699.3462 
16197000    253.42773   -3834.1991   -3399.8327   -3834.1991            0    7614.7874    16.962312    19.979363    20.693981    7013.1118    5787.1821    8420.8802    8636.2999   -809.51788    319.46925   -516.59247   -2620.9995 
16198000    273.71575    -3874.925   -3405.7855    -3874.925            0    8919.0329    17.037552    20.067986    20.785774    7106.8504    8372.8148    8984.5912    9399.6927    113.11035    -519.9291    706.77037   -2481.3624 
16199000    270.64808   -3861.8049   -3397.9233   -3861.8049            0    8416.0889    17.055397    20.089005    20.807545    7129.2051     6950.208    10142.272    8155.7866    337.88229   -1892.5439    559.53312   -2522.8845 
16200000     264.6485     -3871.18   -3417.5816     -3871.18            0    8365.1738    16.974883    19.994171    20.709318     7028.716    8689.2878    8157.3616    8248.8722     -312.392   -242.57236   -330.34424   -2560.0959 
16201000    253.83663   -3859.6757   -3424.6084   -3859.6757            0    5715.9804     17.00759    20.032694     20.74922    7069.4217    5858.0336    4612.6561    6677.2516    104.83035    44.653069    210.26606   -2835.2893 
16202000    273.51673    -3893.924   -3425.1257    -3893.924            0    7742.2648    17.028763    20.057633    20.775051    7095.8575    6257.2396    9468.5987    7500.9561    679.93127     598.4038    2310.4781   -2623.9112 
16203000    251.64769    -3891.942   -3460.6265    -3891.942            0    7830.8356    16.966249       19.984    20.698784    7017.9953    7660.8619    8449.7154    7381.9294   -218.95706    899.62854   -1118.3362   -2659.1384 
16204000    257.56041   -3899.5719   -3458.1222   -3899.5719            0    7318.3819    17.022101    20.049787    20.766924    7087.5332    6115.7658    7811.0104    8028.3694   -991.80555    723.01143    967.13105    -2701.662 
16205000    248.79273    -3899.148   -3472.7258    -3899.148            0    7524.3125    17.004603    20.029176    20.745576    7065.6981    7299.3729    7005.4742    8268.0904    440.41851    1110.9528    547.59499   -2697.3758 
16206000    252.10061   -3891.3745   -3459.2826   -3891.3745            0    7650.4659     17.00572    20.030492    20.746939    7067.0912    7671.0147    7805.0159    7475.3671   -201.34174    728.56124    873.84025   -2670.7776 
16207000    263.74885   -3876.2409   -3424.1844   -3876.2409            0    9560.9615    16.967252    19.985182    20.700008     7019.241    10286.064    8513.5708    9883.2495   -392.51425    1692.7147   -824.56433   -2445.4438 
16208000    260.02639   -3862.9204   -3417.2441   -3862.9204            0    8082.2222    17.039477    20.070253    20.788122    7109.2593    7360.8364    7693.1294    9192.7007   -239.59984   -963.46613    879.61071   -2579.2692 
16209000    262.88217   -3867.3025   -3416.7314   -3867.3025            0    7120.0622    17.055005    20.088543    20.807067    7128.7135    7442.6273    6761.9456    7155.6137    760.90285    1111.7246   -25.376571   -2676.4943 
16210000    259.48884   -3813.2777   -3368.5227   -3813.2777            0    7031.6663    17.005736    20.030511    20.746958    7067.1106    7617.2482    4939.7466    8538.0042    1538.4335    302.14123     244.9705   -2643.7931 
16211000    262.21118   -3860.8793   -3411.4583   -3860.8793            0    10172.968    16.908015    19.915408    20.627739    6945.9787    11061.481    9427.0467    10030.377   -219.10339    791.24364    26.442113   -2380.9369 
16212000    266.43641   -3893.1382   -3436.4753   -3893.1382            0    7652.9988    16.990643    20.012733    20.728544    7048.3102    6820.4321    8528.9694     7609.595   -964.58536    569.92991    302.36678   -2649.8054 
16213000    268.19119   -3863.9589   -3404.2883   -3863.9589            0    7355.0774    16.998411    20.021882    20.738021    7057.9819    5691.5513    8158.1646    8215.5164   -1145.0679     -18.0144   -1034.9753    -2647.205 
16214000    261.31145   -3898.0035   -3450.1246   -3898.0035            0    10570.326    16.958423    19.974782    20.689237    7008.2888    11148.499    10787.159    9775.3189   -405.62204    338.37369    422.57515   -2369.7454 
16215000    249.56862   -3944.3948   -3516.6427   -3944.3948            0    8780.0918    17.017411    20.044262    20.761201    7081.6755    7791.3347    9877.5746    8671.3661    908.33982    853.58983   -457.86832   -2609.8439 
16216000    254.28417   -3898.9321   -3463.0977   -3898.9321            0    7525.7469    16.986302     20.00762    20.723248    7042.9092    4908.2651    8600.9844    9067.9911   -421.45851   -678.21372   -2574.4773   -2690.1011 
16217000    248.48547   -3911.8915   -3485.9959   -3911.8915            0    7416.1058    17.071187    20.107603    20.826808    7149.0234    8626.1611    7174.1621    6447.9943    352.40837    704.88291   -1844.1821    -2712.784 
16218000    252.01227    -3865.579   -3433.6385    -3865.579            0     7134.621    17.016083    20.042698    20.759581    7080.0176    7334.3085    7366.4632    6703.0915    -1097.591   -839.12832    273.00651   -2696.9547 
16219000    245.19419   -3837.9161   -3417.6617   -3837.9161            0    6724.7085    17.038284    20.068848    20.786667     7107.767    5815.4989    7603.6865    6754.9401    1245.7409   -18.169772    -296.6923   -2720.5818 
16220000    254.58394   -3886.6329   -3450.2847   -3886.6329            0    9371.6644    16.884398     19.88759    20.598926     6916.913    9599.0225    8673.1949    9842.7759    501.45644   -1047.8457    -1001.353   -2504.9079 
16221000    260.34425   -3882.6792    -3436.458   -3882.6792            0    9323.1884    16.952911     19.96829    20.682512    7001.4574    11146.621    7718.9739    9103.9706   -386.36502   -1451.3246    150.81154   -2484.4759 
16222000    247.16648   -3871.9444   -3448.3095   -3871.9444            0    5143.1927    16.991572    20.013828    20.729678    7049.4671    5676.4765    4673.4064    5079.6951    626.29955    816.16134   -494.57437   -2919.5417 
16223000    256.97943   -3865.5622   -3425.1083   -3865.5622            0    7716.4019    16.967646    19.985645    20.700488     7019.729    7050.4208    9219.6886    6879.0964   -1629.6341    670.30583   -740.49231   -2635.1374 
16224000    256.33589   -3870.7087   -3431.3577   -3870.7087            0    8194.5778    16.945585     19.95966    20.673574    6992.3838    9266.0702    7963.7609    7353.9022    -604.5406   -1113.1495   -1523.3644   -2595.7014 
16225000    248.46709   -3876.5203   -3450.6562   -3876.5203            0     8677.009     16.90817    19.915591    20.627928    6946.1698    7523.5334      9518.92    8988.5737   -1030.6651    804.20386     415.7211   -2571.6513 
16226000     263.0017   -3879.2029   -3428.4269   -3879.2029            0    7953.7847    16.990301     20.01233    20.728127    7047.8845    7548.0756    7968.2776    8345.0008    1480.7063    227.46596   -721.89775   -2610.8879 
16227000    275.45306   -3845.0851   -3372.9679   -3845.0851            0    9429.5902    17.002234    20.026386    20.742686    7062.7458    9691.2939    7608.3357    10989.141   -1742.7724    1390.5376   -205.74343   -2401.6928 
16228000     267.7499   -3866.6868   -3407.7727   -3866.6868            0     7494.104    17.027409    20.056039    20.773399    7094.1653    7553.7839    8219.1531    6709.3751   -423.16646    756.68495    1247.5625   -2632.4242 
16229000    257.97929   -3868.9722   -3426.8046   -3868.9722            0    8361.8281    16.996854    20.020049    20.736123    7056.0434    7959.4174    7434.0189     9692.048   -1503.7836    1303.2878    88.917679   -2566.3293 
16230000    258.55582    -3851.406   -3408.2501    -3851.406            0    6138.5957     17.05432    20.087736    20.806231    7127.8543    6263.9409    6055.1484    6096.6977    29.759199    1291.7708    608.87006   -2770.1281 
16231000    266.15308    -3860.845   -3404.6678    -3860.845            0    7888.7768    17.029627    20.058651    20.776105     7096.938    7137.9307    9405.1061    7123.2936    338.45725   -1371.9699    982.00767    -2588.167 
16232000    268.55157   -3892.1854   -3431.8972   -3892.1854            0    10377.998    16.966133    19.983864    20.698643    7017.8524     10895.68    9956.8213    10281.492   -304.62563    1046.8361   -309.15608   -2369.7281 
16233000    262.48683   -3887.0366   -3437.1431   -3887.0366            0    9407.3794    16.994934    20.017787     20.73378    7053.6519    9202.0262    7513.3075    11506.804   -613.65843    882.23459   -899.92552   -2469.4034 
16234000    257.21318    -3846.846   -3405.9914    -3846.846            0    8343.0155    17.031593    20.060967    20.778504    7099.3964    9485.0851    8795.2502    6748.7112     53.56279    530.83075   -222.22369   -2542.1771 
16235000    245.37054    -3870.815   -3450.2583    -3870.815            0    6887.7383    17.033077    20.062715    20.780314    7101.2518    7404.0538    7247.9114    6011.2498    343.61158   -737.32656    1150.3595   -2736.9333 
16236000    261.02325   -3905.0523   -3457.6674   -3905.0523            0    7008.2587     17.00459     20.02916    20.745559    7065.6813    6270.3972    6477.9401    8276.4388   -702.10483    1159.6665    49.849397   -2735.4964 
16237000    261.86732   -3885.8476   -3437.0159   -3885.8476            0    7946.0312    16.961507    19.978415    20.692999    7012.1132    8872.0382    9662.4002    5303.6553   -760.32092    1203.5671    76.843087   -2624.4192 
16238000    258.83524   -3840.2891   -3396.6544   -3840.2891            0    7977.0445    17.016647    20.043363     20.76027    7080.7228    6677.4041     7910.324    9343.4054   -1018.3494    402.77237    740.78312   -2572.9043 
16239000      265.081   -3875.2882   -3420.9485   -3875.2882            0    8321.1577    16.994026    20.016718    20.732672    7052.5212    5959.1707    9118.5297    9885.7727    -1192.092    1090.3339   -803.46094   -2565.0859 
16240000    256.07771   -3855.2423   -3416.3338   -3855.2423            0    8351.0891    17.016174    20.042805    20.759693    7080.1319    7343.3723    8721.5961    8988.2989    469.86324    1935.4755     997.8934   -2554.0299 
16241000    239.45867    -3878.385    -3467.961    -3878.385            0     6129.965     17.01923    20.046405    20.763421    7083.9473    5128.1994    8047.0514    5214.6442    352.38714   -2050.5175   -589.95394   -2834.6614 
16242000     268.5843   -3890.5923    -3430.248   -3890.5923            0    5896.2807    17.016518     20.04321    20.760112    7080.5608    5124.7622    6341.2359     6222.844    1050.6863   -967.98114    1123.6931    -2821.382 
16243000    256.74532   -3841.3967    -3401.344   -3841.3967            0    7120.5796    17.031607    20.060983    20.778521    7099.4132    8245.9177    6104.7194    7011.1016    1852.4976    1873.1451   -225.64428   -2664.0958 
16244000    265.91951   -3883.3718   -3427.5948   -3883.3718            0     7793.952    17.075338    20.112492    20.831872    7154.2399    8080.1914    7221.0183    8080.6463    251.71975    115.77011    765.80544   -2614.3953 
16245000    271.59536   -3848.9043   -3383.3992   -3848.9043            0    9956.1576    17.016512    20.043203    20.760105    7080.5535    10310.332    8644.6728    10913.468    1128.0953   -968.26012   -784.34196   -2355.3004 
16246000    263.40342   -3862.6782   -3411.2138   -3862.6782            0    7318.3636    17.047849    20.080114    20.798336    7119.7434    6938.3563    10093.317    4923.4175    832.32183    296.77341   -660.39335   -2651.3177 
16247000    254.11218   -3856.6913   -3421.1517   -3856.6913            0    7541.3857     17.02597    20.054344    20.771644    7092.3666    7767.6764    7276.6774    7579.8034    824.18088    1742.5318   -238.60637   -2641.1093 
16248000    274.40631   -3833.6013   -3363.2783   -3833.6013            0    10159.536    16.998223    20.021662    20.737793    7057.7486    10274.797    10409.848    9793.9621    212.27206    783.45628    45.518993   -2317.5571 
16249000    245.11883   -3847.1771   -3427.0518   -3847.1771            0    7011.4459    17.040594    20.071569    20.789485    7110.6579    6458.4417     6503.959     8071.937   -130.14992    575.41216    224.19849   -2699.9533 
16250000    276.92966   -3843.3676   -3368.7197   -3843.3676            0     7900.321    17.059327    20.093634    20.812339    7134.1341    6843.5087    7955.4944    8901.9597    1051.5035   -349.15156    879.41222   -2546.7384 
Loop time of 493.784 on 64 procs for 250000 steps with 864 atoms

Performance: 87.488 ns/day, 0.274 hours/ns, 506.295 timesteps/s
99.1% CPU use with 64 MPI tasks x 1 OpenMP threads

MPI task timing breakdown:
Section |  min time  |  avg time  |  max time  |%varavg| %total
---------------------------------------------------------------
Pair    | 21.668     | 26.647     | 31.102     |  45.9 |  5.40
Bond    | 0.26786    | 0.27903    | 0.29165    |   1.1 |  0.06
Kspace  | 209.83     | 220.87     | 239.95     |  53.5 | 44.73
Neigh   | 5.0886     | 6.162      | 8.5088     |  39.9 |  1.25
Comm    | 99.091     | 120.17     | 129.91     |  76.3 | 24.34
Output  | 1.1693     | 1.1703     | 1.1764     |   0.1 |  0.24
Modify  | 110.56     | 113.92     | 116.69     |  14.3 | 23.07
Other   |            | 4.567      |            |       |  0.92

Nlocal:        13.5000 ave          17 max           8 min
Histogram: 2 0 3 8 4 16 11 5 10 5
Nghost:        2231.14 ave        2282 max        2191 min
Histogram: 6 2 11 10 10 9 6 6 2 2
Neighs:        4320.39 ave        5905 max        2759 min
Histogram: 4 4 7 8 11 5 10 9 3 3

Total # of neighbors = 276505
Ave neighs/atom = 320.02894
Ave special neighs/atom = 2.0000000
Neighbor list builds = 13997
Dangerous builds = 0

unfix		3
unfix		2
unfix		1

write_data	data.final.${pid}
write_data	data.final.0
System init for write_data ...
PPPM initialization ...
  extracting TIP4P info from pair style
  using 12-bit tables for long-range coulomb (../kspace.cpp:340)
  G vector (1/distance) = 0.37385242
  grid = 24 24 24
  stencil order = 5
  estimated absolute RMS force accuracy = 0.0032080046
  estimated relative force accuracy = 9.6608107e-06
  using double precision FFTW3
  3d grid and FFT values/proc = 2535 216
Last active /omp style is kspace_style pppm/tip4p/omp
WARNING: Not all mixed pair coeffs generated from mixing. Use write_data with 'pair ij' option to store all pair coeffs. (../write_data.cpp:312)

write_restart   restart.lmp.${pid}
write_restart   restart.lmp.0
System init for write_restart ...
PPPM initialization ...
  extracting TIP4P info from pair style
  using 12-bit tables for long-range coulomb (../kspace.cpp:340)
  G vector (1/distance) = 0.37385242
  grid = 24 24 24
  stencil order = 5
  estimated absolute RMS force accuracy = 0.0032080046
  estimated relative force accuracy = 9.6608107e-06
  using double precision FFTW3
  3d grid and FFT values/proc = 2535 216
Last active /omp style is kspace_style pppm/tip4p/omp
Total wall time: 0:08:17
