LAMMPS (30 Jul 2021)
  using 1 OpenMP thread(s) per MPI task
package omp 0
using multi-threaded neighbor list subroutines
echo both

include		in.partitions
variable        pid world 0
include		in.temp
variable        temperature equal 249.30
variable	tempDamp equal 100.0
include		in.pressure
variable        pressure equal 7250.0
variable        pressureDamp equal 1000.0 # This is 1 ps
include		in.seed
variable        seed world 745823

units		real
atom_style	full
read_restart	restart.lmp.${pid}
read_restart	restart.lmp.0
Reading restart file ...
  restart file = 30 Jul 2021, LAMMPS = 30 Jul 2021
  restoring atom style full from restart
  orthogonal box = (0.56331873 1.7550463 0.68724753) to (17.644254 21.874131 21.525948)
  4 by 4 by 4 MPI processor grid
  restoring pair style lj/cut/tip4p/long/omp from restart
  restoring bond style harmonic/omp from restart
  restoring angle style harmonic/omp from restart
  864 atoms
  576 bonds
  288 angles
Finding 1-2 1-3 1-4 neighbors ...
  special bond factors lj:    0        0        0       
  special bond factors coul:  0        0        0       
     2 = max # of 1-2 neighbors
     1 = max # of 1-3 neighbors
     1 = max # of 1-4 neighbors
     2 = max # of special neighbors
  special bonds CPU = 0.095 seconds
  read_restart CPU = 0.366 seconds
include 	in.setup
variable	out_freq equal 1000
variable	out_freq2 equal 10000
variable	out_freq3 equal 1000

timestep	2.0

neigh_modify    delay 7 every 1

include		in.tip4p
# This is TIP4P/Ice

# create groups ###
group ox type 2
288 atoms in group ox
group hy type 1
576 atoms in group hy

# set charges - beside manually ###
set group ox charge -1.1794
Setting atom values ...
  288 settings made for charge
set group hy charge 0.5897
Setting atom values ...
  576 settings made for charge

# ### TIP3P Potential Parameters ###
pair_style lj/cut/tip4p/long/omp 2 1 1 1 0.1577 8.5
pair_coeff 1 1*2 0.000 0.000
pair_coeff 2 2 0.21084 3.1668
bond_style  harmonic
bond_coeff  1 450 0.9572
angle_style harmonic
angle_coeff 1 55 104.52
kspace_style pppm/tip4p/omp 1.0e-5
pair_modify tail yes

thermo          ${out_freq}
thermo          1000
thermo_style    custom step temp pe etotal epair emol press lx ly lz vol pxx pyy pzz pxy pxz pyz enthalpy

restart 	${out_freq3} restart.lmp.${pid} restart2.lmp.${pid}
restart 	1000 restart.lmp.${pid} restart2.lmp.${pid}
restart 	1000 restart.lmp.0 restart2.lmp.${pid}
restart 	1000 restart.lmp.0 restart2.lmp.0


include         in.dump
dump            myDump all atom ${out_freq2} dump.water.${pid}
dump            myDump all atom 10000 dump.water.${pid}
dump            myDump all atom 10000 dump.water.0
dump            myDump2 all dcd ${out_freq2} dump.dcd
dump            myDump2 all dcd 10000 dump.dcd
dump_modify     myDump append yes
dump_modify     myDump2 append yes


variable natoms 	equal  "count(all)"                        # NUMBER ATOMS
variable H      	equal  "enthalpy/v_natoms"                 # ENTHALPY-per-atom
variable Vol      	equal  "vol/v_natoms"                 # volume-per-atom
fix AVG all 		ave/time ${out_freq} 1 ${out_freq} v_Vol v_H file vol_enthalpy.dat
fix AVG all 		ave/time 1000 1 ${out_freq} v_Vol v_H file vol_enthalpy.dat
fix AVG all 		ave/time 1000 1 1000 v_Vol v_H file vol_enthalpy.dat


timer           timeout 23:50:00 every 1000
New timer settings: style=normal  mode=nosync  timeout=23:50:00

fix 		1 all shake 1e-6 200 0 b 1 a 1
       0 = # of size 2 clusters
       0 = # of size 3 clusters
       0 = # of size 4 clusters
     288 = # of frozen angles
  find clusters CPU = 0.160 seconds
fix             2 all nph iso ${pressure} ${pressure} ${pressureDamp}
fix             2 all nph iso 7250 ${pressure} ${pressureDamp}
fix             2 all nph iso 7250 7250 ${pressureDamp}
fix             2 all nph iso 7250 7250 1000
fix             3 all temp/csvr ${temperature} ${temperature} ${tempDamp} ${seed}
fix             3 all temp/csvr 249.3 ${temperature} ${tempDamp} ${seed}
fix             3 all temp/csvr 249.3 249.3 ${tempDamp} ${seed}
fix             3 all temp/csvr 249.3 249.3 100 ${seed}
fix             3 all temp/csvr 249.3 249.3 100 745823

run             250000
PPPM initialization ...
  extracting TIP4P info from pair style
  using 12-bit tables for long-range coulomb (../kspace.cpp:340)
  G vector (1/distance) = 0.37374779
  grid = 24 24 24
  stencil order = 5
  estimated absolute RMS force accuracy = 0.0032201254
  estimated relative force accuracy = 9.697312e-06
  using double precision FFTW3
  3d grid and FFT values/proc = 2535 216
Last active /omp style is kspace_style pppm/tip4p/omp
Neighbor list info ...
  update every 1 steps, delay 7 steps, check yes
  max neighbors/atom: 2000, page size: 100000
  master list distance cutoff = 10.8154
  ghost atom cutoff = 10.8154
  binsize = 5.4077, bins = 4 4 4
  1 neighbor lists, perpetual/occasional/extra = 1 0 0
  (1) pair lj/cut/tip4p/long/omp, perpetual
      attributes: half, newton on, omp
      pair build: half/bin/newton/omp
      stencil: half/bin/3d
      bin: standard
Per MPI rank memory allocation (min/avg/max) = 9.234 | 9.238 | 9.241 Mbytes
Step Temp PotEng TotEng E_pair E_mol Press Lx Ly Lz Volume Pxx Pyy Pzz Pxy Pxz Pyz Enthalpy 
25000000    254.97874   -3891.3363   -3454.3115   -3891.3363            0    6901.7052    17.080935    20.119085    20.838701    7161.2775    6279.2594    7616.9482    6808.9082    -1278.126     1087.368    1275.5215   -2733.4981 
25001000    256.95619   -3918.7793   -3478.3652   -3918.7793            0    5276.1552    17.054669    20.088147    20.806656    7128.2914     7653.614    4070.2028    4104.6489     604.2059   -84.594508    389.53885   -2929.8623 
25002000    252.90132   -3895.5335   -3462.0693   -3895.5335            0    7732.6542    16.990119    20.012116    20.727905    7047.6585     8332.565    7676.1852    7189.2123    320.22226   -471.09049    108.88079   -2667.2849 
25003000     255.3948   -3923.1364   -3485.3984   -3923.1364            0    8712.9917    17.058685    20.092878    20.811556    7133.3292    5978.1958    11641.724    8519.0557    339.38637       230.54     392.4752    -2578.966 
25004000    240.73344   -3940.3809    -3527.772   -3940.3809            0    8183.6326    17.055186    20.088757    20.807288    7128.9407    7292.4007    10633.172    6625.3251    1537.9183   -251.60998   -1698.7378   -2676.9338 
25005000    250.51832   -3919.6035   -3490.2237   -3919.6035            0    6500.1912    17.094341    20.134876    20.855056    7178.1524    4724.3254    7066.9857    7709.2625    951.22638    1661.0427   -708.96057   -2809.7448 
25006000    250.60594   -3903.0099   -3473.4799   -3903.0099            0     6317.628    17.090821     20.13073    20.850762    7173.7195    5787.1324     8597.352    4568.3996    613.54474   -506.49539    639.53463   -2812.5212 
25007000    240.24049   -3901.0449   -3489.2809   -3901.0449            0    9526.3497    17.054955    20.088484    20.807005    7128.6506    10033.931    9027.2244    9517.8932    208.76076   -481.58546   -1455.3815    -2498.883 
25008000    254.70314   -3930.1529   -3493.6004   -3930.1529            0     6746.677     17.09312    20.133437    20.853566    7176.6139    7598.1346    6220.4069    6421.4894    557.72682   -108.42221   -428.20327   -2787.4692 
25009000    250.80549   -3905.2425   -3475.3705   -3905.2425            0    8559.1905    17.064945    20.100251    20.819193    7141.1848    8826.4852    7689.4291    9161.6572   -1243.8586   -563.19324    481.83683   -2583.9577 
25010000    255.89231   -3934.1629   -3495.5722   -3934.1629            0     7141.229    17.051103    20.083947    20.802305     7123.821    6357.3443    8116.2047     6950.138   -67.505464    380.11752   -266.26641   -2753.6441 
25011000     247.5594   -3914.2746   -3489.9663   -3914.2746            0    10070.613    17.003024    20.027317     20.74365    7063.7303    10082.261    9865.6191     10263.96    -1164.286   -870.24244   -1591.3655   -2452.5193 
25012000    256.61058   -3909.0463   -3469.2246   -3909.0463            0    7693.0361    17.062483    20.097351    20.816189    7138.0941    5923.9447    8504.1286     8651.035    2021.6285   -1403.0188   -754.11771   -2668.3658 
25013000     250.2771   -3900.9794    -3472.013   -3900.9794            0    8611.8378    17.057643     20.09165    20.810285    7132.0218    8803.4416    8146.4951    8885.5767   -658.45955   -1212.4096   -920.19276    -2576.268 
25014000    244.17583   -3947.6856   -3529.1766   -3947.6856            0    7382.5876     17.05282     20.08597    20.804401    7125.9742    8693.2552    7229.3132    6225.1944    339.02033    -432.5433    1422.2948    -2761.941 
25015000    264.80934   -3942.7933   -3488.9192   -3942.7933            0    8143.5518    16.973051    19.992012    20.707083    7026.4399    10744.228    6955.8404    6730.5873    1746.7903   -366.20086    79.966796   -2654.4216 
25016000    249.72133   -3911.2215   -3483.2077   -3911.2215            0    8973.0483    16.975228    19.994576    20.709738    7029.1437    11113.413    8329.8333    7475.8988   -1198.4661   -467.00924    366.38535    -2563.355 
25017000    266.64608    -3927.569   -3470.5467    -3927.569            0    6686.6693    16.989588    20.011491    20.727258    7046.9983    6579.8669     7319.973     6160.168   -850.55117   -1315.8542   -772.04258   -2783.3361 
25018000    245.18692   -3933.6072   -3513.3653   -3933.6072            0    7197.2313    17.009682    20.035159    20.751773    7072.0316    6467.7169    8490.2582    6633.7189    231.52438   -302.45716    807.51813   -2771.0549 
25019000    244.40389   -3912.6139    -3493.714   -3912.6139            0    8141.7427    17.026379    20.054826    20.772143    7092.8781    8975.6489    6888.9333     8560.646   -804.16499   -2160.3257   -87.598998    -2651.513 
25020000    239.54514   -3927.8308   -3517.2587   -3927.8308            0    5679.6218    17.111248     20.15479    20.875683    7199.4724    5461.7736    5327.9952    6249.0967    -1510.471   -652.50626    373.26274   -2920.9159 
25021000    262.04306   -3962.6511   -3513.5183   -3962.6511            0    7551.3378    17.002077    20.026201    20.742495    7062.5504    7548.8162    8647.6553     6457.542   -850.96582   -87.391307    -439.0083   -2735.7301 
25022000    256.83676   -3911.0688   -3470.8594   -3911.0688            0    8670.1064    17.037008    20.067345     20.78511    7106.1696    10051.443     7928.159    8030.7176   -771.36827    911.75269   -1888.7363   -2572.3226 
25023000    242.35419    -3926.298   -3510.9113    -3926.298            0    6370.8917    17.040498    20.071456    20.789368    7110.5375    7685.5753    5419.7208     6007.379   -1719.3344   -233.57431    421.23668   -2850.2504 
25024000     264.8276   -3888.4298   -3434.5243   -3888.4298            0    5373.2637    17.154611    20.205865    20.928585    7254.3447     6618.096    5343.2901    4158.4051   -1748.6773   -2087.1922   -232.98568   -2866.0482 
25025000    241.12444   -3867.5851    -3454.306   -3867.5851            0    5516.6153    17.099988    20.141527    20.861945     7185.268    5813.4645    4194.8935     6541.488   -1039.1128    269.66711   -2231.1661   -2876.2212 
25026000    255.12432   -3874.5719   -3437.2975   -3874.5719            0    7118.4948    17.050303    20.083005     20.80133    7122.8188       7585.4     7218.005    6552.0795    282.25437   -196.53996     188.9348   -2697.8354 
25027000    251.00071   -3885.2954   -3455.0888   -3885.2954            0       7227.1    17.090504    20.130357    20.850375    7173.3204    7332.2253    6628.7851    7720.2896    245.16153    -491.2695   -977.58599    -2699.022 
25028000     250.1004   -3946.5961   -3517.9326   -3946.5961            0    6436.9568    17.096118    20.136968    20.857224    7180.3908    8047.2457    4199.0072    7064.6176    134.93212   -144.70598   -853.09139   -2843.8633 
25029000    240.43875   -3926.6233   -3514.5195   -3926.6233            0    6009.7184    17.016059     20.04267    20.759552    7079.9884    5566.1128    5302.5265     7160.516   -340.50811    660.26651   -160.60345   -2893.9898 
25030000    261.59847   -3923.7159   -3475.3451   -3923.7159            0    6765.8752    17.083798    20.122458    20.842194    7164.8797    7211.1755    6889.0912    6197.3589    804.01726   -490.66613   -59.370448   -2768.3624 
25031000    252.80016   -3899.4106   -3466.1197   -3899.4106            0    5641.8859    17.063982    20.099117    20.818018    7139.9756    4390.8944    5929.2114    6605.5519   -303.82509   -1286.0097    525.91236   -2878.6346 
25032000    250.14305   -3922.8457   -3494.1091   -3922.8457            0    6433.7034    17.044946    20.076696    20.794795    7116.1078    5552.6997    5513.2336    8235.1771   -68.693317    167.98361   -457.56985    -2826.412 
25033000    257.35987   -3957.7994   -3516.6934   -3957.7994            0    8006.5073    17.037331    20.067726    20.785505    7106.5744    8387.9246    6997.5589    8634.0384   -1317.4292    1061.5222   -1313.3852   -2686.8822 
25034000    249.08631   -3972.9275   -3546.0021   -3972.9275            0    6092.1716    16.996122    20.019187    20.735229    7055.1318    6647.8873    5223.5803    6405.0474   -325.35321    1902.5584   -1194.2327   -2919.1672 
25035000    234.94671   -3943.5797   -3540.8891   -3943.5797            0     6390.568    17.031789    20.061198    20.778743    7099.6416    7419.8444    5886.5792    5865.2803   -317.10827    544.70427   -467.13693   -2879.2033 
25036000    240.18317   -3927.1287    -3515.463   -3927.1287            0    7342.0107    16.973455    19.992488    20.707576    7026.9419    7547.3699     7174.813    7303.8493    935.28203    614.01237    230.47978   -2763.0483 
25037000    254.12552   -3919.5363   -3483.9739   -3919.5363            0    7776.8513     16.97174    19.990468    20.705484    7024.8123    9044.6119    7514.4946    6771.4475   -48.191502    1141.2367    -1073.505   -2687.2379 
25038000    251.04542   -3928.6292   -3498.3459   -3928.6292            0    7906.0073    16.999166    20.022773    20.738943    7058.9233    10042.901      5717.05    7958.0708     -360.106   -585.44777   -1051.5115    -2684.445 
25039000    243.70402   -3934.1717   -3516.4713   -3934.1717            0    5642.7747    17.097791     20.13894    20.859265    7182.4996    6595.2455    5002.3044    5330.7743   -653.87193   -15.614989    440.94524   -2925.3941 
25040000    239.26969   -3908.5162   -3498.4161   -3908.5162            0     8005.658    16.955943    19.971861    20.686211    7005.2141    9794.4086    6671.3046    7551.2607   -125.42049    38.962984   -871.07199   -2680.5272 
25041000     246.8802   -3925.0842     -3501.94   -3925.0842            0    8156.1022    16.979908    20.000089    20.715448    7034.9593    8919.7084     6193.558    9355.0404    912.74531   -1229.9991   -1027.2807   -2665.1429 
25042000    241.10694   -3908.4366   -3495.1876   -3908.4366            0    7792.8513    16.958663    19.975066     20.68953    7008.5868    7825.8632    9300.7696    6251.9211     679.2088   -1814.8901   -881.23025   -2698.6565 
25043000    251.58987   -3913.2284    -3482.012   -3913.2284            0    8123.9616    16.983649    20.004495    20.720012    7039.6102    9172.1347     7355.716     7844.034    429.02866   -849.05206   -203.16114   -2647.9614 
25044000    257.38774   -3918.5489   -3477.3951   -3918.5489            0    6157.1133    17.043443    20.074925    20.792961    7114.2254    7826.4021    4041.3105    6603.6273    523.16292   -1076.1847    94.302657   -2838.5719 
25045000    234.08923   -3911.7383   -3510.5173   -3911.7383            0    8277.3043    16.986744    20.008141    20.723789      7043.46    9037.9842    8475.1791    7318.7496    51.091703    -1104.701   -225.59055   -2660.2591 
25046000    251.80225   -3908.5131   -3476.9326   -3908.5131            0    6969.6373    17.048715    20.081135    20.799393     7120.829    6253.5648    6765.4551     7889.892    181.93782   -299.24226   -1010.2909   -2753.1359 
25047000    241.69909    -3906.756    -3492.492    -3906.756            0    6310.3575     17.07134    20.107784    20.826995    7149.2165    6457.0296    4748.8619    7725.1809    363.86535   -803.52598    195.42211    -2834.549 
25048000    257.36325   -3903.9359   -3462.8241   -3903.9359            0    8411.2678    16.978369    19.998276     20.71357    7033.0464    10487.485    6032.2913    8714.0275    901.88609   -1121.6195   -765.35408   -2600.0823 
25049000     260.1856   -3887.8297   -3441.8805   -3887.8297            0    9186.5489    17.024272    20.052343    20.769572    7090.2444    9854.8954    8026.9213    9677.8301   -542.99171   -193.16316   -22.728351   -2491.9551 
25050000    247.30152   -3892.0428   -3468.1765   -3892.0428            0    5544.0375    17.009167    20.034551    20.751143    7071.3884    5244.2072    6591.1328    4796.7724   -906.80171   -214.69285    619.07549   -2896.4258 
25051000    256.50749   -3876.2654   -3436.6204   -3876.2654            0    6739.2556    17.060434    20.094937    20.813689    7135.5226    5664.7225    6893.3507    7659.6936   -174.39218    8.5928913    174.75625   -2735.3046 
25052000    260.00037   -3922.9852   -3477.3535   -3922.9852            0    9729.3451    16.930306    19.941664    20.654933    6973.4869    12819.727    8944.4801    7423.8286   -539.51011   -429.94409    137.03017   -2487.8679 
25053000    248.78067   -3905.3484   -3478.9468   -3905.3484            0    6868.2836    17.021027    20.048521    20.765613    7086.1911    6536.7946    6149.9767    7918.0797    665.45553    954.06277   -973.37924   -2769.1452 
25054000    248.59554   -3891.8954   -3465.8112   -3891.8954            0    6883.8093    17.077961    20.115582    20.835073    7157.5377    6875.4788    7111.0983    6664.8509   -407.10513   -445.15658    260.09854   -2747.2423 
25055000    258.72287   -3927.6693   -3484.2272   -3927.6693            0    6674.5721    17.036168    20.066356    20.784085    7105.1185    7047.2346    7745.4835    5230.9984   -66.202066     1386.694    653.24371   -2792.6023 
25056000    253.00102   -3878.4515   -3444.8164   -3878.4515            0    7129.1565    17.049767    20.082373    20.800676    7122.1468    6516.6233    8379.2656    6491.5806    592.73153     360.3312    216.23025   -2704.3166 
25057000     252.5609   -3929.1895   -3496.3088   -3929.1895            0    5766.5012    17.060387    20.094882    20.813632    7135.4638    7121.9924    6062.4661    4115.0449   -852.21125   -1222.3241    1301.5582   -2896.2269 
25058000    255.26998   -3928.6691   -3491.1451   -3928.6691            0    7405.5475     17.04886    20.081305    20.799569    7121.0099    6448.3833    7834.9425    7933.3165     527.1553     2.618632    728.19036   -2722.0595 
25059000    254.72943    -3936.835   -3500.2375    -3936.835            0    6185.0407     17.05264    20.085758    20.804181    7125.7485    6091.2676    5807.0422    6656.8122  -0.78688456    428.70248   -809.78642   -2857.4774 
25060000    251.78666   -3962.9205   -3531.3667   -3962.9205            0    6327.9742    17.005468    20.030196    20.746632    7066.7771    6829.4749    6565.7155    5588.7323    324.88944    762.97307   -219.27967    -2879.195 
25061000    252.14234   -3933.2406   -3501.0773   -3933.2406            0    6538.1053    16.991747    20.014034    20.729892    7049.6848    5304.6672    8921.4909    5388.1579   -883.46624    727.44937    571.79692   -2828.8788 
25062000    238.82038   -3887.2537   -3477.9238   -3887.2537            0     7726.893    16.978082    19.997938    20.713221    7032.6901    6941.5864    8159.4178    8079.6746     502.5531    732.23939   -693.74899   -2685.4183 
25063000    268.37202   -3922.6348   -3462.6544   -3922.6348            0    5201.1456    17.029805    20.058861    20.776323    7097.1607    5805.6194    5275.9097    4521.9076    -488.3124     743.6241   -1197.9177   -2924.3108 
25064000    257.69902   -3925.0933    -3483.406   -3925.0933            0    8999.0801    16.976524    19.996102    20.711319    7030.7536     9519.722    9207.7306    8269.7879   -54.367273   -191.18963    1.2889624   -2560.6734 
25065000    240.63345   -3957.8135    -3545.376   -3957.8135            0     5163.649    17.081155    20.119344    20.838969    7161.5543    3579.7052    7019.6115    4891.6304   -912.77683   -1369.0922    1519.7498   -3006.0642 
25066000    256.32946   -3925.9019   -3486.5619   -3925.9019            0    6973.1804    17.018135    20.045115    20.762085      7082.58     7577.454    6996.3382     6345.749   -1466.8034   -1283.2358    684.13481    -2766.287 
25067000    231.05599   -3936.6816   -3540.6595   -3936.6816            0    8878.1409    16.940175    19.953288    20.666974    6985.6893    8972.7067     9728.036    7933.6799   -539.24161    653.59583   -191.34568   -2636.1624 
25068000    245.52687   -3935.9002   -3515.0755   -3935.9002            0    6404.9028    17.070537    20.106838    20.826015    7148.2074    5969.7979    6781.4823    6463.4283    2637.1559   -573.92748   -617.10894   -2847.3691 
25069000    235.86447   -3940.8283   -3536.5647   -3940.8283            0    7271.5271    16.990266    20.012289    20.728085    7047.8418    5392.4573    8627.3915    7794.7326    586.08665   -100.40133    737.31109   -2789.1568 
25070000    247.64364   -3908.8207    -3484.368   -3908.8207            0    5420.0974    16.999868      20.0236      20.7398     7059.798     3730.547    6421.8029    6107.9423    957.38986   -683.49942    381.33425   -2926.3152 
25071000    242.30699   -3921.8343   -3506.5284   -3921.8343            0    7509.7556     16.96932    19.987618    20.702531    7021.8075    7001.1929    8388.2095    7139.8644    1344.7212    552.89757   -268.41555   -2737.4854 
25072000    267.29488   -3894.0241   -3435.8898   -3894.0241            0    7805.7713     16.98517    20.006287    20.721868     7041.502     6342.591    7753.3444    9321.3785   -1208.9182    301.41581   -1143.3998   -2634.2911 
25073000    234.68325    -3922.598   -3520.3589    -3922.598            0    9515.5565    16.930314    19.941673    20.654943    6973.4966    8873.8083    10019.106    9653.7555    485.14215   -551.06587    228.31551   -2552.6145 
25074000    250.06701   -3925.6432   -3497.0369   -3925.6432            0    6848.2073    17.006733    20.031685    20.748174    7068.3535    5865.1468    7097.2296    7582.2456   -748.04963   -470.77794    942.69966   -2791.0916 
25075000     245.4951    -3915.732   -3494.9618    -3915.732            0    7529.5019    16.992773    20.015242    20.731144    7050.9619    5824.6519    8956.6061    7807.2478   -373.74635    1054.5646    1045.7975   -2720.6952 
25076000    240.41861   -3920.0384   -3507.9691   -3920.0384            0    7088.4219     17.05289    20.086052    20.804486    7126.0612    5877.1486    10604.542    4783.5754    338.83823   -1344.3929   -1079.4909   -2771.2957 
25077000    239.29436   -3899.5142   -3489.3719   -3899.5142            0    8784.6586    17.009772    20.035265    20.751882    7072.1437    9057.1913    8701.8818    8594.9028     677.8229    863.51244    770.66672   -2583.3225 
25078000    255.75585   -3869.9315   -3431.5748   -3869.9315            0    8549.5396    17.030175    20.059297    20.776774    7097.6235    9494.6886    7835.2211    8318.7091    1793.7872    184.17937   -540.30667   -2546.5986 
25079000    246.35795   -3920.4735   -3498.2244   -3920.4735            0    6857.5137     16.97959    19.999714     20.71506    7034.5635     6243.137    6882.5462    7446.8578   -538.55301    590.08916   -215.67567   -2794.6991 
25080000    265.12664   -3923.2277   -3468.8097   -3923.2277            0    6748.8073    17.016831    20.043579    20.760494    7080.9517    7612.7715    5912.6484    6721.0019    179.08076   -954.35977   -2041.6762   -2771.8711 
25081000    252.74542   -3934.7732   -3501.5762   -3934.7732            0    7782.0564    17.031392     20.06073    20.778258    7099.1442    7978.0956    8280.3674    7087.7061    1105.3367   -856.52252    279.26392   -2695.8708 
25082000    246.07859   -3958.9119   -3537.1416   -3958.9119            0    6586.5532    17.022147     20.04984    20.766979    7087.5896    5162.1195    6516.0165    8081.5237   -811.25216   -630.61296    26.793119    -2856.321 
25083000    241.18096   -3934.3657   -3520.9898   -3934.3657            0    7045.3131    17.003248    20.027581    20.743923    7064.0097    7472.5691    6912.1303    6751.2399   -865.59987   -365.04123   -510.35749   -2795.1722 
25084000    253.54029   -3894.7425   -3460.1831   -3894.7425            0    8165.9521    17.071689    20.108195    20.827421    7149.6552    7239.3012    8321.7798    8936.7752   -484.74547     278.4893    2245.7589   -2608.7161 
25085000    254.70658   -3927.6079   -3491.0496   -3927.6079            0    7597.5307    16.971925    19.990686    20.705709    7025.0416    6334.3539    9045.6014    7412.6367       1428.8   -1235.8243    183.11385   -2712.6596 
25086000     239.7517   -3887.1743   -3476.2481   -3887.1743            0    7752.4162    17.032417    20.061938    20.779509    7100.4269    8493.7658    9333.7385    5429.7444   -401.97501   -587.70233   -546.89827   -2673.4665 
25087000    253.67825   -3933.7401   -3498.9443   -3933.7401            0    7765.5899    16.989914    20.011874    20.727655    7047.4032    8254.1558    8193.4935    6849.1204    916.06645     1532.881   -1386.4039   -2700.8036 
25088000    259.60337   -3891.0541   -3446.1028   -3891.0541            0    7369.5321    17.016369    20.043035     20.75993     7080.375    6671.8907    8268.8759    7167.8298     714.4012   -294.81613   -701.18937   -2685.1248 
25089000    243.99437   -3932.3007   -3514.1027   -3932.3007            0    7086.1704    16.987918    20.009523     20.72522    7044.9198    7186.2512    8042.9887    6029.2713    245.59376   -245.55415    2179.7356   -2786.0488 
25090000    247.82199   -3922.7172   -3497.9587   -3922.7172            0    7707.5387    17.000047    20.023809    20.740017    7060.0198    8625.2502    6205.0723    8292.2937   -48.245435   -2332.8315   -657.65946   -2704.3663 
25091000    245.13035   -3948.7342   -3528.5892   -3948.7342            0    7518.4873    16.952568    19.967886    20.682094    7001.0326    7671.6207    9000.1452    5883.6961   -922.81356    232.83655    367.09492     -2760.93 
25092000    255.21453   -3911.0521   -3473.6232   -3911.0521            0    6634.4253    16.969431    19.987748    20.702666    7021.9451     6434.231    6235.4924    7233.5526   -1131.2773    263.18195   -1516.1031   -2794.2058 
25093000     246.0114   -3945.7694   -3524.1142   -3945.7694            0    7551.0874    16.997318    20.020596    20.736689    7056.6212    6481.3865    6141.0629    10030.813    -632.9257    330.65541   -45.418336   -2747.0048 
25094000    227.86852   -3907.1369   -3516.5781   -3907.1369            0      7068.79     17.04721    20.079361    20.797556    7118.9425    7573.2807    6673.1358    6959.9534   -762.85594   -1092.8207    503.97985   -2782.6788 
25095000    239.57393   -3928.9442   -3518.3227   -3928.9442            0    6178.1456    17.056657    20.090488    20.809081    7130.7844    6445.0175    4935.4248    7153.9944    -331.9874   -551.74791    73.055477   -2875.8254 
25096000    243.98522   -3887.3296   -3469.1472   -3887.3296            0    7394.1242    17.019002    20.046137    20.763143     7083.663    6077.0614     6618.221    9487.0902   -466.85804   -47.075297   -457.85575   -2705.2754 
25097000    242.54266    -3899.444   -3483.7341    -3899.444            0    8069.3207    17.022543    20.050307    20.767463    7088.0852    6539.2615    8632.5903    9036.1103    784.28733   -1421.3755    701.13215   -2649.5887 
25098000    248.17927   -3960.3637   -3534.9929   -3960.3637            0     6690.258    17.061477    20.096166    20.814962    7136.8319    7259.6719    6094.7591    6716.3429   -711.38862    109.78062    -73.41846   -2838.6483 
25099000    251.46935   -3926.2014   -3495.1916   -3926.2014            0    7224.2435    17.067177    20.102881    20.821917    7143.9877    8231.8039    7841.8517    5599.0748     459.4306   -868.19848   -1286.8755    -2742.514 
25100000    238.71054   -3945.8644   -3536.7227   -3945.8644            0    10315.005    17.029906     20.05898    20.776445    7097.2865    10561.461    12196.946    8186.6089    713.10517    1168.0394    581.67405   -2469.0511 
25101000    233.63277   -3949.2335   -3548.7949   -3949.2335            0      7862.77    17.045377    20.077202     20.79532    7116.6467    6071.8981    8905.7112    8610.7008   -808.61831   -550.68905      934.033   -2732.7259 
25102000    241.77693   -3911.9216   -3497.5242   -3911.9216            0     9200.859    16.989081    20.010893    20.726639     7046.367    11122.379    8671.7366     7808.461    1121.5351   -96.148024   -23.468087   -2552.0068 
25103000    252.55021   -3934.6454    -3501.783   -3934.6454            0    7303.3313    17.021608    20.049206    20.766322    7086.9167    5092.5905    8957.7586    7859.6449   -812.18775   -2044.8626    271.16054   -2746.9441 
25104000    261.66426   -3945.1521   -3496.6685   -3945.1521            0    9103.7406    16.982193    20.002781    20.718236    7037.8003    10837.599    8694.2877    7779.3351    149.28131    724.97789     25.89992   -2562.2688 
25105000    254.97658   -3911.2468   -3474.2257   -3911.2468            0    6604.3754    17.089832    20.129565    20.849555    7172.4737    7187.4275    7224.2163    5401.4825    656.47892    449.15563   -2164.2222    -2783.387 
25106000    231.67155   -3926.6356   -3529.5585   -3926.6356            0    8231.7535    17.029472    20.058469    20.775917    7096.7445    9376.4885    8553.1682    6765.6039   -858.04847     145.4181   -438.60201   -2677.5824 
25107000    250.92596   -3950.2116   -3520.1331   -3950.2116            0    7834.8015    17.000867    20.024776    20.741018     7061.042    6618.2601    7661.5206    9224.6239   -1734.1373   -1180.5032    1094.3925   -2713.3205 
25108000    246.36127   -3929.0909   -3506.8361   -3929.0909            0    6973.4275    17.032855    20.062453    20.780043    7100.9736    8018.8758    6800.8692    6100.5376    716.78051    1384.7187   -154.59822    -2784.665 
25109000    246.16097   -3931.0672   -3509.1557   -3931.0672            0    6914.0059    17.008253    20.033475    20.750029    7070.2489    8664.3967    6411.0485    5666.5725   -1189.6465   -691.14778    -337.6949   -2796.2365 
25110000    255.24118   -3954.8171   -3517.3425   -3954.8171            0    7585.6504    17.019889    20.047181    20.764225    7084.7704    8292.7224    8463.5292    6000.6996   -1477.8389   -49.818388    152.18268   -2733.5619 
25111000    252.68361    -3933.106    -3500.015    -3933.106            0    5731.9973    17.084992    20.123863     20.84365    7166.3812    5316.0815     7797.216    4082.6943   -975.86825    357.51471   -2257.8385   -2900.9392 
25112000     259.0342   -3948.1255   -3504.1498   -3948.1255            0    6805.9236    17.033677    20.063422    20.781046    7102.0025    7015.5683    7321.0015     6081.201   -778.17222    308.74264    256.92811   -2799.2234 
25113000    247.38632   -3931.6985   -3507.6869   -3931.6985            0    6335.8148     16.97082    19.989384     20.70436    7023.6693    7693.9732    5266.1666    6047.3046    406.44768   -541.83086   -1159.1628   -2858.6903 
25114000    268.39772   -3927.5345     -3467.51   -3927.5345            0    6088.9822    17.051543    20.084465    20.802843    7124.3729    6159.5219    5189.3622    6918.0626    2009.0993   -89.860035   -1143.5635   -2834.8546 
25115000    264.00255   -3935.7707   -3483.2794   -3935.7707            0    7014.1908    17.009853     20.03536    20.751981    7072.2445    6146.3762    7967.3055    6928.8908   -636.03608    200.22518   -800.19879   -2759.8257 
25116000    242.87854   -3934.5944   -3518.3089   -3934.5944            0    7965.8723    16.974937    19.994233    20.709383     7028.782    8794.8751    7325.5296    7777.2121    1721.3029    342.40962   -1224.6374   -2701.7466 
25117000    242.87388   -3938.6683   -3522.3908   -3938.6683            0    8881.2503    16.968078    19.986155    20.701016    7020.2662    9649.8558    8750.5243    8243.3708   -80.004423    736.83338    809.32559   -2613.0983 
25118000    241.64078   -3940.5178   -3526.3538   -3940.5178            0    6614.5334    16.996999    20.020219    20.736299    7056.2233    8624.2172    6584.3187    4635.0641   -79.114175    132.05503    131.18088   -2845.6668 
25119000    262.59558   -3947.1197   -3497.0399   -3947.1197            0    4987.2636    17.017893     20.04483     20.76179    7082.2779    5427.8063    4159.7391    5374.2454    317.15706   -2139.9895    407.75108   -2981.9166 
25120000    232.21046    -3911.108   -3513.1073    -3911.108            0    5455.4902    17.058926    20.093162     20.81185    7133.6316    4291.1014    6752.4863     5322.883   -380.36756   -902.40165    895.22303   -2945.5361 
25121000    240.13351   -3939.8346    -3528.254   -3939.8346            0    5905.5343    17.087649    20.126993    20.846892    7169.7253    7897.9034    4249.3991    5569.3004   -1328.1138    678.12645    159.23921   -2910.7531 
25122000    270.59665   -3935.6862   -3471.8928   -3935.6862            0    7488.1424    17.057322    20.091272    20.809893    7131.6187    7572.6379    7895.0385    6996.7509   -377.12403   -41.025772     888.3652    -2693.071 
25123000    236.51222   -3941.6607   -3536.2869   -3941.6607            0    7600.5364      17.0484    20.080763    20.799008    7120.4337    8892.1204    6612.3197    7297.1693   -674.68955   -464.60147   -566.58483   -2747.0151 
25124000    253.63861    -3930.165   -3495.4371    -3930.165            0    9307.2566     17.02651     20.05498    20.772302    7093.0413    10391.536    10251.209    7279.0248   -843.37213    1070.3087    149.26193   -2532.6505 
25125000    255.19825   -3920.9491   -3483.5481   -3920.9491            0    7130.7003    17.068709    20.104684    20.823785    7145.9109    9690.5672    6453.3517    5248.1819   -887.97252    1006.3648   -47.931755   -2740.4166 
25126000    246.89834    -3935.622   -3512.4467    -3935.622            0    9233.3869    16.944678    19.958592    20.672467    6991.2614    8230.2974     7511.333     11958.53   -501.51818   -1115.5106    76.655932   -2571.0071 
25127000    248.95688    -3910.487   -3483.7834    -3910.487            0    7064.7592    17.048988    20.081456    20.799725    7121.1707    6933.9272    6493.8774    7766.4729   -347.79405    38.727546    883.22219   -2750.0731 
25128000      249.659   -3910.8582   -3482.9512   -3910.8582            0    6971.1788    17.041322    20.072427    20.790374    7111.5696    7455.3859    8006.8952    5451.2553   -115.53402   -424.28373   -513.49891   -2759.9358 
25129000     248.9678   -3892.3355   -3465.6132   -3892.3355            0    7112.3811    16.991105    20.013278    20.729109    7048.8858    8174.8059    7105.0966    6057.2408    1027.7323   -936.71013   -402.49805    -2734.455 
25130000     246.5627   -3959.3621   -3536.7621   -3959.3621            0    7108.1134    16.983522    20.004345    20.719857    7039.4521    7149.9062    7513.3897    6661.0442    227.54967   -1097.5888    974.81734   -2807.0205 
25131000    242.50191   -3937.0306   -3521.3906   -3937.0306            0    7542.6875    16.983957    20.004858    20.720388    7039.9935    6523.5536    6029.5599    10074.949    1492.6115    65.975131    1039.8671   -2746.9747 
25132000    264.69815   -3926.1659   -3472.4823   -3926.1659            0    6436.2654    17.071502    20.107974    20.827192    7149.4195    7050.0266    6606.3933    5652.3765   -135.30103   -983.36095    437.85718   -2801.3926 
25133000    251.79431   -3956.1708    -3524.604   -3956.1708            0    6783.5209    17.081907     20.12023    20.839886    7162.4997    8009.1904    4518.2228    7823.1495    348.00228    58.177714    276.55721   -2816.0129 
25134000    249.40896   -3941.7597   -3514.2813   -3941.7597            0     8253.332    17.005091    20.029751    20.746172    7066.3069    9406.7029    5634.8662    9718.4269    797.64193   -38.037663    -470.0359   -2663.7355 
25135000    231.09254   -3941.2162   -3545.1315   -3941.2162            0    7610.2442    17.048756    20.081182    20.799442    7120.8797    8779.5341    5926.4632    8124.7355   -630.19178   -75.356673   -765.87752   -2754.8021 
25136000    239.37336   -3908.5648   -3498.2871   -3908.5648            0    7664.1201    16.998722    20.022249    20.738401    7058.3694    7895.8209    4969.4782    10127.061    1722.8163   -527.92296   -329.02916   -2709.3496 
25137000    243.30717   -3915.3613   -3498.3412   -3915.3613            0    6890.5025    17.034181    20.064016    20.781662    7102.6333    6799.5887    6105.9808     7765.938    67.513045    703.22925    1028.4927   -2784.5911 
25138000    256.40056   -3919.9691   -3480.5074   -3919.9691            0    7800.9694    16.998042    20.021448    20.737571    7057.5225    6333.0177    9403.1718    7666.7185    -894.5821   -771.06026    777.14802   -2677.5791 
25139000    233.32432   -3944.3642   -3544.4543   -3944.3642            0    8131.2592    17.037843    20.068328    20.786128    7107.2143    7782.7536    8058.0919    8552.9322    1390.0817   -367.32196    848.11581   -2701.6377 
25140000    247.36074   -3922.5386   -3498.5708   -3922.5386            0    8745.5511    16.956691    19.972742    20.687123    7006.1416    8808.7789    9705.6277    7722.2468    577.92703    559.64163   -169.72514   -2604.9732 
25141000     248.2375   -3962.2938   -3536.8232   -3962.2938            0    5624.8774    17.030286    20.059427    20.776909    7097.7615    6408.9877    5099.5929    5366.0516   -738.46863   -1662.7728   -903.16217   -2954.5721 
25142000    259.58387   -3979.0048   -3534.0869   -3979.0048            0    7221.6032    16.959595    19.976163    20.690667    7009.7423     8023.778    7421.1559    6219.8757   -1121.2306    1147.6998    790.65054   -2795.8232 
25143000    233.86629   -3919.7481   -3518.9093   -3919.7481            0    7494.0047    17.037114     20.06747    20.785239    7106.3023    7382.4989     7842.077    7257.4381    869.60441    1499.8515   -1195.0249   -2742.2447 
25144000    247.74415   -3943.3356   -3518.7106   -3943.3356            0    6099.4243    17.103473    20.145632    20.866197    7189.6627    6335.3276    5503.1759    6459.7693    346.86832    406.96991    398.21273   -2879.1625 
25145000    258.49146   -3924.5944   -3481.5489   -3924.5944            0     5923.196    17.078734    20.116493    20.836016    7158.5099     5736.801    5049.4983    6983.2886   -1060.5372    938.94319    601.09665   -2863.1701 
25146000     239.9677   -3921.2729   -3509.9765   -3921.2729            0    6955.5424    16.981369    20.001809     20.71723     7036.775    5643.6463     6681.675    8541.3058      55.8632    249.74665   -340.44982   -2796.1699 
25147000     238.5444   -3921.9302   -3513.0732   -3921.9302            0    7925.9418    16.972464    19.991321    20.706366    7025.7107    6285.7308    7957.1726     9534.922   -953.36241   -489.91979    140.56537   -2700.9592 
25148000    238.51256   -3942.9371   -3534.1347   -3942.9371            0    7969.4052    17.001849    20.025932    20.742216    7062.2656    7510.9731    6742.7876     9654.455    281.68511   -1149.5253    758.34593   -2713.3187 
25149000    256.20475   -3898.8198   -3459.6936   -3898.8198            0    7195.7243    17.057501    20.091483    20.810111    7131.8435    7619.6745     7169.509    6797.9894    -151.3835    1166.8415   -339.03104   -2711.2618 
25150000    242.09766   -3919.7186   -3504.7715   -3919.7186            0     5801.159    17.076523    20.113888    20.833318    7155.7296    7842.5377    5541.5521    4019.3871   -404.72388    1730.0833    566.96485   -2899.3685 
25151000    258.72933   -3923.7757   -3480.3225   -3923.7757            0    7054.1686    17.047856    20.080122    20.798344    7119.7524    5837.0306    7773.2223    7552.2529    1042.4693    1222.1442   -307.90822   -2747.8579 
25152000    234.44931   -3935.4142   -3533.5761   -3935.4142            0    6004.0234    17.022769    20.050573    20.767738    7088.3666    4189.3982    7752.1773    6070.4947     -749.857   -340.97899   -1213.7703   -2912.9009 
25153000    252.02819   -3950.9654   -3518.9977   -3950.9654            0    7894.7249    17.040357     20.07129    20.789196    7110.3616     5959.253    9093.1096    8631.8122   -796.33519    535.96071    245.05233   -2700.3358 
25154000    230.52384    -3926.692   -3531.5821    -3926.692            0    7487.1384    17.075688    20.112904    20.832299    7154.6796       7856.8    7526.0684    7078.5466    556.30046    113.07642    750.53864   -2750.3466 
25155000    251.51953   -3935.6675   -3504.5716   -3935.6675            0    6361.2386     17.05476    20.088254    20.806767    7128.4054    7716.4316    5917.2154    5450.0687   -918.50706    46.805429   -106.35179   -2843.2542 
25156000    244.83834   -3957.4243   -3537.7798   -3957.4243            0     6390.934    17.059234    20.093525    20.812226     7134.018    7923.7276    6656.8346    4592.2397   -2281.6065   -176.73423    1010.3052   -2872.8521 
25157000    245.21649   -3930.7611   -3510.4685   -3930.7611            0     5561.614    17.110724    20.154172    20.875043    7198.8103    5559.1963    6324.0591    4801.5866   -1223.7663     336.9708   -294.26614   -2926.5698 
25158000    245.92146   -3928.2955   -3506.7945   -3928.2955            0    6461.2036    17.090051    20.129822    20.849822    7172.7491    6409.1734    5990.1827    6984.2548   -6.3272872    -111.1412    -123.0285   -2830.9062 
25159000    236.58899   -3903.2293   -3497.7239   -3903.2293            0    6788.4699    17.065455    20.100852    20.819816    7141.8254    5129.7045    9249.4993    5986.2058    433.90947    561.72649    195.85463   -2790.6627 
25160000    250.42002   -3869.4402   -3440.2289   -3869.4402            0    7291.8261    17.023072     20.05093    20.768108    7088.7454    5960.3045    8678.3315    7236.8423   -484.31626    890.85005   -506.58036   -2686.3847 
25161000    242.25085   -3940.8537    -3525.644   -3940.8537            0    6819.7391    17.037976    20.068485    20.786291    7107.3807    7554.5966    6453.5413    6451.0795   -471.88976    1189.6798   -615.90752   -2818.7518 
25162000    237.49381   -3926.0051   -3518.9488   -3926.0051            0    8237.8037    17.027555     20.05621    20.773577    7094.3473    7697.6641    9650.2491     7365.498   -148.63367   -1816.1868   -321.41277   -2666.6345 
25163000    246.01277   -3903.0786   -3481.4211   -3903.0786            0    8362.6349    16.993231    20.015782    20.731702    7051.5319    8243.3473    7637.9395     9206.618   -775.96277   -383.44936    1437.6053   -2621.4131 
25164000    258.18808    -3933.529   -3491.0035    -3933.529            0    8022.5952    17.044213    20.075831      20.7939    7115.1886    8068.9023    7401.0296    8597.8537    444.78054     231.0867    876.13908    -2658.517 
25165000    256.56781   -3935.9691   -3496.2207   -3935.9691            0    8623.6372    17.040318    20.071243    20.789148    7110.3117    9269.6552    8817.5342    7783.7223    677.67806   -169.23752    890.36786   -2601.9788 
25166000    251.84684   -3913.6122   -3481.9553   -3913.6122            0    6330.9375    17.080735     20.11885    20.838457    7161.0267    5905.3997     7431.459    5655.9539    -364.1561    1045.2369    118.48922   -2820.7761 
25167000    242.38893   -3948.0895   -3532.6432   -3948.0895            0    7326.4447    17.015326    20.041807    20.758658    7079.0734    6557.4783    7759.9481    7661.9078   -488.81749   -507.39486    1039.3519   -2776.2535 
25168000     266.0631   -3926.3756   -3470.3526   -3926.3756            0    6063.7435     17.08256       20.121    20.840684     7163.322     6802.375    5038.4948    6350.3607   -141.38667    306.50466   -676.79947   -2836.8751 
25169000    254.96492   -3893.8299   -3456.8287   -3893.8299            0    10495.468     17.05347    20.086736    20.805194    7126.7891    10425.026    9747.5967    11313.782    250.23286   -60.015789   -421.01998   -2365.9622 
25170000    254.63644   -3928.8116   -3492.3735   -3928.8116            0    7234.2915    17.037865    20.068354    20.786156    7107.2421     7938.743    9592.1046     4172.027    787.31327   -1442.4077   -120.80452   -2742.5259 
25171000    252.36232   -3956.1078   -3523.5674   -3956.1078            0    7883.7153    17.039139    20.069855     20.78771    7108.8366    8750.1248    6746.4903    8154.5307   -96.594232   -1387.7241     183.7526   -2706.2225 
25172000    246.05652   -3946.7018   -3524.9693   -3946.7018            0    7051.3489    17.064016    20.099157    20.818059    7140.0183    6492.9818    8037.5143    6623.5505   -2446.1043     -251.065    676.44327   -2790.7135 
25173000    250.45316   -3963.1063   -3533.8382   -3963.1063            0    8415.5124    17.012547    20.038533    20.755267    7075.6049    8857.0982    7031.6858    9357.7531   -279.93313   -769.44091    461.53697   -2665.4377 
25174000    235.97536   -3922.6608   -3518.2072   -3922.6608            0    8375.7409    17.006856    20.031829    20.748324    7068.5065    9260.0318     8196.613     7670.578   -158.50905   -228.40721   -1346.1576   -2654.7778 
25175000     255.4257   -3925.6191   -3487.8282   -3925.6191            0     7362.517    17.095596    20.136353    20.856587     7179.733    5574.8197    7466.7027    9046.0285   -1775.9587    978.87565    318.60181   -2716.9061 
25176000    254.25971   -3942.9251   -3507.1327   -3942.9251            0    7328.7908    17.048705    20.081122     20.79938    7120.8161    8296.6811    7296.5057    6393.1858    -1042.098    901.98133   -1709.5223   -2746.0392 
25177000    239.51004   -3882.1738   -3471.6618   -3882.1738            0    6457.7132    17.074318    20.111291    20.830628    7152.9583    7350.5809    5197.9235     6824.635    1818.1009   -59.521139    -330.1302   -2798.0025 
25178000    256.83248   -3928.9772   -3488.7751   -3928.9772            0    6796.5177    17.091892    20.131991    20.852068    7175.0674    9001.5061    5654.9145    5733.1323    559.16331    848.80256    1309.2764   -2777.5807 
25179000    229.80412   -3885.9627   -3492.0864   -3885.9627            0      5162.18    17.115375    20.159651    20.880718    7204.6829    5379.6272    5026.9298     5079.983    -157.0822    454.80046   -832.11642   -2949.6811 
25180000    239.26601   -3916.9734   -3506.8796   -3916.9734            0    5594.8938     17.14207    20.191094    20.913285    7238.4463    6012.6603    4848.1034    5923.9176   -574.16998    1100.5723    393.93582   -2916.2529 
25181000    260.49626   -3931.2253   -3484.7436   -3931.2253            0    8782.5868    17.045202    20.076996    20.795106    7116.4275    7480.4328    8892.3986    9974.9289    -571.2841   -386.80632   -248.25946   -2573.2359 
25182000    269.25505    -3928.725   -3467.2311    -3928.725            0    7376.3018     17.06649    20.102071    20.821078    7143.1246    6863.8877    7476.5964    7788.4215   -430.56133    1465.5403     270.9519   -2698.8038 
25183000    239.50956   -3936.7068   -3526.1956   -3936.7068            0    9698.6658    17.007728    20.032857    20.749388    7069.5939    10475.558    8902.9042    9717.5348   -911.17789   -1117.3905    192.53954   -2526.2363 
25184000    243.36157   -3948.9196   -3531.8062   -3948.9196            0    6466.9334    17.071524       20.108    20.827219     7149.447    8271.8506    5966.9334    5162.0163     551.2076    1927.2781    444.93997   -2857.5162 
25185000    259.37731   -3948.6372   -3504.0733   -3948.6372            0    6092.9958    17.105116    20.147567    20.868201    7191.7344    6475.1087    4673.1711    7130.7075   -242.71146    157.74163   -1231.7299   -2865.0151 
25186000    261.77563   -3934.8866   -3486.2121   -3934.8866            0     5761.369    17.103362    20.145501    20.866061    7189.5221    6641.0554    5662.5144    4980.5373      946.944   -811.88679   -812.15237   -2882.1222 
25187000    241.15058   -3940.4462   -3527.1223   -3940.4462            0    7647.6818    17.085659     20.12465    20.844465    7167.2216    6724.7067     9244.967    6973.3718    232.44536    96.066282    1174.9528   -2727.7364 
25188000    261.94259   -3929.0351   -3480.0745   -3929.0351            0     7883.777    17.125811    20.171944     20.89345    7217.8699    6654.7153    9115.7757    7880.8401     439.3524    2150.7457    958.18529   -2650.1869 
25189000    227.42979   -3931.2553   -3541.4484   -3931.2553            0    7049.5852    17.096804    20.137777    20.858061    7181.2561    7400.3102      6808.47    6939.9754   -256.69084    1001.0157     342.3031   -2803.1365 
25190000    251.44216   -3911.1512   -3480.1879   -3911.1512            0    8044.1213    17.099669    20.141151    20.861556    7184.8664    9329.8945    7686.0381    7116.4312   -1844.5721    1045.4558    451.78585   -2637.2935 
25191000     244.4932   -3905.3563   -3486.3033   -3905.3563            0    8702.0508    17.030582    20.059776     20.77727    7098.1319    8663.5687    10051.916    7390.6673   -1394.0253   -1020.1487   -1067.8836   -2585.4759 
25192000    238.54513   -3914.2099   -3505.3517   -3914.2099            0    7621.2435    17.056908    20.090784    20.809387    7131.0993    8382.7647    6416.2918     8064.674    1563.1061   -654.89132    164.00874   -2712.7442 
25193000    239.34605   -3905.1831   -3494.9522   -3905.1831            0      7229.61    17.113868    20.157875    20.878878     7202.779    5135.4932    9854.6199     6698.717   -203.02884   -1590.2014     1777.346   -2735.5168 
25194000    264.95106   -3944.1095   -3489.9924   -3944.1095            0    7137.8549    17.122863    20.168471    20.889853    7214.1429    7231.6644    6178.2121    8003.6883    73.146156   -685.67062    -550.7624   -2739.0125 
25195000    252.27022   -3954.2681   -3521.8856   -3954.2681            0    6383.4777    17.113211    20.157102    20.878078    7201.9503    5593.7195    7512.6442    6044.0695   -1036.9167    326.70951    1609.5003   -2851.4094 
25196000    261.62745   -3947.4341   -3499.0136   -3947.4341            0    6121.9301    17.181507    20.237546    20.961399    7288.5204    5197.4832    7197.3118    5970.9952     219.7052    834.46127   -429.56391   -2848.2794 
25197000    245.73713   -3937.5783   -3516.3933   -3937.5783            0    6445.2724    17.105629    20.148172    20.868828    7192.3822    7679.2611    5344.3289    6312.2271    -995.4084   -886.78113   -285.81848    -2840.326 
25198000     239.5404   -3897.4369   -3486.8729   -3897.4369            0    7294.7919     17.07538    20.112542    20.831924    7154.2933    7921.8206    6310.9588    7651.5963   -37.888614    89.066582    292.07646   -2725.7487 
25199000    243.27445   -3886.4558   -3469.4917   -3886.4558            0    7802.5716    17.053729     20.08704    20.805509    7127.1131    9043.1664    8482.7206    5881.8277    634.66734    479.25507   -1155.8622   -2658.4796 
25200000    252.05075    -3938.767   -3506.7607    -3938.767            0    6464.2613    17.144911     20.19444    20.916751     7242.046    7328.9109    6579.4659    5484.4071   -172.54024   -336.46865   -351.37592   -2824.0195 
25201000    242.30982   -3918.2776   -3502.9668   -3918.2776            0    6182.6611    17.149042    20.199306    20.921791    7247.2819    7723.1259    5045.4949    5779.3623   -510.04424    471.86733   -148.00138   -2849.4956 
25202000    249.89648   -3906.2283   -3477.9143   -3906.2283            0    6343.5348    17.136203    20.184184    20.906128    7231.0175    6174.3178    6051.4305     6804.856    1155.8417   -361.14592    120.38987   -2808.9443 
25203000    229.08731   -3900.2414   -3507.5936   -3900.2414            0     8708.982    17.073702    20.110565    20.829876    7152.1835    8156.8129    9521.7053    8448.4277   -56.249461    143.55852   -934.93158   -2599.1836 
25204000    242.84101   -3917.5738   -3501.3527   -3917.5738            0    6226.3375    17.089631    20.129328     20.84931    7172.2209    6417.2368    4096.1544    8165.6213    1173.2673   -1054.2447   -39.212052    -2850.081 
25205000    228.72643   -3908.5243   -3516.4951   -3908.5243            0     6081.799    17.115598    20.159913    20.880989    7204.9639    5882.7425    5167.4037    7195.2506    1135.0376    68.962764   -243.69867   -2877.4378 
25206000    246.83456   -3915.4304   -3492.3644   -3915.4304            0    8358.2569    17.020151     20.04749    20.764545    7085.0976    9700.1084    7088.7863     8285.876   -921.08907   -707.11368   -916.85167   -2628.7151 
25207000    245.09128    -3916.125   -3496.0469    -3916.125            0    7453.5007    17.069325     20.10541    20.824536    7146.6845    7166.6034    6979.3833    8214.5155   -931.06209   -780.68761    231.44468   -2719.1904 
25208000    249.69773   -3895.3051   -3467.3318   -3895.3051            0    7652.4599    17.069381    20.105476    20.824604    7146.7546    7983.1285    8087.6092     6886.642   -1715.0114   -445.44037   -944.74597   -2669.7305 
25209000    249.56991   -3918.0445   -3490.2902   -3918.0445            0    6490.0087    17.022786    20.050594     20.76776    7088.3889    6974.5525    5852.9228    6642.5507     1026.596    80.160964    98.941829   -2819.3734 
25210000    249.75788   -3896.4226   -3468.3461   -3896.4226            0    6930.9678    17.053975    20.087329    20.805809    7127.4211     5058.839    8066.5657    7667.4985    84.929068    867.15938   -517.54795   -2747.8989 
25211000    247.52326   -3929.2005   -3504.9541   -3929.2005            0    6268.1819    17.056317    20.090089    20.808667    7130.3589    5256.9903    6730.7633     6816.792   -719.29321    -1253.092   -305.67308   -2853.1323 
25212000     252.9979   -3926.1607   -3492.5309   -3926.1607            0     7846.072    17.044396    20.076048    20.794124    7115.4188    7488.5489    8014.2823    8035.3848   -641.92856   -289.93673    548.69979   -2678.3355 
25213000    254.58726    -3901.924   -3465.5702    -3901.924            0    6629.1641    17.090657    20.130536    20.850561    7173.5121    6785.1304     6394.881    6707.4807   -1693.8743   -1033.7933    533.84993   -2772.0382 
25214000    235.38777   -3886.3996    -3482.953   -3886.3996            0    6093.0242    17.057696    20.091712    20.810349    7132.0876    4275.1529    7416.9347    6586.9851   -1667.7941    226.72163   -302.79479    -2849.192 
25215000    240.54127   -3960.6225    -3548.343   -3960.6225            0    7556.4196    17.011832    20.037691    20.754395    7074.7129    7124.6841    7455.4988     8089.076    176.83648    1118.4753    145.44814   -2768.6911 
25216000     240.8092    -3927.511   -3514.7723    -3927.511            0     6199.651    17.056927    20.090807    20.809411    7131.1237    7745.9307    5129.1951    5723.8274    49.290301   -276.38815     -1054.51   -2870.0078 
25217000    240.85554   -3941.6982     -3528.88   -3941.6982            0    6936.2601    17.053706    20.087013    20.805482    7127.0848    6733.8791     8212.979    5861.9223    129.21893     771.4312   -180.80332   -2807.9167 
25218000    249.43139   -3911.1296   -3483.6127   -3911.1296            0    8263.7052    16.998089    20.021504    20.737629    7057.5818    9576.9435    7703.2706    7510.9014   -2148.5084    643.16755   -1017.8628   -2633.0495 
25219000    257.50678    -3923.379   -3482.0211    -3923.379            0    4874.1499      17.1382    20.186536    20.908564    7233.5454    5597.7091    3864.0468    5160.6936   -414.00316   -1415.4723    1141.5643   -2967.8284 
25220000    232.49269   -3925.9388   -3527.4543   -3925.9388            0    6684.9729    17.057437    20.091408    20.810033    7131.7632    8404.0915    4912.3163    6738.5109   -214.95663   -157.44754    188.51579    -2832.154 
25221000      251.788    -3929.403    -3497.847    -3929.403            0    7925.9133    17.037433    20.067846    20.785629     7106.702    9249.9423    8240.3529    6287.4447   -319.27625    200.50262   -820.35834   -2676.3739 
25222000      247.298   -3942.6183    -3518.758   -3942.6183            0    6830.4556    17.009686    20.035163    20.751777    7072.0363    8431.8179    5876.6554    6182.8935    339.31746    1672.5204   -697.56092   -2814.2758 
25223000    240.94656   -3939.8656   -3526.8914   -3939.8656            0    6813.3996    17.050986    20.083809    20.802163    7123.6742    8312.9256    4742.7184    7384.5548    474.15535    1685.8041   -336.90056   -2819.0372 
25224000    254.84465   -3942.4906   -3505.6956   -3942.4906            0    7583.6575     17.00428    20.028796    20.745182    7065.2954    9081.1295    6277.5747    7392.2684    1126.3723     203.1682   -325.39518   -2724.2748 
25225000    245.97035   -3922.1664   -3500.5816   -3922.1664            0    8003.2348    17.019063    20.046208    20.763217    7083.7388    7910.8258    9046.5705    7052.3081    134.33063     -1017.85    1382.6199   -2673.7749 
25226000    241.87543   -3909.9868   -3495.4206   -3909.9868            0    7939.0437    17.028343    20.057138    20.774538    7095.3322    5599.1835    10340.172    7877.7754   -817.72058   -770.74083   -462.13181   -2673.9031 
25227000     261.1299   -3895.2507   -3447.6829   -3895.2507            0    5734.3169    17.119052    20.163982    20.885203    7209.3269    6350.1134    5141.8903     5710.947   -128.89203     820.8964   -871.33729   -2844.7732 
25228000    253.72039   -3915.6272   -3480.7591   -3915.6272            0    7062.6991    17.121139     20.16644     20.88775    7211.9639    5202.1558    7786.1456    8199.7959    -1249.721   -156.78469   -532.96331   -2737.9108 
25229000    250.30609   -3913.0744   -3484.0584   -3913.0744            0    5219.3112    17.119479    20.164485    20.885725    7209.8669    5419.6619    5414.7728    4823.4988    51.371565    662.68701   -711.60635   -2935.2555 
25230000     257.9449   -3901.3106   -3459.2019   -3901.3106            0    6662.7197    17.086602     20.12576    20.845614    7168.4073    8203.5649    7952.6812    3831.9131   -222.96187    464.32682    667.59856   -2762.6554 
25231000    262.83154   -3908.4749   -3457.9906   -3908.4749            0    6724.7069    17.041646    20.072807    20.790768    7111.9742    8248.5605    5705.1556    6220.4048   -293.33339   -1391.1202   -530.28656   -2760.4983 
25232000    243.22005    -3898.764   -3481.8932    -3898.764            0    5265.7977    17.061315    20.095975    20.814764     7136.628    3959.1895    5970.2821    5867.9214   -261.60658   -318.92803   -678.06894   -2933.8268 
25233000    249.63849   -3929.1724   -3501.3005   -3929.1724            0    5791.1689    17.070029     20.10624    20.825396    7147.5693    4908.3409    6059.4313    6405.7346    619.84031    734.05755   -585.39342   -2897.6293 
25234000    259.15721   -3920.4731   -3476.2865   -3920.4731            0    8223.7341     17.01699    20.043767    20.760688    7081.1505    8933.1153    8912.1269    6825.9601    956.93832   -1653.3389   -426.38571   -2627.0107 
25235000    244.35393   -3948.8351   -3530.0208   -3948.8351            0    7790.8738    17.006946    20.031936    20.748434    7068.6188    8463.8963    8735.5544    6173.1708    751.43146   -242.39592   -1653.7796   -2726.8709 
25236000    249.97524   -3927.7434   -3499.2944   -3927.7434            0    7543.3265    17.019329    20.046522    20.763542    7084.0712    8495.2152    7255.5562    6879.2083    -1007.898   -300.97621   -113.53056   -2719.9638 
25237000    242.28628   -3937.1223   -3521.8519   -3937.1223            0    7272.2565    17.043136    20.074563    20.792586    7113.8401    7701.8313    5921.2079    8193.7303    1044.3544   -183.18165   -491.15377   -2767.3694 
25238000    261.05587   -3939.7928    -3492.352   -3939.7928            0    7927.6659    16.981273    20.001696    20.717113    7036.6557    8333.5711    7558.2582    7891.1683   -1212.6136    66.832611    1469.3498   -2678.7959 
25239000    243.36376   -3935.1571     -3518.04   -3935.1571            0    7189.7936    17.091268    20.131257    20.851308    7174.2826    5698.0749    9263.6247    6607.6812    700.83391    1613.8008    548.07077   -2765.7751 
25240000    254.72766   -3956.6361   -3520.0416   -3956.6361            0    6819.7621     17.07103    20.107419    20.826617    7148.8271    6320.2554    6082.9755    8056.0556   -1720.6168    1538.8564   -94.237004   -2809.0248 
25241000    246.34644   -3973.4295   -3551.2001   -3973.4295            0    6756.9502    17.040554    20.071522    20.789436    7110.6081    7124.0285    5928.6067    7218.2152    750.62527    2394.0958    -365.5462   -2850.4981 
25242000    245.63625   -3947.7342   -3526.7221   -3947.7342            0    6819.7485    17.036132    20.066314    20.784042    7105.0741    6609.7766    7433.5589    6415.9101    2126.8334   -321.94142    540.64584   -2820.0582 
25243000    264.05502   -3934.0193    -3481.438   -3934.0193            0    6935.4523    16.992916    20.015411    20.731318    7051.1402    7206.5973     6949.802    6649.9577    881.13145   -906.96467   -557.99367   -2768.2402 
25244000    259.83629   -3942.2054   -3496.8549   -3942.2054            0    8964.4568    16.951536    19.966671    20.680835     6999.754    9698.2373    8461.4591    8733.6739    1704.6283     1570.597   -117.28624   -2581.7252 
25245000    241.67698   -3913.2699   -3499.0438   -3913.2699            0    6550.9726    17.026668    20.055166    20.772495    7093.2393    5969.7292    7072.7526    6610.4362    885.11963    215.03441   -758.77514   -2821.3613 
25246000    249.66305    -3945.341    -3517.427    -3945.341            0    7657.3059    16.989705    20.011629    20.727401    7047.1439    7916.2846    7174.5485    7881.0847    182.89207   -101.46617   -322.64148   -2730.4446 
25247000    248.69199   -3937.3468   -3511.0973   -3937.3468            0    7822.0404    17.009265    20.034668    20.751264    7071.5116    8229.8877    7208.6413    8027.5922    1059.2251    808.82865    955.33772   -2704.4044 
25248000     257.0688   -3941.2282   -3500.6211   -3941.2282            0    6533.2973     17.11399     20.15802    20.879028    7202.9335    6788.2638    6168.2523    6643.3758   -652.17305    830.56661   -174.95447   -2814.3152 
25249000    249.49063   -3968.4809   -3540.8626   -3968.4809            0    7583.1509    17.059473    20.093806    20.812517    7134.3175    7769.2947    8723.1144    6257.0436    -1367.329   -713.77623    1524.3057   -2751.8607 
25250000    255.27546   -3918.4179   -3480.8845   -3918.4179            0    6170.6867    17.087683    20.127033    20.846933    7169.7682    5824.1101    6669.9692    6017.9809   -1470.3871    607.75164    1102.4073   -2835.6545 
Loop time of 458.692 on 64 procs for 250000 steps with 864 atoms

Performance: 94.181 ns/day, 0.255 hours/ns, 545.029 timesteps/s
99.2% CPU use with 64 MPI tasks x 1 OpenMP threads

MPI task timing breakdown:
Section |  min time  |  avg time  |  max time  |%varavg| %total
---------------------------------------------------------------
Pair    | 21.129     | 26.469     | 31.954     |  52.0 |  5.77
Bond    | 0.27339    | 0.2809     | 0.2894     |   0.8 |  0.06
Kspace  | 189.6      | 200.87     | 215.42     |  46.7 | 43.79
Neigh   | 4.3406     | 5.2871     | 7.1141     |  35.0 |  1.15
Comm    | 98.015     | 114.25     | 123.45     |  64.5 | 24.91
Output  | 1.2812     | 1.2822     | 1.2836     |   0.0 |  0.28
Modify  | 103.7      | 105.95     | 108.28     |  12.9 | 23.10
Other   |            | 4.297      |            |       |  0.94

Nlocal:        13.5000 ave          19 max           6 min
Histogram: 2 1 1 9 7 13 15 9 6 1
Nghost:        2206.78 ave        2231 max        2176 min
Histogram: 2 3 7 5 7 7 7 16 4 6
Neighs:        4302.91 ave        5967 max        1571 min
Histogram: 1 1 1 5 5 13 17 9 8 4

Total # of neighbors = 275386
Ave neighs/atom = 318.73380
Ave special neighs/atom = 2.0000000
Neighbor list builds = 12539
Dangerous builds = 0

unfix		3
unfix		2
unfix		1

write_data	data.final.${pid}
write_data	data.final.0
System init for write_data ...
PPPM initialization ...
  extracting TIP4P info from pair style
  using 12-bit tables for long-range coulomb (../kspace.cpp:340)
  G vector (1/distance) = 0.37371513
  grid = 24 24 24
  stencil order = 5
  estimated absolute RMS force accuracy = 0.0032239172
  estimated relative force accuracy = 9.7087309e-06
  using double precision FFTW3
  3d grid and FFT values/proc = 2535 216
Last active /omp style is kspace_style pppm/tip4p/omp
WARNING: Not all mixed pair coeffs generated from mixing. Use write_data with 'pair ij' option to store all pair coeffs. (../write_data.cpp:312)

write_restart   restart.lmp.${pid}
write_restart   restart.lmp.0
System init for write_restart ...
PPPM initialization ...
  extracting TIP4P info from pair style
  using 12-bit tables for long-range coulomb (../kspace.cpp:340)
  G vector (1/distance) = 0.37371513
  grid = 24 24 24
  stencil order = 5
  estimated absolute RMS force accuracy = 0.0032239172
  estimated relative force accuracy = 9.7087309e-06
  using double precision FFTW3
  3d grid and FFT values/proc = 2535 216
Last active /omp style is kspace_style pppm/tip4p/omp
Total wall time: 0:07:39
