LAMMPS (30 Jul 2021)
  using 1 OpenMP thread(s) per MPI task
package omp 0
using multi-threaded neighbor list subroutines
echo both

include		in.partitions
variable        pid world 0
include		in.temp
variable        temperature equal 237.19
variable	tempDamp equal 100.0
include		in.pressure
variable        pressure equal 1750.0
variable        pressureDamp equal 1000.0 # This is 1 ps
include		in.seed
variable        seed world 745823

units		real
atom_style	full
box tilt large
read_restart	restart.lmp.${pid}
read_restart	restart.lmp.0
Reading restart file ...
  restart file = 30 Jul 2021, LAMMPS = 30 Jul 2021
  restoring atom style full from restart
  triclinic box = (-10.854748 -9.3161954 0.034463229) to (12.834748 12.306193 21.825536) with tilt (-9.2857746 2.4995772 2.8263772)
  4 by 4 by 4 MPI processor grid
  restoring pair style lj/cut/tip4p/long/omp from restart
  restoring bond style harmonic/omp from restart
  restoring angle style harmonic/omp from restart
  1296 atoms
  864 bonds
  432 angles
Finding 1-2 1-3 1-4 neighbors ...
  special bond factors lj:    0        0        0       
  special bond factors coul:  0        0        0       
     2 = max # of 1-2 neighbors
     1 = max # of 1-3 neighbors
     1 = max # of 1-4 neighbors
     2 = max # of special neighbors
  special bonds CPU = 0.265 seconds
  read_restart CPU = 0.370 seconds
include 	in.setup
variable	out_freq equal 1000
variable	out_freq2 equal 10000
variable	out_freq3 equal 1000

timestep	2.0

neigh_modify    delay 7 every 1

include		in.tip4p
# This is TIP4P/Ice

# create groups ###
group ox type 2
432 atoms in group ox
group hy type 1
864 atoms in group hy

# set charges - beside manually ###
set group ox charge -1.1794
Setting atom values ...
  432 settings made for charge
set group hy charge 0.5897
Setting atom values ...
  864 settings made for charge

# ### TIP3P Potential Parameters ###
pair_style lj/cut/tip4p/long/omp 2 1 1 1 0.1577 8.5
pair_coeff 1 1*2 0.000 0.000
pair_coeff 2 2 0.21084 3.1668
bond_style  harmonic
bond_coeff  1 450 0.9572
angle_style harmonic
angle_coeff 1 55 104.52
kspace_style pppm/tip4p/omp 1.0e-5
pair_modify tail yes

thermo          ${out_freq}
thermo          1000
thermo_style    custom step temp pe etotal epair emol press lx ly lz vol pxx pyy pzz pxy pxz pyz enthalpy

restart 	${out_freq3} restart.lmp.${pid} restart2.lmp.${pid}
restart 	1000 restart.lmp.${pid} restart2.lmp.${pid}
restart 	1000 restart.lmp.0 restart2.lmp.${pid}
restart 	1000 restart.lmp.0 restart2.lmp.0


include         in.dump
dump            myDump all atom ${out_freq2} dump.water.${pid}
dump            myDump all atom 10000 dump.water.${pid}
dump            myDump all atom 10000 dump.water.0
dump            myDump2 all dcd ${out_freq2} dump.dcd
dump            myDump2 all dcd 10000 dump.dcd
dump_modify     myDump append yes
dump_modify     myDump2 append yes


variable natoms 	equal  "count(all)"                        # NUMBER ATOMS
variable H      	equal  "enthalpy/v_natoms"                 # ENTHALPY-per-atom
variable Vol      	equal  "vol/v_natoms"                 # volume-per-atom
fix AVG all 		ave/time ${out_freq} 1 ${out_freq} v_Vol v_H file vol_enthalpy.dat
fix AVG all 		ave/time 1000 1 ${out_freq} v_Vol v_H file vol_enthalpy.dat
fix AVG all 		ave/time 1000 1 1000 v_Vol v_H file vol_enthalpy.dat


timer           timeout 10:00:00 every 1000
New timer settings: style=normal  mode=nosync  timeout=10:00:00

fix 		1 all shake 1e-6 200 0 b 1 a 1
       0 = # of size 2 clusters
       0 = # of size 3 clusters
       0 = # of size 4 clusters
     432 = # of frozen angles
  find clusters CPU = 0.345 seconds
fix             2 all nph tri ${pressure} ${pressure} ${pressureDamp}
fix             2 all nph tri 1750 ${pressure} ${pressureDamp}
fix             2 all nph tri 1750 1750 ${pressureDamp}
fix             2 all nph tri 1750 1750 1000
fix             3 all temp/csvr ${temperature} ${temperature} ${tempDamp} ${seed}
fix             3 all temp/csvr 237.19 ${temperature} ${tempDamp} ${seed}
fix             3 all temp/csvr 237.19 237.19 ${tempDamp} ${seed}
fix             3 all temp/csvr 237.19 237.19 100 ${seed}
fix             3 all temp/csvr 237.19 237.19 100 745823


run             250000
PPPM initialization ...
  extracting TIP4P info from pair style
  using 12-bit tables for long-range coulomb (../kspace.cpp:340)
  G vector (1/distance) = 0.3768683
  grid = 30 40 36
  stencil order = 5
  estimated absolute RMS force accuracy = 0.0026620043
  estimated relative force accuracy = 8.016547e-06
  using double precision FFTW3
  3d grid and FFT values/proc = 5472 750
Last active /omp style is kspace_style pppm/tip4p/omp
Neighbor list info ...
  update every 1 steps, delay 7 steps, check yes
  max neighbors/atom: 2000, page size: 100000
  master list distance cutoff = 10.8154
  ghost atom cutoff = 10.8154
  binsize = 5.4077, bins = 7 5 5
  1 neighbor lists, perpetual/occasional/extra = 1 0 0
  (1) pair lj/cut/tip4p/long/omp, perpetual
      attributes: half, newton on, omp
      pair build: half/bin/newton/tri/omp
      stencil: half/bin/3d/tri
      bin: standard
Per MPI rank memory allocation (min/avg/max) = 9.445 | 9.458 | 9.467 Mbytes
Step Temp PotEng TotEng E_pair E_mol Press Lx Ly Lz Volume Pxx Pyy Pzz Pxy Pxz Pyz Enthalpy 
 3250000    243.40619   -6312.5262   -5686.3786   -6312.5262            0     970.4048    23.689497    21.622389    21.791073      11161.9    69.197777    856.28392    1985.7327    485.16712   -1797.9565    1106.3156   -5528.4114 
 3251000    239.04835   -6353.1088   -5738.1715   -6353.1088            0    1466.2652     23.32046    21.681184    21.974733    11110.759    1911.0881    888.84592    1598.8615    210.54652   -1392.7071   -256.70423   -5500.5793 
 3252000    245.41931    -6362.742   -5731.4158    -6362.742            0    2103.9185    23.547107    21.497165    21.846363    11058.543    1876.4786     1652.597      2782.68    624.73767   -658.78377   -118.04607   -5392.1011 
 3253000    229.70365   -6324.7234   -5733.8248   -6324.7234            0    1973.9727    23.528296    21.733923    21.722432     11108.03    1915.8806    1233.8021    2772.2352     957.8682    659.55446    194.51947   -5414.0427 
 3254000     237.6482   -6379.4398   -5768.1043   -6379.4398            0    432.23101    23.565989    21.497334    22.057598     11174.51    1040.0315    252.20058    4.4609924   -265.48126    3.0245987    184.91717   -5697.6641 
 3255000    233.79522    -6345.675   -5744.2511    -6345.675            0    1393.3613    23.277611      21.5998    22.101313    11112.358    3210.2093    724.87416    245.00037   -645.40579   -930.64556    278.25085   -5518.4397 
 3256000    237.23937   -6325.5822   -5715.2984   -6325.5822            0    1917.7287     23.56938    21.662483    21.816157    11138.703    1803.0934    2816.7059    1133.3867   -461.08629   -946.96078    112.50865   -5403.7699 
 3257000    231.13293   -6342.7286   -5748.1532   -6342.7286            0      2310.67    23.509794    21.575094    21.773678    11044.176     2122.733    2382.0116    2427.2654    551.35149    659.19799     680.7716   -5375.9783 
 3258000    241.20865   -6347.1901   -5726.6955   -6347.1901            0    1637.6424    23.367984    21.508396    22.115223    11115.285    1134.8761     2240.348     1537.703    1261.9949    736.81581    67.194094   -5461.2255 
 3259000    238.87535   -6310.3825   -5695.8902   -6310.3825            0    951.23349    23.441776    21.651596    21.997154    11164.697    711.98287    1121.0471    1020.6705   -818.95945    861.31869   -878.91705    -5541.005 
 3260000    240.84057   -6341.1935   -5721.6458   -6341.1935            0    1345.4894    23.648322     21.53392    21.825415    11114.398    648.56562    1710.1743    1677.7282   -1154.3361   -48.125031   -667.15323   -5503.5526 
 3261000    236.76212   -6348.0401    -5738.984   -6348.0401            0    1748.4044    23.425451    21.672911    21.907948    11122.615    1645.9728    1064.9744     2534.266   -790.84736    273.08314    56.813956   -5455.3719 
 3262000    250.28634   -6343.5757   -5699.7293   -6343.5757            0    1469.0579    23.549765    21.489072    21.964871      11115.6    681.04179    1973.3272    1752.8048   -437.75941    -469.2675   -215.21259   -5461.5809 
 3263000    238.71218     -6321.73   -5707.6575     -6321.73            0    2920.0908    23.210464    21.685292    21.933538    11039.713    2847.5742    2540.3279    3372.3703    63.084334    1517.7636    1257.4762   -5237.5145 
 3264000    232.40117   -6361.0721   -5763.2343   -6361.0721            0    1151.9881    23.665771    21.535546    21.825511    11123.487    476.20909    1483.1989    1496.5564     1096.256    457.78815   -638.25669   -5576.3534 
 3265000    243.45878   -6358.2834   -5732.0005   -6358.2834            0    991.62934    23.547561    21.764889    21.737813    11140.848   -62.792872    194.95849    2842.7224    1116.2822    97.336695   -458.54691   -5570.8827 
 3266000    234.91771   -6340.8441   -5736.5326   -6340.8441            0    2405.9082    23.441464    21.499828    22.025859    11100.756    3146.5105    994.92659    3076.2875     422.6982   -1247.4188    534.93923   -5347.0326 
 3267000    242.65789   -6358.0019   -5733.7792   -6358.0019            0    3016.7904    23.481018    21.475166     21.87103    11028.658    2754.1539    3384.8846    2911.3328     693.2834   -929.84212     560.9894   -5248.5536 
 3268000    231.09199   -6360.2373   -5765.7673   -6360.2373            0    1421.3746    23.511051    21.739286    21.750693    11117.072   -249.09678    1661.8852    2851.3354    998.18703    767.84654   -251.52013   -5535.3182 
 3269000    231.53359   -6339.0122   -5743.4061   -6339.0122            0    2384.0301    23.592917     21.55085     21.86532    11117.365    2339.8848    2574.4058    2237.7996   -553.75833    389.21712   -633.54264   -5356.8705 
 3270000     223.9348   -6326.0412   -5749.9826   -6326.0412            0    1957.6771    23.397459    21.595047     21.96819     11099.85    2867.6218    1724.2217    1281.1877    79.379959   -578.66584   -297.89611   -5433.0739 
 3271000    232.40365   -6367.9384   -5770.0942   -6367.9384            0    712.10048    23.427627    21.490063    22.066208    11109.479    487.87817    1140.3959    508.02742    78.655626    351.44359   -621.86802   -5654.7194 
 3272000    235.76655   -6335.9458   -5729.4507   -6335.9458            0    524.82334    23.487256    21.676431    21.993188    11197.169    639.30242     167.4441    767.72349    1073.7865     464.0314   -196.00573   -5643.7475 
 3273000    239.98574   -6369.0488   -5751.7001   -6369.0488            0    1787.9426    23.465895    21.560431    21.936974    11098.679    1647.2993    1603.3141    2113.2144   -943.39562    201.81738   -364.82737   -5462.2987 
 3274000    257.76343   -6333.0862   -5670.0055   -6333.0862            0    1281.8219      23.4356    21.726513    21.880692    11141.077    1038.3787    327.49938    2479.5875   -870.62863    13.129015    1091.9111   -5461.7336 
 3275000    243.70583   -6329.1602   -5702.2418   -6329.1602            0    2804.7819    23.581269    21.502885    21.792028    11049.982    2763.5607    2928.3164    2722.4688   -473.98774   -144.53735    740.61539   -5250.2438 
 3276000     243.3013   -6324.8336   -5698.9559   -6324.8336            0    1184.3206     23.34746    21.672982    22.050744    11157.876    2373.1277    1120.4607    59.373226    1294.8577   -1285.8077   -219.58376   -5506.2359 
 3277000    232.99162   -6313.3114   -5713.9546   -6313.3114            0    1975.0244    23.538278     21.51038    21.969703    11123.641    2257.1642    1702.9557    1964.9533    1063.8494   -981.16908   -316.00013   -5393.5526 
 3278000    233.22101   -6365.0869   -5765.1401   -6365.0869            0    2187.2709    23.539746    21.645732    21.725183    11069.742    2716.7647    1187.3098    2657.7381    88.489266   -1358.0722   -285.22112   -5412.0253 
 3279000    239.51504   -6372.3639   -5756.2261   -6372.3639            0    92.773752    23.572599    21.628002    21.909998    11170.336   -929.86496    814.79397    393.39225    1414.5148    213.40013    631.09613   -5741.1125 
 3280000    248.73999   -6335.5655    -5695.697   -6335.5655            0    1007.0286    23.357237    21.595243    22.130133    11162.554    1111.4364    1937.8867   -28.237457    131.79593   -487.39876   -885.29282   -5531.7584 
 3281000    238.30427   -6318.3904   -5705.3672   -6318.3904            0    1419.2421    23.559529    21.581585    21.943112    11157.019   -211.92081    3214.9006    1254.7464   -105.59389    685.26136   -625.96339   -5474.4371 
 3282000    245.94867   -6353.0583   -5720.3704   -6353.0583            0    1291.5003    23.553371    21.569553    21.862835      11107.1    1447.9533    595.35418    1831.1935   -448.56603    309.76106    596.75676   -5511.1658 
 3283000    239.89712   -6350.8319   -5733.7111   -6350.8319            0    1352.5897    23.467655    21.555603    21.928511    11092.744     369.0961    1652.4742    2036.1989    688.49128    1216.1487    421.98062   -5514.8942 
 3284000    237.41032   -6364.9909   -5754.2674   -6364.9909            0    347.79367    23.509484    21.608595    22.022841    11187.755     622.3308    401.31086    19.739342   -160.99847   -154.46094   -948.99431   -5697.5207 
 3285000    232.82316    -6365.686   -5766.7626    -6365.686            0    2347.7294    23.327526    21.491728    22.023177    11041.295    2598.0389    3175.2067    1269.9426    51.755873   -84.059163    -1209.516   -5388.7172 
 3286000    236.78246   -6365.1175    -5756.009   -6365.1175            0    3216.2821    23.336535    21.497177    21.948239    11010.765    3974.0699    3333.2058    2341.5705    520.14089   -661.64167   -254.72394   -5239.5362 
 3287000    238.00986   -6340.1401   -5727.8743   -6340.1401            0    2274.0408    23.522342    21.615953     21.71549    11041.411    3203.4937      1237.78    2380.8487   -658.62049   -159.78764   -1273.6293   -5361.6908 
 3288000     244.6368   -6361.7706   -5732.4573   -6361.7706            0    922.03249    23.509297    21.549397    21.982735    11136.699    1049.1019    1161.1653    555.83025   -602.34074    636.15373   -634.89864   -5582.7033 
 3289000    239.55178   -6347.0228   -5730.7904   -6347.0228            0    1053.3594    23.494668    21.729851    21.850504    11155.461    827.63552    875.66293    1456.7797    572.45246   -331.00643    95.913052   -5559.4184 
 3290000    241.81299    -6367.854   -5745.8048    -6367.854            0    1177.8541    23.474791    21.476947    22.056606     11120.21    1877.3354    1813.1682   -156.94126   -325.34475    1063.8029   -92.634522   -5554.7842 
 3291000    233.76718   -6353.5491   -5752.1973   -6353.5491            0    1343.5439    23.405505    21.573316    22.036755    11127.115    1808.9147     1628.757    592.96003   -1217.1101    58.646896   -196.90133   -5534.1703 
 3292000    241.65475   -6370.5771    -5748.935   -6370.5771            0      2145.56     23.47034    21.523148    21.872604    11049.068    2442.4583    2838.8794    1155.3423    119.48774    307.30264   -412.96028   -5403.2009 
 3293000    245.65186   -6350.8909   -5718.9665   -6350.8909            0     1852.095    23.371279    21.532467    22.039924      11091.4    2503.1527    1164.3736    1888.7588   -1845.3976    429.34379   -558.13908   -5419.3777 
 3294000    238.26367   -6339.0821   -5726.1633   -6339.0821            0     2737.768    23.424118    21.593608    21.868476    11061.321    1119.0372    3004.5133    4089.7536    299.74827    363.89877   -80.759568    -5284.512 
 3295000    225.19835    -6383.903    -5804.594    -6383.903            0    1301.7615    23.576591     21.58357    21.747432     11066.55    1374.1599    1127.7939    1403.3308    491.57695    1507.0192    621.39665   -5594.4971 
 3296000    236.21663   -6337.1726   -5729.5198   -6337.1726            0    1674.0313    23.477861    21.552299    21.935135     11099.22    1811.2036     2245.956     964.9342    12.387535      -241.81   -314.76314   -5458.5431 
 3297000    241.50538     -6380.82   -5759.5621     -6380.82            0    2330.7615    23.381286    21.622778    21.924236      11084.2    3953.8416    1812.0835    1226.3594    636.17358   -1323.3245    -636.2605   -5382.7906 
 3298000    235.84816   -6320.4541   -5713.7491   -6320.4541            0    3425.9015    23.528544     21.52508    21.742946    11011.797    3919.6304    3027.4511    3330.6231    639.18636   -1644.3771    -382.0293   -5163.5638 
 3299000    244.81998     -6342.05   -5712.2655     -6342.05            0    2381.2499      23.4687    21.689797    21.643462      11017.2      2508.41    1617.6542    3017.6855    754.68669   -370.71154    151.95334   -5329.6592 
 3300000     240.0691   -6342.9429   -5725.3798   -6342.9429            0    3396.1386    23.409913    21.418668    21.979766    11020.856    3675.4779    4009.6387    2503.2992    608.69381    376.39922    1050.2517   -5179.5256 
 3301000    238.23311   -6320.2526   -5707.4124   -6320.2526            0    1749.6969    23.387399    21.515352    22.104931    11122.938    1558.2586    2104.9326    1585.8994    694.84617    -44.57595    168.39813   -5423.5825 
 3302000    234.59835     -6370.14     -5766.65     -6370.14            0    523.12783    23.480268    21.655092    21.904691     11137.82     598.3548    620.92223    350.10646   -199.25566    -790.8369   -448.63483   -5681.6764 
 3303000    243.54039   -6386.2109    -5759.718   -6386.2109            0    2416.1987    23.548175    21.628179    21.682867    11043.174    1708.4118     2831.771    2708.4132    638.27915    -411.1111    47.353699   -5370.5811 
 3304000    236.44466   -6319.3312   -5711.0917   -6319.3312            0    1393.9275    23.651268     21.63423    21.771328    11139.887    1008.9188    588.65286    2584.2107    60.620189   -60.172653    385.79617   -5484.6289 
 3305000    243.80785   -6346.2168   -5719.0359   -6346.2168            0    3055.0207    23.164181    21.533796    22.134793    11041.117    4462.3619    3772.6628    930.03751   -206.42633    866.59869   -352.80094   -5227.1062 
 3306000    242.27559   -6320.6558   -5697.4166   -6320.6558            0    1629.2521    23.522289    21.504832    21.958212    11107.405    2325.1717    2058.8071    503.77754    337.04348   -712.55151   -284.06802   -5433.4939 
 3307000    228.30679    -6322.644   -5735.3387    -6322.644            0    3155.4577    23.319103    21.663821    21.853612    11040.027    3451.0897    2853.5128    3161.7706   -511.24109    94.093834    -968.4209   -5227.2865 
 3308000    241.41356   -6357.3671   -5736.3454   -6357.3671            0    2378.6512    23.618725    21.437552    21.808466    11042.229    877.99604    2610.4411    3647.5164   -157.28385     1404.343    1223.0903   -5353.2884 
 3309000     236.7291   -6339.1867   -5730.2155   -6339.1867            0    1459.2435     23.41536    21.617512    21.959803    11115.653    1321.9092    817.57802    2238.2432   -878.62477    758.65191    887.83492    -5493.657 
 3310000    226.76662   -6353.5223    -5770.179   -6353.5223            0    463.33003    23.652567    21.508653     21.93478    11158.987   -92.692842    613.06541    869.61752    -391.9799    605.78638     352.0455   -5694.7756 
 3311000    239.13807   -6355.2773   -5740.1092   -6355.2773            0    2403.0141    23.294865    21.832267    21.748282    11060.735     3168.311    1611.2074    2429.5238     244.6722   -2082.9359   -1395.3893   -5352.4803 
 3312000    247.51229    -6359.787   -5723.0767    -6359.787            0    1780.9355    23.594229    21.441011    21.966082    11112.292    1837.9022    1789.3288    1715.5755     647.2301   -257.66525    166.00632   -5434.4558 
 3313000    243.31367   -6312.2382   -5686.3286   -6312.2382            0    1549.9251    23.381144     21.78747    21.886479    11149.322    2557.9155   -182.87418     2274.734    372.52914   -809.69744    781.78813   -5434.3086 
 3314000     238.8613   -6362.8141   -5748.3579   -6362.8141            0     776.5415     23.72762    21.302702    22.021008    11130.792    -293.4925    2147.9504    475.16656     1269.473   -1185.1545    -289.9744    -5622.301 
 3315000    233.61106   -6389.1691   -5788.2189   -6389.1691            0    1101.4774     23.34191    21.768821    21.872483    11113.974    1541.0619    89.052766    1674.3176    575.80655   -667.37813   -56.022077   -5609.6849 
 3316000    238.22332   -6319.5848   -5706.7698   -6319.5848            0    1888.6518    23.614184    21.489438    21.928457    11127.717    1761.8894    1479.6064    2424.4596    637.30277   -1176.7623   -228.83081   -5400.2674 
 3317000    236.65725   -6385.9782   -5777.1918   -6385.9782            0    2244.3357    23.331619    21.716627     21.80639     11048.95    2196.6545    1670.2613    2866.0913    179.57779    1018.9532   -156.88467   -5415.5449 
 3318000    235.63176   -6364.8409   -5758.6926   -6364.8409            0    2040.4012    23.817605    21.411069    21.746154    11089.676   -157.78871     3212.987    3066.0054    420.75539   -187.91749    882.50006   -5428.6953 
 3319000    219.29046   -6348.5743   -5784.4629   -6348.5743            0    1756.4967     23.31778    21.691004     21.90406    11078.768    1676.6219    1813.1009    1779.7674    736.03331   -526.97652   -828.56041   -5500.6614 
 3320000    228.96998   -6330.4002   -5741.3889   -6330.4002            0    1143.0733    23.523421    21.483686    22.033373    11135.001   -109.14948    3133.2371    405.13218   -375.65669    642.77128   -291.97555   -5555.7623 
 3321000    233.56015   -6329.4106   -5728.5914   -6329.4106            0    215.72643    23.479319    21.716509    21.908574    11170.938   -160.52583   -744.92241    1552.6275   -1245.0889   -84.857761    724.31492   -5693.4459 
 3322000    244.69092    -6303.972   -5674.5195    -6303.972            0    1434.5796    23.645853    21.570129    21.883417    11161.508    983.76808    1400.2532    1919.7177   -1527.9871    1341.8968    814.44119   -5440.9999 
 3323000     240.8846   -6389.6569   -5769.9959   -6389.6569            0    3601.3002     23.33847    21.617653     21.79718    10997.178    4571.6534    3523.2121    2709.0351   -862.69806    495.96551   -817.65826   -5192.4102 
 3324000    239.61877   -6358.5397    -5742.135   -6358.5397            0    2901.1217    23.343394    21.516677    22.007744    11053.879    2743.0494     3557.106    2403.2097    283.79472   -244.56366     468.2428   -5274.4466 
 3325000    240.87069   -6357.7533   -5738.1281   -6357.7533            0    1723.1053    23.559313     21.39906    22.033797    11108.276     2255.169    2625.9667    288.18028    955.21883   -373.06538    334.51885   -5458.9802 
 3326000    241.46642   -6352.2557   -5731.0981   -6352.2557            0    1486.2521    23.496424    21.732879    21.697027    11079.477    582.36192    816.46452    3059.9299   -367.25823    616.88923    509.60669   -5490.9453 
 3327000    228.14029   -6346.2049   -5759.3279   -6346.2049            0    2265.4367    23.607067    21.615379    21.780383        11114    1987.1923    1996.3992    2812.7185   -81.077384    626.84566    344.60149   -5392.1317 
 3328000    246.21888   -6326.7064   -5693.3233   -6326.7064            0    2234.3521    23.337419    21.572848    22.073735    11113.123    2909.2826    2838.2507    955.52313   -283.43656   -875.04713   -737.59406    -5331.194 
 3329000    237.49953   -6368.7384   -5757.7854   -6368.7384            0    3493.1803    23.349189    21.402844    22.028282    11008.393    4499.3446    3996.9081    1983.2881   -324.50147   -965.70492     -329.072   -5196.9688 
 3330000    242.34344   -6325.6915   -5702.2778   -6325.6915            0     1268.823    23.563284    21.670165    21.772043    11117.246   -166.90555    1129.5563    2843.8182    707.24112    1258.8943    520.29076   -5496.5589 
 3331000    236.29002   -6360.7696    -5752.928   -6360.7696            0    2734.1326    23.393091    21.671435    21.794013    11048.733    1907.2113     2917.572    3377.6144     456.7662    2230.9104   -682.58869   -5312.3651 
 3332000    235.40332   -6358.9571   -5753.3964   -6358.9571            0    2746.0506     23.47665    21.423002     21.99063    11059.975    1704.9758    5413.4295    1119.7467     783.9964    613.70392    -460.5189   -5310.4628 
 3333000    239.82161   -6352.9343   -5736.0079   -6352.9343            0    2409.2003    23.262056    21.629388    21.972958    11055.563    2424.8194    2555.0884    2247.6933    1353.7891   -563.77551    700.93942   -5347.5628 
 3334000    243.07303   -6311.1961   -5685.9055   -6311.1961            0     373.3029    23.710893     21.60656    21.859844    11199.035   -29.367155    760.16798    389.10788    34.480442    311.92353    233.63618   -5624.9353 
 3335000    237.44693    -6366.276   -5755.4583    -6366.276            0    1413.2688    23.419186    21.601906    21.952364     11105.68    2269.2266    1671.0337    299.54622    -590.9184   -234.12915   -592.68867   -5526.5582 
 3336000    240.64099   -6370.5887   -5751.5544   -6370.5887            0    2322.6335    23.239954    21.484205    22.127334        11048    3274.0331    3295.5239    398.34338    -32.63197   -1384.5096   -370.91451    -5377.323 
 3337000     235.0127   -6375.0978   -5770.5419   -6375.0978            0    1841.4034    23.548463    21.482206    21.783504    11019.685    1223.6094    2280.0115    2020.5892    995.20858   -81.425622   -669.44145   -5474.6085 
 3338000    231.81664   -6321.6012    -5725.267   -6321.6012            0    1663.5764    23.454362    21.774151    21.798687    11132.563    693.70244    1219.8622    3077.1647    73.342171   -472.05936   -530.57131   -5455.1737 
 3339000    232.78898   -6383.3476   -5784.5121   -6383.3476            0    1678.5477    23.392366    21.518128    22.028378    11088.203     2054.277     1520.898    1460.4682    585.39065   -392.11365    134.33989    -5513.074 
 3340000    231.74022   -6354.1106   -5757.9731   -6354.1106            0    2406.1101    23.470669     21.55949    21.805245    11033.795    1814.0344    2824.5579     2579.738    496.22425    310.76131    1132.1557     -5370.79 
 3341000    228.71571   -6353.1737   -5764.8164   -6353.1737            0    2063.1146    23.516029    21.574112    21.862469    11091.649    2759.0184    1193.0299    2237.2956   -431.17666    174.77463    801.02668   -5431.0864 
 3342000    239.37471   -6354.6936   -5738.9168   -6354.6936            0    2082.4159    23.386256    21.573131    22.000463    11099.558    3532.8432    654.55324    2059.8512    7.1179025    452.41889   -1040.4591   -5401.8243 
 3343000    230.10642   -6325.1765   -5733.2418   -6325.1765            0    2298.8367    23.541215    21.622528    21.802283    11097.811    1848.3651    2311.7863    2736.3588   -404.61968    677.57262   -98.389045   -5361.1746 
 3344000    233.67181   -6328.8543   -5727.7478   -6328.8543            0    1708.7215    23.527247    21.599157    21.766179    11060.891    1427.9239    564.86251    3133.3781   -153.64963   -504.11935    2392.3011    -5452.111 
 3345000     233.1104   -6386.6377   -5786.9754   -6386.6377            0    1771.8814    23.397661     21.56463    21.925424    11062.733    2774.3342    948.84711     1592.463   -358.41827   -905.66929    303.20929   -5501.1025 
 3346000    241.42474   -6335.3509   -5714.3004   -6335.3509            0    2444.2338    23.335305    21.581047    22.038266    11098.478    4266.1284    2324.6352    741.93781   -313.58383   -284.39959   -1038.5017   -5318.6769 
 3347000    234.52837    -6353.341   -5750.0311    -6353.341            0    2265.0347    23.411674    21.522764    21.957777    11064.171    2471.4976    2117.0906     2206.516    1315.6603   -568.81964   -395.26923    -5384.546 
 3348000    228.68827   -6372.0631   -5783.7764   -6372.0631            0    1448.3394    23.523728    21.549596    21.881972    11092.559    1335.7765    1788.5998    1220.6419    145.47805    812.47875    300.16279   -5549.4734 
 3349000    237.33674     -6343.93   -5733.3957     -6343.93            0    1735.5384    23.499203    21.614823     21.88417    11115.651    1722.3563    2072.8678    1411.3911    1544.4352    -628.3954    -325.1956    -5452.047 
 3350000    240.41335   -6380.6293   -5762.1806   -6380.6293            0    1829.4478    23.537484    21.500422    21.839061    11052.003    1063.3755    1743.1881    2681.7797     1111.678   -910.51051    222.41958   -5467.3063 
 3351000    233.77186   -6366.9992   -5765.6353   -6366.9992            0    2009.2146    23.326457    21.687602    21.852266     11054.95    1927.6308    1271.3559    2828.6572    160.98165   -190.75102    411.57129   -5441.6995 
 3352000    236.79022   -6349.6558   -5740.5274   -6349.6558            0    1428.9169    23.583626    21.543735    21.902701    11128.311    2339.3665    1345.5967    601.78734    261.37717   -695.14681    442.83309   -5508.6213 
 3353000    241.81273   -6332.2501   -5710.2016   -6332.2501            0    942.88175    23.418722    21.615839    21.975735    11124.454    793.68423    658.35496     1376.606    212.85963   -196.47237    1885.4382   -5557.2296 
 3354000    242.17431   -6360.6882   -5737.7096   -6360.6882            0    1425.7815    23.439488    21.475527    22.146396     11147.95    2589.0835    801.04542    887.21547   -682.03104   -1055.1821    161.48471    -5505.904 
 3355000    243.58239   -6344.9232   -5718.3224   -6344.9232            0    1962.8517    23.435826    21.631211    21.840779    11072.081     2448.953    1434.9476    2004.6545   -374.16662    651.81003   -1465.7064    -5401.371 
 3356000    232.41526   -6355.0163   -5757.1423   -6355.0163            0    2395.1864    23.544027    21.522387    21.807849    11050.553    160.85266    3137.0711    3887.6355   -173.19238     519.2086   -182.94102   -5371.1317 
 3357000    233.46467   -6348.6652   -5748.0916   -6348.6652            0    2147.8827    23.443675    21.587831    21.895452    11081.246    2624.6311    2342.7503    1476.2667   -1210.2514    1001.2206    117.23624   -5400.9752 
 3358000    238.26934   -6356.0573    -5743.124   -6356.0573            0    1284.4704    23.499017    21.604124     21.90619     11121.24    405.57478    2189.9492    1257.8873    656.64003    315.98482    964.49252   -5534.7933 
 3359000    218.13506   -6315.1854   -5754.0462   -6315.1854            0    903.01234    23.544038    21.652349    21.937054    11183.153    390.24887    796.24976    1522.5384    -313.5099    -311.5295   -346.87869   -5606.7696 
 3360000    224.07298    -6335.259   -5758.8449    -6335.259            0    1110.9606    23.493936    21.644223    21.953027     11163.29    153.35723    2136.3596     1043.165     72.86362   -133.62998    -444.0406   -5577.9748 
 3361000    234.21666   -6339.9497   -5737.4416   -6339.9497            0    1162.4751    23.536394     21.64253    21.923006    11167.297    1971.0718    528.26154    988.09183   -298.82449   -479.47338   -740.85491   -5548.1167 
 3362000    240.13487   -6357.5956   -5739.8633   -6357.5956            0    2304.9771     23.53034    21.618715    21.709931    11043.749    1783.5738    1872.6234    3258.7343    1303.2835    167.67457    1318.4236   -5368.6196 
 3363000     245.7854   -6371.0235   -5738.7555   -6371.0235            0    2500.9536    23.429101     21.51552    21.899197    11039.151    3329.3561    1423.3981    2750.1065   -265.07131   -495.07827    141.77604   -5336.1152 
 3364000    246.10869   -6353.2243   -5720.1247   -6353.2243            0    2275.2285    23.289864    21.745495     21.76321    11021.969    2798.1048    897.08164    3130.4989    1005.6192    53.249148   -383.50261   -5354.3951 
 3365000    233.63145   -6323.0093   -5722.0067   -6323.0093            0    217.24754    23.707413    21.538501    21.866262    11165.397    900.84899   -294.02972     44.92336    152.88366    377.34093    385.85389    -5686.631 
 3366000    233.48392   -6382.6174   -5781.9942   -6382.6174            0    37.237191    23.415303    21.711351    21.935432    11151.488   -66.894586   -436.79836    615.40452   -465.07003    806.78831    635.51376   -5775.9382 
 3367000      227.886   -6392.8995   -5806.6767   -6392.8995            0    1475.8019    23.483649    21.452346    21.984704     11075.44    1969.4548    1382.2216    1075.7291   -534.49691    261.25774   -99.758099   -5568.2993 
 3368000    226.19896   -6351.8361   -5769.9531   -6351.8361            0    2844.2351    23.290483    21.644627    21.888696    11034.394    4152.9203    2849.1798    1530.6051   -1216.4617   -222.08731   -725.09588   -5312.2437 
 3369000    230.65729    -6340.435   -5747.0832    -6340.435            0    2816.1174    23.441635    21.520551    21.956663    11076.629      1775.94    3400.4867    3271.9255    854.96988   -718.26542   -25.595039    -5292.164 
 3370000    243.94709   -6377.2668   -5749.7278   -6377.2668            0    1104.2835    23.442774    21.532933    22.093626    11152.679    2090.5865    715.93852    506.32559    1004.6284    678.88073    134.26412   -5570.1156 
 3371000    230.59835   -6344.7148   -5751.5146   -6344.7148            0    1032.1245    23.433756    21.578474    21.967952    11108.418    1354.6903    871.25513    870.42808    161.70824    778.42158   -418.04175   -5584.3054 
 3372000    243.96363   -6332.0947   -5704.5131   -6332.0947            0    408.36053    23.692274    21.604502    21.831102    11174.463    -1557.596    751.31142    2031.3662    766.32374    444.59691    266.06988   -5637.9634 
 3373000     235.0095   -6360.6413   -5756.0937   -6360.6413            0    2074.6035    23.488912    21.575047    21.847549    11071.778    1925.8337    2111.8897     2186.087    233.48897    213.50689   -588.31436   -5421.1064 
 3374000    233.82259   -6330.6939   -5729.1996   -6330.6939            0    4476.0492    23.315633    21.403497    21.985851    10971.733    4416.5791     5758.015    3253.5536   -813.16022    442.73185    -1.069048   -5012.9803 
 3375000    238.19356   -6321.3418   -5708.6033   -6321.3418            0    3297.8469    23.481435    21.589487    21.790284    11046.631    4222.3648    2473.5188    3197.6572   -600.51084     -1234.18    120.87318   -5177.3077 
 3376000    247.43784   -6379.2888     -5742.77   -6379.2888            0    1093.9876    23.584812    21.549108    21.862228    11111.076    1123.2964    809.02137     1349.645   -95.786331   -433.29945    399.54564   -5565.4963 
 3377000     232.6837   -6342.0965   -5743.5318   -6342.0965            0    1011.2226    23.340929    21.665901    22.044424    11147.915     3470.988    44.063244   -481.38342    761.05551   -1688.1837   -569.86819   -5579.1263 
 3378000     239.1336   -6359.4021   -5744.2455   -6359.4021            0    494.86127    23.596249    21.489696    22.014675    11163.118   -5.3001633    685.12731    804.75666    1276.1727    449.76573    370.77181   -5663.6808 
 3379000    243.10378   -6324.3212   -5698.9515   -6324.3212            0    2270.3621     23.49743    21.805794    21.656287     11096.25    1151.6344    2223.6693    3435.7827    1297.8091    230.63473    -258.9371   -5331.5447 
 3380000    228.20974   -6376.0083   -5788.9527   -6376.0083            0    1171.9898     23.55474    21.565929    21.879634    11114.413    310.28928    2027.0695    1178.6105   -771.45475    680.83126   -501.66509   -5598.9821 
 3381000    232.80096   -6376.7627   -5777.8965   -6376.7627            0    1922.1506     23.30139    21.603913    21.989593    11069.588    2673.7756     1433.311    1659.3652   -51.518373   -207.72807   -356.47229   -5467.5872 
 3382000    237.27239   -6318.7685   -5708.3998   -6318.7685            0    1491.2677    23.510823    21.414073    22.089763    11121.367     1180.783    2633.2636    659.75641   -1289.2501    1748.9209    562.82708   -5466.5255 
 3383000    237.99654   -6340.5931   -5728.3615   -6340.5931            0    2019.6302    23.523549    21.723081    21.718884    11098.436    3350.8875     581.5233    2126.4798   -986.42063    37.996195    1041.0426   -5401.4656 
 3384000    223.48737   -6350.6038   -5775.6962   -6350.6038            0    2099.9113    23.579575    21.466777    21.820473    11045.032    1462.6251    2601.9183    2235.1905   -182.23496   -607.19901     129.3107   -5437.4415 
 3385000     237.2781   -6384.5015   -5774.1181   -6384.5015            0    2905.3636    23.300411    21.597263    21.937196    11039.348    4099.6679    1425.0063    3191.4166   -17.883215   -768.53641   -893.33919   -5306.3616 
 3386000    239.10293   -6331.4891   -5716.4114   -6331.4891            0    1330.8889    23.604942     21.47447    21.980406    11141.947    560.28892    2002.8043    1429.5734   -672.32864    395.52628   -605.19354   -5500.1501 
 3387000    241.98028   -6374.2802   -5751.8007   -6374.2802            0    1071.5808    23.493491     21.73602    21.685067    11073.588    784.05907    708.15779    1722.5255   -372.97762   -258.67646     136.9945   -5578.7437 
 3388000    238.60048   -6381.5258   -5767.7406   -6381.5258            0    3105.1021     23.53688    21.450462    21.825628    11019.256    2403.4111     4325.597    2586.2981   -269.55248   -426.27675    850.51152   -5268.7366 
 3389000    241.61129   -6368.9337   -5747.4034   -6368.9337            0    3079.8076    23.280521    21.566417    21.986519    11038.935    5322.3745    3123.7124     793.3359     391.8249   -1420.0774   -1345.7284   -5251.5804 
 3390000    242.23385     -6366.16   -5743.0282     -6366.16            0    584.72925    23.573744    21.558782    21.966559    11163.871   -3.1753561    1406.9773    350.38584    1310.2042    622.67758   -329.96465   -5647.8263 
 3391000    240.11548   -6379.8568   -5762.1743   -6379.8568            0    808.62452    23.562259    21.603461    21.897242    11146.273     789.6179    1150.7085    485.54714   -54.260217    366.63326   -642.45514   -5630.7268 
 3392000    241.38089   -6362.7575   -5741.8199   -6362.7575            0    2590.1501    23.422161    21.607978     21.89814     11082.77    1867.6064    3738.2948     2164.549   -138.31505      141.228   -56.307918   -5323.1718 
 3393000    236.43872    -6342.957   -5734.7328    -6342.957            0    1361.9743    23.384552    21.510726    22.083996    11108.663    1677.1005    2324.1785    84.643829    720.17274   -504.67405    386.98051   -5514.0814 
 3394000    224.84026   -6327.4755   -5749.0876   -6327.4755            0    2616.4381    23.463644    21.584774     21.88092    11081.755    3204.0763    1879.9983    2765.2397   -605.13659    325.96354    977.14747   -5326.2293 
 3395000    243.95825   -6328.7887    -5701.221   -6328.7887            0    2508.4689    23.539259    21.563232    21.862522    11097.034    2421.0456    3099.8247    2004.5363   -863.22056   -964.23885   -527.51881   -5295.2532 
 3396000     236.6077    -6360.347   -5751.6881    -6360.347            0    2627.9803    23.429461    21.547314    21.902756    11057.429    2530.3466    2798.2395    2555.3549    43.300733    786.38368    -175.9423   -5327.8967 
 3397000    231.34566   -6358.1932   -5763.0706   -6358.1932            0    1864.9557    23.484788    21.524944     21.93186    11086.748    1740.0414    3285.8145    569.01123    1250.3162   -106.84471    -1153.142   -5461.5281 
 3398000     230.2265   -6364.4936     -5772.25   -6364.4936            0     1462.291    23.495841    21.548863    21.860264    11068.041    1968.1647    1440.0529    978.65525   -322.93279    1050.4418    1269.1981   -5536.2128 
 3399000     240.2232   -6320.6049   -5702.6454   -6320.6049            0    1102.6812    23.505195    21.644474    21.902166    11142.893    1624.6997    302.96269    1380.3812   -1022.9592    1063.4922    325.48055   -5523.4513 
 3400000     237.7095   -6373.9339   -5762.4407   -6373.9339            0     1521.029    23.405083    21.611921     21.94662    11101.233     2481.564    774.82374    1306.6992   -1367.9678    -759.1255    296.19523   -5516.1859 
 3401000    237.22033   -6326.6261   -5716.3912   -6326.6261            0    1258.7254    23.574905    21.498283    21.932121    11115.637    1329.5562    857.58159    1589.0384   -23.286525    1104.7914   -188.79776   -5512.3391 
 3402000    229.68527    -6359.951   -5769.0997    -6359.951            0    1941.0256    23.496439    21.616332    21.778276    11061.335    2047.2062    1579.4145    2196.4561    103.14508   -751.34149   -110.88981   -5455.9769 
 3403000    240.94585   -6328.8546   -5709.0361   -6328.8546            0     1354.761    23.581373      21.5245     21.91902    11125.596    607.31476    2752.8538    704.11432   -197.93839   -905.94129    261.01862   -5489.2188 
 3404000    228.33258   -6322.3511   -5734.9795   -6322.3511            0    1872.0748    23.341686    21.692207    21.976225    11127.281    3442.0415    904.63035    1269.5524   -28.692055    -578.4696    511.54764   -5431.1792 
 3405000    231.04841   -6362.9401   -5768.5821   -6362.9401            0    1728.7486    23.440337    21.431659    22.056337    11080.339    4279.8484    391.39648    515.00086   -532.78884   -1278.5263   -223.41843   -5489.2244 
 3406000    235.12257   -6391.8805   -5787.0421   -6391.8805            0    1059.4371    23.438853    21.765236    21.721847    11081.447    899.17973    1495.5216    783.60986   -165.55239    444.19091    -245.5615   -5615.8248 
 3407000    231.81534   -6355.5817   -5759.2508   -6355.5817            0    868.26687    23.594908    21.556004    21.864065    11120.324    1601.4576      211.061    792.28197    496.59818    -1264.592    446.74002   -5618.4366 
 3408000    241.98739   -6383.5975   -5761.0997   -6383.5975            0    1395.6221     23.28911    21.679889    21.968839    11092.184    1581.3381    1339.4893    1266.0388   -112.83614    265.91856    161.12917   -5535.3325 
 3409000    241.37147   -6358.8137   -5737.9003   -6358.8137            0    3977.7705    23.392252    21.378711    22.007349    11005.792    3751.7655    4416.0387    3765.5073   -219.33401    683.15032    314.48535   -5099.4355 
 3410000    237.09003   -6357.2819   -5747.3822   -6357.2819            0    2229.3877    23.389731    21.726488    21.797615     11077.04    3515.7533    901.76977    2270.6402   -1273.3157   -116.59279   -257.33872   -5387.2307 
 3411000     231.0046   -6366.9819   -5772.7367   -6366.9819            0    1252.1944    23.554636    21.549133    21.937887    11135.276    1107.0308    1280.0341    1369.5184     448.9942   -168.94141   -200.23987   -5569.3846 
 3412000      245.951   -6373.0326   -5740.3387   -6373.0326            0    445.35664    23.460749    21.635146    22.030119    11181.976   -283.99946    1078.2329    541.83647   -38.616161    650.08426   -887.61516   -5667.7109 
 3413000    230.48195   -6344.0754   -5751.1746   -6344.0754            0     2440.671     23.43201     21.49976    21.992436    11079.406    2559.0845    2838.9024    1924.0261   -14.871841   -442.98447   -510.88531   -5356.8067 
 3414000    236.38448   -6371.6168   -5763.5321   -6371.6168            0    2091.8953    23.549558    21.598788    21.764998     11070.59    1495.2799    2050.8576    2729.5484   -920.10014   -1128.9538   -820.55595   -5425.7889 
 3415000    238.38281   -6358.7717   -5745.5464   -6358.7717            0    2856.5317    23.415596    21.617781    21.804574    11037.328     3857.066     2282.067     2430.462   -95.926681    -314.4818   -677.95014   -5285.7359 
 3416000    238.09071   -6330.1499    -5717.676   -6330.1499            0    3094.5819    23.395835    21.426077    22.008357     11032.37    3608.2556    4164.1622     1511.328    230.87735    457.12757    336.63967   -5219.7708 
 3417000    230.20212   -6343.8348   -5751.6539   -6343.8348            0    2430.3305    23.247043     21.60278    22.067481    11082.305    3741.3993    1632.6655    1916.9268    623.37658   -536.75577   -83.478541    -5358.854 
 3418000    237.08935   -6320.4379     -5710.54   -6320.4379            0    1519.4916     23.64772    21.576821    21.804494    11125.582    845.23763    2308.2749    1404.9623    200.43642   -45.408802    288.93235   -5463.9945 
 3419000    252.45902   -6338.5339   -5689.0984   -6338.5339            0    1740.1696    23.485413    21.696873    21.796662    11106.708    2437.8967    344.91125    2437.7008    638.66526   -313.98388    421.05352   -5407.2258 
 3420000    241.67891   -6367.1492   -5745.4449   -6367.1492            0    2001.3618     23.48369    21.351558    22.068149    11065.265    1528.9327    3524.2326    950.92005    1118.7466   -502.63683   -52.375497   -5422.4741 
 3421000    240.30628    -6358.991   -5740.8177    -6358.991            0    2513.2657    23.255815    21.529013    22.035094    11032.415    4632.6964    1239.2736     1667.827   -248.83543    338.39812    98.028573   -5336.4422 
 3422000    243.95303    -6362.293   -5734.7387    -6362.293            0     1809.886    23.680447    21.534006     21.70967    11070.518     1492.606     1514.149     2422.903   -1282.0826     83.15559   -638.74682   -5442.5287 
 3423000    238.11989   -6367.0071   -5754.4582   -6367.0071            0     2080.676    23.404003    21.636863    21.860213    11069.776     2184.458    1968.2702       2089.3    -256.8786    464.65344   -218.80947   -5418.5511 
 3424000    226.18711   -6340.0553   -5758.2027   -6340.0553            0    976.38509     23.48068    21.425172    22.103563    11119.808    509.56756    2170.7645    248.82326    13.548395   -816.36689     1529.204   -5599.8614 
 3425000      237.676   -6351.9836   -5740.5766   -6351.9836            0    1503.0048    23.352379    21.708397     21.90309    11103.612    960.32825    1157.3682    2391.3181    986.26113    474.92651     844.1677   -5497.1878 
 3426000    227.77581   -6352.6278   -5766.6885   -6352.6278            0    4371.4723    23.545698    21.477655    21.716866    10982.357    2570.5273    5565.2117    4978.6778    203.62549   -995.86823   -521.37436   -5066.5254 
 3427000    243.29733   -6322.5248   -5696.6572   -6322.5248            0    3145.8018    23.309085    21.637872    21.936056    11063.647     4594.512    2534.4175    2308.4759    237.76802   -976.02553   -482.66754    -5189.076 
 3428000    240.66038   -6342.0567   -5722.9725   -6342.0567            0    1560.5702    23.392666    21.344028    22.299417    11133.959    1804.3005    2801.8414    75.568718    612.04286    837.52115    806.51666   -5469.5712 
 3429000    238.10502   -6353.5865   -5741.0758   -6353.5865            0    1968.0739    23.360523    21.630757    21.975081    11104.136    1402.7071    2059.3517     2442.163    408.97479    537.63847   -31.711346   -5422.3611 
 3430000    240.32665   -6353.5067   -5735.2811   -6353.5067            0    2671.2247    23.616547     21.51457    21.732504    11042.282     1958.113    1352.5339    4703.0273    433.07396    507.59905    1088.7621   -5305.1061 
 3431000    230.84929   -6339.5987    -5745.753   -6339.5987            0    1412.1388    23.382087    21.677561    21.919738    11110.384    1693.5119    1494.2389    1048.6657   -1430.8881   -354.02361    484.32282   -5516.9391 
 3432000    245.40684   -6349.4448   -5718.1506   -6349.4448            0    1529.0617    23.577152    21.455459    22.023261    11140.656    405.14367    2628.2926     1553.749   -511.06708   -731.68732   -871.12256   -5469.7163 
 3433000    233.19484   -6366.7209   -5766.8414   -6366.7209            0    2782.4764    23.443386    21.659245    21.813131    11075.967    3635.4409    1859.3054     2852.683    2028.2008   -899.56561    82.632939   -5317.3835 
 3434000    237.43255   -6375.4162   -5764.6354   -6375.4162            0    1967.7162    23.556546    21.509021    21.869933    11081.019    1419.6461    1602.6717    2880.8308    1369.5682    516.29516    535.63487    -5446.642 
 3435000    238.40734   -6333.4943    -5720.206   -6333.4943            0    1888.0227    23.458053    21.626786    21.856619     11088.35    1044.8987    2286.8573     2332.312    587.48227     518.5017    451.01025   -5414.8897 
 3436000    237.16611   -6329.8164   -5719.7211   -6329.8164            0     1620.614    23.534102    21.563345    21.928233    11128.008    3911.6725    433.86697    516.30252   -988.69742   -831.76518    432.66315   -5456.7107 
 3437000    226.12889   -6362.2327   -5780.5299   -6362.2327            0    1899.6284    23.255597    21.680878    22.042658    11113.947    1621.3324    2734.5111    1343.0417    368.83826   -197.17582   -407.77547   -5472.6277 
 3438000    239.17564   -6336.7954   -5721.5306   -6336.7954            0    2605.4662    23.477536    21.393277    22.074224    11087.031    755.96118    4711.2782    2349.1591   -894.15881    938.21488    81.763876    -5300.245 
 3439000    234.01364   -6386.0838    -5784.098   -6386.0838            0    1653.5625    23.521414    21.557917    21.786862    11047.523    1894.2584    866.16056    2200.2686     129.2398   -98.543848    308.23452   -5517.6813 
 3440000    249.16573   -6322.9853   -5682.0217   -6322.9853            0    1283.1614    23.494239    21.627731    21.961408    11159.186    467.53507    2125.6168    1256.3322    44.049839    1704.6459    348.57109   -5473.1932 
 3441000    249.02059   -6360.1495   -5719.5592   -6360.1495            0    1125.7415    23.419259    21.559957    22.017675    11117.125    1521.9462    504.95341     1350.325   -610.01666    602.67225    151.94397   -5537.0406 
 3442000    228.69543   -6319.2366   -5730.9315   -6319.2366            0    2039.2691    23.419657     21.53903    22.030616    11113.051    1548.4726    3451.6871    1117.6477   -816.14032    274.66142   -228.67816   -5400.4221 
 3443000    233.59113   -6353.1403   -5752.2413   -6353.1403            0    2257.9428    23.507634    21.522968    21.835226    11047.621    1559.4319    3055.3949    2159.0015    360.57219   -1000.0554    601.50103   -5388.4456 
 3444000    239.73632   -6354.3304   -5737.6233   -6354.3304            0    1390.3885    23.483616    21.770264    21.716291    11102.335    1592.5852    809.94495    1768.6355    721.25021   -201.62363   -112.22479   -5512.4969 
 3445000    241.83783   -6348.9811    -5726.868   -6348.9811            0    1421.4811    23.571122    21.508912    21.926946    11116.725    1729.4194    1214.9233    1320.1006    195.39001   -552.03285   -305.77147   -5496.4089 
 3446000    233.07221   -6341.5562   -5741.9922   -6341.5562            0    1558.9128    23.356774    21.609045    22.030842    11119.353    1424.1871    1966.1407    1286.4107    235.46379   -445.47371    245.11172   -5489.1921 
 3447000    231.79091   -6336.9585   -5740.6905   -6336.9585            0    1110.0052    23.599069    21.631958    21.890011     11174.72    1003.8856    533.78431    1792.3458    39.099438   -1189.3532    1480.6093   -5559.7909 
 3448000    241.62832    -6345.473   -5723.8988    -6345.473            0    1731.0675    23.464286    21.668661    21.870065    11119.609      1793.47    745.02424    2654.7082    17.183467    249.75657    374.03656   -5443.1749 
 3449000    244.00232   -6353.6156   -5725.9345   -6353.6156            0    1182.0233    23.554315    21.616435    21.871603    11136.152    882.19841    987.88529    1675.9863   -1257.3945   -622.67899   -227.49255   -5533.9628 
 3450000    230.24018   -6348.8594   -5756.5805   -6348.8594            0    4164.5857    23.344541     21.48611    21.922444    10995.933    3719.7966    5137.6611    3636.2995   -501.07812    622.18896   -964.55195   -5088.7292 
 3451000    240.48014   -6344.4207   -5725.8001   -6344.4207            0    2452.4013    23.455173    21.547344    21.856241    11046.072    2537.6192    2791.1118    2028.4729   -147.27855    492.19633     1179.689    -5330.729 
 3452000    234.57763   -6341.2286   -5737.7919   -6341.2286            0    2043.7658    23.473291    21.574539    21.883435    11082.328     2234.586    1795.5533    2101.1581    69.455237    653.79398    95.376638   -5407.4695 
 3453000    227.96801    -6386.411   -5799.9772    -6386.411            0    634.75215    23.426962    21.580737    21.999049    11122.084    894.06702    148.32851    861.86093   -377.00216    319.37554   -1153.1498   -5697.0177 
 3454000    239.49777   -6371.3027   -5755.2093   -6371.3027            0    2400.5398    23.436214    21.625811    21.842268    11070.254    3696.5006    1038.9287    2466.1901   -824.99024   -1194.7005   -410.80092   -5367.6462 
 3455000    239.97544   -6375.5755   -5758.2533   -6375.5755            0    2297.5514    23.572408    21.538999    21.774014    11055.235    1995.8099    524.64219    4372.2021   -471.53486    400.88173    1015.4311   -5387.8208 
 3456000    234.64147   -6380.8829    -5777.282   -6380.8829            0     1298.569    23.474807    21.491495    21.940942    11069.396    1174.8226    1420.7156    1300.1687    461.92301   -374.19594    179.04582   -5567.6465 
 3457000    234.66879   -6372.7939   -5769.1228   -6372.7939            0    1289.5019    23.404635    21.605865    21.990245    11119.969    812.47141    1690.0788    1365.9554   -83.564088    486.01102   -1297.2701   -5559.9999 
 3458000    235.24674   -6339.3609    -5734.203   -6339.3609            0    1109.8527     23.67815    21.592565    21.878724    11185.978    114.72339    830.43812    2384.3965   -735.66968      110.733    855.32437    -5553.146 
 3459000    229.37547   -6313.5932   -5723.5388   -6313.5932            0    2205.6596    23.487309    21.711941    21.828674    11131.643    1732.2548    1698.7332    3185.9908    155.80854   -611.99439    295.43925   -5365.4641 
 3460000     244.0355   -6375.0134   -5747.2469   -6375.0134            0    1923.6976     23.42059     21.56563    21.944628    11083.788    1750.7307     1956.001    2064.3612    23.371848    1870.9107    657.14414   -5436.2895 
 3461000    241.39198   -6350.9669   -5730.0008   -6350.9669            0    1769.8356    23.564692    21.485603    21.936456    11106.463    1390.1288     2037.067    1882.3109     9.815561    372.95418   -911.85776   -5443.3293 
 3462000    240.45514   -6383.2249   -5764.6687   -6383.2249            0    2186.0782    23.355675    21.653944    21.925509    11088.661     1655.998    2726.0302    2176.2065   -60.633126    768.58285   -5.4272232   -5411.1432 
 3463000    237.23203    -6356.599    -5746.334    -6356.599            0    2423.3969    23.556181      21.4979    21.842003    11060.974    1767.4744    2747.7735    2754.9428    26.810195    660.79441   -417.13734   -5355.4087 
 3464000    242.13155   -6359.4295   -5736.5608   -6359.4295            0    2487.9857    23.292355    21.681013    21.897741      11058.4    3031.4727    1719.0029    2713.4816   -453.52175    304.46693    1210.3562   -5335.3099 
 3465000    229.32835   -6372.9049   -5782.9717   -6372.9049            0    1374.2177    23.438467    21.468657    22.057995    11099.416    1416.1223    1652.2644    1054.2665    202.44141    228.22562    932.95932   -5560.5222 
 3466000    238.23008   -6360.0862   -5747.2538   -6360.0862            0     1926.678    23.508831    21.608879    21.783872    11066.196    1298.4831    1568.7376    2912.8132    1091.9828    114.93176    227.98401    -5436.309 
 3467000    231.88124   -6345.7858   -5749.2855   -6345.7858            0    2460.4857    23.600064    21.561179     21.72203     11053.15    1485.8252    2505.2512    3390.3808    581.96129    -1.833255   -315.09583    -5352.658 
 3468000    242.96399   -6345.7602   -5720.7502   -6345.7602            0    1697.1781    23.394032    21.602722    21.995713    11116.079    2284.4649    1773.2203    1033.8492    795.35469     -76.8658   -806.30482   -5445.6094 
 3469000    233.45762   -6348.1068   -5747.5513   -6348.1068            0    1584.6022     23.42213    21.516946    22.059123    11117.196    1925.0988     2538.992    289.71577   -435.24091     1015.595   -781.14645   -5490.6351 
 3470000      227.113   -6370.4159   -5786.1815   -6370.4159            0    1031.4738    23.674036    21.594781    21.708514    11098.165    109.12199    352.75364    2632.5459    332.87403    130.09435    852.98246    -5619.232 
 3471000    236.83496   -6361.4695    -5752.226   -6361.4695            0    1604.6629    23.459898    21.587349    21.889773    11085.791    1520.3626    2357.4103    936.21571   -925.56519   -113.46141    19.718372   -5492.7923 
 3472000    233.25898   -6360.2533   -5760.2088   -6360.2533            0    1566.4855    23.389001     21.58245    22.018693    11114.859    1591.7947    2774.1617    333.50015   -802.75073   -782.68361   -473.14884   -5506.2833 
 3473000    236.62336   -6376.2458   -5767.5466   -6376.2458            0    317.71651    23.547189    21.576056    21.922977    11138.089    42.284719    75.899936    834.96486   -1334.1326    1225.8028    181.03177   -5715.9375 
 3474000    255.57622   -6368.9121   -5711.4579   -6368.9121            0    2150.4737    23.421012    21.663513    21.769796    11045.589    1804.8771    2055.3421     2591.202   -52.336763    2241.1766   -1239.6601   -5365.0411 
 3475000    238.09575   -6372.2503   -5759.7634   -6372.2503            0    1942.1173    23.527349    21.503549    21.943798     11101.84    2540.0625    1678.3643    1607.9251    252.80077   -17.043017   -80.997093   -5445.3173 
 3476000    238.28767   -6357.0844   -5744.1039   -6357.0844            0    785.56769    23.425254    21.581076    22.071677    11158.164    2791.0787    348.74343    -783.1191   -205.83295   -1396.3022   -209.99381   -5616.2682 
 3477000    239.09041   -6306.4219   -5691.3764   -6306.4219            0    2157.2605    23.473718    21.645894    21.870424    11112.573    1729.2934     2158.244    2584.2442    612.80712     -617.027    486.81488   -5341.7589 
 3478000    236.36927   -6309.3416    -5701.296   -6309.3416            0    1673.4098    23.723446    21.499113    21.717784    11076.787    697.92593     2126.974    2195.3294    709.42394    703.09547    756.61328   -5430.9674 
 3479000    240.05766   -6340.6972   -5723.1635   -6340.6972            0    634.68047    23.302082    21.812596    21.955853    11159.697    2560.1619   -11.916341    -644.2041   -767.21909   -53.781593   -5.0178367   -5619.8675 
 3480000    235.31631   -6309.1446   -5703.8078   -6309.1446            0    2063.6129    23.627242    21.485791      21.9553    11145.607    2121.8469    2511.0478     1557.944   -227.13815   -195.39669   -1214.9942   -5368.3732 
 3481000     238.2652   -6325.0497    -5712.127   -6325.0497            0    2886.2311    23.367631    21.772008    21.705265    11042.776    4247.8633    908.58661    3502.2433   -401.15317   -372.11561   -604.76721   -5247.3065 
 3482000    247.37333   -6361.9537   -5725.6009   -6361.9537            0    3749.1653    23.649685    21.350099    21.706165    10959.945    1699.6138    4948.8576    4599.0245     561.9935    380.73286   -55.604355    -5126.336 
 3483000    231.82584   -6355.7568    -5759.399   -6355.7568            0    3341.7523    23.259832    21.571676    21.945787    11011.377    4501.3577    2393.2675    3130.6317    556.61495    329.05878   -164.54117   -5222.7482 
 3484000    234.52106   -6343.3219   -5740.0307   -6343.3219            0    353.71915    23.498699    21.610839    21.969742    11156.819    800.30609   -209.38875    470.24011   -796.99503    846.00559   0.76373031   -5682.4768 
 3485000    232.64794   -6348.7752   -5750.3026   -6348.7752            0    914.92767    23.536726    21.690016    21.847718    11153.522    892.35151    180.43522    1671.9963   -1451.8659    58.594472    578.82434    -5601.478 
 3486000     233.8624   -6351.0078    -5749.411   -6351.0078            0    1790.8563    23.500359    21.547237    21.909298    11094.163    1761.1216    2577.2957    1034.1515   -2109.7071   -485.58067   -953.56918   -5459.6558 
 3487000    230.45995   -6354.1271   -5761.2829   -6354.1271            0     1941.005    23.394311    21.623472    21.872108    11064.361    2241.3957     1645.421    1936.1984   -796.47607    497.28131    392.77796   -5448.0778 
 3488000    244.03291    -6345.724   -5717.9642    -6345.724            0    1576.2603    23.471685    21.533795    21.978004    11108.441    1648.1818    1477.8783    1602.7207    689.32646    12.463948     44.22783   -5462.6018 
 3489000     231.9976   -6347.9883   -5751.1886   -6347.9883            0    1256.7758    23.429559    21.516363     22.07485    11128.349    2083.3015    455.92065    1231.1052    877.84191   -956.41707    173.87194   -5547.2195 
 3490000    238.58093   -6345.2914   -5731.5565   -6345.2914            0    1903.5268    23.430566    21.782804    21.791466    11122.003    1896.1003    1355.7021     2458.778    684.36948   -399.85729   -656.17388   -5422.7987 
 3491000    233.87864   -6354.9144   -5753.2758   -6354.9144            0    3159.4057    23.557896    21.458272    21.841186    11040.976    2785.8449    3840.1629    2852.2093   -989.72523   -308.17942   -1302.5683   -5244.5442 
 3492000    238.27266   -6364.5936   -5751.6517   -6364.5936            0    2187.1863    23.232238    21.616812    22.054182    11075.763    1635.4448    2625.8112    2300.3028    1873.6174   -48.197631    1606.1869   -5398.3585 
 3493000      233.483   -6322.2671   -5721.6463   -6322.2671            0    1890.1557    23.540479    21.505009    21.961915    11117.961    1031.5939    2112.1728    2526.7005     202.3805     395.3139    881.94263   -5415.1688 
 3494000    236.56412   -6352.8076   -5744.2608   -6352.8076            0    1301.8662    23.555291    21.592758    21.856552     11116.76    1516.4644    685.89931     1703.235   -1284.7211    330.44993    19.487893   -5533.1938 
 3495000    254.55708   -6343.5517   -5688.7191   -6343.5517            0    1911.0595    23.348295    21.515403    22.104338     11104.07    1732.9319    3045.9987    954.24779    -629.5946    593.05407   -171.22807   -5379.2394 
 3496000    223.75172   -6339.4974   -5763.9098   -6339.4974            0    588.74129    23.390988    21.573283    22.217356    11211.331    487.16511    1720.3544   -441.29558    238.89196    784.24139   -423.80664   -5667.6472 
 3497000    231.86077   -6340.8446   -5744.3969   -6340.8446            0    1937.9689    23.532781    21.613389    21.842533    11109.618    1434.3684    2298.5018    2081.0364   -731.46602    468.92277   -80.893451   -5430.4026 
 3498000    244.21692   -6357.9099   -5729.6768   -6357.9099            0    1407.2604    23.609625    21.552727    21.762977     11074.13    523.01796    2256.0949    1442.6685    484.53952    133.21638    550.84553   -5502.3974 
 3499000    233.46226   -6355.4175     -5754.85   -6355.4175            0     1284.149    23.222009    21.631707    22.126388    11114.786    1506.9864    1480.0087    865.45212   -468.70744   -13.905013    668.27248   -5546.6924 
 3500000    240.69479   -6310.7215   -5691.5488   -6310.7215            0    1310.2682    23.543366    21.533252    22.028833    11167.853    1335.5886    1946.9539    648.26197    -990.6554   -163.20645   -1117.8313   -5478.1432 
Loop time of 593.868 on 64 procs for 250000 steps with 1296 atoms

Performance: 72.743 ns/day, 0.330 hours/ns, 420.969 timesteps/s
99.3% CPU use with 64 MPI tasks x 1 OpenMP threads

MPI task timing breakdown:
Section |  min time  |  avg time  |  max time  |%varavg| %total
---------------------------------------------------------------
Pair    | 28.938     | 37.982     | 46.76      |  95.5 |  6.40
Bond    | 0.26853    | 0.27799    | 0.28807    |   0.7 |  0.05
Kspace  | 314.07     | 325.27     | 341.1      |  38.6 | 54.77
Neigh   | 4.0038     | 4.4087     | 5.0137     |  11.8 |  0.74
Comm    | 93.374     | 101.29     | 108.09     |  37.0 | 17.06
Output  | 0.82258    | 0.82297    | 0.82615    |   0.1 |  0.14
Modify  | 109.37     | 114.45     | 119.4      |  27.0 | 19.27
Other   |            | 9.359      |            |       |  1.58

Nlocal:        20.2500 ave          27 max          14 min
Histogram: 6 4 6 13 4 7 9 6 6 3
Nghost:        2519.44 ave        2554 max        2486 min
Histogram: 3 5 9 9 6 9 7 8 5 3
Neighs:        6243.62 ave        8355 max        4277 min
Histogram: 5 5 7 12 4 7 7 8 6 3

Total # of neighbors = 399592
Ave neighs/atom = 308.32716
Ave special neighs/atom = 2.0000000
Neighbor list builds = 8534
Dangerous builds = 0

unfix		3
unfix		2
unfix		1

write_data	data.final.${pid}
write_data	data.final.0
System init for write_data ...
PPPM initialization ...
  extracting TIP4P info from pair style
  using 12-bit tables for long-range coulomb (../kspace.cpp:340)
  G vector (1/distance) = 0.37578415
  grid = 30 40 36
  stencil order = 5
  estimated absolute RMS force accuracy = 0.0028253519
  estimated relative force accuracy = 8.5084632e-06
  using double precision FFTW3
  3d grid and FFT values/proc = 5472 750
Last active /omp style is kspace_style pppm/tip4p/omp
WARNING: Not all mixed pair coeffs generated from mixing. Use write_data with 'pair ij' option to store all pair coeffs. (../write_data.cpp:312)

write_restart   restart.lmp.${pid}
write_restart   restart.lmp.0
System init for write_restart ...
PPPM initialization ...
  extracting TIP4P info from pair style
  using 12-bit tables for long-range coulomb (../kspace.cpp:340)
  G vector (1/distance) = 0.37578415
  grid = 30 40 36
  stencil order = 5
  estimated absolute RMS force accuracy = 0.0028253519
  estimated relative force accuracy = 8.5084632e-06
  using double precision FFTW3
  3d grid and FFT values/proc = 5472 750
Last active /omp style is kspace_style pppm/tip4p/omp
Total wall time: 0:09:55
