LAMMPS (30 Jul 2021)
Processor partition = 0
  using 2 OpenMP thread(s) per MPI task
using multi-threaded neighbor list subroutines
variable        pid world 0 1
variable        phase world IceV IceIII

shell cd ${phase}
shell cd IceV
include Restart.lmp
echo both
log log.lammps
#include		in.partitions
include		in.temp
variable        temperature equal 223.97
variable	tempDamp equal 100.0
include		in.pressure
variable        pressure equal 7600.0
variable        pressureDamp equal 1000.0 # This is 1 ps
include		in.seed
variable        seed equal 745823

units		real
atom_style	full
read_restart    restart.lmp.${pid}
read_restart    restart.lmp.0
Reading restart file ...
  restart file = 30 Jul 2021, LAMMPS = 30 Jul 2021
  restoring atom style full from restart
  triclinic box = (-3.1706665 -0.16310434 -0.024173389) to (14.780666 22.743103 19.254171) with tilt (0.013232485 -6.2490640 0.078162724)
  2 by 4 by 4 MPI processor grid
  restoring pair style lj/cut/tip4p/long/omp from restart
  restoring bond style harmonic/omp from restart
  restoring angle style harmonic/omp from restart
  1008 atoms
  672 bonds
  336 angles
Finding 1-2 1-3 1-4 neighbors ...
  special bond factors lj:    0        0        0       
  special bond factors coul:  0        0        0       
     2 = max # of 1-2 neighbors
     1 = max # of 1-3 neighbors
     1 = max # of 1-4 neighbors
     2 = max # of special neighbors
  special bonds CPU = 0.002 seconds
  read_restart CPU = 0.008 seconds

include 	in.setup
variable	out_freq equal 1000
variable	out_freq2 equal 10000
variable	out_freq3 equal 1000

timestep	2.0

neigh_modify    delay 7 every 1

include		in.tip4p
# This is TIP4P/Ice

# create groups ###
group ox type 2
336 atoms in group ox
group hy type 1
672 atoms in group hy

# set charges - beside manually ###
set group ox charge -1.1794
Setting atom values ...
  336 settings made for charge
set group hy charge 0.5897
Setting atom values ...
  672 settings made for charge

# ### TIP3P Potential Parameters ###
pair_style lj/cut/tip4p/long/omp 2 1 1 1 0.1577 8.5
pair_coeff 1 1*2 0.000 0.000
pair_coeff 2 2 0.21084 3.1668
bond_style  harmonic
bond_coeff  1 450 0.9572
angle_style harmonic
angle_coeff 1 55 104.52
kspace_style pppm/tip4p/omp 1.0e-5
pair_modify tail yes

thermo          ${out_freq}
thermo          1000
thermo_style    custom step temp pe etotal epair emol press lx ly lz vol pxx pyy pzz pxy pxz pyz enthalpy

restart 	${out_freq3} restart.lmp.${pid} restart2.lmp.${pid}
restart 	1000 restart.lmp.${pid} restart2.lmp.${pid}
restart 	1000 restart.lmp.0 restart2.lmp.${pid}
restart 	1000 restart.lmp.0 restart2.lmp.0


include         in.dump
dump            myDump all atom ${out_freq2} dump.water.${pid}
dump            myDump all atom 10000 dump.water.${pid}
dump            myDump all atom 10000 dump.water.0
dump            myDump2 all dcd ${out_freq2} dump.dcd
dump            myDump2 all dcd 10000 dump.dcd
dump_modify     myDump append yes
dump_modify     myDump2 append yes


variable natoms 	equal  "count(all)"                        # NUMBER ATOMS
variable H      	equal  "enthalpy/v_natoms"                 # ENTHALPY-per-atom
variable Vol      	equal  "vol/v_natoms"                 # volume-per-atom
fix AVG all 		ave/time ${out_freq} 1 ${out_freq} v_Vol v_H file vol_enthalpy.dat
fix AVG all 		ave/time 1000 1 ${out_freq} v_Vol v_H file vol_enthalpy.dat
fix AVG all 		ave/time 1000 1 1000 v_Vol v_H file vol_enthalpy.dat



fix 		1 all shake 1e-6 200 0 b 1 a 1
Finding SHAKE clusters ...
       0 = # of size 2 clusters
       0 = # of size 3 clusters
       0 = # of size 4 clusters
     336 = # of frozen angles
  find clusters CPU = 0.000 seconds
fix             2 all nph tri ${pressure} ${pressure} ${pressureDamp}
fix             2 all nph tri 7600 ${pressure} ${pressureDamp}
fix             2 all nph tri 7600 7600 ${pressureDamp}
fix             2 all nph tri 7600 7600 1000
fix             3 all temp/csvr ${temperature} ${temperature} ${tempDamp} ${seed}
fix             3 all temp/csvr 223.97 ${temperature} ${tempDamp} ${seed}
fix             3 all temp/csvr 223.97 223.97 ${tempDamp} ${seed}
fix             3 all temp/csvr 223.97 223.97 100 ${seed}
fix             3 all temp/csvr 223.97 223.97 100 745823


run             250000
PPPM initialization ...
  extracting TIP4P info from pair style
  using 12-bit tables for long-range coulomb (../kspace.cpp:340)
  G vector (1/distance) = 0.37872617
  grid = 24 27 32
  stencil order = 5
  estimated absolute RMS force accuracy = 0.0025233451
  estimated relative force accuracy = 7.5989787e-06
  using double precision FFTW3
  3d grid and FFT values/proc = 5355 672
Last active /omp style is kspace_style pppm/tip4p/omp
Neighbor list info ...
  update every 1 steps, delay 7 steps, check yes
  max neighbors/atom: 2000, page size: 100000
  master list distance cutoff = 10.8154
  ghost atom cutoff = 10.8154
  binsize = 5.4077, bins = 5 5 4
  1 neighbor lists, perpetual/occasional/extra = 1 0 0
  (1) pair lj/cut/tip4p/long/omp, perpetual
      attributes: half, newton on, omp
      pair build: half/bin/newton/tri/omp
      stencil: half/bin/3d/tri
      bin: standard
Setting up Verlet run ...
  Unit style    : real
  Current step  : 7750000
  Time step     : 2
Per MPI rank memory allocation (min/avg/max) = 10.31 | 10.32 | 10.33 Mbytes
Step Temp PotEng TotEng E_pair E_mol Press Lx Ly Lz Volume Pxx Pyy Pzz Pxy Pxz Pyz Enthalpy 
 7750000    232.41624   -4904.0291   -4439.1679   -4904.0291            0    6919.1153    17.951332    22.906208    19.278345    7927.1964    7210.2797    6822.9813     6724.085    580.78951   -1293.3954    344.85258   -3639.2488 
 7751000    219.11473   -4907.6869   -4469.4304   -4907.6869            0    6549.0406    17.879173    22.938416    19.319334    7923.2434    6681.2366    6410.5001    6555.3849    249.14881   -491.36563    1721.1466   -3712.6732 
 7752000    221.64446   -4907.3577   -4464.0414   -4907.3577            0    6458.1983    18.123582    22.960458    19.145366    7966.8795     5809.114    5539.8365    8025.6446   -1351.7228   -304.69468   -930.26337   -3713.6713 
 7753000    224.74477   -4924.2246   -4474.7072   -4924.2246            0    6553.1988    17.962825    22.803379    19.362203    7931.0121    7879.9733    6239.4886    5540.1344    677.72178   -1017.6051    1229.5628   -3716.7271 
 7754000    211.56614   -4923.0816   -4499.9232   -4923.0816            0    7028.6754    18.029208    22.821224    19.319403    7948.9415    7536.6954    6993.0807    6556.2501    362.63212    802.01844    -475.1212   -3685.1088 
 7755000    213.34763   -4892.8999   -4466.1783   -4892.8999            0    6106.2925    18.191713    22.632018    19.400787    7987.5986    4122.8664    7362.5331     6833.478     228.7484   -284.64322    133.88036   -3754.8506 
 7756000    221.67932   -4894.7114   -4451.3253   -4894.7114            0    6550.6528    18.073919    22.617316    19.470613    7959.2661    6273.6954    7174.5825    6203.6805    769.55825   -530.83765   -688.01789   -3690.9404 
 7757000    217.99573   -4903.2154    -4467.197   -4903.2154            0     8464.514    17.972624    22.697292    19.387185    7908.6124    8286.6715    8877.2998    8229.5706    293.16372    862.90464    1382.3319   -3490.9084 
 7758000    220.95624   -4898.5616   -4456.6218   -4898.5616            0    7904.7436    17.889759     22.86922    19.305749    7898.4613    7932.4938    8198.8734    7582.8635   -559.76188     114.6283    1061.7854   -3546.0668 
 7759000    233.34997   -4907.6317   -4440.9029   -4907.6317            0    7537.1705    18.017741    22.973793     19.12644    7917.1194    6444.8363    7376.0098    8790.6654   -77.794849    1091.7396   -442.85822   -3570.6381 
 7760000    234.59081   -4913.6277   -4444.4171   -4913.6277            0    7355.1985    17.972441    22.869956      19.2509    7912.6772    7290.0153    7113.3522    7662.2281    -314.3625    1230.4432    2310.0926   -3595.6398 
 7761000    218.29464   -4909.3492   -4472.7329   -4909.3492            0    5202.4876    18.022441    22.894857    19.319627    7971.6879    4113.8916    6020.2019    5473.3694   -461.30981    537.89712   -1261.5095   -3867.8975 
 7762000    226.83464   -4868.5883    -4414.891   -4868.5883            0    8966.9112    18.094524    22.632758     19.30621    7906.4528    9682.6746    8348.5009    8869.5582    1393.5601    241.20849    2342.4153   -3380.9389 
 7763000     231.2267   -4894.1866   -4431.7046   -4894.1866            0    7147.4846    18.125482    22.521129    19.450392    7939.7727    6552.9088    7726.5413    7163.0037    84.140509   -1634.3839   -513.87575   -3604.0728 
 7764000      219.343   -4905.3082   -4466.5951   -4905.3082            0    6510.3483    18.092062    22.569615    19.455269    7944.1871    4569.2031    8211.3709     6750.471   -994.00379    405.04216    107.87205   -3712.3204 
 7765000    234.08224   -4915.1961   -4447.0027   -4915.1961            0    9611.4721    18.059329     22.43091    19.377032    7849.3875    8858.1729    11372.359    8603.8842   -1022.0893    792.34668   -395.13219   -3346.7269 
 7766000     230.0557    -4910.327   -4450.1872    -4910.327            0    9237.7557    17.940944    22.697581    19.355433    7881.8429    10665.981     8546.603    8500.6836    443.00331   -587.31087   -1227.9498   -3388.3201 
 7767000    233.79243    -4927.765   -4460.1513    -4927.765            0    8002.6465     17.91453    22.952738    19.248003    7914.5383    8546.2009    8156.5332    7305.2055    887.24951    661.66312    165.86641   -3536.4424 
 7768000    221.84198   -4922.7096   -4478.9983   -4922.7096            0    8124.1213     17.94174    22.957186    19.208788    7911.9436     6653.619    7651.7874    10066.957    67.152452   -441.98147   -171.95948   -3541.5756 
 7769000    227.67984   -4912.1344   -4456.7466   -4912.1344            0    8195.6764    17.795894    23.029366    19.217638    7875.9294    8999.7401    7439.5431    8147.7459   -920.61456   -460.96308     1041.373   -3515.3719 
 7770000    217.40799   -4895.2717   -4460.4289   -4895.2717            0    7365.9372    17.897802    22.933993    19.276825    7912.5213     8628.016    6860.0462    6609.7495   -299.29843   -927.18134    48.124364   -3610.4291 
 7771000    221.81911   -4920.6828   -4477.0172   -4920.6828            0    8052.1234    17.977472    22.799427    19.235706    7884.2555    8610.4489    8027.6725    7518.2487    1074.3628   -1266.1752    1065.1137   -3551.1536 
 7772000    222.04128   -4899.7628   -4455.6528   -4899.7628            0    8186.7651    17.913957    22.806023    19.331766    7897.9175    10570.445    7725.0652    6264.7851   -692.94579   -1134.8734   -340.91991   -3512.6764 
 7773000     219.4806    -4929.165   -4490.1767    -4929.165            0     8237.406     17.97542    22.713048    19.343743    7897.5972     7747.678    8090.9264    8873.6136    135.44453   -249.92651    355.12027   -3541.4058 
 7774000    230.94959   -4887.9513   -4426.0235   -4887.9513            0    7824.0651    18.102282    22.686046    19.308478    7929.3975    6871.3947    8707.9677     7892.833   -932.73448    101.92763   -1965.9334    -3521.232 
 7775000     230.8003   -4904.7399   -4443.1108   -4904.7399            0    5826.8921    18.205759    22.719815    19.294986    7981.0136    4982.4387    6267.4004    6230.8373    890.41421    458.30682   -224.65081   -3764.8903 
 7776000    231.48619   -4911.8917   -4448.8907   -4911.8917            0    6618.3312    18.157214    22.736056    19.326558    7978.4562    5857.2352    7273.3819    6724.3764    514.15087    1257.3476   -1101.5269   -3678.7976 
 7777000    228.58745   -4894.8293   -4437.6261   -4894.8293            0    7178.4393    17.934503    22.834244    19.393431    7942.0138     7398.225      7244.61    6892.4827    103.23986   -602.40355   -392.48559   -3606.1753 
 7778000    223.30064   -4922.0948   -4475.4659   -4922.0948            0    5429.2262      17.9971    22.999385    19.227741    7958.7895    5070.8973    5458.0087    5758.7727   -1201.3191   -1153.9694    838.58473   -3845.2914 
 7779000    223.53931   -4908.7994   -4461.6932   -4908.7994            0    6838.4696    17.923139    23.023157    19.286535    7958.5354     6345.184    6320.0807    7850.1441   -677.02264   -460.91487    288.46703    -3667.972 
 7780000    234.57446   -4913.1767   -4443.9988   -4913.1767            0    5190.6356    17.857273     23.05101    19.435189    8000.0715    6817.0802    4362.4543    4392.3724   -586.04847    46.309161    727.80966   -3838.3926 
 7781000    223.04239   -4892.0524   -4445.9401   -4892.0524            0    5846.3157    18.139805    22.890395    19.296731    8012.5296    4240.1944     5694.132    7604.6207    1602.9675      714.271    768.09302   -3762.7716 
 7782000    229.06867   -4905.6405   -4447.4749   -4905.6405            0    8401.4863    18.105578    22.539946    19.263374    7861.3587    7492.0033    9088.7587     8623.697   -1239.7132    89.793359   -65.815238   -3484.2457 
 7783000    222.05996   -4894.6985   -4450.5511   -4894.6985            0    9882.8366    18.086864    22.538554     19.29612    7866.0969    9840.9332    10202.759    9604.8175    966.43169   -422.43997    97.728025   -3316.8024 
 7784000    219.47437   -4914.5675   -4475.5916   -4914.5675            0    8996.1595    17.947399    22.589628     19.33771    7839.9922    10373.991    9146.5746    7467.9131   -177.64605    250.09415    1506.8401   -3446.9866 
 7785000    222.30717   -4936.8876   -4492.2457   -4936.8876            0    7737.4499    18.084938    22.723334    19.258552    7914.3037    7108.1563    7149.8237    8954.3697     594.7236   -1601.0251   -570.98338   -3599.1738 
 7786000    215.56517   -4923.9403   -4492.7833   -4923.9403            0    5978.5296    18.049081    22.781181    19.369938    7964.5192    6567.4466    5674.4483     5693.694   -786.70187    -852.8997   -1026.6654   -3798.3511 
 7787000    221.86914   -4899.4574   -4455.6917   -4899.4574            0    8010.8187    17.946831    22.718262    19.394359    7907.4841     7971.141    8470.7864    7590.5287   -677.06669   -1702.1453   -851.37249   -3531.8637 
 7788000    224.05527   -4915.5799   -4467.4417   -4915.5799            0    5603.5338     18.14485    22.697482     19.31753    7955.7782    5342.6785    6277.9363    5189.9867   -375.94026   -1249.2044    179.80491   -3817.2813 
 7789000    218.85308   -4913.7548   -4476.0216   -4913.7548            0    7062.3689    18.078922     22.82372    19.311393     7968.426    7653.1258     6046.796     7487.185   -2222.4175   -127.64679    -1206.064   -3655.2944 
 7790000     220.3332   -4895.2396    -4454.546   -4895.2396            0    7424.6243     17.92958    22.855209    19.336596    7923.8334    8358.6035    7418.6506    6496.6187    29.554326    1076.9349   -493.17927   -3596.5491 
 7791000    228.39722   -4915.0575   -4458.2349   -4915.0575            0    6555.8617    17.882566    22.916604    19.394133    7947.8647    8049.1087    6891.6144    4726.8621    838.96648    965.93321   -21.058286   -3698.3354 
 7792000    222.49663    -4901.435   -4456.4142    -4901.435            0    8055.2628    18.060752    22.779756    19.221116    7907.9424    8279.8909      8642.82    7243.0774   -1042.1621    534.58704   -73.516949    -3527.407 
 7793000    229.30513   -4895.4055   -4436.7669   -4895.4055            0    8401.4719    17.992152    22.800707    19.258447    7900.4658    6550.7454    9398.8963    9254.7741    1186.0352   -225.48695   -486.09107   -3468.7477 
 7794000    219.10843   -4920.0337   -4481.7898   -4920.0337            0    8474.8273    18.000731    22.852847    19.220803    7906.8222    8836.6392     7855.437    8732.4056    16.281683   -928.87217    108.75708    -3504.533 
 7795000    227.19644   -4940.0096   -4485.5886   -4940.0096            0    7186.5374    17.968443    22.865969    19.273415    7918.7881    5552.0012    7673.6394    8333.9714    550.58546     510.8483   -833.96701   -3655.6341 
 7796000    225.93874   -4931.5044    -4479.599   -4931.5044            0    7774.2304    17.879807    22.865522    19.321071    7899.0552    8668.3926    7606.9372    7047.3615    593.55101    243.62322   -1625.3796   -3584.0107 
 7797000    233.91107   -4934.1472   -4466.2961   -4934.1472            0    7921.4647    18.007449    23.015433    19.091806    7912.5844    8009.6614    7235.1472    8519.5854   -413.92254    431.60684    -1754.272   -3552.1835 
 7798000    221.97971   -4919.7034   -4475.7165   -4919.7034            0    8137.6651    17.799238    22.902483    19.379236    7899.8823    8098.3132    8752.0685    7562.6135   -156.69878    667.34048    1880.3294   -3538.1625 
 7799000    230.35666   -4906.9845   -4446.2428   -4906.9845            0    6793.6024     18.11618    22.899415    19.168612    7952.0975    7000.4459    6320.4313    7059.9298   -474.83192   -595.16621    975.93849    -3658.367 
 7800000    223.55131   -4927.8849   -4480.7547   -4927.8849            0    6989.4034    17.946956     22.84018    19.263655    7896.3975    7319.4379     6818.449    6830.3232   -635.78521   -1018.1125   -208.41468    -3675.849 
 7801000    243.71501   -4893.0605   -4405.6004   -4893.0605            0    8506.8951    17.924463    22.762835    19.380527    7907.4795     8234.572    9725.3469    7560.7665   -3.1474204    423.63823    824.02529   -3424.5642 
 7802000    222.27212   -4915.4839   -4470.9122   -4915.4839            0    9429.6516    17.985643     22.78028    19.172942    7855.4992    9004.7937    9731.3895    9552.7716    485.05847    12.971632   -88.084377   -3390.6098 
 7803000    221.12037   -4924.6796   -4482.4116   -4924.6796            0    10316.111     17.94682    22.809379    19.095837    7816.9919    8231.4983    10478.972    12237.862   -41.229866   -217.97078    966.49759    -3306.346 
 7804000    224.83666   -4879.3661    -4429.665   -4879.3661            0    9022.6992    17.898553    22.955037     19.20831    7891.9633    8701.3918    8610.9463    9755.7594    555.49212    -626.6995   -667.83248   -3391.1867 
 7805000    231.03744   -4902.3524    -4440.249   -4902.3524            0    7653.0037    17.812533    22.989277    19.277767    7894.1927    8826.5339    6857.7265    7274.7508    1265.8965    -571.6795    -450.3817   -3559.1686 
 7806000    234.10666    -4885.258   -4417.0157    -4885.258            0    7017.0963    18.022657    23.053654    19.087923    7930.8051    5900.1711    6444.8112    8706.3067    775.29725   -123.79291   -466.13597   -3605.3997 
 7807000    213.36677   -4922.2678   -4495.5079   -4922.2678            0     4654.621     17.87409    22.758208    19.608373    7976.3383    5616.1334    3851.4757    4496.2539    857.93094   -726.39233    940.35917   -3954.0511 
 7808000    233.64133   -4920.9466    -4453.635   -4920.9466            0    9274.5894    17.995559    22.815185      19.1604    7866.7241    8380.8863    8753.7079    10689.174   -13.233343    1080.5774   -1468.4782    -3389.579 
 7809000    215.42287   -4901.5063   -4470.6339   -4901.5063            0    7339.0782    17.971437      22.9504    19.252742    7940.8253    7328.1693    6514.4966    8174.5686    561.86548   -496.31309    1201.8568   -3620.7042 
 7810000    221.19503   -4901.6782   -4459.2608   -4901.6782            0    8267.7546    17.757265    22.960166    19.312173    7873.7614    9576.3735    8317.4965    6909.3939    384.33798    610.74489    169.98667   -3509.8684 
 7811000    243.58666   -4925.1976   -4437.9942   -4925.1976            0    8117.5956    17.895855     22.86717    19.243922    7875.1431    8884.8914    9292.2958    6175.5996   -531.93338   -143.29911   -790.68048   -3505.6812 
 7812000    234.26992    -4876.081   -4407.5122    -4876.081            0    9870.0504    17.927942    22.899612    19.156874    7864.7191     8650.335    9535.7783    11424.038    939.33825    -378.9997   -1141.6244   -3275.4287 
 7813000    233.98392    -4896.351   -4428.3543    -4896.351            0    8202.2668    17.929653     22.89866    19.269114    7911.2244    8750.7895    7702.9392    8153.0718   -528.64879   -1324.2475   -1410.2671   -3482.0006 
 7814000    213.90207   -4895.6256    -4467.795   -4895.6256            0    7068.6464    17.907606    22.814458    19.381349    7918.2952    6340.3406    8020.6767    6844.9218   -1019.9142   -1255.3766   -172.41357   -3651.5062 
 7815000    220.27774   -4918.8705   -4478.2878   -4918.8705            0    9627.9975    17.839484     23.01239    19.107712    7844.2728     10474.61    8687.0155    9722.3669   -855.41595   -1139.4084    681.77659   -3376.8384 
 7816000    226.77421   -4883.7616   -4430.1852   -4883.7616            0    8205.4296    18.009982    23.097216    18.985419     7897.563     6694.221    7432.3694    10489.698   -1608.4976    827.92884   -67.921432   -3485.1014 
 7817000    224.79234   -4923.7485    -4474.136   -4923.7485            0    7631.2809    17.760231    23.071033    19.275624    7898.1268    9412.1549    5520.1163    7961.5716   -638.49115   -604.02261    165.53333   -3595.1187 
 7818000    225.01458   -4911.0296   -4460.9727   -4911.0296            0    6592.2402    17.902167    22.949391    19.314867    7935.3937    7363.2503    7202.4269    5211.0433    1157.3586    470.53891    1125.0793   -3698.0555 
 7819000    221.52646     -4929.26   -4486.1797     -4929.26            0    9740.9472    17.991675    22.821379    19.131249    7855.1918     8356.412    9394.0865    11472.343   -445.52908   -869.23477    316.37903   -3370.2577 
 7820000    224.55831   -4895.6629   -4446.5185   -4895.6629            0    6748.3099    17.825749    22.820482    19.483836    7925.8722    7344.0965    7674.9713    5225.8619   -281.34337    534.08714    1317.9267   -3666.4765 
 7821000    216.69089   -4899.7291   -4466.3206   -4899.7291            0    7848.8012    18.064817     22.74514    19.330827    7942.7815    7782.0398    8624.2461    7140.1178    974.96345    364.15559   -2045.3505   -3557.1365 
 7822000    226.18445   -4871.2064   -4418.8096   -4871.2064            0     6258.107    18.077037    22.769052    19.367124    7971.4499    4944.9728    6854.1859    6975.1622    -1000.622    111.63023    -2078.134   -3691.2707 
 7823000    223.04544   -4941.6643   -4495.5459   -4941.6643            0    8239.3809    17.908124    22.687013    19.408304    7885.2415    8792.1374    8369.2972     7556.708    1139.4813    1651.5083    518.55147   -3548.0323 
 7824000    221.71074   -4936.6335   -4493.1846   -4936.6335            0    8974.6566      18.1185    22.634191    19.184741     7867.616    6770.6781    9470.7849    10682.507    66.091924    418.82102   -770.12317   -3463.4226 
 7825000    222.38215   -4918.4353   -4473.6435   -4918.4353            0    6663.3319    18.003742    22.796177    19.361049    7946.0936    6426.3032    6609.7346     6953.958    1431.9269    16.711434    617.67981   -3701.4592 
 7826000    223.33006   -4898.8574   -4452.1697   -4898.8574            0    8027.9609      17.9692    22.765097    19.310597    7899.3972    8401.6443    7266.7972    8415.4411    192.72723   -1153.7935     1399.085   -3527.3116 
 7827000    214.44167   -4927.7284   -4498.8186   -4927.7284            0    7149.9538    17.934278    22.719539    19.430528    7917.1343    5856.8649     8367.984    7225.0126    882.90161   -1216.5324    1446.4237   -3673.2614 
 7828000    236.75355   -4898.1843    -4424.648   -4898.1843            0     8205.308    18.106815    22.610699    19.344206    7919.6677    8415.1698    9234.7531    6966.0012   -381.38748    164.20581   -1142.2757    -3476.933 
 7829000    224.91034   -4930.5496   -4480.7012   -4930.5496            0    6911.1658    18.040504    22.795122    19.292419    7933.7273    9024.9097    6603.1994    5105.3883   -2532.6441   -1163.6269   -415.81734   -3681.0428 
 7830000    228.76441   -4895.9459   -4438.3888   -4895.9459            0    7732.6066    17.972226    22.812679     19.32839     7924.536    7333.4785    7497.6465     8366.695   -239.72844    362.45322    1555.0631    -3544.722 
 7831000    233.03732   -4917.2053   -4451.1019   -4917.2053            0    7130.1702    18.055595    22.904704    19.125679    7909.5788    6562.8152    6132.2241    8695.4713   -92.494028   -1027.1238    1056.2021   -3628.6147 
 7832000    216.52096   -4919.4894   -4486.4207   -4919.4894            0    7391.6922    18.053963    22.899264    19.214632    7943.7605    6978.3768    7585.9996    7610.7003   -870.36368    305.92589    24.090696   -3630.0813 
 7833000    223.01078   -4888.3599   -4442.3108   -4888.3599            0    8380.4485    17.881379    22.858299    19.368061    7916.4606    10083.123    8010.9868    7047.2353    634.79286   -1776.4063    3036.9523    -3474.759 
 7834000    238.73069   -4898.1666   -4420.6758   -4898.1666            0    8568.7881    18.034026    22.850026    19.178161    7902.8976    5991.3491    9463.0346     10251.98   -831.82866    536.51558    422.71808   -3433.0745 
 7835000    227.14035   -4927.7943   -4473.4855   -4927.7943            0     8333.858    17.980318    22.791043     19.25881     7892.072    7814.4338    9192.8191     7994.321    147.64772    483.67263    503.53152    -3514.277 
 7836000    220.56406   -4920.7998   -4479.6445   -4920.7998            0    7369.3079    17.825819    22.816331    19.501185    7931.5176    10464.475    7466.7157     4176.733     1114.916    246.74369     483.6027   -3627.2142 
 7837000    215.64741   -4901.4157   -4470.0942   -4901.4157            0    8632.6471    18.136326    22.579222    19.339973    7919.7989    10122.552     8642.189       7133.2    1317.8515     754.4454   -314.32857    -3473.005 
 7838000    228.14011   -4916.4017   -4460.0933   -4916.4017            0    6686.7013    18.151441    22.735209    19.248195    7943.2833    7180.5344    5644.1582    7235.4114     298.1988   -881.56578   -2062.9786   -3685.4748 
 7839000     216.6678   -4938.8801   -4505.5177   -4938.8801            0    7499.6935    17.915227     22.65012     19.49467     7910.587    9267.3715    7066.3151    6165.3938    872.06345   -798.86476     667.5533   -3640.2946 
 7840000    216.59025   -4902.3703    -4469.163   -4902.3703            0    7998.3635    17.970992    22.805489    19.211323    7873.5163    7576.2053    8354.9921    8063.8931    2194.0683    234.46438    -1546.509   -3550.7337 
 7841000    214.48289   -4890.9766   -4461.9843   -4890.9766            0    10753.296    17.883854    22.907193    19.122301    7833.8122     8586.844    10598.215    13074.828   -142.40999    208.00829   -1628.6886   -3233.4405 
 7842000    225.30683   -4919.9874   -4469.3459   -4919.9874            0    7497.8739    17.717173     23.08833    19.301544    7895.4884     9712.695    5868.2462    6912.6805    734.66139   -656.40532      237.083   -3605.9837 
 7843000    225.71929   -4891.3141   -4439.8477   -4891.3141            0    7551.1492    18.148533    22.873559    19.116283    7935.5808    7556.8935    6784.9334    8311.6207    982.29538   -545.44271   -153.18218   -3565.9358 
 7844000    225.09038   -4917.2678   -4467.0592   -4917.2678            0    7670.3918    18.157194    22.661856    19.225886    7910.9853    6645.9553    8112.2619    8252.9582   -298.87085    1465.0711   -1196.1315   -3582.0985 
 7845000    215.33933   -4925.0602   -4494.3549   -4925.0602            0    8805.8412    17.953285    22.387071    19.556468    7860.1643    10504.021    9391.0502    6522.4521    293.37055    -608.7869    325.82449   -3484.9199 
 7846000    231.10222   -4915.7705   -4453.5375   -4915.7705            0    8301.3714    18.084289    22.685397    19.283197    7910.9176    8150.4902    7708.1855    9045.4385   -143.51912    300.55077   -207.17521   -3495.7866 
 7847000    224.02539   -4914.8384   -4466.7599   -4914.8384            0    6809.8991    18.106913    22.692655    19.304427    7932.0717    6480.2229    7153.1298    6796.3446    1153.5756   -557.96324     1316.567   -3678.9831 
 7848000    221.88985   -4914.1999   -4470.3928   -4914.1999            0    6566.0994    17.912053    22.820417     19.47467    7960.4765    6167.4482    6728.0612    6802.7887   -65.739565    252.46044   -679.13768    -3708.099 
 7849000     220.9023   -4905.1163   -4463.2844   -4905.1163            0    7918.6192    17.986686    22.923803    19.172266    7905.1709    7992.3613    7080.2851     8683.211   -532.62891   -1450.4696    -798.2994   -3550.3562 
 7850000    228.89206   -4920.2005   -4462.3881   -4920.2005            0    6737.8782    17.904025      22.8134    19.371299    7912.2398    6666.6189    7045.3649    6501.6508    742.05711   -50.150663    1432.9823   -3684.8915 
 7851000    221.94917   -4948.4075   -4504.4817   -4948.4075            0    6769.8958    17.940168     22.77012    19.477765    7956.6624    6139.9862    7726.4494    6443.2518   -1269.4324   -381.74877   -70.302064   -3718.9046 
 7852000    217.58515   -4906.9416   -4471.7444   -4906.9416            0    5959.3549    18.045908    22.828294    19.406618     7994.698    5157.8037    6210.1432    6510.1177    661.16894    575.83584    1252.3777   -3776.9166 
 7853000    225.39282   -4902.2594   -4451.4459   -4902.2594            0    8115.7508    18.039361    22.920297     19.17992    7930.2739    5721.5344    9409.6515    9216.0664    527.41997    191.47513     2386.356   -3512.8194 
 7854000    226.32284   -4901.7177    -4449.044   -4901.7177            0    6577.5251    17.752219    23.063797     19.39508     7940.997    6347.5843     7749.449    5635.5419   -569.90946    1079.6783   -838.91467   -3687.2923 
 7855000     240.8205   -4901.6937    -4420.023   -4901.6937            0     8209.947    17.940674    23.015038    19.174953    7917.4395    8007.5751    8289.3569     8332.909    798.51507    765.37885     927.9663    -3472.039 
 7856000     211.4751   -4912.3703    -4489.394   -4912.3703            0    7357.6116    17.965949    22.933512    19.205977    7913.2909    8270.2972    7025.8077    6776.7298    164.89176   -235.67385     -1232.19   -3640.2724 
 7857000    221.58483   -4900.4486   -4457.2516   -4900.4486            0    6073.9576    17.781222    23.037331    19.324855    7916.0771     6789.387     6190.216    5242.2697    1118.9762    1418.7796   -294.36606   -3756.0262 
 7858000    230.23006   -4912.5418   -4452.0532   -4912.5418            0    5123.8603    17.959731     22.89509    19.413596      7982.67    5136.5539    5836.1538    4398.8733    370.95751    561.60273   -1005.5173   -3855.5382 
 7859000    220.54337    -4904.955    -4463.841    -4904.955            0    8879.5603    17.982078    22.854349    19.143674    7867.4506    8651.5965    8851.5448    9135.5395    565.16569   -234.28078    297.26135   -3445.0118 
 7860000    226.44345   -4893.9568   -4441.0419   -4893.9568            0    7882.4086    17.903489    22.885098    19.308286     7911.051    10040.619    6388.0153    7218.5909   -1093.7678   -1755.6286   -2111.6622   -3531.6125 
 7861000    227.65404    -4878.183   -4422.8467    -4878.183            0     7304.507    18.008292    22.878936    19.324982    7962.0965    7332.8572    7058.9735    7521.6903    298.63587   -614.36205    1261.2293   -3574.6546 
 7862000    225.25719   -4909.9627   -4459.4205   -4909.9627            0    7429.6818     17.93003    22.753813     19.45757    7938.2318    7544.5337    7323.4299    7421.0818   -265.74498    125.39937   -1073.3431   -3599.2791 
 7863000    225.64985   -4931.5545   -4480.2269   -4931.5545            0    7101.4996    17.989031     22.76548    19.338636    7919.7306    7115.4265    7183.6876    7005.3847     274.4532   -961.32314    803.78851   -3659.9955 
 7864000    233.76279   -4922.0254    -4454.471   -4922.0254            0     7002.114    18.150609     22.59408    19.338616    7930.6955    4701.0114    7632.5613    8672.7692   -1554.4404   -48.679949   -2054.2945    -3644.599 
 7865000    216.63943   -4897.9065   -4464.6009   -4897.9065            0    8066.5358    18.032812     22.66601    19.349601    7908.7987    7264.8474    8415.5249    8519.2352   -948.32268    1212.1398     354.3559   -3534.1928 
 7866000    215.28336   -4918.3082   -4487.7149   -4918.3082            0    8576.7069    17.947288    22.859353    19.237288    7892.3547     8259.046    8367.6548      9103.42    362.93531    712.73116     543.3338   -3500.5196 
 7867000    221.37941   -4931.0254   -4488.2393   -4931.0254            0    6501.8298    17.866233    23.160785    19.138493    7919.4313     6822.167    5988.2086    6695.1138   -1146.3628   -704.42868   -86.302871   -3737.2988 
 7868000    211.23606   -4909.3761   -4486.8779   -4909.3761            0    7198.8841    17.838398    23.022211    19.278897    7917.4449    8310.3945    6480.6462    6805.6116    2.1377142   -828.90753   -494.64567   -3655.6385 
 7869000    212.00311   -4911.5972   -4487.5648   -4911.5972            0    6472.3762    17.998089    23.029304    19.114113    7922.4839    5942.7937    5641.8952    7832.4398    880.74568    -226.8604    1868.8826    -3739.738 
 7870000    219.51392   -4915.1561   -4476.1011   -4915.1561            0    4876.6395    18.057254    22.862337    19.378857    8000.1934     6384.226    4432.2417    3813.4507    -1148.647    499.89494   -169.42125   -3907.1211 
 7871000     218.5252    -4923.145   -4486.0676    -4923.145            0    7411.2724     18.06076    22.597876    19.393054    7914.9804    5965.2285    8910.9802    7357.6084   -1028.4775    1191.3416   -778.04872   -3630.5706 
 7872000    220.17681   -4882.2242   -4441.8434   -4882.2242            0     7028.899    18.076637    22.609302    19.455555    7951.4883    6865.3626    7877.8414    6343.4929   -744.53727   -422.13206    169.51152   -3626.7421 
 7873000    222.76424   -4913.9563   -4468.4003   -4913.9563            0    8084.5615    18.138982    22.650217    19.308839    7933.0725    7373.7571    9390.5107    7489.4168    1084.0159    1019.2581    2612.0062   -3533.0511 
 7874000       226.63    -4911.884    -4458.596    -4911.884            0    7362.6905     17.84646    22.945561    19.367973    7931.1277    6919.2239    7710.8349    7458.0128   -1528.3725   -244.68866    -225.3582    -3606.973 
 7875000    223.77532   -4890.6818   -4443.1035   -4890.6818            0     6306.313    17.906395    23.197547     19.16263    7959.8585    5870.6924    5661.2673    7386.9793    130.90757    1817.7129   -20.789489   -3711.0265 
 7876000    225.33811   -4925.7325   -4475.0284   -4925.7325            0    8762.3034     17.71055    23.191633    19.195939    7884.4747    10841.001    7272.0296    8173.8792     463.2522    834.20918   -758.92284   -3467.4777 
 7877000    226.11251    -4917.648    -4465.395    -4917.648            0    8831.2591    17.744196    23.182236    19.091605    7853.3344    10289.621    8035.8419    8168.3143    448.28226    611.32742    1224.6448   -3453.9259 
 7878000    215.22646   -4906.9275    -4476.448   -4906.9275            0     7723.723    17.833457    22.892478     19.35847    7903.1343    10133.614    7443.5857    5593.9691   -56.788393    538.90106   -688.44038   -3586.2185 
 7879000    225.27284   -4871.9531   -4421.3796   -4871.9531            0    7492.5437     18.07165    22.808195     19.24734    7933.4013    9057.2054    5947.7133    7472.7124     1443.324   -1755.1613     738.1734   -3554.4884 
 7880000    220.76373   -4933.4057   -4491.8509   -4933.4057            0    7494.2078    18.192701    22.508839    19.234307    7876.3832    6133.0221    8050.3838    8299.2173     -865.725   -913.33021   -1872.5951    -3630.999 
 7881000    211.87961   -4918.6939   -4494.9085   -4918.6939            0     6577.516     17.94923    22.674792    19.470594    7924.4355    6475.8401      7038.44    6218.2677    68.040055   -11.234933    138.92055   -3734.7465 
 7882000    231.44614   -4905.5796   -4442.6587   -4905.5796            0    6906.9465    18.292763    22.649723      19.2368     7970.307    6215.1468    7563.2981    6942.3946    303.67641    573.36364   -961.81265   -3639.8039 
 7883000    223.53757   -4890.0892   -4442.9864   -4890.0892            0    8292.9317     17.98192    22.568356    19.518368    7920.9905    9771.1206    8290.6469    6817.0277   -735.73128      140.833   -1123.1913   -3484.9909 
 7884000    204.42682    -4889.415   -4480.5361    -4889.415            0    9371.0692    17.880697    22.640833    19.424532    7863.7087    11647.664    9156.1396    7309.4044   -368.48762   -513.19922   -609.79056   -3405.8232 
 7885000    222.97343   -4911.7749   -4465.8004   -4911.7749            0    9837.5151    17.954695     22.69419    19.210515     7827.656    9739.5482    9410.7306    10362.266    88.480549   -822.92352    708.37022   -3342.7661 
 7886000    230.20212   -4906.4635   -4446.0309   -4906.4635            0    7253.0277    17.870958    23.215702    19.071539    7912.5303    8251.0404    5627.2383    7880.8044    1427.0184   -907.00771    1205.7639   -3609.0595 
 7887000    216.66322   -4907.1072    -4473.754   -4907.1072            0    8423.0262    17.755319    22.997034    19.334241    7894.5508     11006.75    8291.0405    5971.2886   -153.50274   -406.34253    1139.6075   -3503.9779 
 7888000    227.42042   -4920.4166   -4465.5477   -4920.4166            0    7814.1802    17.985318    22.878617    19.179899    7892.1297    7000.1071    7494.1942    8948.2392     42.80232   -739.35779   -651.17501   -3566.1464 
 7889000    213.24144   -4913.2484   -4486.7392   -4913.2484            0    7680.4767    18.061673    22.868485    19.160646     7914.173      7268.65    7626.2599    8146.5202    -379.9121    462.34485   -624.75551   -3600.2578 
 7890000    222.14875   -4889.0424   -4444.7175   -4889.0424            0    7219.4612    17.779903    22.896132    19.505909      7940.68    8103.5139    7008.2442    6546.6256   -1211.3539   -454.73333   -227.95599   -3608.6557 
 7891000    223.53851   -4917.4638   -4470.3591   -4917.4638            0    7518.0511    17.974359    22.969199    19.219743    7934.9983    7817.2975    7615.5669     7121.289   -239.07757   -661.51755   -596.70105   -3600.3416 
 7892000    222.81246   -4908.7078   -4463.0553   -4908.7078            0    8097.9147    18.003682    23.103566    19.039505    7919.4679    7018.3165    7335.7999    9939.6276    497.28069    900.34726    1437.8011   -3527.7679 
 7893000    217.61609   -4913.7626   -4478.5036   -4913.7626            0    6266.7729    17.828418     22.92011    19.486005    7962.5526    7963.6073    6931.2206    3905.4908    1087.3677    1127.2157    250.07462   -3750.7704 
 7894000    227.23785   -4916.3618   -4461.8581   -4916.3618            0    5874.2519    18.043483    22.848344    19.273714    7945.8527    6209.6317    4711.8462    6701.2778   -279.28352   -721.77106   -2091.5992   -3781.1373 
 7895000    229.02935   -4923.0999   -4465.0129   -4923.0999            0    7184.5181    18.240707    22.616593    19.172951    7909.6602    4874.0983    8093.1631    8586.2929    461.31369   -479.74886    1032.9237    -3636.248 
 7896000    226.15653   -4926.5078   -4474.1668   -4926.5078            0    9327.0777    17.947281     22.64019     19.37023    7870.7026    8520.5934     11110.84       8349.8   -1103.0948    1558.8936   -997.73979   -3403.5477 
 7897000    207.86343   -4910.3863   -4494.6337   -4910.3863            0    7245.3582    18.014092    22.776455    19.267536    7905.4151    5491.9385    8803.4169    7440.7193   -359.44157    -159.3014    33.169021   -3659.2992 
 7898000     217.1449   -4913.5561   -4479.2395   -4913.5561            0    7161.0765     18.07124    22.606259    19.459117    7949.4991    6930.2299    8559.6272    5993.3724   -123.59168    682.38701   -622.99412    -3649.018 
 7899000    229.21145   -4904.2287   -4445.7775   -4904.2287            0    6189.1407    18.099191    22.848161    19.298314    7980.4942    4528.1968     6378.694    7660.5312   -91.521167   -298.46942   -13.784475     -3725.44 
 7900000     217.5652   -4903.3467   -4468.1894   -4903.3467            0    8110.9924    17.808849    22.797971    19.411476    7881.1686    7779.9343    9158.2097    7394.8333    415.83196    1337.0361    78.350545    -3535.922 
 7901000    232.83232   -4883.7608   -4418.0674   -4883.7608            0    8873.5025    17.934204    22.838332    19.219474    7872.0525    8940.5225    8479.8131    9200.1718   -1429.7413    99.571161   -2020.4773   -3399.3377 
 7902000    221.64188   -4900.3362    -4457.025   -4900.3362            0    8144.4585    17.920223    22.885748    19.266213    7901.4155    7737.2734    9265.2299    7430.8722   -1712.8825    573.95422   -588.19587   -3518.5062 
 7903000    232.45365   -4914.2789   -4449.3429   -4914.2789            0    6641.7845    17.885182    22.987946     19.23297    7907.5126    5453.1353    6536.0024    7936.2159    207.16798   -928.64489   -84.866651   -3683.3927 
 7904000    224.59478   -4915.4811   -4466.2638   -4915.4811            0    9024.1585    17.915915    22.928124    19.145041    7864.3676    9226.3363    8446.6418    9399.4975   -825.66927   -888.76887   -810.33697   -3431.2494 
 7905000    220.07411   -4920.4191   -4480.2437   -4920.4191            0    7667.8302    17.915069    22.859795    19.309364    7907.8563    8638.7525    7185.2379    7179.5002    309.07369    437.31675    822.18564   -3595.9283 
 7906000    211.43367   -4915.4214   -4492.5279   -4915.4214            0    7213.9594    17.988433    22.915259    19.180769    7906.4971    6302.9659    7882.8466    7456.0658    -1459.801   -306.53084   -50.671974   -3660.6996 
 7907000    227.07797    -4925.774     -4471.59    -4925.774            0    7099.3265    17.870118    22.866972    19.379096    7918.9863    7024.2463    7076.6754    7197.0578    492.49495    105.94697   -2427.2805   -3651.6867 
 7908000    221.52351   -4932.4675   -4489.3931   -4932.4675            0    8617.4818    18.075467    22.699666    19.162459    7862.4925     6523.093    10296.342    9033.0105    372.62917     1318.241   -533.25352   -3501.2576 
 7909000    225.91388   -4933.1275   -4481.2718   -4933.1275            0    9244.3784    17.936669    22.717417    19.222975    7832.8779    8883.4139    9955.1752    8894.5461    414.60384   -164.14489    484.87887    -3425.245 
 7910000    231.43922   -4917.6767   -4454.7697   -4917.6767            0    8785.9722    17.879726    22.781496    19.334998    7875.6649    10558.369    7418.3788    8381.1688   -421.16386   -446.79255   -443.17332   -3445.6262 
 7911000    219.10404   -4924.2601    -4486.025   -4924.2601            0    7991.2325    18.089266     22.75068    19.180842    7893.7433    8170.8129    7586.4608    8216.4237    1044.9572   -757.06618   -167.26881   -3566.0571 
 7912000    224.42504    -4911.843   -4462.9652    -4911.843            0    7089.0224    17.934639    22.740313    19.444735    7930.3274    7236.7008    6629.5722    7400.7941   -177.35172   -162.63898    129.30189   -3643.0795 
 7913000    221.43887    -4913.769   -4470.8639    -4913.769            0    7491.8502     18.00345    22.860791    19.165534    7888.0183     6744.356    8204.0446    7527.1501   -490.28104    676.05198    -460.4708   -3609.0115 
 7914000    223.52928   -4924.2116   -4477.1254   -4924.2116            0     7790.446    17.911343    22.926488    19.168622    7871.4835     9102.683    7169.3181    7099.3368    544.52192    277.67169    758.84731   -3582.8016 
 7915000    212.38079   -4886.9672   -4462.1794   -4886.9672            0    10185.483    17.751621    22.966688    19.235121    7842.0807    9655.0103    10020.948    10880.492   -737.10848   -673.01726    -1525.054   -3297.2789 
 7916000    230.68755   -4885.5091   -4424.1055   -4885.5091            0    7285.1815    17.909149    22.920466    19.260563    7906.1924    6871.7117    7170.8566    7812.9763    863.53712   -471.27271    972.41703   -3584.0971 
 7917000    219.00465   -4913.0467   -4475.0103   -4913.0467            0    7537.3879    18.060097    22.815635    19.224803    7921.6298    7385.5964    8173.1984    7053.3689   -692.71353    589.35797    1917.2718   -3604.2246 
 7918000    228.65361   -4895.0255     -4437.69   -4895.0255            0    8435.7938     17.83315    22.562087    19.638224    7901.5002    9857.6474    8653.7587    6795.9753    123.48564    1079.1511    789.10521    -3465.589 
 7919000    238.43193   -4916.9193    -4440.026   -4916.9193            0    4094.4862    18.005741    22.851224    19.472461    8012.0066    4034.6884    5389.8734     2858.897   -2105.9658    56.056939   -469.41613    -3961.598 
 7920000    215.51149   -4884.8776    -4453.828   -4884.8776            0    7684.9067    18.027005    22.938485     19.23213      7952.72    7792.3598    7387.0862     7875.274     365.5716   -151.46293    1779.8167   -3562.5151 
 7921000    228.76403   -4905.9537   -4448.3974   -4905.9537            0    7358.1638    17.826688    23.121714    19.197389    7912.8483    7390.1041    7085.3121    7599.0753   -1767.9425    446.74815   -1594.9104   -3599.2596 
 7922000    219.09716   -4916.1101   -4477.8887   -4916.1101            0    8237.7652    17.706636    23.050198    19.292082    7873.8987    9639.0602    7828.0357    7246.1998    2005.0618    328.20813    1782.1014   -3531.9236 
 7923000    217.86623   -4928.7387   -4492.9793   -4928.7387            0    8115.8579    18.074034    22.790135    19.173907    7897.9175    5534.2009    8758.1319    10055.241   -1264.0532    1230.3969    -986.5795   -3558.1703 
 7924000    221.90404   -4916.8275    -4472.992   -4916.8275            0    6076.5999     17.94328    22.931848      19.3365    7956.4396    5731.4874    6002.9885    6495.3239    -111.1937    333.67022    474.00498   -3767.8846 
 7925000    215.90839   -4904.2471   -4472.4037   -4904.2471            0    6355.3706    17.886635    22.986089     19.29622    7933.5208    5203.3273    7488.7681    6374.0165    549.45047    68.586382    303.73267   -3737.0729 
 7926000    221.02824   -4909.0746   -4466.9908   -4909.0746            0    9021.7664    17.877073    22.899097    19.191331    7856.3325    6911.8193    9796.8129    10356.667   -32.488537   -473.53536    293.96223   -3433.3079 
 7927000     227.7981   -4903.3111   -4447.6867   -4903.3111            0    8763.5376    17.948858    22.940227     19.14382    7882.4846    7709.3805    9931.1194    8650.1129    373.38184    868.87839    2493.4194   -3440.2484 
 7928000    222.70792   -4904.6306   -4459.1872   -4904.6306            0    7076.2036    17.833042    22.806869    19.490697    7927.1755    6768.9893    8717.4364    5742.1851    95.817729    923.59436   -700.05536   -3641.1093 
 7929000    215.89345   -4880.9185    -4449.105   -4880.9185            0    7348.7045    17.975254    22.780242    19.426066    7954.5975    7276.8004    6753.5171    8015.7961    935.06122   -502.71064    1917.1236   -3596.5843 
 7930000    223.64422   -4900.8551    -4453.539   -4900.8551            0    7761.4728    18.120101     22.69452    19.206722    7898.3227    9846.8272    6753.6469    6683.9442   -565.31408   -1171.7687   -1653.3467   -3559.5032 
 7931000    217.02722   -4907.6146   -4473.5333   -4907.6146            0    8736.8991    17.940894    22.805411    19.259404    7879.9744    8195.7689    8613.7273    9401.2011    270.25527   -735.91536    24.494372   -3469.4772 
 7932000    234.10313   -4925.0323   -4456.7971   -4925.0323            0    8995.6472    17.956402    22.747417    19.284158    7876.8414    9102.5407    8476.9201    9407.4809   -125.35647   -1231.5986   -1004.4692   -3423.4163 
 7933000    216.41013   -4916.0892   -4483.2422   -4916.0892            0    8189.3421    18.010797    22.705033    19.291753     7889.087    7046.1222    9029.0665    8492.8375    42.714948   -767.36963    612.34832   -3541.0237 
 7934000    221.82321   -4931.0197   -4487.3459   -4931.0197            0    8274.4083    17.935959    22.704275    19.350224    7879.8556    7960.6678    7596.4929    9266.0641   -1596.5695   -1670.9829   -1579.5099   -3536.4541 
 7935000    228.88143   -4896.6538   -4438.8626   -4896.6538            0    8116.3908    17.902479    22.791036    19.355586    7897.3895    8284.0916    8431.4738    7633.6068   -713.14864   -1045.6436   -783.85496   -3504.0547 
 7936000    227.32399   -4904.4698   -4449.7937   -4904.4698            0     6587.268    18.038389    22.948661    19.212571    7953.1761    6965.4983     6197.256    6599.0497    248.82999    181.92765    394.02769   -3685.7436 
 7937000    217.57407   -4917.2098   -4482.0348   -4917.2098            0      5581.72    17.786186    22.889522    19.555136    7961.2341    7750.6749    5159.5499    3834.9352     880.6806    687.30371   -595.41317   -3833.9612 
 7938000    228.73717   -4910.8947   -4453.3921   -4910.8947            0     7914.865    18.149775    22.874314    19.108102    7932.9895    8053.2418     7533.487    8157.8661   -682.15553    919.27138   -98.531872   -3537.6857 
 7939000    216.18954    -4925.446   -4493.0402    -4925.446            0    8336.2815    17.888539    22.737297    19.358306      7873.74    8636.1306    8242.9128    8129.8012   -483.94418   -89.257984   -566.45462   -3535.7814 
 7940000    243.83668   -4917.4372   -4429.7338   -4917.4372            0    6716.0202    18.128201    22.725634    19.297254    7949.9834    6066.8664    7313.3438    6767.8504   -1001.9324    327.96253   -188.89394   -3651.0626 
 7941000    225.55435   -4896.9956   -4445.8591   -4896.9956            0    8098.0566    18.129423    22.559064    19.266228    7879.5562    5913.6626    9345.0453    9035.4618   -1318.9256   -891.36291   -2719.4402   -3515.2689 
 7942000    233.04121   -4914.4042   -4448.2929   -4914.4042            0    9055.7194    17.947169    22.699885    19.335627    7877.3087    9413.8909    8907.5263    8845.7411    423.22872    -1156.832   -2559.2615   -3407.9495 
 7943000    225.44829   -4920.4324    -4469.508   -4920.4324            0    7618.0055    17.804711    22.812179    19.457465     7902.927     9637.414    7579.7222    5636.8802    1064.1779    256.74032    386.12874   -3591.4865 
 7944000    224.02966    -4907.185    -4459.098    -4907.185            0     7776.144    17.961178    22.848456    19.265732    7906.3712    8317.3766    7465.7106    7545.3447    697.78808   -154.14801    920.26889   -3562.4595 
 7945000    218.42118   -4898.1005   -4461.2312   -4898.1005            0    7912.3276    18.093692    22.727537    19.270637     7924.569    6063.7171     9551.968    8121.2978   -467.40455       1906.6    960.12421     -3546.79 
 7946000    226.19975   -4932.6856   -4480.2581   -4932.6856            0    6427.7383     17.97361    22.942649    19.291689    7955.1638    6566.8163     7303.812    5412.5868    569.24749     1287.414    1173.2649   -3734.5254 
 7947000     224.7668   -4917.6913   -4468.1299   -4917.6913            0    5917.2834     18.00401    23.067259    19.229131    7985.9191    6081.9891    4344.0787    7325.7823   -913.39503    -479.5418   -1465.0553    -3778.965 
 7948000    215.92957    -4896.169   -4464.2832    -4896.169            0    7369.1321     17.83948    22.997533    19.272044    7906.6268    7582.7842    7266.2343    7258.3779   -1284.1523   -563.09136   -1417.3021   -3614.5483 
 7949000    221.41205   -4888.3722   -4445.5207   -4888.3722            0    7248.3158    17.802325    22.954749    19.392366    7924.6498    9896.8457     5656.801    6191.3006   -104.28753   -1067.7372   -269.64053   -3607.8119 
 7950000    217.98668   -4904.4532   -4468.4529   -4904.4532            0    7882.3858    17.938023     22.95465    19.133284    7878.3411    7898.6144    7767.7517    7980.7913    305.67059   -458.60458   -479.22059   -3562.7863 
 7951000    225.53169   -4924.8905   -4473.7992   -4924.8905            0    6897.3121    17.871169    23.015686    19.337764    7953.9555    6884.2733    6531.4289    7276.2341    465.67763   -889.27889   -393.53509   -3673.7091 
 7952000    223.07641   -4918.5423   -4472.3619   -4918.5423            0    5893.0565    17.973841     22.86629    19.368189    7960.2301    5842.1373    5626.1606    6210.8715    465.05029   -1546.4786    60.694756   -3788.2265 
 7953000    213.89377   -4918.4151   -4490.6011   -4918.4151            0    8199.8794    18.044886    22.790622    19.269575    7924.6932    8173.9253    8040.9632    8384.7497   -376.05452    171.50223   -197.99276   -3542.9122 
 7954000    221.20016   -4940.4542   -4498.0266   -4940.4542            0    7320.2332    17.970359    22.825598    19.319512    7924.5583    7993.3256    6837.5922    7129.7817    752.57465    273.63854    759.44907   -3652.0158 
 7955000    219.65339   -4926.4202   -4487.0863   -4926.4202            0    8496.8793    18.035633    22.851722     19.16303     7897.952    7554.1255    8068.3529    9868.1594    1395.7599    -1176.555    1558.5438   -3508.3858 
 7956000    210.07101    -4897.448     -4477.28    -4897.448            0    8782.4837    17.992872    22.758561     19.28489    7897.0057    8374.1595    8661.0969    9312.1947   -1553.4379    74.145947   -868.47235   -3465.8038 
 7957000     217.6759   -4897.9785   -4462.5998   -4897.9785            0    6633.4038     17.94688    22.827517    19.349376    7927.1051    6626.3788    6906.6523    6367.1804    282.70416   -368.26242    1147.7001   -3695.7206 
 7958000    226.61561   -4893.0488   -4439.7896   -4893.0488            0    8444.2691    17.796666    22.946745    19.318381    7889.1547    9808.8051    7291.7651    8232.2373   -1341.2982    467.46846   -870.07794   -3468.2323 
 7959000    222.63132   -4905.4052   -4460.1151   -4905.4052            0    8779.1875    17.812765    23.029832    19.178276     7867.408    10614.382    7602.3534    8120.8271   -189.41283   -113.15619    495.44523    -3452.808 
 7960000    225.35515   -4902.3376   -4451.5994   -4902.3376            0    6679.2939    17.925416    23.126142    19.174258    7948.6068    7214.9605    5677.6332    7145.2882   -417.17009   -203.66703    210.51898   -3677.3205 
 7961000    228.38503   -4916.8186   -4460.0203   -4916.8186            0    6649.9491    17.928983    22.923776    19.334259    7946.3804    7722.8703    5401.5023    6825.4746   -41.958064   -736.22274    -530.6796    -3689.359 
 7962000    221.65346   -4909.9331   -4466.5988   -4909.9331            0    8420.3139    17.962008    22.617669    19.469869    7909.8047     9394.963    8619.4737    7246.5049   -1092.9157    312.34974   -3072.0227   -3495.2618 
 7963000    230.73646   -4927.5616   -4466.0602   -4927.5616            0    7764.5764    18.089393    22.549584    19.395206    7911.4649    7470.1622    9901.1626    5922.4043   -24.027078    752.16732    1307.7233   -3570.1787 
 7964000    224.01137   -4916.3334   -4468.2829   -4916.3334            0    8686.7571    18.078109    22.691105    19.297871    7916.2239    7836.9344    9045.6962    9177.6406    242.31497    648.41923    964.67929   -3465.3968 
 7965000    216.05246   -4933.9099   -4501.7782   -4933.9099            0    9158.1571    17.915097    22.692016    19.322826     7855.302    8186.7493    10226.287     9061.435    1263.2399    1129.7548   -850.59418   -3452.6058 
 7966000    223.00187   -4910.0071   -4463.9759   -4910.0071            0    8356.0355    17.959943    22.744182    19.255963    7865.7572    8523.6087      9328.93    7215.5679   -743.94156     847.8505   -491.93736   -3505.4216 
 7967000    225.32965   -4943.8992   -4493.2121   -4943.8992            0    7166.9092    17.931929    22.859311    19.277281    7901.9797    6094.9603     7386.064    8019.7033   -933.10141   -108.47949   -987.08469   -3667.2812 
 7968000    235.25385   -4908.7137   -4438.1769   -4908.7137            0    8483.1797    17.831065    23.020239     19.23943    7897.3125    9019.3921    8085.3746    8344.7722    1544.1239    1277.3781    938.41623   -3461.1334 
 7969000    204.71014   -4877.6835   -4468.2379   -4877.6835            0    7946.2207    17.960651    22.954426    19.177545    7906.4497    7468.5796    8128.5828    8241.4998   -245.50397    564.41228    988.56173   -3551.9794 
 7970000    212.57695    -4917.341   -4492.1609    -4917.341            0    9074.6499    17.893149    22.754433    19.328603    7869.6109    9103.4994    9352.3738    8768.0763   -1244.7517    137.40237    -410.7731   -3450.6615 
 7971000    219.67932   -4916.2928    -4476.907   -4916.2928            0    7870.7171    17.974854    22.839343    19.292397    7920.1823    7644.5041    7616.3454    8351.3019   -126.77048    599.77103    90.720394   -3567.7783 
 7972000    217.09981   -4935.9089   -4501.6824   -4935.9089            0    7186.5718    18.129756    22.778553    19.207399    7932.0723    5431.3603     8101.936    8026.4193   -655.41335    2355.8482    -371.8813   -3670.3316 
 7973000    214.92468   -4923.5902   -4493.7143   -4923.5902            0    7056.9484    18.038745    22.712943    19.281437    7899.8553    6678.1992    7152.8839    7339.7622   -405.90663    170.29032   -779.17087   -3680.6742 
 7974000     230.7009   -4926.2458   -4464.8155   -4926.2458            0     8148.689    17.984655    22.817927    19.295399    7918.3017    8178.0366    7548.7944    8719.2359   -850.62415    221.95323   -302.30052   -3523.8024 
 7975000    221.92128   -4928.1245   -4484.2546   -4928.1245            0    7349.6472    17.875013     22.93396    19.270721    7899.9326    8543.8319    7166.3805    6338.7292   -614.98167     664.4892   -1505.9176    -3637.484 
 7976000    213.37168    -4890.294   -4463.5243    -4890.294            0     9641.785    17.850381    22.852141    19.279209     7864.364    9053.1785    9470.9593    10401.217    388.02162   -440.30281    -548.1119   -3357.6725 
 7977000    229.99394   -4869.4936   -4409.4773   -4869.4936            0    7636.0253    17.871395    22.856949    19.435345    7939.0582    7307.7968    8407.1843    7193.0947    -717.2363     746.5979   -891.52988   -3525.3553 
 7978000    229.22806   -4897.8601   -4439.3756   -4897.8601            0    7721.5017    18.114345    22.764932    19.208927    7921.2205      7579.85    8045.4261     7539.229    15.401699   -728.37125    598.04051   -3547.3656 
 7979000     231.1495   -4907.6211   -4445.2936   -4907.6211            0    8208.4502    18.023779    22.794287    19.242059     7905.392    9278.4796    8294.0458    7052.8252   -512.78849    263.10802   -614.30962   -3498.9247 
 7980000    229.88349   -4893.5297   -4433.7344   -4893.5297            0    7018.3655    18.135224    22.826442    19.193516    7945.3988    5933.2559    6321.8554    8799.9851    131.32994    1356.6142    444.05028   -3620.4778 
 7981000    236.49335   -4914.2084   -4441.1924   -4914.2084            0    8028.3106    17.918911     22.75469    19.362312    7894.7747    8018.0437    7741.3791    8325.5089   -535.96474    1079.7323    -237.0866   -3516.8353 
 7982000     224.2976   -4910.6377   -4462.0147   -4910.6377            0     7759.294    17.871548    22.897891    19.358001     7921.696    9393.1732    6852.4575    7032.2513    2467.5635    83.541441   -84.964009    -3565.585 
 7983000    217.01487   -4899.9322   -4465.8756   -4899.9322            0    9643.2702    17.944779    22.820942    19.119792    7829.8752    10913.624    8890.7679    9125.4185    267.66015   -1486.1684    592.42861   -3364.7038 
 7984000    228.06927   -4893.5866   -4437.4199   -4893.5866            0    9115.4537    17.732127    22.924337    19.340992    7862.0602    9897.1072    9412.0889     8037.165    1436.2031    258.70615    521.16436   -3392.2412 
 7985000    213.23212   -4909.0289   -4482.5383   -4909.0289            0    8112.1064    17.941987     22.80618    19.343381    7915.0831    7639.9476    8735.7164     7960.655   -815.04609   -76.494407   -789.94802   -3546.1306 
 7986000     226.0935   -4924.5315   -4472.3166   -4924.5315            0    8290.4261    18.051688    22.820814    19.232042    7922.7208    6931.7577    7715.1895    10224.331   -762.42954   -342.28119   -715.29125   -3514.4013 
 7987000     219.0388   -4913.8342   -4475.7296   -4913.8342            0    7551.1601    18.005142     22.77739    19.380539     7948.156    6631.3304    8016.9607     8005.189   -1657.1828    1696.0588    1146.8922   -3600.4315 
 7988000    223.13024   -4900.7016   -4454.4135   -4900.7016            0    7543.0413    17.937747    22.966232    19.290661    7947.0283    7926.8303    7194.0441    7508.2496    239.65882   -542.03083    460.52559   -3580.1807 
 7989000    218.07516   -4908.9342    -4472.757   -4908.9342            0    6628.8239     17.85559    23.260707    19.148865    7953.1679    6467.7401    6161.7046    7257.0269     426.2402    207.38086   -631.13788   -3703.8877 
 7990000     225.5175   -4894.0456   -4442.9827   -4894.0456            0     8681.762    17.999112    23.033157    18.991994    7873.6317    6565.3106    9204.9045    10275.071   -92.830453    625.71436   -816.56768   -3446.0661 
 7991000    220.32023   -4917.1651   -4476.4974   -4917.1651            0    7982.6792    17.729395    23.062261    19.295268    7889.4476    9653.6469    6788.7368     7505.654    235.98825    98.525722    1612.6914   -3558.0143 
 7992000     223.8816   -4912.2783   -4464.4874   -4912.2783            0    8563.9272    17.899447     23.01221    19.108892    7871.0642    8078.1742    7311.3837    10302.224    1235.0812   -1170.5797    1189.2625   -3481.4223 
 7993000    235.70813   -4910.3851   -4438.9397   -4910.3851            0    7839.3658     17.93244    22.732742    19.438983    7924.3704    6310.6698    8281.7437    8925.6839    2758.8938   -333.01463    1538.0171   -3532.9535 
 7994000    229.84366   -4902.0673   -4442.3516   -4902.0673            0    8058.8824    18.010274    22.780525    19.210913    7881.9201    5492.5073     9230.099    9454.0409    202.81587    1114.2789   -2387.1574   -3515.9853 
 7995000    227.88335   -4893.5861   -4437.7912   -4893.5861            0    7649.6845    18.117659    22.725593    19.290843    7942.7065    7418.0905    7581.3202     7949.643     807.7281    643.42601    720.21965   -3551.6806 
 7996000    231.04066   -4941.4149    -4479.305   -4941.4149            0     6222.815    17.929619    22.810395    19.439822     7950.531    7348.1663    4852.5529    6467.7257   -269.71723   -982.32886    759.35968   -3757.7675 
 7997000    231.49632   -4928.8671   -4465.8458   -4928.8671            0    8548.0035    17.992324    22.693276    19.281633    7872.7827    7792.2528     8810.668    9041.0898   -109.36575   -442.94175    -2187.319   -3484.3943 
 7998000    229.67816   -4907.1558   -4447.7711   -4907.1558            0    6721.8259    18.043039    22.800644    19.232026    7911.9187    5873.5412     7464.055    6827.8815   -272.04346   -97.865363   -265.33313   -3672.1583 
 7999000    213.59392    -4913.689   -4486.4747    -4913.689            0    5823.3261     17.87583    22.827524    19.484875    7951.0163    7604.5947    5745.7632    4119.6203   -1231.2002   -107.58717   -384.93923   -3811.2169 
 8000000    229.22117   -4893.1508   -4434.6802   -4893.1508            0    7622.3791    17.931404    23.157965    19.102549    7932.4254    7559.9802    7569.4729    7737.6842    -838.5352    888.23767    14.619694   -3552.8754 
Loop time of 455.636 on 64 procs for 250000 steps with 1008 atoms

Performance: 94.813 ns/day, 0.253 hours/ns, 548.684 timesteps/s
194.2% CPU use with 32 MPI tasks x 2 OpenMP threads

MPI task timing breakdown:
Section |  min time  |  avg time  |  max time  |%varavg| %total
---------------------------------------------------------------
Pair    | 37.166     | 39.793     | 43.517     |  24.4 |  8.73
Bond    | 1.0625     | 1.2011     | 1.4063     |   7.9 |  0.26
Kspace  | 221.68     | 226.72     | 232.51     |  17.7 | 49.76
Neigh   | 2.9669     | 3.1005     | 3.2879     |   5.7 |  0.68
Comm    | 75.005     | 78.992     | 82.48      |  22.6 | 17.34
Output  | 0.57731    | 0.57762    | 0.57918    |   0.0 |  0.13
Modify  | 88.202     | 91.054     | 92.647     |   8.9 | 19.98
Other   |            | 14.2       |            |       |  3.12

Nlocal:        31.5000 ave          39 max          27 min
Histogram: 5 2 4 5 6 6 3 0 0 1
Nghost:        2892.09 ave        2912 max        2862 min
Histogram: 1 0 4 2 3 4 5 5 4 4
Neighs:        10534.3 ave       13119 max        8924 min
Histogram: 4 3 4 5 7 3 5 0 0 1

Total # of neighbors = 337097
Ave neighs/atom = 334.42163
Ave special neighs/atom = 2.0000000
Neighbor list builds = 6920
Dangerous builds = 0

unfix		3
unfix		2
unfix		1

write_data	data.final.${pid}
write_data	data.final.0
System init for write_data ...
PPPM initialization ...
  extracting TIP4P info from pair style
  using 12-bit tables for long-range coulomb (../kspace.cpp:340)
  G vector (1/distance) = 0.38312806
  grid = 24 30 32
  stencil order = 5
  estimated absolute RMS force accuracy = 0.0019798112
  estimated relative force accuracy = 5.9621425e-06
  using double precision FFTW3
  3d grid and FFT values/proc = 5355 768
Last active /omp style is kspace_style pppm/tip4p/omp
WARNING: Not all mixed pair coeffs generated from mixing. Use write_data with 'pair ij' option to store all pair coeffs. (../write_data.cpp:312)

write_restart   restart.lmp.${pid}
write_restart   restart.lmp.0
System init for write_restart ...
PPPM initialization ...
  extracting TIP4P info from pair style
  using 12-bit tables for long-range coulomb (../kspace.cpp:340)
  G vector (1/distance) = 0.38312806
  grid = 24 30 32
  stencil order = 5
  estimated absolute RMS force accuracy = 0.0019798112
  estimated relative force accuracy = 5.9621425e-06
  using double precision FFTW3
  3d grid and FFT values/proc = 5355 768
Last active /omp style is kspace_style pppm/tip4p/omp
Total wall time: 0:07:35
