#include		in.partitions
include		in.temp
variable        temperature equal 25.96
variable	tempDamp equal 100.0
include		in.pressure
variable        pressure equal -956.2
variable        pressureDamp equal 1000.0 # This is 1 ps
include		in.seed
variable        seed equal 745823

units		real
atom_style	full

read_restart	restart.lmp.${pid}
read_restart	restart.lmp.1
Reading restart file ...
  restart file = 30 Jul 2021, LAMMPS = 30 Jul 2021
  restoring atom style full from restart
  orthogonal box = (-0.0026915907 -0.016883031 -0.11782306) to (20.002693 20.016884 20.817821)
  4 by 4 by 4 MPI processor grid
  restoring pair style lj/cut/tip4p/long/omp from restart
  restoring bond style harmonic/omp from restart
  restoring angle style harmonic/omp from restart
  972 atoms
  648 bonds
  324 angles
Finding 1-2 1-3 1-4 neighbors ...
  special bond factors lj:    0        0        0       
  special bond factors coul:  0        0        0       
     2 = max # of 1-2 neighbors
     1 = max # of 1-3 neighbors
     1 = max # of 1-4 neighbors
     2 = max # of special neighbors
  special bonds CPU = 0.006 seconds
  read_restart CPU = 0.016 seconds
include 	in.setup
variable	out_freq equal 1000
variable	out_freq2 equal 10000
variable	out_freq3 equal 1000

timestep	2.0

neigh_modify    delay 7 every 1

include		in.tip4p
# This is TIP4P/Ice

# create groups ###
group ox type 2
324 atoms in group ox
group hy type 1
648 atoms in group hy

# set charges - beside manually ###
set group ox charge -1.1794
Setting atom values ...
  324 settings made for charge
set group hy charge 0.5897
Setting atom values ...
  648 settings made for charge

# ### TIP3P Potential Parameters ###
pair_style lj/cut/tip4p/long/omp 2 1 1 1 0.1577 8.5
pair_coeff 1 1*2 0.000 0.000
pair_coeff 2 2 0.21084 3.1668
bond_style  harmonic
bond_coeff  1 450 0.9572
angle_style harmonic
angle_coeff 1 55 104.52
kspace_style pppm/tip4p/omp 1.0e-5
pair_modify tail yes

thermo          ${out_freq}
thermo          1000
thermo_style    custom step temp pe etotal epair emol press lx ly lz vol pxx pyy pzz pxy pxz pyz enthalpy

restart 	${out_freq3} restart.lmp.${pid} restart2.lmp.${pid}
restart 	1000 restart.lmp.${pid} restart2.lmp.${pid}
restart 	1000 restart.lmp.1 restart2.lmp.${pid}
restart 	1000 restart.lmp.1 restart2.lmp.1


include         in.dump
dump            myDump all atom ${out_freq2} dump.water.${pid}
dump            myDump all atom 10000 dump.water.${pid}
dump            myDump all atom 10000 dump.water.1
dump            myDump2 all dcd ${out_freq2} dump.dcd
dump            myDump2 all dcd 10000 dump.dcd
dump_modify     myDump append yes
dump_modify     myDump2 append yes


variable natoms 	equal  "count(all)"                        # NUMBER ATOMS
variable H      	equal  "enthalpy/v_natoms"                 # ENTHALPY-per-atom
variable Vol      	equal  "vol/v_natoms"                 # volume-per-atom
fix AVG all 		ave/time ${out_freq} 1 ${out_freq} v_Vol v_H file vol_enthalpy.dat
fix AVG all 		ave/time 1000 1 ${out_freq} v_Vol v_H file vol_enthalpy.dat
fix AVG all 		ave/time 1000 1 1000 v_Vol v_H file vol_enthalpy.dat


timer           timeout 02:55:00 every 1000
New timer settings: style=normal  mode=nosync  timeout=02:55:00

fix 		1 all shake 1e-6 200 0 b 1 a 1
       0 = # of size 2 clusters
       0 = # of size 3 clusters
       0 = # of size 4 clusters
     324 = # of frozen angles
  find clusters CPU = 0.002 seconds
fix             2 all nph aniso ${pressure} ${pressure} ${pressureDamp}
fix             2 all nph aniso -956.2 ${pressure} ${pressureDamp}
fix             2 all nph aniso -956.2 -956.2 ${pressureDamp}
fix             2 all nph aniso -956.2 -956.2 1000
fix             3 all temp/csvr ${temperature} ${temperature} ${tempDamp} ${seed}
fix             3 all temp/csvr 25.96 ${temperature} ${tempDamp} ${seed}
fix             3 all temp/csvr 25.96 25.96 ${tempDamp} ${seed}
fix             3 all temp/csvr 25.96 25.96 100 ${seed}
fix             3 all temp/csvr 25.96 25.96 100 745823


run             250000
PPPM initialization ...
  extracting TIP4P info from pair style
  using 12-bit tables for long-range coulomb (../kspace.cpp:340)
  G vector (1/distance) = 0.3721684
  grid = 24 24 25
  stencil order = 5
  estimated absolute RMS force accuracy = 0.0034364892
  estimated relative force accuracy = 1.0348885e-05
  using double precision FFTW3
  3d grid and FFT values/proc = 2366 288
Last active /omp style is kspace_style pppm/tip4p/omp
Neighbor list info ...
  update every 1 steps, delay 7 steps, check yes
  max neighbors/atom: 2000, page size: 100000
  master list distance cutoff = 10.8154
  ghost atom cutoff = 10.8154
  binsize = 5.4077, bins = 4 4 4
  1 neighbor lists, perpetual/occasional/extra = 1 0 0
  (1) pair lj/cut/tip4p/long/omp, perpetual
      attributes: half, newton on, omp
      pair build: half/bin/newton/omp
      stencil: half/bin/3d
      bin: standard
Per MPI rank memory allocation (min/avg/max) = 9.227 | 9.230 | 9.237 Mbytes
Step Temp PotEng TotEng E_pair E_mol Press Lx Ly Lz Volume Pxx Pyy Pzz Pxy Pxz Pyz Enthalpy 
12250000    29.765644   -5193.8475    -5136.442   -5193.8475            0   -989.47375    20.005384    20.033767    20.935644    8390.6546   -468.88904    -1335.514   -1164.0182  -0.31114855   -222.45673   -357.05048    -5257.523 
12251000    25.729656   -5202.5814   -5152.9596   -5202.5814            0   -979.44979    20.012843    19.984479    20.934536    8372.6891    -678.6265   -1797.3647   -462.35814    16.675285    287.84538    19.890198   -5272.5574 
12252000    26.071311   -5201.8243   -5151.5436   -5201.8243            0   -1442.1897    20.032678    20.000327    20.995201    8411.9394   -1564.3423   -1331.9513   -1430.2755    72.824187    132.69268    127.99904   -5328.4707 
12253000    26.200198   -5203.0102   -5152.4809   -5203.0102            0   -1157.0239    20.066595    19.952672    21.029273    8419.7464    -876.2277   -1806.5563   -788.28764   -193.31743    178.67961    94.122189   -5294.5558 
12254000     25.12859   -5203.6482   -5155.1856   -5203.6482            0    -624.0873    20.030398    19.938385     20.99767    8385.9188   -742.29641   -294.61973   -835.34575   -176.63515    62.657925    519.55284   -5231.5115 
12255000    25.217301   -5199.9488   -5151.3151   -5199.9488            0    -829.3548    20.004109    20.018083    21.019041    8416.9467   -756.22744    -1001.028   -730.80901    158.25493    201.91607    274.21156   -5253.1205 
12256000    26.567825   -5200.5245   -5149.2862   -5200.5245            0    -1108.658    20.001058    19.954354    21.134477    8434.9429   -959.22178   -994.82819   -1371.9239    -419.8042     209.6171    60.500127   -5285.6677 
12257000    25.669234    -5201.631   -5152.1257    -5201.631            0   -800.58569    19.982675    19.995637    21.051552    8411.4912   -829.72306   -487.27282   -1084.7612   -55.953866    266.84361    433.56618   -5250.3359 
12258000    26.182594   -5201.5953   -5151.0999   -5201.5953            0   -887.98119    20.012627    19.988445    21.006523    8403.0568   -863.04308   -1161.7792   -639.12132   -101.88053    231.89779   -126.49661    -5259.922 
12259000    27.130594   -5201.4531   -5149.1294   -5201.4531            0   -782.37252    19.988301    19.990452     21.03089    8403.4215   -564.15647   -1096.2832   -686.67791    25.079321    355.24001     43.40716   -5245.0133 
12260000    25.361703   -5199.2414   -5150.3292   -5199.2414            0    -1343.496    20.037895    19.958202    21.000065    8398.3538   -1279.9131    -1733.853   -1016.7221   -341.02711    121.61579   -95.830101   -5314.8825 
12261000    26.510491   -5203.2657    -5152.138   -5203.2657            0   -1041.8645    20.041478    20.028468    20.888361    8384.5903   -940.99813   -1424.9474   -759.64813    38.684915    127.58874    91.430692   -5279.5378 
12262000    28.421673   -5201.3613   -5146.5477   -5201.3613            0   -1215.1061    20.023369    20.008075    21.011752    8417.9188   -1572.3559   -1239.0631    -833.8993   -60.583551    381.07199   -367.48991   -5295.7223 
12263000    26.216764   -5197.8544   -5147.2932   -5197.8544            0   -1020.6586    19.983669    20.042537    20.995604    8409.2312   -934.14129   -1266.9931   -860.84138   -7.9803811   -57.421499   -409.41826   -5272.4668 
12264000    25.799705   -5201.2013   -5151.4444   -5201.2013            0   -1357.1243    20.004967    19.996545    21.149285    8460.3532   -1570.6933   -1245.9081   -1254.7716   -176.44181    241.94683   -676.72703   -5318.8939 
12265000    26.132679   -5203.4833   -5153.0842   -5203.4833            0   -532.89095    20.022393    19.962293    21.021309    8402.0675    -1332.185    72.067247   -338.55509   -217.79894    312.20779   -128.56612   -5218.3823 
12266000    26.016044   -5201.3602   -5151.1861   -5201.3602            0   -801.56219     20.01055    19.981577    21.028826    8408.2145   -1356.4401   -610.24595   -438.00055   -196.25791   -106.56576   -56.285213   -5249.4778 
12267000    25.666422   -5201.2879   -5151.7881   -5201.2879            0   -1264.0088    20.029891     19.99811    21.045276    8429.8951    -1224.538   -1239.6788   -1327.8095   -137.38575    355.61381    490.62102   -5307.1871 
12268000    24.823184   -5202.7644   -5154.8908   -5202.7644            0    -983.4886    20.007132    20.017856    20.954953    8392.4564   -258.58821   -1781.0225   -910.85506    22.505176    298.12232   -241.14262   -5275.2652 
12269000    26.378752   -5204.2148   -5153.3411   -5204.2148            0    -506.1239    19.966845    19.980641    21.036353    8392.4603   -624.37733   -581.79192   -312.20244   -101.21896    352.10352    23.635674   -5215.2884 
12270000    25.393148   -5201.1881   -5152.2153   -5201.1881            0   -1114.2474    20.011907    20.021259    20.970537    8402.1304   -1114.8352   -1360.4099   -867.49718   -62.559948     232.5116     226.3355   -5288.7512 
12271000     25.21787   -5202.0294   -5153.3946   -5202.0294            0   -885.52463      20.0408    19.930305    21.035742    8402.0806   -1110.5721   -671.62822   -874.37354   -189.03556   -307.54694   -143.31058    -5261.903 
12272000    26.439562   -5203.4636   -5152.4727   -5203.4636            0   -1231.3896    20.029354    19.909354    21.119403     8421.816   -1017.6866   -1158.4772    -1518.005   -191.81438    257.47913   -237.48284   -5303.7164 
12273000    25.147049   -5203.2293   -5154.7311   -5203.2293            0   -816.12652    19.950806    20.047522    21.013861    8404.7925   -696.95209   -904.16512   -847.26235   -96.632007   -253.63984    68.113835    -5254.768 
12274000     26.39643   -5198.7613   -5147.8535   -5198.7613            0   -890.94427    20.023211    20.026849    20.936377    8395.5254   -519.24788   -1758.8049   -394.78006   -201.17461    81.574072    -120.6316   -5256.9409 
12275000     27.16093   -5201.1892    -5148.807   -5201.1892            0    -402.8559    19.989665    20.002073    20.973267    8385.8405   -668.92444   -720.46869    180.82542    -136.8437    186.51877    43.018868   -5198.0759 
12276000    26.782799   -5200.3593   -5148.7064   -5200.3593            0   -950.07482    19.988829    19.995021    21.008478    8396.6064   -1171.8096   -973.56685   -704.84802   -142.32238    197.13093   -386.43969   -5265.0487 
12277000    26.281951   -5198.5945   -5147.9076   -5198.5945            0   -1135.1224    20.026698    19.980095    21.051151    8423.3094   -1302.0029   -1290.4744    -812.8899    79.226843   -324.05278   -127.61578    -5287.352 
12278000    25.630544   -5203.3239   -5153.8933   -5203.3239            0    -1109.958    19.992266     19.99443    20.964504    8380.2244   -1173.4695   -1336.4616   -819.94303   -281.30798     333.7699   -379.51985    -5289.549 
12279000    26.185926   -5202.2951   -5151.7933   -5202.2951            0   -1143.8505    19.991133    20.001126    21.051629    8417.3921   -364.43415   -1814.0183   -1253.0992    35.263939    59.825842   -79.244892   -5292.2113 
12280000    25.719835   -5200.0053   -5150.4025   -5200.0053            0   -824.66489    20.040239    20.041222    20.906766    8396.8026   -1422.6317   -669.70949   -381.65348     59.96015    167.98362    34.648305   -5251.3899 
12281000    26.945622   -5201.1796   -5149.2127   -5201.1796            0   -1096.8957    20.065296    19.956828    21.014484    8415.0328   -1387.1454   -589.99884   -1313.5429    53.601606    223.58814    460.83038   -5283.8288 
12282000    25.933529   -5198.9539    -5148.939   -5198.9539            0    -939.2706    20.060513    19.959128    21.011664    8412.8674   -1585.3329   -510.24885   -722.23007    -85.50754     82.42387   -215.98643   -5264.1809 
12283000    25.821838   -5201.4616    -5151.662   -5201.4616            0   -856.43911      20.0669    19.986753     21.00045    8422.6963   -1399.3463   -591.24944   -578.72163    111.67176   -43.485723    -416.7807   -5256.8639 
12284000    25.844959   -5202.7156   -5152.8714   -5202.7156            0   -556.02242    20.004723    20.018234    20.943815    8387.1442   -1049.3971   -574.48636   -44.183829    -205.3438    241.66999    39.288384   -5220.8829 
12285000    25.862393   -5206.8177   -5156.9399   -5206.8177            0   -927.48895    20.019091    19.961683    20.920452    8360.1211   -997.41435   -971.38443   -813.66807    104.21978    41.825544   -130.42262   -5270.0229 
12286000    25.484328   -5203.0316    -5153.883   -5203.0316            0   -1072.3853    19.961543    20.038669    20.953014    8381.2632    -735.2862   -1434.6964   -1047.1732   -178.14933    185.87883    360.83938   -5284.9629 
12287000    25.690618   -5201.3498   -5151.8032   -5201.3498            0   -1145.3862    19.991655    19.932156    21.092415    8404.8379   -1033.4345   -1069.1467   -1333.5775   -97.240196   -4.3825026    218.45704      -5292.2 
12288000     27.10313   -5201.3451   -5149.0744   -5201.3451            0   -1325.1565    20.045432    19.937648    21.077594    8423.8451   -1183.8163   -1403.5928   -1388.0603   -97.126439   -186.33426    168.76556    -5311.874 
12289000    25.012633   -5202.3788   -5154.1398   -5202.3788            0   -918.31151    20.017379     19.97616    20.979157    8388.9432   -1540.7222   -138.12215   -1076.0902   -147.74692    536.17609   -267.23515   -5266.4899 
12290000    25.485609   -5201.8275   -5152.6764   -5201.8275            0   -1152.9554    20.035886    19.983427    21.006013    8410.5065   -1397.0265   -910.26733   -1151.5725       -47.82    653.93898   -502.51437   -5294.0963 
12291000    26.652118   -5203.4166   -5152.0158   -5203.4166            0   -1181.9281    19.971748    19.981587     21.04756    8399.3915   -899.58612   -1237.8959   -1408.3023    25.013981    363.90033    179.00211   -5296.7979 
12292000    24.779943   -5202.5117   -5154.7215   -5202.5117            0   -977.42096    20.013847    19.970943    20.982412    8386.5736   -1210.4356   -984.99195   -736.83536    83.964398    24.328533   -42.157479   -5274.2694 
12293000    26.162889   -5200.9603   -5150.5029   -5200.9603            0   -984.89313    19.967253    19.945306    21.152644    8424.1034   -1399.8711   -224.13365   -1330.6746   -124.13808    787.72538   -40.674407   -5271.5039 
12294000    24.927199   -5203.4384   -5155.3642   -5203.4384            0   -1019.5923    20.050473    19.918134    21.106636    8429.3151   -1030.9564   -742.14047   -1285.6801   -182.90488    93.866963    639.17343   -5280.7057 
12295000    25.618765   -5205.4817   -5156.0738   -5205.4817            0    -883.0951    19.978238     19.96272    21.012387    8380.1595   -806.37911   -893.86186   -949.04435   -111.96366    162.24064    155.97847   -5264.0022 
12296000     26.40877   -5204.6154   -5153.6839   -5204.6154            0   -804.76279    19.941237    19.953284    21.103775    8397.0478   -591.28223    -710.1394   -1112.8667   -187.00473    17.378583    470.80846    -5252.237 
12297000      25.3878   -5200.7303   -5151.7678   -5200.7303            0   -352.91187    19.947691     19.95635     21.09314    8396.8227     -192.976   -139.10536   -726.65424    170.32049   -41.852628    177.33641    -5194.985 
12298000    25.273129   -5204.9123    -5156.171   -5204.9123            0   -1009.1896    20.067742    19.950545    20.945728    8385.8819    -1587.397   -395.44491   -1044.7268    -165.2924    492.64834   -208.69444   -5279.5943 
12299000    25.603204   -5201.2537   -5151.8758   -5201.2537            0   -578.86481    20.003204    19.985515    20.984573    8389.0937   -816.09306   -450.63938   -469.86197    2.9929176   -206.15775   -123.01152   -5222.6978 
12300000    25.547729    -5204.924    -5155.653    -5204.924            0   -1248.3705    19.956518    19.980841    21.071002    8402.0204   -930.36541   -1396.6844   -1418.0617   -338.03663    281.99734    -70.03443   -5308.6219 
12301000    27.807708   -5198.8159   -5145.1864   -5198.8159            0   -905.50827    20.016523    19.941813    21.067335     8409.359   -897.45563   -520.49415    -1298.575   -82.556064    123.94544    -643.2435   -5256.2396 
12302000    25.580815   -5204.6359   -5155.3011   -5204.6359            0   -972.18965    19.989468    19.991623    20.996683    8390.7343   -1115.8214   -936.80118    -863.9464    64.655966      109.244    327.17699   -5274.2682 
12303000     26.44328   -5208.0294   -5157.0313   -5208.0294            0   -1456.7978    20.025375    19.992999    21.005261    8409.8197   -1721.7195   -1028.1068   -1620.5672   -175.86492    270.17786    26.032618   -5335.7055 
12304000    26.081413   -5199.8618   -5149.5616   -5199.8618            0   -1023.3735    20.048972    19.970333    20.979442    8399.8465   -1570.2368   -584.17774   -915.70599    40.985212    62.625193    21.576954   -5274.9281 
12305000    25.816885   -5200.9279   -5151.1379   -5200.9279            0   -905.02379    20.050713    19.969159    21.053202    8429.6155   -1487.3218    -321.7911   -905.95851   -188.61092     574.9481    85.445588   -5262.3991 
12306000    27.575476   -5201.6246    -5148.443   -5201.6246            0   -572.61784    20.027339    19.898593    21.021282    8377.3144   -312.55727   -301.30302   -1103.9932   -30.029132   -172.51968    206.49488   -5218.4023 
12307000    25.759164    -5205.117   -5155.4383    -5205.117            0   -969.28834    20.029918    20.004515    20.933583    8387.8517   -973.25718   -1618.3243   -316.28357   -97.458274      678.289    63.591414   -5274.0096 
12308000    25.760494   -5202.8811   -5153.1998   -5202.8811            0   -775.82335    19.960531    19.963921     21.00781    8371.4118   -767.04948   -871.47535   -688.94522   -111.17209    270.48607   -422.63687   -5247.9188 
12309000    25.422865   -5201.1126   -5152.0824   -5201.1126            0    -1308.707    20.008386    20.037898    21.001845     8420.186   -1054.9347   -1766.3441   -1104.8422    116.40505    407.51226    218.38218   -5312.7914 
12310000    25.491868   -5201.5135   -5152.3503   -5201.5135            0   -1024.8345    19.930401    20.030079    21.058571    8406.7396   -549.44108   -1752.1493   -772.91311    -137.9267    821.93248   -54.890225   -5277.9988 
12311000    25.914821   -5200.9098   -5150.9309   -5200.9098            0   -790.01349    19.971099    20.010239     21.07557    8422.3559   -80.711369   -1186.4112   -1102.9179   -21.706639   -115.43832    147.82461   -5247.9694 
12312000    27.421014   -5200.4468   -5147.5631   -5200.4468            0   -863.28455    20.029681    20.010564    20.953889     8398.428   -839.97091   -1188.5823    -561.3004   -279.12654   -116.12393    18.653366   -5253.3003 
12313000    26.362741   -5199.8359   -5148.9931   -5199.8359            0   -857.92648    20.059125    19.978401    20.952013    8396.5034   -977.55655    -851.9596    -744.2633   -98.160651    -107.4417    131.42017     -5254.05 
12314000    26.263988    -5202.512   -5151.8597    -5202.512            0   -916.54946    20.036257    19.954102    20.985592    8390.1553    -878.7288   -1082.8309    -788.0887    -301.5369    111.56446    400.93608   -5264.0104 
12315000    26.517427     -5204.47   -5153.3289     -5204.47            0   -580.10383     19.98556    20.040032    21.018964    8418.3316   -326.20161   -1198.5082   -215.60171   -132.31979    156.70318    121.22951   -5224.5498 
12316000    27.371411   -5200.5655   -5147.7774   -5200.5655            0   -769.08792    20.030778    20.050728     20.99099    8430.6465   -797.45033   -1173.9765   -335.83693    52.944541    255.64275    128.87102   -5242.3386 
12317000     24.89909   -5201.8343   -5153.8143   -5201.8343            0   -1188.5885    20.069021    19.992087    20.965443     8411.789   -1744.3335   -980.79387    -840.6381   -182.12582    -435.5918   -139.79302   -5299.6272 
12318000    25.907764   -5202.2126   -5152.2473   -5202.2126            0   -1122.9648    20.071681    19.957083    21.058213    8435.3346   -1531.2042   -557.55574   -1280.1345    87.824547    90.896672    116.15844   -5290.3952 
12319000    25.699433   -5205.5674   -5156.0039   -5205.5674            0   -870.01392     20.00865    19.952101    21.032824    8396.6105   -1041.5147   -343.42548   -1225.1016   -390.71292    325.66617    389.74967   -5262.5423 
12320000    26.176967   -5202.3581   -5151.8736   -5202.3581            0   -937.60358    20.028229    20.000909    20.995404    8410.3976    -959.7669   -1170.7989   -682.24492   -121.73095   -16.443552   -170.45424   -5266.8773 
12321000    25.768072   -5201.1369    -5151.441   -5201.1369            0   -684.31297    19.940585    20.027062    21.018758    8393.8688   -471.68724   -1032.5257     -548.726   -174.13091     473.2249   -423.62998   -5235.2119 
12322000    27.213643   -5197.7967   -5145.3129   -5197.7967            0   -991.08903    20.044885    19.953852    21.072505    8428.4262   -1075.2899   -827.96281   -1070.0144    30.380896    547.94841   -204.11188   -5267.1375 
12323000    25.253736   -5203.5863   -5154.8823   -5203.5863            0   -1690.7059    19.974446    19.954821    21.199486     8449.829    -1902.397   -1429.9521   -1739.7685   -177.97884    8.2792881    185.75696   -5363.2315 
12324000    24.909411   -5201.4543   -5153.4144   -5201.4543            0    -864.5946    20.000136    20.017744    21.034076    8421.1522   -648.37611   -1570.1199   -375.28778    -60.75049    484.93268   -33.167911   -5259.5986 
12325000    25.533855   -5202.4592    -5153.215   -5202.4592            0    -1330.371    20.029842    19.968893     21.01734     8406.385   -1169.4954   -1431.1187   -1390.4989   -202.83224    46.623854   -118.03385   -5316.3165 
12326000      25.4422   -5200.0824    -5151.015   -5200.0824            0   -1093.2424    20.044879     19.96975    21.017272    8413.0295   -1552.5068   -966.15791   -761.06235    -11.59294    692.73773    211.99779   -5285.1508 
12327000    24.544554   -5203.0311   -5155.6949   -5203.0311            0   -1033.6069    20.004418     19.95524    21.049811    8402.9363   -463.13714   -1464.1885   -1173.4951   -153.24914    84.271783   -17.826735   -5282.3615 
12328000    27.065708   -5200.2068   -5148.0084   -5200.2068            0   -1067.8409    19.942787    19.962927    21.047144    8379.2132    -257.5289   -1465.5902   -1480.4036   -165.24738    364.60446    953.83641   -5278.5009 
12329000    26.287781   -5205.2474   -5154.5492   -5205.2474            0   -707.32507     19.93454    19.994785    20.959383    8354.1342    154.47677   -1425.0106   -851.44133   -248.86513    69.453661    34.394364   -5240.7272 
12330000    26.070211   -5199.5181   -5149.2395   -5199.5181            0    -1216.827     19.94827    19.960074     21.10887    8404.8963   -902.39324   -1444.1386    -1303.949   -1.4947547    329.93807    -278.6439   -5298.3943 
12331000    25.841514   -5201.7604   -5151.9229   -5201.7604            0   -828.79179    20.046173    19.916068    21.040334    8400.1629   -828.55909   -948.27702   -709.53925   -299.43443    169.94985   -136.47931   -5253.4563 
12332000    25.565287   -5203.4057   -5154.1009   -5203.4057            0   -747.80606    19.946509    19.946172    21.143918    8412.2454   -813.58616   -458.45305   -971.37896   -173.10256    183.87293    541.88907   -5245.8448 
12333000    25.722613   -5201.2184   -5151.6102   -5201.2184            0   -334.97855    19.974528    19.924727    21.064858    8383.5405   -314.48166   -221.78281   -468.67117   -63.087056    262.78425    242.68765   -5192.5664 
12334000    27.474974   -5201.4501   -5148.4623   -5201.4501            0   -519.41796    20.023909    19.973511    20.931792    8371.6235   -947.06432   -417.13052   -194.05903    -157.1132    487.57423    429.49431   -5211.8788 
12335000    24.948794   -5202.2455   -5154.1296   -5202.2455            0   -500.76061    20.029642    19.881939     21.06144    8387.2575    -286.3565   -44.904065   -1171.0213   -181.02972    167.03003     24.01618   -5215.3824 
12336000    24.906402   -5201.9746   -5153.9405   -5201.9746            0   -858.04978    19.974684    19.955183    21.023804    8380.0563   -1084.1398   -661.35179   -828.65777   -24.038213    381.74149    134.38124   -5258.8066 
12337000    25.943162   -5203.1253   -5153.0917   -5203.1253            0   -448.02638    20.036828    19.897016    21.073758    8401.5402   -744.20837   -121.24407   -478.62669    241.97647    366.81349   -654.50613   -5207.9875 
12338000     25.32554   -5199.3759   -5150.5334   -5199.3759            0   -1541.2167    20.117518    19.952815    21.023976    8439.0477   -1752.5234   -1858.7176   -1012.4091      -215.13     624.6599    181.26349   -5340.2185 
12339000    24.712423   -5204.5749   -5156.9149   -5204.5749            0   -1616.8125    20.065981    19.983785    21.033824    8434.4428   -1774.6777   -1515.6229   -1560.1368  -0.75723374    438.90247   -211.18674   -5355.7953 
12340000    24.737489     -5201.58   -5153.8717     -5201.58            0   -1013.1247    20.012201    20.008241    21.021378    8417.1476   -835.88108   -1386.3255   -817.16768    44.442947    239.48993    41.520856   -5278.2383 
12341000    25.763642   -5203.4333    -5153.746   -5203.4333            0   -1035.8288    20.014469    19.885847     21.16792     8424.931   -1027.8685   -1046.5843   -1033.0335     -163.867    53.696465   -277.53574   -5281.0172 
12342000    25.449406   -5203.5721   -5154.4908   -5203.5721            0   -690.09998    20.029479    19.957519    20.951012    8374.9303   -201.89964   -1314.8267   -553.57364     52.86485    345.38591   -119.30443   -5238.7794 
12343000     26.89182   -5202.6395   -5150.7763   -5202.6395            0   -1281.2525     20.00295    19.990065    20.987025    8391.8776   -1363.6809   -1024.7517    -1455.325   -80.260031    139.48917    62.328448   -5307.5849 
12344000    26.562168   -5203.3185   -5152.0911   -5203.3185            0   -1489.0684    20.019536      19.9922    21.040021    8420.9437   -1302.1913     -1727.01   -1438.0039   -120.94101    307.38599    -169.5855   -5334.9648 
12345000    24.520642   -5202.7682   -5155.4781   -5202.7682            0    -1222.812     20.02939    19.965204    21.020487    8405.9005   -1505.5397   -1386.3134   -776.58303   -32.980678    56.441298    137.37019   -5305.3844 
12346000    25.345396   -5198.4032   -5149.5224   -5198.4032            0   -913.09073    20.008337    20.056534    20.963283    8412.5214   -828.74927   -1278.2994   -632.22353    33.475988    415.64719   -237.46259   -5261.5477 
12347000    27.027286   -5204.3059   -5152.1815   -5204.3059            0   -887.79861    19.977573     20.04417    20.993181    8406.3808   -1168.4227   -1078.4001   -416.57297   -23.235474    164.13316    31.079955   -5261.0243 
12348000    25.752263   -5202.1059   -5152.4405   -5202.1059            0   -669.57121    20.019262    19.981684    21.033713     8413.876   -1534.2151    52.076784   -526.57526   -171.27146    -78.82026    84.651358    -5234.602 
12349000    26.276309   -5203.1392   -5152.4631   -5203.1392            0   -974.37086    19.978719    19.966046    20.998509     8376.222   -58.491874   -1452.6516   -1411.9691   -112.34913   -75.931817    512.05906   -5271.4909 
12350000     25.44367   -5201.6567   -5152.5864   -5201.6567            0   -751.27423    20.010294    19.940285    21.040341    8395.3271   -896.96507   -242.66438   -1114.1932    25.414551   -45.544039   -455.54999   -5244.5704 
12351000     23.26791   -5201.7807   -5156.9066   -5201.7807            0   -794.29624    20.029773    19.921686    20.979747    8371.4824   -569.63849   -1013.4623   -799.78797   -225.30247    265.28528    -585.0156   -5253.8818 
12352000    26.097925    -5201.843    -5151.511    -5201.843            0   -1237.5729    20.076529      19.9824    20.963341    8410.0152   -1116.5129   -1604.0861    -992.1197   -311.46097    115.84613    141.15198   -5303.3011 
12353000    26.426802   -5201.9961   -5151.0298   -5201.9961            0   -591.06246    19.927843    19.995696    21.084393     8401.521   -249.03195   -607.46575    -916.6897   -144.14461     217.4013    627.21078   -5223.4512 
12354000    27.018016   -5202.9738   -5150.8673   -5202.9738            0   -1068.0109    20.072572    20.014493     20.89607    8394.8365   -1662.6776   -985.59287   -555.76232    -293.1644    388.84159    430.89552   -5281.6239 
12355000    26.979562   -5198.9849   -5146.9526   -5198.9849            0   -744.01371    19.932572    20.011143    21.132316    8429.1223   -24.538034   -1123.9165   -1083.5865    86.925357    156.14634    27.129342   -5238.4143 
12356000    24.743857    -5202.823   -5155.1024    -5202.823            0   -807.29753      20.0033    19.986255    20.966945    8382.3969   -978.41013   -770.24777    -673.2347    32.343229   -124.53293    18.359741   -5253.7934 
12357000    25.946127   -5201.3191   -5151.2799   -5201.3191            0   -777.53224    19.946174    19.963353    21.127964    8412.9969   -1061.5974    4.6919886   -1275.6913   -192.30669    29.022467    341.84501   -5246.6791 
12358000    26.063237   -5200.1043   -5149.8392   -5200.1043            0   -1031.3998    20.056777    19.942542    21.016274    8406.1547   -1793.9457   -573.72408   -726.52966   -135.89634      -203.79   -335.71879   -5276.2838 
12359000    25.874235   -5202.7594   -5152.8588   -5202.7594            0   -1112.1617    20.016385    19.941717    21.038356    8397.6929   -1275.2325   -447.48483   -1613.7679   -247.85759   -129.38509   -566.42401   -5289.0671 
12360000    26.088925   -5199.9903   -5149.6756   -5199.9903            0   -1053.5515     20.01122    19.977424    21.004932    8397.1969   -1647.9859   -512.46015   -1000.2085    -137.6055    198.57536   -231.24288   -5278.6983 
12361000     26.92839   -5199.6982   -5147.7646   -5199.6982            0   -1003.7958    19.999719    19.967864    21.130641    8438.5569   -1004.0433   -771.10109   -1236.2431    6.1469938    125.12999   -147.82731   -5271.2994 
12362000    26.059703   -5200.4525   -5150.1942   -5200.4525            0   -1069.2713    19.985408    19.963706    21.101804     8419.257   -340.75034   -1455.6792   -1411.3845   -224.16349   -358.42644    178.97491    -5281.486 
12363000    25.706471   -5203.3799   -5153.8028   -5203.3799            0   -738.89952     20.04973    19.960668     20.98112    8396.7698   -907.15718   -681.77154   -627.76983   -50.412156   -64.174676   -54.286608   -5244.2871 
12364000    25.553632   -5200.5022   -5151.2199   -5200.5022            0   -739.40142    20.041608     19.97458    20.993669    8404.2422   -596.32872   -875.80784   -746.06772    -184.0233    132.80003    136.94055   -5241.8463 
12365000    25.547961   -5201.8093   -5152.5379   -5201.8093            0   -1184.6392    20.053875     19.99453    20.913457    8385.6232   -1538.3924   -955.32033   -1060.2048   -88.760935     113.4086   -95.011928   -5297.4142 
12366000    24.795564   -5202.8616   -5155.0413   -5202.8616            0   -1147.8057    20.013832    20.007072    21.035467    8422.9835   -684.76622   -1900.4683    -858.1827   -23.606333   -401.78188    247.64836   -5296.0384 
12367000      25.4927   -5205.6255   -5156.4606   -5205.6255            0   -978.79178    19.998788    19.949864    21.022432    8387.3846   -1203.7005   -862.76069   -869.91416    62.146397    47.003286   -52.023765   -5276.1878 
12368000     25.17847   -5201.8245   -5153.2657   -5201.8245            0   -1062.1111    19.987503    19.936229    21.170612    8435.9687     -969.517   -778.63715   -1438.1793   -29.787457   -181.34179   -13.459481   -5283.9372 
12369000    24.627563   -5202.6498   -5155.1535   -5202.6498            0   -834.41501     19.95778    19.977208    21.076104    8403.0579   -454.56803   -1241.7235   -806.95351   -85.226586    588.85807    106.31583    -5257.411 
12370000    26.564253   -5201.8525   -5150.6211   -5201.8525            0   -718.30928     20.06637    19.943438    21.035694    8418.3247   -644.33277   -491.07791   -1019.5172   -180.04897    186.37979    33.291671   -5238.8098 
12371000    24.305592   -5200.9652   -5154.0899   -5200.9652            0   -930.81605     20.07008    19.979635    20.984135    8414.4885   -1543.3252   -414.78766   -834.33534   -111.81927    715.75227    293.71665   -5268.3165 
12372000    26.118206   -5199.7079   -5149.3368   -5199.7079            0   -1029.7391     20.05524    19.960847    21.029828    8418.6518   -1500.3468   -493.58869   -1095.2817   -168.62894    420.78827   -336.19392   -5275.7655 
12373000    25.266066   -5201.2201   -5152.4923   -5201.2201            0   -753.12128     20.00575    19.949588    21.000248    8381.3347   -613.00277   -739.69239   -906.66868    26.067945    -190.3644     35.42202   -5244.5487 
12374000    25.053148   -5199.0039   -5150.6868   -5199.0039            0   -1157.5224    19.982109    19.977009      21.0637     8408.266   -867.89126   -1083.5584   -1521.1175    26.543108    503.15008    151.75972   -5292.6291 
12375000    26.116407   -5200.1909   -5149.8232   -5200.1909            0   -756.76203    19.916713    19.994545    21.098979    8402.1539    47.066894   -1251.1457   -1066.2073   -341.69763   -254.30124   -38.775735   -5242.5544 
12376000    25.343659   -5205.1744    -5156.297   -5205.1744            0   -1079.2824    20.011693    19.928786    21.059469    8398.7001   -952.56111   -994.99969   -1290.2863   -42.578636    622.94646    365.31816   -5288.4944 
12377000    26.271511    -5203.287   -5152.6202    -5203.287            0   -1249.6221    20.017488     20.05395    20.975246    8420.0867   -1504.8076    -1230.661   -1013.3978    51.940519     390.0827   -248.82579   -5306.0717 
12378000    25.976138   -5204.4826   -5154.3854   -5204.4826            0   -855.73229    19.978252     20.00505    20.913625    8358.4634   -950.49021   -800.47909   -816.22758   -17.524634    116.77001    374.09515   -5258.6989 
12379000    26.342532   -5198.1133   -5147.3095   -5198.1133            0   -612.40568      20.0213    19.964347    21.043043    8411.1608   -986.21108   -505.95303   -345.05294   -138.88642    249.97679   -215.16193   -5222.4322 
12380000     24.70098   -5203.9461   -5156.3081   -5203.9461            0   -429.64274    20.002146    19.931872    21.090886    8408.5192   -663.28052   -156.80338   -468.84431   -82.733678    204.46858   -196.62285   -5208.9951 
12381000    25.554913   -5204.4327   -5155.1479   -5204.4327            0   -1270.5878    20.062538    19.963433    21.060867    8435.2381   -936.36993   -1617.3025   -1258.0911   -56.655004    362.32787   -21.250091   -5311.4548 
12382000    25.811065   -5197.5799   -5147.8011   -5197.5799            0   -912.15645     19.98013    19.975266    21.098378    8420.5398   -857.09378   -1066.5625   -812.81303    -148.1928    756.82837   -31.875957   -5259.8184 
12383000    26.889831   -5200.6374   -5148.7781   -5200.6374            0   -1047.6791    20.058227    19.956871    21.025009    8416.2994   -1093.1712   -1122.5228   -927.34321    -102.7748    341.81392   -411.77793   -5277.3735 
12384000    25.093106   -5202.4088   -5154.0146   -5202.4088            0   -1005.3354    19.996831    20.022209    21.044856    8425.9543     -1224.88    -803.6606   -987.46567   -288.97087    235.96329   -296.31926   -5277.5542 
12385000    26.334966   -5203.1482    -5152.359   -5203.1482            0   -1194.3797    20.051714     20.03384    20.901207    8396.2826   -1690.4143   -876.44577   -1016.2791    55.077377    470.56322   -2.6627336   -5298.6122 
12386000    25.954672   -5200.8147   -5150.7589   -5200.8147            0   -995.42817    19.952791    19.990276    21.093357    8413.3343   -564.66562   -1061.2577   -1360.3612   -266.35896    214.87945   -115.29422   -5272.8978 
12387000    25.914174   -5202.8862   -5152.9085   -5202.8862            0   -1433.7517    20.006431    20.013313    21.025268     8418.411   -1500.2094   -1535.4242   -1265.6214   -232.10222    18.784456    267.78343   -5328.9358 
12388000    25.768913   -5203.8944   -5154.1969   -5203.8944            0   -843.19685    20.006224    19.973633    21.048753    8411.0177   -370.57495   -1249.9351   -909.08054   -264.25644    4.5603505   -277.77873   -5257.6286 
12389000    24.825359   -5204.8559   -5156.9781   -5204.8559            0   -555.36547    19.965347    19.987155    20.973249    8369.3848   -264.77989   -871.66178   -529.65474   -106.77097   -432.95721   -138.19998   -5224.7654 
12390000    26.967381   -5202.5021   -5150.4933   -5202.5021            0   -1206.9562    20.048662    20.029904    20.922109    8401.7496   -1103.4233   -1852.5626   -664.88251   -194.54796   -3.8742412   -154.20966   -5298.3827 
12391000    26.186423   -5203.1173   -5152.6146   -5203.1173            0    -1018.781    19.992214    20.018663     20.94848    8383.9463   -399.12291   -1530.0912   -1127.1288   -286.96124   -28.192188   -77.345232   -5277.1822 
12392000    25.760637   -5202.7095   -5153.0279   -5202.7095            0   -883.22457    20.050348    19.976063    20.923237    8380.3218   -1327.0212   -1087.9935   -234.65899   -234.80327    170.55609    341.42633   -5260.9742 
12393000    25.408545   -5203.6193   -5154.6168   -5203.6193            0   -594.63048    20.004376     19.95312    20.933011    8355.4051   -920.92844   -514.72906   -348.23396   -130.75494    225.88944   -99.131359   -5227.0755 
12394000    26.349724   -5203.0944   -5152.2768   -5203.0944            0   -1093.8133    20.009644    19.924121     21.11635    8418.5517   -1411.4021   -256.70646   -1613.3314   -311.34551   -160.93067    220.63329   -5286.5707 
12395000    25.660803   -5202.8816   -5153.3926   -5202.8816            0   -942.12185     19.97256    20.046199    20.957078    8390.6671   -775.18034   -1378.1034   -673.08178   -200.75326    261.22636   -48.598061   -5268.6794 
12396000    25.220701   -5202.5869   -5153.9466   -5202.5869            0    -784.7735     20.02872    19.969165    20.998045    8398.3111   -537.98906   -1275.4228   -540.90865   -40.094658    323.71559     85.30138   -5250.0663 
12397000     25.42108   -5204.7248   -5155.6981   -5204.7248            0   -1266.5205    19.990722    19.956082     21.07934    8409.3178    -1487.308   -1134.0416   -1178.2119    -73.99377    228.59053   -228.25016   -5311.0258 
12398000    25.318579   -5204.7532   -5155.9242   -5204.7532            0   -1016.7032    20.007526     19.92719    21.107826    8415.5589   -1778.4645   -311.31105     -960.334   -67.926912    292.32431    211.71088   -5280.7065 
12399000    26.373052   -5200.5883   -5149.7256   -5200.5883            0   -909.64143    19.954807    19.997091    21.170883     8447.989    254.59287   -1820.9903   -1162.5269   -174.25393    382.98949   -128.39874   -5261.7982 
12400000    25.292098   -5200.8665   -5152.0886   -5200.8665            0   -1500.3227     20.04372    19.973264    21.049568    8426.9526   -1672.6643   -1586.1172   -1242.1865    -166.6903    418.91678   -272.80474   -5336.4759 
12401000    27.354771   -5201.1216   -5148.3656   -5201.1216            0   -726.74085    19.987335    19.963748    21.062868    8404.5504   -840.21245   -607.74393   -732.26617    37.611721    713.24059    225.04391   -5237.4435 
12402000    26.907021   -5201.9653   -5150.0728   -5201.9653            0   -1030.2506    20.011613     19.95539    21.035196    8400.1854   -738.29895   -1023.2715   -1329.1812   -44.981672   -112.66871    143.29192   -5276.2869 
12403000    25.669796   -5201.4601   -5151.9537   -5201.4601            0   -1084.4445    20.043291    19.955367    21.011613    8404.0403   -962.59185   -1299.3811    -991.3604    41.387319    30.158376    16.100307   -5284.8679 
12404000     25.85187   -5202.0671   -5152.2096   -5202.0671            0    -1054.307    20.009663    20.024836    20.912161    8379.2984   -1698.4081   -850.14262   -614.37022   -387.67887    224.43396    211.38744   -5281.0496 
12405000    25.648269   -5201.9379   -5152.4731   -5201.9379            0   -807.89863    20.003216    19.958223    21.026756    8394.4835   -1052.6533   -210.54985   -1160.4928    171.43778    172.34575   -407.30743     -5251.38 
12406000     24.98192    -5202.133   -5153.9533    -5202.133            0   -1045.8551    19.970467     19.99657    21.021066    8394.5702   -1069.8675   -1040.3715   -1027.3264    189.11934   -77.783645   -203.86103   -5281.9933 
12407000    26.457589   -5203.5414   -5152.5157   -5203.5414            0   -1264.8123    20.029447    20.020283    20.972625    8409.9215   -820.11994   -1596.1432   -1378.1737   -25.432849     164.3698   -405.47488    -5307.645 
12408000    25.007524   -5204.5004   -5156.2713   -5204.5004            0   -1233.7196    20.007939    19.961456    21.051407    8407.6708   -1600.4879   -865.93381   -1234.7371   -256.13713    12.210845   -324.87256   -5307.5466 
12409000    24.762785   -5203.3726   -5155.6155   -5203.3726            0   -1303.4916    20.034671     20.03383    20.956736    8411.4301   -636.30069   -2149.9218   -1124.2525   -112.69232    139.15417    607.96898   -5315.5175 
12410000    24.870733   -5200.2499   -5152.2846   -5200.2499            0   -964.58354    20.026126    19.968942    21.020592    8406.1463   -1015.2965   -995.70594   -882.74819    -384.8145   -500.27557   -93.810197   -5270.5377 
12411000    24.733641   -5201.6187   -5153.9178   -5201.6187            0   -980.75139    20.037235    19.988263    20.996048    8409.1166   -1304.7414   -620.33917   -1017.1736   -161.56796    31.425866    263.28709   -5274.1955 
12412000    26.215444   -5202.7148   -5152.1561   -5202.7148            0   -749.07011    19.967543    19.929299    21.116228    8402.9736   -661.21952   -601.24035   -984.75046   -71.717362   -150.75617    80.783862   -5243.9537 
12413000    25.576452   -5200.0262   -5150.6999   -5200.0262            0   -963.65351    20.017201    19.969457    21.081538    8426.9785   -958.65194   -834.58872   -1097.7199   -159.01007    37.020979     -349.438   -5269.1318 
12414000    25.146787   -5202.6695   -5154.1719   -5202.6695            0   -829.09827    19.973789    20.019958    21.023316    8406.6863   -364.68506    -943.0642   -1179.5455   -430.95231    268.91925    70.560478   -5255.8217 
12415000     26.27213   -5202.7977   -5152.1297   -5202.7977            0    -841.0708    19.973962    20.004037    21.004102    8392.3959   -838.73691   -999.00453   -685.47097   -139.23724   -87.052584    244.81278   -5255.0722 
12416000    25.917031   -5202.0515   -5152.0684   -5202.0515            0   -1381.2135    19.966962     20.02611    21.002543    8398.0887   -912.16167    -1960.276   -1271.2028   -275.57659    577.58325   -122.13381    -5321.236 
12417000    26.380643     -5203.43   -5152.5527     -5203.43            0     -834.726    20.018921    19.958456     21.02777    8401.5774    -477.5217   -1238.2291   -788.42722   -203.76695    515.36765   -256.79751   -5254.8303 
12418000    27.497641   -5201.5181   -5148.4866   -5201.5181            0   -971.81037    20.007704    20.006962    20.981338    8398.6905   -545.13883   -1542.3702   -827.92211   -232.67616    352.52775    110.39526     -5267.52 
12419000    27.172559   -5202.5487   -5150.1442   -5202.5487            0   -897.18931    19.972192    20.028115    21.005374    8402.2622   -609.95508   -1574.8171   -506.79579   -70.452862    195.16382   -137.24044   -5260.0843 
12420000    25.156089    -5200.128   -5151.6123    -5200.128            0   -976.09922    20.105699    19.895777    21.023887    8409.9437   -1225.2316   -995.20147   -707.86461   -258.63154    252.62423   -33.245894   -5271.3313 
12421000    26.988971   -5203.0421   -5150.9916   -5203.0421            0   -860.58619    19.987664    19.990043    20.983344    8383.9844   -259.39651   -1169.1128   -1153.2492   -93.624402    153.15331    329.92359    -5256.217 
12422000      25.8281   -5203.8454   -5154.0338   -5203.8454            0   -649.79479    19.990678    20.005244    20.946794    8377.0076    46.341975   -1359.3008   -636.42551   -55.038227   -439.75515    135.74207   -5233.4192 
12423000    25.539035   -5204.0819   -5154.8277   -5204.0819            0   -1068.5726    19.974507    20.021849    21.035526    8412.6654   -996.06698    -1117.341   -1092.3099   -119.32076     200.8997   -235.37092    -5285.931 
12424000    26.529043   -5202.9347   -5151.7712   -5202.9347            0   -1248.3174    20.074827    19.929854    21.050853    8422.2019   -1730.0667   -791.92487   -1222.9607   -36.779828    405.90164    106.20083    -5305.101 
12425000    26.094848   -5203.0353   -5152.7092   -5203.0353            0   -821.02112    19.913325    19.988287     21.05839    8381.9397   -343.86893   -1177.1186   -942.07579   -1.2069145    316.64924    338.41707   -5253.0724 
12426000    24.890564   -5203.6109   -5155.6073   -5203.6109            0   -853.12987     20.06735    19.917187    21.014331    8399.1164   -1557.4179   -83.916193    -918.0555   -40.674229    217.00955    48.025123   -5260.1093 
12427000    25.773367   -5202.0445   -5152.3384   -5202.0445            0   -910.49141    19.992513    19.977455    21.064273    8413.0608   -574.01111   -1050.8337   -1106.6295   -157.21835    438.47212   -119.53056   -5264.0519 
12428000    26.146888   -5203.4077   -5152.9813   -5203.4077            0   -706.69187    20.034013    19.968347    20.968172    8388.2361     -838.769   -812.53495   -468.77165   -10.921654    711.70784    -189.2589   -5239.4336 
12429000    26.152338   -5199.9537   -5149.5168   -5199.9537            0   -608.19561     19.97558    20.049859    20.922425    8379.5894    264.40609   -1247.4636   -841.52927   -134.72469    211.96175     223.5107    -5223.843 
12430000    25.162186   -5198.9035   -5150.3761   -5198.9035            0   -551.49266    20.028096    19.969549    20.988332    8394.3265   -569.97254   -855.94925    -228.5562   -244.29906     100.8255    191.20962   -5217.8913 
12431000    25.575764   -5202.3807   -5153.0557   -5202.3807            0   -1144.5371    20.027018    19.991519    21.110793    8452.1393   -1451.8382   -878.68462   -1103.0884   -143.44686    216.37635   -225.01265    -5294.138 
12432000    25.426599   -5201.3457   -5152.3084   -5201.3457            0   -1101.6179    20.024298    19.960309    21.080443    8425.6673    -1073.938   -856.19665   -1374.7192   -277.12368   -269.94979   -40.809653   -5287.6749 
12433000    25.368402   -5204.5581    -5155.633   -5204.5581            0   -1127.6076    19.961756    19.951886    21.065029    8389.6677   -343.66261   -1269.8836   -1769.2765   -177.96343    290.56681    75.252034   -5293.6011 
12434000    25.369242   -5203.9847   -5155.0579   -5203.9847            0   -673.53372    19.992379     19.97085    20.919329     8352.352   -961.06277   -591.43088   -468.10752   -283.07807    102.52859   -244.40449   -5237.1014 
12435000    26.863288   -5201.1803   -5149.3722   -5201.1803            0   -1129.1195    20.019869    19.968399    21.024842    8404.9904   -1506.5427   -859.32198   -1021.4939   -101.52705   -272.53417   -505.78697   -5287.7776 
12436000    27.504279   -5202.8432   -5149.7989   -5202.8432            0   -1039.6467    20.030392     19.93722    21.040249    8402.4306   -1268.0525   -734.90403   -1115.9836   -200.85164    254.44625    -12.71154   -5277.1981 
12437000    25.426189    -5202.397   -5153.3605    -5202.397            0   -1122.3654    20.033585    19.992188    20.936671    8385.4545   -1757.5476   -1169.0769   -440.47158   -360.86804   -19.540465    183.82671   -5290.6182 
12438000    27.415329   -5203.0798   -5150.2071   -5203.0798            0   -922.61258     19.97563    19.963134    20.993649    8371.7673   -1027.7538   -997.05356   -743.03033    11.692502    42.124415    -225.5237   -5262.8522 
12439000    25.243099   -5203.4403   -5154.7569   -5203.4403            0   -1213.4026    20.077623    19.951633    21.002864    8413.3562   -1493.4115   -1087.0468   -1059.7497   -122.36749    608.05149    517.54228   -5303.6416 
12440000    27.045727   -5200.5336   -5148.3736   -5200.5336            0   -1244.1698     20.05863    19.902581    21.080236    8415.6204   -1845.1052   -415.43003   -1471.9743    21.686294   -277.46539   -105.19387   -5301.0746 
12441000    26.190945   -5201.7357   -5151.2243   -5201.7357            0    -1199.097    20.088427    19.958597    20.987709    8414.7454   -1434.1827    -1063.026   -1100.0822   -53.098832    194.76311   -6.0849918    -5298.378 
12442000    26.090975    -5200.531   -5150.2124    -5200.531            0   -830.04965    20.014492    19.930738    21.053293    8398.2339    -929.9907   -725.34947   -834.80879   -218.54153    191.10946    128.95073   -5251.8765 
12443000    25.999548   -5201.8015   -5151.6592   -5201.8015            0   -693.54789    19.965283    19.944383    21.105129     8403.962   -398.36976    -747.9094   -934.36452   -321.43765    155.37863   -420.82286   -5236.6626 
12444000    26.271074   -5199.6684   -5149.0024   -5199.6684            0   -560.62864    19.958102    19.992251    21.001526    8379.7636   -272.44646   -688.67029   -720.76916   -326.40852    462.13485    94.124939    -5217.517 
12445000     25.95418   -5202.6503   -5152.5955   -5202.6503            0   -1260.8036    20.004005    19.999554    20.991208    8397.9775   -1360.8072   -1164.2197   -1257.3838   -24.368339   -323.72212   -108.64573   -5307.0135 
12446000    25.117254   -5202.0979   -5153.6572   -5202.0979            0   -837.53319    19.994484    19.947592    21.034925    8389.6075   -966.64989   -637.48737   -908.46231   -122.70452   -176.20343   -257.04016   -5256.1326 
12447000    25.231522   -5200.4201    -5151.759   -5200.4201            0   -1189.9122    20.060474    19.994487     20.97274    8412.1428   -1202.5768   -1498.5146     -868.645   -247.29484    198.46239   -66.267188   -5297.7403 
12448000    26.975721    -5204.469    -5152.444    -5204.469            0   -1320.5118    20.094404    19.987405    20.903817    8395.7045   -1671.7507   -1219.8143   -1069.9703   -212.66208    456.63884    530.86082   -5314.1311 
12449000    27.169618   -5201.6838   -5149.2849   -5201.6838            0   -908.12816    19.987838    19.993429     21.04445    8409.8969   -399.74994   -1548.8258   -775.80879   -43.836265    101.64225   -211.81463   -5260.6666 
12450000     26.12353   -5203.4906   -5153.1091   -5203.4906            0   -1145.2175    20.003834    19.948688    21.098365    8419.3078   -882.70457   -1291.8857   -1261.0621    73.488138    47.847275    -321.0914   -5293.7269 
12451000      25.0856   -5201.1486   -5152.7689   -5201.1486            0    -1107.617    20.037495    19.983229    21.119411    8456.5046   -1365.0933   -1006.7801   -950.97759    111.13925    48.351815   -217.94207   -5289.3707 
12452000    25.783857   -5202.0819   -5152.3556   -5202.0819            0   -843.60564    19.963267    19.990421    20.992365    8377.5092     -493.828   -1041.0032   -995.98574     41.90467    147.60886   -4.3276498   -5255.4251 
12453000    25.335132   -5202.3479   -5153.4869   -5202.3479            0   -1086.5723    19.971663    20.008539    21.021234    8400.1649   -826.59415   -1262.2406   -1170.8822   -32.544464    160.68238   -28.490943   -5286.6005 
12454000    25.494907   -5203.9786   -5154.8095   -5203.9786            0   -830.23845    19.963982    19.980819    21.036517    8391.3974   -882.69353   -734.59583     -873.426    32.529826    392.16387    357.84386    -5256.414 
12455000    23.753496   -5200.5815   -5154.7709   -5200.5815            0   -1071.5657    19.969681    20.000919    21.084916    8421.5677   -912.67321   -1020.8433   -1281.1807    -174.0635    215.34488   -468.18064   -5286.3806 
12456000    26.172211   -5205.0303    -5154.555   -5205.0303            0   -1028.5953    20.039545    19.974196    20.997978    8404.9408   -1244.7168   -1132.4686   -708.60029   -53.913981    459.20479    837.35489   -5280.6376 
12457000    25.791853   -5202.0321   -5152.2903   -5202.0321            0   -677.46598     20.05893    19.911101    20.952786    8368.4463   -688.85342   -775.45204   -568.09246    115.32318    415.30928   -131.71952   -5234.9718 
12458000    26.130349   -5201.6494   -5151.2549   -5201.6494            0   -971.24312    19.933435    20.008889    21.059894    8399.6521   -417.80426   -1129.3011    -1366.624   -4.9083736    272.13828    118.58233   -5270.2325 
12459000    26.294112   -5204.9978   -5154.2874   -5204.9978            0   -644.15532    20.036024    19.924112    21.011554    8387.8123    -909.5845   -643.90396   -378.97751    -84.25698    88.190845    17.958335   -5233.0854 
12460000    25.791329   -5199.0586   -5149.3179   -5199.0586            0   -1097.5468    19.997424    20.013492    21.032203    8417.4723   -1216.2437   -1090.2262   -986.17055   -30.786857   -228.33266   -165.16752   -5284.0529 
12461000    25.565628   -5200.7966   -5151.4912   -5200.7966            0   -551.53102    20.010995    19.938321    20.968988    8366.3253   -996.43646    253.58416   -911.74076   -173.30249     236.7654    -176.6211   -5218.7858 
12462000    26.745016   -5202.2242   -5150.6441   -5202.2242            0   -1339.6741    20.016242    19.981726    21.123215    8448.4215   -1552.7946   -1358.5468   -1107.6809   -88.390151    -247.5577   -53.505125   -5315.7075 
12463000    26.455462   -5201.2915   -5150.2699   -5201.2915            0   -1022.0034    20.057905    19.919056    21.008731    8393.7136   -1821.7631   -375.97709   -868.26988   -311.34482    491.95262   -152.95723   -5275.3771 
12464000    26.292311   -5202.9843   -5152.2773   -5202.9843            0   -1091.3513    20.037566    19.946706    21.102767    8434.4266   -1119.1913   -685.20506   -1469.6576   -460.84913    530.43611   -320.78611   -5286.5217 
12465000    25.120331   -5205.9765   -5157.5298   -5205.9765            0    -678.6692    19.986713    19.972514    20.988077    8378.1232   -1492.1366     171.1283   -714.99927   -117.32156   -109.10863    9.0021413   -5240.4539 
12466000    24.297782   -5200.3761   -5153.5158   -5200.3761            0   -1137.3777    20.016467     20.00261    21.064773    8433.9472   -986.51201    -1268.358    -1157.263   -281.39981   -468.32289   -192.39274   -5293.4137 
12467000    24.449399   -5203.2663   -5156.1136   -5203.2663            0   -632.47481    19.930112     19.93589    21.167735    8410.4601   -300.48652   -654.01369   -942.92424   -273.44001    117.57743   -593.38668   -5233.6916 
12468000    27.262544   -5202.9798   -5150.4017   -5202.9798            0   -946.41232    19.996664    19.991569    20.989117    8390.7078   -780.41074    -1280.084    -778.7422   -17.027997    487.27446    526.42293    -5266.214 
12469000    26.146906   -5202.8599   -5152.4334   -5202.8599            0   -486.37028    20.002625    19.950641    21.038288    8395.6482   -436.12157   -628.01749   -394.97178   -162.10593   -12.754251    107.27055   -5211.9855 
12470000    25.755345   -5205.8041   -5156.1327   -5205.8041            0   -1056.3828    20.028911    19.990006    20.940158    8383.9795   -1200.7622    -744.0606   -1224.3257   -165.17194    132.01279    237.79987   -5285.2985 
12471000    24.591748   -5200.8764   -5153.4492   -5200.8764            0   -992.25958    19.977864    20.000796     21.07431    8420.7291   -1163.8164   -831.36346   -981.59893    3.0352249    47.624364   -141.72933   -5275.3063 
12472000    25.857826   -5203.5334   -5153.6644   -5203.5334            0   -1040.8811    20.048575    19.955145    21.034197    8415.1978   -1267.3495   -1233.4136   -621.88006    11.390257    494.01885    85.185837   -5281.4087 
12473000      25.8529   -5203.0134   -5153.1539   -5203.0134            0   -1068.2923    20.003051    19.952489    21.135729    8435.4947   -1352.6674   -593.02681   -1259.1826    -137.7325    494.77198   -186.10106   -5284.5784 
12474000    25.429472   -5201.2706   -5152.2278   -5201.2706            0   -502.38913    20.009153      19.9171    21.077228    8399.7878   -738.76073   -260.95838   -507.44827   -201.67707    692.25238   -77.545379   -5213.7716 
12475000    25.433857   -5204.3005   -5155.2491   -5204.3005            0   -1058.0879       19.981     19.92593    21.077279    8391.7081   -806.64659   -1022.8417   -1344.7753    -45.84717    605.32803   -167.46936   -5284.7426 
12476000    26.313812    -5203.572   -5152.8236    -5203.572            0   -790.89163    19.953665    19.934952    21.094777    8390.9827   -432.59544   -635.99395   -1304.0855  0.059258489   -19.823484    439.58516   -5249.6081 
12477000    27.099183   -5198.9856   -5146.7226   -5198.9856            0   -916.73046    20.088594    19.961038    20.873063    8369.8727   -1549.3174   -429.06072    -771.8133   -151.19054   -256.84286   -265.46335   -5258.6242 
12478000    26.804081   -5201.7142   -5150.0202   -5201.7142            0   -752.15248    20.035834     19.93668    21.065128    8414.4236   -689.02566   -559.06633   -1008.3654   -127.71421    236.56389    65.514846   -5242.3212 
12479000    27.626931   -5205.1883   -5151.9075   -5205.1883            0   -1223.2761     20.05198    20.002425    20.900744    8383.0426   -837.99516   -1504.4656   -1327.3677   -371.61706    133.75364    547.58161   -5301.4629 
12480000    26.864902   -5200.3376   -5148.5263   -5200.3376            0   -613.52452    20.017873    19.992774    20.969933    8392.4356    -665.6444    -858.7814   -316.14777   -259.81468   -12.136141   -193.90366   -5223.6187 
12481000     27.09038   -5202.1551    -5149.909   -5202.1551            0    -748.5152    20.026747    19.988904    20.973262    8395.8637   -778.73194   -993.90077    -472.9129   -242.37246   -155.19501   -86.019747    -5241.561 
12482000    25.536993   -5200.3025   -5151.0522   -5200.3025            0    -965.7741    19.964276    20.025028    21.066295    8421.9927   -919.82687   -1050.6299   -926.86547   -109.18788   -27.811598    370.09176   -5269.6745 
12483000    25.206775   -5203.4488   -5154.8354   -5203.4488            0   -981.67571    19.972922    19.994154    21.029892    8398.1119   -759.71164   -847.45466   -1337.8608   -289.05699     470.8036    110.75187   -5275.0689 
12484000    26.174174   -5201.6412   -5151.1621   -5201.6412            0   -440.85291    20.060641    19.915659    21.009463    8393.7194   -698.51058   -96.741257   -527.30688   -140.59828    172.99666    358.89366   -5205.1286 
12485000    24.270485   -5201.2231   -5154.4154   -5201.2231            0   -464.16599    19.941806    20.026145    21.072031    8415.2736   -269.70694   -842.04232   -280.74872    40.397353    280.36387     209.8957   -5211.3816 
12486000    26.159301   -5206.2161   -5155.7657   -5206.2161            0   -1089.4179    20.001486    19.956902    21.080307    8414.5779   -1447.2558   -472.39541   -1348.6026   -398.98038    275.56252   -162.85525   -5289.4568 
12487000    24.724677   -5200.3377   -5152.6541   -5200.3377            0   -1277.9161    20.001483    20.026776    21.000348    8412.0089   -1410.9817   -1510.5423   -912.22422   -261.49545    311.55448   -58.797934   -5309.4295 
12488000    27.838727   -5204.6729   -5150.9835   -5204.6729            0   -1231.0409    20.007772    19.996147    20.962584    8386.6759   -1240.3983   -1620.4364   -832.28806   -215.42909    503.52826     26.52988   -5301.5535 
12489000    25.655435   -5202.3325   -5152.8538   -5202.3325            0   -742.60184    20.001258    19.934001    21.003723    8374.2914   -951.45282   -496.32478   -780.02793   -222.09458    231.42349   -110.93269   -5243.5481 
12490000    26.519115   -5202.0161   -5150.8717   -5202.0161            0   -557.04565    19.996373    19.980707    21.024613    8400.2091   -470.48815   -222.04872    -978.6001   -97.799778    771.46785    303.74429   -5219.1145 
12491000     25.40604   -5205.2934   -5156.2957   -5205.2934            0   -550.86389    20.035557     19.97334    20.941095    8380.1446   -194.24812   -1208.1472   -250.19634    33.438586   -152.09529    293.99221     -5223.62 
12492000    26.338479   -5203.4298   -5152.6338   -5203.4298            0    -559.3592    20.027263    19.985721    20.941068    8381.8572   -989.54945   -371.45739   -317.07076   -180.84654    427.82388   -263.72919   -5221.0103 
12493000    26.086474   -5201.0822   -5150.7722   -5201.0822            0   -292.12875    20.008128     19.97465     20.99097    8389.1535   -450.66921    16.935995   -442.65303    -80.58327    338.29803    28.421045   -5186.5134 
12494000    26.388916   -5200.7657   -5149.8724   -5200.7657            0   -762.90106    20.000169    19.951993    21.148408    8439.1291   -690.31145   -638.52939   -959.86233   -62.220809    351.88018     356.3403   -5243.7673 
12495000     26.40107   -5200.1211   -5149.2044   -5200.1211            0   -642.21818    19.965915    20.000899    21.021901    8394.8072   -407.56447   -908.65793   -610.43214   -4.0115233    502.23419   -157.42336    -5227.831 
12496000    26.457471   -5202.2574   -5151.2319   -5202.2574            0   -1216.6568    19.995723    19.970087    21.064319    8411.3265   -1537.4949   -497.93224   -1614.5433   -179.96971   -36.686124   -161.08041   -5300.4799 
12497000    25.756919   -5202.5836   -5152.9092   -5202.5836            0   -981.15626    19.947529    20.005605    21.040745    8396.5703   -894.80785   -1087.0811   -961.57985   -62.773671    316.24457    22.951808    -5273.057 
12498000    26.733419   -5201.8822   -5150.3246   -5201.8822            0   -959.59565    19.996809     19.94753    21.116163    8422.9616   -1083.4382   -939.09993   -856.24877   -16.704542   -12.022438   -151.66484   -5268.2015 
12499000     26.07623   -5204.6528   -5154.3625   -5204.6528            0   -697.77156    20.013734    19.935268    21.032259     8391.433   -881.65577   -667.96952   -543.68938   -102.93512    200.54018    344.48402   -5239.7561 
12500000    27.927291   -5202.6686   -5148.8084   -5202.6686            0   -762.61995     19.98579    19.961648    21.050558    8398.1057   -590.94252   -986.15471   -710.76263   -166.27569   -286.87275   -16.682537   -5242.2124 
Loop time of 338.669 on 64 procs for 250000 steps with 972 atoms

Performance: 127.558 ns/day, 0.188 hours/ns, 738.184 timesteps/s
99.1% CPU use with 64 MPI tasks x 1 OpenMP threads

MPI task timing breakdown:
Section |  min time  |  avg time  |  max time  |%varavg| %total
---------------------------------------------------------------
Pair    | 16.722     | 26.301     | 36.132     |  91.0 |  7.77
Bond    | 0.25713    | 0.27374    | 0.28488    |   1.2 |  0.08
Kspace  | 133.51     | 143.31     | 152.97     |  39.0 | 42.32
Neigh   | 0.074721   | 0.076846   | 0.079634   |   0.5 |  0.02
Comm    | 80.242     | 80.897     | 81.712     |   3.9 | 23.89
Output  | 0.51755    | 0.51857    | 0.51974    |   0.1 |  0.15
Modify  | 78.502     | 79.811     | 82.75      |  11.4 | 23.57
Other   |            | 7.48       |            |       |  2.21

Nlocal:        15.1875 ave          19 max          11 min
Histogram: 1 7 9 7 0 12 6 11 10 1
Nghost:        2211.12 ave        2235 max        2181 min
Histogram: 1 5 6 4 7 10 12 9 9 1
Neighs:        4700.30 ave        6443 max        3255 min
Histogram: 6 7 8 7 7 13 3 7 4 2

Total # of neighbors = 300819
Ave neighs/atom = 309.48457
Ave special neighs/atom = 2.0000000
Neighbor list builds = 250
Dangerous builds = 0

unfix		3
unfix		2
unfix		1

write_data	data.final.${pid}
write_data	data.final.1
System init for write_data ...
PPPM initialization ...
  extracting TIP4P info from pair style
  using 12-bit tables for long-range coulomb (../kspace.cpp:340)
  G vector (1/distance) = 0.37214932
  grid = 24 24 25
  stencil order = 5
  estimated absolute RMS force accuracy = 0.0034384955
  estimated relative force accuracy = 1.0354927e-05
  using double precision FFTW3
  3d grid and FFT values/proc = 2366 288
Last active /omp style is kspace_style pppm/tip4p/omp
WARNING: Not all mixed pair coeffs generated from mixing. Use write_data with 'pair ij' option to store all pair coeffs. (../write_data.cpp:312)

write_restart   restart.lmp.${pid}
write_restart   restart.lmp.1
System init for write_restart ...
PPPM initialization ...
  extracting TIP4P info from pair style
  using 12-bit tables for long-range coulomb (../kspace.cpp:340)
  G vector (1/distance) = 0.37214932
  grid = 24 24 25
  stencil order = 5
  estimated absolute RMS force accuracy = 0.0034384955
  estimated relative force accuracy = 1.0354927e-05
  using double precision FFTW3
  3d grid and FFT values/proc = 2366 288
Last active /omp style is kspace_style pppm/tip4p/omp
Total wall time: 0:05:38
