#include		in.partitions
include		in.temp
variable        temperature equal 135.68
variable	tempDamp equal 100.0
include		in.pressure
variable        pressure equal 8543.8
variable        pressureDamp equal 1000.0 # This is 1 ps
include		in.seed
variable        seed equal 745823

units		real
atom_style	full
box tilt large
read_restart	restart.lmp.${pid}
read_restart	restart.lmp.0
Reading restart file ...
  restart file = 30 Jul 2021, LAMMPS = 30 Jul 2021
  restoring atom style full from restart
  triclinic box = (-10.583617 -9.0794622 0.19221101) to (12.563617 12.069460 21.667788) with tilt (-9.1131169 1.4999533 2.6737153)
  4 by 4 by 4 MPI processor grid
  restoring pair style lj/cut/tip4p/long/omp from restart
  restoring bond style harmonic/omp from restart
  restoring angle style harmonic/omp from restart
  1296 atoms
  864 bonds
  432 angles
Finding 1-2 1-3 1-4 neighbors ...
  special bond factors lj:    0        0        0       
  special bond factors coul:  0        0        0       
     2 = max # of 1-2 neighbors
     1 = max # of 1-3 neighbors
     1 = max # of 1-4 neighbors
     2 = max # of special neighbors
  special bonds CPU = 0.008 seconds
  read_restart CPU = 0.022 seconds
include 	in.setup
variable	out_freq equal 1000
variable	out_freq2 equal 10000
variable	out_freq3 equal 1000

timestep	2.0

neigh_modify    delay 7 every 1

include		in.tip4p
# This is TIP4P/Ice

# create groups ###
group ox type 2
432 atoms in group ox
group hy type 1
864 atoms in group hy

# set charges - beside manually ###
set group ox charge -1.1794
Setting atom values ...
  432 settings made for charge
set group hy charge 0.5897
Setting atom values ...
  864 settings made for charge

# ### TIP3P Potential Parameters ###
pair_style lj/cut/tip4p/long/omp 2 1 1 1 0.1577 8.5
pair_coeff 1 1*2 0.000 0.000
pair_coeff 2 2 0.21084 3.1668
bond_style  harmonic
bond_coeff  1 450 0.9572
angle_style harmonic
angle_coeff 1 55 104.52
kspace_style pppm/tip4p/omp 1.0e-5
pair_modify tail yes

thermo          ${out_freq}
thermo          1000
thermo_style    custom step temp pe etotal epair emol press lx ly lz vol pxx pyy pzz pxy pxz pyz enthalpy

restart 	${out_freq3} restart.lmp.${pid} restart2.lmp.${pid}
restart 	1000 restart.lmp.${pid} restart2.lmp.${pid}
restart 	1000 restart.lmp.0 restart2.lmp.${pid}
restart 	1000 restart.lmp.0 restart2.lmp.0


include         in.dump
dump            myDump all atom ${out_freq2} dump.water.${pid}
dump            myDump all atom 10000 dump.water.${pid}
dump            myDump all atom 10000 dump.water.0
dump            myDump2 all dcd ${out_freq2} dump.dcd
dump            myDump2 all dcd 10000 dump.dcd
dump_modify     myDump append yes
dump_modify     myDump2 append yes


variable natoms 	equal  "count(all)"                        # NUMBER ATOMS
variable H      	equal  "enthalpy/v_natoms"                 # ENTHALPY-per-atom
variable Vol      	equal  "vol/v_natoms"                 # volume-per-atom
fix AVG all 		ave/time ${out_freq} 1 ${out_freq} v_Vol v_H file vol_enthalpy.dat
fix AVG all 		ave/time 1000 1 ${out_freq} v_Vol v_H file vol_enthalpy.dat
fix AVG all 		ave/time 1000 1 1000 v_Vol v_H file vol_enthalpy.dat


timer           timeout 10:00:00 every 1000
New timer settings: style=normal  mode=nosync  timeout=10:00:00

fix 		1 all shake 1e-6 200 0 b 1 a 1
       0 = # of size 2 clusters
       0 = # of size 3 clusters
       0 = # of size 4 clusters
     432 = # of frozen angles
  find clusters CPU = 0.001 seconds
fix             2 all nph tri ${pressure} ${pressure} ${pressureDamp}
fix             2 all nph tri 8543.8 ${pressure} ${pressureDamp}
fix             2 all nph tri 8543.8 8543.8 ${pressureDamp}
fix             2 all nph tri 8543.8 8543.8 1000
fix             3 all temp/csvr ${temperature} ${temperature} ${tempDamp} ${seed}
fix             3 all temp/csvr 135.68 ${temperature} ${tempDamp} ${seed}
fix             3 all temp/csvr 135.68 135.68 ${tempDamp} ${seed}
fix             3 all temp/csvr 135.68 135.68 100 ${seed}
fix             3 all temp/csvr 135.68 135.68 100 745823


run             250000
PPPM initialization ...
  extracting TIP4P info from pair style
  using 12-bit tables for long-range coulomb (../kspace.cpp:340)
  G vector (1/distance) = 0.37283296
  grid = 30 36 32
  stencil order = 5
  estimated absolute RMS force accuracy = 0.0034204168
  estimated relative force accuracy = 1.0300484e-05
  using double precision FFTW3
  3d grid and FFT values/proc = 4896 600
Last active /omp style is kspace_style pppm/tip4p/omp
Neighbor list info ...
  update every 1 steps, delay 7 steps, check yes
  max neighbors/atom: 2000, page size: 100000
  master list distance cutoff = 10.8154
  ghost atom cutoff = 10.8154
  binsize = 5.4077, bins = 7 5 4
  1 neighbor lists, perpetual/occasional/extra = 1 0 0
  (1) pair lj/cut/tip4p/long/omp, perpetual
      attributes: half, newton on, omp
      pair build: half/bin/newton/tri/omp
      stencil: half/bin/3d/tri
      bin: standard
Per MPI rank memory allocation (min/avg/max) = 9.421 | 9.433 | 9.439 Mbytes
Step Temp PotEng TotEng E_pair E_mol Press Lx Ly Lz Volume Pxx Pyy Pzz Pxy Pxz Pyz Enthalpy 
26250000    138.56327   -6637.0444   -6280.5989   -6637.0444            0    9419.0621    23.147233    21.148922    21.475577    10513.133     8787.485    8763.0368    10706.664   -328.89056    1198.3957    667.92329   -4836.4375 
26251000    135.42108   -6656.5883   -6308.2258   -6656.5883            0    8442.8156    23.133293     21.23735    21.417041    10521.975    9066.7181    8146.6971    8115.0317   -1005.5984   -226.20248   -466.76673   -5012.6571 
26252000    135.79645   -6658.6144   -6309.2863   -6658.6144            0    9109.5817    23.193003    21.176998    21.391516    10506.618    8447.6793    9717.1694    9163.8965    1121.6537   -231.27115   -536.09095   -4913.4411 
26253000    135.01756   -6655.9645     -6308.64   -6655.9645            0     8695.401    23.028167    21.202445    21.562835    10528.129    9308.2304    8949.9216     7828.051     19.64308    -23.88074    927.73266   -4973.5312 
26254000    133.32376   -6677.6029   -6334.6356   -6677.6029            0    7733.6636    23.200656    21.205691    21.437202    10546.802    7910.7321    7353.3648    7936.8939    428.11594    429.22262   -407.84844   -5145.0876 
26255000    136.50099   -6660.3018   -6309.1613   -6660.3018            0    8463.5098    23.049658    21.285472    21.456455    10527.027    8468.4197    8405.2784    8516.8315    -342.4857   -252.53579   -291.82905   -5009.7934 
26256000    134.04166   -6647.4709   -6302.6569   -6647.4709            0    7400.8633    23.068334    21.333599    21.437036    10549.821    6926.4579    7070.1237    8206.0082    454.45618    1106.2059    153.48116   -5163.9725 
26257000    130.70874   -6650.7984   -6314.5581   -6650.7984            0    9901.4735    23.035267    21.287876    21.413819    10500.735    10190.152    9492.8505    10021.418   -399.72667    592.49872    200.99356   -4798.2221 
26258000    144.06607    -6671.099   -6300.4979    -6671.099            0    9102.1053    23.122621    21.218156    21.383499    10491.159    9432.3886    9165.2415    8708.6857    -192.2886   -485.87773   -621.70463   -4907.8503 
26259000    143.65451   -6661.2032   -6291.6608   -6661.2032            0    8657.2443    23.130762    21.194204    21.482374    10531.478    9210.8854    8971.2714    7789.5761   -857.91861   -897.09456    189.69972   -4961.9877 
26260000    134.99847   -6650.4492   -6303.1739   -6650.4492            0    8424.8727    23.211902    21.201805    21.428296    10545.598    7941.2978     8702.568    8630.7523   -72.795414    73.561994    524.03112    -5007.456 
26261000    134.58815   -6660.9509   -6314.7311   -6660.9509            0     7714.326     23.15179    21.282559    21.444235    10566.204    7892.1246    7656.3981    7594.4553   -421.06994    149.21152    489.81822   -5125.9747 
26262000    135.21975   -6638.9842   -6291.1396   -6638.9842            0    8683.5568    23.099351    21.232864    21.481519    10535.941    8663.2311    8979.6791    8407.7603    459.64275   -97.440961   -56.417488   -4956.8599 
26263000    133.11623   -6639.4071   -6296.9737   -6639.4071            0    7082.6659    23.247692    21.157008    21.493287    10571.508    6660.3474    7465.5908    7122.0596    214.10622    652.01779    294.27815   -5205.0065 
26264000    135.63431   -6681.4558   -6332.5448   -6681.4558            0    7733.8981    23.151174    21.232588    21.458277    10548.017    8252.8569    7962.9024    6985.9349   -1311.3028   -192.22925    -270.5716   -5142.8238 
26265000    139.76083   -6663.2529   -6303.7267   -6663.2529            0    9381.3856    23.143515     21.24307    21.371606    10507.122    10208.703    8023.4509    9912.0035   -315.09667   -627.39942   -1077.5994   -4866.1645 
26266000    135.22664    -6653.637   -6305.7747    -6653.637            0    9161.7094    23.056605    21.227855    21.434955    10491.173    8737.6284    9418.2473    9329.2526    491.35308   -580.28727    148.88195   -4904.0058 
26267000    134.49508   -6654.2335   -6308.2531   -6654.2335            0    8545.5652    23.080196    21.208101     21.50786    10527.821    8370.3937    9286.7848     7979.517   -462.96668    1677.1209    145.65198   -4996.1886 
26268000    138.05812   -6681.9735   -6326.8274   -6681.9735            0    8488.4879    23.114103    21.269954    21.354461     10498.62      8363.77    8369.0796    8732.6142    88.234558   -501.20501    433.17237   -5027.1415 
26269000    136.30774   -6664.4325   -6313.7891   -6664.4325            0     8598.948     23.11315    21.155801    21.501209    10513.601    8872.4833    9190.2991    7734.0615    311.31731    127.79847    1003.1234   -4995.3117 
26270000    133.45202   -6662.5272     -6319.23   -6662.5272            0    7866.1797     23.23946    21.082566     21.52184    10544.571    6933.3781    9456.6293    7208.5317   -975.41591    34.884015   -605.65986   -5109.5551 
26271000     134.2454   -6673.5222   -6328.1841   -6673.5222            0    8880.2873    23.200825    21.173366    21.387481    10506.377     8632.089    9101.5254    8907.2474    71.038678    551.77226   -839.74428   -4967.5044 
26272000    137.07498   -6659.6809   -6307.0639   -6659.6809            0    8296.0079    23.104112     21.21749    21.458845    10519.367    8521.5414     7498.296    8868.1863   -317.24363    445.61059     591.4299   -5034.3386 
26273000    133.84041     -6658.27   -6313.9737     -6658.27            0    8574.6791    23.065085     21.28827    21.402074    10508.755    8259.2109    8712.4833    8752.3432     243.1075    1343.5717   -157.38743   -4999.8234 
26274000    148.76667   -6650.5982    -6267.905   -6650.5982            0    8392.5389      22.8749    21.463849    21.452356    10532.751    9914.5042    8330.6212    6932.4913   -55.632523   -311.44905   -1480.6776   -4978.7324 
26275000    138.56922   -6643.8473   -6287.3864   -6643.8473            0    8560.6745    23.031823    21.277316    21.483907    10528.304    9671.9477    8539.2988     7470.777   -385.21877    1105.2175    136.70787   -4972.9418 
26276000    139.17572   -6646.5937   -6288.5726   -6646.5937            0    9026.4489    23.107088    21.279086    21.368597     10506.89     9625.956    7977.5049    9475.8857   -209.63407   -18.974616    1212.1476   -4905.4299 
26277000    135.52743    -6646.141   -6297.5049    -6646.141            0     8963.494    23.069494    21.178416    21.483303    10496.213    9349.0322    9378.9723    8162.4775    -984.2841   -1232.6094    -367.8138   -4925.4047 
26278000    132.06284   -6668.8409   -6329.1173   -6668.8409            0    7865.4086    23.250391    21.201294    21.384337    10541.161    7376.9996    7237.5475    8981.6789   -752.68582    26.455521    798.83707   -5119.9521 
26279000    139.23396   -6678.1224   -6319.9515   -6678.1224            0    8345.6815    23.267856    21.032192      21.5025    10522.764     8035.245    9880.1428    7121.6568   -1302.2929    83.859131    13.160427   -5039.1922 
26280000    142.03383   -6647.6482   -6282.2749   -6647.6482            0     9852.134    23.194356    21.075539    21.444359    10482.723    9199.0792     10893.82    9463.5024   -535.03162   -123.05299   -565.15871    -4776.083 
26281000    140.00652   -6650.9396   -6290.7814   -6650.9396            0    9203.9942    23.179547    21.132689    21.423641    10494.288    9270.7321    9937.0425     8404.208    92.989909   -417.16594    40.408663   -4882.1245 
26282000    138.63256    -6664.689   -6308.0652    -6664.689            0    7783.2053      23.0806    21.322311    21.486982    10574.426    8096.9384    6777.0142    8475.6632    919.90644   -615.38593    1310.4212   -5107.7615 
26283000    129.88286   -6644.5556   -6310.4398   -6644.5556            0    8525.9019    23.063228    21.342794    21.399187    10533.401    8155.1562    8816.4458    8606.1037    452.20519    1061.1788   -671.16727   -5000.7005 
26284000    130.99826   -6650.7578   -6313.7727   -6650.7578            0     9239.744    22.967394    21.318075    21.449615    10502.175    9270.0512    9314.4984    9134.6825    -232.3973   -202.31924   -287.97023   -4898.5817 
26285000    131.26443   -6658.5694   -6320.8996   -6658.5694            0    9331.6306    22.925698    21.361912     21.43684    10498.409    9559.2129    9506.5477    8929.1312    1027.8165     222.8457    19.629412   -4892.1475 
26286000    134.74101   -6666.5261   -6319.9131   -6666.5261            0    8386.6369    23.072783    21.329347     21.35424    10509.006    8286.5997    6957.6642    9915.6468    1046.4001    434.39287    649.18108   -5034.5513 
26287000    128.70218   -6644.2257   -6313.1472   -6644.2257            0    8101.2469    23.045794    21.285056     21.52735    10559.833     8946.054    7329.8288    8027.8578   -98.919746   -483.22867   -379.20428   -5065.5201 
26288000    136.49849   -6663.7229   -6312.5889   -6663.7229            0    8444.1148    23.160738    21.160345    21.506997    10540.347    9357.2047    8743.2105     7231.929      927.214   -71.207719   -386.32969   -5014.5582 
26289000    136.67838   -6656.6023   -6305.0055   -6656.6023            0    9253.5636    23.227141    21.127231     21.38501    10494.163    8762.0334    8873.2912    10125.366    569.97823   -1454.1568    1223.6009    -4888.779 
26290000    133.39747   -6664.6111   -6321.4542   -6664.6111            0    8112.4817    23.246654    21.098868     21.49467    10542.664    8192.5507    7948.2294    8196.6649    844.16246    -1051.261   -520.80904   -5074.1282 
26291000    132.48066   -6658.8435   -6318.0451   -6658.8435            0    8758.4952    23.239758    21.183102    21.372875    10521.656      8209.73    8399.5903    9666.1654   -547.71277    351.28116    895.18603   -4974.0754 
26292000    135.10595   -6662.8353   -6315.2834   -6662.8353            0    7796.8058    23.165528    21.162038    21.511678    10545.665    7997.1585    8001.0009    7392.2581    649.54581    297.15597   -82.956895   -5116.1526 
26293000    137.28052   -6652.5926   -6299.4468   -6652.5926            0    8486.3097    23.072827    21.318268    21.406697     10529.37    8922.3715     8647.315    7889.2425   -1014.0264   -128.56286   -688.25959   -4996.2886 
26294000    139.30891   -6663.5926   -6305.2289   -6663.5926            0    7795.9114    23.094704    21.286949     21.45449    10547.366     7773.355    8584.3737    7030.0056   -4.6950182    216.61438   -1301.0938   -5106.0422 
26295000    131.96072   -6685.7598   -6346.2989   -6685.7598            0    8222.1245    23.045518     21.23207    21.509143     10524.51    7363.3615    8585.4282    8717.5839     1281.194    558.52673    1070.0191   -5084.2917 
26296000     137.3972   -6657.0443   -6303.5983   -6657.0443            0     8141.016    23.123492    21.282824    21.438228    10550.464    7294.8104    7915.0332    9213.2043    181.67333    374.55145    34.388261    -5050.959 
26297000    139.16097   -6681.1602   -6323.1771   -6681.1602            0    8398.7862    23.054844    21.287569    21.424116    10514.562    7868.9851    8644.4976    8682.8758     183.7209   -490.47413    13.385699   -5035.2728 
26298000    133.05904   -6646.2426   -6303.9563   -6646.2426            0    8059.8306    23.114725    21.281679    21.432602    10543.129      7141.99    8947.6125    8089.8892   -471.54977    305.85364     89.26974    -5064.671 
26299000    141.22751    -6659.496   -6296.1968    -6659.496            0    8544.9251    23.093506    21.175837    21.553094    10539.987    9087.6201    9384.1336    7163.0215   -338.02942     339.3013   -547.70436   -4982.7144 
26300000    136.79102    -6659.132   -6307.2455    -6659.132            0    8589.4289    23.250862    21.216748    21.302828    10508.849    7547.2869    9163.2108    9057.7891    1102.2707   -665.69243   -25.222701   -4990.8229 
26301000    137.94559   -6657.4047   -6302.5481   -6657.4047            0     8483.913    23.154649    21.118955     21.57449    10549.969    8280.2901    9263.6775    7907.7713    810.42245   -1013.9651    418.03313   -4997.2093 
26302000     135.0374   -6673.5893   -6326.2138   -6673.5893            0    7857.9277    23.133153    21.282638    21.434261    10552.827    8252.4038    7130.0767    8191.3026    490.98136   -1237.6008   -157.48964   -5116.8618 
26303000    140.59653   -6683.0629   -6321.3869   -6683.0629            0    8877.6499    23.030181    21.300098    21.415828     10505.43    9433.6956    7757.2226    9442.0314    51.616442   -32.256282    208.82297   -4961.2339 
26304000    142.30748   -6667.6933    -6301.616   -6667.6933            0     8831.526    22.992003     21.33681    21.454122    10524.877    9780.7017    7899.6354    8814.2409   -182.50948    603.31382    1219.4619   -4946.0249 
26305000    137.29725   -6656.5677   -6303.3789   -6656.5677            0    8123.3914    23.066601    21.345189    21.366462    10520.012    8763.5611    8377.8745    7228.7386   -97.748597   -36.392866   -542.51665    -5057.059 
26306000    138.53614   -6645.6188    -6289.243   -6645.6188            0    8998.7383    23.100829    21.194811    21.449069    10501.844    7994.8452    9892.5265    9108.8432   -185.35963    354.46039    -107.2555   -4911.0086 
26307000    135.81752   -6655.8169   -6306.4346   -6655.8169            0    8450.0757    23.247703     21.13265     21.41941    10523.047    7871.0638    9053.7462     8425.417    39.538204    676.05834    573.78234   -5009.6197 
26308000    133.55182   -6658.1673   -6314.6133   -6658.1673            0    8551.7277     23.20445    21.140367     21.47331    10533.745    8200.1207    8565.5493     8889.513   -763.93062   -322.63719    670.15684   -5000.8639 
26309000     134.7392   -6653.9631   -6307.3547   -6653.9631            0     8438.952    23.086857     21.31439    21.407254    10534.131    9242.7318    7595.9295    8478.1946   -80.676582   -558.31862   -644.46507   -5010.8829 
26310000    134.96089   -6677.5469   -6330.3682   -6677.5469            0    8841.9725     22.99801    21.315062    21.434592    10507.323    9295.7227    8127.9428    9102.2521    286.83913   -26.020616    742.64195   -4975.4373 
26311000    133.55492   -6659.1452   -6315.5833   -6659.1452            0    7854.4524     22.97991    21.343157    21.526216     10557.83    8044.5516    7317.3084    8201.4972    1162.4225   -742.72213    174.29456    -5106.193 
26312000    133.48411   -6645.0125   -6301.6327   -6645.0125            0    8414.1376    23.119411    21.356068     21.32829    10530.624    7759.6095    8605.3357    8877.4675    -67.00009   -524.13993    -474.0796   -5009.4034 
26313000    145.31057   -6660.6116    -6286.809   -6660.6116            0    9107.9043    22.991297    21.238148    21.535728    10515.736    9336.5156    10085.068    7902.1291   -525.07003    429.44081   -287.59404   -4890.0097 
26314000    132.72732   -6650.1562   -6308.7232   -6650.1562            0     9469.599     23.17997    21.229374    21.313265    10488.178    8580.6228    9756.5703    10071.604    607.38367     79.26095    176.32226   -4860.2598 
26315000    134.36502   -6682.8681   -6337.2223   -6682.8681            0    8995.5366    23.083722    21.181372    21.491331    10508.077    8742.4271    10493.098    7751.0844   -13.488613   -429.85814   -615.12013   -4958.6606 
26316000     138.0989   -6647.0713   -6291.8203   -6647.0713            0    8409.1896    23.139019    21.144572    21.503939    10521.117    8419.1379    8095.4188    8713.0121    105.92316    1001.1954    1266.0012   -5001.5168 
26317000    130.60739   -6668.3117   -6332.3322   -6668.3117            0    8633.1124    23.191585    21.150821    21.432042    10512.868    8825.7429    9262.0297    7811.5648      528.571   -1289.1658    337.52346   -5008.7086 
26318000    134.47655   -6668.8901   -6322.9574   -6668.8901            0    9128.5181     23.16913    21.177682    21.404917    10502.718    9029.1765    9798.8716    8557.5061   -52.559084    -680.9247   -608.13593   -4924.7299 
26319000    129.05578   -6672.3001    -6340.312   -6672.3001            0     8061.768    23.182624    21.135732    21.490478    10529.941    8413.4359     8443.366    7328.5021   -250.45549   -468.11142    54.422547   -5102.2792 
26320000    135.17424   -6657.6308   -6309.9033   -6657.6308            0    10005.353    23.040333    21.149967    21.498732    10476.381    10076.601    10192.554    9746.9044   -350.80447    581.22676   -370.62719   -4781.2127 
26321000    136.72878   -6664.2722   -6312.5458   -6664.2722            0    7435.7433    23.076708    21.397814    21.395885    10565.097    7474.7361    7040.4352    7792.0585    347.15026    574.09417   -543.58855   -5166.8382 
26322000    142.98575   -6641.5907   -6273.7686   -6641.5907            0    9042.4548    22.850133    21.366835    21.484484    10489.478    10328.973    8291.0766    8507.3145   -698.85032     448.5061   -486.86183   -4890.4694 
26323000    131.77464   -6668.7333   -6329.7511   -6668.7333            0    7818.7284    22.944304    21.392876    21.476228    10541.492    8105.1077    7253.1714    8097.9062    797.27822    212.13531    -342.1748   -5127.7244 
26324000     138.3689   -6669.7255     -6313.78   -6669.7255            0     8228.204    23.104052    21.313811    21.415426    10545.714    8006.0835    8128.1859    8550.3426    83.224041    530.35629    671.41265   -5048.2952 
26325000    135.11134   -6657.1649   -6309.5993   -6657.1649            0    9086.8051    23.107781    21.151124    21.503374    10509.893    9943.0142    8966.2346    8351.1664    34.905575   -621.95566   -1141.6335     -4916.81 
26326000    135.26594   -6659.9009   -6311.9375   -6659.9009            0     9322.611    23.114782    21.179709    21.455398    10503.798     9608.854    8683.8289      9675.15   -717.59401   -351.13131    575.57896   -4883.8336 
26327000    133.36587   -6672.6579   -6329.5824   -6672.6579            0    7122.9278    23.158601     21.30292    21.416227    10565.607    6577.8258    7008.8585     7782.099    418.50065    -348.9061    236.56856   -5232.0209 
26328000    138.27275   -6640.8305   -6285.1323   -6640.8305            0    8067.0238    23.097089    21.263389    21.452239    10535.674    8505.1966    7481.5307    8214.3443   -493.62345    257.29781    433.58345   -5045.6179 
26329000    127.88259   -6647.6273   -6318.6572   -6647.6273            0    9197.7241    23.086718     21.23035    21.439175    10508.178    9185.6457    9086.8466    9320.6799   -409.48873    126.22773   -232.20622   -4909.0968 
26330000    137.89157   -6648.6059   -6293.8883   -6648.6059            0    8207.9476    23.193669    21.236192    21.361338    10521.425    8318.5182    8064.2208    8241.1037    158.13473  -0.74488998   -57.956365   -5034.4264 
26331000    130.20738   -6659.9874   -6325.0369   -6659.9874            0    8234.5652    22.991337    21.229986    21.602909    10544.505    8116.6316    7731.3863    8855.6778    60.293049   -144.91046    599.99156    -5058.719 
26332000    135.39863   -6663.3765   -6315.0717   -6663.3765            0    9126.8782    23.159086    21.197616    21.392178    10501.793    9592.4431    8972.9044     8815.287   -1169.5438    268.94309   -518.89149   -4917.2185 
26333000    135.23916   -6658.9575    -6311.063   -6658.9575            0    9111.9301    23.113654    21.246689    21.350798    10485.133    8358.4432    9030.5644    9946.7827    347.76794    196.94739   -15.274861    -4917.713 
26334000    139.40703   -6648.7319   -6290.1158   -6648.7319            0    7808.1657    23.109006    21.181622    21.610911    10578.243    6635.7202    7571.8937    9216.8832    425.17524    345.03021    53.643377    -5085.528 
26335000    136.71819   -6669.1265   -6317.4273   -6669.1265            0    9017.1476    23.121772    21.281886    21.385027    10523.035    8565.0731    9459.3061    9027.0637   -408.14003   -201.30604    22.506051   -4933.5867 
26336000    134.64269   -6663.5849   -6317.2248   -6663.5849            0    8432.8744    23.172917    21.229809    21.376781    10516.449    7222.2956    9666.0477    8410.2797     1272.835      -612.79    241.92802   -5023.8612 
26337000    131.75349   -6671.0266   -6332.0988   -6671.0266            0    8003.4292     22.96623    21.209349    21.640262    10540.946    8365.8511     8347.634    7296.8025   -266.90345    201.44934    442.78164   -5101.7406 
26338000    134.44387   -6653.5427    -6307.694   -6653.5427            0    7550.9189    23.201379    21.278454    21.390189    10560.111    7321.5342    7120.2843    8210.9381    288.52005   -119.14769   -336.65648   -5144.7891 
26339000    132.23121   -6675.9037    -6335.747   -6675.9037            0    9367.0248    23.075824     21.23628    21.374388    10474.405     9441.587    9321.6872    9337.8002    50.226025    330.06077   -400.39009   -4904.8548 
26340000    129.25614   -6661.7649   -6329.2613   -6661.7649            0    7545.6531     23.07453    21.277608    21.550748    10580.788    6705.1743    8751.2379    7180.5471   -22.357027    375.74083   -344.08558   -5164.8921 
26341000     130.9162   -6666.0892   -6329.3153   -6666.0892            0    8039.3256    23.070015    21.442174    21.309219    10541.058    7725.6976    7051.0955    9341.1837   -502.06334    574.82384    854.06048   -5093.4256 
26342000    135.01788   -6655.3829   -6308.0576   -6655.3829            0    9040.5655    22.973578    21.110823    21.704426    10526.454    8740.1719    9868.3399    8513.1847    862.13675    843.99626     7.389936   -4920.1722 
26343000    131.71464   -6648.3185   -6309.4906   -6648.3185            0    9234.8661    23.155692    21.202067      21.3833      10498.1    8999.9012    9065.8233    9638.8738    164.41065    15.801676    211.27324   -4895.5955 
26344000    131.83843   -6644.2992   -6305.1529   -6644.2992            0    8275.6789    23.164376    21.213212    21.427103    10529.082    8124.6584    8605.4588    8096.9197    683.95209   -1146.8326    42.160219   -5034.3739 
26345000    128.15488   -6668.4844   -6338.8138   -6668.4844            0    8191.9591    23.131905     21.10582    21.614546    10552.607    7992.3251    9107.5652    7475.9871    673.76535   -144.42183   -315.76991   -5078.0799 
26346000    138.61556   -6647.9768   -6291.3967   -6647.9768            0    9541.3564    23.177089    21.282027    21.304207    10508.416    8439.7875    9586.2651    10598.017     327.9736    82.177047   -223.68145   -4829.1412 
26347000     134.7099   -6661.8009   -6315.2679   -6661.8009            0    7751.2002     23.14549    21.236258    21.473582    10554.772    8152.4156    7322.3276    7778.8575    444.98074    432.55805    510.23239   -5122.1216 
26348000    129.67562   -6671.8112   -6338.2286   -6671.8112            0     8067.314     23.01782    21.283665    21.504633    10535.197    8949.4959    7819.4693    7432.9768    272.95019   -339.81878    -271.7508   -5098.7258 
26349000    139.12866   -6662.6558   -6304.7557   -6662.6558            0    9064.4653    23.200349    21.342239     21.20855    10501.358    7882.0304    9361.9401    9949.4255   -539.32262   -599.73425    282.26045    -4916.519 
26350000    132.18202   -6660.4587   -6320.4285   -6660.4587            0    8566.8887    23.144736    21.024856    21.622491    10521.823    9344.2563    9196.9221    7159.4877    540.72883    189.45544     697.3938   -5005.8394 
26351000    133.33112    -6667.366   -6324.3798    -6667.366            0    9535.4961    23.162368    21.132402    21.383137    10466.542    9318.1804    9953.5982    9334.7096   -1038.9638    467.60974    230.42521   -4868.8457 
26352000    137.37057   -6673.7432   -6320.3658   -6673.7432            0    8356.3108    23.161341    21.230635    21.420465    10533.085    8815.2539    7850.6669    8403.0118   -679.17595    174.29401   -128.68166   -5036.7174 
26353000    133.02043    -6642.161    -6299.974    -6642.161            0    7433.0034    23.001761    21.333142    21.555767    10577.411    7949.6235     6256.344    8093.0425   -48.582027    87.929161    1369.8015   -5153.3538 
26354000    141.98759   -6670.6353   -6305.3809   -6670.6353            0    8782.2851    23.012281    21.338288    21.422437    10519.331    8917.1726      8642.53    8787.1527   -417.53989    775.41747   -772.09398   -4958.0584 
26355000    136.41119   -6652.3301   -6301.4206   -6652.3301            0    8432.1115    23.158296    21.285024    21.332236     10515.19    8271.9243    8326.7127    8697.6976   -130.87086   -81.000288     -558.019   -5008.3288 
26356000    134.42612   -6668.2974   -6322.4944   -6668.2974            0    8739.4239    23.219371     21.05052    21.511445     10514.36    7419.0108    10289.897    8509.3641    1252.2656   -54.413455    462.59796    -4982.381 
26357000    136.69448   -6663.4662    -6311.828   -6663.4662            0    9609.5328    23.168089    21.126303    21.421628    10484.946    9262.9691    10077.795    9487.8345   -190.83708   -518.18446    167.84899   -4842.4134 
26358000    138.22403   -6671.3634   -6315.7905   -6671.3634            0    8709.1553    23.263819    21.099232    21.411425    10509.771    7892.5101    9005.1399     9229.816    453.17398    201.23814    46.747433   -4980.9015 
26359000    135.29558   -6667.9523   -6319.9126   -6667.9523            0    9105.0001    22.991878    21.274413      21.4673    10500.488    9853.9636    8700.8323    8760.2042    116.30667    135.44196    522.78312   -4925.5835 
26360000    131.88966     -6657.53   -6318.2519     -6657.53            0    8481.7209    23.070955    21.272471    21.442514    10523.476    8826.7481    8075.1082    8543.3063    442.41358    180.14949    71.578779   -5016.5273 
26361000    131.74245   -6652.1041   -6313.2047   -6652.1041            0    8101.0054    23.162776    21.326174    21.339147    10540.971    6379.0489    9011.4841    8912.4831    247.61381    1649.5869   -173.38464   -5067.8432 
26362000    138.65631   -6665.5555   -6308.8706   -6665.5555            0    8888.2782    23.085371    21.131595    21.557592    10516.456    9217.8273    8919.1826    8527.8248   -93.897893    383.72152    262.99373   -4945.6601 
26363000    140.07635   -6668.9031   -6308.5652   -6668.9031            0     8651.644    23.179275    21.155352    21.438987    10512.944    8816.4313    9120.6901    8017.8106     72.37039   -437.15644   -111.61069   -4982.0908 
26364000    136.33138   -6650.5532    -6299.849   -6650.5532            0    8960.0953    23.243748    21.163947    21.353983    10504.653    7977.7268    9222.3248    9680.2343    673.55161     40.17446   -301.52402   -4927.1661 
26365000    133.38208   -6655.4814   -6312.3641   -6655.4814            0    7927.2593    23.120731     21.14999    21.625369    10574.875    8331.2739    7962.4387    7488.0652    -136.0171     547.2094    1232.4773   -5089.7928 
26366000    131.65708   -6673.5836   -6334.9037   -6673.5836            0    7951.8182    23.177551    21.257355    21.348621    10518.325    8428.0046    7135.1183    8292.3319    -316.2526    279.71338    299.85651   -5115.1029 
26367000    129.40459    -6676.909   -6344.0236    -6676.909            0    9471.4332    23.038014    21.249553    21.399644    10476.142     9248.643    9404.2737    9761.3828    -373.6133    545.56521   -26.190768   -4896.9422 
26368000    133.59524   -6670.4833   -6326.8176   -6670.4833            0    8242.3925    23.120641    21.330401    21.340313    10524.456    7241.9781    8807.9278    8677.2717   -193.42566    1288.5954   -361.51242    -5061.706 
26369000    136.67138   -6672.1906   -6320.6118   -6672.1906            0    8477.4543    23.066687    21.268037    21.464965     10530.35    8496.3461    8383.2073    8552.8096    379.12587     825.0071    313.51693   -5018.6922 
26370000    132.87575   -6650.9722   -6309.1574   -6650.9722            0    9525.9916    23.025403    21.272286    21.422071    10492.593    9427.3403    10041.913    9108.7217   -158.44211    -160.8369   -892.86617   -4851.4548 
26371000    128.40328   -6648.7881   -6318.4785   -6648.7881            0    8191.2785    23.177751    21.229062    21.399582    10529.491     7470.392    8982.1008    8121.3428   -122.79848    111.48625   -450.94981   -5060.6108 
26372000    139.90133   -6656.0484   -6296.1608   -6656.0484            0    8179.6838    23.060016    21.209034    21.591748    10560.107    8671.0707    7428.7039    8439.2769   -1659.4516    547.99099    175.48394   -5036.4214 
26373000    136.41151   -6665.5876   -6314.6773   -6665.5876            0     8640.647    23.182715    21.193706     21.37929    10504.236    7758.2432    8263.3617     9900.336    22.948869    785.24876    965.99383   -4990.9863 
26374000    139.09642   -6659.1774   -6301.3603   -6659.1774            0     9591.968    23.116518    21.197459    21.366383    10469.772    8626.4056    10128.807    10020.692    736.35405   -609.36368   -1003.6258   -4836.7542 
26375000     138.4798   -6655.5503   -6299.3195   -6655.5503            0    8397.0875    23.092939    21.192103      21.5528     10547.68    9350.3313    7880.3579    7960.5732    590.58456    57.408455   -92.017546   -5007.6198 
26376000    134.39106   -6662.2723   -6316.5595   -6662.2723            0    8470.8383    23.128576     21.22719    21.442281    10527.188     7437.122    9002.2329    8973.1601   -20.659709    174.91314   -381.88409   -5016.0466 
26377000    136.03838   -6664.6437   -6314.6933   -6664.6437            0    8760.6015    23.093219    21.269293    21.382283    10502.474    8514.3179    8735.0858    9032.4008      401.071   -152.23842   -611.18627   -4972.8512 
26378000    135.23037   -6656.2784   -6308.4066   -6656.2784            0    9713.1884    23.065838    21.231267    21.423478     10491.44    9344.7263    9925.3067    9869.5323    1390.9772    -318.2974   -536.66391   -4822.2218 
26379000    142.01729   -6655.7319   -6290.4011   -6655.7319            0    8734.5488    23.043753    21.270505    21.469738    10523.441    8833.3978    7896.8081    9473.4404   -350.42657    306.81307    228.54034   -4949.8785 
26380000     136.1902   -6684.3921   -6334.0511   -6684.3921            0    9138.1797    23.208797    21.131263     21.37929    10485.071    9584.1684    8579.0644    9251.3062    285.49879   -339.39182   -802.46374   -4936.6955 
26381000      129.986   -6669.1492   -6334.7681   -6669.1492            0    7744.4149    23.138916    21.270619    21.437498    10551.088    8058.3559    6824.0308     8350.858   -233.86957   -167.33819    632.30538   -5143.0824 
26382000    139.04526   -6651.6482   -6293.9628   -6651.6482            0    9153.1054    23.209157    21.092406    21.441748    10496.528    8443.5098    9717.5511    9298.2553   -379.34952    611.17024   -615.40388   -4892.7954 
26383000     135.4666    -6656.766   -6308.2864    -6656.766            0    8430.9594    23.205896    21.098079    21.507388    10530.013    7678.9002    9173.6379    8440.3401   -1086.2837   -36.180761      191.597   -5013.5487 
26384000    133.25827   -6673.9256   -6331.1268   -6673.9256            0    8813.1954    23.185965     21.13421    21.479782    10525.459    8332.1159    9053.6615     9053.809    34.771585    35.847007   -238.17104   -4978.2747 
26385000    131.24086   -6671.9701    -6334.361   -6671.9701            0    7409.5368    23.157658    21.281307    21.394014     10543.51    7588.0306    6719.6098      7920.97   -597.18402    -393.5059    1027.7595   -5195.0241 
26386000    141.58171   -6669.3466   -6305.1363   -6669.3466            0    7623.2752    23.007517    21.295658    21.581073    10573.867    7550.0653    7709.0536    7610.7065     517.9543    600.20663    510.16933   -5129.5586 
26387000     133.9294   -6660.1601   -6315.6348   -6660.1601            0    8690.4256    23.091393    21.297648    21.387098    10518.011    8724.1045      7910.41    9436.7625    135.60089   -333.34762   -224.43464   -4982.5721 
26388000    132.43501   -6665.9279   -6325.2469   -6665.9279            0    8580.4794    23.025273    21.325201    21.367337    10491.759     9131.262    7759.2596    8850.9167    1060.2201   -460.07255    612.13963   -5012.3344 
26389000    130.28494   -6657.7092   -6322.5591   -6657.7092            0    9131.5486    23.013284    21.264322    21.457021    10500.248    8898.4564    9075.3609    9420.8286    391.25756    123.26606     415.4523   -4924.1962 
26390000    133.94795   -6654.4705   -6309.8976   -6654.4705            0    8819.4903    23.203417    21.140835    21.435999    10515.207    8723.9523    8793.5599    8940.9587   -768.19093   -12.558064   -260.11548   -4957.3978 
26391000    134.16716   -6670.0691   -6324.9322   -6670.0691            0    8174.7601    23.119714    21.268072    21.410016    10527.556    8044.0405    8544.2729    7935.9668   -1157.7282   -1157.4563   -212.82261   -5069.8318 
26392000    139.20735   -6665.3496   -6307.2472   -6665.3496            0    9191.5322    23.190205    21.096122    21.430304    10484.206    9323.1588    8755.1282    9496.3096    991.72165   -433.64808    338.91981   -4901.8491 
26393000    130.75081   -6648.6076   -6312.2591   -6648.6076            0    8607.6671    23.097449    21.292021     21.40081    10524.733    8546.1317    8341.7228    8935.1467   -276.74276   -291.90218   -450.96094   -4991.0473 
26394000    136.75301   -6673.6631   -6321.8743   -6673.6631            0    8259.9927    23.119505    21.245576    21.460616     10541.18    8136.4536    8725.7675    7917.7571    109.68136    856.01639    3.8324406   -5052.0467 
26395000    142.18551    -6658.004   -6292.2404    -6658.004            0    8454.5869    22.911326    21.311641    21.578084    10536.103    9374.1909    7957.9963    8031.5733   -556.97197    1237.3172    424.49615   -4993.1234 
26396000    140.24051   -6676.3373   -6315.5771   -6676.3373            0    8938.0697    23.086019    21.282151    21.381411    10505.118    8919.4969    8557.6573    9337.0549    609.98246   -317.69913   -229.57306   -4946.2079 
26397000    130.95639   -6665.6661   -6328.7887   -6665.6661            0    8058.3908    23.024755    21.288302    21.480408    10528.792    8019.2959    7744.2261    8411.6503   -365.10157    321.60411     35.29112   -5091.4097 
26398000    131.47913   -6665.2162   -6326.9942   -6665.2162            0    8926.8504    23.108972    21.287189    21.331185    10493.345    9673.9342    8109.9988    8996.6182    680.12045   -269.91066     514.0268   -4960.8766 
26399000    142.19196     -6662.58   -6296.7998     -6662.58            0    8523.9374    23.032046    21.289172     21.48243    10533.548    9985.2544    7704.1813    7882.3764   -795.79956    89.694181   -1246.7194    -4987.344 
26400000    135.23146   -6667.1598   -6319.2851   -6667.1598            0    9022.2236    23.090491    21.226925    21.436595    10506.935    9059.5736     8200.782    9806.3151    245.50267    245.89392    1193.3107    -4936.784 
26401000    139.37008   -6654.6568   -6296.1358   -6654.6568            0    9152.8766    23.139463    21.159931    21.441108    10498.197    9413.4329    9102.3406    8942.8562    569.88451    264.33557   -610.01123   -4894.7806 
26402000    134.02885   -6674.1409   -6329.3599   -6674.1409            0    8884.8632    23.219854    21.158379    21.396618    10512.041     7837.362    10250.267    8566.9609   -803.44819   -1125.9905   -683.92746   -4967.2452 
26403000     143.6801   -6670.9768   -6301.3685   -6670.9768            0    8164.3098    23.116488    21.193442    21.528168    10547.036    9065.0244    7889.7048       7538.2   -1009.1856    506.22372    338.04728   -5045.5531 
26404000    134.23564   -6657.3715   -6312.0585   -6657.3715            0    8698.8639    23.079313    21.322843    21.398309    10530.462    9511.7577    8724.3015    7860.5325   -136.39838   -1081.5534    287.29329   -4976.1219 
26405000    127.10354   -6652.7959   -6325.8298   -6652.7959            0    9222.7237    23.086479     21.25611     21.42326     10513.01    9198.6257    8195.7493    10273.796      1089.55   -719.70877    544.35208   -4911.7882 
26406000    131.50226   -6674.8825    -6336.601   -6674.8825            0    9331.3792    23.004444    21.252535    21.447573    10485.777    9886.2687    8314.0465    9793.8223   -121.81771   -564.95162     524.9678   -4909.6063 
26407000    134.05916   -6663.4613   -6318.6023   -6663.4613            0    8445.9338    23.028597    21.301376     21.43522     10514.85    9384.0751    7715.4193     8238.307    828.55456   -750.31297    312.62207   -5023.4327 
26408000    132.79411   -6661.0637    -6319.459   -6661.0637            0    9588.3801    23.058814    21.289361    21.368339    10489.876    9337.3339    9906.6917    9521.1148    1582.6171    -1423.341   -632.78105   -4852.5894 
26409000    140.49923   -6677.8335   -6316.4078   -6677.8335            0    8028.7313    23.044899    21.340173    21.423038    10535.467    7771.3746    8091.2078    8223.6115    268.02954   -382.82675    212.70613   -5082.8014 
26410000    134.04471   -6661.5507   -6316.7289   -6661.5507            0    9298.2362    22.995498    21.177821     21.58474     10511.65    11891.874    7815.6936    8187.1409   -321.44309   -1074.7978   -52.402579    -4891.294 
26411000     130.5421   -6669.7638   -6333.9522   -6669.7638            0    7781.3512    23.237953    21.237448    21.343239    10533.205    6697.2925    7053.7504    9593.0106    1043.2231   -24.732077    1240.2371   -5138.6123 
26412000    134.38595   -6656.6117    -6310.912   -6656.6117            0    9705.6253     23.07089     21.18634    21.481538    10499.912    10266.783    9849.4995    9000.5933   -1180.1512   -85.830686    -185.7093   -4824.6853 
26413000    134.17153   -6655.2593   -6310.1112   -6655.2593            0    8353.0685    23.188064     21.15093    21.420142     10505.49    7507.7913    8737.2096    8814.2047   -515.76218    658.55022    83.774947   -5030.3225 
26414000    129.60635    -6664.381   -6330.9766    -6664.381            0    8453.2247    23.151475    21.194581    21.447659    10524.062    7924.3194    9095.0821    8340.2727    -97.27221     134.9445   -258.87299   -5033.5532 
26415000    142.96598   -6675.5162   -6307.7449   -6675.5162            0    9398.0721    23.039399    21.330456    21.341627    10488.148    8622.3487    9281.1304    10290.737    75.129898    319.67008    146.91948   -4870.2264 
26416000    142.04518   -6664.4417   -6299.0391   -6664.4417            0    7991.3224    22.982564    21.337973    21.481471    10534.542    8364.3329    8059.6047    7550.0297   -188.36903    977.24968   -547.73226   -5071.2884 
26417000    136.83081   -6668.8358   -6316.8468   -6668.8358            0    8761.0149    22.994125    21.346485    21.430873     10519.21    9673.4876    7530.9913    9078.5658    386.02919    -318.8936    1583.6816    -4972.803 
26418000    137.27706   -6655.1206   -6301.9837   -6655.1206            0    8331.4644    23.122631    21.374896    21.318086    10536.333    9059.7405     6709.744    9224.9086    932.85932   -79.317486    815.16374   -5021.7575 
26419000    142.56695   -6652.1034   -6285.3586   -6652.1034            0    9020.1851    23.038631    21.194494    21.556354    10525.797    9592.9813    8667.3147    8800.2592   -1074.0588     479.7725   -76.720495   -4900.6884 
26420000    135.34339   -6659.3194   -6311.1568   -6659.3194            0    9119.5512    23.229439    21.172545    21.335932    10493.574    9113.2607    9077.0537    9168.3391    179.27317    -904.5198    442.54462   -4915.5188 
26421000    131.84937   -6653.0762   -6313.9017   -6653.0762            0    8229.3669     23.18201    21.173083    21.455035    10530.874    8262.6571    7951.6831    8473.7605    696.36048   -655.14382    457.42125   -5050.0192 
26422000    132.83157   -6655.0115   -6313.3104   -6655.0115            0    8531.3296    23.055589    21.185375    21.540862    10521.447    8461.1334    9675.9406    7456.9148   -649.41786    1152.2061   -78.239317   -5004.2247 
26423000    136.54138    -6668.613   -6317.3686    -6668.613            0    9828.7899    23.140765    21.237053    21.333136    10483.992    9299.0984    10054.645    10132.626   -57.703761    501.32562   -223.09989   -4814.5637 
26424000    127.37416   -6656.0559   -6328.3937   -6656.0559            0    7901.3202    23.022302    21.264067    21.584382    10566.586    8073.4371    8303.9624    7326.5612   -74.244698    492.33331    625.70522    -5110.778 
26425000    133.60174   -6647.7824   -6304.1001   -6647.7824            0    9854.9783    23.130254    21.241484    21.306858    10468.506    10067.355     9037.416    10460.164   -1872.9575     1207.112    361.95218   -4799.5167 
26426000    130.42587   -6667.1118   -6331.5992   -6667.1118            0    7775.4493    22.979294    21.315058    21.558596    10559.508    8098.2952    7149.1775    8078.8754    1291.4867    286.47394    506.61239   -5134.1832 
26427000    138.16979   -6653.4946   -6298.0612   -6653.4946            0    7522.1091    23.072737    21.394964    21.426051    10576.765    8273.4145    6879.1271    7413.7856    39.515699   -937.01716    38.350204   -5137.7664 
26428000    137.31081   -6663.3554   -6310.1317   -6663.3554            0     7936.402    23.151879    21.266451    21.429781     10551.13    7191.8012    7768.7453    8848.6596    685.78224    398.44121    752.69986   -5088.8986 
26429000    132.30612   -6652.9778   -6312.6283   -6652.9778            0    9075.3918    23.002997    21.215461     21.56293    10523.124    10029.441    9162.9579    8033.7761   -1688.1197   -254.81536    340.30593   -4919.8374 
26430000    137.85114   -6658.1911   -6303.5774   -6658.1911            0    9371.1026    23.153011    21.221944    21.355986    10493.304    9987.2162    8926.8424    9199.2491   -552.04923   -298.97905   -336.11657   -4869.4794 
26431000    135.45628   -6665.5909   -6317.1378   -6665.5909            0    7891.5668    23.076739    21.299215    21.423488    10529.996    8281.9685    7308.3378    8084.3942   -45.818015    218.69807    1255.3323   -5105.2363 
26432000    144.25819   -6677.2863   -6306.1909   -6677.2863            0    7323.6658    23.095664    21.277441     21.47761    10554.455    7525.3703    6839.2434    7606.3836   -398.70284   -565.34051   -744.31618   -5178.8891 
26433000      135.069   -6665.5408   -6318.0841   -6665.5408            0    10184.498    23.080039    21.248592    21.343616      10467.3    10444.435    9878.4642    10230.596    341.90182   -1410.0147   -734.31596   -4763.3711 
26434000    135.88062   -6670.6499   -6321.1053   -6670.6499            0    9201.4154     23.10774    21.174896    21.446452    10493.834    8938.1991    9312.8721    9353.1749    875.96184   -516.40812    631.55157    -4912.904 
26435000    133.86805     -6645.94   -6301.5727     -6645.94            0    9151.1641    23.056945    21.172837     21.54541    10518.059     9640.852    9495.3753    8317.2649    1813.7408   -1415.3181   -356.76061   -4897.8289 
26436000    136.02212    -6654.252   -6304.3434    -6654.252            0    8108.2395    23.161966    21.308717     21.34012    10532.454    8012.1612      8138.89    8173.6672    -41.05841   -204.42414    -364.3784   -5058.8769 
26437000    133.01664   -6678.7979   -6336.6207   -6678.7979            0    7772.2178    23.160629    21.129925    21.565815    10553.929    8256.1881    7775.6033     7284.862     2060.007   -1094.9592    487.35005   -5140.3346 
26438000    138.10041   -6658.5633   -6303.3084   -6658.5633            0    7776.5603    23.115136    21.277532    21.458677    10554.087    8477.6053    7745.2299    7106.8458   -1356.2247    44.376965    -132.0065   -5106.3361 
26439000    130.79234   -6679.1914   -6342.7361   -6679.1914            0    7923.7946    23.155063    21.253079     21.42587    10544.022    8227.7813     7963.367    7580.2355   -181.30469   -354.20838   -948.43349   -5124.2646 
26440000    141.53773   -6650.6741    -6286.577   -6650.6741            0    7919.7364    23.045767    21.305069    21.509218    10560.846    8483.8289    7315.1437    7960.2367   -492.11374    34.664952    1005.7434   -5066.7862 
26441000    140.90204   -6663.7703   -6301.3084   -6663.7703            0    7876.5681    23.136178    21.302892    21.414455    10554.489    7940.5434    7230.5189     8458.642    -375.8974    927.82275   -211.52146   -5088.8967 
26442000    138.44446   -6667.1468   -6311.0069   -6667.1468            0     7969.548    23.209628    21.249718    21.381539    10545.333    8115.8134    7496.7098    8296.1207   -757.32388    -915.9416   -473.50021   -5085.3472 
26443000    132.31968   -6658.9518   -6318.5675   -6658.9518            0    8689.4955    23.191577    21.062496    21.482822    10493.768    8472.4302    9290.0762    8305.9801   -319.67902    550.31222   -189.54427   -4988.7198 
26444000    135.34645   -6661.4506   -6313.2801   -6661.4506            0    8004.6857     23.27256    21.134553    21.432441    10541.656    7170.7338    9215.0537    7628.2697    1028.9969   -223.77721   -544.94853   -5082.6457 
26445000    136.68568   -6650.2306   -6298.6151   -6650.2306            0    8834.1843    23.259389    21.164243    21.331183    10500.645    7738.4953    9190.7811    9573.2764   -659.31086    994.07554    -827.8864    -4945.738 
26446000     127.5886    -6654.218    -6326.004    -6654.218            0    8154.6117    23.151775     21.17964    21.507215    10545.982    7376.4704    8922.7686     8164.596    982.09042   -87.190493   -74.728555   -5071.8057 
26447000    136.97777   -6665.3051   -6312.9381   -6665.3051            0    7451.4729    23.092116    21.310184    21.467191    10563.946    8201.9191    7108.4041    7044.0955    209.73602   -314.47705   -244.57501   -5164.9321 
26448000    141.54774   -6665.6605   -6301.5375   -6665.6605            0     8983.775    22.998926    21.311561    21.432291    10504.888    9781.6414     8961.831    8207.8527   -561.15842   -175.76731   -697.08166   -4925.1961 
26449000    137.23592   -6657.7109   -6304.6799   -6657.7109            0    8914.8312    22.981018    21.403561     21.39469    10523.526    9172.1678    7704.0182    9868.3077    342.06973    885.46916    1105.9726   -4936.4776 
26450000    136.47359   -6674.6895   -6323.6195   -6674.6895            0    7976.5432    23.062148    21.286988    21.473879    10542.035    8234.9456    7936.1653    7758.5188    1310.4043   -1590.5512   -493.03096   -5097.2677 
26451000    134.43934   -6649.1458   -6303.3088   -6649.1458            0    10025.896    23.088459    21.246751    21.337036    10466.984    9723.5397    10824.877    9529.2704    561.34922   -331.73171   -322.49915   -4772.8536 
26452000    139.12678   -6672.3536   -6314.4585   -6672.3536            0    7911.5094    23.100197    21.138368    21.587594    10541.232    8038.1331    8051.2235    7645.1717   -510.56263   -204.99588    79.811846   -5098.1979 
26453000    131.80368   -6676.4081   -6337.3511   -6676.4081            0    8586.7766    23.254021    21.144291    21.342927    10494.099    8871.7137    7886.9852    9001.6308   -224.61853   -1083.1264   -132.83351   -5023.1822 
26454000    132.62835   -6663.0727   -6321.8944   -6663.0727            0      8119.59    23.215798     21.11275    21.473581    10525.262    7450.7445    8662.5878    8245.4377   -253.46934   -943.96807    653.11651   -5075.5362 
26455000    127.33159   -6652.2678   -6324.7151   -6652.2678            0    8695.4843    23.229754    21.058572    21.506305    10520.571    8042.7729     8886.404    9157.2761   -667.98188    30.719667    81.273445   -4990.5518 
26456000    130.56651   -6669.7961   -6333.9217   -6669.7961            0    8526.0773     23.13501    21.265093    21.387634    10522.034    8092.2442    8136.8874    9349.1004   -1157.0035   -250.10125   -281.76623   -5025.5689 
26457000    131.76391   -6668.8127   -6329.8581   -6668.8127            0    8782.7584    23.004592    21.263937    21.498738    10516.499    9322.5964    8873.6276    8152.0512    557.43046    191.55075   -261.46459   -4982.8258 
26458000    137.44259   -6668.1393   -6314.5766   -6668.1393            0    7335.2559    22.997385    21.545279    21.332925    10570.146    6620.0117    5928.6881    9457.0678   -45.048918    542.38767    1317.9493   -5183.8121 
26459000    139.36268   -6661.4324   -6302.9304   -6661.4324            0    8736.4901     23.10676    21.241451    21.426593    10516.624    8144.3534    9235.7897    8829.3273     840.2105   -100.85135   -521.45599   -4962.9784 
26460000    132.66971   -6654.6573   -6313.3726   -6654.6573            0    8450.5526    23.103668    21.120861    21.542927    10512.288    8716.5828    10345.576    6289.4989   -52.383948   -1145.1177   -1017.8324   -5017.8104 
26461000    134.40928   -6653.9848   -6308.2251   -6653.9848            0    8013.0805    23.269842    21.242248    21.312026    10534.615    7157.3811    8289.4779    8592.3825   -508.60848   -212.20412    935.97198   -5077.1231 
26462000    136.88968   -6671.3981   -6319.2577   -6671.3981            0    9434.5579    23.103332     21.13492    21.478918    10487.878    10066.249    9548.9345    8688.4901    23.671269   -30.262718   -278.44758   -4876.1955 
26463000    131.12935   -6657.8179   -6320.4956   -6657.8179            0    8474.7116    23.047794    21.290226    21.444531    10522.676    9237.7661    7867.6715     8318.697    660.96467   -624.61857     1133.891   -5019.9457 
26464000    133.78597   -6660.2801   -6316.1239   -6660.2801            0    8766.8619    23.111815    21.241224    21.437144    10523.992    8886.1532    9031.3022    8383.1303    757.56356    -300.6376   -23.156528   -4970.5716 
26465000    129.84386   -6670.1362   -6336.1208   -6670.1362            0    8157.0193    23.008274    21.323865    21.461853    10529.729    7955.9454    8387.3718    8127.7408    990.95502   -252.36929    467.56545   -5083.4858 
26466000    132.67286   -6652.8747   -6311.5819   -6652.8747            0    9423.9182    23.068417    21.164113    21.486167    10490.032    9838.8951    9589.9828    8842.8769   -436.58642    540.01822    94.771807    -4869.851 
26467000    144.23636   -6687.5296   -6316.4904   -6687.5296            0    8566.5911    23.016399    21.266457    21.507211    10527.291    10120.891    7904.4901    7674.3919   -4.4621118   -2078.4849   -5.9357558   -5001.2639 
26468000    139.84784   -6663.5605   -6303.8104   -6663.5605            0    8863.3209    23.243296    21.174425     21.36541    10515.273    8680.2128     9075.193    8834.5569    487.71206   -165.12606    157.91127   -4944.5805 
26469000    140.54399   -6681.4833   -6319.9425   -6681.4833            0    8283.0731    23.152662    21.158633    21.517504    10540.966    8033.9555    8527.1794    8288.0844    791.31523   -384.47857    714.09717   -5046.5924 
26470000    131.16481    -6676.594   -6339.1805    -6676.594            0    7899.2974     23.25817    21.296196    21.258542     10529.58    7780.0083    7252.4287     8665.455   -1120.7741   -515.47743   -7.8705616   -5126.1397 
26471000    135.37811   -6670.8581   -6322.6062   -6670.8581            0    8657.8033     23.02246    21.207039     21.54451    10518.853    9007.0865    8748.9674    8217.3561   -1070.3792    362.45654    585.02267   -4994.4414 
26472000    133.16059   -6668.7652   -6326.2177   -6668.7652            0    8765.8901    23.056047    21.232635    21.501557    10525.885    8549.0837    8982.6345    8765.9521    458.59573    437.44202    199.46982   -4980.5725 
26473000    136.17451   -6676.0255   -6325.7249   -6676.0255            0    8245.4723    23.147228    21.288234    21.382571    10536.553    7314.9706    8259.2874    9162.1588    1063.1484    495.12952    564.64845   -5058.6859 
26474000    139.80904   -6656.1423    -6296.492   -6656.1423            0    8772.8192    23.013374    21.199209    21.579643     10527.96    9772.1661    7672.7445    8873.5471   -262.27958    316.16571     565.4134   -4949.5178 
26475000    134.03187   -6667.2148    -6322.426   -6667.2148            0    8362.9078    23.152175    21.245619    21.372029    10512.522    8784.2568    8245.7518    8058.7147     376.2132   -484.94507   -222.36726   -5040.2722 
26476000    135.59196   -6664.7548   -6315.9528   -6664.7548            0    8521.6005    23.126492    21.165114    21.508118    10527.683    8642.9634    9014.1863    7907.6519   -857.57455   -41.316554   -521.63866    -5007.585 
26477000    143.44019   -6658.2745   -6289.2834   -6658.2745            0    8106.1128     23.17285    21.181816     21.49419    10550.274    7124.4999    8285.6047    8908.2338   -284.79102    1178.0261    717.89401    -5042.037 
26478000    146.00931   -6661.4072   -6285.8071   -6661.4072            0    10059.885    23.142149      21.2365    21.307118    10471.559    10271.006    9836.5964    10072.052   -599.67013   -1051.2525   -257.23133   -4749.4922 
26479000    136.63978   -6657.6739   -6306.1764   -6657.6739            0    8812.0314    22.967536    21.274643     21.53341    10521.787    9831.9753    8423.5613    8180.5575   -1347.9523   -410.00734   -313.72392   -4953.9748 
26480000    138.94465    -6648.046   -6290.6194    -6648.046            0    8613.1431    23.009644    21.361467    21.359381    10498.558    9316.4906    8008.1683    8514.7704    331.64494   -352.35784    23.788454    -4971.855 
26481000    141.08785   -6657.9291   -6294.9892   -6657.9291            0    8348.3726    23.010411    21.386231     21.38578     10524.07    9054.0523    6858.1681    9132.8975    1013.5597   -1098.7866   -19.952072    -5013.658 
26482000    132.41838   -6649.6514   -6309.0131   -6649.6514            0    8587.4357    23.052245    21.413408    21.337979    10533.005    9669.4169    6594.9966    9497.8935   -602.73219   -447.86393    535.07674   -4989.8707 
26483000      129.906   -6654.6733    -6320.498   -6654.6733            0    8886.5444    23.065527    21.199453    21.473236    10499.909    9256.4707    9259.8862    8143.2762   -754.98056    1480.4068   -459.00646   -4959.6979 
26484000    134.72135   -6661.9749   -6315.4125   -6661.9749            0    9329.8747    23.125864     21.19751    21.429425    10504.934    9511.6902    9293.0204    9184.9136   -143.12129   -139.76346   -598.84717   -4886.0413 
26485000     136.5407     -6670.61   -6319.3674     -6670.61            0    8201.0698    23.270309    21.229051    21.353077    10548.561    7967.9348    7706.4643    8928.8103   -97.203707   -407.47769    403.65364   -5057.7153 
26486000    135.20097    -6668.902   -6321.1057    -6668.902            0      7021.74    23.249197    21.175786    21.487883    10578.915    6827.7504      7031.89    7205.5796    708.49899   0.21713395   -45.291453   -5237.7733 
26487000    129.34842   -6660.5133   -6327.7724   -6660.5133            0    8178.8439    23.188463    21.124877    21.496024    10529.901    8518.0961    8626.9074    7391.5282   -833.64781    -486.4487   -167.46928   -5071.7653 
26488000    139.67395   -6656.6112   -6297.3084   -6656.6112            0      7665.12    23.300202    21.225306    21.321734    10544.747    7348.7317    6923.2626    8723.3659     523.6472    258.99316    -371.9378   -5118.5332 
26489000    135.95563   -6669.2956   -6319.5581   -6669.2956            0    8039.3601    23.014315    21.252146    21.550306    10540.331    8879.2018    8469.4355    6769.4432    34.067952   -321.80515    152.82587   -5083.7483 
26490000    139.16472   -6663.6308    -6305.638   -6663.6308            0     8618.523    23.169355    21.212389    21.374106    10504.889      8693.11    8932.4939    8229.9651    269.78396    120.24582    54.230146   -4985.2541 
26491000    131.90205   -6656.3244   -6317.0144   -6656.3244            0    9098.1512    23.032164    21.314518    21.370682    10491.284    9791.0245    8391.1722     9112.257   -1170.0005   -296.70736   -185.75977   -4924.9552 
26492000    135.91776   -6673.1668   -6323.5266   -6673.1668            0    8700.2411      23.1263    21.199657    21.451263    10516.903    9440.8909    8925.0166    7734.8158    179.86154    610.75677    -134.1657    -4989.099 
26493000    140.36362   -6664.0043   -6302.9275   -6664.0043            0    8846.5988    23.125294    21.242688     21.35824    10492.094    9378.9749    7782.4952    9378.3263   -120.53978   -446.28488    929.33534   -4949.2525 
26494000    137.22997   -6670.4754   -6317.4596   -6670.4754            0    8449.5805    23.177105    21.185745    21.428322    10521.825    7976.3814    9039.2615    8333.0985   -1219.6178    933.49957     119.1265   -5020.8713 
26495000    138.58495   -6645.7181   -6289.2168   -6645.7181            0    8348.2674    23.156476    21.249264     21.38252    10521.442    8235.8522    8175.5888    8633.3611   -229.30615     329.2349    857.20445   -5008.2216 
26496000    130.59099   -6652.6203    -6316.683   -6652.6203            0    9712.9943    22.981824     21.33175    21.394952    10488.715    10409.725    9297.9352    9431.3229    859.47677   -821.54223    330.23787   -4830.9139 
26497000    134.00343   -6656.2442   -6311.5285   -6656.2442            0    8686.3463    23.135009    21.192439    21.476884    10529.843    7958.4335    8873.2348    9227.3706    151.75358    638.71505   -259.26699   -4977.5927 
26498000    132.54792   -6646.1493   -6305.1778   -6646.1493            0    8158.1001     23.16778    21.194415    21.451791     10533.42    8100.6693    8137.2566    8236.3745   -390.14238   -159.51377    1110.7761   -5051.9375 
26499000    136.51238    -6664.936   -6313.7663    -6664.936            0    9471.2584    23.169231    21.047469    21.464652    10467.316     9655.369    9821.8967    8936.5095   -420.62346   -805.27806   -539.02708   -4867.9306 
26500000    145.61086   -6657.9577   -6283.3826   -6657.9577            0    7702.6219    23.259234    21.297812    21.309549    10556.128    6480.2906    7591.9005    9035.6744   -1011.9512   -97.004369    86.629572   -5097.5616 
Loop time of 487.11 on 64 procs for 250000 steps with 1296 atoms

Performance: 88.686 ns/day, 0.271 hours/ns, 513.231 timesteps/s
99.2% CPU use with 64 MPI tasks x 1 OpenMP threads

MPI task timing breakdown:
Section |  min time  |  avg time  |  max time  |%varavg| %total
---------------------------------------------------------------
Pair    | 30.414     | 41.481     | 52.457     | 109.0 |  8.52
Bond    | 0.2775     | 0.28604    | 0.29409    |   0.6 |  0.06
Kspace  | 235.81     | 246.9      | 258.23     |  44.9 | 50.69
Neigh   | 1.8852     | 1.9004     | 1.9146     |   0.5 |  0.39
Comm    | 88.463     | 89.063     | 89.63      |   2.9 | 18.28
Output  | 0.51793    | 0.51947    | 0.52124    |   0.1 |  0.11
Modify  | 93.671     | 96.441     | 99.359     |  24.3 | 19.80
Other   |            | 10.52      |            |       |  2.16

Nlocal:        20.2500 ave          27 max          12 min
Histogram: 3 3 6 7 7 8 8 3 15 4
Nghost:        2646.56 ave        2668 max        2621 min
Histogram: 2 1 11 6 8 8 6 11 8 3
Neighs:        6615.62 ave        8840 max        3883 min
Histogram: 3 3 6 9 5 11 5 5 13 4

Total # of neighbors = 423400
Ave neighs/atom = 326.69753
Ave special neighs/atom = 2.0000000
Neighbor list builds = 3561
Dangerous builds = 0

unfix		3
unfix		2
unfix		1

write_data	data.final.${pid}
write_data	data.final.0
System init for write_data ...
PPPM initialization ...
  extracting TIP4P info from pair style
  using 12-bit tables for long-range coulomb (../kspace.cpp:340)
  G vector (1/distance) = 0.36876637
  grid = 30 40 32
  stencil order = 5
  estimated absolute RMS force accuracy = 0.0042452771
  estimated relative force accuracy = 1.2784526e-05
  using double precision FFTW3
  3d grid and FFT values/proc = 5168 640
Last active /omp style is kspace_style pppm/tip4p/omp
WARNING: Not all mixed pair coeffs generated from mixing. Use write_data with 'pair ij' option to store all pair coeffs. (../write_data.cpp:312)

write_restart   restart.lmp.${pid}
write_restart   restart.lmp.0
System init for write_restart ...
PPPM initialization ...
  extracting TIP4P info from pair style
  using 12-bit tables for long-range coulomb (../kspace.cpp:340)
  G vector (1/distance) = 0.36876637
  grid = 30 40 32
  stencil order = 5
  estimated absolute RMS force accuracy = 0.0042452771
  estimated relative force accuracy = 1.2784526e-05
  using double precision FFTW3
  3d grid and FFT values/proc = 5168 640
Last active /omp style is kspace_style pppm/tip4p/omp
Total wall time: 0:08:07
