LAMMPS (30 Jul 2021)
Processor partition = 1
  using 2 OpenMP thread(s) per MPI task
using multi-threaded neighbor list subroutines
variable        pid world 0 1
variable        phase world IceIII Liquid

shell cd ${phase}
shell cd Liquid
include Restart.lmp
echo both
log log.lammps
#include		in.partitions
include		in.temp
variable        temperature equal 264.11
variable	tempDamp equal 100.0
include		in.pressure
variable        pressure equal 5375.0
variable        pressureDamp equal 1000.0 # This is 1 ps
include		in.seed
variable        seed equal 745823

units		real
atom_style	full
read_restart	restart.lmp.${pid}
read_restart	restart.lmp.1
Reading restart file ...
  restart file = 30 Jul 2021, LAMMPS = 30 Jul 2021
  restoring atom style full from restart
  orthogonal box = (0.41555902 1.5810049 0.50698103) to (17.792013 22.048173 21.706215)
  2 by 4 by 4 MPI processor grid
  restoring pair style lj/cut/tip4p/long/omp from restart
  restoring bond style harmonic/omp from restart
  restoring angle style harmonic/omp from restart
  864 atoms
  576 bonds
  288 angles
Finding 1-2 1-3 1-4 neighbors ...
  special bond factors lj:    0        0        0       
  special bond factors coul:  0        0        0       
     2 = max # of 1-2 neighbors
     1 = max # of 1-3 neighbors
     1 = max # of 1-4 neighbors
     2 = max # of special neighbors
  special bonds CPU = 0.002 seconds
  read_restart CPU = 0.007 seconds
include 	in.setup
variable	out_freq equal 1000
variable	out_freq2 equal 10000
variable	out_freq3 equal 1000

timestep	2.0

neigh_modify    delay 7 every 1

include		in.tip4p
# This is TIP4P/Ice

# create groups ###
group ox type 2
288 atoms in group ox
group hy type 1
576 atoms in group hy

# set charges - beside manually ###
set group ox charge -1.1794
Setting atom values ...
  288 settings made for charge
set group hy charge 0.5897
Setting atom values ...
  576 settings made for charge

# ### TIP3P Potential Parameters ###
pair_style lj/cut/tip4p/long/omp 2 1 1 1 0.1577 8.5
pair_coeff 1 1*2 0.000 0.000
pair_coeff 2 2 0.21084 3.1668
bond_style  harmonic
bond_coeff  1 450 0.9572
angle_style harmonic
angle_coeff 1 55 104.52
kspace_style pppm/tip4p/omp 1.0e-5
pair_modify tail yes

thermo          ${out_freq}
thermo          1000
thermo_style    custom step temp pe etotal epair emol press lx ly lz vol pxx pyy pzz pxy pxz pyz enthalpy

restart 	${out_freq3} restart.lmp.${pid} restart2.lmp.${pid}
restart 	1000 restart.lmp.${pid} restart2.lmp.${pid}
restart 	1000 restart.lmp.1 restart2.lmp.${pid}
restart 	1000 restart.lmp.1 restart2.lmp.1


include         in.dump
dump            myDump all atom ${out_freq2} dump.water.${pid}
dump            myDump all atom 10000 dump.water.${pid}
dump            myDump all atom 10000 dump.water.1
dump            myDump2 all dcd ${out_freq2} dump.dcd
dump            myDump2 all dcd 10000 dump.dcd
dump_modify     myDump append yes
dump_modify     myDump2 append yes


variable natoms 	equal  "count(all)"                        # NUMBER ATOMS
variable H      	equal  "enthalpy/v_natoms"                 # ENTHALPY-per-atom
variable Vol      	equal  "vol/v_natoms"                 # volume-per-atom
fix AVG all 		ave/time ${out_freq} 1 ${out_freq} v_Vol v_H file vol_enthalpy.dat
fix AVG all 		ave/time 1000 1 ${out_freq} v_Vol v_H file vol_enthalpy.dat
fix AVG all 		ave/time 1000 1 1000 v_Vol v_H file vol_enthalpy.dat


timer           timeout 23:50:00 every 1000
New timer settings: style=normal  mode=nosync  timeout=23:50:00

fix 		1 all shake 1e-6 200 0 b 1 a 1
Finding SHAKE clusters ...
       0 = # of size 2 clusters
       0 = # of size 3 clusters
       0 = # of size 4 clusters
     288 = # of frozen angles
  find clusters CPU = 0.001 seconds
fix             2 all nph iso ${pressure} ${pressure} ${pressureDamp}
fix             2 all nph iso 5375 ${pressure} ${pressureDamp}
fix             2 all nph iso 5375 5375 ${pressureDamp}
fix             2 all nph iso 5375 5375 1000
fix             3 all temp/csvr ${temperature} ${temperature} ${tempDamp} ${seed}
fix             3 all temp/csvr 264.11 ${temperature} ${tempDamp} ${seed}
fix             3 all temp/csvr 264.11 264.11 ${tempDamp} ${seed}
fix             3 all temp/csvr 264.11 264.11 100 ${seed}
fix             3 all temp/csvr 264.11 264.11 100 745823

run             250000
PPPM initialization ...
  extracting TIP4P info from pair style
  using 12-bit tables for long-range coulomb (../kspace.cpp:340)
  G vector (1/distance) = 0.37389647
  grid = 24 24 25
  stencil order = 5
  estimated absolute RMS force accuracy = 0.0031126178
  estimated relative force accuracy = 9.373556e-06
  using double precision FFTW3
  3d grid and FFT values/proc = 3822 576
Last active /omp style is kspace_style pppm/tip4p/omp
Neighbor list info ...
  update every 1 steps, delay 7 steps, check yes
  max neighbors/atom: 2000, page size: 100000
  master list distance cutoff = 10.8154
  ghost atom cutoff = 10.8154
  binsize = 5.4077, bins = 4 4 4
  1 neighbor lists, perpetual/occasional/extra = 1 0 0
  (1) pair lj/cut/tip4p/long/omp, perpetual
      attributes: half, newton on, omp
      pair build: half/bin/newton/omp
      stencil: half/bin/3d
      bin: standard
Setting up Verlet run ...
  Unit style    : real
  Current step  : 13750000
  Time step     : 2
  Walltime left : 23:49:59.95
Per MPI rank memory allocation (min/avg/max) = 10.20 | 10.20 | 10.22 Mbytes
Step Temp PotEng TotEng E_pair E_mol Press Lx Ly Lz Volume Pxx Pyy Pzz Pxy Pxz Pyz Enthalpy 
13750000     269.7772   -3844.5906   -3382.2017   -3844.5906            0    4265.8535    17.376454    20.467168    21.199234    7539.4399     5288.629    5231.9746    2276.9567   -864.99173   -887.35083    1051.2306   -2913.1498 
13751000    267.39128   -3867.6935    -3409.394   -3867.6935            0    5173.0726    17.273226    20.345579    21.073296    7405.8683    3600.9173    7012.6219    4905.6785   -363.85658    355.69069   -6.2805582    -2850.666 
13752000    252.34716   -3815.7304    -3383.216   -3815.7304            0    5180.4453    17.289191    20.364384    21.092773    7426.4223    6948.8795    6016.2703    2576.1862    631.02048    -455.4931    549.54035   -2822.1388 
13753000    269.66046   -3845.3886   -3383.1998   -3845.3886            0    5804.5503    17.289281    20.364489    21.092882    7426.5377    7707.1262    5652.6133    4053.9113    -370.2189   -1099.3886   -306.53922    -2754.518 
13754000    256.74612   -3885.6475   -3445.5935   -3885.6475            0     3840.713    17.270678    20.342578    21.070187    7402.5914    5992.6255    3857.7696    1671.7438   -464.55837    1251.7624   -357.93223   -3030.9532 
13755000    267.67136   -3856.8082   -3398.0286   -3856.8082            0    5498.5038    17.307114    20.385495    21.114639    7449.5423    5145.8406    5353.7512    5995.9195   -868.70605    474.88177     45.66041   -2800.6495 
13756000    263.48416    -3860.373   -3408.7702    -3860.373            0    5998.9599    17.192564     20.25057    20.974888    7302.6008    5846.4826    5034.6524    7115.7446   -1820.3527   -215.37958   -716.09637   -2769.8753 
13757000    267.64305   -3873.3514   -3414.6204   -3873.3514            0    5227.1669    17.206042    20.266445    20.991332    7319.7889    4959.2104    5326.8027    5395.4877    154.00126   -73.630921    525.68441   -2856.6119 
13758000    270.58957   -3885.2779   -3421.4967   -3885.2779            0    5034.8758    17.266656     20.33784     21.06528    7397.4199    6372.3295    3751.9191    4980.3786   -105.83599   -272.44533   -1277.8177   -2878.3152 
13759000    267.09984   -3851.3332   -3393.5332   -3851.3332            0    6923.9138    17.287268    20.362118    21.090426    7423.9437    8511.7134    5649.3131    6610.7148   -1143.5776     592.7741    1365.4518   -2643.8769 
13760000    262.74294   -3843.8586   -3393.5262   -3843.8586            0     4650.092    17.309068    20.387796    21.117023    7452.0651    3865.1689    4633.3363    5451.7709    203.99362    1495.0062    4.6886415   -2888.1508 
13761000    269.17983   -3872.7149   -3411.3499   -3872.7149            0    7241.7784    17.224846    20.288593    21.014272    7343.8135    7844.3628    8595.9111    5285.0613   -791.45548   -357.76182   -814.17543    -2635.741 
13762000    279.61346   -3849.1583   -3369.9104   -3849.1583            0    6199.2546    17.289293    20.364504    21.092897    7426.5532    5342.5419    7172.8452    6082.3769   -521.45283   -1092.9001   -431.30524   -2698.4775 
13763000    271.00612   -3814.6791   -3350.1839   -3814.6791            0    6491.9429    17.275443     20.34819       21.076    7408.7196    7818.2917    5206.2827    6451.2542     191.4165    910.68794    1173.1346   -2648.7387 
13764000     251.7193   -3840.8216   -3409.3833   -3840.8216            0    3369.6526    17.304623     20.38256      21.1116    7446.3258    2042.1682    5016.1916     3050.598   -964.83519   -653.89129    1325.5998   -3043.4491 
13765000    267.77786   -3859.6718   -3400.7097   -3859.6718            0    6504.2834     17.18325    20.239599    20.963525    7290.7387    6882.6081    7095.1122      5535.13    1729.5215     1161.928    597.71917   -2709.1226 
13766000     274.9077   -3847.7916   -3376.6093   -3847.7916            0      5346.85    17.255857     20.32512    21.052105    7383.5494    4181.6338    5872.9665    5985.9495    13.481693   -1723.7631    63.367146   -2800.8525 
13767000    269.59873   -3832.1926   -3370.1096   -3832.1926            0    5875.4122    17.217369    20.279787    21.005151    7334.2547    7075.2587    4603.4868     5947.491    977.81122   -34.229799   -444.08914   -2741.6603 
13768000    258.49187   -3840.9894   -3397.9432   -3840.9894            0    5444.8673    17.263384    20.333986    21.061288     7393.216    6392.3365    4850.1742     5092.091   -2347.2389    77.392976   -3.1838468   -2810.8642 
13769000    265.19335   -3826.7414    -3372.209   -3826.7414            0     4526.291    17.248153    20.316046    21.042707     7373.665    3423.7248    5421.4092    4733.7389     1050.625    23.382046   -1055.3645   -2885.4637 
13770000    264.84195   -3880.5741    -3426.644   -3880.5741            0     5705.735    17.272493    20.344715    21.072401    7404.9249     4797.761    5503.8701    6815.5738    904.16547    625.96049    259.98084   -2810.4633 
13771000     254.3045   -3853.2908   -3417.4216   -3853.2908            0    6880.6892    17.276508    20.349445      21.0773    7410.0905    5166.4022    8346.1963    7129.4691   -31.978247    952.49491    436.40729   -2673.8354 
13772000    276.33797   -3846.3318    -3372.698   -3846.3318            0    6782.8926    17.174587    20.229394    20.952956    7279.7165    8435.3092    4827.9313    7085.4374    255.11231   -204.79854    837.53455   -2652.5773 
13773000    255.94323   -3871.2738   -3432.5959   -3871.2738            0    6072.9119    17.198067    20.257051    20.981601    7309.6144    5068.5915     6868.891    6281.2532    274.68411    930.41111   -228.77715   -2785.2039 
13774000      279.468   -3824.6344   -3345.6358   -3824.6344            0    3948.0925    17.308611    20.387257    21.116465    7451.4749    3633.8293    2902.7734    5307.6748    429.62076    128.88158    102.99451   -2916.5882 
13775000    263.14778   -3838.5543    -3387.528   -3838.5543            0    5942.3381    17.320147    20.400845    21.130539    7466.3835    5931.7575    5506.4356    6388.8211    415.81569   -973.69202    423.94787   -2740.4696 
13776000    270.85868   -3837.8927   -3373.6502   -3837.8927            0    5674.8948      17.2934    20.369341    21.097907    7431.8467    7125.3474    3200.5078    6698.8293    193.04762    132.93171    137.20558   -2758.5719 
13777000    267.55395   -3821.1413    -3362.563   -3821.1413            0    6187.8803    17.244247    20.311445    21.037941    7368.6559    6225.1849    6933.5666    5404.8894    394.44829   -920.04574   -753.58984   -2697.5868 
13778000    260.34412   -3864.3812   -3418.1603   -3864.3812            0    4657.2092    17.242254    20.309097    21.035509    7366.1014     4493.058    4848.1725    4630.3969    1770.5126   -1425.4684   -357.89961   -2917.8501 
13779000    247.48113   -3842.5976   -3418.4234   -3842.5976            0    5506.3754     17.22345    20.286949    21.012569    7342.0279     3631.594    7284.2268    5603.3056    2595.1031   -885.72216   -993.07446   -2828.8231 
13780000    274.92611   -3816.6901   -3345.4762   -3816.6901            0    5383.7583    17.261197     20.33141     21.05862    7390.4066    4956.0413    6485.5649    4709.6688   -1081.6409   -1226.6033     298.7084   -2765.2066 
13781000    268.93029   -3820.4511   -3359.5138   -3820.4511            0    5732.3836    17.249977    20.318194    21.044931    7376.0039    5683.5539    7845.5666    3668.0304    156.21137   -424.08206    698.39138   -2742.8729 
13782000    257.77683   -3828.9563   -3387.1356   -3828.9563            0    4880.9012    17.299563      20.3766    21.105426    7439.7948    4957.6863      3501.46    6183.5572   -1206.4552   -286.66062    384.44961   -2857.5492 
13783000    257.64709   -3834.0525   -3392.4543   -3834.0525            0    5740.7498    17.316417    20.396452    21.125989    7461.5616    6501.7789    5994.2098    4726.2609    158.47844   -1222.1287   -1738.4673   -2767.7503 
13784000    263.61504   -3882.7257   -3430.8985   -3882.7257            0    5012.6963    17.268076    20.339513    21.067013    7399.2459    6370.3917    4894.0856    3773.6117    219.79822    -1076.326    815.35928   -2889.9764 
13785000    247.35492   -3859.6714   -3435.7135   -3859.6714            0    4192.8809    17.295195    20.371455    21.100098    7434.1614    4912.2252    3269.7827    4396.6347   -878.58933   -1292.7365    1131.8744    -2981.123 
13786000    268.52265   -3864.3259   -3404.0872   -3864.3259            0    4393.7081    17.298611    20.375479    21.104265    7438.5676    4697.1448    3640.1507    4843.8289    1165.6716    221.44221     643.0828   -2927.4407 
13787000    260.76344    -3854.951   -3408.0114    -3854.951            0    5645.8111    17.270099    20.341895     21.06948    7401.8462    4705.0176    6601.7745    5630.6412   -1507.5605   -1079.1515   -375.08307   -2798.5555 
13788000    268.41598   -3856.6607   -3396.6049   -3856.6607            0    6008.1758    17.232163    20.297212    21.023198     7353.176    4829.0466    8215.1596    4980.3211    1179.5183   -536.35909   -1301.9829    -2752.297 
13789000    258.19821   -3841.1779    -3398.635   -3841.1779            0    7401.4406    17.180347    20.236179    20.959983    7287.0436    8831.9237    7191.0986    6181.2994    938.31217   -294.11001   -417.84467   -2612.0538 
13790000    258.76092   -3871.7593   -3428.2519   -3871.7593            0    4485.7008    17.340558    20.424887     21.15544     7492.811    4527.4079    5082.1459    3847.5486   -41.808398   -227.01618    741.61893   -2938.0771 
13791000    261.88459   -3869.6963   -3420.8351   -3869.6963            0     5730.174    17.278183    20.351418    21.079343    7412.2458    6876.0534    5852.9134    4461.5552    334.28044   -134.29213   -1218.9714   -2801.4033 
13792000    264.98235   -3861.3797    -3407.209   -3861.3797            0    6459.7685    17.267263    20.338554     21.06602       7398.2    7703.3508    5513.5482    6162.4065    888.53979    171.46186     1262.302   -2710.2312 
13793000    264.75976   -3850.0172    -3396.228   -3850.0172            0    6761.8951    17.296034    20.372444    21.101121    7435.2433    6862.2683    7691.8684    5731.5486    125.79929    227.31447   -643.68741   -2662.9992 
13794000    260.44479   -3853.1597   -3406.7663   -3853.1597            0    5403.5344    17.240089    20.306547    21.032868    7363.3269     6846.344    4776.1121     4588.147    126.65422    621.02657    1243.0136   -2826.4992 
13795000    247.75087   -3894.8234   -3470.1869   -3894.8234            0    6245.6884    17.213453    20.275174    21.000372    7329.2508    7116.4035    6030.2181    5590.4435    1675.6787    1616.2082   -1286.6038   -2802.5877 
13796000    258.74863   -3855.5491   -3412.0628   -3855.5491            0    5504.9498    17.302136    20.379631    21.108566    7443.1161    6143.0632    5108.7402    5263.0461    1670.2776    635.40397   -186.53758   -2814.4993 
13797000    266.14698   -3888.3388    -3432.172   -3888.3388            0    3739.2834    17.241924    20.308708    21.035106    7365.6781    2232.9431    5149.3157    3835.5914   -41.413635    700.80485   -596.47699   -3030.4949 
13798000    263.24654   -3846.3494   -3395.1538   -3846.3494            0    7633.2181    17.240598    20.307147    21.033489    7363.9791    7619.0498    6359.8891    8920.7155    625.31973   -327.01597    1086.0362   -2575.3761 
13799000    260.70592    -3839.311   -3392.4699    -3839.311            0    5173.7546    17.302602     20.38018    21.109134    7443.7169    4349.5588    6981.8825    4189.8225    -78.03376    856.63898    52.743486   -2830.8124 
13800000    264.77554   -3859.8325   -3406.0162   -3859.8325            0    6050.9325    17.301022    20.378318    21.107206    7441.6775    5383.1083    5463.9641     7305.725   -881.68113   -652.92284   -1073.6045   -2749.3132 
13801000    262.74114    -3815.397   -3365.0677    -3815.397            0     5209.018    17.306233    20.384456    21.113563    7448.4037    3851.8405    6508.9419    5266.2716   -1488.3994   -589.65633   -1384.1902    -2799.226 
13802000     268.2446     -3857.15   -3397.3879     -3857.15            0    3847.1767    17.283512    20.357694    21.085844    7419.1055    2626.9066    4059.4223    4855.2013   -1233.7508    16.601298    416.35035   -2981.1232 
13803000    261.01266   -3857.9438    -3410.577   -3857.9438            0     4981.342    17.204608    20.264756    20.989582    7317.9589     6323.526    4386.5402    4233.9597    1498.4834    121.35234   -47.906149   -2878.9437 
13804000    263.32617   -3819.2926   -3367.9606   -3819.2926            0    5444.7637    17.230195    20.294894    21.020798    7350.6572    5846.1935    4988.2963    5499.8012   -78.902081   -276.93295     994.8503   -2784.2721 
13805000    266.47344    -3865.568   -3408.8417    -3865.568            0    5228.7949    17.273811    20.346267    21.074009    7406.6199    5722.3313    4632.0504    5332.0031   -27.544585   -2270.1781    526.48894   -2844.0379 
13806000    270.17933   -3833.2826   -3370.2045   -3833.2826            0    4994.1594    17.312669    20.392038    21.121416    7456.7175    5910.6885    3356.6591    5715.1307   -761.35829    219.15307    511.72505   -2827.0968 
13807000    275.70923   -3873.9318   -3401.3756   -3873.9318            0    7830.2456    17.219947    20.282823    21.008295    7337.5491    7150.0483    6498.2502    9842.4384   -564.08327    902.44502    761.38345   -2563.4562 
13808000    261.16404   -3836.1263   -3388.5001   -3836.1263            0    3796.4415    17.267658     20.33902    21.066502    7398.7083     3281.076    5098.5814     3009.667    722.11841    669.51026    373.59837   -2978.8543 
13809000    265.09665   -3836.9954   -3382.6288   -3836.9954            0    4926.8527    17.299529     20.37656    21.105385    7439.7511    3718.8582    4063.5629    6998.1369   -1205.0708    433.60842    -678.1118   -2848.0597 
13810000    255.76327   -3853.6033   -3415.2338   -3853.6033            0    4958.4353     17.25928    20.329152    21.056281    7387.9444    4456.1592    5739.7127     4679.434   -1278.1289   -378.75823   -689.37839   -2880.9842 
13811000    258.54146   -3812.4731   -3369.3419   -3812.4731            0    4824.3486     17.29106    20.366585    21.095053     7428.831    4590.5644    4756.8763    5125.6051    824.83381    783.08272    1081.1499   -2846.6629 
13812000    261.27366   -3826.8863   -3379.0722   -3826.8863            0    4376.8754    17.370862    20.460581    21.192411     7532.163    4402.2669    5294.9093      3433.45   -31.290047   -526.51532    337.42716   -2898.2774 
13813000    279.91439   -3838.0371   -3358.2734   -3838.0371            0    6140.7629    17.281675    20.355531    21.083603    7416.7408    7034.8082    6296.4256     5091.055   -463.94886    1312.0734   -248.52252   -2694.0543 
13814000    252.81311   -3844.1159   -3410.8029   -3844.1159            0    6024.1319    17.224159    20.287784    21.013434    7342.9349    6682.5269    4314.5382    7075.3305    569.50696   -406.53392    1663.8152   -2765.6836 
13815000     262.8867   -3897.9859    -3447.407   -3897.9859            0      4546.82    17.223681    20.287222    21.012851    7342.3239    4566.7315    4083.0312    4990.6974    165.98513   -420.45831   -994.88256   -2960.5324 
13816000    271.09948   -3857.2093   -3392.5541   -3857.2093            0    2748.7078    17.346573    20.431971    21.162778    7500.6109    2771.7559    3057.2859    2417.0815   -41.996646    499.67797   -417.76538   -3091.8765 
13817000    256.26592   -3922.6003   -3483.3693   -3922.6003            0    4412.6996    17.309408    20.388197    21.117438    7452.5046    3957.3535    5406.5137    3874.2317    299.05313    267.87532   -1538.0121   -3003.7656 
13818000    265.34966   -3862.2178   -3407.4176   -3862.2178            0    6017.7685     17.19047    20.248103    20.972334    7299.9329    5779.1834    4951.3072    7322.8149    367.60537    559.27845    2007.6881   -2766.7537 
13819000    248.06753   -3866.2002   -3441.0209   -3866.2002            0    6874.0133    17.249355    20.317462    21.044173    7375.2062    6098.8514    7457.4083    7065.7803   -136.46487    -201.8804    279.15602   -2701.6533 
13820000    260.48376   -3843.6614   -3397.2011   -3843.6614            0    3823.4582    17.285999    20.360623    21.088878     7422.309    4737.4829    3817.0571    2915.8345   -334.67153    1180.5227    21.788621   -2983.3242 
13821000    261.61838   -3860.3731   -3411.9682   -3860.3731            0    7226.0269    17.182135    20.238286    20.962165    7289.3194    5878.6121    5468.4186     10331.05    -1507.356   -352.33994   -226.83567   -2643.7891 
13822000    265.18542    -3801.692   -3347.1733    -3801.692            0     4346.274    17.328046    20.410149    21.140175    7476.6036    4208.1321    3844.9998    4985.6901   -746.14498    30.103119   -591.07819   -2873.2616 
13823000    261.16193   -3868.1888   -3420.5662   -3868.1888            0    6527.3211    17.152854    20.203796    20.926442    7252.1165    5425.0618    6957.1847    7199.7169   -1186.0328    1338.7158    278.81073   -2730.2061 
13824000    261.71241   -3862.3171    -3413.751   -3862.3171            0    4510.1108    17.311193    20.390298    21.119615    7454.8096    4166.8643    3385.9468    5977.5212   -85.542907    851.61293   -427.65595   -2923.4084 
13825000    254.77312   -3841.4618   -3404.7894   -3841.4618            0    5962.2718     17.27768    20.350825    21.078729    7411.5979    6347.0219     7624.244    3915.5497   -736.07388    1254.6471   -1224.5889   -2760.3241 
13826000    261.19909   -3839.3465   -3391.6602   -3839.3465            0    6792.0479    17.212355    20.273881    20.999033    7327.8489    6516.5592    6309.5709    7550.0135   -487.35008    656.94023   -8.1995111   -2665.7998 
13827000    257.53331   -3852.8648   -3411.4616   -3852.8648            0    6066.4079    17.281466    20.355284    21.083348    7416.4711    5372.2405    6393.9907    6432.9924    483.96666   -896.73416    1033.8869    -2755.309 
13828000    290.00012   -3832.9568   -3335.9065   -3832.9568            0     5233.504    17.218149    20.280705    21.006101    7335.2508    4289.9249    3226.3874    8184.1997    495.09636    665.41829    926.20469   -2776.0414 
13829000    269.92266   -3868.7584   -3406.1202   -3868.7584            0    6066.7961    17.182664    20.238909     20.96281    7289.9926    7623.9516    4313.7244    6262.7122   -1348.1431    -1007.693    864.25293   -2761.1163 
13830000    282.60947   -3848.8104   -3364.4274   -3848.8104            0     5247.237    17.254994    20.324104    21.051052    7382.4417    6802.2919    5703.0235    3236.3957    721.69102    792.95679    274.07289   -2799.4819 
13831000     258.4258   -3850.8919   -3407.9589   -3850.8919            0    4669.0878    17.280573    20.354232    21.082258    7415.3216    5667.6667    4471.3899    3868.2068    180.34274    57.928909    69.271761   -2903.0211 
13832000    263.05947   -3881.7649     -3430.89   -3881.7649            0    6521.9239    17.263722    20.334385    21.061701    7393.6504    6261.5938    6870.1309     6434.047    976.17166    -2168.421   -621.22088   -2727.6387 
13833000    257.61813   -3873.4485   -3431.8998   -3873.4485            0      5096.14     17.31713    20.397291    21.126858    7462.4824    5976.5186    5031.4364    4280.4651      130.068    676.40833    705.35894   -2877.2734 
13834000    271.54961   -3804.0423   -3338.6156   -3804.0423            0    6191.6146    17.195368    20.253873    20.978309    7306.1746    7506.6087    7129.7538    3938.4814    502.50131    161.79395    622.13187   -2678.8801 
13835000    276.14375    -3879.639    -3406.338    -3879.639            0    6418.8757    17.181211    20.237197    20.961037    7288.1429     8211.666    6656.1948    4388.7662    -725.0136    276.20736   -751.07602   -2724.0752 
13836000    259.86542   -3878.2501   -3432.8497   -3878.2501            0    3208.8345     17.28771    20.362639    21.090966    7424.5131    3881.9082    3204.2835    2540.3119    -1152.516    801.95904    501.84057   -3085.4006 
13837000    259.41088   -3885.6978   -3441.0764   -3885.6978            0    4748.4144    17.257158    20.326653    21.053693    7385.2202    4946.3543    4460.9658    4837.9232   -471.11083    -672.5341    2148.9822   -2929.6444 
13838000    266.30374   -3829.3253   -3372.8898   -3829.3253            0    6312.3246    17.217648    20.280115     21.00549    7334.6101    5692.5444    6906.7836    6337.6459    632.18991    333.30238    2207.3092   -2697.6745 
13839000    242.18202   -3845.6229   -3430.5312   -3845.6229            0    4797.6556    17.198094    20.257082    20.981634    7309.6487    3971.7015    4781.4353      5639.83   -651.83125    1521.3959   -135.83704   -2919.0832 
13840000    262.04763   -3854.5619   -3405.4212   -3854.5619            0    5773.8927    17.242951    20.309918     21.03636    7366.9945    6354.5837    5711.9287    5255.1656   -1437.1585    -583.4421   -1630.5018   -2785.0739 
13841000    252.29207     -3859.43   -3427.0101     -3859.43            0    6023.4987    17.187778    20.244933     20.96905    7296.5041    8320.8413    4126.2128     5623.442   -559.64502   -1445.2009    267.50713   -2786.0373 
13842000    262.60919   -3837.1355   -3387.0323   -3837.1355            0    6424.7727    17.193467    20.251633    20.975989    7303.7506    5600.8124    7857.2602    5816.2455    208.71797   -689.24136    544.07837   -2702.6802 
13843000    262.88863   -3863.1564   -3412.5743   -3863.1564            0    5633.3781    17.184102    20.240603    20.964565    7291.8236    5523.2392    5797.2001    5579.6949    1550.9223    1619.0603   -318.96845   -2813.4996 
13844000    260.92717   -3856.2889   -3409.0686   -3856.2889            0     5097.039    17.276379    20.349293    21.077142    7409.9242    5515.2593    6099.0346     3676.823    1182.0493    -902.3339    1572.4707   -2858.2513 
13845000    265.67859   -3868.5547   -3413.1907   -3868.5547            0    5416.4579    17.243134    20.310134    21.036583    7367.2298    4225.6857    6498.4927    5525.1952    323.27877     -1557.15    208.82673   -2831.2275 
13846000    276.57274   -3833.0232    -3358.987   -3833.0232            0     6033.728    17.186522    20.243452    20.967516    7294.9037     7994.599    5174.1362    4932.4487    3465.0556    -662.5057   -563.93738   -2717.0666 
13847000    260.05791   -3813.6267   -3367.8963   -3813.6267            0    5520.8059    17.274326    20.346874    21.074637    7407.2822    4786.4496    6612.7389    5163.2291    2043.7107   -35.463678    1076.7837   -2771.4968 
13848000    254.74364   -3857.9434   -3421.3215   -3857.9434            0    3559.1917    17.231054    20.295905    21.021845    7351.7562    3780.8352    3772.4136    3124.3264    553.21113    1066.2396   -1996.4337   -3039.7127 
13849000    262.13394   -3821.0071   -3371.7185   -3821.0071            0     5819.239    17.247641    20.315443    21.042082     7373.008    5706.3341    5247.9167    6503.4663    97.157699   -1122.3398    344.79684   -2745.9888 
13850000    255.14791   -3854.3997   -3417.0849   -3854.3997            0     4952.972    17.286624     20.36136    21.089641    7423.1149    5539.9383    4471.7466    4847.2309   -154.45433    725.17586    267.37355   -2880.8835 
13851000    261.14634   -3864.3293   -3416.7334   -3864.3293            0    5753.3528    17.279916    20.353459    21.081458    7414.4765     7750.624    4792.2688    4717.1656   -506.10676    951.18717    483.17072   -2794.6088 
13852000    270.87004   -3853.9155   -3389.6535   -3853.9155            0    4144.8598    17.329959    20.412402    21.142509      7479.08    2128.0932    5453.6904    4852.7957    1490.0507   -770.27241   -1015.8985   -2937.5541 
13853000    274.19032   -3850.0939   -3380.1411   -3850.0939            0    4861.7447    17.258912    20.328719    21.055832    7387.4717     5999.814    5544.0485    3041.3716    1223.7186     398.5547    141.27291   -2856.3431 
13854000    256.00037   -3839.1641   -3400.3882   -3839.1641            0    6082.6176    17.286627    20.361363    21.089644    7423.1178    5385.9057    7659.2496    5202.6977   -1.0063454   -487.01442    901.93512   -2741.8928 
13855000     265.2739    -3815.806   -3361.1357    -3815.806            0    5616.8787     17.28053    20.354182    21.082206    7415.2668    5584.0304     3457.232    7809.3736   -113.50318   -759.57735   -1730.0163   -2753.7036 
13856000    253.52781   -3846.4652   -3411.9272   -3846.4652            0    5363.0397     17.25834    20.328045    21.055134    7386.7372    4983.3801    6118.2614    4987.4775    621.34134   -1974.8423    215.96439   -2834.1778 
13857000    255.84775   -3857.1239   -3418.6096   -3857.1239            0    6839.3203    17.293452    20.369402    21.097971    7431.9136    7913.8209     4814.046    7790.0941    742.82634    880.83309    871.47604   -2677.3173 
13858000    254.51277   -3816.0464   -3379.8202   -3816.0464            0    3608.6663     17.35825    20.445726    21.177025    7515.7692    4832.9161    2293.9577     3699.125   -136.84546   -347.26644    541.60936   -2984.2751 
13859000    264.20642   -3851.1769   -3398.3361   -3851.1769            0    4614.0397    17.302116    20.379607    21.108541    7443.0891    4484.5694    5154.8684    4202.6814     398.9619    153.73301   -55.984602    -2897.483 
13860000    266.92204   -3880.3279   -3422.8326   -3880.3279            0    2949.1079     17.33033     20.41284    21.142962    7479.5607    3580.8956    3418.0917    1848.3362    593.58399   -590.72311   -544.64282   -3101.1389 
13861000    264.51581   -3861.9658   -3408.5947   -3861.9658            0    3376.6638    17.212643    20.274219    20.999384    7328.2157    1826.7728    4465.7656     3837.453    314.74053    761.87647   -505.52626   -3047.7154 
13862000    261.62991   -3871.0183   -3422.5936   -3871.0183            0    3956.5653    17.247876     20.31572    21.042369    7373.3094    3543.7119    4099.0478    4226.9361     266.0528    2403.9872    -677.6043   -2997.1356 
13863000    261.55989   -3879.0113   -3430.7066   -3879.0113            0    4708.3023    17.246992    20.314679    21.041291    7372.1763    4550.1753    5595.5825    3979.1492   -847.33946    60.717949   -1404.3652   -2924.4905 
13864000     278.1326   -3860.5772   -3383.8674   -3860.5772            0     4591.514    17.321904    20.402915    21.132682    7468.6562     3651.207    6754.6695    3368.6655    353.88898    570.78942   -436.77587   -2883.7474 
13865000    261.99821   -3815.5165   -3366.4605   -3815.5165            0     6015.001    17.201505    20.261101    20.985796         7314    4661.2759    7384.1958    5999.5313   -858.01179    -1541.281   -253.75725   -2724.8573 
13866000    243.16291   -3810.8009    -3394.028   -3810.8009            0    6160.8582    17.276955    20.349971    21.077845    7410.6654    5174.4212    6798.0934    6510.0601    179.35109   -101.25291   -1349.6823   -2728.1812 
13867000    263.25158   -3889.9553   -3438.7511   -3889.9553            0      6420.25    17.316572    20.396635    21.126178    7461.7616    7107.2083    7016.5114    5137.0302   -352.10225   -1860.7966    25.103919   -2740.0858 
13868000    255.84806    -3874.705   -3436.1902    -3874.705            0    5122.9137    17.354642    20.441476    21.172623     7511.083    5367.0389    5326.7215    4674.9808    1256.6448   -1010.2483   -402.33881   -2875.0188 
13869000    266.50237   -3845.4203   -3388.6443   -3845.4203            0    5419.1324    17.291911    20.367587    21.096091    7429.9271    5266.4605    5270.7568    5720.1797    77.590625    86.072289    1262.8478   -2801.4387 
13870000    253.67291   -3849.7258   -3414.9391   -3849.7258            0    8080.7413    17.258632    20.328388     21.05549    7387.1116    6130.8246    10094.416    8016.9836    2176.1738   -878.61896    1474.3281    -2544.373 
13871000    272.07224    -3890.968   -3424.6455    -3890.968            0    5062.2757    17.247456    20.315224    21.041855    7372.7701    5292.7996    5984.8752    3909.1523    293.36546   -202.09688    497.02845   -2880.3279 
13872000    279.12975   -3840.3535   -3361.9347   -3840.3535            0    5719.8785    17.260435    20.330513    21.057691     7389.428    4886.8117    6897.5737    5375.2501   -675.37696   -1088.8694   -240.28404   -2745.5192 
13873000    257.77244   -3869.9063   -3428.0931   -3869.9063            0    6921.0314    17.186403    20.243312    20.967371    7294.7521    7232.7741    7363.4345    6166.8856   -983.14279     328.9649   -405.82652    -2691.789 
13874000    259.18011   -3808.8031   -3364.5773   -3808.8031            0    5774.8971    17.204783    20.264962    20.989795    7318.1819    5742.8772    4883.4837    6698.3303    490.07265    175.71482   -1183.3403    -2748.233 
13875000    267.97121   -3807.0817   -3347.7883   -3807.0817            0      5809.09    17.331909      20.4147    21.144889    7481.6058    5235.3498    7162.7558    5029.1644     60.24427    996.23481   -952.61982   -2713.9495 
13876000    260.34744   -3854.0223   -3407.7957   -3854.0223            0     6063.262    17.295957    20.372353    21.101027    7435.1438    7013.6882    5852.1217     5323.976    7.9388687    50.078979    427.15812   -2750.3323 
13877000    258.71241   -3850.8267   -3407.4024   -3850.8267            0    5156.9864    17.291362     20.36694    21.095421    7429.2196     3200.131    5404.2263     6866.602   -9.1045462     842.0672   -1126.6101   -2848.6556 
13878000    274.73203   -3893.7502   -3422.8689   -3893.7502            0    6229.2612    17.267455    20.338782    21.066255    7398.4478    5615.0719    6889.8407    6182.8711    724.81672    769.78272    749.91132   -2750.7393 
13879000    267.77671   -3823.7328   -3364.7727   -3823.7328            0    6373.5505    17.283709    20.357926    21.086085    7419.3596    3359.2097    7047.2026    8714.2393    1160.3224   -748.54889    217.10497   -2675.1306 
13880000    262.40294   -3881.0615   -3431.3119   -3881.0615            0    7747.2465    17.238872    20.305114    21.031384    7361.7681    5577.1966    7437.2813    10227.262   -848.66069    459.29868    423.36077   -2599.5378 
13881000    267.96832   -3899.0756   -3439.7871   -3899.0756            0    6682.5563    17.235384    20.301006    21.027128    7357.3005    6499.3223    7438.8813    6109.4652    317.41567   -464.54638    283.22771   -2722.7576 
13882000    263.27221   -3823.8533   -3372.6138   -3823.8533            0      5796.04    17.369064    20.458463    21.190218    7529.8242    6696.3807    6202.5068    4489.2326    -255.0716   -149.97298   -56.734617    -2736.123 
13883000    259.98647   -3857.3826   -3411.7747   -3857.3826            0    5942.4986    17.243388    20.310434    21.036894    7367.5557    6730.5639    6606.0606    4490.8712    58.075197    175.76628    203.41323   -2773.2637 
13884000    261.02084    -3905.859   -3458.4782    -3905.859            0    5484.7513    17.219793    20.282641    21.008107     7337.352    3769.3373    5754.9976    6929.9191    863.72013    646.94162   -1072.2614   -2871.5673 
13885000    252.24175   -3869.5923   -3437.2586   -3869.5923            0    6628.0007    17.230732    20.295526    21.021452     7351.344    6170.2888    7069.1027    6644.6106   -1096.0402    1047.5446   -108.62741   -2726.6586 
13886000     270.2873   -3866.8792    -3403.616   -3866.8792            0    5169.1845     17.28881    20.363934    21.092307    7425.9302    6294.8791    4132.5908    5080.0836   -1284.1438   -788.47559   -638.11812   -2843.7955 
13887000    249.03393   -3875.0616    -3448.226   -3875.0616            0     5202.268    17.203832    20.263841    20.988635     7316.968    5719.0311    5918.8262    3968.9468   -535.55699    729.73963    422.96298   -2893.0895 
13888000    269.85541   -3868.8266   -3406.3037   -3868.8266            0    4887.5967    17.215027    20.277028    21.002293    7331.2614    5274.7039    5339.4641    4048.6223    101.44383   -1420.6241    1213.6437   -2883.7271 
13889000    243.37824   -3889.0365   -3471.8945   -3889.0365            0    4293.8949    17.309672    20.388508     21.11776    7452.8459    3694.4528    5286.7936    3900.4384   -459.91041   -809.60574    348.31491    -3005.182 
13890000    259.98242   -3878.5729   -3432.9719   -3878.5729            0    4492.7753    17.298038    20.374803    21.103566    7437.8275    6128.7671    4188.2223    3161.3365   -191.96576    570.58074   -666.68945   -2945.6267 
13891000    262.49477   -3890.7196   -3440.8126   -3890.7196            0    4207.5174    17.323988    20.405369    21.135224    7471.3516     4595.148    4209.1077    3818.2966    348.41343   -681.44591    377.97112   -2982.3531 
13892000    256.38561   -3873.5435   -3434.1073   -3873.5435            0    5793.8303    17.277713    20.350864     21.07877    7411.6408    5790.5479    5711.5293    5879.4137    1534.9304    534.36664   -1473.9246   -2807.8454 
13893000    258.96128   -3869.0175   -3425.1668   -3869.0175            0    5251.6426    17.252241    20.320861    21.047694     7378.909    5782.9679    4759.0333    5212.9267   -61.100833   -452.52118    767.09536   -2860.0174 
13894000    258.41342   -3863.4028   -3420.4911   -3863.4028            0     6035.468    17.260721    20.330849    21.058039    7389.7946    8489.6851    5489.0625    4127.6564   -642.45153    220.98968    83.381348   -2770.0332 
13895000    265.19861   -3820.7426   -3366.2012   -3820.7426            0    6370.2845    17.331211    20.413877    21.144036    7480.7009    6839.9175    6998.6624    5272.2736   -573.27922   -165.38506   -625.61166   -2671.2137 
13896000    263.46404    -3871.896   -3420.3276    -3871.896            0    4573.4242    17.251119    20.319539    21.046325    7377.4691    3943.7766    4054.9644    5721.5315   -281.25127    162.10222    -1139.413     -2928.26 
13897000    263.80531   -3883.9212   -3431.7679   -3883.9212            0    5855.6203    17.243886     20.31102    21.037501    7368.1935    5949.8139    4973.4918    6643.5553    520.56215   -380.82171    316.04083   -2802.5373 
13898000    256.15197   -3892.8353   -3453.7996   -3892.8353            0    4796.5416    17.262115    20.332491     21.05974    7391.5856    2395.6725    6893.5334    5100.4188    335.63928    334.35413    2676.0978   -2936.7387 
13899000    273.10687   -3818.3913   -3350.2955   -3818.3913            0    5415.7331    17.322568    20.403697    21.133492    7469.5151    5812.2211    6559.8549    3875.1233    1179.5043    2289.2898    868.21758   -2760.3314 
13900000    258.80299   -3860.0326   -3416.4532   -3860.0326            0    4633.3632    17.237233    20.303184    21.029384    7359.6688    7109.4427    4362.7719    2427.8751    567.09122    155.85215    358.21816   -2919.1394 
13901000    261.76454   -3840.6973   -3392.0418   -3840.6973            0    5297.9661    17.314512    20.394208    21.123664    7459.0988    7168.9485    2554.0923    6170.8574    646.94977    1160.6198   -2115.1035   -2815.7115 
13902000    244.09703   -3861.4864   -3443.1125   -3861.4864            0     4886.351    17.275614    20.348391    21.076208    7408.9393    6285.7579    3834.0128    4539.2823    53.298933   -963.15207     119.7052   -2915.1336 
13903000    264.53245   -3854.4612   -3401.0617   -3854.4612            0    5631.4946    17.181216    20.237203    20.961044    7288.1499     4421.865     6258.817    6213.8017    47.121038    25.023906    117.99287    -2802.489 
13904000    248.09425   -3860.5885   -3435.3634   -3860.5885            0    4209.8058    17.216221    20.278434    21.003749    7332.7866    4324.9188    3625.4745     4679.024    779.90933   -214.38361   -929.56964   -2985.1619 
13905000    267.81295   -3903.9336   -3444.9114   -3903.9336            0    5422.4835    17.253271    20.322075    21.048951    7380.2307    5273.5948    2717.9225    8275.9331    893.14174   -181.70886   -648.74629   -2861.2727 
13906000    249.54062   -3916.5072   -3488.8031   -3916.5072            0    4051.6031    17.266041    20.337115    21.064529    7396.6295    4914.8597    4962.6032    2277.3465    -109.1866   -211.80932   -232.51977   -3051.7475 
13907000    269.52353    -3904.661   -3442.7069    -3904.661            0    4644.3047    17.274016    20.346509     21.07426    7406.8844    3394.1523    3432.4955    7106.2662    1455.2149   -626.19537    1712.8161   -2941.0207 
13908000    255.12054   -3872.0377   -3434.7698   -3872.0377            0    5325.6753    17.272713    20.344975     21.07267    7405.2084    4783.6183    6254.1034    4939.3042    57.177661    165.20139     737.2624   -2859.6109 
13909000    259.78445   -3860.6593   -3415.3976   -3860.6593            0     7167.147     17.22538    20.289222    21.014923     7344.496    5682.8005    7475.0881    8343.5523   -157.09731    781.90417   -1601.0087   -2647.7106 
13910000     278.1323   -3853.7841   -3377.0749   -3853.7841            0     5574.424    17.182881    20.239164    20.963075    7290.2687    4001.5483    6407.4721    6314.2514   -1660.0844       668.64    420.47049    -2784.396 
13911000    259.17712    -3874.215   -3429.9943    -3874.215            0    4846.2998    17.242454    20.309333    21.035754    7366.3581    5203.3301    3742.6658    5592.9035   -529.56193     447.6333   -23.063759   -2909.3525 
13912000     258.3979   -3859.9506   -3417.0654   -3859.9506            0    4180.2963    17.311569    20.390742    21.120074    7455.2958     4318.313    4235.4378    3987.1381    543.61926   -538.17118    333.35994   -2962.5508 
13913000    258.57557   -3852.1553   -3408.9656   -3852.1553            0    6314.0131    17.236238    20.302012     21.02817    7358.3938    5833.4681    6681.1259    6427.4452    632.11656    915.73653    543.92021   -2731.3796 
13914000    262.14021   -3887.7609   -3438.4616   -3887.7609            0    5854.9111    17.260121    20.330142    21.057307     7389.024     6702.875    5776.2441    5085.6141    343.20467    174.98159    64.857673   -2807.5285 
13915000    271.50991   -3903.2144   -3437.8557   -3903.2144            0    4332.8734    17.297076    20.373671    21.102392    7436.5869    3833.1904    4326.6143    4838.8156   -227.33882   -648.37051    332.39721    -2967.934 
13916000    269.45936    -3830.679   -3368.8349    -3830.679            0    7837.4042       17.165    20.218102    20.941259    7267.5324    6678.2742     7089.233    9744.7054   -842.98023    937.30914   -382.43518   -2538.1523 
13917000     270.1235    -3896.714   -3433.7315    -3896.714            0    5651.1548    17.233591    20.298894    21.024941    7355.0045     6395.285    5438.2822    5119.8972    150.67093   -227.25532   -72.310988   -2827.5593 
13918000    266.22728   -3831.8011   -3375.4967   -3831.8011            0      5871.97    17.300193    20.377342    21.106195    7440.6083    6713.1578    4953.5387    5949.2135    167.84574   -235.48625   -655.81173   -2738.3078 
13919000     276.3605   -3856.6032   -3382.9308   -3856.6032            0     3774.343    17.314311    20.393971    21.123419    7458.8386     3027.881    4024.3962    4270.7518   -30.477482    -87.47165    486.48409   -2972.3596 
13920000    264.10084   -3840.7884   -3388.1286   -3840.7884            0    7255.6135    17.168142    20.221803    20.945093    7271.5243    6089.5045    8851.5868    6825.7492   -380.99641   -1006.2604    1119.6393   -2618.6873 
13921000     258.8447   -3859.2892   -3415.6382   -3859.2892            0    4802.2515    17.240388      20.3069    21.033233      7363.71     6028.429    3103.3506     5274.975   -1270.9763    1322.7769   -92.524596   -2899.9141 
13922000    262.37011   -3889.0776   -3439.3842   -3889.0776            0    6182.3576    17.138891     20.18735    20.909407    7234.4208    6862.6555    7071.7858    4612.6317     1192.579    821.01446    88.490877   -2787.1046 
13923000     246.8023   -3863.4901   -3440.4794   -3863.4901            0    5606.8662    17.294437    20.370562    21.099173    7433.1839    4845.9179    6202.7827     5771.898   -949.09328   -1375.9307    165.54442    -2832.665 
13924000     252.6761   -3877.4189   -3444.3407   -3877.4189            0    6074.3556     17.24474    20.312026    21.038542    7369.2882    6326.0251     5202.077    6694.9647   -1418.2112    158.28357   -123.69515   -2791.5084 
13925000    275.29298   -3879.8466   -3408.0039   -3879.8466            0    4325.6898     17.29052    20.365948    21.094393    7428.1339    4577.3261    3947.6876    4452.0556    642.94472    666.95371    454.34807   -2939.3945 
13926000    266.11219   -3876.2231    -3420.116   -3876.2231            0    7170.6173    17.120065    20.165175    20.886439    7210.6066    6613.8506    9279.1267    5618.8746    605.77854    440.84492   -1258.6298   -2666.0589 
13927000    269.47413   -3837.2908   -3375.4213   -3837.2908            0    6017.4544    17.176774    20.231971    20.955624    7282.4984    7525.4999    6084.5812    4442.2821    1120.4329    713.32618    1041.8778   -2736.3209 
13928000    265.17092   -3844.8648   -3390.3709   -3844.8648            0     5318.378    17.228441    20.292827    21.018657     7348.412    4451.6527    6179.8854    5323.5958   -412.52675   -755.95195    1088.5213   -2820.4054 
13929000     270.2856   -3876.6192    -3413.359   -3876.6192            0    5765.0381    17.196185    20.254835    20.979306    7307.2159    5506.3417    6940.8024    4847.9701    735.50102   -65.684581    115.14381    -2798.989 
13930000    260.97608   -3880.7408   -3433.4367   -3880.7408            0     5828.559    17.212988    20.274626    20.999805    7328.6568    5874.3333    6112.9103    5498.4334    26.397206    609.77593   -1304.1191   -2810.4749 
13931000    283.40145   -3915.2883    -3429.548   -3915.2883            0    3676.9986    17.305725    20.383858    21.112944    7447.7478    5394.3743    2275.7084    3360.9132   -2.6865329   -27.730007   -22.988008   -3030.1606 
13932000    267.82308   -3853.7578   -3394.7182   -3853.7578            0    5538.0748    17.235372    20.300992    21.027114    7357.2851      5973.26    5716.8505    4924.1139    412.16403   -336.00868   -357.67331   -2800.4913 
13933000    270.85256   -3889.9112   -3425.6792   -3889.9112            0     5807.324    17.240669    20.307231    21.033576    7364.0704    3761.7574    6631.9673    7028.2475    1187.1452   -138.88769    323.75974   -2801.9876 
13934000       264.47   -3894.5847   -3441.2922   -3894.5847            0    4436.6119    17.267759     20.33914    21.066626    7398.8387    4393.0135    4913.2096    4003.6127    777.11932   -1158.9505   -683.15941   -2962.5619 
13935000    273.06206   -3834.0014   -3365.9824   -3834.0014            0    6006.6259    17.211325    20.272667    20.997776    7326.5329    3755.5394     8575.593    5688.7454    363.88355   -937.92835   -257.95471   -2724.1746 
13936000    273.69668   -3836.8075   -3367.7007   -3836.8075            0    4549.6372    17.318543    20.398956    21.128582    7464.3099    5553.3372    3887.4546    4208.1198   -656.68531    1116.3903   -300.46523   -2872.4304 
13937000    252.82702   -3850.0893   -3416.7524   -3850.0893            0    2884.1054    17.300902    20.378178    21.107061    7441.5236    4643.9889    3260.5305     747.7969   -27.456613    221.50621   -395.00075   -3103.7491 
13938000    278.44381   -3848.0968   -3370.8536   -3848.0968            0    5283.5382    17.235572    20.301227    21.027358    7357.5413    5808.6425    6278.2926    3763.6794    584.18149   -105.16256   -911.44357   -2803.9184 
13939000    256.19133   -3903.7895   -3464.6863   -3903.7895            0    3598.1613    17.292525    20.368311    21.096841    7430.7193    4567.3456    3019.5144    3207.6239    1473.4131    567.82487    5.3052412   -3074.7556 
13940000    281.00431   -3861.1525   -3379.5208   -3861.1525            0    4723.1344    17.230491    20.295242    21.021158    7351.0355    5122.7648    3438.5093     5608.129   -339.62033    465.56415    1197.4853   -2873.1662 
13941000    257.91029   -3878.2767   -3436.2273   -3878.2767            0    3200.4844    17.364878    20.453532    21.185111    7524.3813    3505.8937    4918.9818    1176.5778    135.07725   -76.261647   -1344.3164   -3085.0209 
13942000     258.4521   -3856.5906   -3413.6125   -3856.5906            0    5541.2893     17.24601    20.313522    21.040092    7370.9165    7208.0513    4747.9509    4667.8656   -685.86096   -807.46291   -131.57739   -2817.9391 
13943000    264.43348   -3852.6671   -3399.4371   -3852.6671            0    6711.2905    17.241793    20.308554    21.034947    7365.5104    7373.8328    7633.0596    5126.9792    385.43523    2176.7692   -65.985365    -2678.521 
13944000    274.15826   -3849.7438    -3379.846   -3849.7438            0    4647.5233    17.282829     20.35689    21.085011    7418.2268    5369.7107    6518.9871     2053.872    -17.86549   -1508.1105   -348.90527   -2877.0433 
13945000    252.05447   -3862.3535   -3430.3408   -3862.3535            0    5226.8971    17.265122    20.336033    21.063409    7395.4493    5378.1629    4343.4217    5959.1066    278.84513   -1057.4415   -637.29595   -2866.5936 
13946000    261.55193   -3850.7171    -3402.426   -3850.7171            0    4450.5543    17.247706     20.31552    21.042162    7373.0918    5893.4235    4242.4093    3215.8302    468.89387   -525.86238    1093.5105   -2923.8624 
13947000    266.91888   -3860.2759   -3402.7861   -3860.2759            0    5955.6192    17.147648    20.197664    20.920091    7245.5152    6130.5624    6025.1356    5711.1595    37.844601    318.91182   -411.40956   -2773.4653 
13948000    270.72702   -3887.1593   -3423.1425   -3887.1593            0    4793.5353    17.260566    20.330666     21.05785    7389.5953    4841.9815    4303.7542    5234.8702    -405.9707    617.60971   -42.585372   -2906.5448 
13949000     268.0215   -3865.8696   -3406.4899   -3865.8696            0    4851.9437     17.24415    20.311331    21.037823    7368.5322    6487.8401    4138.9413    3929.0496   -429.57116   -685.73068    26.127852    -2885.088 
13950000    261.91612   -3868.5837   -3419.6684   -3868.5837            0    5029.9285     17.25757    20.327138    21.054195    7385.7489    5754.7951    4825.1465    4509.8439   -430.98177   -766.84907    900.67479   -2877.8769 
13951000    261.13726   -3859.1384   -3411.5581   -3859.1384            0    5353.6845    17.296471    20.372958    21.101654    7435.8068    6242.7731    7175.8982    2642.3823   -412.80932    15.943295   -813.04962   -2830.9852 
13952000    267.05403   -3850.4597   -3392.7382   -3850.4597            0    4815.1256    17.363767    20.452224    21.183755    7522.9368    5979.3708    5346.9006    3119.1054   -30.466094   -689.15814   -826.64633     -2864.45 
13953000    261.71163   -3884.1832   -3435.6184   -3884.1832            0    3972.0266    17.437065    20.538559    21.273178      7618.61    5506.5966    3229.6737    3179.8096    -800.8761   -837.25451   -1891.4304   -2994.2881 
13954000    262.88071   -3862.5424   -3411.9739   -3862.5424            0    5837.4881    17.222683    20.286045    21.011633    7341.0467    4932.4694    6063.3123    6516.6827    144.14965   -1316.4603   -376.48824   -2787.0028 
13955000    250.42598   -3871.6163   -3442.3947   -3871.6163            0    5032.0147    17.223079    20.286513    21.012117    7341.5541    3092.6315    5491.2365    6512.1761    186.49486   -697.53157   -80.129996   -2903.6217 
13956000    251.96381   -3853.5744    -3421.717   -3853.5744            0    6336.5309     17.24957    20.317715    21.044435     7375.482    4460.7957    8314.2234    6234.5734    1361.7318   -1095.6537    401.45573   -2740.1354 
13957000    264.87148   -3859.6656   -3405.6849   -3859.6656            0    5574.9847    17.298785    20.375684    21.104477    7438.7916    6152.5877    4289.5964      6282.77   -323.38594    1257.7466   -500.78603   -2800.8707 
13958000    260.23498   -3835.9533   -3389.9194   -3835.9533            0    4811.4502    17.300713    20.377954    21.106829    7441.2786    6188.5235    2660.2951     5585.532    860.73896   -700.09544    554.63385   -2867.7644 
13959000    266.81371   -3886.9987   -3429.6891   -3886.9987            0    6555.2842    17.237603    20.303619    21.029835     7360.142    7798.2373    6635.4939    5232.1213   -1313.3025    601.26078    2.7653223   -2726.0441 
13960000    261.55341   -3827.8388   -3379.5452   -3827.8388            0    6142.5535    17.320048    20.400729    21.130419    7466.2563    6606.0784    4869.4854    6952.0966    149.41444    301.46898   -1338.1995   -2710.6968 
13961000    257.24508   -3840.9427   -3400.0334   -3840.9427            0    5938.6057     17.25224     20.32086    21.047693    7378.9079    5604.1948    5546.9182    6664.7041    624.62251   -378.32508    784.66437   -2760.9575 
13962000    264.20714   -3846.5587   -3393.7167   -3846.5587            0    7129.0177    17.249876    20.318075    21.044808    7375.8742    8984.3785    5958.7259    6443.9488   -321.21737    472.58403    34.328771   -2626.8514 
13963000    260.91197   -3839.2309   -3392.0367   -3839.2309            0    5808.3537    17.285172     20.35965     21.08787     7421.244    6157.3362    6931.0051    4336.7199    145.46295    1124.3595    1076.3977   -2763.3914 
13964000    264.35804   -3868.6026    -3415.502   -3868.6026            0    5969.3954    17.227717    20.291975    21.017774    7347.4859    5921.8586    6199.5082    5786.8194    240.02341    955.63002    55.896917   -2775.8482 
13965000    249.62829   -3906.3229   -3478.4686   -3906.3229            0    5051.7996    17.203563    20.263524    20.988306    7316.6245    5097.5714    5372.5211    4685.3061    -230.7546    288.39281    269.51628    -2939.414 
13966000    272.25109   -3886.7528   -3420.1237   -3886.7528            0    6483.5919    17.166135     20.21944    20.942645    7268.9751     6205.684    5895.9087     7349.183   -297.52317     872.6906   -1377.5326   -2732.7946 
13967000    253.15465   -3866.7413   -3432.8429   -3866.7413            0    4230.9201    17.304013    20.381842    21.110855     7445.538     4369.459    4392.5237    3930.7776   -1219.8706    928.77552   -788.24312   -2973.4262 
13968000    269.27869    -3841.732   -3380.1975    -3841.732            0    4243.5563    17.335543    20.418979    21.149322    7486.3118    2457.4494    5041.1179    5232.1018    884.35365    59.553085   -455.51031   -2916.8852 
13969000     267.7117    -3840.612   -3381.7633    -3840.612            0    4932.3956    17.280099    20.353674     21.08168    7414.7113    5158.0532    4608.3165    5030.8171   -1410.2873   -401.42727   -232.07613   -2848.3939 
13970000    258.70631   -3890.6059   -3447.1922   -3890.6059            0    6432.9093    17.196328    20.255002     20.97948    7307.3973    6985.0084    5436.1192    6877.6001   -558.84553   -1259.6843   -903.54619   -2761.6313 
13971000    264.71212   -3857.6931   -3403.9855   -3857.6931            0    7678.2061    17.161993    20.214561    20.937592    7263.7148    8692.3614    7520.1981    6822.0588    661.41749    719.06727   -109.55224   -2590.6038 
13972000    266.08984   -3872.0488   -3415.9799   -3872.0488            0    4834.6335     17.22673    20.290812     21.01657    7346.2231    4370.6675     4170.398     5962.835    760.56382   -1858.6717   -1554.5424   -2898.0112 
13973000     265.1809   -3872.9804   -3418.4694   -3872.9804            0    6303.7452    17.195669    20.254227    20.978676    7306.5579    7226.9226    4767.1262    6917.1867    437.92076    366.96855   -1111.4649   -2746.7508 
13974000    249.09362   -3842.9613   -3416.0234   -3842.9613            0    6075.0984     17.19585     20.25444    20.978897    7306.7886    5927.6478    5769.7827    6527.8648      942.946    316.68851   -238.52744   -2768.6486 
13975000    259.66948   -3892.1963   -3447.1317   -3892.1963            0    5195.2814    17.207751    20.268458    20.993416    7321.9696    6701.2536     5078.728    3805.8627    409.32766    826.75144   -117.55726   -2892.3618 
13976000     261.2806   -3846.6773   -3398.8513   -3846.6773            0     4389.092    17.212625    20.274199    20.999363    7328.1937    3512.8141    3756.3007    5898.1611   -763.59975   -261.71036   -130.19167   -2929.7706 
13977000     277.3748    -3787.021   -3311.6101    -3787.021            0    6425.8884    17.113902    20.157916    20.878921    7202.8225    8271.6827    5488.1623    5517.8203   -1860.0124    238.78233    727.83546   -2636.5977 
13978000    278.87764   -3850.2544   -3372.2677   -3850.2544            0    7568.3343    17.221083    20.284161    21.009681    7339.0016    7515.5978    7912.8928    7276.5123   -433.74397    882.18273    42.734827   -2562.2151 
13979000    259.03025   -3835.7565   -3391.7875   -3835.7565            0    5439.6637    17.293897    20.369927    21.098514     7432.488     6840.818    3915.6881    5562.4849    343.87354   -2234.9265    2232.9465    -2802.154 
13980000    262.04165   -3792.6082   -3343.4778   -3792.6082            0    7256.9437    17.259996    20.329996    21.057155    7388.8643    6442.3917    9024.2283    6304.2112    131.99415    221.91318    353.63304   -2561.4767 
13981000    261.13018   -3836.9235   -3389.3553   -3836.9235            0     4323.358    17.297992    20.374749    21.103509    7437.7682    5536.6497    2043.1017    5390.3225    1609.3244   -424.08814    1278.6175   -2920.3911 
13982000     257.1278   -3826.6487   -3385.9404   -3826.6487            0    3800.8127     17.26517     20.33609    21.063467    7395.5105    4361.8604    2178.1709    4862.4068   -2052.4813    1062.1676    1836.1325   -2976.0002 
13983000    259.95956   -3849.5792   -3404.0175   -3849.5792            0    4460.7564    17.221181    20.284277    21.009801    7339.1268    3714.2489    4252.5543    5415.4659   -650.33474    232.55621   -332.31304   -2926.5665 
13984000    271.19622   -3861.4361    -3396.615   -3861.4361            0    5728.0484    17.201235    20.260782    20.985466    7313.6546    4018.6681    6471.1855    6694.2916    -377.7824    184.62856    630.15337   -2785.6491 
13985000    266.74546   -3894.5103   -3437.3177   -3894.5103            0    4922.4779    17.279909     20.35345    21.081448    7414.4668    4555.0086    5843.5351    4368.8899   -1159.2089    494.98931    2036.8804   -2905.0384 
13986000     254.0894   -3844.1544   -3408.6538   -3844.1544            0    7453.4072     17.20546     20.26576    20.990622    7319.0462    4886.9665     8265.245    9208.0099    950.41106   -1191.6483     690.5798   -2613.0713 
13987000    267.70573   -3865.8357   -3406.9972   -3865.8357            0    5939.2529     17.26358    20.334217    21.061527    7393.4674    5350.4747    6166.6048    6300.6792    222.99461    1330.3331    -1273.471   -2766.5905 
13988000     258.8968   -3847.9896   -3404.2493   -3847.9896            0    5112.7601    17.273552    20.345963    21.073694    7406.2876    6389.4008    5113.3188    3835.5607     904.6504   -331.54581   -1094.8506   -2852.0042 
13989000     257.4693   -3873.2327   -3431.9391   -3873.2327            0    5739.2923    17.351886     20.43823    21.169261    7507.5057    6081.3003    4534.4679    6602.1088   -581.51182   -1115.0166   -516.00608   -2803.5482 
13990000    275.15127   -3876.6581   -3405.0582   -3876.6581            0    5280.5897    17.337303    20.421053     21.15147    7488.5931    5863.8068    5523.7748    4454.1874    245.84254   -20.988946   -1762.0607   -2828.3468 
13991000    244.54408   -3861.6387   -3442.4985   -3861.6387            0    5158.9265    17.286288    20.360963     21.08923    7422.6809    5356.5678     5007.913    5112.2987   -205.96905    -119.5721   -1194.1135   -2884.0334 
13992000    270.44326   -3886.8287   -3423.2982   -3886.8287            0    5598.8199    17.267522     20.33886    21.066336    7398.5334    4762.9833    7034.9263      4998.55    -212.3422    1452.1794    662.11793   -2819.1854 
13993000    268.41072   -3853.3012   -3393.2544   -3853.3012            0    5795.4457    17.333525    20.416603     21.14686    7483.6984    5082.1166    5527.0916    6777.1289   -1338.7433    265.82523   -455.94277   -2760.7275 
13994000    261.60218   -3852.7059   -3404.3287   -3852.7059            0    3567.4062    17.342198    20.426819    21.157441    7494.9376    3415.0601    4355.6988    2931.4597   -295.06346   -677.84765    815.84319   -3014.3899 
13995000    263.97937   -3817.9996    -3365.548   -3817.9996            0    5663.8237    17.355698    20.442719    21.173911    7512.4538    6054.3916    4753.9131    6183.1664    14.621653    397.79021    24.507246   -2745.0114 
13996000    263.68822   -3806.5861   -3354.6336   -3806.5861            0    5174.8024    17.368838    20.458197    21.189942    7529.5304    5353.9302    5295.9188    4874.5581    761.74642     1215.764   -316.29996    -2786.386 
13997000    249.40948   -3820.0812   -3392.6019   -3820.0812            0    4029.7241    17.295936    20.372328    21.101001    7435.1167    4362.5257    2023.2439    5703.4026    1283.0903    187.86627   -583.14989   -2955.6446 
13998000    263.54737   -3820.8295   -3369.1184   -3820.8295            0     4951.815     17.33885    20.422874    21.153356    7490.5968    4290.6511     4390.657     6174.137   -1275.9478    1508.0484    595.48904   -2828.1689 
13999000    252.43617   -3860.0719   -3427.4049   -3860.0719            0    6105.2241    17.237222    20.303171    21.029371    7359.6547    6894.6258    7064.7895    4356.2572   -1011.1714    690.41297    239.15452   -2772.1128 
14000000     270.5314   -3841.0621   -3377.3806   -3841.0621            0    4512.5158    17.340864    20.425247    21.155813    7493.2078    3637.4128    6454.5287    3445.6058   -861.20251   -288.55897    1113.2731   -2884.2495 
Loop time of 376.057 on 64 procs for 250000 steps with 864 atoms

Performance: 114.876 ns/day, 0.209 hours/ns, 664.792 timesteps/s
193.1% CPU use with 32 MPI tasks x 2 OpenMP threads

MPI task timing breakdown:
Section |  min time  |  avg time  |  max time  |%varavg| %total
---------------------------------------------------------------
Pair    | 25.565     | 31.345     | 43.527     |  60.2 |  8.34
Bond    | 0.85643    | 1.0754     | 1.9562     |  18.1 |  0.29
Kspace  | 166.17     | 177.45     | 185.46     |  26.6 | 47.19
Neigh   | 3.6033     | 4.1228     | 4.4097     |  11.5 |  1.10
Comm    | 71.636     | 77.763     | 85.233     |  34.4 | 20.68
Output  | 0.5069     | 0.50714    | 0.50866    |   0.0 |  0.13
Modify  | 67.981     | 71.759     | 76.452     |  27.5 | 19.08
Other   |            | 12.03      |            |       |  3.20

Nlocal:        27.0000 ave          34 max          20 min
Histogram: 3 0 4 4 3 7 1 7 2 1
Nghost:        2470.66 ave        2512 max        2440 min
Histogram: 4 4 1 6 7 2 3 2 1 2
Neighs:        8235.25 ave       10698 max        6280 min
Histogram: 3 5 5 2 2 5 5 2 2 1

Total # of neighbors = 263528
Ave neighs/atom = 305.00926
Ave special neighs/atom = 2.0000000
Neighbor list builds = 14352
Dangerous builds = 0

unfix		3
unfix		2
unfix		1

write_data	data.final.${pid}
write_data	data.final.1
System init for write_data ...
PPPM initialization ...
  extracting TIP4P info from pair style
  using 12-bit tables for long-range coulomb (../kspace.cpp:340)
  G vector (1/distance) = 0.37406539
  grid = 24 24 25
  stencil order = 5
  estimated absolute RMS force accuracy = 0.0030937122
  estimated relative force accuracy = 9.3166224e-06
  using double precision FFTW3
  3d grid and FFT values/proc = 3822 576
Last active /omp style is kspace_style pppm/tip4p/omp
WARNING: Not all mixed pair coeffs generated from mixing. Use write_data with 'pair ij' option to store all pair coeffs. (../write_data.cpp:312)

write_restart   restart.lmp.${pid}
write_restart   restart.lmp.1
System init for write_restart ...
PPPM initialization ...
  extracting TIP4P info from pair style
  using 12-bit tables for long-range coulomb (../kspace.cpp:340)
  G vector (1/distance) = 0.37406539
  grid = 24 24 25
  stencil order = 5
  estimated absolute RMS force accuracy = 0.0030937122
  estimated relative force accuracy = 9.3166224e-06
  using double precision FFTW3
  3d grid and FFT values/proc = 3822 576
Last active /omp style is kspace_style pppm/tip4p/omp
Total wall time: 0:06:16
