LAMMPS (30 Jul 2021)
Processor partition = 0
  using 2 OpenMP thread(s) per MPI task
using multi-threaded neighbor list subroutines
variable        pid world 0 1
variable        phase world IceIII Liquid

shell cd ${phase}
shell cd IceIII
include Restart.lmp
echo both
log log.lammps
#include		in.partitions
include		in.temp
variable        temperature equal 264.11
variable	tempDamp equal 100.0
include		in.pressure
variable        pressure equal 5375.0
variable        pressureDamp equal 1000.0 # This is 1 ps
include		in.seed
variable        seed equal 745823

units		real
atom_style	full

read_restart	restart.lmp.${pid}
read_restart	restart.lmp.0
Reading restart file ...
  restart file = 30 Jul 2021, LAMMPS = 30 Jul 2021
  restoring atom style full from restart
  orthogonal box = (-0.025996670 -0.072653426 0.099719190) to (20.025998 20.072654 20.600279)
  2 by 4 by 4 MPI processor grid
  restoring pair style lj/cut/tip4p/long/omp from restart
  restoring bond style harmonic/omp from restart
  restoring angle style harmonic/omp from restart
  972 atoms
  648 bonds
  324 angles
Finding 1-2 1-3 1-4 neighbors ...
  special bond factors lj:    0        0        0       
  special bond factors coul:  0        0        0       
     2 = max # of 1-2 neighbors
     1 = max # of 1-3 neighbors
     1 = max # of 1-4 neighbors
     2 = max # of special neighbors
  special bonds CPU = 0.002 seconds
  read_restart CPU = 0.013 seconds
include 	in.setup
variable	out_freq equal 1000
variable	out_freq2 equal 10000
variable	out_freq3 equal 1000

timestep	2.0

neigh_modify    delay 7 every 1

include		in.tip4p
# This is TIP4P/Ice

# create groups ###
group ox type 2
324 atoms in group ox
group hy type 1
648 atoms in group hy

# set charges - beside manually ###
set group ox charge -1.1794
Setting atom values ...
  324 settings made for charge
set group hy charge 0.5897
Setting atom values ...
  648 settings made for charge

# ### TIP3P Potential Parameters ###
pair_style lj/cut/tip4p/long/omp 2 1 1 1 0.1577 8.5
pair_coeff 1 1*2 0.000 0.000
pair_coeff 2 2 0.21084 3.1668
bond_style  harmonic
bond_coeff  1 450 0.9572
angle_style harmonic
angle_coeff 1 55 104.52
kspace_style pppm/tip4p/omp 1.0e-5
pair_modify tail yes

thermo          ${out_freq}
thermo          1000
thermo_style    custom step temp pe etotal epair emol press lx ly lz vol pxx pyy pzz pxy pxz pyz enthalpy

restart 	${out_freq3} restart.lmp.${pid} restart2.lmp.${pid}
restart 	1000 restart.lmp.${pid} restart2.lmp.${pid}
restart 	1000 restart.lmp.0 restart2.lmp.${pid}
restart 	1000 restart.lmp.0 restart2.lmp.0


include         in.dump
dump            myDump all atom ${out_freq2} dump.water.${pid}
dump            myDump all atom 10000 dump.water.${pid}
dump            myDump all atom 10000 dump.water.0
dump            myDump2 all dcd ${out_freq2} dump.dcd
dump            myDump2 all dcd 10000 dump.dcd
dump_modify     myDump append yes
dump_modify     myDump2 append yes


variable natoms 	equal  "count(all)"                        # NUMBER ATOMS
variable H      	equal  "enthalpy/v_natoms"                 # ENTHALPY-per-atom
variable Vol      	equal  "vol/v_natoms"                 # volume-per-atom
fix AVG all 		ave/time ${out_freq} 1 ${out_freq} v_Vol v_H file vol_enthalpy.dat
fix AVG all 		ave/time 1000 1 ${out_freq} v_Vol v_H file vol_enthalpy.dat
fix AVG all 		ave/time 1000 1 1000 v_Vol v_H file vol_enthalpy.dat


timer           timeout 02:55:00 every 1000
New timer settings: style=normal  mode=nosync  timeout=02:55:00

fix 		1 all shake 1e-6 200 0 b 1 a 1
Finding SHAKE clusters ...
       0 = # of size 2 clusters
       0 = # of size 3 clusters
       0 = # of size 4 clusters
     324 = # of frozen angles
  find clusters CPU = 0.000 seconds
fix             2 all nph aniso ${pressure} ${pressure} ${pressureDamp}
fix             2 all nph aniso 5375 ${pressure} ${pressureDamp}
fix             2 all nph aniso 5375 5375 ${pressureDamp}
fix             2 all nph aniso 5375 5375 1000
fix             3 all temp/csvr ${temperature} ${temperature} ${tempDamp} ${seed}
fix             3 all temp/csvr 264.11 ${temperature} ${tempDamp} ${seed}
fix             3 all temp/csvr 264.11 264.11 ${tempDamp} ${seed}
fix             3 all temp/csvr 264.11 264.11 100 ${seed}
fix             3 all temp/csvr 264.11 264.11 100 745823


run             250000
PPPM initialization ...
  extracting TIP4P info from pair style
  using 12-bit tables for long-range coulomb (../kspace.cpp:340)
  G vector (1/distance) = 0.37138336
  grid = 24 24 24
  stencil order = 5
  estimated absolute RMS force accuracy = 0.0036084834
  estimated relative force accuracy = 1.0866841e-05
  using double precision FFTW3
  3d grid and FFT values/proc = 3211 432
Last active /omp style is kspace_style pppm/tip4p/omp
Neighbor list info ...
  update every 1 steps, delay 7 steps, check yes
  max neighbors/atom: 2000, page size: 100000
  master list distance cutoff = 10.8154
  ghost atom cutoff = 10.8154
  binsize = 5.4077, bins = 4 4 4
  1 neighbor lists, perpetual/occasional/extra = 1 0 0
  (1) pair lj/cut/tip4p/long/omp, perpetual
      attributes: half, newton on, omp
      pair build: half/bin/newton/omp
      stencil: half/bin/3d
      bin: standard
Setting up Verlet run ...
  Unit style    : real
  Current step  : 13750000
  Time step     : 2
  Walltime left : 2:54:59.95
Per MPI rank memory allocation (min/avg/max) = 10.18 | 10.18 | 10.19 Mbytes
Step Temp PotEng TotEng E_pair E_mol Press Lx Ly Lz Volume Pxx Pyy Pzz Pxy Pxz Pyz Enthalpy 
13750000    272.09704   -4664.3667   -4139.6047   -4664.3667            0    6216.9108    20.051994    20.145308     20.50056    8281.2748    5624.6132    7243.7441    5782.3752   -412.10114    506.83445    1196.7911   -3388.7641 
13751000    261.46566   -4687.0786   -4182.8201   -4687.0786            0    6122.3157    20.300738    19.838797    20.550876     8276.705    3558.5089    7912.9322     6895.506   -19.450111       234.92    401.83602   -3443.8122 
13752000    259.57338   -4685.5852   -4184.9761   -4685.5852            0    5368.8455     20.02402    20.037818    20.808779     8349.266    4989.1851    5780.3682    5336.9832    110.88218    368.31458   -640.79223   -3531.2361 
13753000    261.49727   -4693.3056   -4188.9861   -4693.3056            0    4813.5986    19.706507    20.016851    20.950431    8264.1536    6224.8943    3889.5284    4326.3729   -634.18656    770.95902   -1497.2632    -3608.831 
13754000    249.67077   -4712.9938   -4231.4827   -4712.9938            0    5845.2186    20.190156    19.827409    20.751669    8307.2765    5648.2642    5858.5526     6028.839    253.65006   -727.48061   -241.91693   -3523.3163 
13755000     252.8675   -4660.5819   -4172.9056   -4660.5819            0    6923.8487    19.936232    20.153409    20.343738    8173.7691    6122.1601    6917.0334    7732.3527    662.52515    1554.4607    420.47992    -3347.541 
13756000    263.33047   -4667.1518   -4159.2968   -4667.1518            0    3926.7223    20.063372     20.07214    20.633312    8309.3404    4522.0109    3139.7829    4118.3733   -219.46119    92.916669    573.95435    -3683.444 
13757000     271.0089   -4686.3022   -4163.6388   -4686.3022            0     6103.777    19.957861    20.001936    20.658053    8246.6094     6935.525    4635.6445    6740.1615   -644.36011   -890.36832     26.96548   -3429.5476 
13758000    260.15604   -4673.4864   -4171.7536   -4673.4864            0    6366.9096    20.118047    19.851378    20.597932    8226.2156    6317.4454    5336.1318    7447.1516   -198.11232    1244.0851    732.71323   -3407.9096 
13759000    270.45306   -4662.9334   -4141.3419   -4662.9334            0    5763.2984    19.889194    20.125695    20.748022    8305.0981    3131.0541    8304.1689    5854.6721   -849.73146    145.85394   -1147.9845   -3443.2835 
13760000    258.30383   -4661.2797   -4163.1191   -4661.2797            0    4799.6573    20.143759    19.897337    20.630111    8268.6962    2794.9909    6605.4906    4998.4904    93.521448    609.68592    777.40086   -3584.3262 
13761000    270.02909   -4707.9682   -4187.1944   -4707.9682            0    5686.6611    19.898678    19.995562    20.741869    8252.8834    6040.8638    6901.8422    4117.2772    496.73816    747.14315    -1390.285   -3502.7488 
13762000     284.8999   -4676.9809   -4127.5274   -4676.9809            0    6761.7536    20.262149    19.799312    20.584076    8257.8494    6294.7222    6826.7596    7163.7789   -461.08964   -344.68648    362.06807   -3313.1942 
13763000    278.91602   -4686.1517   -4148.2387   -4686.1517            0    5439.7798    20.179362    20.090763    20.602487     8352.635     4036.202    6095.9447    6187.1928   -4.2804899    985.21612    -1151.327    -3485.594 
13764000    260.12939   -4702.4837   -4200.8023   -4702.4837            0      4015.99    20.139502    20.139789    20.611828    8360.2668    5479.5281    3211.4076    3357.0343    662.99292   -44.377823    1112.8041    -3711.149 
13765000    255.74296   -4679.3082   -4186.0864   -4679.3082            0    5969.3409    19.887333     20.03959    20.881692    8322.0642    6364.5953    6223.7863    5319.6412    663.88383    250.21675   -459.68836   -3461.5948 
13766000    265.24165   -4695.3548   -4183.8139   -4695.3548            0    4885.1785    20.049848     19.97235    20.642152    8265.9967    4872.3058    3915.6382    5867.5915    556.11053   -1413.7059   -1247.1883   -3594.9004 
13767000    270.92046   -4709.0618   -4186.5689   -4709.0618            0    4134.2171    20.134088    20.094914    20.601058     8335.039    2803.2784    4832.7791    4766.5939   -432.80598   -5.6775915    789.22503   -3684.0217 
13768000    266.42657   -4728.9608   -4215.1348   -4728.9608            0    5022.7137     20.10912    19.816206    20.789279    8284.2462    6824.9104     3765.923    4477.3077    118.20492    751.65668   -696.06534   -3608.3044 
13769000    262.23073     -4693.92    -4188.186     -4693.92            0    3845.5339    19.965167    20.032115    20.803929    8320.4177    3097.4172    4031.1752    4408.0094    1206.5398    350.28299    68.295855   -3721.5506 
13770000    260.21123   -4696.4958   -4194.6565   -4696.4958            0    5599.0049    20.006834    20.048246    20.588956    8258.2702    4106.3753    7652.3115    5038.3278   -130.52206    427.05421    2182.2436   -3520.3213 
13771000    257.98593   -4721.1001   -4223.5525   -4721.1001            0    4086.4709    20.216497    20.078406    20.630163     8374.093    3317.3878    5307.0504    3634.9744   -173.46994   -942.04843     629.5703   -3724.4818 
13772000     262.7882   -4687.4981   -4180.6889   -4687.4981            0    6011.9458      20.0168    19.868069    20.775164    8262.1824    5077.2171    7503.4245    5455.1959   -509.26128   -81.010263    367.03743   -3456.2768 
13773000    248.94388   -4693.1064   -4212.9972   -4693.1064            0    7060.7048    20.042235    19.892512    20.727755    8263.9569    6694.8049    7853.8216    6633.4879   -578.88272   -401.77726    193.16277   -3362.0316 
13774000    266.37848    -4651.003   -4137.2697    -4651.003            0    5077.5273    20.163053    20.187983    20.450478    8324.3948    6915.4261    4036.5119     4280.644    -1028.821    142.38316    191.73501   -3520.8439 
13775000     270.0328   -4674.8099   -4154.0289   -4674.8099            0    5623.8172    20.070371    19.987817    20.633405    8277.3569    5754.5561    4641.1582    6475.7374    -190.9718    329.77534   -68.971436   -3475.1399 
13776000    269.64722    -4656.869   -4136.8317    -4656.869            0    5374.0452    19.871044    19.855709    21.036175    8299.8998    5342.6859    6406.7586    4372.6912   -62.386324    955.47302   -874.74592   -3486.3276 
13777000    279.67096   -4671.7904   -4132.4214   -4671.7904            0    7282.0785     20.00446    20.046015    20.563678    8246.2344    6973.3496    6461.3498    8411.5363   -906.96025    676.39533     -834.355   -3256.6577 
13778000     256.0998   -4688.5834   -4194.6734   -4688.5834            0    4818.0027    20.125101    20.137527    20.433463    8281.0647    3685.4062    4654.3638    6114.2381    572.60198    791.31534    77.199354   -3612.7992 
13779000     256.3503   -4682.9942    -4188.601   -4682.9942            0    4244.1363    20.076492    20.116316    20.701559    8360.6364     4997.132    3254.7575    4480.5194    710.44221    862.90292    902.60961    -3671.108 
13780000    263.67453   -4678.3584   -4169.8399   -4678.3584            0    3080.6669     20.19096    20.068367    20.718089    8394.9615    3341.4813    3118.8506    2781.6687    738.79466     -1186.06    148.94962    -3792.668 
13781000    263.28096   -4666.3915    -4158.632   -4666.3915            0    4404.8694    19.912443    20.079611    20.755249    8298.6563    4534.2233    4420.3492    4260.0358   -267.26644    408.44393   -1318.7341   -3625.5222 
13782000    260.21195   -4666.0047   -4164.1641   -4666.0047            0    7282.5409    20.146379    19.729939    20.685439    8222.1896    6841.3121    9169.1261    5837.1846    493.83643   -188.32132   -1916.0201   -3290.8986 
13783000    262.70296   -4683.6433   -4176.9986   -4683.6433            0      5702.87    19.958362    20.105113    20.683914    8299.7337    6815.4354    4553.7078    5739.4669   -397.91477   -607.00737     1151.313   -3486.7055 
13784000    262.38924   -4697.2043   -4191.1645   -4697.2043            0    6533.3844    20.297732    19.704771    20.600834    8239.5543     6625.779    7464.4139    5509.9602    125.95428     887.3325   -408.60895   -3406.0775 
13785000    255.17694   -4733.3419   -4241.2117   -4733.3419            0    3930.6559    19.973003    20.158336    20.719182    8342.0089    4486.6218    2680.8066    4624.5392   -193.71675    305.12921    387.70828   -3763.0095 
13786000    257.12011   -4702.9456   -4207.0678   -4702.9456            0    6227.2871    20.151043    19.781619     20.63437    8225.2782    6223.0022    6336.4814    6122.3777    555.29948    927.45388   -61.800835   -3460.0596 
13787000    278.75387   -4721.7078   -4184.1075   -4721.7078            0    7599.1732    19.960312    19.740247    20.888462    8230.5034    7758.7213    8328.7799    6710.0183    778.57171     8.920002   -971.80028   -3271.9526 
13788000    282.55974   -4700.2226   -4155.2824   -4700.2226            0    7392.9696    19.988103     20.06893    20.501615    8224.0146    7272.1951    6986.2038    7920.5099    5.1888017    948.83465   -367.78181   -3268.5783 
13789000    254.86387   -4697.9394    -4206.413   -4697.9394            0    5869.8348    20.128346    20.014696    20.465941     8244.965    4203.6067    6557.0989    6848.7987   -1026.9273   -678.92095   -276.81534   -3500.5985 
13790000    262.79338   -4698.6359   -4191.8167   -4698.6359            0     3880.844    20.098318    20.098079    20.723941    8371.1782    5887.5644    2725.0292    3029.9382   -104.41133   -1005.0535    167.08594   -3718.0237 
13791000    270.17397   -4693.1212    -4172.068   -4693.1212            0    6974.7901    19.927663    19.778887    20.882741    8230.8694    10067.175    6125.5253    4731.6705   -209.77298    236.35134    1179.0747   -3334.8226 
13792000    257.48339   -4687.6555   -4191.0771   -4687.6555            0    5106.3432    19.903406    20.055123     20.73827     8277.997    6253.0729    5192.9417    3873.0152   -498.05265    734.24315     380.0628   -3574.6082 
13793000    276.36771   -4695.8363    -4162.838   -4695.8363            0    4206.7297    20.255625    19.959008    20.483959    8281.2997    4225.1262    3950.4175    4444.6454    435.24986    110.26907    836.08321   -3654.7733 
13794000    260.52881   -4714.1786   -4211.7269   -4714.1786            0      6958.45    19.979089    19.962037    20.616717    8222.4276    9242.2212    5728.0242    5905.1046    -582.1308   -411.73775    1174.6334   -3377.2996 
13795000    246.75263   -4695.7779   -4219.8947   -4695.7779            0     4958.041    20.110826    19.848757     20.85579    8325.1082     2708.512    7892.1243    4273.4866    -300.5477   -13.483044   -308.90516   -3617.9233 
13796000    252.62179   -4692.3122   -4205.1099   -4692.3122            0    5557.2931    20.175122    19.932834    20.592469    8281.2076    5395.0787    6861.4023    4415.3982   -31.986782    994.49329    212.77495   -3533.9394 
13797000    272.10678   -4712.4238   -4187.6429   -4712.4238            0    7218.8747    19.862839    20.040119    20.834251    8293.1499    8503.7204    7030.7669    6122.1367    239.50442    456.69821   -417.64078   -3314.5411 
13798000    261.59813   -4727.2422   -4222.7282   -4727.2422            0    5505.5877     20.06489    19.932744    20.642769    8256.0408     4633.437    7170.8354    4712.4908   -862.03546    488.48395     1362.976    -3559.823 
13799000    269.28484   -4697.0423   -4177.7039   -4697.0423            0    4649.2508    20.071953    20.166593    20.459036    8281.4679    5820.0193    3298.4559    4829.2771    220.70635     342.6604   -238.75548   -3616.1826 
13800000    260.46245   -4725.8523   -4223.5286   -4725.8523            0    3659.2487    20.088505    20.089666    20.745603    8372.3309    3802.1566    2483.5448    4692.0448    309.81986   -878.50747   -384.81716   -3776.7275 
13801000    282.19485   -4655.9474   -4111.7108   -4655.9474            0    5076.6443    19.999802    19.973967    20.815332    8315.2128    5246.9525    5986.9997    3995.9807    111.11902    42.634528    602.70706    -3496.072 
13802000    263.96824   -4711.5797   -4202.4947   -4711.5797            0     6693.795    20.041803     19.85885    20.663529    8224.2324    6579.5725     7272.169    6229.6435   -636.24401      1103.68    721.41473   -3399.6276 
13803000    259.66454   -4715.5538   -4214.7689   -4715.5538            0    5870.9955    19.946088    20.142675    20.524039    8245.8938    7079.9346    4803.7954    5729.2565   -143.31377    706.46244    175.18253   -3508.7353 
13804000    262.23016   -4660.4668   -4154.7339   -4660.4668            0    5842.5127    20.137961    20.046132     20.50508    8277.6591     3980.749    7648.4109     5898.378   -183.76301   -1583.6868   -502.77129    -3449.419 
13805000     272.1688   -4713.0865    -4188.186   -4713.0865            0    3520.2833    19.945362    20.237471    20.808774    8399.3299     5022.938    2414.8206    3123.0913   -343.64471   -373.94971    379.09293   -3756.9668 
13806000    275.32069   -4675.6871    -4144.708   -4675.6871            0    4007.4884    20.205858    19.787165    20.905373    8358.3157     3395.338    5066.1198    3561.0075   -109.22787    459.42019   -109.49821   -3656.2053 
13807000    267.37661   -4732.0114   -4216.3531   -4732.0114            0    6694.6344    20.192368    19.944985      20.4093    8219.5695    6220.3089    5610.4901    8253.1042   -907.94667   -555.65177   -484.39068   -3413.8406 
13808000    259.03961   -4679.5743   -4179.9947   -4679.5743            0    7620.1784    20.000084    20.128683    20.442697    8229.7257    7588.9801     7053.732    8217.8232   -479.40098    1362.5113    815.74704   -3265.4048 
13809000    257.13279   -4677.9499   -4182.0477   -4677.9499            0    6240.5407    20.187053    19.999803    20.379901    8228.1217    4795.7091    6209.5608    7716.3523    330.82513    167.60201    162.94342   -3433.1909 
13810000    268.49788   -4706.1219   -4188.3011   -4706.1219            0    5156.0255    20.025471    19.930162    20.838594    8316.9095    4414.8048    5677.3834    5375.8885     118.9013    1420.1353    1471.2251   -3562.9083 
13811000     268.6847   -4698.0466   -4179.8655   -4698.0466            0    6506.7544    20.087576     19.92159    20.675675    8273.9179    7273.0535    6516.9063    5730.3033    98.743444    146.24106    8.8914335   -3394.7176 
13812000    288.94367   -4693.5544   -4136.3022   -4693.5544            0    6233.2597    20.018085    20.133398    20.617312    8309.4378    5971.2314    5699.8021    7028.7456    13.252739   -871.50319   -967.03165    -3380.927 
13813000    259.55655   -4656.7631   -4156.1864   -4656.7631            0    6839.7345    20.030549    20.156621    20.487789    8271.9074    9064.0286    4697.9132    6757.2616    141.76896    449.26678    443.82531   -3331.0594 
13814000    271.42741   -4707.7326    -4184.262   -4707.7326            0     5159.182    20.167217    19.997587    20.492856      8264.68    3710.2065    6769.3905    4997.9492   -279.42953   -297.41923   -1488.1462    -3562.416 
13815000    262.43439   -4703.7648    -4197.638   -4703.7648            0    6102.6685    19.980293    19.768169    20.869325    8242.8367     6170.164    6960.6186    5177.2228    -64.28576   -325.93079    884.38206    -3464.016 
13816000    282.01778   -4688.9123   -4145.0173   -4688.9123            0    4044.6853    20.044084    20.022991    20.741581    8324.4783    2539.4913    4768.7262    4825.8385   -340.47193    1025.0821   -791.23102   -3653.9764 
13817000    262.29746   -4705.3676   -4199.5049   -4705.3676            0    4556.4212    20.280697    20.027958    20.442241     8303.249    3713.4455     4240.223    5715.5952    596.81572   -725.02967   -507.11614    -3647.748 
13818000    269.14914   -4705.5212   -4186.4445   -4705.5212            0    7541.8674    20.060215    19.963024    20.600136     8249.583    9115.7739    5789.7803    7720.0479   -544.15128    1491.3131    571.19824   -3279.0695 
13819000     259.5552   -4729.3442   -4228.7701   -4729.3442            0    4663.1383    20.172709    19.766885    20.851746    8314.6674    4048.4453    5119.6588    4821.3107    567.49742   -203.91293   -147.66976   -3663.3138 
13820000    264.49778   -4694.6409   -4184.5346   -4694.6409            0    3642.1108    19.889951    20.008978    21.063448    8382.7801    4742.0709    3535.6229    2648.6386   -15.002779     1754.835     912.1935   -3739.2711 
13821000    261.01345   -4682.5317   -4179.1453   -4682.5317            0    5853.3889    19.772015    20.201777    20.756996    8290.9632     7371.041    4640.1842    5548.9416   -490.30599   -1200.6314    129.09612   -3471.3816 
13822000    284.48392   -4672.9331   -4124.2819   -4672.9331            0    2767.7911    20.218311     20.16336    20.698863    8438.2867    1952.7254    4442.0723    1908.5757   -559.61525   -1741.7112    223.48951   -3783.6672 
13823000    261.24193   -4726.7022   -4222.8752   -4726.7022            0    4749.8175    20.176357    20.082362    20.545401    8324.7686    5525.2903    3765.2682    4958.8941     925.9798   -1003.1363   -90.451164   -3646.2083 
13824000    258.00103   -4711.7514   -4214.1747   -4711.7514            0    5104.0748    19.937185    20.052365    20.811129    8320.0331    4900.6375    5223.9447    5187.6423   -1109.9962   -670.09186    987.82381   -3594.8506 
13825000    259.40184   -4693.4951   -4193.2169   -4693.4951            0    5583.7624    19.891202    20.109774    20.659592    8263.9933    4686.9263      5986.44    6077.9208      55.0361   -209.72898    1363.0322   -3520.2514 
13826000    268.88567    -4702.601   -4184.0324    -4702.601            0    5971.4242    20.178747    20.025187    20.415072    8249.3872    6436.7499    5030.4552    6447.0676   -894.77765    847.56993   -202.67057   -3465.6172 
13827000    251.75504    -4705.505   -4219.9742    -4705.505            0    5188.6137    19.886595    20.095933    20.588509    8227.9852    5446.1245    5451.8264    4667.8901   -818.86475    390.01286   -1256.6839   -3597.3576 
13828000    271.67765   -4666.9136   -4142.9604   -4666.9136            0    5187.1951     20.31006    19.865755    20.600862    8311.9261    4647.3871    6321.5221    4592.6762    722.36198    307.31132    1042.4622   -3514.1638 
13829000    260.57301   -4704.9393   -4202.4024   -4704.9393            0    5245.7656    19.946668    19.880708    20.874465    8277.8497    7040.5803    4955.0665    3741.6499    130.35421    923.89614   -285.61734   -3569.1128 
13830000    262.18579   -4655.6693    -4150.022   -4655.6693            0    6087.0067    20.115505    19.825921    20.692161    8252.2078    4988.5597     6822.775    6449.6852    758.67281    -4.491426   -1451.0021   -3417.4508 
13831000    276.81878   -4694.9525   -4161.0842   -4694.9525            0    5093.0295    20.137928    19.972792    20.557718    8268.5329    4918.5016    4552.1831    5808.4039   -353.37394    55.800581     399.2089   -3546.9256 
13832000    265.38276   -4717.9556   -4206.1427   -4717.9556            0    4836.4142    20.035728    19.836826    20.816126    8273.2704    4669.3754    5561.6688    4278.1983   -6.3303064    672.19604    60.597178   -3622.5947 
13833000    263.12283   -4678.3732   -4170.9187   -4678.3732            0    4990.8988    20.024721    20.018656    20.787976    8333.2342    7869.7052    3565.7261    3537.2652    418.43948    159.73823    939.31696   -3564.3664 
13834000      276.191   -4676.0288   -4143.3712   -4676.0288            0    7002.1958    20.037084    20.025354    20.512733    8230.7279    7756.3432    6543.0338    6707.2103   -299.97031   -181.53286   -883.73757   -3302.8505 
13835000     255.4325   -4700.3966   -4207.7735   -4700.3966            0    5426.3779    20.015636     19.98694    20.704215    8282.7482    5219.6183    6045.4094    5014.1062    457.72501   -483.15531   -75.896682   -3552.2921 
13836000    261.69778   -4699.6652    -4194.959   -4699.6652            0    6257.7111     19.85847    19.850663    20.953579    8259.9805     6651.379    6798.5116    5323.2428   -157.89958    275.38254    989.42411   -3441.1342 
13837000    256.46009   -4694.9888    -4200.384   -4694.9888            0    4757.0834    20.076991    19.861383    20.848577    8313.5121    5916.4629    4741.0252    3613.7622    70.149781   -1025.4023    481.15319   -3623.6159 
13838000    260.63123    -4689.195   -4186.5458    -4689.195            0    4467.9116    20.028376    20.250494    20.561136     8339.278    4391.2944    4717.7502    4294.6904   -539.10536   -290.06725   -878.09503   -3643.1592 
13839000    255.33199   -4736.2236   -4243.7944   -4736.2236            0    4056.5428    20.164029    20.022489    20.590722    8313.1756    3302.6704    4799.9822    4066.9758    -467.6211    -747.9384    145.78635   -3751.9826 
13840000    272.04797   -4722.0183   -4197.3509   -4722.0183            0    3994.6723    19.916716    20.097047    20.769448    8313.3281    4524.8881    1990.7212    5468.4077    160.65083    342.15387    946.62374   -3713.0314 
13841000    254.84979   -4684.6241   -4193.1248   -4684.6241            0    6878.9716    20.141191    19.857518    20.764615     8304.892    5119.7373    7994.4634     7522.714   -399.80593   -567.30055    272.77141   -3359.9553 
13842000    271.51214   -4707.9646   -4184.3306   -4707.9646            0    5360.0217    20.069672    20.318068    20.365203    8304.4605    6332.3369     3907.031    5840.6973   -259.72159     679.7624    292.37482   -3535.1674 
13843000    276.17492   -4703.0302   -4170.4036   -4703.0302            0    4826.5387    20.211031    20.032955    20.612215    8345.6114    2105.5826    6524.3689    5849.6646    125.23665     108.9798   -276.30609    -3582.955 
13844000    274.15923    -4715.942   -4187.2028    -4715.942            0    5225.5865     20.11717    19.811044    20.803957    8291.2534    4902.4411    6220.4795    4553.8389   -305.18555   -707.05407   -133.09314   -3555.3279 
13845000    254.13135   -4713.8141   -4223.7004   -4713.8141            0    5508.7316    19.852967      20.1373     20.64799    8254.7598    8706.0427    2586.4967    5233.6555   -307.29427   -705.64736   -281.00784   -3560.5196 
13846000    268.86513   -4687.9597   -4169.4307   -4687.9597            0    5709.5544    20.116316    19.918465    20.558214    8237.3914    5674.8561    5185.7795    6268.0276   -654.20386   -1282.5657   -592.52096   -3483.5196 
13847000    264.39805   -4696.6166   -4186.7027   -4696.6166            0    4376.5336    19.987666    20.212564    20.527043    8292.9657    5975.8095    3417.7724    3736.0188   -253.63106    1232.4442     573.9296   -3657.3855 
13848000    259.59027   -4684.2133   -4183.5716   -4684.2133            0    5703.6113    20.059404      19.9093    20.699549    8266.7521    6594.9764    4841.5664     5674.291   -117.42213    915.44835    405.56078   -3495.9322 
13849000    257.70234   -4687.6529   -4190.6523   -4687.6529            0    5457.5368     19.94063    19.703829    21.009898    8254.9312    5395.5049    6187.4172    4789.6883    125.44253   -217.06494    -2156.933    -3533.621 
13850000    275.36753   -4715.1218   -4184.0524   -4715.1218            0    5907.1148    20.071176    20.004156    20.650351    8291.2589    6358.5781    4500.2788    6862.4876    261.72498   -477.70427   -1361.2927    -3469.767 
13851000    257.68875   -4720.4809   -4223.5064   -4720.4809            0      3974.57    20.331559     20.00822    20.350415    8278.5143     1569.414    4365.4845    5988.8114   -183.84609    1193.4035    176.73555   -3743.6421 
13852000    262.96221   -4696.4082   -4189.2634   -4696.4082            0    4691.4044    20.027926    20.093761    20.746793    8349.2639    5766.5368    2509.3691    5798.3072   -409.36005   -992.24485    1238.8174   -3618.0125 
13853000    279.42251   -4708.4562   -4169.5664   -4708.4562            0    6427.9447    19.924676    20.064071    20.548606    8214.7185    3961.3444    7322.8633    7999.6265    709.28031   -328.22366   -624.44881   -3399.4777 
13854000    283.49929    -4717.722   -4170.9697    -4717.722            0    5224.5415    20.079733    19.934363    20.711163    8290.1957    3325.9523     6757.586    5590.0861     116.7121    1030.6933    -1740.402   -3539.3018 
13855000    278.73042    -4674.085   -4136.5299    -4674.085            0    4483.0179    19.913515    19.951515    20.984166    8337.1098    4563.8616    6088.9866    2796.2055    358.18164    431.14066   -691.84345   -3591.4479 
13856000    261.84991   -4719.7395   -4214.7399   -4719.7395            0    7933.0761    20.150397    19.846324    20.532839    8211.3143    8642.0735    7070.4908    8086.6641    414.03094   -576.87057    171.65993   -3264.7255 
13857000    269.75248   -4701.5485   -4181.3082   -4701.5485            0    6202.6153    20.045528    19.929945    20.602465    8230.8141    7669.4216    5506.7373    5431.6869    145.69597    489.90893   -13.957325   -3436.7588 
13858000    266.24988   -4679.8581   -4166.3728   -4679.8581            0    5234.1588    20.095191    19.982916    20.870326    8380.6986    4845.3073    6270.8249    4586.3442    202.36179   -670.91834   -982.01098   -3526.6335 
13859000    270.79268   -4704.5377   -4182.2913   -4704.5377            0    4929.5673    19.980248    19.941176    20.770783    8275.6956    5527.8516    4607.3809    4653.4692     518.5056   -629.18918    884.87446   -3587.3293 
13860000    273.67984   -4681.8735   -4154.0589   -4681.8735            0    4787.0675    20.001504    20.130631    20.541647    8270.9481     6038.323    2415.1771    5907.7025    52.511848    289.48138   -210.02943   -3576.6271 
13861000    275.71008   -4669.2001     -4137.47   -4669.2001            0     6871.566     19.82906    19.717215    20.982883    8203.7583     8315.388     6037.813    6261.4971    655.89806    2376.7326   -93.605201   -3315.3325 
13862000    265.88696   -4690.9341   -4178.1487   -4690.9341            0    4819.7184    20.139131    19.789347    20.810461    8293.8068     4546.651    5424.7724    4487.7319    23.610165    1174.4719    -735.5629   -3595.1717 
13863000    257.40448   -4708.6468   -4212.2206   -4708.6468            0    5859.4888    19.910738    20.052556    20.737119    8279.5267    7723.1714    5458.8144    4396.4806   -175.76086    77.785258   -333.93656   -3504.6967 
13864000    274.35191   -4704.1923   -4175.0815   -4704.1923            0    5360.4735    20.221664    19.924175    20.593569    8297.1482    5047.5818    5523.2686      5510.57    165.20066    1064.1902    732.74887   -3526.4353 
13865000    272.76348   -4716.3869   -4190.3396   -4716.3869            0    4776.5799    20.118736    20.011803    20.585868    8288.1214     4919.633    4391.6969    5018.4098   -253.65083    735.81265    922.33898   -3612.9764 
13866000    250.91332   -4699.2907   -4215.3833   -4699.2907            0    6762.0445    19.836069    20.021366    20.617571    8188.1691    3785.0152    8558.2448    7942.8734    128.26335    1208.6571   -1347.2663   -3407.8867 
13867000    261.24745   -4724.8845   -4221.0468   -4724.8845            0    6244.7161    19.837337    19.957409    21.025553    8324.0555    7125.6364     6199.937     5408.575   -821.22324   -111.07596    568.35482    -3462.952 
13868000    259.78603   -4707.7747   -4206.7555   -4707.7747            0    4709.1092    20.083005    20.032112    20.676289    8318.1745    6080.2804    3208.9682    4838.0788    182.92728    243.52184    438.36154   -3635.4838 
13869000    263.20917   -4718.5134   -4210.8924   -4718.5134            0    5805.6427    20.089766    20.080529    20.458016    8253.0324    5939.5816    5698.8457    5778.5008   -283.39943    1231.3085    1086.1985   -3512.1135 
13870000    272.36322   -4697.4995   -4172.2241   -4697.4995            0    6581.9792    20.042204    19.855648    20.732151    8250.3795    7072.8221     6572.673    6100.4426    741.47045    131.18295   -340.41049   -3380.2585 
13871000    258.17698   -4719.3329   -4221.4169   -4719.3329            0    4940.2854    19.974603    20.007242    20.921676    8361.0697     6030.264    4488.7684    4301.8237   -12.022949   -576.67098   -69.587223   -3619.0103 
13872000    264.81594   -4668.6674   -4157.9476   -4668.6674            0    5044.5832    20.173953    20.085187     20.63682    8361.9901    3932.6037    6696.6941    4504.4517   -147.69343   -364.93815   -819.46164   -3542.7554 
13873000    262.06879   -4692.5703   -4187.1486   -4692.5703            0    4979.0493    20.230505     20.03129    20.551428    8328.3245    4504.9234    5612.3344    4819.8901    288.72943   -537.18414    1747.6738    -3582.393 
13874000    262.54647   -4682.1512   -4175.8082   -4682.1512            0    7044.8979    19.930074    19.970567    20.810928    8283.0591    7517.1881    6397.7745    7219.7312    358.04827    404.39323    482.40207   -3324.7851 
13875000     281.4944   -4686.8292   -4143.9436   -4686.8292            0    7739.0771     19.81997    19.994745    20.709141    8206.9338    7792.0525    8608.3404    6816.8384    31.078082    193.28041    1281.0606   -3217.6557 
13876000    259.14132   -4720.9709   -4221.1951   -4720.9709            0    6197.7236     19.81632    20.044323    20.847899     8280.884     8302.409    4658.8661    5631.8956    -110.7989   -4.4508406    257.03011   -3472.7072 
13877000    268.58959   -4716.4415   -4198.4439   -4716.4415            0    4728.7521     20.08631    20.099591    20.564096    8302.2729    4462.0501    4539.2992     5184.907    679.42399   -628.56236   -1384.0892   -3625.8859 
13878000    247.00168   -4676.7213   -4200.3578   -4676.7213            0    5776.6997    20.340296    19.965867    20.365334     8270.599    3119.7401    7078.2833    7132.0757    470.34148    534.42464   -208.10674   -3503.5827 
13879000    273.97662   -4674.3855   -4145.9985   -4674.3855            0    5707.0203     20.01751    19.865074    20.741631    8247.8954    5822.0827    7242.7759    4056.2023    55.249333    1550.5517    -302.3484   -3459.5176 
13880000    256.95227   -4724.2077   -4228.6536   -4724.2077            0    4805.3497    19.825128     20.05768    20.778692    8262.5652    5726.3808    4432.7702    4256.8981   -219.48598    19.479029    1327.9667    -3649.604 
13881000    250.12303   -4701.8396   -4219.4563   -4701.8396            0    7645.1802    20.008882    19.929891    20.613611    8220.1893    6868.1423     8444.373    7623.0254    216.79433    110.56428    228.10339   -3302.9289 
13882000    263.38561   -4662.7012   -4154.7399   -4662.7012            0    4580.8538    19.972866    20.045227    20.897341     8366.473     6270.938    4559.0983    2912.5252   -242.98353     875.3191   -1076.0202   -3595.8005 
13883000    286.35121   -4701.0644    -4148.812   -4701.0644            0    6278.3455    19.856694    19.969843    20.756401    8230.6405    7521.9989     5392.806    5920.2315    365.22382    489.18162    1968.5269    -3395.188 
13884000    254.16522   -4694.5305   -4204.3515   -4694.5305            0    5247.6908    20.237754    20.161272    20.269501     8270.339    4489.2571    3900.2966    7353.5188   -9.1962002   -295.84946    664.95125   -3571.4043 
13885000    250.70755   -4669.5504   -4186.0398   -4669.5504            0    7608.1961    20.083874    19.990278     20.51174    8235.0988    6947.3229    7698.9925    8178.2728   -454.92906    1118.0517         2095   -3272.2919 
13886000     267.7269   -4698.6587   -4182.3249   -4698.6587            0    5293.5145    20.026019    20.022819    20.775971    8330.6942    5740.9836     4274.303    5865.2568   -206.62447   -1736.0965   -1311.5454   -3539.1913 
13887000    265.28974   -4720.0684   -4208.4348   -4720.0684            0    5287.6999      20.0491    19.951454    20.764548    8305.9998    7351.0217    3231.1037    5280.9744   -444.54019    873.44233   -592.32223   -3567.9119 
13888000    259.59083   -4693.4572   -4192.8144   -4693.4572            0    5356.9998     20.14755    19.675645    20.733219    8218.9808    3794.6027    8337.9497    3938.4469   -337.87516    1413.0582   -1090.5818   -3550.6955 
13889000    249.23299   -4707.8459   -4227.1791   -4707.8459            0    6737.9024     19.87446    20.112592    20.495113    8192.4481    5234.8534    7816.8844    7161.9694   -363.23795    792.33708   -208.59602   -3422.1449 
13890000    260.27682   -4679.7851   -4177.8193   -4679.7851            0    4090.1863    20.187788    19.946828    20.612374    8300.2392    2836.8349    4596.3114    4837.4126   -246.81723   -973.57292    1318.3628   -3682.7003 
13891000    271.35604   -4715.3247   -4191.9917   -4715.3247            0    4932.1236     19.90823    19.822087    20.925159    8257.5419    5979.0115     4856.861    3960.4982   -460.06092    1730.3829   -1752.5835    -3598.027 
13892000    268.37462   -4696.3408   -4178.7578   -4696.3408            0    5622.5652    19.796138    20.132551    20.638362    8225.3525    3518.0374    8248.9366    5100.7216   -64.122146    1242.4425    1142.4397   -3504.2842 
13893000    258.76449   -4703.2967   -4204.2477   -4703.2967            0     5815.989    20.164699    19.901839    20.751421     8327.848    4092.5092    7703.8563    5651.6015   -163.53306   -1510.9421    357.82494   -3497.8777 
13894000    267.56195   -4702.0872   -4186.0715   -4702.0872            0    5902.6259    19.815407    20.076609    20.773834    8264.3748    6773.8792    5624.6352    5309.3633   -744.75854   -310.97649   -435.21014   -3474.6432 
13895000    267.06885   -4707.3322   -4192.2675   -4707.3322            0    3910.6547    20.187726    19.994409     20.67524    8345.3883    2755.4078    4473.3265    4503.2298   -557.48758   -251.33323     -507.324   -3716.3059 
13896000    253.48947   -4696.6333   -4207.7576   -4696.6333            0    5068.7597    19.811775    20.108613    20.756595    8269.1644    7780.9421    3674.6049     3750.732   -264.46804   -930.80332    1056.1192   -3596.4789 
13897000    245.18226   -4694.4127   -4221.5581   -4694.4127            0    4427.1488     19.99949    20.105665    20.690545    8319.7309     3132.322    5634.7995    4514.3249    130.73636    1058.0627   -613.72939   -3684.3912 
13898000    258.42457   -4713.9706   -4215.5771   -4713.9706            0    5926.1294    20.152654    19.940076    20.641655    8294.7551    5933.2746    6174.1806    5670.9329   -72.452236   -6.6751665   -1626.7218   -3498.6903 
13899000    267.32131   -4678.7948   -4163.2431   -4678.7948            0    3946.7579    20.056527    20.204252     20.63002     8359.844    5115.0895    2452.5777    4272.6063   -263.89237    134.76366    742.00657   -3682.0554 
13900000    254.89112   -4692.4554   -4200.8764   -4692.4554            0    4764.9412    20.145029    19.862569    20.610813    8247.0466    5441.7001    3967.1431    4885.9803   -468.93629     287.7119    1379.1009   -3627.7745 
13901000    266.71263   -4657.0012   -4142.6235   -4657.0012            0    6753.7434    19.968459    19.948869    20.678517    8237.2497    6331.1457    7272.8894    6657.1951    179.03251   -417.53082    259.38491   -3331.2839 
13902000    270.11725   -4691.1921   -4170.2483   -4691.1921            0    4875.1936    20.262159    19.848767    20.723779    8334.6657    4353.0937    4062.2301    6210.2569   -108.34551    214.16421    248.48957    -3577.656 
13903000    262.47687   -4703.4972   -4197.2885   -4703.4972            0    5217.8748    20.097655     19.98707    20.750829     8335.468    6883.7979    4506.6739    4263.1527     192.6584    149.23059   -881.19362   -3562.9815 
13904000     264.9741   -4703.5257   -4192.5009   -4703.5257            0    4366.3687    20.081264    20.091242    20.516705    8277.6189     5842.614    2076.3506    5180.1416   -116.68887    530.01342   -1217.0209   -3665.3903 
13905000    262.83501   -4696.5036   -4189.6042   -4696.5036            0    6576.1625    19.970779    19.914639    20.776135    8262.8944    7504.7394    7803.1759    4420.5722   -347.75268    1020.7148    1960.0646   -3397.1382 
13906000     247.5647   -4686.8871   -4209.4378   -4686.8871            0    5809.3057    19.973987    20.095486    20.669237    8296.3626    5218.8074    6285.1132    5923.9966   -139.97782    650.21054    1521.0548    -3506.547 
13907000    263.87954   -4680.5137   -4171.5998   -4680.5137            0    5796.0241    20.015663    19.820489    20.763214    8237.1871    6599.7922    4995.6033    5792.6767   -109.68775    1025.5385   -1835.7689   -3475.3181 
13908000    259.76427   -4716.6465   -4215.6692   -4716.6465            0    6088.7747    20.089615    19.926144    20.619138    8254.0176    5398.0023    6967.6799    5900.6419   -591.80981   -1114.9134       1541.4   -3482.7246 
13909000    255.08058   -4701.4453   -4209.5009   -4701.4453            0     5471.179    20.140753    19.957271    20.588818    8275.7676     6427.569    4663.4633    5322.5047    1363.0025   -224.48072    873.28665   -3549.1647 
13910000     256.1834   -4676.4714   -4182.4001   -4676.4714            0    2946.9229    20.201333    20.159414    20.602443    8390.2838    2731.3066    3061.2256    3048.2365    464.24794   -511.51687   -1016.8066   -3821.8038 
13911000    248.31214   -4692.6026   -4213.7117   -4692.6026            0    4544.9285    20.109782    19.945183    20.733712    8316.1526    5761.9306    3948.3858    3924.4691    35.109216    1086.3358    152.71998   -3662.4912 
13912000    263.38965   -4693.2096   -4185.2405   -4693.2096            0    4643.3039    19.905379    19.984863    20.972905    8343.1534    6462.7031    4155.9921    3311.2164   -692.23175    418.39243   -1518.5544   -3620.2603 
13913000    267.92912   -4698.2494   -4181.5256   -4698.2494            0    5509.1907    20.189861    19.933849    20.693367    8328.2865    4800.7858    5720.0985    6006.6879   -239.39869    354.63295    697.34211    -3512.382 
13914000    259.35248   -4695.9691    -4195.786   -4695.9691            0    5914.9313    20.123477    20.048786     20.46368     8256.098    5475.4063    6267.9202    6001.4674     239.8306    676.16731   -151.49007   -3483.5885 
13915000    264.70152   -4700.4682   -4189.9691   -4700.4682            0    7157.2316    20.122711    20.017275    20.475904     8247.732    6899.5899    7071.4907    7500.6143    368.51249    734.09493    108.33296   -3329.0635 
13916000    268.91063   -4686.5176   -4167.9008   -4686.5176            0    2965.1293    19.915083    20.041203    20.979862    8373.5289    3249.6948    3904.8016    1740.8916   -563.23311   -568.02568    405.30022   -3805.8012 
13917000    271.92553   -4709.7035   -4185.2722   -4709.7035            0    5355.1964    20.098755    19.838718    20.837179     8308.482    5756.6118    4815.0612    5493.9162    77.329257     -481.481    246.78322   -3536.3794 
13918000    275.31638   -4680.2186   -4149.2478   -4680.2186            0    5112.1646    19.850904    20.071435    20.730607    8259.8232    3955.8881     6529.904    4850.7015    186.45679    666.82716   -1682.3463   -3533.4311 
13919000    277.60303   -4679.6596   -4144.2788   -4679.6596            0     6471.501    20.263588    19.914085    20.408937    8235.6348    5144.8912    7238.0816      7031.53    239.70066     -625.619    1026.2952   -3366.9979 
13920000    260.99926   -4669.7958   -4166.4368   -4669.7958            0    6635.8315    20.055032    20.064122    20.428342    8220.0911    6794.9355    5918.6088    7193.9503   -28.539016   -981.89397   -1299.4875   -3370.9227 
13921000    277.98564   -4709.6813   -4173.5626   -4709.6813            0    4348.7369    19.972707     20.14616     20.63552    8303.1834    5194.0376    3542.8656    4309.3074    70.707761   -55.628783   -220.26422   -3646.9592 
13922000     262.3916    -4698.031   -4191.9867    -4698.031            0    7756.1572     19.98549    19.759606    20.657711    8157.8418    6110.0794    10100.061    7058.3308   -126.57334    174.56017    551.48513   -3269.2076 
13923000    254.57719   -4709.1392   -4218.1656   -4709.1392            0    5674.4722    19.975635    20.065198    20.677927    8288.0248    3633.4288     6543.569    6846.4189   -476.22947   -165.25769    417.94562   -3532.2789 
13924000    266.76234   -4696.8143   -4182.3407   -4696.8143            0    5577.5335    20.219437    19.976447    20.354821    8221.5669    5594.3829    4836.9435    6301.2742   -183.44566   -599.07431   -925.89575    -3513.577 
13925000    262.97668   -4696.4169   -4189.2442   -4696.4169            0    5446.9286      20.0223    19.923165    20.601628    8218.1461    7302.3385    3202.7942    5835.6531    6.5758926   -328.98367    1161.7099   -3536.4123 
13926000     257.4211   -4706.8669   -4210.4087   -4706.8669            0    5900.1064     20.10149    20.072284     20.49165    8268.0287    6492.1617     5897.185    5310.9726    -171.8434   -1146.2635    1373.0685   -3498.9696 
13927000    260.41188   -4684.9665   -4182.7403   -4684.9665            0    6513.4169    19.985421    19.996122    20.701376    8272.9096    6477.2924    7580.2897    5482.6686     507.2523   -657.43102    875.71858   -3396.8841 
13928000     265.4422   -4697.7348   -4185.8072   -4697.7348            0    4291.7895    19.875245    19.897676    20.993723    8302.4124    3982.2205    4794.3448    4098.8032    210.60152   -354.20263   -38.414879    -3666.148 
13929000    267.73202   -4674.3415   -4157.9978   -4674.3415            0    5316.0431    19.961529    20.023589    20.775119    8303.8453    6840.6836    4418.0926    4689.3531   -201.69884   -335.57214   -424.98746   -3514.2087 
13930000    271.34611   -4690.9871   -4167.6734   -4690.9871            0    6982.4854    20.231201     19.86394    20.513602    8243.8293    6653.4551    7994.8304    6299.1707    168.65629    1170.1946   -686.42054   -3328.1845 
13931000    271.10051   -4718.7869   -4195.9468   -4718.7869            0     5429.912    20.203033    20.050023    20.548901    8323.7691    4753.6328    5293.9779    6242.1254     -47.5077   -610.82023   -1187.3738   -3536.7901 
13932000    268.70272   -4711.3321   -4193.1163   -4711.3321            0     6996.173    19.944133    19.966614     20.68603    8237.5247    7152.1679    6784.8801     7051.471    574.91244   -108.07722   -3340.3706   -3352.6252 
13933000    248.99083   -4685.3625   -4205.1628   -4685.3625            0    7008.9311    19.999169    19.797533    20.725946    8206.1111    5923.2345    8171.5537    6932.0049    414.56409   -140.69483   -275.11546   -3366.3499 
13934000    253.51368   -4699.5305    -4210.608   -4699.5305            0    6533.4842     19.94128    20.030531    20.630823    8240.6609    4921.4614    8220.9569    6458.0343   -608.86138    -217.6984   -1388.8232   -3425.4035 
13935000    271.68406   -4692.9547   -4168.9891   -4692.9547            0    6087.4346    20.278326    19.885323    20.579972    8298.6898    5613.9168    5296.2031     7352.184   -553.07179    37.299514    739.11526   -3432.2398 
13936000    268.83073   -4680.0658   -4161.6031   -4680.0658            0    6107.2383    19.898631    20.116299    20.716513    8292.5468     5404.377     7143.107     5774.231   -67.563587   -1339.3458    563.24078   -3423.0042 
13937000    258.27091   -4700.5612   -4202.4641   -4700.5612            0    4354.2089    20.136704     19.93316    20.731919    8321.5464       2126.8    6951.3231    3984.5035   -747.41634   -1286.7501    -271.4622    -3674.032 
13938000    272.89746   -4695.7317    -4169.426   -4695.7317            0    4521.9041    19.940876     19.99257    20.762664    8277.4377    5014.1568    5123.3679    3428.1876   -581.36903    32.989537    1379.3101    -3623.551 
13939000    255.83586   -4702.1374   -4208.7364   -4702.1374            0    5709.8457    20.032735    20.008185    20.639484    8272.6903    4041.4992    7509.4423    5578.5957   -80.972086    725.15606    686.95473    -3519.851 
13940000     267.4457   -4666.9905    -4151.199   -4666.9905            0    5833.0283    20.046881    20.156938    20.619251    8331.9041    5450.8837    6107.7523    5940.4489    1323.9903    807.76471     1415.221   -3442.4144 
13941000    268.88218   -4691.7339    -4173.172   -4691.7339            0    4807.4169    19.937481    19.788541    20.881198    8238.3355    3578.7793     7024.395    3819.0764    306.79348    -468.7979    822.02264    -3595.572 
13942000    280.90289   -4712.1129    -4170.368   -4712.1129            0    6150.8028    20.017274    19.838366    20.774141    8249.6198    6624.5633     7048.041    4779.8041    615.85128    1577.8051    281.78299   -3430.3511 
13943000    267.79796   -4698.6554   -4182.1845   -4698.6554            0    5816.5767    20.143661    19.849329    20.688252    8271.9523    5881.8106     5667.801    5900.1186     -166.386    2418.5887   -471.73014   -3480.4847 
13944000    266.14157   -4672.1515   -4158.8751   -4672.1515            0    5834.2761    19.864078    19.895661    20.967734    8286.6364    6176.7129    5988.2757    5337.8398    662.91596   -430.67701   -1355.5688   -3453.7907 
13945000    264.04187   -4690.5868   -4181.3598   -4690.5868            0    4205.3741    20.138264    19.938457    20.795142    8349.7883    3896.1892      5501.97    3217.9631   -481.16469    560.83054    892.57271   -3669.2584 
13946000    259.46912   -4690.5611   -4190.1531   -4690.5611            0    6134.6896    20.078426    20.009247    20.603647    8277.6017    7376.4882    4748.8924    6278.6882    5.0407738   -304.52059   -48.823335   -3449.5713 
13947000    257.42999   -4692.2722   -4195.7968   -4692.2722            0    6570.8658    19.882117    20.191168    20.575454    8259.8754    7249.6092    4823.9738    7639.0145   -281.55721   -159.33648   -1652.2456   -3404.2584 
13948000    267.93249   -4695.3876   -4178.6572   -4695.3876            0    5204.0148    20.032572    20.052343    20.763282    8340.6102    6484.7449     3579.793    5547.5065   -1221.5804   -529.54667    1353.4592   -3545.6448 
13949000      270.001   -4682.0989   -4161.3793   -4682.0989            0    5942.1163    19.904124    20.288542    20.468686    8265.7808    6798.8656    4356.2512    6671.2322    453.51298    842.87605   -464.25219   -3445.0694 
13950000    258.84722   -4688.5853   -4189.3767   -4688.5853            0    7732.1095    20.055669    19.872524    20.509464    8174.1857    5748.0132    10106.362    7341.9537   -451.24372     2020.482    1619.0647   -3267.6156 
13951000     239.8458   -4660.4063   -4197.8435   -4660.4063            0     4781.629    19.918956     20.22131    20.625935    8307.8664    5350.8287    3307.9301    5686.1283    7.3098786   -1170.5899    636.18968   -3618.4931 
13952000    265.94755   -4700.7829   -4187.8806   -4700.7829            0    5934.3831    19.986149    20.054344    20.789735    8332.7151    5789.8989    6547.3919    5465.8586    737.64927    504.80496    15.109034   -3466.7101 
13953000    264.97608   -4725.4514   -4214.4228   -4725.4514            0    5245.6992    19.986381    20.242845    20.522234      8302.91    5282.5203    4937.8094    5516.7678   -733.10268    385.81441   -482.50234   -3579.2241 
13954000    257.56707   -4708.3276   -4211.5878   -4708.3276            0    4552.7895    19.952797    20.045193    20.645522    8257.3347    4417.8585    3541.3656    5699.1444   -241.62092   -718.67664   -1683.2386   -3663.3193 
13955000    257.65545    -4715.178   -4218.2678    -4715.178            0    6300.2703    19.872671     20.02971    20.783823    8272.8726    7210.6018    6305.2815    5384.9274    228.88216     870.0516   -192.55473   -3458.1317 
13956000    262.87753    -4716.105   -4209.1235    -4716.105            0    7043.7818    19.986516    19.626728    20.890501     8194.715    7823.3985    7872.1872    5435.7598   -938.68658   -1201.1875    964.45648   -3367.3105 
13957000    262.96252   -4699.0553   -4191.9099   -4699.0553            0    2891.4432    20.125673    20.065795    20.696381    8357.9778    4022.5394    1499.3891    3152.4011   -695.76443   -147.23648   -58.769909   -3839.4646 
13958000    262.06396   -4683.1227   -4177.7103   -4683.1227            0    6504.1647    20.156824    19.967455    20.580616    8283.2962    5767.0195    6474.7661    7270.7084   -457.68069     39.91304    628.90758   -3391.9852 
13959000    263.43005   -4706.4897   -4198.4427   -4706.4897            0    3581.8735    19.935169    19.960104    20.877726    8307.4155    2894.1403    2969.1981    4882.2822    211.60507    1578.9407   -1000.8556   -3764.4804 
13960000    276.32372   -4687.3894   -4154.4759   -4687.3894            0    5951.9785    20.103618    19.855337    20.707281    8265.6035    7214.0219    4889.2651    5752.6486   -90.753874   -852.95736    343.61688   -3436.9926 
13961000    260.37236   -4679.3308   -4177.1808   -4679.3308            0     4787.757    20.166564    20.094212    20.441357     8283.476    4305.3428    4255.9238    5802.0044   -1098.6261   -281.71791   -543.68882    -3598.791 
13962000    269.45371   -4698.4938   -4178.8297   -4698.4938            0     5422.693     20.13065    20.133862    20.396357    8266.8008     5745.786    3860.0478    6662.2452   -18.189753    1295.0141    542.81761   -3525.0546 
13963000    281.12464     -4707.42   -4165.2475     -4707.42            0    5419.5964    19.852839    19.961507    20.809491    8246.6469    6320.0175    5056.8367    4881.9349   -614.23153     433.9269   -1857.3126   -3513.4387 
13964000    262.08992   -4680.5117   -4175.0492   -4680.5117            0      5676.42    19.997504    19.895108    20.847832    8294.3622    6171.5478    6745.3722      4112.34   -408.07459    1501.0883   -227.96692   -3488.4024 
13965000    255.41468   -4727.1731   -4234.5844   -4727.1731            0    6479.3053    20.072273    19.985788     20.59182    8260.6185    6839.1706    6056.3439    6542.4013   -501.33533    662.58308   -1787.8552   -3454.0053 
13966000    252.92069   -4686.6133   -4198.8345   -4686.6133            0    8714.5523    19.997689    19.871943    20.474802    8136.5416    8291.8136    9466.7831    8385.0603    602.96705   -1843.1544   -848.15527   -3164.7386 
13967000    244.64387   -4687.6576   -4215.8413   -4687.6576            0    8221.3176     19.97977    19.845833    20.678145    8199.1984    6883.7135    9716.3519    8063.8874    2.8908025   -87.951213   -95.068762   -3232.7616 
13968000    276.89859   -4698.7943   -4164.7721   -4698.7943            0    5426.1732    20.117724    20.149032    20.601645    8350.9316    5708.0145    4939.6867    5630.8183    787.20073    562.27263    820.42298   -3503.9197 
13969000    266.52693   -4692.6361   -4178.6165   -4692.6361            0    6183.1564    20.115048    19.821847    20.761276    8277.8816    6618.5661    5683.4123    6247.4907    743.32378    -625.5026   -1010.3798   -3432.1586 
13970000    249.17283    -4692.689   -4212.1383    -4692.689            0    6290.9449    19.883419    19.988283    20.661752    8211.7117    5654.9613    6054.4303    7163.4431    86.001318    1145.2848   -238.12938   -3458.7385 
13971000    262.77455   -4695.4054   -4188.6226   -4695.4054            0    6413.3019    20.113106    19.737281    20.654261    8199.2877    7137.2657    6317.2603    5785.3795   -27.467105   -763.95734   -449.77653   -3421.7315 
13972000    253.19746    -4693.418   -4205.1054    -4693.418            0    7319.8306    20.038958    20.048797    20.469823    8223.8945    7974.5191    5934.9173    8050.0555   -353.73317   -210.64038     143.3726   -3327.1864 
13973000    261.52046   -4703.8588   -4199.4946   -4703.8588            0    6521.6898    20.101501    19.917138    20.534889    8221.4379    6173.5169    6080.7461    7310.8063   -235.42777   -1075.7356    851.17277   -3417.5359 
13974000    266.73189   -4711.8613   -4197.4465   -4711.8613            0    3647.1336    20.091689    20.019049     20.79363    8363.5415    3362.8847    3660.8787    3917.6373   -369.80642   -492.03148    102.43389   -3752.5922 
13975000    251.89131   -4693.1323   -4207.3387   -4693.1323            0    7238.8556    19.856374    19.795141    20.804556     8177.433    7672.8267    8137.8253    5905.9148    415.52586    542.30155   -24.749341   -3344.0366 
13976000    266.21589   -4699.4481   -4186.0284   -4699.4481            0    4787.7658    20.005679    19.994886    20.761483    8304.8272    3473.6617    5898.7664    4990.8693    407.51956   -1029.6516     181.5234   -3606.1467 
13977000    273.58541   -4657.9397   -4130.3072   -4657.9397            0    3288.6098    20.260741     20.22685    20.511041    8405.6497    1765.8603    3203.9582    4896.0108   -747.61055    138.48905    179.35763   -3727.1638 
13978000    276.68206   -4693.9017   -4160.2971   -4693.9017            0    5600.1658    19.966635    19.955774    20.764535    8273.6216    5924.4031    5348.3529    5527.7414   -433.37031   -106.05782    291.88694   -3484.5683 
13979000    266.90498   -4692.4701   -4177.7214   -4692.4701            0    5715.9214    19.933508    20.052761    20.779052    8305.8415    5455.8331    5007.6736    6684.2575    -385.1114   -69.438666    2072.3424   -3485.3394 
13980000    270.34091   -4660.4408   -4139.0657   -4660.4408            0    4957.3445    20.026567    20.070836     20.51699    8246.8032    4648.7479    4483.9846    5739.3011    271.96804   -1015.7042    240.27672   -3542.8401 
13981000    276.65684   -4695.6845   -4162.1285   -4695.6845            0    5620.7594    20.032798    20.161225    20.517236     8286.619    6612.8737     4909.084    5340.3207    826.15814   -924.24144    39.459374   -3482.8494 
13982000    268.50731   -4700.7735   -4182.9345   -4700.7735            0    5434.6658     20.31675    19.793444    20.644814    8302.0737    3062.3423    7830.0465    5411.6087    338.42571    875.32437    400.12438   -3524.9203 
13983000    257.88601   -4704.4256   -4207.0707   -4704.4256            0     3197.561    19.777067    20.109313    21.134878    8405.4097    3505.2021     4045.034    2042.4469    922.76119    279.51886    495.09276      -3815.1 
13984000    274.31718   -4700.2646   -4171.2208   -4700.2646            0    5402.3345     20.10789    20.111822    20.624804    8340.8007    5101.0523     4252.914    6853.0373    87.636232    929.75365   -1704.5291   -3514.0699 
13985000    255.54504   -4713.5702   -4220.7301   -4713.5702            0    3439.8327    20.103712    20.101764    20.603643    8326.3456    3596.2711    3732.3061    2990.9208   -244.51241   -99.672137   -287.03133   -3803.0271 
13986000    267.60295   -4721.5231   -4205.4283   -4721.5231            0    5594.4179    19.891584    19.749281    20.987699     8244.902    5328.5486    6930.3064    4524.3986    132.27698    692.84841    1465.9905   -3532.7363 
13987000    257.94283   -4687.0745   -4189.6101   -4687.0745            0    4112.1557    19.692832    20.171606    20.882075     8295.113    5405.8457     3743.007    3187.6144    -311.2026    442.62582   -1583.9751   -3692.1391 
13988000     267.0579     -4689.75   -4174.7064     -4689.75            0    4865.0327    20.080983    20.011426    20.576329    8268.5792     6328.394    4646.7032     3620.001    -638.1615   -544.76722    1560.2214   -3588.0382 
13989000    249.70513   -4672.3431   -4190.7657   -4672.3431            0    4351.6349    20.212328    20.035961     20.44694    8280.4671    4265.2922    3455.7991    5333.8134    162.13931   -6.5019416    447.44292   -3665.2531 
13990000    272.98677   -4700.5248   -4174.0468   -4700.5248            0    5875.2782     20.07116    19.994027    20.536276    8241.2756    4569.0501    7225.0308    5831.7536   -99.269736    201.93889   -1886.4712   -3467.8939 
13991000    260.83608   -4710.2582   -4207.2138   -4710.2582            0    5703.3713    19.990691    20.008824    20.652715    8260.8843    6786.6684    6394.9026    3928.5428    347.57861   -828.35182    407.53568   -3520.0915 
13992000    270.85428   -4695.2979   -4172.9326   -4695.2979            0    4688.1185    19.988409    19.816832    20.822372    8247.8858    4105.7194    5552.1345    4406.5014      1222.19    723.19148    247.69167   -3609.0131 
13993000    273.08797   -4686.3747   -4159.7015   -4686.3747            0    6227.2526    20.134813     19.94424    20.517736      8239.38    4283.6373    7827.8355    6570.2851   -382.84481    398.97058   -133.86098   -3411.4168 
13994000    269.47975   -4689.9935   -4170.2791   -4689.9935            0    5833.6125    20.046517    20.123462    20.450112    8249.6842    6521.4304    4729.3426    6250.0644   -1158.8779    1538.5345   -1103.3425   -3468.4187 
13995000    287.44179   -4709.0827   -4154.7271   -4709.0827            0    3957.1553    20.097227    19.999037    20.824345    8369.8291    3921.8735    5504.6976    2444.8947   -737.21672   -406.67478    989.93422   -3671.6954 
13996000    271.79748   -4691.1178   -4166.9335   -4691.1178            0    5251.3126    19.948377    19.984959    20.829784    8304.1578    3880.1117    5985.1139    5888.7121    459.02996   -582.90726    952.71785   -3530.9595 
13997000    265.26788   -4700.2555   -4188.6641   -4700.2555            0    5494.9494    19.991816    19.757183    21.056916    8317.1021    7094.7206    6344.9004    3045.2271    155.62723   -1193.5944   -555.72244   -3522.1465 
13998000    269.01906   -4678.7201   -4159.8942   -4678.7201            0    4225.4542    20.107421    20.022377    20.694939    8331.7484    4225.0803    5345.8849    3105.3973    428.88668    482.96052   -338.41535   -3646.4593 
13999000    252.21825   -4700.9858   -4214.5617   -4700.9858            0    3907.4747    19.980713    20.122629    20.736711     8337.495    5284.3421    3085.2304    3352.8515    -308.4435   -1282.5938   -194.52469    -3739.437 
14000000    271.52818   -4669.1778   -4145.5129   -4669.1778            0    4655.3988    20.087007    19.689313    21.055656    8327.4986    5177.7026    6260.8056    2527.6882    -439.2428    929.05871   -1121.8867   -3580.1239 
Loop time of 437.029 on 64 procs for 250000 steps with 972 atoms

Performance: 98.849 ns/day, 0.243 hours/ns, 572.045 timesteps/s
190.9% CPU use with 32 MPI tasks x 2 OpenMP threads

MPI task timing breakdown:
Section |  min time  |  avg time  |  max time  |%varavg| %total
---------------------------------------------------------------
Pair    | 28.345     | 35.343     | 52.075     |  75.3 |  8.09
Bond    | 0.82115    | 1.1702     | 2.1104     |  19.4 |  0.27
Kspace  | 180.51     | 198.62     | 212.87     |  43.9 | 45.45
Neigh   | 2.5923     | 2.9511     | 3.4974     |  17.5 |  0.68
Comm    | 82.745     | 92.825     | 99.353     |  41.3 | 21.24
Output  | 0.53564    | 0.536      | 0.53759    |   0.0 |  0.12
Modify  | 81.744     | 86.042     | 90.284     |  24.9 | 19.69
Other   |            | 19.55      |            |       |  4.47

Nlocal:        30.3750 ave          37 max          26 min
Histogram: 6 2 5 4 2 6 4 2 0 1
Nghost:        2623.69 ave        2645 max        2582 min
Histogram: 1 1 0 0 5 3 7 8 1 6
Neighs:        9447.06 ave       11183 max        7435 min
Histogram: 3 1 2 6 3 3 4 2 3 5

Total # of neighbors = 302306
Ave neighs/atom = 311.01440
Ave special neighs/atom = 2.0000000
Neighbor list builds = 8238
Dangerous builds = 0

unfix		3
unfix		2
unfix		1

write_data	data.final.${pid}
write_data	data.final.0
System init for write_data ...
PPPM initialization ...
  extracting TIP4P info from pair style
  using 12-bit tables for long-range coulomb (../kspace.cpp:340)
  G vector (1/distance) = 0.37236365
  grid = 24 24 25
  stencil order = 5
  estimated absolute RMS force accuracy = 0.0034133939
  estimated relative force accuracy = 1.0279334e-05
  using double precision FFTW3
  3d grid and FFT values/proc = 3458 576
Last active /omp style is kspace_style pppm/tip4p/omp
WARNING: Not all mixed pair coeffs generated from mixing. Use write_data with 'pair ij' option to store all pair coeffs. (../write_data.cpp:312)

write_restart   restart.lmp.${pid}
write_restart   restart.lmp.0
System init for write_restart ...
PPPM initialization ...
  extracting TIP4P info from pair style
  using 12-bit tables for long-range coulomb (../kspace.cpp:340)
  G vector (1/distance) = 0.37236365
  grid = 24 24 25
  stencil order = 5
  estimated absolute RMS force accuracy = 0.0034133939
  estimated relative force accuracy = 1.0279334e-05
  using double precision FFTW3
  3d grid and FFT values/proc = 3458 576
Last active /omp style is kspace_style pppm/tip4p/omp
Total wall time: 0:07:17
