LAMMPS (30 Jul 2021)
  using 1 OpenMP thread(s) per MPI task
package omp 0
using multi-threaded neighbor list subroutines
echo both

include		in.partitions
variable        pid world 0
include		in.temp
variable        temperature equal 264.21
variable	tempDamp equal 100.0
include		in.pressure
variable        pressure equal 8500.0
variable        pressureDamp equal 1000.0 # This is 1 ps
include		in.seed
variable        seed world 745823

units		real
atom_style	full
read_restart	restart.lmp.${pid}
read_restart	restart.lmp.0
Reading restart file ...
  restart file = 30 Jul 2021, LAMMPS = 30 Jul 2021
  restoring atom style full from restart
  orthogonal box = (-0.086484181 -0.14037361 -0.090677535) to (24.816485 24.870375 22.900678)
  4 by 4 by 4 MPI processor grid
  restoring pair style lj/cut/tip4p/long/omp from restart
  restoring bond style harmonic/omp from restart
  restoring angle style harmonic/omp from restart
  1920 atoms
  1280 bonds
  640 angles
Finding 1-2 1-3 1-4 neighbors ...
  special bond factors lj:    0        0        0       
  special bond factors coul:  0        0        0       
     2 = max # of 1-2 neighbors
     1 = max # of 1-3 neighbors
     1 = max # of 1-4 neighbors
     2 = max # of special neighbors
  special bonds CPU = 0.057 seconds
  read_restart CPU = 0.212 seconds
include 	in.setup
variable	out_freq equal 1000
variable	out_freq2 equal 10000
variable	out_freq3 equal 1000

timestep	2.0

neigh_modify    delay 7 every 1

include		in.tip4p
# This is TIP4P/Ice

# create groups ###
group ox type 2
640 atoms in group ox
group hy type 1
1280 atoms in group hy

# set charges - beside manually ###
set group ox charge -1.1794
Setting atom values ...
  640 settings made for charge
set group hy charge 0.5897
Setting atom values ...
  1280 settings made for charge

# ### TIP3P Potential Parameters ###
pair_style lj/cut/tip4p/long/omp 2 1 1 1 0.1577 8.5
pair_coeff 1 1*2 0.000 0.000
pair_coeff 2 2 0.21084 3.1668
bond_style  harmonic
bond_coeff  1 450 0.9572
angle_style harmonic
angle_coeff 1 55 104.52
kspace_style pppm/tip4p/omp 1.0e-5
pair_modify tail yes

thermo          ${out_freq}
thermo          1000
thermo_style    custom step temp pe etotal epair emol press lx ly lz vol pxx pyy pzz pxy pxz pyz enthalpy

restart 	${out_freq3} restart.lmp.${pid} restart2.lmp.${pid}
restart 	1000 restart.lmp.${pid} restart2.lmp.${pid}
restart 	1000 restart.lmp.0 restart2.lmp.${pid}
restart 	1000 restart.lmp.0 restart2.lmp.0


include         in.dump
dump            myDump all atom ${out_freq2} dump.water.${pid}
dump            myDump all atom 10000 dump.water.${pid}
dump            myDump all atom 10000 dump.water.0
dump            myDump2 all dcd ${out_freq2} dump.dcd
dump            myDump2 all dcd 10000 dump.dcd
dump_modify     myDump append yes
dump_modify     myDump2 append yes


variable natoms 	equal  "count(all)"                        # NUMBER ATOMS
variable H      	equal  "enthalpy/v_natoms"                 # ENTHALPY-per-atom
variable Vol      	equal  "vol/v_natoms"                 # volume-per-atom
fix AVG all 		ave/time ${out_freq} 1 ${out_freq} v_Vol v_H file vol_enthalpy.dat
fix AVG all 		ave/time 1000 1 ${out_freq} v_Vol v_H file vol_enthalpy.dat
fix AVG all 		ave/time 1000 1 1000 v_Vol v_H file vol_enthalpy.dat




fix 		1 all shake 1e-6 200 0 b 1 a 1
       0 = # of size 2 clusters
       0 = # of size 3 clusters
       0 = # of size 4 clusters
     640 = # of frozen angles
  find clusters CPU = 0.025 seconds
fix             2 all nph aniso ${pressure} ${pressure} ${pressureDamp}
fix             2 all nph aniso 8500 ${pressure} ${pressureDamp}
fix             2 all nph aniso 8500 8500 ${pressureDamp}
fix             2 all nph aniso 8500 8500 1000
fix             3 all temp/csvr ${temperature} ${temperature} ${tempDamp} ${seed}
fix             3 all temp/csvr 264.21 ${temperature} ${tempDamp} ${seed}
fix             3 all temp/csvr 264.21 264.21 ${tempDamp} ${seed}
fix             3 all temp/csvr 264.21 264.21 100 ${seed}
fix             3 all temp/csvr 264.21 264.21 100 745823


run             250000
PPPM initialization ...
  extracting TIP4P info from pair style
  using 12-bit tables for long-range coulomb (../kspace.cpp:340)
  G vector (1/distance) = 0.37438834
  grid = 30 30 30
  stencil order = 5
  estimated absolute RMS force accuracy = 0.0032793888
  estimated relative force accuracy = 9.875782e-06
  using double precision FFTW3
  3d grid and FFT values/proc = 3600 512
Last active /omp style is kspace_style pppm/tip4p/omp
Neighbor list info ...
  update every 1 steps, delay 7 steps, check yes
  max neighbors/atom: 2000, page size: 100000
  master list distance cutoff = 10.8154
  ghost atom cutoff = 10.8154
  binsize = 5.4077, bins = 5 5 5
  1 neighbor lists, perpetual/occasional/extra = 1 0 0
  (1) pair lj/cut/tip4p/long/omp, perpetual
      attributes: half, newton on, omp
      pair build: half/bin/newton/omp
      stencil: half/bin/3d
      bin: standard
Per MPI rank memory allocation (min/avg/max) = 9.330 | 9.339 | 9.345 Mbytes
Step Temp PotEng TotEng E_pair E_mol Press Lx Ly Lz Volume Pxx Pyy Pzz Pxy Pxz Pyz Enthalpy 
 6000000    271.11629   -9064.5125   -8030.8936   -9064.5125            0    9252.1878    24.902969    25.010748    22.991355    14319.979    10001.208     8814.269    8941.0858    96.070513   -771.40016   -330.96066   -6098.6463 
 6001000    269.30458   -9112.5452   -8085.8333   -9112.5452            0    9257.0132    24.873864    24.935097    23.082201    14316.325      9215.13    9065.0977    9490.8119    263.61898   -1400.9834   -170.41976   -6153.0716 
 6002000    261.68715   -9068.5486   -8070.8778   -9068.5486            0    9688.1223    24.964212    24.956115    22.967174    14308.773    10274.721    7761.7223    11027.923    -413.4637    513.96265   -77.534472   -6049.1723 
 6003000    264.48978   -9075.6942   -8067.3386   -9075.6942            0    10340.823    24.931469    24.920398    22.934093    14249.001    10205.376    10588.978    10228.114    123.81209    115.09606   -470.40653   -5918.4425 
 6004000     261.0453   -9120.7791   -8125.5554   -9120.7791            0    7637.2942    24.983946    25.046352      22.9291    14348.038    7766.5472    6155.2615     8990.074   -459.67168   -585.81123   -336.83805   -6527.4407 
 6005000    261.74185   -9060.8495   -8062.9702   -9060.8495            0    8719.7335    24.997718    24.945024    23.079492    14391.648    8238.6185    9664.1758    8256.4062   -1304.3217   -423.20489    183.24009   -6232.8077 
 6006000    273.66959   -9082.6486   -8039.2953   -9082.6486            0    7868.1534     25.07948    24.888072    23.080489    14406.377    6356.9718    10265.977    6981.5113    277.49031    191.65888   -696.56261   -6386.1787 
 6007000    258.82107   -9096.6649    -8109.921   -9096.6649            0    8384.7484    25.049425    24.920237    23.026467    14373.986    7847.3589    8299.4022    9007.4841    276.81456    253.04107   -342.98757   -6352.2275 
 6008000    256.01807   -9083.6608   -8107.6032   -9083.6608            0    6405.1793    25.154049    24.904616    23.110301    14477.493    5185.6224    8320.1138    5709.8016   -399.65079   -1356.8367    78.456533   -6755.2176 
 6009000    271.11442   -9065.7542   -8032.1424   -9065.7542            0    8017.4128    25.055991    24.907273    23.038464    14377.762    8608.2205     8065.987     7378.031   -340.41568    1082.7702   -681.64054   -6351.0119 
 6010000    263.85456   -9069.0371   -8063.1032   -9069.0371            0    8693.0235    25.055285    24.927106    23.019023    14376.663    7409.0544    8935.8024    9734.2139    36.790343   -525.59788   -480.75095   -6240.4466 
 6011000    257.69095   -9072.3539   -8089.9185   -9072.3539            0     7198.439    25.050741    24.993999     22.99958    14400.456    5248.5772    8310.9455    8035.7944   -649.93695    236.57631   -297.15918    -6578.132 
 6012000    276.84665   -9096.4689   -8041.0032   -9096.4689            0    6585.7567    25.089629     24.94995    23.075065    14444.644    5906.8579    7199.2308    6651.1813   -122.76804   -436.19499    -110.8523   -6653.6456 
 6013000    259.60087   -9038.3087   -8048.5918   -9038.3087            0    8236.3571    24.943574    24.983133    23.062798    14372.012    7983.7928    8997.4725    7727.8062   -879.24314     1246.841    216.52087   -6322.2426 
 6014000    260.57428   -9117.6697   -8124.2417   -9117.6697            0    9565.2237    24.897066    25.022972    22.908801     14272.15     8764.885    8857.2937    11073.492    433.13674   -376.47831     787.8115   -6133.2913 
 6015000    267.45871   -9087.6742   -8067.9996   -9087.6742            0    9046.8157    24.992043     25.01194    22.868349    14294.993    9212.8206    8632.8938    9294.7327    123.92564   -1263.5514   -573.93192   -6181.9392 
 6016000    271.68515   -9091.1571   -8055.3694   -9091.1571            0    9217.8377    24.915578     24.91512    23.082648    14329.121    8543.7521    8980.5078    10129.253    -1095.863   -209.16318    457.24244   -6129.0668 
 6017000    269.92105   -9092.5916   -8063.5295   -9092.5916            0    9116.4457    25.079119    24.963967    22.879982    14324.569    8622.0002    8914.6268    9812.7101    26.460819    970.90074    57.437415   -6159.0206 
 6018000    263.15858    -9117.406   -8114.1255    -9117.406            0    7463.0186    25.003986    24.853271    23.137258    14378.206    7432.2188    8831.2218    6125.6152   -32.446236   -439.60673     247.2902   -6549.1948 
 6019000    263.68002   -9095.7502   -8090.4817   -9095.7502            0    9682.9484    24.948749    24.940032    22.985262     14301.95    9420.9946    9754.7066    9873.1439     671.6249    265.61306   -40.345072   -6070.8194 
 6020000    257.53615   -9081.4655   -8099.6202   -9081.4655            0    9348.1061    24.786279    24.960053    23.135011    14312.864    10363.577    8360.1754    9320.5663   -616.06591   -860.37932    704.98435   -6148.3111 
 6021000    269.05385   -9121.1851   -8095.4291   -9121.1851            0    8406.4631    24.862724    25.057988    22.919045     14278.79    9525.3294    7112.3881    8581.6716    258.77531    -153.6454    72.342502   -6344.8546 
 6022000    269.81239   -9076.4649    -8047.817   -9076.4649            0    9312.5934    24.947513    24.966773    22.995023    14322.655     9084.795    9824.3253    9028.6598    60.866808   -869.27834    923.34502    -6102.591 
 6023000    263.84691   -9131.4566   -8125.5519   -9131.4566            0    8793.9961    24.857401    24.964512       23.048    14302.503    10041.337     7792.665    8547.9866   -325.67768   -526.50078   -575.25039   -6291.2357 
 6024000    273.47272   -9047.7574   -8005.1547   -9047.7574            0    8138.6461    24.867028    25.173702    23.001953    14399.111    9375.2249    7391.7594    7648.9541    241.70457   -412.63171   -284.85402   -6296.0693 
 6025000    263.76439   -9081.6175   -8076.0273   -9081.6175            0    7802.9879    24.917025    25.075351    23.039776    14395.325    8339.4041    6406.6264    8662.9332   -125.55877   -624.47899    64.011922   -6437.8599 
 6026000    269.89672   -9073.5557   -8044.5863   -9073.5557            0    7421.6719    24.912802    25.163941    23.005653    14422.342     8717.834    4989.2441    8557.9376   -1389.6457   -602.23517    1040.8604   -6483.5484 
 6027000    260.76358   -9074.2174   -8080.0677   -9074.2174            0    7230.9623    24.896714    25.100301    23.126413    14452.042    8435.9502     7078.545    6178.3917    527.44196   -622.29609    -454.3161   -6556.0106 
 6028000    267.36832   -9119.8542   -8100.5242   -9119.8542            0    6962.3966    24.910022    25.192017    22.966621    14412.328    8608.6004     5027.046    7251.5435   -200.70783     65.50754    382.46863   -6637.1048 
 6029000     261.0196   -9107.4614   -8112.3356   -9107.4614            0    7587.1622    24.944836    25.119149    22.982552    14400.708    8148.1423    7262.3634    7350.9808   -473.91505   -95.915187   -1622.5862   -6518.8832 
 6030000    268.97376   -9077.8177   -8052.3671   -9077.8177            0    6760.1673    24.893268    25.165035    23.066701    14449.903    7279.0226    6636.1042    6365.3752   -544.62482   -308.71049    119.90845   -6627.7496 
 6031000    270.68181   -9069.8542   -8037.8917   -9069.8542            0    7504.0038    24.809162    25.137068    23.178325    14454.689    8005.1954    7246.4103    7260.4057    393.75817   -265.97063    180.87138   -6455.9966 
 6032000    268.04241   -9079.0559    -8057.156   -9079.0559            0    7883.5832    24.898011    25.051829    23.106342    14412.366    8538.4445    7323.7633    7788.5418   -851.56007   -687.87941   -264.03218    -6400.109 
 6033000    261.49033   -9056.8553   -8059.9349   -9056.8553            0     8174.078    24.860591    25.134235    23.005441    14374.994    9171.2723    7097.7232    8253.2385   -637.85574    831.67137    701.73788    -6346.284 
 6034000    258.80005   -9123.0382   -8136.3743   -9123.0382            0    7620.1172    24.956943    25.062828    22.983319    14375.872    8056.1987    6470.8339     8333.319    221.92959    956.31785    880.04942   -6538.7608 
 6035000    263.08316   -9146.9375   -8143.9445   -9146.9375            0    6822.6236    24.896304    25.019153    23.095467    14385.807    7898.2981    6591.7273    5977.8454    600.50106   -1025.8516    485.43354   -6712.5428 
 6036000    264.06394   -9104.5869   -8097.8547   -9104.5869            0    7897.4002    24.926826    24.984089    23.059522    14360.872    8054.9804    7032.6741    8604.5461   -392.09453      230.961    670.76804   -6443.8344 
 6037000    264.20652   -9093.1958   -8085.9201   -9093.1958            0    8737.2807    25.043277    25.048081    22.842634    14328.866    7198.6611    8280.7535    10732.428    1055.7649    -373.4954   -816.68322   -6260.0747 
 6038000    264.82351   -9068.3756   -8058.7477   -9068.3756            0    8838.5652    24.973865    25.030852    22.915672    14324.979    8331.1715    8554.8262     9629.698   -1143.9798    127.35364   -1127.0937   -6212.2377 
 6039000    263.37609   -9112.1295   -8108.0197   -9112.1295            0    7808.5694    24.911759    24.895255     23.17353    14371.866     8887.049    7684.3515    6854.3077   -759.40703   -1719.4326   -670.55441    -6471.352 
 6040000    268.98789   -9111.9457   -8086.4411   -9111.9457            0    9450.1057    24.948092    24.920544    22.946612    14266.369    9051.2814    9098.1794    10200.856   -339.02866    913.16039    314.20942   -6120.2488 
 6041000    261.45425   -9126.1402   -8129.3574   -9126.1402            0    8664.5024    24.954775    25.023577    22.897929    14298.789    7913.8255    8811.9806    9267.7012   -452.93407   -232.65103   -732.17016   -6322.5213 
 6042000    255.97361   -9060.0184   -8084.1303   -9060.0184            0    8539.6504    24.818877    24.983455    23.146095    14351.998     8779.627    9280.2425    7559.0816     43.32059   -112.42224    1583.0021   -6296.7032 
 6043000    267.95576   -9072.0366   -8050.4671   -9072.0366            0    8732.9983    25.021209    25.035805    22.904082    14347.715     8213.958    7005.8569     10979.18    168.02949   -1780.6202    269.16489    -6223.116 
 6044000    270.85548   -9111.4226    -8078.798   -9111.4226            0    8823.7953     25.00215     24.97845    22.962942      14340.7    8282.5253    10060.394    8128.4666     256.6355     -91.4414   -161.58726   -6233.3506 
 6045000    253.98636    -9108.763   -8140.4511    -9108.763            0    8972.4438    24.847931    24.801517    23.226965    14313.998    9627.8532    9882.4393    7407.0388   -333.76629   -359.52424    404.05234   -6267.4088 
 6046000    265.46972   -9038.5559   -8026.4643   -9038.5559            0    9371.2465     24.98983    25.009304    22.938227    14335.893    10248.034    8139.7525    9725.9532    1009.1801    123.12689   -26.188201   -6067.1775 
 6047000    263.99014   -9098.6646   -8092.2138   -9098.6646            0    9324.6533    24.769392    25.076352    23.057362    14321.527    10220.927    8200.5982    9552.4345    194.74047    -556.0945   -217.99022   -6144.6222 
 6048000    268.69709   -9127.6811   -8103.2852   -9127.6811            0    8199.9464    24.888721    25.048085    23.046418    14367.478    8071.8106    8362.3205    8165.7082    -482.9892    576.29029   -1142.5356     -6385.11 
 6049000    268.47625   -9084.4285   -8060.8747   -9084.4285            0    6295.8375    25.036702    24.960738     23.14737    14465.591    5255.5576    6864.7363    6767.2187   -1152.0222    278.05968   -1160.2825   -6732.6682 
 6050000    269.17172   -9067.9567   -8041.7514   -9067.9567            0    9209.3433    24.961465    24.984856     22.98064    14332.073    8873.1928    8660.7512    10094.086    -919.7879   -397.43502    1514.1552   -6116.8274 
 6051000    269.85486    -9100.387   -8071.5772    -9100.387            0    8091.6372    24.876494    25.212128     22.94209    14389.035     9323.514    6255.0982    8696.2996   -268.15904    64.789033    384.49475   -6373.5527 
 6052000     260.4093   -9080.4112   -8087.6122   -9080.4112            0    9152.3659    24.820294    24.995385     23.12185     14344.63    8763.5541    10386.819    8306.7244   -703.22543    373.31159    712.31568   -6172.9216 
 6053000    263.28514   -9097.0098   -8093.2468   -9097.0098            0    9222.7304     24.86286    25.059567    22.975524    14314.958    9539.6462     8818.801    9309.7439   -618.29481    181.30665    932.42222   -6167.8268 
 6054000    260.73117   -9057.3849   -8063.3587   -9057.3849            0    7636.7198    24.907724     25.11422    23.041354    14413.244    8371.8364    6940.6068    7597.7163    362.72837   -484.27373   -217.83945   -6458.1021 
 6055000       267.95   -9077.4285   -8055.8809   -9077.4285            0    7872.1247    24.816387    25.034247    23.172138    14395.912    7977.1248    8283.3782    7355.8712   -974.35703   -1213.4741    1832.2043   -6403.1314 
 6056000    268.23286   -9061.5347   -8038.9086   -9061.5347            0    7723.6748     25.00834    25.096792    22.977538    14421.372    8031.2731    6960.2164     8179.535    158.70234    158.98856    1562.9532   -6414.4583 
 6057000    264.81529   -9090.7346   -8081.1379   -9090.7346            0     8046.903    24.997319    25.027093    22.994965    14385.886    7795.0445    8039.4017    8306.2629   -982.72221   -511.13872    413.85105   -6392.8704 
 6058000    257.33646   -9081.4235   -8100.3396   -9081.4235            0    8366.5007     24.92034    24.907132     23.15208    14370.362    8631.9194    8609.5859    7857.9967    479.54378   -958.22758    719.19252   -6346.9135 
 6059000    265.94204   -9098.6817   -8084.7894   -9098.6817            0    8201.7457    25.037849    25.012906    22.950631    14373.277    7707.3331    7796.2498    9101.6541   -682.36641   -126.68809    160.92027   -6365.5435 
 6060000    263.22048   -9134.8912   -8131.3747   -9134.8912            0    8079.6278    24.985757    25.063015    22.887818    14332.773    8737.2022     7025.264     8476.417   -378.55843   -718.15927    236.58783   -6442.4999 
 6061000    259.33358   -9099.9536   -8111.2557   -9099.9536            0    8687.6868    24.923046    24.912202    23.128965    14360.495    8371.4058    9394.0412    8297.6136   -911.88976   -154.55671   -526.60347   -6291.7666 
 6062000     260.8564   -9068.1756   -8073.6721   -9068.1756            0    9223.1893    25.008075     25.03551    22.899534    14337.167     9143.667    8778.7597     9747.141    880.92645   -322.23084   -359.15214   -6145.1689 
 6063000    267.49713     -9045.66   -8025.8389     -9045.66            0    8848.3336    24.876108    25.009545    23.070615    14353.155    9385.1951    8309.7724    8850.0334    62.107379    453.64653     208.7184   -6173.6522 
 6064000    268.01206   -9093.7665   -8071.9824   -9093.7665            0    8605.5352    24.887003    24.993913    23.047549    14336.119       7968.8      9562.58    8285.2256    1106.5139    318.20036   -463.16825   -6272.7578 
 6065000    254.57626   -9102.9376   -8132.3768   -9102.9376            0    7573.5415    25.032153    25.052338    22.926578    14377.577    7131.5009    7405.2327    8183.8909   -108.39095    275.86562    934.69587   -6544.3398 
 6066000    268.35513   -9031.9823   -8008.8902   -9031.9823            0    8623.7491     24.95689    25.033796     23.01705    14380.263    9201.0106    8312.1126    8358.1241    242.07079    293.04005    1369.2164   -6200.3056 
 6067000    256.96733   -9094.4361   -8114.7595   -9094.4361            0    9480.4907    24.756578    24.997684     23.14743    14324.951    10813.156    8576.2819    9052.0339  -0.55404354   -41.284052    421.55732   -6134.1454 
 6068000    265.09187   -9124.9859   -8114.3349   -9124.9859            0    8820.1367     24.96218    25.072457    22.867382    14311.852    9212.3636    8417.3014    8830.7452    221.66868    343.21503    287.33493   -6273.3635 
 6069000    260.72495   -9112.9543   -8118.9519   -9112.9543            0    9235.8288    24.768828    24.958596    23.135846    14302.469    9675.3392    9077.6398    8954.5073    163.76095    -124.8398    1333.6878   -6192.4796 
 6070000    256.53791    -9084.502   -8106.4625    -9084.502            0     9124.878    24.897513    24.912145    23.062166    14304.319    10401.555    8660.5525    8312.5268    11.508593     960.0187    1176.3078   -6202.8869 
 6071000    259.57738   -9055.5877   -8065.9603   -9055.5877            0    8462.5843    25.046062    24.955991    22.947484    14343.308     7257.856     8870.255    9259.6417    1025.9841    65.420582    1119.1822   -6295.7363 
 6072000    270.28247   -9061.7077   -8031.2677   -9061.7077            0    8502.8593    24.991047    24.881393     23.09157    14358.616    8727.7843     8838.213    7942.5805   -541.87468    706.17795   -302.01802   -6250.7205 
 6073000    257.31348   -9136.1619   -8155.1656   -9136.1619            0    7895.7074    24.847493    25.033203    23.042445    14332.685    8837.2848    8205.2827    6644.5546   -119.95808   -1296.7999     813.9795   -6504.7455 
 6074000    268.15335   -9080.0734   -8057.7505   -9080.0734            0    8422.3294    24.846491    25.147603    22.972834    14354.109     9575.831    6090.4666    9600.6907   -146.94137   -347.44294    -834.5154   -6294.6204 
 6075000    276.81413   -9093.1965   -8037.8548   -9093.1965            0    7697.9198    24.814808    25.165804    23.030251    14382.037    9307.8001    6160.2511    7625.7082   -88.498145   -76.504262   -533.27395   -6423.2372 
 6076000    269.55671   -9112.1302   -8084.4571   -9112.1302            0    8638.5611    24.840239    24.980586     23.10728    14338.615    9369.0138    7686.2177    8860.4518   -555.87609    747.55886   -564.66111   -6278.0131 
 6077000     262.0324    -9121.681    -8122.694    -9121.681            0    9601.6825    24.820279    25.043332    22.988435    14289.209    10289.633    9012.6607    9502.7535   -438.14326    62.582976    240.03965   -6121.7663 
 6078000    265.46211   -9055.6884   -8043.6258   -9055.6884            0    8099.5092     25.01219    25.115332     22.92453    14400.949    6915.8334     7614.634    9768.0601   -45.727105   -113.94614     1182.888   -6342.5421 
 6079000    263.26114   -9113.0836    -8109.412   -9113.0836            0     8153.658    24.859088    25.023567    23.087393    14361.814    8670.7642    7056.2464    8733.9635   -397.38223   -390.79677    747.93777   -6401.6094 
 6080000    265.45242   -9100.5433   -8088.5176   -9100.5433            0    7925.8934    25.007254    25.047258    22.985617    14397.343    8304.2297    7488.4951    7984.9554   -862.65621   -438.74353    306.54113    -6424.314 
 6081000     273.7234   -9092.7277   -8049.1693   -9092.7277            0    8099.4235     24.99232     24.90391     23.07303    14360.803    7564.9993    8979.6769    7753.5945    652.83229   -1939.6264    403.93465   -6352.8456 
 6082000    263.35743   -9097.4921   -8093.4534   -9097.4921            0    7446.8798    25.024772     25.00654    22.990036    14386.773    7447.2458    8303.2751    6590.1185   -383.68959   -788.44377   -450.02218   -6530.9765 
 6083000    250.31536   -9094.7971   -8140.4808   -9094.7971            0    8448.4969    25.031424    24.984158    22.944011    14348.933    6857.4802    8251.1218    10236.889    -738.3175    1169.8345   -252.77442   -6372.5106 
 6084000    269.03368   -9063.9421    -8038.263   -9063.9421            0    7643.0056    24.939583    25.035689     23.10413    14425.748    8106.8692    6660.1773    8161.9702   -208.58447    243.96593      1396.76   -6430.2913 
 6085000    256.64604   -9079.9255   -8101.4738   -9079.9255            0    7792.5126    24.880562    24.955908    23.209906    14411.425    8073.0676    8720.5325    6583.9377     604.7818   -528.46576   -558.90012   -6463.6758 
 6086000    266.08982   -9095.1673   -8080.7115   -9095.1673            0    7786.2593    25.005867    25.091352    22.921144    14381.436     8458.318    5404.4364    9496.0236    791.27571    624.22569    1402.5151   -6447.6332 
 6087000      268.303   -9101.1908   -8078.2974   -9101.1908            0    10442.576    24.774714    24.999153    23.012762    14252.882    11612.382    9829.4763    9885.8699    483.58714   -428.99997    482.34366   -5907.6652 
 6088000    263.64436   -9043.0709   -8037.9383   -9043.0709            0    9492.7648    24.815966    25.052741    23.079996    14349.018    10519.005    9842.8124    8116.4775   -288.31916   -640.03248   -146.93352   -6051.4282 
 6089000    265.82442   -9148.0343   -8134.5904   -9148.0343            0     9839.396    24.803301    25.063532    22.949937     14267.02    11258.984    8431.0823    9828.1221   -202.69719   -622.51294   -289.20476   -6087.3088 
 6090000    273.09192   -9117.8166   -8076.6656   -9117.8166            0    9088.2517    24.840919    24.991685    23.081505    14329.378    10075.334    8365.5636    8823.8572    401.43288   -217.78726    277.83086   -6177.4094 
 6091000    257.74568   -9091.2358   -8108.5917   -9091.2358            0    10156.555     24.84292    25.021532    22.961903    14273.301    10852.289      9825.01    9792.3671   -150.80767    -92.33176   -56.612637   -5994.3884 
 6092000    266.74707    -9076.582   -8059.6205    -9076.582            0    9733.7326    24.901173    25.084144    22.866282    14282.843    9297.3006    8307.5212    11596.376    380.76448   -591.62251    28.892759    -6032.078 
 6093000    254.27512   -9036.8259   -8067.4132   -9036.8259            0    9742.3775    24.854656    25.028254    23.065557     14348.36    12022.216    8195.7885    9009.1278   -493.06651   -645.85046    1314.6692   -6028.7611 
 6094000    264.15712   -9093.9762   -8086.8888   -9093.9762            0    7484.9784    24.906683     25.00253    23.101658    14386.097    6964.4776    8125.9552    7364.5023   -651.58861    -42.77618   -1611.0934   -6516.4919 
 6095000    250.35756   -9100.7026   -8146.2254   -9100.7026            0    9124.5135    24.872695    25.095374     22.84541    14259.868    8984.3082     9093.374    9295.8583   -421.09048    840.71038    132.50617    -6248.641 
 6096000    261.92173   -9073.8323   -8075.2672   -9073.8323            0    8993.5731    24.890717    24.990731    23.015477    14316.483    10570.975    8054.7056     8355.039    320.67755     340.4416   -641.56319   -6197.4881 
 6097000    263.49991   -9073.6604   -8069.0786   -9073.6604            0    9014.9259    24.835593    24.964611     23.11704    14332.817    10079.069    9001.7665    7963.9418   -254.05588   -700.11915   -506.40399   -6184.6937 
 6098000    265.55439   -9158.3345   -8145.9201   -9158.3345            0    9204.2662    24.878588    25.023134    22.954831    14290.306    9825.4891    8586.9844    9200.3249    -105.5552   -1875.8336    577.27566    -6227.664 
 6099000    273.78328   -9090.4535   -8046.6667   -9090.4535            0    8343.6593    24.884424    25.147318     22.95839    14366.821    8817.7748    6779.8049    9433.3982    647.84644    491.41759    781.16457   -6298.4586 
 6100000    263.26558   -9123.3633   -8119.6748   -9123.3633            0    8252.0136    24.873637    24.970963    23.086299    14339.331    8630.7203    8423.0954     7702.225   -1042.3717   -65.899849    415.42503   -6393.9771 
 6101000    264.32945   -9103.9744     -8096.23   -9103.9744            0    8708.3716    24.934012    24.971734    22.997451     14319.26    9316.8936     7191.432    9616.7892    1172.2938    194.74194    309.21784   -6277.6458 
 6102000    262.89332     -9047.55   -8045.2807     -9047.55            0    9222.6303    25.072534    24.940227    22.930436    14338.738    7386.2505    10123.715    10157.926   -693.66901   -982.96564    665.53171   -6116.6831 
 6103000    268.22319    -9091.337   -8068.7478    -9091.337            0    7468.4685    25.000606     24.91619    23.129873    14408.056    7378.2955    7644.9457    7382.1643   -287.04848    127.14494    1460.6908    -6499.423 
 6104000    264.54195   -9105.1966    -8096.642   -9105.1966            0    7698.8502    25.027051    24.866278    23.097284    14374.124    7223.3962    8637.3912    7235.7632   -717.89959   -1186.6229    521.30229   -6482.7178 
 6105000    265.90579   -9077.2716   -8063.5175   -9077.2716            0    8179.6867    25.080544    24.957877    22.935695    14356.762    8592.5084    7580.8033    8365.7482    -230.1787   -3.8508582    41.799436   -6350.8657 
 6106000    263.82629   -9114.7506   -8108.9245   -9114.7506            0    9723.2826    24.931608    24.911531    22.967687    14264.875    9713.3806     9841.728    9614.7391    542.43213    976.95353   -754.60891   -6086.1067 
 6107000    262.36446   -9083.0699    -8082.817   -9083.0699            0    9005.3285    24.882424    24.976687     23.06991    14337.499    9821.6355    8600.9573    8593.3926    334.31445   -1236.0273    841.54283   -6199.8233 
 6108000    266.90673   -9088.9243   -8071.3542   -9088.9243            0    9765.5832    24.885118     25.03833    22.946568    14297.589    9379.0904    9571.2352    10346.424   -346.29894    833.72212   -566.70044    -6035.077 
 6109000    260.50609   -9087.7237   -8094.5556   -9087.7237            0    8640.8225    24.945508    25.084865    22.919124    14341.749    8575.4404    8355.3268    8991.7002   -614.32032   -643.14769   -262.12124   -6287.2438 
 6110000    268.32724   -9136.0346   -8113.0488   -9136.0346            0    7834.4226    24.855995    25.122048    23.010871    14368.758    8179.1346    7322.7009    8001.4325    729.55262    -352.7736    455.66239   -6471.3173 
 6111000    264.37702   -9091.4247   -8083.4989   -9091.4247            0    8378.2875    24.747877     25.06188    23.164322    14367.169     10960.52    7384.6415    6789.7013   -644.59118   -342.27958   -1331.2141   -6327.9929 
 6112000    265.95051   -9083.0161   -8069.0915   -9083.0161            0    8070.3076    24.882347    25.113534    23.007338     14376.91    9538.4604    7575.3079    7097.1545   -1219.3428   -229.64026     750.5541   -6376.9701 
 6113000    265.30445   -9096.3628   -8084.9012   -9096.3628            0    7690.8891    24.840239    25.217751    22.968754    14387.971    9042.0424    6561.8651      7468.76   -213.91974   -687.57676   -346.04396   -6471.0927 
 6114000    286.52153   -9116.4741   -8024.1233   -9116.4741            0    8321.8702    24.880773    25.003631    23.055532    14343.069     8561.848    8217.4005    8186.3621   -967.98887   -149.87662    -553.1829   -6283.3632 
 6115000    269.35815   -9045.5143   -8018.5983   -9045.5143            0    10938.723    24.823087    24.990377    23.026355     14284.13    12056.163    9994.1183    10765.888   -877.01763   -1686.8768     898.4818   -5739.8502 
 6116000    263.09449   -9102.2508   -8099.2147   -9102.2508            0    10069.537    24.895285    24.955178    22.965273    14267.549    9987.1804     10210.61     10010.82    365.01969    1199.9264   -37.671669   -6003.9699 
 6117000     262.9296    -9138.947   -8136.5395    -9138.947            0    10651.751    24.802065    24.930692    22.976189    14206.927    11786.692    9575.3792    10593.183    422.14657    333.82814    560.80366   -5929.5662 
 6118000    258.84445   -9121.4642   -8134.6311   -9121.4642            0    9459.4606    24.939405    24.974349    22.939634    14287.846     9660.818    8857.5861    9859.9776   -631.03323    823.36536    1325.3099   -6163.5295 
 6119000    259.88077   -9077.5341   -8086.7501   -9077.5341            0      9141.67    24.944244    24.991977    22.965159    14316.618    8806.9285    10111.637    8506.4441   -106.61746    539.60119   -207.39783   -6178.0317 
 6120000    259.22975   -9086.7553   -8098.4533   -9086.7553            0    8417.9904    24.960175    24.846156    23.154912    14359.852    8332.3899    10267.258    6654.3231   -513.52445    283.57774    217.09936   -6335.5265 
 6121000    261.03719   -9097.4989   -8102.3061   -9097.4989            0    8296.1176    25.044032    25.013834    22.912959    14353.761    8845.8051    7425.5391    8617.0087    -282.9616    -567.2341    311.17549   -6365.6393 
 6122000    264.21926   -9065.2336   -8057.9093   -9065.2336            0    7825.8651    25.014513    24.999485    23.024955    14398.654    7862.1859    8028.5922    7586.8173    20.088711    1075.8341    41.359037    -6414.559 
 6123000    254.02938   -9095.9823   -8127.5065   -9095.9823            0    7611.0532    24.902526    24.983284    23.186269    14425.265    8699.4024    6718.7418    7415.0153   -40.926579   -26.367628    1176.1564   -6526.3107 
 6124000    270.69629   -9074.5782   -8042.5605   -9074.5782            0    8563.4997    24.923303    24.983856    23.064917    14362.067    9325.6685    8290.5681    8074.2624   -355.97667    872.42178    1133.7623   -6248.8839 
 6125000    267.30928   -9044.6953   -8025.5904   -9044.6953            0    10143.095    25.054869    24.888545    22.922637     14294.08    9907.7146     10164.92    10356.651   -344.16118   -248.14308    418.71783   -5911.1151 
 6126000     259.6326   -9072.4056   -8082.5678   -9072.4056            0    9766.2815    24.892664    25.022865    22.910403    14270.564    9599.3641    9356.4849    10342.995    -375.0855     945.9638    -40.76995   -6049.9943 
 6127000    264.38241   -9070.5955   -8062.6492   -9070.5955            0    9952.5961    24.878903    24.876017    23.100261    14296.474    10049.926    10215.486    9592.3761    281.34347   -592.65791     331.6373   -5987.5387 
 6128000    271.25082   -9131.5322   -8097.4004   -9131.5322            0    9138.7032    25.043703    24.962316    22.843204    14280.402    7869.1024    8920.6088    10626.398    507.63324    274.45274    324.32144   -6194.1282 
 6129000    270.55816   -9101.6228   -8070.1317   -9101.6228            0    9445.8812     24.99356    24.935064    22.949959    14302.782    9450.7291    8780.4237    10106.491   -682.82109   -114.05851    1107.0384    -6099.802 
 6130000     257.2538    -9107.046   -8126.2772    -9107.046            0    8716.0421     24.86246     24.87202    23.160635    14322.064    9136.2508    9171.8848    7839.9908   -176.55658   -1475.3426     212.2501   -6305.7347 
 6131000    261.69405   -9117.3984   -8119.7014   -9117.3984            0    9959.8902    24.917718    25.055273    22.849299     14265.28    8850.5776    9330.6439    11698.449    734.04177   -56.896648   -300.17695   -6047.6013 
 6132000    263.83954    -9105.523   -8099.6464    -9105.523            0    7118.7755    25.056594    25.148739    22.865808      14408.7    6900.8307    6279.0386    8176.4571    106.63803   -132.95938   -443.80603   -6603.7346 
 6133000    258.44899   -9083.8938   -8098.5684   -9083.8938            0    8195.9454    24.923589    24.970471    23.117861    14387.488    8934.5808    8332.0045     7321.251    3.3099947   -415.88828   -88.916604   -6378.8398 
 6134000    257.73285   -9123.1774   -8140.5822   -9123.1774            0     7140.529    24.951561    25.119583    22.962027    14391.974    7080.0798    6366.2467    7975.2605   -393.28631   -485.03717     96.38745    -6641.841 
 6135000    255.35272   -9120.6632   -8147.1421   -9120.6632            0    8466.5098    24.980222    25.104382    22.838757    14322.482    9350.2849    6778.0416    9271.2029   -107.36925   -860.85538    381.32447   -6378.6685 
 6136000    270.77935   -9113.8766   -8081.5422   -9113.8766            0    7654.1658    24.879914    24.927368    23.170391    14370.062    9847.9662    6829.2467    6285.2845   -393.20768   -765.38852   -310.55929   -6477.4386 
 6137000    264.73288   -9118.3061   -8109.0236   -9118.3061            0    8574.4954     24.95906    25.086084    22.849507    14306.649    8363.8355    8201.1772    9158.4734    322.01907   -631.93315   -29.659853    -6319.974 
 6138000    261.16839    -9073.901    -8078.208    -9073.901            0    10746.928    24.887856    25.003108    22.941797    14276.078    11914.977    9119.6941    11206.113    427.57211    727.72529   -68.056521   -5840.6765 
 6139000    256.35169   -9104.7087   -8127.3791   -9104.7087            0    9668.4252    24.888567    24.929355    22.991548    14265.243    9624.8456    9054.1694    10326.261    486.21042    695.13142   -301.97557    -6115.922 
 6140000    265.67906   -9095.4903   -8082.6006   -9095.4903            0    8941.0018    24.875882    25.040881    22.981583    14315.549    9310.5743    8295.1106    9217.3206    -373.7842    735.25522   -1833.6169   -6215.9196 
 6141000    264.75043   -9129.0766   -8119.7272   -9129.0766            0    8085.2625    24.767618    25.005877    23.198027    14367.373     9665.156    7375.2888    7215.3426   -133.71384    663.79427    752.00784   -6425.5947 
 6142000    259.35396   -9113.8049   -8125.0293   -9113.8049            0    8523.5089    24.935834    24.985638    23.041516    14355.734    8794.7983     8221.174    8554.5543   -528.42834    474.76808   -544.85407   -6340.5164 
 6143000    270.03675   -9113.8881   -8084.3849   -9113.8881            0    7407.5227    25.019723    25.132044    22.902856    14401.242    7552.7755    5766.4152    8903.3775    -1113.166    307.40516    1722.8764   -6528.6025 
 6144000    262.52054   -9084.5696   -8083.7215   -9084.5696            0    8863.0762    24.917586    24.921662    23.101609    14345.814    8671.3331    9876.4236     8041.472    371.78931    113.09637    158.74359   -6229.3978 
 6145000    269.05607   -9041.8977   -8016.1333   -9041.8977            0    10558.812     24.98134    24.847106    23.004355    14279.125     11455.02    10254.399     9967.019    -330.2053    748.61301    89.177516   -5817.2987 
 6146000    262.72536   -9091.2042   -8089.5754   -9091.2042            0    8579.9889    24.986579    24.953693    22.976179    14325.818    9102.2155    9212.5405    7425.2108   -982.79161    78.984827   -632.40421   -6296.9809 
 6147000    267.20726   -9119.5126   -8100.7967   -9119.5126            0    8061.1452    24.959993    24.885236    23.123213    14362.644    8625.6878    8749.5877      6808.16     946.2507   -353.23033    1946.8839   -6412.2735 
 6148000    260.30227   -9118.9734   -8126.5824   -9118.9734            0    8478.1345    24.912073    25.052696    22.992937    14350.227    7961.4612    8801.4607    8671.4814    283.16949    1441.5259   -543.56582   -6352.2501 
 6149000     270.4391   -9101.1113   -8070.0741   -9101.1113            0    8064.2673    24.862793     25.10488    23.014701    14365.257    7802.5398    8260.8336    8129.4285    76.861474    545.35144   -201.79563   -6380.5896 
 6150000    260.75399   -9100.6312   -8106.5181   -9100.6312            0    8705.0127    24.969083    24.856681     23.09804    14335.765    8043.8425    8929.3005    9141.8952    1129.1912   -377.55285   -92.343957     -6286.54 
 6151000    270.44996   -9103.4746    -8072.396   -9103.4746            0    9185.8216    25.009051    24.987441     22.93413    14331.817    8407.2053    9486.4633    9663.7963   -44.539531   -103.62508     333.8228   -6152.4228 
 6152000    258.66702   -9094.3842   -8108.2275   -9094.3842            0    8666.2358    24.932941    24.917232    23.041066     14314.49     8305.634     10341.74    7351.3338    224.24083   -719.37931    58.674335   -6299.0454 
 6153000    264.13753   -9076.9014   -8069.8886   -9076.9014            0    8700.1148    24.930646     24.97996    23.034526    14345.132    7659.6383    9906.8186    8533.8875   -396.49947    -100.6001   -667.51486    -6249.746 
 6154000    258.63353   -9112.7396   -8126.7106   -9112.7396            0     7822.846    24.983111    24.932107    23.096147    14386.166     8080.569    8306.7595    7081.2095   -1322.5438    603.68012    392.17422   -6485.4191 
 6155000    263.65837   -9097.8578   -8092.6718   -9097.8578            0    8275.6084    25.109871    25.039674    22.793274    14331.111    7631.0395    8292.4145     8903.371   -214.35439   -294.98474      1200.89    -6363.032 
 6156000    241.28365   -9101.1365   -8181.2531   -9101.1365            0    9069.0989    24.876805    24.912822    23.109002    14321.837    9405.2926    9312.0701    8489.9339   -1203.2429   -127.20413   -656.57885   -6286.9968 
 6157000    265.54538    -9107.649   -8095.2689    -9107.649            0    8241.9794    24.929546    25.068765    22.958965    14348.272    9393.6641    7190.0574    8142.2168   -14.193044     335.6882   -820.54039   -6370.5949 
 6158000    263.96255   -9095.8465   -8089.5009   -9095.8465            0    8000.0575    24.995996      25.0101    22.991746    14373.344    7271.8981    8212.2146      8516.06    567.69426   -244.86337    76.022665    -6412.525 
 6159000     265.3266   -9066.9305   -8055.3845   -9066.9305            0    8428.1597    24.894838    24.860054    23.232952    14378.572    9806.3119    8555.0539    6923.1135   -16.905784     111.5628    54.013277    -6288.027 
 6160000    261.05932   -9082.3419   -8087.0647   -9082.3419            0    10272.783    25.048763    24.919344    22.855403    14266.314    8280.4801    11670.343    10867.527    606.67904   -178.80405   -427.68615    -5949.714 
 6161000    251.52279   -9096.7474   -8137.8278   -9096.7474            0    9385.6604    24.918382    24.912869    23.018734    14289.763    9017.8835    11194.811    7944.2867    187.33255   -1073.9684   -487.74434   -6181.8418 
 6162000    264.82939   -9092.9236   -8083.2732   -9092.9236            0    9025.8974    24.946034    24.924704    23.028385    14318.417    8373.4798    9599.2143    9104.9982    182.86597   -108.50371    367.70239   -6198.4904 
 6163000    269.67639   -9099.7433   -8071.6139   -9099.7433            0     9181.554    25.002617    24.870886    23.000855    14302.788     7773.731    9235.6667    10535.264    606.71286   -315.70833    133.58114   -6156.4199 
 6164000    259.81864   -9101.6079   -8111.0608   -9101.6079            0    7740.6026    25.069558    25.005397    22.947601     14385.26    7104.8682     8314.833    7802.1066   -198.05429   -817.75701    1085.4398   -6487.1268 
 6165000    262.77948   -9082.3423   -8080.5071   -9082.3423            0    8868.3554    25.026006    24.950659    22.978836    14348.338    8878.4517    8419.3715    9307.2431   -611.27641   -1113.8062    239.08643   -6224.7523 
 6166000    266.42115   -9074.4057   -8058.6868   -9074.4057            0    9297.3487    24.926336    24.957279    23.050108    14339.323    8706.8831    8950.4464    10234.717   -178.76398    52.226768    169.18146   -6114.3851 
 6167000    256.82261   -9134.8606   -8155.7357   -9134.8606            0    7733.6363    25.020658    24.957551    22.988527    14355.286    7536.2293    8086.7953    7577.8842    2.4006239    15.404444   -333.52302   -6536.6439 
 6168000    272.34072   -9067.9406   -8029.6535   -9067.9406            0      8083.83    25.101188    24.936202    22.998233    14395.245    6976.7749    9286.3066    7988.4086    64.283178   -1108.4755     838.3984   -6332.5352 
 6169000    256.44547    -9067.135   -8089.4479    -9067.135            0    6607.4839    25.099975    24.951625    23.054737    14438.839     6210.416    7007.0824    6604.9532   -362.20762   -655.50815   -25.950867   -6698.0726 
 6170000    262.55868   -9090.1262   -8089.1327   -9090.1262            0    8557.8197     25.11719    24.848316    22.986643    14346.421    9382.1646    8412.7824    7878.5123     1039.193   -309.71623   -712.71336   -6298.5987 
 6171000    256.05039    -9078.443   -8102.2621    -9078.443            0    8287.7357    25.091453    24.846165    23.021094    14351.957    7152.3108    9262.2146    8448.6816    292.87804   -1183.1237   -136.99189    -6367.568 
 6172000    256.77448   -9079.1194    -8100.178   -9079.1194            0    9222.0097    25.123563    24.795834    23.040058    14353.028    7783.5167    10847.904    9034.6086   -728.57968   -889.98119    69.397462   -6169.7883 
 6173000    268.90233   -9120.9848   -8095.8065   -9120.9848            0    8738.7612    25.058653     24.86183    22.995334    14326.185    6939.0062    10332.259    8945.0184    294.24504   -449.82772    155.43478   -6269.9934 
 6174000    261.66939    -9113.213   -8115.6099    -9113.213            0    8217.0166     25.15344    24.918637    22.924905    14369.088    6992.9108    8170.8075    9487.3315   -260.01484    261.53935   -776.34567    -6393.665 
 6175000     256.0585   -9074.3042   -8098.0925   -9074.3042            0    8826.1956    24.998342    24.882273    23.046087    14335.025    7908.5616    9811.4933     8758.532    850.23896      191.727    639.52274   -6252.8736 
 6176000    257.93381   -9098.0215   -8114.6602   -9098.0215            0     8890.226    24.915216    24.970655    22.967828    14289.417    10004.877    8855.0565     7810.745   -75.760087     6.151057    284.01705   -6261.9683 
 6177000    264.31165   -9101.6566     -8093.98   -9101.6566            0    7322.8249    25.098923    24.949058     23.06191    14441.241    6280.8973      8133.79    7553.7873   -173.89405   -602.85036   -98.103747   -6551.7148 
 6178000    261.72556   -9096.0559   -8098.2387   -9096.0559            0    6975.1906    25.001368    25.017035    23.066857    14427.399    6184.9957    7199.9075    7540.6687   -331.60371   -545.00532    919.84841   -6630.5971 
 6179000    258.09897   -9083.3728   -8099.3818   -9083.3728            0    5923.1576    24.936295    25.136497    23.119058    14491.282    6374.3452    4939.3145    6455.8129    396.35459    75.625717   -300.18924   -6847.5789 
 6180000    258.45636   -9105.8422   -8120.4887   -9105.8422            0    7326.0534    24.818305    25.121545    23.121749    14415.814    8281.8675    7213.1238    6483.1687     411.1414   -176.34294   -1169.1509   -6580.2603 
 6181000    263.85294   -9090.3923   -8084.4646   -9090.3923            0    9466.8114    24.871041    25.123954    22.878337    14295.732    9892.0053    8567.1684    9941.2606   -193.11528   -627.46383    604.27789   -6110.7425 
 6182000    271.10815   -9070.2589    -8036.671   -9070.2589            0    8984.0858    24.918986    24.979598    23.056522    14351.907    8290.6668    9629.9922    9031.5986   -67.376818    301.90254    357.08709   -6156.2313 
 6183000    266.06138   -9101.1109   -8086.7636   -9101.1109            0    9813.7158    24.902794    24.935124    23.014439    14290.914    9533.2899    9838.9907    10068.867    256.64987   -1156.1987    981.41298   -6041.4055 
 6184000    263.31104    -9074.795   -8070.9333    -9074.795            0    9249.3813    24.998667    25.017549     22.88769    14314.084    9192.2787    8806.9915    9748.8736   -34.280767   -1247.1685    236.01822   -6140.0672 
 6185000    279.15938   -9085.1671   -8020.8842   -9085.1671            0       9009.6    24.923936    24.940179    23.039223    14321.352    8644.1078    8887.0487    9497.6436    297.87031   -962.47701   -403.89076   -6139.1191 
 6186000    267.35168   -9064.1485    -8044.882   -9064.1485            0    7842.4215    24.868908    25.074249     23.08348    14394.147    8088.4709    7304.3772    8134.4164   -556.60229   -600.59746    104.69686   -6398.5705 
 6187000    257.74361   -9141.1111   -8158.4749   -9141.1111            0    7327.3182    24.943249    25.109199    22.997219    14403.273    6323.7356    7404.3451    8253.8738    497.30831   -537.32373   -205.26387   -6619.3206 
 6188000    266.99076   -9076.9584   -8059.0679   -9076.9584            0    7667.1836    24.959758    25.054644    23.041056    14408.906     6951.429    7661.7496    8388.3722    779.85073   -293.63292   -471.93895   -6447.8928 
 6189000    260.63837   -9142.6049   -8148.9325   -9142.6049            0    7752.4782    24.882855    25.069224     23.00959    14353.241    7696.3911    7213.3071    8347.7364    404.10451    564.54535   -30.077464   -6526.1272 
 6190000    272.22686   -9080.5586   -8042.7056   -9080.5586            0    8785.8942    24.779215    25.076415    23.124208    14368.778    9957.7744    8255.6063    8144.3018    609.51534   -38.934099   -769.74475   -6201.5873 
 6191000    256.66228   -9052.3281   -8073.8144   -9052.3281            0    8160.0567    24.975716    25.068406    22.983854    14390.223    8636.5717    7414.8733    8428.7251    93.607895   -100.00256    172.30499   -6361.2907 
 6192000    271.84337   -9096.7384   -8060.3475   -9096.7384            0    8955.3229    24.889911    24.860003    23.165305     14333.84    7686.2112    10023.526    9156.2317   -204.99411    1153.0693    556.18224   -6188.2878 
 6193000     261.5044   -9083.1857   -8086.2117   -9083.1857            0    9069.4199    24.987072     24.92295    23.011661    14330.547    9478.0916    9098.2565    8631.9114    1004.7612    170.92957    706.79943   -6190.7362 
 6194000    256.72635   -9077.2387   -8098.4807   -9077.2387            0    8193.8738    25.091241     25.00746    22.887837     14361.39    8009.3155    8208.9605    8363.3454   -150.04177    334.08559   -367.93011   -6382.3055 
 6195000    258.71583   -9075.5181   -8089.1754   -9075.5181            0    9147.9649    25.098294    24.781804    23.081766     14356.42    8658.5071    9415.1943    9370.1932     30.99582    920.80332   -582.78725   -6173.8325 
 6196000    269.46818   -9093.4581   -8066.1225   -9093.4581            0    10151.563    24.956584    24.891397    22.991035    14282.129    9689.8105    11031.426    9733.4532    328.03089   -143.94881    440.81209   -5951.6514 
 6197000    259.91128   -9072.0597   -8081.1594   -9072.0597            0    7847.8688    25.068932    25.062174    22.910966    14394.547    6657.8505     6935.486    9950.2698   -730.69861    222.37997    15.544823   -6433.6587 
 6198000    264.42177    -9075.897   -8067.8006    -9075.897            0    7597.8109    24.864981    24.954929    23.184223    14385.899    8110.7952    7804.9017    6877.7359   -150.39017    -234.1833   -486.66754   -6473.7526 
 6199000    266.38154   -9061.5456   -8045.9777   -9061.5456            0    8243.1077    24.902768    25.113777    22.954902    14356.054    9400.6061    6915.1171    8413.5998    676.18677    1314.5226     1663.136   -6320.1321 
 6200000    266.73755   -9102.5592    -8085.634   -9102.5592            0    9317.1698     24.83009    25.039485    22.961505    14275.918    10937.375    8284.8694    8729.2646    59.986312    748.38999   -592.61319   -6145.8028 
 6201000    287.24245   -9122.3946   -8027.2954   -9122.3946            0    9565.2089    24.772371    24.999756    23.027042    14260.722    10620.517    9047.3038     9027.806   -151.91916    435.66788    306.37678   -6037.9424 
 6202000    268.66072    -9116.753   -8092.4958    -9116.753            0    10423.623    24.772489    24.978498    23.075027    14278.355    11235.283    9459.0385    10576.547   -332.84818   -274.04252    426.04769    -5921.931 
 6203000    262.08854   -9132.1434   -8132.9423   -9132.1434            0     9350.921    24.907591    25.032416    22.912285    14285.745    8182.4033    9883.7643    9986.5954   -265.46259   -557.32512    359.08515    -6184.744 
 6204000    274.22561   -9107.2034   -8061.7303   -9107.2034            0      9653.02    24.768206    25.106898    23.041786    14328.599    11258.738    7696.5094    10003.813    1019.5405   -62.692993    -161.3331   -6044.5588 
 6205000    257.07665   -9107.5817   -8127.4883   -9107.5817            0    8362.2609    24.958809    25.028238    23.008659    14372.935    9005.1187     7749.235    8332.4289   -231.12418   -907.04346   -128.04239   -6374.6371 
 6206000    260.20946   -9178.1077   -8186.0705   -9178.1077            0    6863.9831    24.895982    25.091302    23.032447    14387.739    8142.2623    5476.2014    6973.4856   -428.35381   -763.84865   -693.25461   -6745.7982 
 6207000    263.15845   -9088.8762   -8085.5962   -9088.8762            0    9573.8309    24.817283    25.085404    22.973459    14302.163    10009.409    8980.9618    9731.1218    718.90734   -560.97101   -59.622336   -6088.6638 
 6208000    267.26854   -9112.0552   -8093.1056   -9112.0552            0    8181.8788    24.801694    25.091657    23.093064    14371.174     9919.757    7975.7763    6650.1031    410.88755    1220.8797   -189.31284   -6378.2751 
 6209000    267.28578   -9070.4373    -8051.422   -9070.4373            0     7803.655     24.89923     25.19581    22.933279    14387.336    9920.6236    5346.5251    8143.8164   -183.68699    101.00946   -892.87677   -6414.0237 
 6210000     269.6039   -9105.1988   -8077.3457   -9105.1988            0    8502.9841    24.907775    25.028159    23.003211    14340.104     8294.743    9028.3454    8185.8638    -194.3417    310.51963    -822.0852   -6299.0681 
 6211000    275.26716   -9110.4382   -8060.9943   -9110.4382            0    8243.5249    24.789058    24.959442    23.185081    14345.098    9844.0445    7365.6935    7520.8367   -1363.8733    -1290.786    827.59628   -6336.3785 
 6212000    264.82081   -9115.3193   -8105.7016   -9115.3193            0    8916.4417    24.971286    24.994855    22.956955    14328.668    7765.2126    10324.528    8659.5842   -600.13283    496.57456    552.86085   -6242.4423 
 6213000    256.63615    -9077.313   -8098.8989    -9077.313            0    8894.0019    25.023165    25.068205    22.872037    14347.304     8421.292    8906.8657    9353.8479   -806.52842    -687.1337    1703.9154   -6237.9116 
 6214000    271.30612   -9098.5988   -8064.2561   -9098.5988            0    8825.5198    24.847555     24.90031    23.187108    14346.138    10567.924    8518.9755    7389.6597   -555.04091    -338.1714    388.81453   -6217.7482 
 6215000    263.72255   -9111.6345   -8106.2038   -9111.6345            0    8005.4854    25.038057    25.059907    22.857151    14341.751    6362.1202    7275.5517    10378.784    215.45906   -65.956833   -372.80825   -6431.7788 
 6216000    258.99158   -9124.2983   -8136.9043   -9124.2983            0     7581.672    25.052927    25.043682    22.924643    14383.323    7081.6288    7305.4538    8357.9334    264.45106    1066.6088   -97.050408   -6546.5271 
 6217000    271.03575   -9097.2932   -8063.9813   -9097.2932            0    8176.2617    24.967749    24.885973     23.12291    14367.344    8710.3861     7898.835    7919.5639    1028.2111   -317.19866    1490.9893   -6350.7848 
 6218000    269.02571   -9103.7567    -8078.108   -9103.7567            0    7962.7685    24.981844     24.95865     23.03047      14359.8    6984.9924    8791.2373    8112.0759    -35.31572    514.77928    587.23654   -6410.5215 
 6219000    262.27437   -9117.7089   -8117.7993   -9117.7089            0    9384.6252    25.055144     24.95946    22.856399    14293.543    8913.8941    8320.9731    10919.008    485.63306   -36.134684   -415.22429   -6161.5117 
 6220000    264.23689   -9111.2013   -8103.8097   -9111.2013            0    7956.5026    25.020187    24.951993    22.991329    14353.568    8644.8458    8233.8604    6990.8016    1258.5618    372.10744     836.7202   -6438.2586 
 6221000    261.08643   -9081.2783   -8085.8977   -9081.2783            0    8641.7209    24.893846    24.780483    23.241579    14337.301    8619.0836    10053.419    7252.6606   -243.29004    712.54416   -398.01126   -6278.9586 
 6222000    260.70292   -9101.4545   -8107.5361   -9101.4545            0    9740.1251    24.956052      24.9495    22.914472    14267.491    8799.3816    9677.5102    10743.484   -16.738398   -940.58502    469.92324   -6080.8428 
 6223000    265.34582   -9102.0577   -8090.4384   -9102.0577            0    9598.3004    24.830789    24.993281    23.034206    14295.095    9727.8585    9980.3927      9086.65   -1003.7554   -1069.7944   -559.79929   -6089.3915 
 6224000    270.80241   -9043.0929   -8010.6706   -9043.0929            0    10271.438    24.862808    24.960371    23.027361    14290.433    10565.422    9810.7608     10438.13   -391.92237   -600.21398    181.83345   -5869.9869 
 6225000    265.64442   -9108.3104   -8095.5527   -9108.3104            0    8597.4304    24.923152    25.135084    22.892988     14341.21    8939.9421    8797.2106    8055.1384   -197.32194   -1173.4248      487.138   -6297.3844 
 6226000    266.20136   -9107.2675   -8092.3865   -9107.2675            0     8448.051    24.915339    24.898099    23.097828    14328.613    8346.9234    9500.6925     7496.537   -299.50239   -1841.7127    692.43906   -6327.0132 
 6227000    267.54237   -9087.2357   -8067.2422   -9087.2357            0    7155.3282    24.989626    25.044035    23.086144    14448.257    6055.0822    7323.5989    8087.3034   -244.75766    40.520762    428.31311   -6559.5214 
 6228000    269.46895    -9077.667   -8050.3285    -9077.667            0    7353.9749    25.014986    25.121782    22.906158    14394.711    7314.1595     6506.128    8241.6374    -201.4956   -338.99282   -123.00548   -6506.4931 
 6229000    258.87128   -9095.5396   -8108.6043   -9095.5396            0    7932.8888    24.911018    25.003715    23.087146    14380.245    8714.8589    8000.8879    7082.9196     610.9676    -1454.724    390.06375     -6444.91 
 6230000    268.27574   -9095.5336   -8072.7441   -9095.5336            0    7490.6036    24.930325     25.09912     23.01687    14402.328    7594.3723    6972.6565    7904.7819   -105.04996   -212.12766   -535.53087   -6499.3939 
 6231000    271.15227   -9074.3715   -8040.6154   -9074.3715            0    8228.9353    24.940342    25.110719     22.95434    14375.613    8640.6189    7684.7337    8361.4532   -544.04659    1007.8836   -526.27822   -6315.3898 
 6232000    268.94656   -9099.0182   -8073.6713   -9099.0182            0    7764.8296    24.875117    25.094904    23.025119    14373.169    9371.1903    6404.4742    7518.8243    259.86513   -210.73875    477.48907   -6446.0237 
 6233000    270.20501   -9082.1265   -8051.9818   -9082.1265            0    9036.8026    24.791161    25.088065    23.042628    14331.645    11192.062    7325.1183    8593.2273   -307.31928    -518.9024   -211.09197   -6163.1785 
 6234000    268.01335   -9091.7885   -8069.9993   -9091.7885            0    8443.1471    24.830585    25.102196    23.003235    14337.967    10391.961    6926.8997    8010.5803    396.64701   -1111.2179    161.62772   -6304.4989 
 6235000    260.43657   -9108.8992   -8115.9962   -9108.8992            0    8756.6326    24.750368    25.030196    23.116577    14320.871    10896.748    7265.5094    8107.6408    252.30793    298.63998    492.79067   -6287.1279 
 6236000    273.01876   -9113.9351    -8073.063   -9113.9351            0    9357.0259    24.956026    24.997933    22.939308    14310.666    8963.3241    9664.4607    9443.2929    399.05181   -1123.4737    361.92063    -6120.192 
 6237000    258.50777   -9082.5052   -8096.9557   -9082.5052            0    9318.4602     24.87122     24.90845    23.096065    14308.094    10322.869    9423.5532     8208.958   -1107.0874   -586.08337    247.02437   -6152.4831 
 6238000    276.03917   -9073.9854   -8021.5982   -9073.9854            0    8123.6081    24.902382    25.136859    22.963483    14374.398    7836.4267    8052.0964    8482.3012   -443.56563    256.54968    753.04167   -6318.5987 
 6239000    260.51844   -9077.5494   -8084.3343   -9077.5494            0    7678.8074     24.97057    25.032303     23.04434    14404.346    7814.7322    6589.8077    8631.8824   -159.23026    215.61081   -189.21721   -6471.2272 
 6240000    269.55783   -9071.2681   -8043.5907   -9071.2681            0    9601.5817    24.860878    24.993578    23.037294    14314.506    10549.097    9030.9483    9224.6995    572.81846   -63.312998   -305.44615   -6039.1415 
 6241000    269.88875   -9096.8035   -8067.8645   -9096.8035            0     8432.946    25.017409    25.023446    22.910223    14342.299    7946.1219    8165.5393    9187.1769    143.33372    326.91707    368.69301   -6303.9644 
 6242000    267.16582   -9064.5489    -8045.991   -9064.5489            0    9258.4798    24.697578    25.023403    23.214368    14346.884    10853.175    8658.8514    8263.4133   -559.97704    620.04546    969.31735   -6108.7967 
 6243000    266.19302   -9102.6349   -8087.7857   -9102.6349            0    8141.3773    24.958162    25.158846    22.875216    14363.772    7569.0989    7118.1584    9736.8745   -248.16863    315.12192   -1031.7135   -6382.3228 
 6244000    259.68637   -9101.7247   -8111.6818   -9101.7247            0     8796.156    24.865708    24.996696    23.070145    14339.492    10559.825    7341.8842     8486.759    956.75668    404.08737    54.790257     -6272.17 
 6245000    265.49816   -9091.9594   -8079.7594   -9091.9594            0    8855.8773    24.924766    24.980282    23.049868    14351.486    8641.0355    9449.3823    8477.2141   -553.94794    571.39328   -408.54633   -6226.2091 
 6246000    255.82026   -9077.8279   -8102.5244   -9077.8279            0    7657.0327    25.010244    25.093095    22.922235    14385.638    8362.4796    7346.0033    7262.6153    643.33917   -684.41735    949.06817   -6496.0807 
 6247000    261.43729   -9026.2048   -8029.4866   -9026.2048            0    9850.7425    24.934387    24.892796    23.081812    14326.572    10116.392    10217.983    9217.8527    227.40331   -441.55934   -445.23681   -5971.2887 
 6248000    255.26276   -9100.3232   -8127.1452   -9100.3232            0    8357.7513    24.916302    24.914971     23.09116    14334.737    7913.1736    9372.7113    7787.3691    73.262113    640.70162   -719.93611   -6379.8952 
 6249000    257.72394   -9125.2377   -8142.6765   -9125.2377            0    9282.0016    24.956239     25.09322    22.790465    14272.127    7663.9489     9268.609    10913.447    203.53349      846.239   -532.11724   -6210.6804 
 6250000     268.7107   -9078.5378   -8054.0901   -9078.5378            0     8237.574    24.874392    25.069829    23.079915     14392.56    7881.3196    7957.7256    8873.6767   -864.43326   -1344.7077   -58.116021   -6325.0173 
Loop time of 527.57 on 64 procs for 250000 steps with 1920 atoms

Performance: 81.885 ns/day, 0.293 hours/ns, 473.871 timesteps/s
99.2% CPU use with 64 MPI tasks x 1 OpenMP threads

MPI task timing breakdown:
Section |  min time  |  avg time  |  max time  |%varavg| %total
---------------------------------------------------------------
Pair    | 63.024     | 65.126     | 66.994     |  13.2 | 12.34
Bond    | 0.27349    | 0.28374    | 0.29391    |   0.9 |  0.05
Kspace  | 220.66     | 232.07     | 238.45     |  21.6 | 43.99
Neigh   | 5.6367     | 6.7206     | 7.2783     |  12.9 |  1.27
Comm    | 94.323     | 100.58     | 115.89     |  41.3 | 19.06
Output  | 1.9025     | 1.9039     | 1.9162     |   0.2 |  0.36
Modify  | 107.16     | 113.26     | 118.42     |  28.6 | 21.47
Other   |            | 7.634      |            |       |  1.45

Nlocal:        30.0000 ave          34 max          26 min
Histogram: 1 6 7 9 0 15 11 12 2 1
Nghost:        2775.11 ave        2827 max        2741 min
Histogram: 5 9 12 12 7 5 7 2 4 1
Neighs:        10549.7 ave       11894 max        9346 min
Histogram: 6 5 2 11 9 10 9 7 3 2

Total # of neighbors = 675182
Ave neighs/atom = 351.65729
Ave special neighs/atom = 2.0000000
Neighbor list builds = 11484
Dangerous builds = 2

unfix		3
unfix		2
unfix		1

write_data	data.final.${pid}
write_data	data.final.0
System init for write_data ...
PPPM initialization ...
  extracting TIP4P info from pair style
  using 12-bit tables for long-range coulomb (../kspace.cpp:340)
  G vector (1/distance) = 0.37427467
  grid = 30 30 30
  stencil order = 5
  estimated absolute RMS force accuracy = 0.0032913314
  estimated relative force accuracy = 9.9117468e-06
  using double precision FFTW3
  3d grid and FFT values/proc = 3600 512
Last active /omp style is kspace_style pppm/tip4p/omp
WARNING: Not all mixed pair coeffs generated from mixing. Use write_data with 'pair ij' option to store all pair coeffs. (../write_data.cpp:312)

write_restart   restart.lmp.${pid}
write_restart   restart.lmp.0
System init for write_restart ...
PPPM initialization ...
  extracting TIP4P info from pair style
  using 12-bit tables for long-range coulomb (../kspace.cpp:340)
  G vector (1/distance) = 0.37427467
  grid = 30 30 30
  stencil order = 5
  estimated absolute RMS force accuracy = 0.0032913314
  estimated relative force accuracy = 9.9117468e-06
  using double precision FFTW3
  3d grid and FFT values/proc = 3600 512
Last active /omp style is kspace_style pppm/tip4p/omp
Total wall time: 0:08:48
