LAMMPS (30 Jul 2021)
Processor partition = 0
  using 2 OpenMP thread(s) per MPI task
using multi-threaded neighbor list subroutines
variable        pid world 0 1
variable        phase world IceVI Liquid

shell cd ${phase}
shell cd IceVI
include Restart.lmp
echo both
log log.lammps
#include		in.partitions
include		in.temp
variable        temperature equal 280.32
variable	tempDamp equal 100.0
include		in.pressure
variable        pressure equal 10875.0
variable        pressureDamp equal 1000.0 # This is 1 ps
include		in.seed
variable        seed equal 745823

units		real
atom_style	full
read_restart	restart.lmp.${pid}
read_restart	restart.lmp.0
Reading restart file ...
  restart file = 30 Jul 2021, LAMMPS = 30 Jul 2021
  restoring atom style full from restart
  orthogonal box = (-0.064304843 -0.093049328 -0.11134213) to (24.794306 24.823050 22.921342)
  4 by 4 by 2 MPI processor grid
  restoring pair style lj/cut/tip4p/long/omp from restart
  restoring bond style harmonic/omp from restart
  restoring angle style harmonic/omp from restart
  1920 atoms
  1280 bonds
  640 angles
Finding 1-2 1-3 1-4 neighbors ...
  special bond factors lj:    0        0        0       
  special bond factors coul:  0        0        0       
     2 = max # of 1-2 neighbors
     1 = max # of 1-3 neighbors
     1 = max # of 1-4 neighbors
     2 = max # of special neighbors
  special bonds CPU = 0.002 seconds
  read_restart CPU = 0.009 seconds
include 	in.setup
variable	out_freq equal 1000
variable	out_freq2 equal 10000
variable	out_freq3 equal 1000

timestep	2.0

neigh_modify    delay 7 every 1

include		in.tip4p
# This is TIP4P/Ice

# create groups ###
group ox type 2
640 atoms in group ox
group hy type 1
1280 atoms in group hy

# set charges - beside manually ###
set group ox charge -1.1794
Setting atom values ...
  640 settings made for charge
set group hy charge 0.5897
Setting atom values ...
  1280 settings made for charge

# ### TIP3P Potential Parameters ###
pair_style lj/cut/tip4p/long/omp 2 1 1 1 0.1577 8.5
pair_coeff 1 1*2 0.000 0.000
pair_coeff 2 2 0.21084 3.1668
bond_style  harmonic
bond_coeff  1 450 0.9572
angle_style harmonic
angle_coeff 1 55 104.52
kspace_style pppm/tip4p/omp 1.0e-5
pair_modify tail yes

thermo          ${out_freq}
thermo          1000
thermo_style    custom step temp pe etotal epair emol press lx ly lz vol pxx pyy pzz pxy pxz pyz enthalpy

restart 	${out_freq3} restart.lmp.${pid} restart2.lmp.${pid}
restart 	1000 restart.lmp.${pid} restart2.lmp.${pid}
restart 	1000 restart.lmp.0 restart2.lmp.${pid}
restart 	1000 restart.lmp.0 restart2.lmp.0


include         in.dump
dump            myDump all atom ${out_freq2} dump.water.${pid}
dump            myDump all atom 10000 dump.water.${pid}
dump            myDump all atom 10000 dump.water.0
dump            myDump2 all dcd ${out_freq2} dump.dcd
dump            myDump2 all dcd 10000 dump.dcd
dump_modify     myDump append yes
dump_modify     myDump2 append yes


variable natoms 	equal  "count(all)"                        # NUMBER ATOMS
variable H      	equal  "enthalpy/v_natoms"                 # ENTHALPY-per-atom
variable Vol      	equal  "vol/v_natoms"                 # volume-per-atom
fix AVG all 		ave/time ${out_freq} 1 ${out_freq} v_Vol v_H file vol_enthalpy.dat
fix AVG all 		ave/time 1000 1 ${out_freq} v_Vol v_H file vol_enthalpy.dat
fix AVG all 		ave/time 1000 1 1000 v_Vol v_H file vol_enthalpy.dat




fix 		1 all shake 1e-6 200 0 b 1 a 1
Finding SHAKE clusters ...
       0 = # of size 2 clusters
       0 = # of size 3 clusters
       0 = # of size 4 clusters
     640 = # of frozen angles
  find clusters CPU = 0.001 seconds
fix             2 all nph aniso ${pressure} ${pressure} ${pressureDamp}
fix             2 all nph aniso 10875 ${pressure} ${pressureDamp}
fix             2 all nph aniso 10875 10875 ${pressureDamp}
fix             2 all nph aniso 10875 10875 1000
fix             3 all temp/csvr ${temperature} ${temperature} ${tempDamp} ${seed}
fix             3 all temp/csvr 280.32 ${temperature} ${tempDamp} ${seed}
fix             3 all temp/csvr 280.32 280.32 ${tempDamp} ${seed}
fix             3 all temp/csvr 280.32 280.32 100 ${seed}
fix             3 all temp/csvr 280.32 280.32 100 745823


run             250000
PPPM initialization ...
  extracting TIP4P info from pair style
  using 12-bit tables for long-range coulomb (../kspace.cpp:340)
  G vector (1/distance) = 0.37453104
  grid = 30 30 30
  stencil order = 5
  estimated absolute RMS force accuracy = 0.0032602371
  estimated relative force accuracy = 9.8181072e-06
  using double precision FFTW3
  3d grid and FFT values/proc = 5400 960
Last active /omp style is kspace_style pppm/tip4p/omp
Neighbor list info ...
  update every 1 steps, delay 7 steps, check yes
  max neighbors/atom: 2000, page size: 100000
  master list distance cutoff = 10.8154
  ghost atom cutoff = 10.8154
  binsize = 5.4077, bins = 5 5 5
  1 neighbor lists, perpetual/occasional/extra = 1 0 0
  (1) pair lj/cut/tip4p/long/omp, perpetual
      attributes: half, newton on, omp
      pair build: half/bin/newton/omp
      stencil: half/bin/3d
      bin: standard
Setting up Verlet run ...
  Unit style    : real
  Current step  : 3500000
  Time step     : 2
Per MPI rank memory allocation (min/avg/max) = 10.54 | 10.55 | 10.56 Mbytes
Step Temp PotEng TotEng E_pair E_mol Press Lx Ly Lz Volume Pxx Pyy Pzz Pxy Pxz Pyz Enthalpy 
 3500000    283.09955   -8999.6298   -7920.3252   -8999.6298            0     10990.23    24.858611      24.9161    23.032684    14265.975    11613.036    10763.662    10593.993    308.98189    596.11089   -699.31676   -5633.7571 
 3501000    285.27194   -9058.9209   -7971.3342   -9058.9209            0    10378.773    24.869465    25.079082    22.832701    14240.832    10735.918    9572.6696    10827.732   -240.24745    212.20607     621.2671   -5815.7884 
 3502000    278.01972   -9011.2295   -7951.2915   -9011.2295            0     11556.89    24.868187      24.9519    22.983535    14261.479     11900.31    11880.997    10889.362    -305.7434    924.80575    871.27202   -5547.5851 
 3503000    290.64202   -9048.4303   -7940.3704   -9048.4303            0    12248.999    24.867913    24.914546    22.917633    14199.141    11730.394    12927.037    12089.566    232.60201    524.92327     11.15236   -5403.8488 
 3504000    280.70133   -9069.1171   -7998.9556   -9069.1171            0    9922.3375    24.949969    24.848835    23.040015    14284.295    9332.5272    9914.5383    10519.947   -199.11805    603.80343   -1329.9613   -5931.9165 
 3505000    279.52918   -9007.3285   -7941.6358   -9007.3285            0    9670.0038    25.115416    24.885761    22.928574    14330.731    8328.2098    10807.157    9874.6443    -444.4387    232.97297   -702.21069   -5920.6146 
 3506000    285.10605   -9001.3247   -7914.3704   -9001.3247            0    9953.9754    24.988236    24.902533    22.983396    14301.887    9969.1531    10882.288     9010.485    356.71135   -503.08094    78.922734   -5838.1866 
 3507000    273.82931   -9031.9681   -7988.0059   -9031.9681            0    9187.0704    24.944063    25.007999    22.974677    14331.628    10207.029    8436.9008    8917.2809   -552.15784   -161.73603   -1131.2665    -6067.797 
 3508000    281.99314   -9065.0257   -7989.9392   -9065.0257            0    10582.392    24.820747    25.072809    22.962294    14290.029    10972.543    9143.7715    11630.861    310.26742   -399.91052   -1281.7878   -5784.5114 
 3509000     285.6772   -9000.6921   -7911.5603   -9000.6921            0    9885.2412     24.79056     25.11643    23.004258     14323.61    11004.515    8475.2044    10176.004      219.661    630.90095    706.72231   -5846.5813 
 3510000    271.81606   -8967.4568     -7931.17   -8967.4568            0     10791.93    24.882863    25.008788    22.967165    14292.243    10550.195    9899.3668    11926.227     726.9664    -1384.247   -556.67755    -5681.725 
 3511000    275.85234   -9020.8319    -7969.157   -9020.8319            0    9896.5805    24.969956    25.006514    22.940445    14324.279    10021.838    9203.6307    10464.273    924.61781    -422.2017   -72.590859   -5901.7127 
 3512000    275.90768   -8973.6195   -7921.7336   -8973.6195            0    9335.4682    24.940828    24.987288    23.079392    14383.161     9919.571    9901.9671    8184.8663   -895.05126    1041.0158    567.69568   -5963.4917 
 3513000    284.56082   -9022.7527   -7937.8771   -9022.7527            0    8994.3821    24.979309    25.060105    22.956973      14370.7    9826.5159     8055.262    9101.3685    328.72669   -59.137381    171.27184   -6052.8172 
 3514000    278.98041   -9076.7381   -8013.1376   -9076.7381            0    10445.515    24.933168    24.912159    22.980501    14274.086    10632.494    11154.103    9549.9491     20.60471    248.44865   -1154.2026   -5838.6644 
 3515000    282.00079   -9024.9689   -7949.8533   -9024.9689            0    11072.534    25.047425    24.881945    22.868393    14252.237    9525.8841    11798.584    11893.135    515.22836    471.95639    1316.5532   -5648.3798 
 3516000    288.87134   -9037.9121   -7936.6028   -9037.9121            0    11592.581    24.952209    24.748343    23.053274    14235.992     11341.16    11961.955    11474.628    182.18238   -1041.7796    231.94964    -5529.782 
 3517000    284.78852   -9017.4795   -7931.7358   -9017.4795            0    12432.555    24.910215    24.949235    22.797604    14168.502    11865.994     11921.21    13510.461   -415.74004    111.38577   -860.58814   -5362.7589 
 3518000    284.76733   -9068.7245   -7983.0616   -9068.7245            0    10313.771    24.944079    24.947547    22.936505     14273.24    8916.0768    10256.256     11768.98    268.50703    137.21858   -363.46294   -5836.1412 
 3519000    276.67447    -9027.243   -7972.4338    -9027.243            0    10705.626    24.843874    24.939535    23.052098    14282.957    10988.354    10880.013    10248.512    539.55361   -1140.8111    1617.1262   -5742.4274 
 3520000    275.62943   -9033.8877   -7983.0627   -9033.8877            0     10305.43    24.872009    25.110555    22.808363    14244.962    11419.989    8761.4364    10734.865   -884.49902   -308.12785   -213.73056   -5842.1285 
 3521000    278.51221   -9030.5181   -7968.7025   -9030.5181            0    10807.625    24.777024    24.952175     23.09276    14276.883    12548.622    10079.268    9794.9839   -491.65809   -2059.3921     1944.734   -5718.4072 
 3522000    284.09212   -9014.9406   -7931.8519   -9014.9406            0    10424.847    24.891078    25.101305    22.873944    14291.606     11989.98    8864.8428    10419.719    373.77206    285.21615    525.37672   -5759.0175 
 3523000    267.54841   -9028.4176   -8008.4011   -9028.4176            0    11454.645    24.847076    24.959106     22.97766    14249.844    11479.404    11237.966    11646.565    570.00594    145.85776   -410.78553   -5627.9041 
 3524000    288.36796   -8991.6863   -7892.2961   -8991.6863            0    10470.995    24.858645    25.006343      23.0196    14309.531    11532.286    9659.6247    10221.074    -621.5123    127.20149   -872.31836   -5707.1059 
 3525000      277.711   -9010.6702   -7951.9092   -9010.6702            0    10076.929    24.983231    25.046749    22.859761    14304.467    9775.8969    9283.2193     11171.67   -83.700329   -432.45902   -507.09282   -5849.7009 
 3526000    286.93264   -9019.0866   -7925.1685   -9019.0866            0    10303.443    24.872156    24.893864    23.110409    14309.134    10695.423    10606.432    9608.4749    301.22271     133.4605    284.14455   -5775.0043 
 3527000     268.4323   -8979.0214    -7955.635   -8979.0214            0    9557.3825    24.997627    25.006035    22.966115    14355.924    9345.8422    9952.9938    9373.3117   -367.91139   -845.54537   -1253.6343     -5954.64 
 3528000    275.56334   -9029.5044   -7978.9313   -9029.5044            0    9285.1378    24.845057     24.99554    23.135198    14367.319    11029.726     8298.677    8527.0107   -779.91899   -454.70088   -354.09391    -6033.392 
 3529000    276.41294   -9039.8241   -7986.0119   -9039.8241            0    10017.906    24.887072    25.013118    22.960383    14292.914    10765.067    9042.2791    10246.373    12.359866    287.23263    294.23482   -5897.8046 
 3530000    276.71334    -8974.951   -7919.9935    -8974.951            0    10659.825    24.958033    25.076026    22.855738    14304.225    11627.738    8929.6379      11422.1    135.93336    -574.4492    1394.4217   -5696.2213 
 3531000    281.27943   -8983.3076   -7910.9421   -8983.3076            0    10258.021    24.864403     24.95009    23.133034     14351.02    11334.398    9388.0358    10051.629   -824.93871   -718.40061   -102.22177   -5763.9906 
 3532000    285.06798   -9004.3165   -7917.5074   -9004.3165            0    10819.076    25.105253    25.054543    22.737435    14301.862    8606.7439    12086.361    11764.123   -1000.6786    484.28139   -1722.7734   -5660.8864 
 3533000    282.02586   -9020.5524   -7945.3412   -9020.5524            0    10304.462    24.848579    24.965101    23.032414    14288.095    10958.331     10639.66    9315.3943    158.12387   -342.88412    527.60585   -5798.1262 
 3534000    273.81546   -9061.5501   -8017.6407   -9061.5501            0    10221.592    24.830649    24.979478    23.021908    14279.491    10932.681    10413.377    9318.7169   -309.42235    1345.1858      91.6437   -5888.9765 
 3535000    273.77813   -9065.6686   -8021.9015   -9065.6686            0    11423.323    24.939751    24.920817    22.874952    14217.216    11280.662    10458.472    12530.835   -43.559246    50.969944   -93.191093   -5653.3496 
 3536000    283.01147   -9042.0609   -7963.0921   -9042.0609            0    11768.794    24.969595     24.86161    22.934038    14237.091    10315.147    13702.089    11289.145   -109.72532   -403.96678   -669.54721   -5519.4978 
 3537000    280.49109   -9031.2627   -7961.9028   -9031.2627            0    11301.814    24.867259    24.913795    23.018123    14260.597      12223.8    11100.496    10581.148   -862.70898    184.22504   -69.262897   -5611.3946 
 3538000    288.26577   -9025.0784   -7926.0778   -9025.0784            0     11728.99    25.028646    24.950025    22.775864    14222.738    10861.599     12013.95     12311.42    117.21545   -195.33169    179.62942   -5493.2034 
 3539000    283.27739   -9071.1858   -7991.2032   -9071.1858            0    10097.646    24.949767    24.895222    22.981415    14274.446     9798.501    10643.159    9851.2778     3.858253   -517.54874    13.241137   -5889.0939 
 3540000    281.38568    -9045.226   -7972.4555    -9045.226            0    11670.149    24.820941    24.947729     22.96133    14218.255    11167.796    11226.084    12616.568    42.034029    1883.8426     72.60064    -5552.549 
 3541000    270.21107   -9041.0601   -8010.8923   -9041.0601            0     12172.19    24.855563    24.975183    22.838142    14177.285    12080.385    11241.419    13194.765   -892.04587   -512.92346    468.30231   -5494.1563 
 3542000    273.70315   -8991.4352    -7947.954   -8991.4352            0    12208.684    24.703713    24.867493    23.155984     14225.17    14098.501    11035.381     11492.17    382.32812   -1388.6916    1025.7299   -5415.1463 
 3543000    280.41115   -9003.7287   -7934.6735   -9003.7287            0    11958.438    24.952101     24.99063    22.836815    14240.323    11216.825    11826.657    12831.833   -1232.0401   -864.40603    986.16207    -5451.139 
 3544000    281.90552   -9031.3306   -7956.5782   -9031.3306            0     11405.82     24.96675    24.829303    22.971259    14240.044    10531.589    12496.253    11189.619    774.37669   -1151.0613   -625.93761   -5587.8581 
 3545000    271.82461   -9070.0552   -8033.7358   -9070.0552            0    10972.673     24.82466    24.833861    23.108311    14246.092     12284.35    11173.382    9460.2872    647.24169   -1432.9121    41.399553   -5754.0024 
 3546000    289.67795   -9001.0406   -7896.6561   -9001.0406            0    11455.169    24.967079    24.885337    22.947201    14257.421    10503.036    12044.605    11817.864    3.3015019   -476.48418    905.99908   -5514.7845 
 3547000    277.86902   -9037.6441   -7978.2806   -9037.6441            0    11837.092    24.835525    24.938778    22.931955    14203.311    12004.655    12258.718    11247.901    340.25933   -1258.6171   -309.36777    -5526.337 
 3548000    269.33563   -9002.8702     -7976.04   -9002.8702            0    10960.131    24.819957    25.025417    22.971196    14268.094    11788.163    9915.1732    11177.058   -218.07016   -878.83797   -397.13088   -5695.3954 
 3549000    278.28311   -8990.3821     -7929.44   -8990.3821            0    9745.9493    24.930393    25.059071    22.916646    14316.774    10089.226    8348.0618     10800.56   -65.550524   -857.28198    -167.4697     -5894.53 
 3550000    289.38245   -9017.2583   -7914.0004   -9017.2583            0    12258.636     24.95971    24.910326    22.828371    14193.643    10708.607     13735.99    12331.313    6.4554869   -812.45314    1529.6205   -5376.4661 
 3551000    280.58594   -9016.6568   -7946.9352   -9016.6568            0    11563.389    24.919228    24.834844    23.009833    14239.983    11204.761    12839.667    10645.738   -250.68285    107.78057    728.11166   -5545.5021 
 3552000    277.42179   -9027.1898   -7969.5314   -9027.1898            0    10668.129    24.935565    24.905091     22.97327    14266.918    10101.072    10942.685    10960.629      401.919   -673.01559    555.41779   -5749.8313 
 3553000    272.24897   -9020.2286   -7982.2913   -9020.2286            0    9980.2765    25.037684    24.829941    23.058553    14335.138    8874.5232    11433.999    9632.3073    222.29103   -397.49846     8.316782   -5895.7819 
 3554000    279.50881   -9008.4357   -7942.8206   -9008.4357            0    9873.4182    24.999112    24.938921    22.955023    14311.329    9263.7662    10590.891    9765.5973    662.49751    -210.0555   -912.66737   -5882.0797 
 3555000    283.16697   -9002.5155   -7922.9538   -9002.5155            0    10379.372    24.976436    25.046953      22.8237    14278.132    10195.405    9884.2411     11058.47    384.14413   -238.06771   -413.26736   -5761.6373 
 3556000    280.96558   -8988.2211   -7917.0522   -8988.2211            0    10710.481    24.855527    24.921811    23.043636    14274.259    12689.432    9885.2347    9556.7765   -138.07225   -936.45177    1012.8346   -5687.3932 
 3557000     284.6727   -9049.8305   -7964.5283   -9049.8305            0    10373.338    25.064482    24.882342    22.895729    14279.219    10167.326    10959.559    9993.1273    496.32853   -641.64716    737.80796   -5804.3039 
 3558000    269.89829   -8998.5785   -7969.6031   -8998.5785            0    11215.258    24.981849    24.951597    22.841097    14237.701    10676.137    11159.644    11809.992   -426.70659    134.34841   -591.05182   -5640.8415 
 3559000    284.14176   -9024.2965   -7941.0186   -9024.2965            0    11737.632    24.779091    24.899733    23.011902    14198.177    12305.953     11317.28    11589.663    456.66289    12.070395   -805.51405   -5510.5559 
 3560000    287.46583   -9101.5312   -8005.5804   -9101.5312            0     11208.19    24.809886     24.95608     22.93722    14201.752    10629.169    11516.893    11478.509   -743.23732    812.97984   -725.50564   -5684.1627 
 3561000    275.46612   -9031.1438   -7980.9413   -9031.1438            0    10507.987    24.820701    25.134689    22.892786    14281.907     11745.55     9285.967    10492.444   -31.550204   -1573.3359    1262.5461   -5792.2646 
 3562000    279.44477   -9014.7576   -7949.3867   -9014.7576            0    11104.777    24.827109    25.033492    22.926751    14249.188     11743.15     9922.189    11648.992   -365.51147   -948.69844   -528.80604   -5641.7053 
 3563000     287.1786   -8991.9809   -7897.1251   -8991.9809            0     11383.75    24.890497    24.978375    22.929213    14255.646    10717.277    12465.786    10968.187   -574.49658   -93.216308    157.74271   -5530.3982 
 3564000    294.29699   -9072.1368   -7950.1424   -9072.1368            0    10406.332    24.957991    24.932477     22.95106    14281.631    9420.0388    10618.489    11180.467    1297.5156    969.38008   -358.61186   -5782.6811 
 3565000    273.14209   -9059.5756   -8018.2334   -9059.5756            0    10545.244    24.963657    24.834346    22.994924    14255.844    10239.463    11020.845    10375.424   -14.621452   -101.03059     1637.651   -5825.8049 
 3566000    284.45647   -8961.3404   -7876.8626   -8961.3404            0    10993.752    25.009452    24.893157    22.973384    14302.407    10283.678    11712.698    10984.881     -682.158    2345.9602    589.75636   -5583.7205 
 3567000    268.74825   -9020.0855   -7995.4946   -9020.0855            0    13324.643    24.837449    24.716552    23.048798    14149.567    14080.108    14493.392     11400.43   -178.62046    172.29103     968.6835   -5245.8623 
 3568000    276.35852   -9035.5629   -7981.9582   -9035.5629            0    11499.272    24.964804    24.839484    22.901431    14201.471    9945.8944    13414.335    11137.588   -362.05807     377.4815    1278.2102   -5600.2991 
 3569000    280.93473   -9067.7672   -7996.7159   -9067.7672            0    10926.889    25.021023    24.867323    22.837219    14209.451    10790.062        10394    11596.604   -164.57866   -799.49689    620.97626   -5732.3338 
 3570000    268.73395   -9017.2328   -7992.6964   -9017.2328            0     11225.57    24.927238     24.90646    22.936297    14239.983     11397.48    10478.479    11800.753     83.34173   -590.57458    -98.97599     -5661.42 
 3571000    280.75615   -9019.4505     -7949.08   -9019.4505            0    11059.724    24.968627     24.87288      22.9776    14270.047    11014.887    11023.262    11141.022    640.30581   -280.66713   -937.98118   -5647.3968 
 3572000    277.92837   -8973.9763   -7914.3866   -8973.9763            0    11397.952    24.920466    24.935457    22.992469    14287.594    10798.563    11769.904    11625.389   -1885.0998   -1569.2537    361.00643   -5539.3965 
 3573000    271.76976   -9077.4744   -8041.3641   -9077.4744            0    11256.487       24.866    24.925325    22.945472    14221.446     12038.48    10730.818    11000.165   -1018.4821   -63.870494    1561.7712     -5706.71 
 3574000    293.83486   -9047.7117   -7927.4792   -9047.7117            0    11981.057    24.690926    24.949373    23.061218    14206.243    12772.322    11799.848    11371.002   -835.50612  -0.63129043    240.58879    -5445.202 
 3575000    284.42571   -8991.0383   -7906.6778   -8991.0383            0    11590.497    24.810506    24.982832    22.933599    14215.087    11921.024    11322.738     11527.73   -134.31803    364.91614    54.019352   -5503.8233 
 3576000    291.38432   -9061.3625   -7950.4726   -9061.3625            0    11892.421    24.812732    24.949577    22.928184    14194.086    11339.037    12109.611    12228.615    37.620001   -1464.8943   -624.49022   -5488.6679 
 3577000     281.1777   -9082.6843   -8010.7067   -9082.6843            0    10584.938     24.78736    24.940408    23.023189    14233.093    10516.513    10815.622    10422.679    -289.4423   -253.58998    321.10473   -5813.5375 
 3578000    288.74429   -9006.5903   -7905.7654   -9006.5903            0    11610.294     24.86521    25.046503    22.855988    14234.402    12018.414    10503.543    12308.924    -585.2032    556.70072    59.807134   -5495.5363 
 3579000    271.24093   -9007.3793   -7973.2852   -9007.3793            0    11273.019    24.920172    25.018208    22.853093    14247.945    10238.763    11199.758    12380.535   -407.16847   -536.99892   -156.21749   -5630.8459 
 3580000    274.61991   -9016.0546   -7969.0782   -9016.0546            0    9993.2287    24.955435    24.839473    23.124926    14334.676    9897.0519    11387.503    8695.1318   -689.31762   -852.65483   -1356.3905   -5879.9283 
 3581000    289.09258   -9025.6359   -7923.4831   -9025.6359            0    10892.085    24.980247    24.936963    22.929272    14283.366    10860.359    11334.558    10481.337    370.78106    235.34564   -847.02024   -5654.5721 
 3582000    282.33458   -9042.1437   -7965.7555   -9042.1437            0    10759.683    24.996052    24.951305    22.874885    14266.702    9317.3396    11712.653    11249.056    31.935522   -985.59056   -432.88008   -5727.0397 
 3583000    284.65555    -9111.264   -8026.0272    -9111.264            0    9859.7389    24.905422    24.838409    23.080438    14277.814    9658.2276    10994.101    8926.8882   -655.87867     1103.125     832.1447   -5972.9606 
 3584000    289.24331   -9014.1933   -7911.4659   -9014.1933            0    10627.266    25.025414    24.909079    22.902368    14276.421    9814.1494    10392.988    11674.659    563.11543    1009.9331    200.78423   -5698.7953 
 3585000     278.1896   -9024.1246   -7963.5389   -9024.1246            0    11146.651    24.954725    24.719141    23.093763    14245.604    11681.555    11549.996    10208.401   -202.66899   -614.98364    135.74469   -5647.7384 
 3586000    270.69852    -8981.773   -7949.7467    -8981.773            0    11114.923    25.019731    24.945147    22.891867    14287.292    10616.756    11747.329    10980.685   -69.592342   -119.67336    731.15149   -5633.7803 
 3587000    284.69998   -9044.3305   -7958.9243   -9044.3305            0    12972.679    24.876264    24.749164    23.034884    14181.812    13148.481    13874.322    11895.233    392.37332    -49.71856     319.2049   -5275.8217 
 3588000    284.88223   -8996.4854   -7910.3844   -8996.4854            0    12046.102    24.975821    24.889723    22.897256    14233.879    11869.597    11560.735    12707.975   -755.98548   -260.85166    105.64896   -5409.7759 
 3589000    274.91739   -9050.1457   -8002.0352   -9050.1457            0    13514.159    24.891028    24.800742    22.872625    14119.637    13341.032    14502.633     12698.81    531.06424    103.05747   -697.60838    -5219.194 
 3590000    275.54443    -8984.757   -7934.2559    -8984.757            0     11948.77    24.856188    24.879355    23.034007    14244.367    11920.293    12685.675    11240.341   -310.21499   -1258.3453   -53.063194   -5452.0247 
 3591000    270.03652   -9017.6755   -7988.1731   -9017.6755            0    11863.193     24.87306    25.060335    22.790389     14205.87    12554.722    10411.892    12622.967     768.7807   -116.05315   -65.288284     -5530.38 
 3592000    283.21351   -9022.9473   -7943.2082   -9022.9473            0    11120.369    24.822103    24.987251    22.909821    14209.499    11736.151    10810.486    10814.469   -2009.1952    916.88568    3.3886093   -5638.7235 
 3593000    286.42068   -9033.5041   -7941.5378   -9033.5041            0    11036.346      24.8289    24.926565     23.06708    14276.197     12552.55     10688.57    9867.9163    231.02739   -178.31621   -183.66608     -5643.73 
 3594000    276.59256   -9021.0424   -7966.5454   -9021.0424            0    11187.769    24.983599    24.982947    22.839144     14255.37     9595.568    12076.854    11890.886   -95.107604    -1108.223    467.09068   -5640.6087 
 3595000    263.98787   -9035.3439   -8028.9017   -9035.3439            0    10926.561    24.773402    24.831884    23.161446    14248.233    11213.946    11107.969    10457.767   -1183.0512    1139.1933   -311.05295   -5758.4076 
 3596000    286.83039   -9041.1374   -7947.6092   -9041.1374            0    10142.201    24.943569    25.037818    22.865098    14279.997    10551.381    10036.805    9838.4169   -305.31322   -471.15552    139.52271   -5835.4033 
 3597000    285.21316   -9022.8436   -7935.4809   -9022.8436            0    9905.8588    24.928936    24.928774    23.009541    14299.229    10282.715    10254.825    9180.0362   -352.47186    985.99192   -536.86551   -5869.7173 
 3598000    269.81546   -9036.8427   -8008.1831   -9036.8427            0    10802.144    24.929992    24.843069    23.026358    14261.088    10736.028     11241.43    10428.973   -770.30835    141.74775    1384.8435   -5761.5171 
 3599000    282.58674   -9004.7676   -7927.4181   -9004.7676            0    10141.346    25.007543    25.012714    22.876797    14309.585    9366.7383    9442.5805     11614.72   -105.76377   -476.11309    732.01308   -5811.0142 
 3600000    287.87268   -9087.5254   -7990.0234   -9087.5254            0    10916.129     24.80768    24.887644    23.016475     14210.48    10476.533    11484.017    10787.837   -841.64776    848.57244   -331.61587   -5727.7074 
 3601000    284.44334   -9050.7273   -7966.2996   -9050.7273            0    12299.374    24.824972    24.953699    22.849394    14154.626    13350.548    10844.956    12702.617   -299.70434    525.73201   -1538.0284   -5427.3313 
 3602000    283.08299   -9002.0329   -7922.7914   -9002.0329            0    10830.672    24.902321    24.958654    22.951053    14264.731    10239.443    10871.542    11381.032    5.6965105    1347.6798    579.96123   -5669.6166 
 3603000    279.31084   -9024.0264   -7959.1661   -9024.0264            0    9861.4899    24.860041    24.842339     23.19155    14322.674    10038.662    11015.508     8530.299    151.65009   -273.07238    894.71556   -5899.2833 
 3604000    273.67512   -9016.4305   -7973.0561   -9016.4305            0    10441.153    25.007221    24.993585    22.866384    14291.949    8902.5099    11075.452    11345.499    -282.3628   -1092.1173    -887.7478   -5796.7707 
 3605000    281.72177   -9026.1862   -7952.1343   -9026.1862            0     9143.484    24.804975    24.993538     23.15764    14356.905    9904.1852    8406.3147     9119.952    249.28273   -188.07055    153.85065    -6037.665 
 3606000    271.95638   -9018.5256   -7981.7039   -9018.5256            0    11322.043    24.890525    25.012872    22.867223    14236.756    11428.641    11296.974    11240.514   -30.079896    956.77869   -1221.7766   -5630.9253 
 3607000    286.62529   -9064.1091   -7971.3628   -9064.1091            0    9321.3036    24.913044     25.09175    22.863195    14292.055     9804.886    8086.2968    10072.728   -684.70357    505.28312    847.26279   -6028.4773 
 3608000    274.77324   -9001.9178   -7954.3569   -9001.9178            0    11357.009    24.798036     24.93224    23.058763    14256.555    12482.741    11677.158    9911.1285     47.26337    588.99933   -344.21397    -5593.039 
 3609000     278.7684   -9045.2527   -7982.4605   -9045.2527            0    9969.6269    24.884344    25.064649    22.940268    14308.243    10196.126    9267.5671    10445.187    35.866814    1038.8471    299.01158    -5902.088 
 3610000    276.59296   -9039.5056   -7985.0071   -9039.5056            0    10316.552    24.887912    25.003851    22.935654    14272.711    10446.651    10202.303    10300.703     262.3688   -476.87991    175.35164   -5837.5872 
 3611000    281.81172   -9027.6522   -7953.2574   -9027.6522            0      9974.59    24.892635    24.921259    23.075357    14314.932    10872.405    10058.499    8992.8663     93.18322    956.35336    1207.9239   -5870.8762 
 3612000    279.61268   -9010.0094   -7943.9983   -9010.0094            0    9505.2885    25.030903    25.065309    22.841928    14331.192    9822.3926     8562.017    10131.456   -623.56891   -400.07856    534.91789   -5957.3385 
 3613000    278.13293   -9022.1609   -7961.7914   -9022.1609            0    9892.3817    24.867416    25.048286     23.01521    14335.856    11022.426    8750.3017     9904.417    198.11303    32.213454    457.39044   -5893.5541 
 3614000    288.79911   -9007.7712   -7906.7372   -9007.7712            0    10192.756    24.856943    24.966157    23.033636    14294.268    11653.902    9817.9123     9106.454   -292.01645   -815.03254    263.92607   -5781.8816 
 3615000    293.07199   -9008.3216   -7890.9975   -9008.3216            0    11917.396    25.035922    24.990343    22.740536    14227.759    10220.446    12232.379    13299.364   -1001.3711    1106.7094   -326.04126   -5418.1703 
 3616000    270.87589   -9011.4429   -7978.7405   -9011.4429            0    12104.977    24.840259     24.91678    22.958017    14209.618    13306.725    11253.293    11754.913   -181.18706    737.74608     188.3055   -5470.1934 
 3617000    288.10709    -9122.391   -8023.9954    -9122.391            0    10849.895    24.831353     25.00697    22.878606    14206.629    11704.638     9446.314    11398.732    741.05766   -940.82907    167.48253   -5776.0154 
 3618000    271.34427   -9060.0222   -8025.5341   -9060.0222            0    11272.647    24.815805    25.015377    22.920165    14228.305     12817.26    10525.052     10475.63   -104.01265    203.80868    725.35907   -5686.4008 
 3619000    282.07248   -9028.3515   -7952.9626   -9028.3515            0     11601.48    24.770269    24.934343    23.019991    14217.846    11519.979    11597.023    11687.437    -679.0335   -592.46575   -752.50134   -5547.3645 
 3620000    270.79091    -9000.763   -7968.3846    -9000.763            0    11548.718    24.925813    25.023761    22.837579    14244.657     11448.74    11288.589    11908.825    507.18233   -101.43576    41.061891   -5569.2111 
 3621000    284.36177   -9052.2606   -7968.1438   -9052.2606            0    10901.807    24.886031    24.872052    22.958525    14210.561     11201.14    11495.872     10008.41    770.98144   -82.252154     330.9532   -5708.7829 
 3622000    291.79616   -9037.8057   -7925.3456   -9037.8057            0    11437.219    24.897497     24.89898     22.94749     14225.66    10783.438    11855.274    11672.944   -146.97247    95.324482    12.680003    -5552.504 
 3623000    272.84548    -9038.435   -7998.2236    -9038.435            0    8876.7218    25.039827    25.068717    22.852585    14344.941    7485.9484    8816.9428    10327.274    173.31274     291.6509   -138.76974    -6141.158 
 3624000    286.29556   -9005.6802    -7914.191   -9005.6802            0    11204.268    24.817389    25.040156    22.973513    14276.459    12241.604    10297.058    11074.141    -31.72225    130.74408    -167.9469   -5581.3782 
 3625000    280.90323   -8969.1283    -7898.197   -8969.1283            0    11127.811    24.831127    25.072042     22.91621    14266.878    11997.719    9665.0623    11720.651   -502.55998   -532.75682    373.66934   -5582.8582 
 3626000    284.23121   -9043.0822   -7959.4633   -9043.0822            0    11757.724    24.760954    24.976736    22.987451    14216.539    12682.419     11874.14    10716.612   -556.64745    295.43223   -659.56699   -5521.6916 
 3627000    276.81037   -8993.9854    -7938.658   -8993.9854            0    11476.895    24.832547    25.006141    22.942831    14246.721    12207.758    10911.807     11311.12     443.3474    761.86723   -258.91691   -5554.0597 
 3628000    286.22938   -9070.7246   -7979.4877   -9070.7246            0    9605.9851    24.835471    25.096999    22.913224    14281.716    10331.258    8089.0481    10397.649   -488.52971    137.44909    519.46627    -5978.713 
 3629000    283.70656   -9021.1293   -7939.5105   -9021.1293            0     10687.64    24.886411    25.058939    22.898292    14279.994     11718.98    9329.3546    11014.584    94.113395    -138.7366   -101.14319   -5713.7127 
 3630000    278.22189   -9063.6621   -8002.9533   -9063.6621            0    10307.978    24.691323    25.003386    23.134857     14282.69    12336.264    8722.1588    9865.5113    1441.9045    -29.40929   -606.75513   -5855.8182 
 3631000    277.52506    -9055.227   -7997.1749    -9055.227            0    11678.062    24.965241    24.931655     22.82702    14208.103    11255.262    11704.663     12074.26     336.9568    15.494559    1651.5307   -5577.3567 
 3632000    275.95943   -9028.4972    -7976.414   -9028.4972            0    8618.2785    24.967892    24.907797    23.105487    14369.191    8081.9083    9417.5937    8355.3334    697.75261   -185.81089   -133.44802   -6170.3683 
 3633000    275.98708   -9040.5533   -7988.3647   -9040.5533            0    9093.8256    25.040593     24.99291     22.95951    14368.917    9014.1947    8777.1923    9490.0899    191.13258   -742.11683    -213.5818   -6082.6997 
 3634000    267.00891   -9028.3062   -8010.3464   -9028.3062            0     10087.22    24.929158    24.937882     22.99682    14296.672    10038.783    11007.124    9215.7529    -399.2124   -1547.4493    455.25227   -5907.1378 
 3635000    274.02311   -9064.3924   -8019.6913   -9064.3924            0    10660.186    24.807313    25.021603    22.926047    14230.627    11361.818    10254.663    10364.076    587.09344   -301.99665    840.66423   -5807.2859 
 3636000     280.7937   -9017.3793   -7946.8656   -9017.3793            0    10510.377    24.824781    25.018731     22.99444    14281.491    11675.424    10087.183    9768.5227   -350.05696    121.90303    137.97787    -5757.755 
 3637000    276.14939   -9042.7888   -7989.9814   -9042.7888            0    10417.262    24.843675    25.002804    22.972476    14269.618    10518.964    10025.862     10706.96   -185.35316    1687.7268     90.69365   -5822.0685 
 3638000    276.82592   -9025.7065   -7970.3199   -9025.7065            0    10031.227    25.003269    24.911822     22.95759    14299.754    9907.6481    9975.3366    10210.697    58.217282   -1100.2463    -467.7548   -5878.3351 
 3639000    278.49624   -9064.2593   -8002.5046   -9064.2593            0    10773.349    24.990919    24.840422    22.912245    14223.578    10425.545    11867.845    10026.656    239.36968   -1191.7675    174.97868   -5767.7212 
 3640000    276.56499   -9012.9724   -7958.5805   -9012.9724            0    10510.768    24.992447     24.91941    22.906186    14265.905    10281.703    11342.926    9907.6761   -517.62899    865.69721    44.017952   -5771.7774 
 3641000    271.20516   -9032.5207    -7998.563   -9032.5207            0    9762.2479    24.896484      24.9043    23.096952    14320.792    10685.311    9631.6674    8969.7655    263.05516    481.27887    1198.5137   -5959.6779 
 3642000    277.91232   -9050.2649   -7990.7364   -9050.2649            0    10816.196    24.970687    25.021115    22.803819    14247.699    11634.938    10283.146    10530.503   -266.54965    561.94333   -82.072939   -5743.2599 
 3643000    278.78357   -9016.4596   -7953.6095   -9016.4596            0     10152.29    24.832454     24.88342    23.112312    14281.476    9776.7165     10966.64    9713.5151   -326.05795   -295.88349   -506.36388   -5839.0836 
 3644000    284.13968   -9047.8123   -7964.5423   -9047.8123            0    11167.481    24.980119    24.869665    22.931289    14245.999    10224.741     12606.48    10671.222    -1110.391   -78.824775    193.72309   -5644.3498 
 3645000    287.41687   -8999.7111   -7903.9469   -8999.7111            0    11315.246     24.91702    25.006462    22.877808    14254.854     11738.45      11127.5    11079.788    565.11799     1183.846   -319.04821    -5551.593 
 3646000    279.49871   -9052.8642   -7987.2876   -9052.8642            0     10900.42    24.795571    24.948932     23.07235    14273.087    10600.373    10492.049    11608.838   -198.64723   -381.77646    1886.0381   -5718.2744 
 3647000    280.40189   -9046.9944   -7977.9745   -9046.9944            0    11379.373    24.839558    25.049533    22.904917    14251.882    11723.122    11195.494    11219.503    479.08251   -385.88532    135.21989   -5612.7823 
 3648000    273.88942   -9055.5267   -8011.3353   -9055.5267            0    11385.877    24.824388    24.887152    22.994164    14205.986    11621.994    12639.058    9896.5776     2.396303   -665.64474    186.71018   -5652.4124 
 3649000    277.03924   -9006.6881   -7950.4882   -9006.6881            0    11437.251    24.751661    24.945894    23.069944    14244.591    12107.916    11251.135    10952.703    383.85455     268.7457    1258.4685   -5574.4822 
 3650000    283.19143   -9057.6962   -7978.0413   -9057.6962            0    10522.918    24.955404    24.980614    22.883289    14265.472    10528.899    9733.6522    11306.203    -771.8365   -1091.0529   -581.31268   -5788.7768 
 3651000    283.87577    -9024.735   -7942.4711    -9024.735            0    11457.057    24.862339    24.885787    23.014556    14239.541    11807.965     11228.93    11334.275   -1094.3005    1312.3926   -134.52537   -5563.1946 
 3652000     287.7056   -9077.4253   -7980.5603   -9077.4253            0    10390.282    25.010207    24.807183     22.94786    14237.605    9193.6978    11418.918    10558.229   -320.77046   -468.54909   -630.22122   -5823.1133 
 3653000    286.74813   -9039.6275   -7946.4129   -9039.6275            0     10877.59    25.003965    24.873082    22.936632     14264.88    9887.2165    11843.797    10901.757   -349.11617   -153.98674   -505.55048   -5683.4538 
 3654000    271.40685   -9039.4218   -8004.6951   -9039.4218            0    11037.124    25.049338    24.847274    22.898057    14251.928    10079.833    12762.884    10268.654    580.45096    -698.5397   -338.22505   -5710.6317 
 3655000    282.96415   -9045.2365   -7966.4482   -9045.2365            0    11245.331    24.999882    24.751128    23.019638    14243.983    8467.9544    13818.542    11449.497     112.1199   -888.47321     430.9454   -5630.4119 
 3656000    267.47766   -9075.6396   -8055.8928   -9075.6396            0    11345.705    24.893102    24.902842    22.923329    14210.378    10578.086    12054.282    11404.747    959.41051     406.9503    585.41263    -5704.566 
 3657000    274.78006   -9007.9419    -7960.355   -9007.9419            0    11167.943    24.945458    24.858268      22.9912    14256.864    10749.299    10973.245    11781.286   -21.482675    709.19712   -233.24044   -5638.2969 
 3658000    283.11763   -9034.8068   -7955.4332   -9034.8068            0    10241.859    24.925951    24.944927    22.939052    14262.952     10893.65    9561.7232    10270.203   -1063.4588   -1637.1711    234.41937   -5825.0187 
 3659000    282.64107   -9017.4413   -7939.8846   -9017.4413            0    10366.441     24.94697    24.940627    23.030188    14329.223    10041.424    10015.489    11042.411    962.13287   -342.89017   -138.98386   -5773.5366 
 3660000    277.45597   -9025.1631   -7967.3744   -9025.1631            0    11488.642    24.918939    24.845695     23.01882    14251.604    10809.769    12292.297     11363.86    607.91448    40.422371    136.50125   -5579.5172 
 3661000    277.11306   -9060.6585   -8004.1772   -9060.6585            0    12038.588     24.96603    24.848492    22.831298    14163.811     11616.16    11818.324     12681.28    996.45592    552.89161    -351.2816   -5517.4303 
 3662000    276.81383    -9018.562   -7963.2214    -9018.562            0    11006.398     24.98926    24.789506    23.005314    14251.134    10436.571    12437.313     10145.31    283.98031    139.80133    327.65837   -5675.6718 
 3663000    281.54965   -9009.3797    -7935.984   -9009.3797            0    10889.397      24.9977    24.688267    23.124691    14271.401    9397.6306     13807.36    9463.1996    27.231398   -271.89371   -120.87035   -5669.5332 
 3664000    272.74947   -9031.9974    -7992.152   -9031.9974            0    10902.848    25.002854      24.8784    22.928248    14262.081    10477.788    12361.496    9869.2591   -827.36807   -121.28765    562.37137   -5724.3834 
 3665000     282.2352   -9036.6686   -7960.6593   -9036.6686            0    11512.128    24.928975     24.88565    22.922137    14220.292    10156.007    11765.345    12615.032    296.16861   -588.55788   -273.71684   -5573.1777 
 3666000    288.40447   -9012.4959   -7912.9665   -9012.4959            0    11714.157    24.820651    24.943618    22.957189    14213.182    11714.856    12002.793    11424.822    221.90869    311.93006     1453.322   -5484.8013 
 3667000     270.3699    -9063.986   -8033.2127    -9063.986            0    9521.0515    24.836657    25.029052     23.00848    14302.945    10421.922    9477.9696    8663.2624    1424.4152    1508.6357    -754.7289   -6047.1806 
 3668000     276.8804   -8967.1769   -7911.5825   -8967.1769            0    10271.608    24.933547    25.039208    22.960308    14334.494    10017.043    11570.088     9227.694   -577.42543    -902.7877   -126.91677   -5764.2629 
 3669000    277.78549   -9025.4763   -7966.4313   -9025.4763            0    9565.7459     25.01131    25.041572    22.917241    14353.584    8912.4737    9658.7839     10125.98   -639.81135   -349.50034    298.85585   -5964.0117 
 3670000    270.80256   -9003.1284   -7970.7055   -9003.1284            0    11729.764    24.803805    24.930585    22.984202    14212.819    12151.372    11256.988    11780.932   -125.34425   -1213.1734    1061.2252   -5539.3672 
 3671000    287.12971   -9074.2514    -7979.582   -9074.2514            0    10174.901    24.886603    24.965876    22.922088    14241.856     10202.02    11003.125    9319.5595    514.43002    196.72352    1419.2315   -5866.2258 
 3672000    279.75671   -9043.8742    -7977.314   -9043.8742            0    10713.222    24.861176    24.851476    23.078184    14258.553    10991.059    11826.731     9321.875    214.84912   -596.39439    458.49411   -5749.5383 
 3673000    283.19618   -9022.7088   -7943.0359   -9022.7088            0    12978.039    24.893219    24.872806      22.8585    14153.166    13283.249    13199.187     12451.68    447.17147    459.60499    2.8542394   -5264.2467 
 3674000     279.1372   -9053.4091   -7989.2108   -9053.4091            0     11040.87    24.892795    24.913812      22.9508    14233.499    10883.862    11662.151    10576.598    60.091474   -616.66173    810.17196    -5697.336 
 3675000    283.62874   -9059.5005   -7978.1784   -9059.5005            0     10983.93    24.900022     24.83165    23.028166    14238.514    12445.813    10837.541    9668.4353    278.95579     158.3502    61.275645   -5697.3202 
 3676000     274.8906   -9035.0518   -7987.0435   -9035.0518            0    12345.076    24.920532     24.79379     22.94094    14174.621    11881.165    12158.762    12995.302    -513.0979   -1428.5081    917.70711   -5435.0409 
 3677000    279.21878   -9014.0368   -7949.5275   -9014.0368            0    11813.274    25.052907     24.79643    22.909093    14231.648    10833.306    13106.381    11500.135   -61.847925   -759.91314    582.05325   -5497.6354 
 3678000    282.43882   -9057.2407    -7980.455   -9057.2407            0    10139.786     24.93974    24.861134       23.045    14288.596     10223.91    10101.315    10094.132   -939.82393   -253.16057    937.70061   -5867.4806 
 3679000    274.38802   -9016.7282   -7970.6359   -9016.7282            0    11117.163     25.11538    24.801635    22.890959    14258.835    8926.2786    11527.444    12897.766    22.640115    747.68212   -106.93194   -5658.8165 
 3680000    280.40676   -9057.6535   -7988.6151   -9057.6535            0    10714.231    24.985495    24.842958     22.91923    14226.277    10280.305    11641.051    10221.339   -84.566818    -278.3628      124.489   -5765.6728 
 3681000    274.74014   -9010.2785   -7962.8438   -9010.2785            0    12807.148     24.87772    24.792746    22.975074    14170.727    12359.898    13698.941    12362.604   -315.08232   -1251.4827    158.02706   -5316.0479 
 3682000    281.92288   -8989.9028   -7915.0842   -8989.9028            0    12816.056    24.984005      24.8844    22.835631    14197.185     10894.56    13602.082    13951.525   -118.34096    369.93133   -495.75439   -5261.5021 
 3683000    283.56591   -9040.1037   -7959.0211   -9040.1037            0    11595.388    24.990719    24.831894    22.912868    14218.967    11265.914      11787.8    11732.452    15.478349    1037.4565   -382.93119   -5554.4965 
 3684000     282.7886   -9021.7482   -7943.6291   -9021.7482            0    11871.389    24.952083    24.758432    23.002033    14210.068    11534.369    12212.123    11867.677    -335.3898    469.39082   -188.77855    -5483.411 
 3685000    292.96637   -9012.0015   -7895.0801   -9012.0015            0    11689.014    25.027775    24.859221    22.822583    14199.549      10678.9    11596.885    12791.257    347.60881   -1374.7341    673.34384   -5474.4506 
 3686000    278.63841   -8966.4423   -7904.1456   -8966.4423            0    11646.537    24.900552    24.853273    23.098138    14294.519    11112.284    12570.285    11257.041    102.96096   -425.89938   -1834.6227   -5476.1817 
 3687000    281.72325   -9101.4215    -8027.364   -9101.4215            0    9136.7993    24.995747    24.953507    22.931157    14302.886     8705.491    9685.9669    9018.9399   -403.31349    657.62322   -482.59268   -6121.4923 
 3688000    282.94615   -9015.1775   -7936.4578   -9015.1775            0    11123.354    24.905362    24.891077    23.028359     14275.77    11413.522    10772.938    11183.601    1162.5995    408.37748    -572.6632   -5620.6037 
 3689000    270.46134   -9060.0933   -8028.9713   -9060.0933            0    10150.818    24.859474    24.885507    23.051679    14260.705    9482.6816    10875.568    10094.203     367.2732   -117.48115   -174.82917    -5917.827 
 3690000    287.02061   -9022.5051   -7928.2516   -9022.5051            0    9375.5896    24.977041    25.071549    22.886587    14331.881    9324.3104      8523.06    10279.398    781.69675   -290.94143    36.349849   -5968.6055 
 3691000    276.50145   -9025.1949   -7971.0453   -9025.1949            0    8791.6642    24.930078    25.006458     23.04996    14369.644     9641.621    7504.4621    9228.9095   -1163.3095   -521.28962   -31.835711   -6128.6069 
 3692000    292.80837   -9057.4324   -7941.1134   -9057.4324            0    9916.4409    24.945002     24.99594    22.986308    14332.509    9851.1499     9844.551    10053.622    458.20245    1383.7915    688.21152   -5868.3298 
 3693000    283.73967   -9054.8748   -7973.1298   -9054.8748            0    10455.556    24.935376    24.973926       22.952    14292.996    9906.8503    9946.4652    11513.353   -456.70751    326.42387    41.075305   -5793.6829 
 3694000    278.13369   -9050.2584    -7989.886   -9050.2584            0    8431.2049    24.961683    25.014791    22.986365    14352.946    8217.1739    8483.0014    8593.4392   -71.966725   -410.62037    -34.59266   -6225.0409 
 3695000    283.73588   -9055.9428   -7974.2123   -9055.9428            0    9633.6195    24.979411     24.93281    22.989126    14317.786    9364.1259    9846.0967    9690.6359   -668.90639    1187.8832   -494.33741    -5962.614 
 3696000    287.35376   -9038.5084   -7942.9848   -9038.5084            0    10982.262    25.085481    24.741584    22.947326    14242.362    10627.865    11616.247    10702.675   -175.94181    82.577686    312.81069   -5661.8565 
 3697000    285.65738   -9052.1667   -7963.1105   -9052.1667            0    10459.037    24.969047    24.976469    22.867657    14261.154    10425.489    9793.0154    11158.607    -658.5346   -1943.9142   -365.99744    -5787.795 
 3698000    279.63822   -8998.1975   -7932.0891   -8998.1975            0    10694.615     24.90467    24.877387    23.035023    14271.651    11214.928    9742.5254    11126.392    354.50324    28.860023    446.70355   -5706.1399 
 3699000    281.69658   -8986.7675   -7912.8117   -8986.7675            0    12350.981    24.829637    24.907255     23.00904    14229.667     13650.63    11487.316    11914.998   -403.11516   -506.34892   -228.54222    -5349.673 
 3700000    279.58251    -9020.494    -7954.598    -9020.494            0    12032.773    24.934248    24.944673    22.860219    14218.523    12587.646    11003.139    12507.534   -907.44144   -854.62711    811.83587   -5459.4513 
 3701000    298.31842    -9036.006   -7898.6801    -9036.006            0    12661.774    24.795244    24.822913    22.995299    14153.381    14338.242    12324.416    11322.664   -174.32055     357.4311    70.214678   -5285.1311 
 3702000    265.17788   -8968.8766   -7957.8977   -8968.8766            0    12812.859    24.846344    24.933621    22.915367    14196.284    12740.717    13519.764    12178.096     758.2471   -151.15834    809.98155   -5305.1459 
 3703000    274.69864   -9072.2642   -8024.9877   -9072.2642            0    11263.157    24.874369    24.940682    22.938437    14230.633    11296.024     10038.49    12454.956    358.66011   -480.33109    225.68289   -5687.4414 
 3704000    283.97754   -9031.6305   -7948.9786   -9031.6305            0    9950.5895    24.809005    24.941832    23.142892    14320.406    10360.201    9557.2335    9934.3345    567.16374   -770.24524     596.6919   -5870.8136 
 3705000    274.75586   -9049.8404   -8002.3457   -9049.8404            0    10089.356    24.988647    24.975196    22.898439    14290.833    10161.499    9087.8808    11018.687   -1183.9605    358.21681    161.44241   -5899.5511 
 3706000    262.47483   -9061.3453   -8060.6716   -9061.3453            0    11077.923    24.935821     24.83149    22.962709    14218.362    9841.6967     12924.64    10467.431    298.05775   -969.50534   -329.55921   -5763.5509 
 3707000    281.89546   -9038.6851   -7963.9711   -9038.6851            0    10735.461    24.961063    24.930287    22.899568    14250.091    9422.8528    11836.967    10946.562   -1214.8122    -207.2689   -978.29599   -5732.8959 
 3708000    276.11207   -9019.1423   -7966.4771   -9019.1423            0    10590.657    25.028097    24.800247    22.981812     14264.88    10687.808    11251.499    9832.6624   -1333.8139   -726.00988    80.757465   -5763.2114 
 3709000    280.38559   -8999.6927   -7930.7349   -8999.6927            0    10418.796    24.981077    24.928744     22.97234    14305.953      11978.5    10123.103    9154.7839    628.26703   -724.75984     14.39629   -5756.9819 
 3710000    278.41079   -9027.8489     -7966.42   -9027.8489            0    8481.2428    24.920596    24.957343    23.147703    14396.757    8986.2985     8217.088    8240.3419   -566.95041   -1491.2371   -832.54851   -6185.6819 
 3711000    276.07616   -8991.3971   -7938.8689   -8991.3971            0    10283.474    24.908427    24.996897    22.978292    14307.052    10450.563    10011.264    10388.594    168.25188    35.148909     1229.875   -5793.1843 
 3712000    284.48793   -9078.8135   -7994.2158   -9078.8135            0    8062.4892    25.008933    24.989583    22.983774    14364.004    8710.3501    6938.2875    8538.8299    227.76319   -134.23478     657.1367   -6305.2512 
 3713000    276.34061   -9046.3238   -7992.7874   -9046.3238            0    9293.6423    24.941001    25.004498    22.989598    14337.168    10336.991    9260.8298    8283.1056    595.36557   -525.47493    756.33581   -6049.5528 
 3714000    277.55346   -8994.5424    -7936.382   -8994.5424            0    11415.843    24.990998    24.913438    22.909038    14263.435    10870.513    11750.256    11626.758   -1118.0916   -1604.1903    900.64058   -5561.6862 
 3715000     277.0674   -9038.4728   -7982.1655   -9038.4728            0    11532.928    24.905552    24.900855     22.92231    14215.718    10061.026    12248.284    12289.475   -1022.2249   -1343.1747     923.7277   -5591.1396 
 3716000    274.28033   -9051.4378   -8005.7561   -9051.4378            0    10595.276    24.830994    25.185406    22.814073    14267.434    11091.323     8892.385     11802.12   -62.495715   -159.34665    1491.2764   -5801.1346 
 3717000    281.66454   -9012.2416    -7938.408   -9012.2416            0    11217.474    24.800365    24.966333    23.001401    14241.874     12400.39    10651.869    10600.164    417.67059   -963.30736     95.30088   -5608.5036 
 3718000    278.28102   -9009.6982   -7948.7641   -9009.6982            0    11362.019    25.059914    24.984595    22.725633    14228.787    9681.4952    11171.192     13233.37   -405.86171   -17.453681   -433.21805   -5591.0058 
 3719000    277.62458   -9060.4284   -8001.9969   -9060.4284            0    12116.413    24.831666    24.809558    23.018349    14180.746        12671    12638.856    11039.384   -331.58069    369.61743    20.979137   -5496.1817 
 3720000    283.09035   -9055.7718   -7976.5023   -9055.7718            0    9886.4431    24.960614    24.868792    23.009432    14282.882     10024.46    9761.3774     9873.492    845.04028   -802.72232   -309.68396   -5917.1446 
 3721000    282.68251   -9052.6048   -7974.8901   -9052.6048            0    10387.835    24.993325    24.884813    22.923403    14257.307    9593.5472    10160.716    11409.242    535.01882   -195.00677    889.21764   -5814.9663 
 3722000    278.71781   -9035.2338   -7972.6344   -9035.2338            0    12496.427    24.902247     24.78143    22.910324    14138.265    11846.761    13769.722    11872.796    50.428923   -1268.6826   -601.09981     -5395.97 
 3723000    274.72358   -9024.5842   -7977.2126   -9024.5842            0    9760.7971    24.983254    24.969632    22.924469    14300.803    9682.0839     10110.08    9490.2272   -292.90581    1502.0514    185.32982   -5941.4759 
 3724000    290.28915   -8993.2018   -7886.4872   -8993.2018            0    11880.268    24.861384    24.887269    23.004582     14233.67    12849.285    10952.375    11839.145   -807.54497   -837.67544   -865.59844   -5420.3398 
 3725000     272.1785   -9021.8802   -7984.2116   -9021.8802            0    11546.436     24.86933    25.102531    22.797356    14232.004    11678.316    9928.1214    13032.871   -597.70364    -165.0468   -98.656275   -5587.6427 
 3726000     285.8896   -9041.5428   -7951.6013   -9041.5428            0    11212.723     24.80071    24.933548    22.989099    14215.763    12789.494    10316.282    10532.393    307.64231     1027.501   -74.370202   -5626.9535 
 3727000    287.90514   -9037.2905   -7939.6648   -9037.2905            0    8325.6319    24.976544    24.997645    23.039403    14384.761     8692.733    7269.3998    9014.7628   -371.04795   -250.20318   -878.56174   -6193.0556 
 3728000    277.57357   -8998.2414   -7940.0043   -8998.2414            0    10181.578    25.026997    25.046806    22.855263    14326.739    9591.5553    8817.2918    12135.886     131.2431   -146.34114    8.6034237   -5812.6575 
 3729000     279.5386   -9057.6411   -7991.9125   -9057.6411            0    9451.7312    24.822291    24.895454    23.174199    14320.779    10973.328    9990.4655    7391.4003    744.95273   -639.23518   -729.89632   -6017.8817 
 3730000    278.89894   -9000.0883   -7936.7983   -9000.0883            0    11245.669    25.021975    24.987533    22.791776    14250.272    8747.6009    12538.352    12451.055   -477.00101   -505.92947    -430.2037   -5599.6605 
 3731000    291.35709   -9031.1864   -7920.4003   -9031.1864            0    10904.886    24.975882    24.886454    22.991211    14290.443    11022.084    10498.695    11193.878   -1227.6937    512.50037   -506.76486   -5647.6973 
 3732000    280.91709   -9022.1625   -7951.1785   -9022.1625            0    10011.608    24.944937    24.904861    22.993538     14284.74    10118.291    9704.3073    10212.226   -246.03718     981.5289    -67.10819   -5865.4774 
 3733000    285.02495   -9016.3091    -7929.664   -9016.3091            0     11134.51    24.890695    24.960518    22.978932    14276.457    10758.472    11500.426    11144.632    268.64379    701.45072   -184.29022   -5611.3757 
 3734000    286.44175   -9029.8612   -7937.8146   -9029.8612            0    10537.571    24.867008    24.962997    22.995361    14274.486    10896.881    10439.184    10276.648    270.16606    225.50905   -224.08703   -5744.1164 
 3735000     270.7947   -9041.1463   -8008.7534   -9041.1463            0    9740.3952    24.917106    24.968554    22.954622    14281.084    10026.801    9923.8713    9270.5128   -39.682065    1222.9085    261.70916   -5980.0731 
 3736000    290.30188   -9034.8868   -7928.1236   -9034.8868            0    10578.117    24.984767    24.947368    22.880203    14261.326    9347.3675    10753.302     11633.68   -621.17856    428.95682   -260.37366   -5728.0148 
 3737000      269.094   -9012.3729   -7986.4638   -9012.3729            0    10683.742      24.9724    24.824694    22.973218    14241.837    9520.3507    12126.159    10404.716    512.40094    604.88291   -897.13052    -5767.423 
 3738000    293.17994   -9014.6539   -7896.9183   -9014.6539            0    10388.844    24.967862    24.874505    23.028684    14302.268     10270.96    11973.237    8922.3339    18.768767   -1061.7943   -357.17863   -5729.9727 
 3739000    280.53638   -9035.4537    -7965.921   -9035.4537            0    9191.8919    25.116192    24.974286    22.859733    14338.973    7554.0572    8916.0462    11105.572   -1196.9356    635.43102    589.26282   -6043.7199 
 3740000    288.27157    -9022.313   -7923.2904    -9022.313            0    10196.858    25.023987    24.857724    23.020683    14319.771    9765.5844    10791.644    10033.346    388.99807      1259.86    209.18303    -5793.787 
 3741000    279.32734   -9016.3464   -7951.4232   -9016.3464            0    10277.651    25.104187    24.812237    22.990652    14320.671    9514.2679    10883.096    10435.589   -112.23894   -820.92183    963.00142   -5804.9121 
 3742000    292.47081   -9043.8003   -7928.7682   -9043.8003            0    10683.297    24.911164    24.956407      22.9365    14259.465    11225.614    9909.2153    10915.061   -244.20831   -756.92368   -981.96819   -5707.0733 
 3743000    281.35542   -9027.1808   -7954.5257   -9027.1808            0    12051.322    24.853206    24.840489    22.991189    14193.974    12088.764    11826.197    12239.006    11.181177   -2327.5938     534.9327   -5459.8472 
 3744000    270.25079    -9013.723   -7983.4037    -9013.723            0    11408.828    25.001003    24.898873       22.859    14229.655    10372.405    12171.172    11682.906   -833.26785    900.26242    395.84903   -5615.7877 
 3745000    279.39428   -9011.0452   -7945.8668   -9011.0452            0    11071.342    24.925585    24.905432    23.022586    14292.017    10871.634    11786.615    10555.776    213.05845     276.2165   -382.78729   -5638.2183 
 3746000    280.80995   -9045.8392   -7975.2636   -9045.8392            0    12074.292    24.989105    24.877543    22.803334    14176.092    10784.708    12446.769    12991.399    -492.3526   -486.85585     167.8956    -5478.979 
 3747000    289.76484    -9011.575   -7906.8592    -9011.575            0    11215.295    24.832609    24.876376    23.107875    14274.782    11007.513     11586.96    11051.412   -178.97698   -46.472643   -548.11486   -5572.0249 
 3748000    278.72165   -9068.9653   -8006.3513   -9068.9653            0    10421.531    25.086969    24.966218    22.765968    14258.935    9101.0043    10359.436    11804.153    28.465304    1458.1608   -785.94439   -5839.1738 
 3749000    269.47562   -9054.0939   -8026.7299   -9054.0939            0    11071.248    24.924078    24.952443    22.896583    14239.766    9782.9903    11142.032    12288.721    76.564286    476.06339   -516.92445   -5727.5376 
 3750000    281.98296   -8998.2971   -7923.2495   -8998.2971            0     10678.93    24.868166    25.093068    22.929442    14308.398    11973.214    10119.823    9943.7529    -220.3685    408.88501   -349.26664   -5694.8419 
Loop time of 539.195 on 64 procs for 250000 steps with 1920 atoms

Performance: 80.119 ns/day, 0.300 hours/ns, 463.654 timesteps/s
194.7% CPU use with 32 MPI tasks x 2 OpenMP threads

MPI task timing breakdown:
Section |  min time  |  avg time  |  max time  |%varavg| %total
---------------------------------------------------------------
Pair    | 69.515     | 74.195     | 81.114     |  34.2 | 13.76
Bond    | 0.81298    | 1.1236     | 1.71       |  19.7 |  0.21
Kspace  | 240.64     | 251.91     | 263.04     |  32.0 | 46.72
Neigh   | 5.5791     | 6.5277     | 7.8659     |  24.6 |  1.21
Comm    | 85.13      | 95.369     | 105.87     |  54.6 | 17.69
Output  | 0.64186    | 0.64221    | 0.64363    |   0.0 |  0.12
Modify  | 89.566     | 95.085     | 100.53     |  28.4 | 17.63
Other   |            | 14.34      |            |       |  2.66

Nlocal:        60.0000 ave          64 max          55 min
Histogram: 2 0 0 4 6 6 7 5 1 1
Nghost:        3373.19 ave        3399 max        3342 min
Histogram: 2 2 5 0 2 6 3 7 3 2
Neighs:        21233.0 ave       22918 max       19603 min
Histogram: 2 0 5 2 5 7 6 4 0 1

Total # of neighbors = 679457
Ave neighs/atom = 353.88385
Ave special neighs/atom = 2.0000000
Neighbor list builds = 13348
Dangerous builds = 0

unfix		3
unfix		2
unfix		1

write_data	data.final.${pid}
write_data	data.final.0
System init for write_data ...
PPPM initialization ...
  extracting TIP4P info from pair style
  using 12-bit tables for long-range coulomb (../kspace.cpp:340)
  G vector (1/distance) = 0.37437519
  grid = 30 30 30
  stencil order = 5
  estimated absolute RMS force accuracy = 0.0032830664
  estimated relative force accuracy = 9.886857e-06
  using double precision FFTW3
  3d grid and FFT values/proc = 5400 960
Last active /omp style is kspace_style pppm/tip4p/omp
WARNING: Not all mixed pair coeffs generated from mixing. Use write_data with 'pair ij' option to store all pair coeffs. (../write_data.cpp:312)

write_restart   restart.lmp.${pid}
write_restart   restart.lmp.0
System init for write_restart ...
PPPM initialization ...
  extracting TIP4P info from pair style
  using 12-bit tables for long-range coulomb (../kspace.cpp:340)
  G vector (1/distance) = 0.37437519
  grid = 30 30 30
  stencil order = 5
  estimated absolute RMS force accuracy = 0.0032830664
  estimated relative force accuracy = 9.886857e-06
  using double precision FFTW3
  3d grid and FFT values/proc = 5400 960
Last active /omp style is kspace_style pppm/tip4p/omp
Total wall time: 0:08:59
