LAMMPS (30 Jul 2021)
  using 1 OpenMP thread(s) per MPI task
package omp 0
using multi-threaded neighbor list subroutines
echo both

include		in.partitions
variable        pid world 0
include		in.temp
variable        temperature equal 232.53
variable	tempDamp equal 100.0
include		in.pressure
variable        pressure equal 1250.0
variable        pressureDamp equal 1000.0 # This is 1 ps
include		in.seed
variable        seed world 745823

units		real
atom_style	full
box tilt large
read_restart	restart.lmp.${pid}
read_restart	restart.lmp.0
Reading restart file ...
  restart file = 30 Jul 2021, LAMMPS = 30 Jul 2021
  restoring atom style full from restart
  triclinic box = (-10.766272 -9.3659240 0.012217516) to (12.746272 12.355922 21.847781) with tilt (-9.2861266 2.1381158 2.7733953)
  4 by 4 by 4 MPI processor grid
  restoring pair style lj/cut/tip4p/long/omp from restart
  restoring bond style harmonic/omp from restart
  restoring angle style harmonic/omp from restart
  1296 atoms
  864 bonds
  432 angles
Finding 1-2 1-3 1-4 neighbors ...
  special bond factors lj:    0        0        0       
  special bond factors coul:  0        0        0       
     2 = max # of 1-2 neighbors
     1 = max # of 1-3 neighbors
     1 = max # of 1-4 neighbors
     2 = max # of special neighbors
  special bonds CPU = 0.231 seconds
  read_restart CPU = 0.435 seconds
include 	in.setup
variable	out_freq equal 1000
variable	out_freq2 equal 10000
variable	out_freq3 equal 1000

timestep	2.0

neigh_modify    delay 7 every 1

include		in.tip4p
# This is TIP4P/Ice

# create groups ###
group ox type 2
432 atoms in group ox
group hy type 1
864 atoms in group hy

# set charges - beside manually ###
set group ox charge -1.1794
Setting atom values ...
  432 settings made for charge
set group hy charge 0.5897
Setting atom values ...
  864 settings made for charge

# ### TIP3P Potential Parameters ###
pair_style lj/cut/tip4p/long/omp 2 1 1 1 0.1577 8.5
pair_coeff 1 1*2 0.000 0.000
pair_coeff 2 2 0.21084 3.1668
bond_style  harmonic
bond_coeff  1 450 0.9572
angle_style harmonic
angle_coeff 1 55 104.52
kspace_style pppm/tip4p/omp 1.0e-5
pair_modify tail yes

thermo          ${out_freq}
thermo          1000
thermo_style    custom step temp pe etotal epair emol press lx ly lz vol pxx pyy pzz pxy pxz pyz enthalpy

restart 	${out_freq3} restart.lmp.${pid} restart2.lmp.${pid}
restart 	1000 restart.lmp.${pid} restart2.lmp.${pid}
restart 	1000 restart.lmp.0 restart2.lmp.${pid}
restart 	1000 restart.lmp.0 restart2.lmp.0


include         in.dump
dump            myDump all atom ${out_freq2} dump.water.${pid}
dump            myDump all atom 10000 dump.water.${pid}
dump            myDump all atom 10000 dump.water.0
dump            myDump2 all dcd ${out_freq2} dump.dcd
dump            myDump2 all dcd 10000 dump.dcd
dump_modify     myDump append yes
dump_modify     myDump2 append yes


variable natoms 	equal  "count(all)"                        # NUMBER ATOMS
variable H      	equal  "enthalpy/v_natoms"                 # ENTHALPY-per-atom
variable Vol      	equal  "vol/v_natoms"                 # volume-per-atom
fix AVG all 		ave/time ${out_freq} 1 ${out_freq} v_Vol v_H file vol_enthalpy.dat
fix AVG all 		ave/time 1000 1 ${out_freq} v_Vol v_H file vol_enthalpy.dat
fix AVG all 		ave/time 1000 1 1000 v_Vol v_H file vol_enthalpy.dat


timer           timeout 10:00:00 every 1000
New timer settings: style=normal  mode=nosync  timeout=10:00:00

fix 		1 all shake 1e-6 200 0 b 1 a 1
       0 = # of size 2 clusters
       0 = # of size 3 clusters
       0 = # of size 4 clusters
     432 = # of frozen angles
  find clusters CPU = 0.329 seconds
fix             2 all nph tri ${pressure} ${pressure} ${pressureDamp}
fix             2 all nph tri 1250 ${pressure} ${pressureDamp}
fix             2 all nph tri 1250 1250 ${pressureDamp}
fix             2 all nph tri 1250 1250 1000
fix             3 all temp/csvr ${temperature} ${temperature} ${tempDamp} ${seed}
fix             3 all temp/csvr 232.53 ${temperature} ${tempDamp} ${seed}
fix             3 all temp/csvr 232.53 232.53 ${tempDamp} ${seed}
fix             3 all temp/csvr 232.53 232.53 100 ${seed}
fix             3 all temp/csvr 232.53 232.53 100 745823


run             250000
PPPM initialization ...
  extracting TIP4P info from pair style
  using 12-bit tables for long-range coulomb (../kspace.cpp:340)
  G vector (1/distance) = 0.36686045
  grid = 30 40 32
  stencil order = 5
  estimated absolute RMS force accuracy = 0.0045698069
  estimated relative force accuracy = 1.3761838e-05
  using double precision FFTW3
  3d grid and FFT values/proc = 5168 640
Last active /omp style is kspace_style pppm/tip4p/omp
Neighbor list info ...
  update every 1 steps, delay 7 steps, check yes
  max neighbors/atom: 2000, page size: 100000
  master list distance cutoff = 10.8154
  ghost atom cutoff = 10.8154
  binsize = 5.4077, bins = 7 5 5
  1 neighbor lists, perpetual/occasional/extra = 1 0 0
  (1) pair lj/cut/tip4p/long/omp, perpetual
      attributes: half, newton on, omp
      pair build: half/bin/newton/tri/omp
      stencil: half/bin/3d/tri
      bin: standard
Per MPI rank memory allocation (min/avg/max) = 9.432 | 9.438 | 9.444 Mbytes
Step Temp PotEng TotEng E_pair E_mol Press Lx Ly Lz Volume Pxx Pyy Pzz Pxy Pxz Pyz Enthalpy 
 1250000    239.71483    -6332.965   -5716.3132    -6332.965            0    1176.7667    23.512543    21.721846    21.835564    11152.205    2227.6445   -679.59086    1982.2465   -23.452129   -330.11993    722.28672   -5524.9198 
 1251000    237.12658   -6369.6455   -5759.6518   -6369.6455            0    1135.0964    23.548157    21.465132    22.023552    11132.119    810.09857    1814.4054    780.78509   -488.19744   -245.37839   -152.33054   -5575.3683 
 1252000    233.73492   -6351.7293   -5750.4605   -6351.7293            0    1206.9929    23.320303    21.789615    21.937901    11147.534    3282.1261   -49.402584    388.25504   -483.48099   -663.34943   -317.86834   -5554.2332 
 1253000    226.11594   -6337.8244   -5756.1549   -6337.8244            0     709.1546    23.667718    21.450111    21.949148    11143.038    341.59134    139.53893    1646.3335   -181.23252    331.36558   -570.29874   -5640.9103 
 1254000    214.90832   -6350.3066    -5797.468   -6350.3066            0    670.76692     23.40787    21.740261    21.964547    11177.609    1068.1169    29.132202    915.05162   -684.40857    258.24095   -249.91819   -5688.1236 
 1255000    229.14002   -6352.5487   -5763.0999   -6352.5487            0    1561.8835    23.532464     21.45001    21.972605    11091.147    1040.5202    2549.4124    1095.7179    427.69728    729.86342   -201.22789   -5510.4606 
 1256000    233.15893   -6338.4727   -5738.6855   -6338.4727            0    1951.8125    23.313147    21.684471    21.906954    11074.694    2884.6051    1269.9291    1700.9034     296.5865     790.2396    825.05676   -5423.4423 
 1257000    235.71316    -6377.793   -5771.4353    -6377.793            0    1378.8185    23.578513    21.509444    21.872419    11092.832   -33.795431    1475.9842    2694.2667   -573.69355    259.20243   -448.10546   -5548.3734 
 1258000    239.63768   -6371.1987   -5754.7454   -6371.1987            0    793.39509    23.451557    21.767477     21.84006     11148.94     917.7914    716.92589    745.46798    465.18365   -402.27796   -945.13975   -5625.7426 
 1259000    245.51212   -6346.2148   -5714.6498   -6346.2148            0    2307.9739    23.587146    21.447736     21.93582    11097.131    676.10165    3504.0851    2743.7349     1047.799    375.60963     238.1387   -5341.1267 
 1260000    240.99164   -6359.3278   -5739.3915   -6359.3278            0    3217.8088    23.319625    21.634425    21.900552    11048.975    4113.3462    2869.5573    2670.5227    836.29206   -339.33779   -108.03605   -5220.8804 
 1261000    220.53754   -6322.4033   -5755.0839   -6322.4033            0    977.53786    23.551468    21.445735    22.082202    11153.247    2519.1073   -249.51978    663.02607    153.58133   -879.91145    516.06498   -5596.0789 
 1262000    236.40902   -6331.3371   -5723.1893   -6331.3371            0    1132.3937    23.427269    21.748086    21.929933    11173.262    1446.5738   -295.10863     2245.716    1191.1916   -1117.0873    734.85901   -5538.6651 
 1263000    239.19855   -6346.2169   -5730.8932   -6346.2169            0    2797.4424    23.550539    21.487623    21.798299    11030.923    2024.9645    2816.8317    3550.5311    17.280172   -249.02566    1898.6777   -5280.8555 
 1264000    235.57703    -6397.165   -5791.1574    -6397.165            0     1596.935    23.323097    21.662459    21.943955    11086.868    2342.7469    2496.1792   -48.120985   -94.779145    472.86693    320.33172    -5532.948 
 1265000    240.23341   -6372.6452   -5754.6593   -6372.6452            0    693.13432     23.46677    21.466434    22.089592    11127.585    704.65028    1191.5558    183.19688   -189.95542   -426.44169   -19.873778   -5642.1744 
 1266000    238.72631   -6374.1843   -5760.0755   -6374.1843            0    1080.0217    23.425615    21.740837    21.791616    11098.306    817.27305    473.03448    1949.7575   -470.07665    1230.9626    1045.0484   -5585.2659 
 1267000    233.52516   -6356.0403   -5755.3111   -6356.0403            0    1553.7747    23.573083    21.512747    21.882235    11096.958    1439.4508    1200.0253     2021.848   -53.323546   -278.12308    659.80751   -5503.8517 
 1268000    229.52513   -6376.8265   -5786.3871   -6376.8265            0    307.08067    23.248294    21.781299    22.019277    11150.079    1913.8179   -1029.2718    36.695878   -455.00731    182.27713     551.7826    -5736.452 
 1269000    226.81537   -6350.5253   -5767.0566   -6350.5253            0    2645.1723    23.594213    21.435495    21.803915    11027.409    1892.3406    3076.7278    2966.4485   -788.50791    246.05497   -807.55296   -5341.6508 
 1270000    227.01633   -6361.0109   -5777.0252   -6361.0109            0    2500.8997    23.464801     21.67726    21.747044     11061.69    1824.5583    2436.4534    3241.6875   -502.75021    189.77569    1.6671023   -5373.5716 
 1271000    231.51598   -6379.6917   -5784.1309   -6379.6917            0    988.00234    23.514395    21.515237    21.978661    11119.396    903.37586    1553.5252     507.1059   -104.76017    534.18141    155.23853   -5623.9115 
 1272000    225.62224   -6332.2442   -5751.8447   -6332.2442            0    1311.0837    23.413873    21.601952    22.002392    11128.488    1147.9277    2025.7309    759.59247    785.84316    9.3098697    1146.7531    -5539.059 
 1273000    237.01474   -6383.4432   -5773.7372   -6383.4432            0    591.64093     23.49197    21.619726    21.890045    11117.734    465.42811    336.41148     973.0832    558.81729    -1039.973   -171.22888   -5677.8081 
 1274000    238.96473   -6310.3566   -5695.6344   -6310.3566            0    775.77536    23.531904    21.620802    21.982682    11184.319    871.02125    739.94858    716.35623    875.51619   -463.71735    71.002408   -5569.0963 
 1275000    237.39353   -6335.3567   -5724.6763   -6335.3567            0    663.40659    23.478895    21.665487    21.963321     11172.34    1139.8803    392.71642    457.62309   -340.05741   -53.226622    277.96087   -5616.5827 
 1276000    236.36925   -6337.2909   -5729.2455   -6337.2909            0    997.42579    23.462335    21.637106    21.961013    11148.663    1345.1796    1106.4419    540.65582    935.21925    264.55103   -175.77823   -5567.0722 
 1277000    240.55353   -6363.3636   -5744.5543   -6363.3636            0    1351.1418    23.499242     21.51354    22.027685    11136.138    821.90078    1678.0897     1553.435    474.36885    307.05076   -513.28517   -5525.1165 
 1278000    227.08251   -6369.2658   -5785.1099   -6369.2658            0    1178.8768    23.360739    21.663899    21.959928    11113.583    1710.3778    584.59995    1241.6526   -318.35735    336.80472    304.48151   -5594.0373 
 1279000    219.21218   -6341.6978   -5777.7878   -6341.6978            0    1349.3057     23.53726    21.504435    21.982627    11126.627    1410.5075    980.06784    1657.3417    52.539183   -816.76029   -291.09101   -5558.8353 
 1280000    239.07337   -6325.8796   -5710.8779   -6325.8796            0    1132.1976    23.384336    21.786685    21.861714    11137.826    1504.4048    951.80397    940.38405   -919.78695    871.88637    573.47526   -5526.9708 
 1281000     230.6164   -6325.5019   -5732.2552   -6325.5019            0    288.05099    23.673738    21.544018    22.036331    11239.133    -269.3336    71.503242    1061.9833   -93.294508   -205.16423    586.72116   -5685.0404 
 1282000    243.54366   -6374.5581   -5748.0569   -6374.5581            0    1653.8648    23.151364    21.706274     22.03055    11071.009    2426.2568    1211.9159    1323.4218    1666.2308    629.96392   -422.37436    -5481.025 
 1283000     238.9767   -6374.3875   -5759.6344   -6374.3875            0    3064.0392    23.505783    21.368931    21.953893    11027.297    2794.4956    3607.4766    2790.1455    586.01697    991.34028   -1069.2085   -5266.8701 
 1284000    231.70622   -6369.3012    -5773.251   -6369.3012            0    1745.4563    23.380578    21.727796    21.764408    11056.503     2451.821    1026.9736    1757.5744   -483.89134   -8.1458446   -1058.5629   -5491.8001 
 1285000    225.04375   -6368.8085   -5789.8971   -6368.8085            0    2220.5701    23.520244    21.444875    21.959496    11076.122    2885.8988     1768.871    2006.9406    900.75723   -728.57038    635.64928   -5431.1998 
 1286000    227.38408   -6360.2389   -5775.3072   -6360.2389            0    1077.9398    23.344975    21.737502    21.932428    11129.861    2853.3083   -98.752361    479.26354    38.401286   -1280.3755    285.66337   -5600.3386 
 1287000     234.2983   -6352.0481     -5749.33   -6352.0481            0    1221.9426     23.66379    21.535365    21.794744    11106.783    374.70056    1833.8568    1457.2704    54.189247    -546.8777   -382.92361   -5551.3984 
 1288000    238.97661   -6370.6545   -5755.9017   -6370.6545            0    733.98916    23.343987    21.765223    21.890829    11122.447    1306.5427   -29.649587    925.07435   -308.13306    821.83683    504.34203   -5636.8417 
 1289000    241.40608   -6379.2053   -5758.2029   -6379.2053            0    329.29969    23.550325    21.479221    22.017659    11137.471   -506.98497    1095.5755     399.3086   -932.12876    1845.3962   -94.885205   -5704.7152 
 1290000    235.89753   -6382.6633   -5775.8313   -6382.6633            0    410.06526    23.427044    21.643466     21.95323    11131.219    442.88762      380.085    407.22316   -653.00364     1032.605   -309.37934   -5709.2623 
 1291000    237.01376   -6386.6359   -5776.9325   -6386.6359            0    1565.6585    23.576505    21.615295    21.761789    11090.093     1362.234    625.97494    2708.7664   -732.60998    570.88338    -75.83495   -5523.7066 
 1292000    230.63172   -6362.6508   -5769.3647   -6362.6508            0    2201.6155    23.359762     21.70746    21.883813    11096.868    2910.7889    1917.6272    1776.4304    191.99292    302.33569   -348.84448   -5413.0631 
 1293000    241.70488   -6361.3333   -5739.5622   -6361.3333            0    1220.9198     23.47976    21.486702    22.021807    11110.059     1173.217     1087.524    1402.0183    -417.7279   -459.24388    127.60585    -5541.738 
 1294000    226.02492   -6328.2416   -5746.8063   -6328.2416            0    1645.3664    23.489144    21.649358    21.823137    11097.609    1903.7943    1081.2076    1951.0972    1285.4813   -1848.8958    888.03731   -5480.5083 
 1295000    220.80619   -6390.1691   -5822.1586   -6390.1691            0    459.55153    23.664196     21.57892    21.712662    11087.523    -1024.321    1021.9053    1381.0703    879.52109   -292.60198    6.0112899   -5747.8491 
 1296000     237.0304   -6357.4964   -5747.7502   -6357.4964            0    1081.0028    23.481008    21.622432    21.966143    11152.573    1191.9559    1467.6887    583.36378    641.54408   -898.43774    534.15857   -5571.9263 
 1297000    229.77578   -6377.1789   -5786.0947   -6377.1789            0    1517.0018    23.457449    21.548537    21.955863    11098.111    1371.0051    2821.7717    358.22882   -368.60866   -239.69954   -1018.7005    -5540.561 
 1298000     234.2804   -6341.4799   -5738.8078   -6341.4799            0    2096.6166    23.451244    21.564945    21.897888    11074.305     3723.599    1382.8744    1183.3763   -44.369108    -933.6546   -533.70672   -5400.1888 
 1299000    249.74655   -6383.3657   -5740.9079   -6383.3657            0    1303.4766    23.443959    21.474366    22.071147     11111.59    1124.1825    2790.9901   -4.7427521   -860.99023    910.46508   -456.82444   -5529.6781 
 1300000    234.44293   -6361.1467   -5758.0565   -6361.1467            0    1912.0517    23.400088    21.593671    21.938923    11085.602    2994.5177    1496.0992    1245.5382   -829.26428    227.93585    378.81493   -5448.9311 
 1301000    234.41532   -6330.8622   -5727.8431   -6330.8622            0    1900.5843     23.52503    21.530023    21.970091    11127.729    2977.8178     1243.086    1480.8491    230.33158   -78.777865    472.79445   -5419.4039 
 1302000    220.46487   -6348.1116   -5780.9792   -6348.1116            0    1225.8293    23.444793    21.775122    21.773565    11115.693    1603.8425    586.99131    1486.6541   -562.72537    1180.3667   -1355.2748   -5582.2588 
 1303000    224.12034   -6358.1619    -5781.626   -6358.1619            0    1573.4872    23.643708    21.547314    21.792081    11102.159    1560.5762    1084.6697    2075.2155    47.793757   -645.29739   -117.46204   -5526.8571 
 1304000    235.96139   -6355.4706   -5748.4743   -6355.4706            0    1069.0069    23.484423    21.661246    21.889726    11135.345    591.63033    1379.2971    1236.0931    1461.2978   -76.399062    829.70964   -5574.8702 
 1305000    235.78064   -6353.4991   -5746.9678   -6353.4991            0    699.30318    23.500053    21.562613    21.994666    11145.193     750.9898    787.96625    558.95348    992.21531   -642.99378   -132.64887   -5633.3022 
 1306000    246.01173   -6353.4529   -5720.6027   -6353.4529            0    1323.9869    23.412288    21.632038    21.913176    11098.048    2154.8713    1372.8423    444.24713    -522.2768    1048.5001   -1425.9561   -5506.3105 
 1307000    235.66363   -6363.8723   -5757.6419   -6363.8723            0    2491.4236    23.557655    21.518364    21.835469    11068.884    2297.7084    3627.4726    1549.0896    742.96269    490.73943    -1458.942   -5355.4556 
 1308000    234.43072   -6366.5788     -5763.52   -6366.5788            0    1592.9896    23.401925    21.578794    21.951067    11084.966    2151.9558    2220.0012    407.01178   -566.67354   -453.18069    -527.3253   -5505.9928 
 1309000    241.49686   -6374.2372   -5753.0012   -6374.2372            0    858.96912     23.41966    21.540241    22.078025    11137.593    1501.4901     157.8695    917.54772   -138.03033    359.91999    1067.4888   -5613.4786 
 1310000    219.02803   -6356.7228   -5793.2866   -6356.7228            0     775.7901    23.451574    21.573233    21.996826    11128.772    1357.0161   -154.95684     1125.311   -1321.7929    571.55765    263.14534   -5667.3745 
 1311000    241.74459   -6383.6227   -5761.7494   -6383.6227            0   -38.833364    23.522776    21.660983     21.98035    11199.569   -50.263682    120.60275   -186.83916     3.669159    320.00913   -380.67234   -5768.0923 
 1312000    225.50193   -6325.4799   -5745.3899   -6325.4799            0    757.63403    23.556191    21.622363    21.897738    11153.405    823.97661   -327.10875    1776.0342    942.05223   -1013.4521    103.07727   -5622.1524 
 1313000    244.37547   -6339.1007   -5710.4597   -6339.1007            0    35.718501    23.465834     21.66102    21.986198     11175.45    706.75951   -1082.9356    483.33155    224.41451    207.87474    784.42467   -5704.6382 
 1314000    235.47847   -6373.3487   -5767.5946   -6373.3487            0    879.13969    23.571799    21.505294    21.949793    11126.755    1316.5621    1801.5033    -480.6463    756.98542   -721.53178    417.40578   -5624.9346 
 1315000    219.48906   -6373.0493    -5808.427   -6373.0493            0    1688.7918     23.45152    21.618308    21.889653    11097.664     1529.283    1811.9242    1725.1682    1925.9161   -1767.4934     109.5309   -5535.0994 
 1316000    241.19686   -6351.8265   -5731.3623   -6351.8265            0    1537.1582    23.648238    21.438363    22.001544    11154.332    116.64565    3289.6896    1205.1395    544.62692   -1005.0404   -1007.2922   -5481.3059 
 1317000    229.96854    -6392.814   -5801.2339    -6392.814            0    1565.6589    23.391072    21.680179    21.828224    11069.587    1652.5423    1194.6158    1849.8186    -20.92497    43.814894   -562.72339   -5548.4762 
 1318000    228.09985   -6367.9549   -5781.1819   -6367.9549            0    445.74913    23.654952    21.443339    21.993993    11156.259    188.93971    1045.3092    102.99842   -7.5199524    338.32937    220.66381   -5708.6574 
 1319000    232.72139    -6408.926   -5810.2644    -6408.926            0   -344.02001    23.231997    21.925784    21.849924    11129.909    25.207231   -1601.3266    544.05937   -194.48916    86.236545    713.99568   -5866.1051 
 1320000    227.50451   -6354.6387   -5769.3972   -6354.6387            0    2146.7306    23.672054    21.448621    21.811459    11074.396   -639.65895    3726.5022    3353.3487   -553.58868    1312.5831   -148.55151   -5422.6815 
 1321000    235.43406   -6362.9704   -5757.3306   -6362.9704            0    545.87236    23.403263    21.756503    21.914242    11158.144    1304.6842   -897.70579    1230.6386   -628.77962    226.90198    1080.7743   -5668.5007 
 1322000     235.0205   -6302.1751   -5697.5992   -6302.1751            0    1504.7284    23.522741     21.45148    22.137002    11170.278    954.11306    1876.9995    1683.0727    368.75185    679.88218   -92.656829   -5452.4683 
 1323000    226.28416    -6373.595   -5791.4928    -6373.595            0    1522.4243    23.399409     21.71261    21.787309    11069.309    2503.0882    772.74634    1291.4385   -1418.6478   -78.046013    583.88389   -5545.7209 
 1324000    236.50333   -6375.4702   -5767.0798   -6375.4702            0    1620.9107    23.531665    21.568158    21.820456    11074.638    1365.2826    1554.1178    1943.3316   -227.53485   -269.29026    280.67298   -5505.2829 
 1325000    231.24508   -6351.9437   -5757.0798   -6351.9437            0    656.43397    23.537956    21.563005     21.98054    11156.203    1210.6445    205.98992    552.66751    462.78098   -58.130941     1022.859   -5650.2768 
 1326000    240.75179   -6376.6704   -5757.3511   -6376.6704            0    1076.8415    23.505162    21.613104    21.898215     11124.72   -355.85108    2058.3272    1528.0483    1517.6149    169.80821    1285.9611   -5582.6415 
 1327000    232.95339   -6380.9304    -5781.672   -6380.9304            0    545.90835    23.435426     21.57375    22.046041    11146.258   -47.133804     906.0708    778.78806    970.15632    482.97508   -88.224841   -5692.9309 
 1328000     235.5452   -6331.0503   -5725.1246   -6331.0503            0    1820.0849    23.405938    21.593949    22.068022    11153.766    1917.6411    2845.9744    696.63928   -429.43654   -214.63307   -1368.9935   -5429.0582 
 1329000    234.14673   -6390.3425   -5788.0143   -6390.3425            0    2741.5192    23.504606    21.604746    21.696943    11017.947    2411.9467    2682.0855    3130.5254   -1028.8767     1103.722   -631.36693    -5347.492 
 1330000    240.09194   -6344.9197   -5727.2978   -6344.9197            0    1479.2166    23.535728    21.666219    21.752078    11092.042    704.91029      1172.05    2560.6896    -1113.938    12.631687   -452.15734   -5488.0108 
 1331000    234.13157   -6381.8036   -5779.5144   -6381.8036            0    883.11182    23.477292     21.57715    21.922938    11105.569    1066.0339    820.09208    763.20954   -707.31583    509.44948    318.67874   -5636.4826 
 1332000    234.90984   -6382.7763    -5778.485   -6382.7763            0    1153.5766    23.150861    21.655267    22.178241    11118.797    2862.4378    1219.9122   -621.62029   -1931.6917    496.94701   -1018.1779   -5591.4254 
 1333000    238.36232   -6376.4753   -5763.3028   -6376.4753            0    1217.9269    23.476134    21.482684    22.051995    11121.491    1563.3783    535.73709    1554.6653    4.6178499    202.26815    619.31848   -5565.7605 
 1334000    243.29795   -6335.5687   -5709.6996   -6335.5687            0   -22.681773    23.578082    21.748322    21.842827    11200.646   -1068.3462    533.17769    467.12324   -331.30122    1114.2366   -684.16029   -5713.4046 
 1335000    243.50863   -6403.0112   -5776.6001   -6403.0112            0    -385.4633    23.573372     21.62096    21.899287    11161.605   -309.23044   -32.213155    -814.9463    1422.5575    338.70901   -18.726193    -5839.346 
 1336000    229.13828   -6370.5572   -5781.1129   -6370.5572            0    1113.9694     23.35947    21.603032    22.068021    11136.305    1767.3947    1729.9585   -155.44503    557.13006   -915.60898   -236.45927   -5600.1914 
 1337000    231.55208    -6390.577   -5794.9234    -6390.577            0    1781.8289    23.493462    21.551712    21.861654    11069.087    2802.7898    712.85939    1829.8375   -859.38251    -566.8013    -703.7215   -5507.2804 
 1338000    233.63107   -6348.6241   -5747.6224   -6348.6241            0   -76.916377    23.575962    21.668976    21.851813    11163.369   -101.93306   -1018.8857    890.06964    76.240584    660.21006    599.67095   -5760.1448 
 1339000    216.13576   -6366.9238   -5810.9277   -6366.9238            0    1684.8603     23.57499    21.504555    21.830787    11067.547    626.11013    2174.2023    2254.2686    172.09093    35.978248    1332.9658   -5538.9764 
 1340000    231.27403    -6378.458   -5783.5197    -6378.458            0    523.14626    23.410023    21.679701    21.986107    11158.439     701.0558    677.28655    191.09643    128.47821   -530.90003   -336.61166   -5698.3858 
 1341000    235.32811   -6397.9985   -5792.6313   -6397.9985            0    1375.0503     23.48037    21.500048    22.005947    11109.242    1401.6416    2968.3475   -244.83834   -172.15592    -1092.417   -801.11194   -5569.8499 
 1342000    229.62029   -6348.0583   -5757.3741   -6348.0583            0    1783.0022    23.389998    21.735103    21.857123    11111.812    2031.9313    1512.5962     1804.479    743.46152   -968.54368   -1181.8716   -5468.4308 
 1343000    228.21504   -6348.2846   -5761.2153   -6348.2846            0    954.59473    23.597751    21.490513    21.953728    11133.345    709.94162     1854.119     299.7236   -388.59573    1029.2683    1098.6475   -5606.2193 
 1344000    231.29306   -6350.6659   -5755.6786   -6350.6659            0    1600.2735    23.519878    21.652533    21.854678    11129.821   -59.098789    1555.8186    3304.1007    904.41533   -35.378216    901.74427    -5495.927 
 1345000    228.57631   -6393.9582   -5805.9596   -6393.9582            0    2250.3674    23.365014    21.517749    21.979823    11050.631    858.29404    4581.4309    1311.3774    1339.3605    437.42787   -521.54079   -5443.2856 
 1346000    233.99016   -6333.2813   -5731.3558   -6333.2813            0    3366.3912    23.276431    21.476924    22.074056    11034.956    4890.3304    3889.5443    1319.2988   -1058.3067   -536.43547   -714.62278   -5189.5907 
 1347000    230.20435   -6358.6184   -5766.4318   -6358.6184            0    922.97528    23.555813    21.607179    21.834019    11112.962    741.46549    111.12738     1916.333   -130.28432    313.98139   -260.52763   -5616.8441 
 1348000    231.69074    -6396.292   -5800.2816    -6396.292            0    228.45581    23.551164    21.624497    21.823244    11114.187   -609.61586     506.3001    788.68318    472.26038    415.48955   -93.624882   -5763.2515 
 1349000    229.31841   -6349.2667    -5759.359   -6349.2667            0    553.61196    23.555686    21.614654    21.950123    11175.861     361.4128     529.6765    769.74658    557.34793   -865.64333    949.78366   -5669.1267 
 1350000    229.15385   -6377.2942   -5787.8099   -6377.2942            0    1259.2904    23.466682    21.574052    21.941535    11108.372    1067.5424    1151.8279    1558.5008    614.20376    8.6431078    874.39502   -5583.7995 
 1351000    234.29601    -6398.213   -5795.5008    -6398.213            0    1736.7819     23.42924    21.562609    21.890322    11058.893    1810.2316    2022.9037    1377.2104    210.20472   -1046.0259   -118.57803   -5515.3881 
 1352000    234.22526    -6363.035   -5760.5048    -6363.035            0    199.48897    23.515466    21.671041    21.958865    11190.339    533.48007   -206.11473    271.10156   -222.56022   -265.27975   -471.27626   -5727.9483 
 1353000    226.93605   -6324.6891   -5740.9099   -6324.6891            0    283.00824    23.558531    21.673395     21.97669    11221.152    882.61181   -324.75311    291.16602   -2394.0576    792.03678    583.12847   -5694.5959 
 1354000    232.81549   -6366.2752   -5767.3716   -6366.2752            0     449.3473    23.454225    21.616199    21.986093    11146.756     95.24582    1009.8369    242.95919   -1154.8259   -95.814822    14.468346   -5694.3239 
 1355000    231.01123   -6344.0182   -5749.7559   -6344.0182            0    1171.2814    23.493083    21.638537    21.913626    11139.922    1550.0855   -136.74397    2100.5025    -666.5764    1231.9849    790.60676   -5559.4644 
 1356000    229.59082   -6366.5728   -5775.9644   -6366.5728            0     1380.731     23.42056    21.595609    21.951275    11102.544    1281.4083    1604.6256     1256.159   -874.18137    600.11205   -250.86621   -5552.3976 
 1357000     228.9353   -6350.8265   -5761.9044   -6350.8265            0    801.42579    23.406056    21.507802    22.140866    11145.996    776.63884    2041.6961   -414.05763   -291.24719    216.44236   -293.46325   -5631.6303 
 1358000    231.19881   -6360.5101   -5765.7652   -6360.5101            0   -180.61269    23.418023    21.634052    22.094196     11193.51    821.61693   -215.48839   -1147.9666    921.52209   -144.07897    603.77504   -5795.2495 
 1359000    228.78825    -6372.236   -5783.6922    -6372.236            0   -253.31886    23.584156    21.644603    21.904895    11181.785    644.48472   -619.25428   -785.18703    103.94942   -1266.9378    353.61933   -5825.0021 
 1360000    234.80256   -6383.9687   -5779.9534   -6383.9687            0    465.68943    23.620436    21.657924      21.7892    11146.693    267.33364   -122.92946    1252.6641   -1021.9147   -1202.0971   -404.82293   -5704.2495 
 1361000    232.43524   -6352.7161   -5754.7906   -6352.7161            0    772.08173    23.442548    21.727993    21.920383    11165.356    587.52797   -171.60656    1900.3238    975.00966   -302.63027    205.23126   -5629.0685 
 1362000    233.62162   -6370.3534    -5769.376   -6370.3534            0    1838.1712    23.484277    21.467217    22.025261     11103.86    1025.0846     2919.803    1569.6259    858.67852    1032.7185    1040.3593   -5471.7055 
 1363000    239.05301   -6382.5627   -5767.6134   -6382.5627            0    2811.3423    23.249441    21.531497    22.074809    11050.545    3398.4958    2213.7969    2821.7342    583.65099    444.59954    1046.9375   -5314.5351 
 1364000    240.88006    -6368.914   -5749.2647    -6368.914            0    1794.6617     23.59943    21.506347      21.8237    11076.347    1081.0504    3029.4378    1273.4968   -732.02987    6.1036847   -628.85187   -5459.3602 
 1365000    230.87355   -6344.3339   -5750.4258   -6344.3339            0    1159.3928    23.485035    21.729534    21.841247        11146    1682.5838   -140.58196    1936.1764   -64.037928    -366.8446    204.98406   -5561.9631 
 1366000    226.02121   -6384.3753   -5802.9495   -6384.3753            0   -513.97159    23.544378    21.522761    22.138622    11218.526    364.96575   -59.927954   -1846.9526   -322.95108   -261.81163   -441.00323   -5887.0407 
 1367000    228.90152    -6425.843   -5837.0078    -6425.843            0    429.57368    23.326943    21.846535     21.82441    11122.001    766.20784   -1326.4346    1848.9478    1126.9071   -469.84707    444.22864   -5767.3296 
 1368000    219.73707   -6356.6751   -5791.4149   -6356.6751            0    2189.9143     23.68226    21.390159    21.809783    11048.123    402.93148    2951.5694    3215.2422    574.30104    153.02435    68.542521   -5438.5638 
 1369000      229.035   -6359.5525   -5770.3739   -6359.5525            0     1947.154    23.302955    21.632777    21.965755    11073.105    2361.3223    2411.6962    1068.4437   -769.46354    507.69477   -304.98973   -5455.9282 
 1370000    233.08448   -6362.9852   -5763.3896   -6362.9852            0    -180.9857    23.660379    21.430424    22.107871    11209.839     23.69024    815.35302   -1382.0004   -215.48283    15.191711   -516.64069   -5792.9778 
 1371000    217.99979   -6331.9641   -5771.1729   -6331.9641            0    449.55434    23.364705    21.768766    22.053546    11216.892    1761.0046    426.22309   -838.56468    638.65597   -1137.0642   -1752.7345   -5697.6317 
 1372000    234.35539   -6333.6391   -5730.7742   -6333.6391            0    868.39886    23.629168    21.525437    21.961603     11170.29    275.26133    1881.5265     448.4088    387.03959    153.84637   -608.00864   -5589.3057 
 1373000    229.04258    -6367.219   -5778.0209    -6367.219            0    2150.3944    23.355627    21.602309    21.918505    11058.663    2839.5279    1737.2005    1874.4548    197.57013   -310.74256   -303.65389   -5431.2069 
 1374000    228.67191   -6341.9397   -5753.6951   -6341.9397            0    1549.1214      23.5193    21.514608    21.878996    11070.958    2112.7611     1515.928    1018.6749   -565.14504   -1645.4223   -300.13663   -5503.5762 
 1375000    245.64127   -6364.8402    -5732.943   -6364.8402            0    2052.1405    23.423793    21.689614    21.804501    11077.843    1515.2968    1993.6952    2647.4294      591.765    332.85028   -430.29064   -5401.4013 
 1376000    227.55938    -6352.865   -5767.4824    -6352.865            0    1364.2734    23.470359    21.540268    21.988786    11116.603    2067.4511    954.93633    1070.4328    206.07589   -859.37448    98.569008   -5546.3006 
 1377000    234.44619   -6373.8011   -5770.7026   -6373.8011            0    1596.6228     23.49222    21.544964    22.000294    11135.208    1137.4182    1183.6858    2468.7645    671.76676    275.36743    305.23902   -5511.4181 
 1378000    227.74397   -6344.1422   -5758.2847   -6344.1422            0    226.36392    23.537763    21.674585    21.965833    11206.337    341.05189   -1293.7685    1631.8084    695.38213   -549.27485    1748.1302   -5721.2894 
 1379000    245.58176   -6356.6332   -5724.8891   -6356.6332            0    97.893396    23.646661    21.667456    21.765281    11151.724    452.20436   -768.31533    609.79116   -679.16665   -485.19868   -90.944767   -5708.9681 
 1380000     225.9124   -6392.5508   -5811.4049   -6392.5508            0    657.32802    23.458051     21.56317    21.979155    11117.715     1460.055    724.75631   -212.82721    206.72689    173.64619   -502.86798   -5704.8254 
 1381000    219.62416   -6370.4534   -5805.4837   -6370.4534            0    1694.9824    23.326608    21.504805    22.085049    11078.614    2408.1635    2777.7724   -100.98864   -46.230384    356.83393   -1021.8507    -5531.625 
 1382000    232.29161   -6333.9979   -5736.4419   -6333.9979            0    1214.2316    23.475766    21.655985     21.93535    11151.731    1956.9143    1165.1142    520.66635   -212.70108   -463.98388    107.84686   -5538.9635 
 1383000    229.28158   -6340.5716   -5750.7587   -6340.5716            0    1607.8662    23.590071    21.765821    21.694118    11139.002    1086.6506    646.71388     3090.234   -423.05411    195.90588   -434.23589   -5489.5593 
 1384000    226.84916   -6384.5284   -5800.9728   -6384.5284            0    477.84831    23.588118    21.560233    21.861561    11118.032   -205.38583    886.76568    752.16507   -428.19719    493.31236   -369.79701    -5723.492 
 1385000    231.66163   -6389.2944   -5793.3589   -6389.2944            0    2326.9409    23.104639    21.736968    22.004691    11051.302    3058.4251    2268.7749    1653.6228   -651.27424   -329.89073   -1312.5109   -5418.3215 
 1386000    250.95356   -6387.9653   -5742.4025   -6387.9653            0    1594.8081    23.671581    21.419375    21.855447    11081.378    701.44545    2908.6671    1174.3118   -962.65313   -58.276319    51.049007   -5484.6648 
 1387000    233.61679   -6370.1388   -5769.1739   -6370.1388            0    1768.5546    23.349318    21.751066    21.803663    11073.482    2029.9081    1044.6976    2231.0582   -1577.9519    794.66767    577.33721   -5483.5605 
 1388000    226.15237   -6374.8908   -5793.1276   -6374.8908            0    1280.7168    23.505557    21.388953    22.077286     11099.56    1001.6141    2094.3519     746.1843   -204.04791    413.80664    438.48663   -5585.8107 
 1389000    233.53688   -6380.3038   -5779.5444   -6380.3038            0    2835.7904    23.244104    21.624321    21.946905    11031.348    3153.0051    3708.7679    1645.5983    1148.5737    335.63433    355.54759   -5323.3199 
 1390000    231.80309   -6357.4854   -5761.1861   -6357.4854            0    1273.7678    23.716616    21.533973    21.765731    11116.041    229.20617    654.38457    2937.7128   -389.91355     469.7192    483.00483   -5554.6879 
 1391000    235.91601   -6390.2654   -5783.3859   -6390.2654            0   -273.34265     23.50817    21.739757    21.918132    11201.522   -1388.3395   -337.49812    905.80969   -665.04377    1084.3169    528.48909   -5828.0399 
 1392000    236.17889   -6377.4965   -5769.9407   -6377.4965            0    1089.4887    23.532214    21.509067    21.854082    11061.574    347.06975    1520.1545    1401.2419    -489.2541    630.20038    32.170306   -5594.1825 
 1393000    233.13898   -6357.4852   -5757.7494   -6357.4852            0    2371.5331    23.274085    21.595428    21.985145    11050.038    3844.8972    1733.0913    1536.6107   -183.38035   -40.907305    483.08433   -5375.5686 
 1394000     233.2698   -6367.4428   -5767.3705   -6367.4428            0    1154.1261    23.542724    21.428659     22.06013    11129.093     1186.391    2447.7647   -171.77733   -119.44282    -1117.537   -1203.9477   -5580.0484 
 1395000     234.7821   -6330.6984   -5726.7358   -6330.6984            0    898.18674    23.486853    21.770348    21.901097    11198.402    999.57066    625.46417    1069.5254   -967.27435   -327.60495   -1107.2451   -5580.0464 
 1396000    238.17204   -6396.5765   -5783.8935   -6396.5765            0    2027.3152    23.482137    21.465263    21.920032    11048.797    1999.3909    2016.5002    2066.0546    657.24321   -49.199248    447.16072   -5457.2213 
 1397000    230.09038   -6378.9584    -5787.065   -6378.9584            0    1513.6164    23.311854    21.723296    21.891976    11086.322    2579.7654    260.44251    1700.6412   -543.94274   -161.41298    765.69331   -5542.3395 
 1398000    232.40555    -6389.409   -5791.5599    -6389.409            0    1495.1878     23.63831    21.383788    21.916946    11078.504    98.273821    3022.1611    1365.1285    271.21084    1620.4848    458.52501   -5549.9845 
 1399000     232.6558   -6330.2528   -5731.7599   -6330.2528            0     723.3302    23.350945    21.759465    21.992402    11174.429    1648.7945    708.07205   -186.87598    310.58375   -3.9624792   -515.14738   -5613.8806 
 1400000    228.91666   -6369.6097   -5780.7355   -6369.6097            0    653.13558    23.603647    21.518846    21.963401    11155.722   -316.36867    2184.2338    91.541637    49.386692    58.039152   -264.75984   -5674.4738 
 1401000    229.57664   -6332.0255   -5741.4535   -6332.0255            0    2352.1148    23.458952    21.751583    21.692822    11069.182    1992.0198     2065.401    2998.9235   -649.06276    778.82721    393.00768   -5361.7454 
 1402000     227.6302   -6378.2527   -5792.6878   -6378.2527            0    1973.1145    23.480816    21.466806    21.957677    11067.945    289.68537    4170.3571     1459.301    163.65926    987.93745   -99.334375   -5474.1983 
 1403000    236.38582   -6342.9794   -5734.8913   -6342.9794            0    2075.6374    23.369358     21.55301    22.037543     11099.87     1844.574    1467.2061    2915.1319   -218.74664    564.66108    110.68801   -5398.8867 
 1404000     232.3696   -6366.0904   -5768.3338   -6366.0904            0    1229.4409     23.48025    21.564534    21.919969    11098.971    1693.8767    1129.3408    865.10512   -607.81488   -96.726589    306.33324   -5569.3277 
 1405000    230.16894   -6385.3056     -5793.21   -6385.3056            0    942.41047    23.661513    21.602004    21.725136    11104.501    259.09639    1128.5373    1439.5977    405.71402   -399.70701    99.449618   -5640.5888 
 1406000    226.10137   -6396.6487   -5815.0167   -6396.6487            0    525.19423    23.417068    21.745743    21.867327    11135.314    2535.4445   -1364.9906    405.12883    677.82495   -1063.4468    411.20194   -5729.7267 
 1407000    220.54127   -6350.3502   -5783.0212   -6350.3502            0    957.54209    23.541932    21.578698    21.985348     11168.65    865.56551    1214.3821    792.67868   -202.98652   -861.92665    679.55761   -5627.0536 
 1408000    229.51025   -6378.7955   -5788.3944   -6378.7955            0    1055.5595    23.414595    21.640389    21.912091    11102.877    1439.6673    382.46689    1344.5443   -78.324043    50.108267    543.20009   -5617.4739 
 1409000    225.59477   -6344.5131   -5764.1843   -6344.5131            0    4076.1505     23.51393    21.399978    21.883551     11011.75    4548.5847    4204.0116    3475.8553    394.97379   -505.28058    863.77213   -5109.5746 
 1410000    240.82493   -6394.4685    -5774.961   -6394.4685            0    1584.7979    23.481696    21.721034    21.709232    11072.723    1160.5487     1789.772    1804.0732   -1150.0318     1084.363   -618.52559    -5519.041 
 1411000    228.43362   -6387.3931   -5799.7615   -6387.3931            0    501.61971    23.596184    21.501644    21.909719    11116.044    978.59105    183.84271    342.42535   -110.89606   -900.66382    1026.1538   -5718.4409 
 1412000    239.09414    -6372.288   -5757.2329    -6372.288            0   -1006.5366    23.382311    21.677535    22.146052    11225.189   -4.3176305   -916.91638   -2098.3758    470.83759   -243.87827   -117.06305   -5922.0109 
 1413000    230.36337    -6365.248   -5772.6522    -6365.248            0    2518.5724    23.394684    21.363935    22.118305    11054.784    2845.4157    2777.0447    1933.2567   -240.21016    320.48102    1128.0816   -5366.6012 
 1414000    224.40583   -6362.8735   -5785.6032   -6362.8735            0     1096.249    23.409998    21.765217    21.831216    11123.522    447.66773    628.77427    2212.3049   -6.2027935    324.32651   -185.83612    -5607.764 
 1415000    236.63669   -6370.1846   -5761.4512   -6370.1846            0    1366.6719    23.647477    21.397575    21.909276    11086.064    -256.8651    3138.6416    1218.2392    788.05686   -480.28114   -994.51438   -5540.4892 
 1416000    235.29659   -6336.8562   -5731.5701   -6336.8562            0    1015.9574     23.27279    21.723867    22.060245    11153.108    865.07306    1340.1681    842.63103    1738.9678   -154.39021    24.534557   -5566.3179 
 1417000    235.08055   -6386.5009   -5781.7705   -6386.5009            0    1504.3733    23.580603    21.429953    21.994665    11114.591    1294.7838    2114.5714    1103.7647   -146.92084   -276.36353   -247.04909   -5537.9193 
 1418000    231.04589    -6335.861   -5741.5095    -6335.861            0    917.45726    23.401302    21.727798    21.923907    11147.403    1999.1126   -540.04593    1293.3051   -251.91031    500.80237    1097.4308   -5592.3554 
 1419000     240.2676   -6334.7524   -5716.6786   -6334.7524            0    899.72147    23.835962     21.41692    21.799868    11128.677   -1600.9408    2431.7261    1868.3792   -225.48257   -486.57797   -880.01236   -5570.6535 
 1420000    231.56714   -6368.4651   -5772.7728   -6368.4651            0    2160.4781    23.214956    21.709765    21.937434    11056.274    2532.2075    2069.4078    1879.8188     477.3028    879.64505     75.19954   -5424.4077 
 1421000    234.23163   -6368.0428   -5765.4962   -6368.0428            0    1384.8961    23.476095    21.446073    22.064002    11108.564    2212.4953    2116.6769   -174.48389   -734.45561    98.293737   -541.31236   -5541.1333 
 1422000    239.66547   -6375.0245   -5758.4997   -6375.0245            0    2146.1849    23.275172    21.777557    21.848036    11074.254    2711.6344    1671.7004      2055.22   -19.974202    1167.2367   -459.95878   -5411.8766 
 1423000    230.57596   -6369.7684   -5776.6257   -6369.7684            0    1975.9303    23.539361    21.350159    22.004087    11058.574    1056.7062    3549.6539     1321.431   -48.827153   -400.84532    174.58846   -5457.9517 
 1424000    224.97061   -6360.8963   -5782.1731   -6360.8963            0    1259.8191    23.388942    21.652691    21.971411    11127.059    2138.0357    493.69304    1147.7285   -1126.3497    280.94156    253.29723   -5577.7338 
 1425000    231.08711   -6357.6612   -5763.2037   -6357.6612            0     2016.923      23.5502    21.484954    21.885487    11073.508    2588.8441    1815.2061    1646.7187    475.21459   -331.02634   -99.016185   -5437.4792 
 1426000    216.75896   -6346.5528   -5788.9536   -6346.5528            0    3284.4424    23.365406    21.699441    21.788023    11046.882    2810.0518    2679.3278    4363.9476    276.72386    651.61755   -269.65359   -5259.8055 
 1427000    242.04268   -6350.2384   -5727.5984   -6350.2384            0    2014.2346    23.543958    21.442052     21.94868    11080.369    1747.7364    3049.6833    1245.2842    331.14475    -137.7727   -148.83533   -5402.1065 
 1428000    231.93162   -6343.9869   -5747.3569   -6343.9869            0    1885.6907    23.427719    21.724718    21.850575    11121.081    1240.4997    2107.4355     2309.137    61.553499   -81.903897    803.61762   -5441.5176 
 1429000    226.68522   -6349.8486   -5766.7147   -6349.8486            0    1365.6538    23.545476    21.450296    22.052425    11137.741    238.56704    2887.7285    970.66579    744.83172   -355.94151    517.01005   -5544.8881 
 1430000     227.3678   -6343.0348    -5758.145   -6343.0348            0    510.56492    23.340684    21.867765    21.910262    11183.186     1246.261    48.737785    236.69594    901.09825    -45.65499    -556.0908   -5674.8743 
 1431000    226.76187   -6360.0711     -5776.74   -6360.0711            0    2382.3077    23.677845    21.391974    21.790582    11037.275    795.47026    2426.5009    3924.9518   -481.56073    1209.8295    334.44892   -5393.2663 
 1432000    233.73531   -6347.8232   -5746.5534   -6347.8232            0    1935.3398    23.414917    21.554516    21.902739    11054.251    1718.1706    1565.9893    2521.8594   -927.12462    459.13547    190.85748   -5434.5477 
 1433000    232.51243   -6377.4574   -5779.3333   -6377.4574            0    1782.9571    23.390024    21.464014    22.122549    11106.489    2522.4569    3173.6893   -347.27467    -59.18764    83.380019   -1226.9971   -5490.5357 
 1434000    227.02301   -6364.8196   -5780.8167   -6364.8196            0    410.32811    23.428406    21.756406    21.924039    11175.075    918.19696    1159.2361   -846.44867   -362.97875   -330.79536   -624.87355   -5713.9427 
 1435000    241.11361   -6361.6097   -5741.3597   -6361.6097            0    431.87533    23.705906    21.557448    21.896003    11189.708   -985.82634    1411.1123       870.34    221.12145    68.750205    -493.3818   -5670.8818 
 1436000    236.54677   -6347.2789   -5738.7768   -6347.2789            0    668.67915     23.37673    21.767993    21.937291    11163.109    467.16251    236.53603    1302.3389    1208.9016   -834.85536    360.21427   -5629.9141 
 1437000    233.65551   -6399.0203   -5797.9558   -6399.0203            0    1651.3241    23.425103    21.489756    21.962281    11055.807    1582.0266    1480.1989    1891.7468   -417.60118    1276.2025    634.11038   -5531.7002 
 1438000    238.22439   -6346.4589   -5733.6411   -6346.4589            0    2409.0813    23.273388    21.670927    21.964347    11077.848     2432.814    2169.4719    2624.9579   -1073.1796    1733.1118   -1048.5224   -5344.4322 
 1439000    231.30876   -6399.3016   -5804.2739   -6399.3016            0    1427.5371    23.654365    21.498641    21.836496     11104.66    1292.7937    1272.3027    1717.5149   -825.53375    297.42748  -0.28641092   -5573.0842 
 1440000    236.96806   -6322.4553   -5712.8694   -6322.4553            0    1869.5542    23.406513    21.644232    21.953173    11121.829    1528.7611    1741.6871    2338.2143    1552.7474   -5.2487262    193.70998   -5409.6269 
 1441000    230.02749   -6335.1504   -5743.4187   -6335.1504            0    2521.7645    23.511264    21.461638    21.927717    11064.512    1771.0054    2775.6348    3018.6533   -179.69312    186.54578    309.68905   -5336.4953 
 1442000    231.26451   -6347.6137   -5752.6998   -6347.6137            0     1722.862    23.472437    21.682262    21.872137    11131.508    1332.8529     1793.796     2041.937    268.01331    431.77893   -1096.4801   -5473.0076 
 1443000    237.70189   -6389.6956    -5778.222   -6389.6956            0     1925.579    23.698599    21.562656    21.710716    11094.279    1611.2903    897.62369    3267.8229   0.95577474   -71.748203    253.95337   -5466.6659 
 1444000    239.42943   -6378.7208   -5762.8032   -6378.7208            0    1467.4694    23.288346    21.698861    21.970739    11102.486    1820.5643    1009.2816    1572.5624    404.10829    340.63506   -293.66017    -5525.193 
 1445000    235.56036   -6351.0042   -5745.0396   -6351.0042            0    1040.4151    23.582919    21.357134    22.100966    11131.451    1200.8212    2506.7039   -586.27988    297.74134    125.63793   -296.67964   -5576.1378 
 1446000    231.34795   -6372.5057   -5777.3772   -6372.5057            0    469.69716     23.42585    21.760612    21.807435    11116.576    90.792999   -632.40055     1950.699   -638.92892    222.44315     474.8099    -5701.228 
 1447000    240.50412    -6383.424   -5764.7418    -6383.424            0   -126.65309    23.715734    21.651541    21.758831    11172.772   -791.72402   -249.10679    660.87153   -1198.2096    2.3361569    409.04726    -5785.379 
 1448000    236.75037   -6358.5953   -5749.5694   -6358.5953            0    1984.9462    23.355134    21.607066    21.991261     11097.58    2666.8693    2950.3658    337.60335     -26.5378   -640.25581   -1385.6249   -5428.3122 
 1449000    238.39876   -6357.1183    -5743.852   -6357.1183            0    1786.1871      23.5563    21.444416     22.06325    11145.275    2315.6806     2343.823    699.05784     390.4385   -713.55462    415.04612   -5453.5209 
 1450000     232.7113   -6384.0388   -5785.4032   -6384.0388            0    1666.3266    23.457836    21.619942        21.78     11045.88    1077.3745    1602.5756    2319.0297    1691.4653    423.83975   -239.58152   -5516.9699 
 1451000    237.48092   -6362.8916   -5751.9864   -6362.8916            0    2834.8536    23.618783    21.393306    21.841842     11036.33    2109.0739    3682.2707    2713.2161   -1025.4691   -651.82502   -1154.4064   -5295.7066 
 1452000    226.55072   -6341.7778   -5758.9899   -6341.7778            0    2283.0964     23.36621    21.675708    21.900496    11092.144    2551.3812    1600.6996    2697.2085    671.79777   -1105.5339   -1433.6914    -5389.659 
 1453000    224.53806   -6389.0721   -5811.4616   -6389.0721            0    918.67564    23.560788    21.476243    21.965632    11114.549    1753.2121    475.92122    526.89359    205.96953    -1190.995    729.86551   -5662.5495 
 1454000    233.62791   -6380.4355    -5779.442   -6380.4355            0    1230.4709    23.416488    21.619526    21.941154    11107.783    1369.5597    1276.5496    1045.3035   -326.92646    72.479136    143.22402   -5580.1111 
 1455000     237.1183   -6392.2436   -5782.2712   -6392.2436            0    1615.0452    23.456727    21.490055    21.977668    11078.643    2169.7858    837.70846    1837.6414     368.4217   -684.40566   -434.86192   -5521.3273 
 1456000    222.49429   -6367.0546   -5794.7016   -6367.0546            0    1025.3383     23.58533    21.667257    21.762382    11121.217    248.59901     1491.396    1336.0198    705.14216    366.47522   -984.00767   -5628.4004 
 1457000    228.74916    -6382.412   -5793.9687    -6382.412            0    -48.39497    23.425598    21.732901    21.919968    11159.592    287.56804     149.8875   -582.64045     106.2939   -457.08418    247.69644    -5801.845 
 1458000    230.96476    -6356.971   -5762.8282    -6356.971            0    581.56275    23.431381    21.664487    21.980882     11158.13    733.16431    326.66474    684.85922   -732.42606    190.61068   -218.26332   -5668.1905 
 1459000    233.24902    -6352.443   -5752.4241    -6352.443            0    648.66054    23.535421    21.573602    22.027903    11184.531   -53.817964    2022.7645   -22.964929    172.64377    917.35083    439.13158   -5646.6179 
 1460000    235.28506   -6374.4497   -5769.1933   -6374.4497            0    795.46175     23.27866    21.709319    22.089796    11163.385    1965.3625    753.48277   -332.45999    911.99884    1521.6551   -1011.5247   -5639.6869 
 1461000      227.837   -6339.3725   -5753.2757   -6339.3725            0    1508.6629    23.485098    21.597797    21.959528    11138.452    2067.2176    619.26481    1839.5062    95.400591   -79.307458   -577.16925   -5508.2042 
 1462000    232.71936   -6386.7489   -5788.0925   -6386.7489            0     1312.374    23.586493    21.600118    21.751993    11082.011    1310.3109    1256.6573    1370.1537   -629.71455   -125.33417   -580.25192   -5575.9869 
 1463000    226.38666   -6355.6486   -5773.2828   -6355.6486            0    1879.0298    23.499744    21.585392    21.846082    11081.451    1356.6894    2150.7602    2129.6399   -360.86937    -74.77345    -246.1426   -5469.6098 
 1464000    233.83252   -6360.1642   -5758.6443   -6360.1642            0    2789.4785    23.442896    21.558794    21.765739    11000.417    2170.6503    3291.2025    2906.5827   -151.68227   -325.29208    1294.2773   -5311.1288 
 1465000          228   -6387.6918   -5801.1757   -6387.6918            0    1558.0861    23.502258    21.451089    21.988203    11085.331    1773.2071    2779.8418    121.20943    160.52011    902.55052    72.199122   -5549.2828 
 1466000    231.10165   -6373.8778   -5779.3829   -6373.8778            0     680.3081    23.394256    21.652766    21.972828    11130.344    1032.0516    353.14312    655.72952    120.58143    399.84864   -713.34562   -5668.9521 
 1467000    229.56573   -6369.8845   -5779.3406   -6369.8845            0    1390.6427    23.623592    21.583504    21.821524    11126.357    802.01415    1265.7923    2104.1215     422.8949    543.42905   -427.81574   -5553.6859 
 1468000    232.67157   -6344.0092   -5745.4757   -6344.0092            0    2756.0624    23.360394    21.606865    21.934513    11071.333    3699.0009    1698.3771    2870.8093   -1123.9458   -1773.0624    351.85776   -5300.4708 
 1469000    235.56691   -6377.1089   -5771.1274   -6377.1089            0    1546.0791    23.487406    21.466456    22.006901     11095.69    2037.7571    1470.5761    1129.9042   -193.82915   -705.34918    1038.9032    -5520.942 
 1470000    219.60079    -6372.543   -5807.6333    -6372.543            0    1025.8363    23.539057    21.604059    21.843004    11108.023    537.46183    1575.2396    964.80763    753.65396    626.58002    467.76063   -5641.4487 
 1471000    231.73688   -6369.7169   -5773.5879   -6369.7169            0    574.56537     23.49931    21.699838    21.756368    11094.252     876.2863    184.56613    662.84367    454.68398    -162.2169   -290.31916   -5680.6242 
 1472000    233.33641   -6385.6915   -5785.4478   -6385.6915            0    1068.7223    23.389176    21.516402     22.11625    11130.022     1709.308    1434.2993    62.559532    535.93184   -115.47401   -556.04604   -5611.9728 
 1473000    227.49764    -6378.244   -5793.0202    -6378.244            0    632.20719    23.507405    21.631854    21.908691    11140.761    1471.9156    128.81798    295.88803   -369.71022   -344.51532   -981.17132   -5690.3013 
 1474000    235.70077   -6339.4252   -5733.0993   -6339.4252            0      2340.71    23.495595    21.592555    21.780501      11049.9    2295.3535    2720.4672    2006.3093    62.227667    597.90997   -543.92671   -5355.8905 
 1475000    228.87899   -6369.0832   -5780.3059   -6369.0832            0    1521.3026    23.561439    21.449166    21.969148    11102.619    483.96287    2729.9901     1349.955   -737.42179    818.99922    90.398264   -5533.9761 
 1476000    226.93147   -6355.5913   -5771.8239   -6355.5913            0    1587.2774    23.323956    21.618503    22.080868    11133.814    2967.2079    1518.4672     276.1573    -497.4343   -51.938902   -631.71646   -5514.0893 
 1477000    248.51083   -6361.8059   -5722.5269   -6361.8059            0     1380.433     23.59071    21.426989    22.039871    11140.667    1009.4866    1803.9542    1327.8582    222.47729   -819.07474   -153.64281   -5498.2408 
 1478000     239.2367   -6338.8129    -5723.391   -6338.8129            0    2385.4837    23.365307      21.8208    21.696624    11062.017    774.67094    2440.0199    3941.7602    234.84592    -177.9487   -166.11019   -5338.5453 
 1479000    241.38173   -6368.6333   -5747.6935   -6368.6333            0    1419.0869    23.779587    21.508982     21.74057    11119.752   -219.81708    2460.8174    2016.2605   -860.27449    195.03223    -358.8517   -5517.5599 
 1480000    234.02271   -6337.8299   -5735.8208   -6337.8299            0    823.97381    23.358034    21.755185    21.978534    11168.576    1307.9162    278.62267    885.38256    88.837375    -505.2674    350.93427   -5601.6101 
 1481000    243.04253   -6358.6184   -5733.4063   -6358.6184            0    2017.1975    23.508997    21.311177    22.110932    11077.674    1816.7107    4495.2973   -260.41565   -135.93396    245.30892   -98.618308   -5407.5149 
 1482000    227.48097    -6332.896   -5747.7151    -6332.896            0    2939.2043    23.347008    21.820555    21.677477    11043.475    2160.3751    2844.4808    3812.7571    94.325439    53.556154    724.37111   -5274.3334 
 1483000    236.05626   -6390.2342   -5782.9939   -6390.2342            0    1665.3683    23.607822    21.376182    21.906971    11055.246    1756.8579    2737.1821     502.0649    247.69087    502.08519   -1746.4248   -5514.4875 
 1484000    227.07003   -6338.9616   -5754.8378   -6338.9616            0    1940.2599    23.259328     21.68036    22.021709      11104.9    3346.3316    2369.1008    105.34727    669.15616   -602.55158   -1461.7468   -5440.6058 
 1485000    226.57855   -6353.8349   -5770.9754   -6353.8349            0    2127.8261    23.534643    21.474084    21.957663    11097.071    1380.6405    2648.0941    2354.7436   -352.11906   -839.64146   -193.80562   -5426.6093 
 1486000    219.67541   -6335.1111   -5770.0095   -6335.1111            0    1533.1245    23.430175    21.708274    21.875415    11126.463    1654.4439    680.85205    2264.0776   -903.92675   -431.24475    1361.6213   -5521.2323 
 1487000    230.21659   -6377.7769   -5785.5587   -6377.7769            0    461.28849    23.732401    21.426104    22.000363    11187.028   -981.29245    1781.1138     584.0441    1096.0773   -444.21182     508.9933   -5710.2989 
 1488000    237.32992   -6350.9479   -5740.4312   -6350.9479            0    1187.9246    23.333705    21.751174    21.943983     11137.35     2286.063     757.4841     520.2266    1959.2182   -953.60747   -307.83772   -5547.4804 
 1489000    228.92208      -6357.6   -5768.7119      -6357.6            0    1397.5601    23.728017    21.383653     21.86764    11095.459    686.38463    2674.4175    831.87802   -25.254267    537.89993   -1259.3564   -5542.5645 
 1490000    233.75968   -6352.6413   -5751.3088   -6352.6413            0    2290.5013    23.276776     21.67325    21.941409    11069.076    3124.8139    1603.5229    2143.1671    323.81228   -198.89242    447.01866   -5381.5506 
 1491000    231.27459   -6370.3947   -5775.4549   -6370.3947            0    1183.6995    23.424581    21.520772    22.043773    11112.598      1135.29    1593.9073    821.90135   -292.79813   -289.84554   -101.11088   -5583.6176 
 1492000    233.95406   -6382.9112   -5781.0786   -6382.9112            0    904.27528    23.433228    21.620647    21.905351    11098.161     265.7083    1746.8812     700.2363   -43.303345   -287.16076    70.743694   -5634.7169 
 1493000    234.93207   -6353.7196   -5749.3712   -6353.7196            0    965.04913    23.638285    21.578349    21.834561    11137.267     332.8521    219.32256    2342.9727   -69.679532    975.65675    139.09338   -5592.6225 
 1494000    229.35144   -6362.5434   -5772.5508   -6362.5434            0    55.516585    23.463316    21.728218    22.004926    11218.464    545.37731   -541.11016     162.2826   -229.43265    1222.7296   -680.78434   -5763.4678 
 1495000    247.29974   -6358.3396   -5722.1761   -6358.3396            0    1299.0949    23.497605    21.535665    21.970452    11117.851    856.03005    1764.2471    1277.0076   -184.72719     884.5244   -363.71253   -5511.5377 
 1496000    234.30652    -6386.616   -5783.8768    -6386.616            0     144.7865    23.458764    21.654789     21.94084    11145.828     145.3463     352.1793   -63.166113    2.8840755    34.466501     338.9606   -5760.3417 
 1497000    232.20041   -6361.4148   -5764.0934   -6361.4148            0    46.923841    23.483821    21.549616    22.023475    11145.361    57.716151    -615.5738    698.62917    677.77667    397.95104    501.60261   -5756.4662 
 1498000    233.07804   -6356.4609   -5756.8819   -6356.4609            0    1635.5164    23.611176    21.605056    21.839912    11140.992     661.1525    893.94591    3351.4506   -554.25969   -621.47373    90.158704   -5491.1433 
 1499000    229.30925   -6371.6312   -5781.7471   -6371.6312            0    833.60832    23.428405    21.776379     21.87487    11160.249    1874.2709   -688.41558    1314.9696   -737.89693    -21.56387   -312.48096   -5646.0684 
 1500000    238.64891    -6330.304   -5716.3942    -6330.304            0    330.70627    23.494417     21.51285    22.162533     11201.65    515.82906    439.33377     36.95599    855.11909   -798.46544   -47.238838   -5662.3685 
Loop time of 643.724 on 64 procs for 250000 steps with 1296 atoms

Performance: 67.110 ns/day, 0.358 hours/ns, 388.365 timesteps/s
99.2% CPU use with 64 MPI tasks x 1 OpenMP threads

MPI task timing breakdown:
Section |  min time  |  avg time  |  max time  |%varavg| %total
---------------------------------------------------------------
Pair    | 28.946     | 38.373     | 47.768     |  97.0 |  5.96
Bond    | 0.27322    | 0.28128    | 0.30751    |   1.0 |  0.04
Kspace  | 335.31     | 350.58     | 370.87     |  42.6 | 54.46
Neigh   | 4.1433     | 4.81       | 5.9063     |  16.9 |  0.75
Comm    | 95.367     | 112.36     | 123.51     |  53.1 | 17.45
Output  | 1.0356     | 1.038      | 1.0452     |   0.1 |  0.16
Modify  | 124.15     | 127.49     | 130.59     |  14.9 | 19.80
Other   |            | 8.798      |            |       |  1.37

Nlocal:        20.2500 ave          29 max          13 min
Histogram: 2 8 4 14 5 13 10 7 0 1
Nghost:        2510.20 ave        2543 max        2478 min
Histogram: 3 1 5 7 18 9 13 5 2 1
Neighs:        6228.33 ave        8948 max        3999 min
Histogram: 2 8 6 12 9 9 10 7 0 1

Total # of neighbors = 398613
Ave neighs/atom = 307.57176
Ave special neighs/atom = 2.0000000
Neighbor list builds = 8287
Dangerous builds = 0

unfix		3
unfix		2
unfix		1

write_data	data.final.${pid}
write_data	data.final.0
System init for write_data ...
PPPM initialization ...
  extracting TIP4P info from pair style
  using 12-bit tables for long-range coulomb (../kspace.cpp:340)
  G vector (1/distance) = 0.36588831
  grid = 30 40 32
  stencil order = 5
  estimated absolute RMS force accuracy = 0.004800774
  estimated relative force accuracy = 1.4457388e-05
  using double precision FFTW3
  3d grid and FFT values/proc = 5168 640
Last active /omp style is kspace_style pppm/tip4p/omp
WARNING: Not all mixed pair coeffs generated from mixing. Use write_data with 'pair ij' option to store all pair coeffs. (../write_data.cpp:312)

write_restart   restart.lmp.${pid}
write_restart   restart.lmp.0
System init for write_restart ...
PPPM initialization ...
  extracting TIP4P info from pair style
  using 12-bit tables for long-range coulomb (../kspace.cpp:340)
  G vector (1/distance) = 0.36588831
  grid = 30 40 32
  stencil order = 5
  estimated absolute RMS force accuracy = 0.004800774
  estimated relative force accuracy = 1.4457388e-05
  using double precision FFTW3
  3d grid and FFT values/proc = 5168 640
Last active /omp style is kspace_style pppm/tip4p/omp
Total wall time: 0:10:45
