LAMMPS (30 Jul 2021)
Processor partition = 0
  using 2 OpenMP thread(s) per MPI task
using multi-threaded neighbor list subroutines
variable        pid world 0 1
variable        phase world IceVI Liquid

shell cd ${phase}
shell cd IceVI
include Restart.lmp
echo both
log log.lammps
#include		in.partitions
include		in.temp
variable        temperature equal 255.00
variable	tempDamp equal 100.0
include		in.pressure
variable        pressure equal 7375.0
variable        pressureDamp equal 1000.0 # This is 1 ps
include		in.seed
variable        seed equal 745823

units		real
atom_style	full
read_restart	restart.lmp.${pid}
read_restart	restart.lmp.0
Reading restart file ...
  restart file = 30 Jul 2021, LAMMPS = 30 Jul 2021
  restoring atom style full from restart
  orthogonal box = (-0.12153798 -0.13264057 -0.10122138) to (24.851539 24.862642 22.911221)
  4 by 4 by 2 MPI processor grid
  restoring pair style lj/cut/tip4p/long/omp from restart
  restoring bond style harmonic/omp from restart
  restoring angle style harmonic/omp from restart
  1920 atoms
  1280 bonds
  640 angles
Finding 1-2 1-3 1-4 neighbors ...
  special bond factors lj:    0        0        0       
  special bond factors coul:  0        0        0       
     2 = max # of 1-2 neighbors
     1 = max # of 1-3 neighbors
     1 = max # of 1-4 neighbors
     2 = max # of special neighbors
  special bonds CPU = 0.002 seconds
  read_restart CPU = 0.008 seconds
include 	in.setup
variable	out_freq equal 1000
variable	out_freq2 equal 10000
variable	out_freq3 equal 1000

timestep	2.0

neigh_modify    delay 7 every 1

include		in.tip4p
# This is TIP4P/Ice

# create groups ###
group ox type 2
640 atoms in group ox
group hy type 1
1280 atoms in group hy

# set charges - beside manually ###
set group ox charge -1.1794
Setting atom values ...
  640 settings made for charge
set group hy charge 0.5897
Setting atom values ...
  1280 settings made for charge

# ### TIP3P Potential Parameters ###
pair_style lj/cut/tip4p/long/omp 2 1 1 1 0.1577 8.5
pair_coeff 1 1*2 0.000 0.000
pair_coeff 2 2 0.21084 3.1668
bond_style  harmonic
bond_coeff  1 450 0.9572
angle_style harmonic
angle_coeff 1 55 104.52
kspace_style pppm/tip4p/omp 1.0e-5
pair_modify tail yes

thermo          ${out_freq}
thermo          1000
thermo_style    custom step temp pe etotal epair emol press lx ly lz vol pxx pyy pzz pxy pxz pyz enthalpy

restart 	${out_freq3} restart.lmp.${pid} restart2.lmp.${pid}
restart 	1000 restart.lmp.${pid} restart2.lmp.${pid}
restart 	1000 restart.lmp.0 restart2.lmp.${pid}
restart 	1000 restart.lmp.0 restart2.lmp.0


include         in.dump
dump            myDump all atom ${out_freq2} dump.water.${pid}
dump            myDump all atom 10000 dump.water.${pid}
dump            myDump all atom 10000 dump.water.0
dump            myDump2 all dcd ${out_freq2} dump.dcd
dump            myDump2 all dcd 10000 dump.dcd
dump_modify     myDump append yes
dump_modify     myDump2 append yes


variable natoms 	equal  "count(all)"                        # NUMBER ATOMS
variable H      	equal  "enthalpy/v_natoms"                 # ENTHALPY-per-atom
variable Vol      	equal  "vol/v_natoms"                 # volume-per-atom
fix AVG all 		ave/time ${out_freq} 1 ${out_freq} v_Vol v_H file vol_enthalpy.dat
fix AVG all 		ave/time 1000 1 ${out_freq} v_Vol v_H file vol_enthalpy.dat
fix AVG all 		ave/time 1000 1 1000 v_Vol v_H file vol_enthalpy.dat




fix 		1 all shake 1e-6 200 0 b 1 a 1
Finding SHAKE clusters ...
       0 = # of size 2 clusters
       0 = # of size 3 clusters
       0 = # of size 4 clusters
     640 = # of frozen angles
  find clusters CPU = 0.001 seconds
fix             2 all nph aniso ${pressure} ${pressure} ${pressureDamp}
fix             2 all nph aniso 7375 ${pressure} ${pressureDamp}
fix             2 all nph aniso 7375 7375 ${pressureDamp}
fix             2 all nph aniso 7375 7375 1000
fix             3 all temp/csvr ${temperature} ${temperature} ${tempDamp} ${seed}
fix             3 all temp/csvr 255 ${temperature} ${tempDamp} ${seed}
fix             3 all temp/csvr 255 255 ${tempDamp} ${seed}
fix             3 all temp/csvr 255 255 100 ${seed}
fix             3 all temp/csvr 255 255 100 745823


run             250000
PPPM initialization ...
  extracting TIP4P info from pair style
  using 12-bit tables for long-range coulomb (../kspace.cpp:340)
  G vector (1/distance) = 0.37430253
  grid = 30 30 30
  stencil order = 5
  estimated absolute RMS force accuracy = 0.0032895692
  estimated relative force accuracy = 9.9064399e-06
  using double precision FFTW3
  3d grid and FFT values/proc = 5400 960
Last active /omp style is kspace_style pppm/tip4p/omp
Neighbor list info ...
  update every 1 steps, delay 7 steps, check yes
  max neighbors/atom: 2000, page size: 100000
  master list distance cutoff = 10.8154
  ghost atom cutoff = 10.8154
  binsize = 5.4077, bins = 5 5 5
  1 neighbor lists, perpetual/occasional/extra = 1 0 0
  (1) pair lj/cut/tip4p/long/omp, perpetual
      attributes: half, newton on, omp
      pair build: half/bin/newton/omp
      stencil: half/bin/3d
      bin: standard
Setting up Verlet run ...
  Unit style    : real
  Current step  : 10750000
  Time step     : 2
Per MPI rank memory allocation (min/avg/max) = 10.54 | 10.54 | 10.55 Mbytes
Step Temp PotEng TotEng E_pair E_mol Press Lx Ly Lz Volume Pxx Pyy Pzz Pxy Pxz Pyz Enthalpy 
10750000    259.82779   -9109.4382   -8118.8562   -9109.4382            0    7730.4869    24.973077    24.995282    23.012443    14364.576    8294.5433    7124.4815     7772.436   -150.11063   -120.97374   -338.39954   -6499.3763 
10751000    257.31076   -9142.1903   -8161.2043   -9142.1903            0     6617.651     24.97888    25.064573    23.032446    14420.269    7358.8948    4990.4793     7503.579    666.53621    522.47918   -169.80862   -6769.4804 
10752000    252.36298   -9113.8532   -8151.7304   -9113.8532            0    7042.5752    24.912298    24.961416    23.169583    14407.918     8013.053    7713.1316     5401.541   -144.75793    521.78866    154.04547   -6671.9113 
10753000    261.43302   -9138.8374   -8142.1354   -9138.8374            0    8491.9808     25.04027    24.807329    23.088131    14341.937    7727.1457    10226.544    7522.2529    214.12263   -504.69943     675.2538   -6365.9321 
10754000    255.70051   -9166.4083   -8191.5613   -9166.4083            0    6914.3023    24.985666    25.043492    22.990944    14386.085    6952.3477     6017.116    7773.4431    789.34662   -127.44687    267.20991   -6740.8972 
10755000    248.65861    -9078.855    -8130.855    -9078.855            0    6036.3071    25.049565    24.980611    23.156539    14490.284    4869.6739    7757.2193    5482.0282    970.42135    -795.6923    1511.7041   -6855.2268 
10756000    253.66469   -9076.1766   -8109.0911   -9076.1766            0    7218.9353    24.974112     24.99185    23.147312    14447.378    7078.2573    7595.1847     6983.364    147.52064    458.98461    381.56095   -6588.0601 
10757000    258.17989   -9157.0474   -8172.7479   -9157.0474            0    7366.6544    24.969274    25.024891    22.984357    14361.853    8470.4347    6486.2892    7143.2394     399.7204   -490.34186    725.22347   -6629.7808 
10758000    246.82397   -9113.8045    -8172.799   -9113.8045            0    7714.4615    25.033505    25.030496    22.942215    14375.616    8226.0184    6349.6121    8567.7539    396.83795    71.597086    -353.2662   -6555.4343 
10759000    255.00728   -9085.6243   -8113.4202   -9085.6243            0    6866.8934    25.015399    24.973885    23.116413    14441.556    7259.0119    6791.5938    6550.0745    242.96226   -291.37494    1376.5689   -6667.1475 
10760000    251.75829   -9093.3866   -8133.5691   -9093.3866            0    7539.5648    24.978748    24.962854     23.08778    14396.174    7376.9549    8625.2855    6616.4541    238.70847   -46.037228     684.1039   -6550.6117 
10761000    250.74506   -9117.7216    -8161.767   -9117.7216            0    7432.3001    25.126002      25.0001    22.942031    14411.096    6669.1385    7394.5104    8233.2513    227.35666   -285.47371     315.2712   -6599.7127 
10762000    260.81282   -9101.3887   -8107.0513   -9101.3887            0    7306.8161    25.037519     25.00576    23.046133    14428.773    6025.8172    8304.2278    7590.4032    57.134918    137.94417    507.63271   -6569.4863 
10763000    254.72091   -9099.3867   -8128.2744   -9099.3867            0    7301.0781    24.960611    24.939379    23.166827      14421.4    8618.7876    6294.7999    6989.6467   -811.36451   -470.66049   -39.439903   -6592.7021 
10764000    250.43256   -9156.6949   -8201.9317   -9156.6949            0    7568.3799    25.086632    24.943198    22.924768    14344.963    6472.5699    8913.7017    7318.8682   -322.69283   -765.18359    666.72007   -6618.5769 
10765000    258.50188   -9138.4999   -8152.9728   -9138.4999            0     6642.521    25.185587    24.952521    22.944315    14419.214    5808.0948    7032.8024    7086.6659    970.44309    30.217127     1039.398   -6756.1207 
10766000     255.9098   -9106.8217   -8131.1768   -9106.8217            0     7095.672    25.004163    24.929553    23.136791    14422.148      7201.02    8043.9828    6042.0133    497.50749    232.13127    912.58292   -6638.7282 
10767000    250.73417   -9096.0057   -8140.0927   -9096.0057            0    7533.5662    25.080427    24.909816    23.061993    14407.953    7660.9712    8093.7216    6846.0058     709.6314   -882.91586   -1012.8314   -6557.1005 
10768000    249.23869   -9140.7218   -8190.5103   -9140.7218            0    7141.7444    25.053468     24.99945    23.006508    14409.504    6577.1838    6890.6808    7957.3686   -433.79039    462.17107    248.67068   -6689.6882 
10769000     254.3854   -9120.4226   -8150.5894   -9120.4226            0    7767.0585    25.120877    24.790306    23.077845    14371.825    7356.0268    8950.9894    6994.1592    534.59362   -116.71717   -995.12226    -6522.627 
10770000    250.68733   -9133.8507   -8178.1162   -9133.8507            0    6802.0727     25.10102    24.907967     23.04495    14408.057    6273.8814    8015.8203    6116.5163    346.00261   -91.281489    103.62189   -6748.8189 
10771000    254.41246   -9140.9023    -8170.966   -9140.9023            0    7010.7973    25.074512    24.873647    23.074298    14391.314    6680.7034    7527.8292    6823.8591   -61.918138   -1500.1335    842.80876    -6699.522 
10772000    258.74719   -9109.5033    -8123.041   -9109.5033            0    7557.2893    25.014177    24.842494     23.16226    14393.365    7609.0879    8895.0526    6167.7273    395.93022   -350.75571    210.37568   -6536.6718 
10773000    249.24004   -9147.5159   -8197.2992   -9147.5159            0    7298.4228    25.075358    25.006226    22.900355     14359.44    5800.0465    7760.5262    8334.6956   -213.61827     264.7784    185.78017   -6668.8802 
10774000    266.74047   -9101.3869   -8084.4506   -9101.3869            0    6091.9058    25.057588    25.011687     23.07764    14463.508    5827.5418    6229.7355    6218.4401    44.771439   -427.58065    904.38551   -6799.4518 
10775000    255.56218   -9112.5839   -8138.2643   -9112.5839            0     6535.831    25.001408    24.946256    23.140446      14432.5    6888.4333    7852.2481    4866.8117   -366.14095   -667.67493   -10.045575   -6762.5816 
10776000    260.84423   -9116.5438   -8122.0867   -9116.5438            0    6284.1894    25.066718    25.002416    23.054926    14449.179    6038.9612    6844.3862    5969.2207    425.07125   -75.177271   -1236.3111   -6797.8417 
10777000    252.33035   -9101.9874   -8139.9891   -9101.9874            0    6735.7013    25.019857    25.028483     23.09922    14464.941    6777.0282    5964.2055    7465.8702     479.6983   -1030.8047    623.24131   -6719.0503 
10778000    248.65849   -9115.4243   -8167.4248   -9115.4243            0    6545.4372    24.865767    25.139968     23.10062    14440.766    7706.9371    5989.0438    5940.3307    852.40055    380.82883   -270.63917   -6788.9311 
10779000    248.26593   -9124.2875   -8177.7846   -9124.2875            0    6633.7326    24.926684    25.167157    23.030092    14447.555    6990.1498    6286.8408    6624.2073   -598.67478    525.15254     836.5371   -6780.0388 
10780000    257.94134   -9103.1099   -8119.7199   -9103.1099            0    5857.8337    25.063741    25.147326    23.010095    14502.942     6075.619    4371.0858    7126.7963     690.8678   -730.20211   -42.988666   -6880.7263 
10781000    269.22251   -9138.0854   -8111.6864   -9138.0854            0    5353.6875    25.012089    25.057067     23.12697    14494.356     6079.199     5557.026    4424.8376    37.043461    898.24836   -13.646211   -6979.9954 
10782000    252.41703   -9090.5537   -8128.2249   -9090.5537            0    6526.2314    24.865926    25.109497    23.162581    14462.042    7066.8135    5836.2104    6675.6703   -477.90271    15.702535    795.75536    -6751.751 
10783000    258.22341   -9127.2197   -8142.7543   -9127.2197            0    5991.9456    24.984382    25.124923    23.037289    14461.213    6056.7086    6227.0443    5692.0838    724.00785   -82.205516   -242.68063   -6879.0413 
10784000    249.63391   -9154.6286   -8202.9103   -9154.6286            0    6885.2559    25.079402    25.017639    22.970661    14412.423    6612.2459    6483.5295    7559.9924    105.54337   -128.69161    691.97179   -6755.6956 
10785000    248.10247   -9166.8901   -8221.0103   -9166.8901            0    6578.8746    25.006314    24.992873    23.064925    14415.108    6919.5357    7045.8702    5771.2177   -241.00226   -315.04572     230.6172   -6837.9364 
10786000    253.22551   -9132.5787   -8167.1675   -9132.5787            0      6926.46    24.922754    24.972249    23.222026     14452.86    7289.5244     7659.241    5830.6144   -76.263956    814.62163    188.16206   -6707.2074 
10787000    254.39805   -9131.4422   -8161.5608   -9131.4422            0    7644.5545    24.991881    24.979225    23.019091    14370.308    7894.6531     7385.398    7653.6123    1129.0153    880.61714     396.2489   -6559.4441 
10788000    257.86912   -9120.4616   -8137.3469   -9120.4616            0    7431.9998    25.066263    25.041838    22.898326      14373.4     6972.868    7732.7903     7590.341    715.03874   -606.47386    165.63896   -6579.4415 
10789000    246.02793   -9120.8161   -8182.8454   -9120.8161            0    7526.4952    24.960896    25.054605    23.029594    14402.372    7404.9727    7746.7042    7427.8087    330.69343   -261.19128   -55.462928   -6601.9516 
10790000    251.90365   -9131.6839   -8171.3123   -9131.6839            0    7897.1354    24.815971    25.070324    23.091517    14366.259      8900.93    7559.5034    7230.9729    204.27883   -453.04849    218.87999    -6516.727 
10791000    246.89633   -9152.2781   -8210.9967   -9152.2781            0    8395.2687    24.912142    24.966479    23.074593    14351.669    8808.4442    9065.4073    7311.9546   -445.02086    594.93441    675.17735   -6453.8302 
10792000    262.43155   -9161.4055   -8160.8967   -9161.4055            0    8014.2654    24.907001    25.030199    22.987674    14331.141    8052.5346    7863.9898    8126.2719    110.62692    1083.5155   -27.683489   -6485.8752 
10793000    264.34533   -9142.9699    -8135.165   -9142.9699            0    7888.5058    24.942764     24.98342    23.070441    14376.474    7888.5058    7940.5387     7836.473   -696.06647    -317.1056    904.85375   -6481.2126 
10794000    257.63015   -9138.8385   -8156.6349   -9138.8385            0    8526.4545    25.019606    24.952159    22.925305    14312.112    7955.7441    8141.6298    9481.9897    610.37852   -1399.6437    -94.73104   -6376.9296 
10795000    244.91738   -9147.2805   -8213.5437   -9147.2805            0    8619.8975    25.135963    24.822882    22.912162    14295.976    8092.2512    9358.2153    8409.2259    81.206044    243.82232   -44.222968   -6416.3629 
10796000    263.70668   -9113.4281   -8108.0579   -9113.4281            0    7153.6294    25.064749    24.970027    23.034063    14416.271    7243.7758     6643.103    7574.0093    92.292694    272.29968   -263.84501   -6604.0323 
10797000    259.45384   -9165.6222   -8176.4659   -9165.6222            0    7444.0496    25.091558    24.949947    22.934029     14357.46    7036.4368    7265.3861    8030.3258   -49.753055    116.81579    1196.7833   -6617.7651 
10798000    252.54365   -9138.3058   -8175.4943   -9138.3058            0    5981.0606    25.122641    24.965319    23.053021    14458.733     4805.408    6893.6833    6244.0903   -338.40514   -509.43256    400.75013   -6914.2932 
10799000    261.91667   -9132.4944   -8133.9486   -9132.4944            0    5902.5752    25.077571    24.960274    23.092196    14454.399    5354.7991    6999.8829    5353.0436    -380.2922    163.51433    163.24543   -6889.6705 
10800000    262.32546   -9126.7545   -8126.6502   -9126.7545            0    7808.0789    25.097149    24.897791    23.032977    14392.468    6855.6728    8138.3433    8430.2207    78.377369   -1785.2862   -691.82283   -6487.7393 
10801000    252.66888   -9107.8921   -8144.6031   -9107.8921            0    6535.5979    25.233079    24.888518    22.991455    14438.954    4709.9078    7684.3753    7212.5106   -218.09454    204.02727   -345.10589   -6768.3543 
10802000    250.33102   -9120.7189   -8166.3428   -9120.7189            0    6919.8756    25.059828    24.907285    23.059158    14392.887    6497.2357    8261.5846    6000.8065   -136.06168    989.04074     143.0642   -6713.8229 
10803000    254.39339    -9126.815   -8156.9514    -9126.815            0     7731.025    25.035047    24.789266    23.147645    14365.439    7505.2349    8144.5075    7543.3327    -195.3413   -12.536945    98.622129   -6537.2616 
10804000    250.77037   -9099.0915   -8143.0405   -9099.0915            0    6105.7792    25.118361    25.038771    22.999448    14465.109    4843.3429    6738.8563    6735.1383    433.96655    394.08325   -1569.2741   -6854.9728 
10805000    254.51605   -9094.0715   -8123.7403   -9094.0715            0    8092.7831    24.987067    25.014306     22.96843    14356.053    8209.3787    6872.1128    9196.8579    52.868983    306.77895    893.25014    -6429.368 
10806000    257.55166   -9100.2166   -8118.3122   -9100.2166            0    7532.8173    24.957385    25.051313     23.02411    14395.026    7628.5352    6667.0183    8302.8984    815.68491   -172.81625    855.33844   -6536.8976 
10807000    261.10982   -9142.3158   -8146.8461   -9142.3158            0    7376.6975     24.96819    25.009124    23.014636    14371.088    6959.0645    7700.4732    7470.5549   -557.21005   -707.72856    555.53322   -6600.7819 
10808000    253.90268   -9133.5921   -8165.5993   -9133.5921            0    7683.8477    24.974526    25.103329    22.953035    14390.262    8222.3915    7208.7401    7620.4115   -922.62409    134.33332    -1199.433   -6553.0116 
10809000    266.12746   -9166.7798   -8152.1806   -9166.7798            0    7763.2609    24.896462    24.986163    23.080624    14357.696    7141.3006     8557.363    7591.1191    -387.8692   -208.29442    457.78226   -6526.6138 
10810000    246.24838   -9144.4199   -8205.6088   -9144.4199            0    8305.0611    24.936029     24.94994    23.053946    14343.069    7552.1088    8852.2021    8510.8724   -269.95946   -2012.2141   -71.677777   -6468.3648 
10811000    256.44648   -9147.5825   -8169.8915   -9147.5825            0    7355.3249    25.042301    24.897045    23.035679    14362.269    6766.7841    7727.4014    7571.7893    -477.0643   -237.63772    109.33652   -6629.2529 
10812000    260.14338   -9131.6876   -8139.9024   -9131.6876            0    7592.5847    24.930572    24.838061    23.204403    14368.794     7327.695     9538.455    5911.6042   -618.52722    70.004602    818.58041   -6548.8449 
10813000    258.92854   -9077.6849   -8090.5312   -9077.6849            0    8664.8885    24.991862    24.978632    23.018349    14369.493    8455.5008    9573.2789    7965.8859   -181.36736   -302.17877    177.74278   -6274.6798 
10814000    261.61187    -9139.196   -8141.8123    -9139.196            0    8409.7476    24.924548    25.036506    22.977691    14338.621    9473.7536    7150.3508    8605.1384   -312.13185    616.33794   -243.28233   -6383.2156 
10815000    255.90308   -9173.1401   -8197.5209   -9173.1401            0    7654.6464     24.79758    25.254888    22.924882    14356.939     7806.741    6355.3453    8801.8527   -458.17214    1061.2789   -92.040596   -6594.7816 
10816000    263.33467   -9081.2611   -8077.3092   -9081.2611            0    8166.0338    24.890405    25.055312    23.099531    14405.719    7168.5308    9530.0079    7799.5626   -96.010786   -1971.3105    220.42245   -6361.6857 
10817000    252.55764   -9151.5433   -8188.6785   -9151.5433            0    8139.1652    24.870743      25.0738    22.952754    14313.431     9175.959    6951.3822    8290.1545   -865.50141    334.35875    -533.8272   -6489.6545 
10818000    252.12749   -9143.6716   -8182.4466   -9143.6716            0    7729.0224    24.943221    25.032616    22.946339    14327.558    7652.4133    7738.7395    7795.9143   -70.154312   -87.087167   -774.52989   -6567.4462 
10819000    258.50718   -9179.8095   -8194.2622   -9179.8095            0    7798.8347    24.920284    25.103906    22.892439    14321.429    7500.9686    7860.1165    8035.4188    775.39051   -882.62948    766.63186   -6565.3715 
10820000    249.24605   -9129.8567   -8179.6171   -9129.8567            0    7389.1702    24.941037    25.010458    23.012211    14354.712    7425.5507    8050.3541     6691.606     63.94792   -538.65485   -716.06206   -6632.7035 
10821000    257.42858   -9130.7628   -8149.3277   -9130.7628            0    7427.5181    24.845971    24.994477    23.188268    14400.194     8449.255    7177.8308    6655.4684    36.092761   -37.067957    959.10817   -6589.4594 
10822000    256.14919   -9092.9592   -8116.4016   -9092.9592            0    7906.4763    24.934133    25.035071    23.015541    14366.941    9780.6076    6922.0399    7016.7815    227.90254    1643.4376    1383.1038   -6459.7806 
10823000    251.69884   -9194.4431   -8234.8523   -9194.4431            0    6673.8221    24.966556    25.075873    22.955414    14371.424    6999.3822    5707.9698    7314.1143   -361.12408    334.08258   -788.84934   -6836.0694 
10824000    251.94667   -9086.1215   -8125.5859   -9086.1215            0    8233.6596    24.937826    24.993349    23.022954    14349.742    8154.9024    7719.4707    8826.6056    561.62081   -236.08915    287.24296   -6402.4764 
10825000    264.33371   -9114.6113   -8106.8507   -9114.6113            0     8230.449    24.840303    24.989078    23.128769    14356.866     8454.562     8123.624     8113.161   -434.16344   -374.20533   -46.635215    -6383.558 
10826000    257.29172   -9132.0862   -8151.1728   -9132.0862            0    8670.9302    24.939947    24.988531    22.978295    14320.364     8961.265    7905.4228    9146.1029   -214.75748    20.010604  -0.49544742   -6340.2678 
10827000    246.15037   -9129.9388   -8191.5013   -9129.9388            0    8214.7908    25.023202    25.020835    22.918133    14349.075    7636.3641    8515.1659    8492.8425    357.00456   -464.87841   -89.163581   -6472.4204 
10828000    256.71021   -9098.1988   -8119.5024   -9098.1988            0    8034.8374    24.994052    25.035888    22.980402    14379.948    8251.0667    8637.6894     7215.756   -900.39007   -834.79939    709.35875   -6434.4622 
10829000     251.7469   -9135.3613   -8175.5873   -9135.3613            0     7495.914     24.95522     24.94615    23.113429    14388.957     7364.445    8431.3182    6691.9787    820.64907    396.53304    484.65122   -6602.5835 
10830000     248.2016   -9109.1953   -8162.9376   -9109.1953            0    6731.3314    25.091327    25.054871    22.967487    14438.739    5478.8303    7120.2616    7594.9023   -309.30341   -298.79416    1431.9591   -6745.4929 
10831000    263.44099   -9137.7111   -8133.3539   -9137.7111            0    6573.3264    25.104244    25.052138    22.990657    14459.169    5514.3086    6900.9729    7304.6977   -856.59255    1100.8623   -368.42016   -6747.2224 
10832000    251.07187   -9128.3468   -8171.1463   -9128.3468            0    6472.5558    24.983882    25.004555    23.125181    14446.551    7381.3779     6078.716    5957.5736   -961.39013    617.51431   -655.72504   -6807.4557 
10833000    244.89216   -9144.0136    -8210.373   -9144.0136            0    6078.8646    25.011168    25.090775    23.023943    14448.666    6530.2299     5207.516     6498.848   -1205.0436    80.959058   -366.73125   -6929.4409 
10834000    256.70938   -9080.6521   -8101.9589   -9080.6521            0    7118.6543    24.912144    25.119826    23.104669    14458.642    8191.0805    6371.6844    6793.1982    749.51281   -141.83243   -1081.6605   -6600.8877 
10835000    246.12308   -9117.4285   -8179.0951   -9117.4285            0    6533.2677    24.965446    25.041422    23.088024    14433.947    6874.3984    6023.2713    6702.1335   -331.51541    256.84311   -194.08025   -6803.8141 
10836000    255.28352   -9117.5491   -8144.2919   -9117.5491            0    7329.5182    25.036867    25.093441    22.926285    14403.694    6081.0107    7764.7991    8142.7448    220.13062   -547.75889    180.74287   -6604.6305 
10837000    253.64831   -9125.7404   -8158.7174   -9125.7404            0    7735.7307    24.889688     25.00761    23.046051    14344.591    8197.7241    8251.7495    6757.7183   -549.50889   -816.95396    22.287295   -6540.3937 
10838000    262.33097   -9117.6789   -8117.5536   -9117.6789            0    7477.3785    24.870321    25.009277    23.135793    14390.203    7966.4969    7733.7981    6731.8405    384.10006   -1023.0761   -541.06513   -6548.3035 
10839000    247.99311   -9157.4571   -8211.9943   -9157.4571            0    8377.3951    24.943406    24.919191    23.040531    14321.291    8132.7614    9514.1865    7485.2373   -749.08606   -1336.4975    127.64028   -6462.2803 
10840000    259.08164    -9131.597   -8143.8596    -9131.597            0    7637.4027    25.108514    24.980784    22.912325    14371.306    6926.9466     7413.449    8571.8124   -118.43505     -78.9644   -786.54691   -6543.1306 
10841000    252.03191   -9145.5061   -8184.6455   -9145.5061            0    8713.3864    25.045083    24.985721    22.869703    14311.162    7981.7502    9344.7513    8813.6577    1222.2851   -544.31131    421.71187   -6366.0431 
10842000    259.04548   -9128.7396     -8141.14   -9128.7396            0    8428.7745    24.951313    24.894416     23.08952    14342.018    8520.7594    10384.894    6380.6699    -135.4774   -129.18701    213.77078   -6378.1471 
10843000    253.12046   -9103.4972   -8138.4866   -9103.4972            0    8896.5369     25.02521    24.819618    23.111055    14354.649    8411.7098    10472.534    7805.3675   -11.121958    1095.1095   -437.09851   -6276.0159 
10844000    250.79937   -9123.6366    -8167.475   -9123.6366            0    7644.7598    25.093424    24.967833    22.945315    14375.891    6875.2546    8154.5252    7904.4995    568.01481   -227.24761   -588.47581   -6564.6928 
10845000    250.64416   -9177.2089   -8221.6391   -9177.2089            0     7263.431    24.822114      24.9928     23.12335    14345.128    7184.1928    6921.0115    7685.0886   -751.90106   -691.10365   -286.47719   -6702.0641 
10846000    257.16034   -9131.6917   -8151.2793   -9131.6917            0     7089.594    24.919967    25.021209     23.09566    14400.784    6242.9479    7842.8614    7182.9725   -1026.3305   -494.67937    882.53475    -6662.318 
10847000    260.52507   -9135.2249   -8141.9846   -9135.2249            0     6904.337    24.977855     25.14651     22.97261    14429.231    7317.6149     6311.676      7083.72   -109.02238     40.26928   -221.40935   -6689.0667 
10848000     246.2365   -9155.2932   -8216.5273   -9155.2932            0    7428.3525    24.896242    25.096781    23.015899    14380.691    8943.0754      5176.89    8165.0921    18.500467   -266.60869   -283.38455   -6658.5966 
10849000    256.43387   -9110.1036   -8132.4608   -9110.1036            0    6398.7853    24.947757    25.158733    23.017619      14447.1      6901.71    5158.5009    7136.1451    264.28918   -217.32778    -254.9243   -6784.2614 
10850000    257.03581   -9176.0769   -8196.1392   -9176.0769            0    6040.3167    24.958862    25.010158     23.09936      14419.2    6445.4497    6287.9916    5387.5089   -366.05578   -1145.5177    664.92622   -6925.9256 
10851000    244.00374    -9090.826   -8160.5725    -9090.826            0    8107.7551    24.859054    25.004056    23.119355    14370.464    9384.5701    7266.1925    7672.5028   -715.31482    660.63822   -3.0366306   -6461.3616 
10852000    258.32583   -9108.7386   -8123.8828   -9108.7386            0    6960.5033    25.013751    25.117455    22.958607    14424.474    6438.1406    6888.6445    7554.7248    56.687192   -430.73232    643.95086   -6659.6284 
10853000    256.62379   -9133.2591   -8154.8922   -9133.2591            0    6968.0623    24.947104    25.021219    23.103908     14421.62    7693.4408    5943.7085    7267.0375    60.207693    13.150334    -815.0904   -6689.3378 
10854000     258.2214   -9147.2671   -8162.8094   -9147.2671            0    7334.9186    24.941742    25.001323    23.087135    14396.596    7889.7078    7475.0983    6639.9498   -100.38989   -327.32897     648.2636   -6622.7729 
10855000    252.82928   -9097.5495    -8133.649   -9097.5495            0    6918.5025    25.045517    25.087394    22.958739     14425.59    7371.6361     5828.536    7555.3352    110.28305   -352.74838    750.19025   -6678.1176 
10856000    259.43844   -9171.3861   -8182.2884   -9171.3861            0    7724.8988    24.878589    25.076641    22.978994    14335.938    8575.9771    6813.4911    7785.2281   -696.02312   -441.54475    279.48847   -6567.2056 
10857000    252.55914   -9119.4811   -8156.6105   -9119.4811            0    8182.2368     24.86084    24.960452    23.132171    14354.387     8870.413     8703.838    6972.4594   -45.901176    443.50766   -989.26043   -6443.7083 
10858000    262.01683   -9155.0803   -8156.1527   -9155.0803            0    8039.9461    24.989305    25.007324    22.949491    14341.496    8176.3384    7788.7396    8154.7603   -410.72332   -172.12344   -1756.4765   -6474.5496 
10859000    252.62946    -9131.321   -8168.1823    -9131.321            0    7008.9476    25.018786    25.037867    23.000806    14408.097    7160.5474    6701.9277    7164.3679   -254.33602    1070.2107   -392.17243    -6695.411 
10860000    249.77854   -9138.7941   -8186.5244   -9138.7941            0    7297.5376    24.977735    24.968304    23.086679    14398.046    8278.6402    6824.4025    6789.5701   -70.465169    1216.4589    177.51446   -6654.1821 
10861000    257.50223   -9138.6944   -8156.9785   -9138.6944            0    6059.7047    24.915968    24.970314    23.227715    14451.345    6903.0944    6747.7373    4528.2825   -57.539685    81.997965     12.67531    -6879.847 
10862000    252.55643   -9114.9396   -8152.0793   -9114.9396            0    7318.9811    25.068675    25.023756     22.98151    14416.586     5534.213    8464.8987    7957.8315   -1147.0948     74.48716   -869.92129   -6613.2554 
10863000    251.62943   -9118.9466   -8159.6205   -9118.9466            0    6392.1474    25.079533    25.008048    23.081726    14476.632    6300.7376    5303.5311    7572.1736   -442.10364   -284.38486   -247.59038   -6810.0667 
10864000    260.98685    -9095.611   -8100.6101    -9095.611            0    7661.8492    25.051767    24.960508    23.052494    14414.836    7609.5858    7577.2016    7798.7602   -506.47625    -57.33005    290.99771   -6489.8933 
10865000    255.79147   -9078.3712   -8103.1775   -9078.3712            0    8187.4595     25.11371     24.93666    22.963982     14381.24    6170.4675    9996.8209      8395.09   -30.887617   -50.513942    755.56306   -6385.9754 
10866000    256.31412   -9157.2542   -8180.0679   -9157.2542            0    7099.0193    24.994762    24.863768      23.1145    14364.829    6998.2467    8689.6169    5609.1943    335.63194   -162.41244   -196.65064   -6692.8496 
10867000    250.48939   -9168.8474   -8213.8676   -9168.8474            0    7203.3639    25.032444    24.899437    23.045657    14364.215    5209.3547    9282.0695    7118.6674   -597.34321   -371.68148    673.48791   -6704.8541 
10868000    253.12666   -9179.7272   -8214.6929   -9179.7272            0    7517.3011     25.17464    24.904683    22.869357     14338.32    5949.1153    7653.2232    8949.5647    -1125.325   -939.95656    312.00464   -6642.7525 
10869000    254.56064   -9131.5963   -8161.0951   -9131.5963            0    7411.9877    25.052102    24.899618    23.081267    14397.812    6321.3542    9798.2491    6116.3599     809.8919    268.65675   -216.04073   -6604.7458 
10870000    255.82081   -9149.4666    -8174.161   -9149.4666            0    6885.9351    24.890065    24.954797    23.171586    14392.487    6257.0711    7449.0144    6951.7199    76.671899   -621.85722    773.17813   -6728.8055 
10871000    254.92223   -9150.6409   -8178.7611   -9150.6409            0    7384.6457    25.029268    25.034576    22.934917    14370.953    6654.8055    7149.0342    8350.0974   -782.20047    575.08421   -899.45016   -6631.0456 
10872000    259.07411    -9117.171   -8129.4624    -9117.171            0     7293.292     25.06774    25.019911    22.997591     14423.92    7222.4116    6761.2252    7896.2391    1161.2271    206.08946   -480.37579   -6595.2595 
10873000    258.61431   -9184.3844   -8198.4287   -9184.3844            0    5409.3132    24.995262    25.055207    23.102757    14468.367    5199.0547    5185.8411    5843.0437    558.74342   -547.46879   -462.21188   -7057.0296 
10874000    258.06495   -9093.6554   -8109.7941   -9093.6554            0    8103.9579    25.052565    24.908103    23.031434    14371.888    7878.1205    8797.4697    7636.2836    790.95319    -683.1537   -1284.9543   -6411.2106 
10875000    265.52896   -9113.8591   -8101.5416   -9113.8591            0    8380.7634    25.022578    24.850229    23.056423    14336.871    9011.9791    9166.7242     6963.587    101.58471    132.11979    436.36593   -6349.2199 
10876000    256.55386   -9131.8292   -8153.7289   -9131.8292            0    9070.0326    24.910059    24.973488    22.945406    14274.133    9037.8385    8894.9976    9277.2617   -6.8218707    489.17876    817.83197   -6265.5877 
10877000     255.9739   -9115.9175   -8140.0283   -9115.9175            0    8506.8976    24.964423    24.951919    22.999963    14326.913    9451.1409    8637.1527    7432.3992    591.69965   -357.68531    66.357014   -6362.5688 
10878000    256.74745   -9149.2184   -8170.3801   -9149.2184            0    7376.4931    24.915154    24.930583    23.159139    14385.283    8253.7929     7007.213    6868.4733   -345.11001    55.138533    18.055865   -6622.8316 
10879000    258.49992   -9130.2477   -8144.7281   -9130.2477            0    6870.5557    25.003217    25.048435    22.992864    14400.234    8170.4764    5724.2038    6716.9871     7.132641    -818.0531   -440.25413   -6701.8245 
10880000    254.86716   -9175.8597   -8204.1899   -9175.8597            0    7376.8598    25.054928    25.023748    22.932564    14377.988    7217.0958    6749.8741    8163.6097    283.52758    430.64056   -1088.6503   -6657.3494 
10881000    251.18123   -9144.7898   -8187.1724   -9144.7898            0     8820.871    24.936754    24.840274    23.087726    14301.364    9378.9739    9207.5252    7876.1139   -239.05858    940.17848   -201.22056    -6347.397 
10882000    256.72744   -9142.1151   -8163.3531   -9142.1151            0    6856.8442     25.02242    24.926872     23.14772    14437.943    6163.5069    8336.0743    6070.9515   -657.98595   -199.14065   -514.19382   -6719.5582 
10883000    252.08202   -9130.7004   -8169.6487   -9130.7004            0    6336.5242    25.094113    25.067021    22.980477    14455.517    7090.8476    5236.1913    6682.5337    517.17529    621.52671    558.49693   -6833.7898 
10884000    250.03149    -9153.674   -8200.4399    -9153.674            0    6556.1535    25.022199    24.969271    23.037108    14393.264    5240.9662    7758.3611    6669.1332   -1230.8534    90.347078    194.47825   -6824.2312 
10885000    254.35929   -9184.2219   -8214.4883   -9184.2219            0    7860.5007    25.067696    24.895988    22.953251    14324.781    6177.9629    9322.4468    8081.0926      691.178   -1083.3582   -408.84915   -6572.3335 
10886000    250.81695   -9109.4792   -8153.2506   -9109.4792            0    6112.0044    25.052705    24.897329    23.165085    14449.116    5889.8957    7060.1272    5385.9902    261.69243   -879.88806     659.2464   -6865.2953 
10887000    245.56635   -9117.2627   -8181.0518   -9117.2627            0    7693.0465    24.978925    24.945839    23.043366    14358.788    7773.6652    8196.0254    7109.4489    63.064811     300.6971     618.3127   -6570.0648 
10888000    251.32596   -9099.1118   -8140.9426   -9099.1118            0    8984.8678    25.030494       24.946    22.914666    14308.162    8600.3349    8875.5033    9478.7652   -235.51323    1390.8558    309.57133   -6266.0714 
10889000    247.89782   -9145.3382   -8200.2386   -9145.3382            0    8042.8131    24.867371    25.001358    23.062277    14338.234    7498.0108    8366.4503    8263.9781    226.37226    1766.7127    404.23627   -6518.4186 
10890000    261.71027   -9148.1442   -8150.3853   -9148.1442            0    7118.1866    24.929776    25.065747    23.020172    14384.925    8257.4957    6432.2832     6664.781    325.14335     79.91945   -573.92549   -6657.0655 
10891000    243.33365   -9123.3083   -8195.6095   -9123.3083            0    6259.4808    24.967516    25.034604    23.108885    14444.252    6657.5626     5496.285    6624.5948    821.72543   -137.78418    27.621409   -6877.0211 
10892000    249.52417   -9150.0654   -8198.7655   -9150.0654            0    6523.5796    24.938407     25.04612    23.063779    14405.875    6459.3621    6413.5334    6697.8433    646.79362    1372.7338    973.61686   -6828.1946 
10893000    257.39657   -9133.1787   -8151.8656   -9133.1787            0    7398.7425    25.010707     25.00495    23.041757    14410.118    7636.5628    6641.6537    7918.0111    221.99889    409.68673    669.97812   -6596.9696 
10894000    249.28757   -9113.6493   -8163.2513   -9113.6493            0    7617.7736    25.041296    24.999037    22.977587    14384.159    7407.7792    7050.7388    8394.8029   -155.94149   -164.67426    878.57874   -6565.2084 
10895000    266.78509   -9106.8922   -8089.7857   -9106.8922            0    7574.3374    24.976497    24.909895    23.079161    14358.975    8489.7064     8165.592    6067.7139    364.76856    125.21362    130.48817   -6503.6367 
10896000     255.6954   -9148.8632   -8174.0358   -9148.8632            0    7599.9804    25.085337     24.80641    23.078449    14361.192    6392.8014    8485.1218     7922.018    168.53103    117.03586    1177.3477   -6582.2712 
10897000    261.85557   -9168.9264   -8170.6136   -9168.9264            0    7267.6305    25.084438    24.963652    22.948631    14370.414     6443.494    7500.2121    7859.1854    571.95703    292.40811   -1217.9697   -6647.4799 
10898000    253.43509   -9162.1319   -8195.9217   -9162.1319            0    7631.4921    24.978717    24.876784    23.098831    14353.386    6297.3644    8165.0671    8432.0447   -915.58347   -318.82996   -1528.9318   -6598.4259 
10899000    257.55111   -9131.6418   -8149.7395   -9131.6418            0    6612.9111    24.975882    25.000818    23.090954    14418.396    6567.2329    6638.4843    6633.0161   -78.587377   -1108.5028    408.73058    -6759.193 
10900000    247.71327   -9116.8414   -8172.4454   -9116.8414            0     8299.088    25.085564     24.94559    22.911677    14337.536    7425.8351    8466.9516    9004.4772   -301.57406    58.322825    844.91927   -6437.1205 
10901000    258.90409   -9127.0042   -8139.9438   -9127.0042            0    8367.9742     24.92511    24.886502    23.075155    14313.491    8427.8939    8500.6102    8175.4186   0.34461364    897.35946   -101.51999   -6393.1494 
10902000    261.99301   -9166.2823   -8167.4455   -9166.2823            0    7999.4292    24.905696    24.882578    23.102341    14316.935     8380.148    8258.5822    7359.5573   -418.48832   -174.28863   -239.51916   -6497.1822 
10903000     252.3708   -9103.7211   -8141.5685   -9103.7211            0    7509.7262    25.046081    25.047862    22.936542    14389.257    7177.1954    7742.2736    7609.7096   -164.24134   -1061.1606    626.73552   -6565.6332 
10904000    255.99253   -9170.7956   -8194.8353   -9170.7956            0    7086.4108    25.023866    25.078644     22.94216    14397.688    7586.0982    6687.7221    6985.4121   -890.55552   -1217.2553    420.95543   -6706.8625 
10905000    254.15843   -9139.5001   -8170.5322   -9139.5001            0    7492.2737    24.951441    25.103831    22.980736    14394.599    8398.4549    6444.3497    7634.0165   -424.81391   -158.50596    1023.2939   -6597.6758 
10906000    242.53576   -9181.5948   -8256.9378   -9181.5948            0    7502.4298    24.900717    24.933009    23.098055    14340.423    8626.3569    6903.4412    6977.4913   -52.264002    815.55695   -912.15397    -6687.877 
10907000    255.40987   -9143.3553   -8169.6164   -9143.3553            0    7652.3329     25.20403    24.790318    22.984642     14361.17    6218.7979    9200.7405    7537.4603     699.5111   -702.02467    -278.7118   -6566.8893 
10908000    255.86228   -9135.6357    -8160.172   -9135.6357            0    7341.6233    25.108791    24.894393    23.017221    14387.331     5936.038      8405.03    7683.8018    260.29595   -42.490598    439.54329   -6619.7198 
10909000    255.45579   -9114.3466   -8140.4326   -9114.3466            0    6562.3906     25.09634    24.864396    23.138623    14438.625    6034.5285    7502.9951    6149.6481   -141.24567    360.24827    905.31805   -6758.5734 
10910000     250.9221   -9119.1577   -8162.5282   -9119.1577            0     7937.618    24.980967    24.969529    22.987757    14338.912    7696.5898    8257.7383     7858.526    286.48959   -276.54343    -581.6415   -6502.6268 
10911000    253.82862    -9185.312   -8217.6016    -9185.312            0    8578.3333    24.971946    24.930063    22.987356    14310.829    7234.6708     9574.493    8925.8361   -68.826467   -1109.5649   -361.91759   -6427.2283 
10912000    252.37728   -9126.6933   -8164.5161   -9126.6933            0     6712.931    25.024636    24.819896    23.224118    14424.706    6527.9666    7662.4726    5948.3538    -617.1683   -519.52497    960.12288   -6752.3199 
10913000    247.56443   -9091.4851   -8147.6566   -9091.4851            0    7488.0549     25.06957    25.029553    22.932163    14389.477    7169.9446    7889.3208    7404.8994    141.43029     584.8279    833.03998   -6576.2451 
10914000    248.82808   -9132.1527   -8183.5066   -9132.1527            0    6978.1306    25.019645    24.955898    23.067644    14403.153    7137.0738    7377.0681    6420.2498    220.74356   -271.98861   -305.28737   -6717.7139 
10915000     253.4078   -9126.8763   -8160.7702   -9126.8763            0    7643.8567    25.006877    24.885147    23.111273    14382.141    7878.0921    7939.0922    7114.3857   -941.87398    1266.3327   -69.023895   -6557.4807 
10916000    257.09089   -9107.9977     -8127.85   -9107.9977            0    6841.2367    25.077199      24.9291    23.081929    14429.714     6021.023    7676.9609    6825.7262   -508.99461   -424.78606   -207.51246   -6688.1626 
10917000    240.78278   -9143.8402   -8225.8664   -9143.8402            0    5023.5003    25.120673    25.023191    23.035666    14480.206    4166.4494    5005.2991    5898.7524    171.66544     -12.0818    1055.7971   -7165.0089 
10918000    264.28808   -9116.8897    -8109.303   -9116.8897            0    6548.7663    25.065639    25.008705    23.072268    14463.062    6035.8073    7124.2274    6486.2641   -8.1097762    846.36199    267.38023   -6727.9788 
10919000    241.41878   -9088.1585     -8167.76   -9088.1585            0    6277.4102    25.050152    24.992322    23.125734    14478.131    6165.9593    6303.6535    6362.6178    130.63639    1363.2472    404.09759   -6842.2931 
10920000    259.65885   -9148.5382   -8158.6002   -9148.5382            0    9273.7901    24.940815    24.882837    23.052538    14306.364    8929.8283    9689.5183    9202.0236   -995.27013    777.72044    246.67437   -6223.6828 
10921000    250.35413   -9118.7831   -8164.3189   -9118.7831            0    8308.6771    24.953454    24.962922    23.021199    14340.161    9383.7412     7732.679     7809.611    330.86637   -637.73509    160.75988   -6426.6709 
10922000    255.67011   -9131.8226   -8157.0915   -9131.8226            0    8252.1866    24.880238    25.045359    22.986116    14323.442    8320.8862    8276.1106     8159.563     842.8124   -572.53613    694.04397     -6433.27 
10923000    249.31496   -9108.8364   -8158.3341   -9108.8364            0    8724.5729    24.923378    24.969136     23.02251    14327.258    8212.4284    9305.2109    8656.0794   -451.55566   -321.28562   -116.10428   -6335.3488 
10924000    255.75157   -9156.5082   -8181.4666   -9156.5082            0    8284.7705    24.972594    24.928554    22.990383    14312.218    8139.4257    8413.2324    8301.6533    260.11896   -21.107536    1122.6728   -6452.1945 
10925000    253.31296   -9137.4798   -8171.7353   -9137.4798            0    7573.7886    24.993141    24.901231    23.088146    14369.138    6518.5794    7861.0184     8341.768    793.34157   -603.21111     855.5913   -6584.5786 
10926000    250.95006   -9143.6569   -8186.9208   -9143.6569            0    7997.0504    25.025277    24.958597    22.961055    14341.378     8446.492    7697.2582    7847.4011   -218.07912    491.03733    1343.9071   -6514.3034 
10927000    256.17951   -9137.5189   -8160.8458   -9137.5189            0    7418.0937    24.890552    25.018575    23.080845    14373.045    8200.9409    6332.3415    7720.9985    174.19997     222.9252    374.94183   -6605.8937 
10928000    250.05892   -9122.3328   -8168.9942   -9122.3328            0    6727.2763    24.952149    24.960882    23.157479    14423.119     7584.835     6870.691     5726.303   -656.66243   -699.05598   -263.10257   -6753.9359 
10929000    252.05481   -9132.2322   -8171.2843   -9132.2322            0    8082.8782    25.162228    24.954497    22.860388    14354.283    6623.2772    7631.5163    9993.8411   -522.01902   -869.37613   -64.331066   -6479.1944 
10930000    252.13647    -9144.152   -8182.8927    -9144.152            0    7530.0732    25.094622    24.977599    22.928796    14371.847    5745.2701    8866.1842    7978.7653   -1626.7316   -89.208551     692.3111   -6604.5996 
10931000    252.95199   -9134.0268   -8169.6584   -9134.0268            0    8056.7998    25.002919    24.782335    23.150045    14344.479    7047.4383    10272.585    6850.3756   -178.42516    901.34633   -323.84194   -6484.1798 
10932000    264.64875   -9133.2128    -8124.251   -9133.2128            0    7637.3019    25.018311    24.938568    23.049562    14381.102    7032.6569    7433.3364    8445.9123    624.86732    931.19566    558.65198    -6522.452 
10933000    253.64222   -9140.7124   -8173.7126   -9140.7124            0    7336.3656    25.100419     24.93673    22.993618     14392.22    6950.6191    7936.2688     7122.209   -26.436809    849.50387   -899.87988   -6633.8405 
10934000    254.06069   -9109.4411   -8140.8459   -9109.4411            0    8624.4043     25.11631    24.879469    22.887193     14301.76    7249.3598    9103.5651    9520.2878   -954.28153    353.68932    33.116067   -6341.9979 
10935000    266.80925   -9119.3071   -8102.1085   -9119.3071            0    8519.8469    25.038083    24.899886    22.945221    14305.093     7266.781    9401.2914    8891.4683   -129.20392    -564.3462   -162.02826   -6324.6545 
10936000    252.98561   -9089.5025    -8125.006   -9089.5025            0    6969.0737    25.062131    24.888246    23.147059    14438.036    6724.3895    8652.0824    5530.7492   -1299.9758    909.25957    -448.6575   -6657.5704 
10937000    249.18392    -9176.255   -8226.2523    -9176.255            0    6280.7567    25.089318    24.973226    23.052334    14443.699    6621.3993    6658.6379    5562.2329   -941.91332    137.03602    132.91362   -6903.2327 
10938000    259.13386   -9123.2449   -8135.3084   -9123.2449            0     6739.671    25.114183    24.965843    23.021609    14434.474    6112.9701    7429.8817    6676.1613   -902.88246    770.08663    277.20939   -6716.5268 
10939000    247.76827    -9165.082   -8220.4764    -9165.082            0     7705.925    25.010696    24.926245    23.037802     14362.29    6767.6715    9104.3232    7245.7803   -407.39087    927.18314   -348.11562    -6606.399 
10940000    257.33388   -9098.2471    -8117.173   -9098.2471            0    6841.1461    25.079096    25.098653    22.920802    14427.534    5965.4657     6001.669    8556.3034    688.14686   -918.69699    260.24271   -6677.7221 
10941000    256.85043   -9127.9318   -8148.7009   -9127.9318            0     6700.314    25.041544     25.01772    23.029856    14427.798    5934.4267     6730.201    7436.3143    125.60453     119.6227   -148.05529   -6738.8568 
10942000    260.52496   -9123.4327   -8130.1927   -9123.4327            0    6683.0474    24.733779    25.123163    23.243275    14443.157    9151.1252    5207.5614    5690.4555   -409.17568   -537.94902  -0.73770957   -6722.4848 
10943000    249.60152   -9112.2911   -8160.6963   -9112.2911            0    7884.3354    24.965421    25.124393    22.901546     14364.79    7493.0094    6623.2979    9536.6989   -760.45888   -889.53739   -626.05207   -6508.9617 
10944000     255.2613   -9145.4101   -8172.2376   -9145.4101            0    6809.0772    24.953188    25.154065    22.972501    14419.244    7709.0864    5240.5111    7477.6342   -304.72388    263.52785     870.2029   -6740.3575 
10945000    252.95244   -9131.9183   -8167.5482   -9131.9183            0    7223.0858    24.878898    24.975792    23.174644    14400.033    8616.2976     7661.549    5391.4109   -600.75072    119.66842    511.57877   -6650.6301 
10946000    255.91681   -9121.8388   -8146.1673   -9121.8388            0    7259.5118    24.955203    25.104821    22.987349     14401.48    8086.8842     6583.053    7108.5981    495.65015   -849.55207     23.44182   -6621.4461 
10947000     241.0631   -9082.7172   -8163.6747   -9082.7172            0    6977.3971    25.016567    25.073106    23.028524    14444.481    6617.6659      7097.22    7217.3054    263.85219     1106.322    1094.7047   -6693.8306 
10948000    258.83851   -9126.1199   -8139.3094   -9126.1199            0    8015.1862    24.964837    24.956404    23.075598    14376.849    7392.7467    7788.5829     8864.229   -283.71275   -825.55001    110.82808   -6458.7526 
10949000     260.9058   -9118.4095   -8123.7176   -9118.4095            0    8421.2547    25.043692    24.938768    22.977564    14350.841    8232.8205    8617.3373    8413.6063   -315.30703   -873.34259    206.64501   -6361.2139 
10950000     246.3551   -9098.4984   -8159.2804   -9098.4984            0    8046.3739    24.970594    24.947964    23.077038    14376.198    8020.7073    8549.1899    7569.2244   -75.598333    462.70358    56.895996   -6472.2607 
10951000    262.24879   -9122.2831   -8122.4711   -9122.2831            0    8769.6015    25.139655    24.871341    22.857849    14292.028    6801.4471     9841.157    9666.2005   -171.09624    -34.93127   -143.30711    -6294.583 
10952000    253.05911   -9128.6474   -8163.8707   -9128.6474            0    7146.6801    25.037907    24.992528    22.984923    14383.059    7244.2534    7810.7782    6385.0087    362.42072   -252.71015    451.68782   -6664.7677 
10953000    254.45758   -9183.0784   -8212.9701   -9183.0784            0    7406.6015    24.893174    24.925629    23.125134    14348.638    8764.8827    7293.5443    6161.3776   -328.84208     160.7872   -408.12008   -6663.0634 
10954000    254.30778   -9113.8693    -8144.332   -9113.8693            0    7577.0978    25.113764    24.930734    23.011424    14407.558    5585.2486    8493.6034    8652.4414   -182.23633    674.16885    253.26495   -6552.2363 
10955000    247.41098   -9133.5355    -8190.292   -9133.5355            0    7426.1169    25.019967    24.972662     23.04392    14398.191    7497.0126    7145.8715    7635.4666   -24.399782     545.1445    510.70056   -6630.9349 
10956000      244.597   -9175.8279   -8243.3126   -9175.8279            0    6793.2652    24.959563     25.04718    23.042493    14405.399    7466.2747    5797.3115    7116.2094    135.94533    6.4300003    92.342184   -6816.1293 
10957000     253.5043   -9122.1726   -8155.6986   -9122.1726            0    7378.6969    24.971961    25.024927    23.018901    14385.006    7145.7333    8309.0741    6681.2831   -123.65721   -897.82845    238.58952   -6607.7176 
10958000    256.67409   -9139.3154   -8160.7567   -9139.3154            0    7149.2267    25.043053    24.962818     23.03349    14399.275    6950.7515    8418.9261    6078.0026   -258.26587   -517.34954    354.83447   -6659.4287 
10959000    258.68751   -9111.7357   -8125.5009   -9111.7357            0     6400.774    24.995785    25.042513    23.064622    14437.468    6051.4153    6759.4136    6391.4931   -410.81791    447.06939   -589.75325   -6777.7817 
10960000    259.93742   -9138.5569   -8147.5569   -9138.5569            0    6890.7171    24.968917     25.02143    23.075966    14416.895    6698.8966    8011.1612    5962.0936   -600.30008    115.34908    125.87885   -6698.7449 
10961000    264.18763   -9150.6526   -8143.4489   -9150.6526            0    6591.1838    25.001691    25.016908    23.070365    14429.706    6896.2514    6329.5973    6547.7025   -276.88782   -618.36239   -7.1053388   -6756.3839 
10962000    257.05779   -9167.8394   -8187.8179   -9167.8394            0     5929.488    24.912051     25.10463    23.082459    14435.951    6502.6948    5392.2371    5893.5322    375.26032   -36.437322    350.57106   -6939.4618 
10963000    249.72082   -9131.0207    -8178.971   -9131.0207            0     7197.193    24.941762    25.052149    23.025157    14387.148     8064.991     6639.971     6886.617    1374.1508    1553.8094    129.72641    -6668.843 
10964000    259.44507   -9132.9388   -8143.8159   -9132.9388            0    7782.9524     24.97324    25.064289    22.930713     14353.17    7699.1971    7388.1742     8261.486    1071.6549    223.02728    1034.5503   -6514.6395 
10965000    260.07332   -9172.3192   -8180.8011   -9172.3192            0    7732.5651    24.920282     24.94081    23.100064    14357.429    8405.7221    7809.8257    6982.1476   -100.11567   -800.53455    568.37808   -6561.6918 
10966000    240.95333    -9127.584     -8208.96    -9127.584            0     6803.184    25.018066     25.02665     23.00879    14406.226    5702.1034    7488.7298    7218.7189    4.9800371    2179.8002    1048.9927   -6779.6108 
10967000    254.28711   -9108.8465   -8139.3881   -9108.8465            0    7353.4008    25.079577    24.954616    22.976545    14379.898    5796.6942    8380.5952    7882.9129    735.35062   -534.31817    506.11918   -6597.2618 
10968000    254.25435   -9122.6512   -8153.3177   -9122.6512            0    6914.5348    24.955034    24.971992    23.107695    14400.183    7250.2838    7317.1935    6176.1271    1178.0172    314.37259   -64.234883   -6701.1831 
10969000     242.5426   -9115.2938   -8190.6108   -9115.2938            0    7647.1643    24.967877    24.981418    23.051258    14377.829    7909.4516    7563.7252    7468.3161    121.20969    614.04953    435.69306   -6587.1084 
10970000    251.30498   -9116.9355   -8158.8463   -9116.9355            0    7311.6942    25.199716    24.886565    22.924936    14377.016    6989.1835    7425.6224    7520.2765    -382.1779   -250.45374    736.66032   -6625.7739 
10971000    259.40017   -9150.1544   -8161.2027   -9150.1544            0    7994.7292    25.078409    24.889938    22.966173    14335.486    6378.4098    8796.2273    8809.5505   -12.686269    394.28826    263.80061   -6489.7577 
10972000     249.6692   -9130.3543   -8178.5015   -9130.3543            0    9482.6602     25.01176    24.846811    22.971293    14275.797    8136.2681    11106.496    9205.2159    740.99524    774.66765    1400.7175    -6204.232 
10973000    258.23137   -9140.7846   -8156.2888   -9140.7846            0    9061.6488    24.968481    24.892569    23.014344    14304.097     8221.425    9571.5293    9391.9922     72.47009    262.28101    331.80641    -6265.933 
10974000    264.95024   -9100.1123   -8090.0012   -9100.1123            0    8412.7148    24.945856    24.888505     23.11086    14348.726     7293.158    10439.005    7505.9811    101.13296    823.26791    -378.5732   -6329.5443 
10975000    246.67494   -9116.5923   -8176.1549   -9116.5923            0    7457.1966    25.034803    25.057354    22.931836    14385.276     7559.656    6943.8224    7868.1114    60.327965    31.147841   -138.97928   -6611.6761 
10976000     253.3685   -9115.6415   -8149.6853   -9115.6415            0    7928.3443    24.925049    25.035845    23.006372    14356.429    7704.3148    8322.4369    7758.2813    157.67476    87.425014   -83.350854   -6489.6978 
10977000     250.5315   -9087.3888   -8132.2485   -9087.3888            0    6424.4566    24.906673    25.168512    23.084214    14470.661    7702.3297    5100.1866    6470.8535   -616.78148   -550.40304    829.26467   -6776.4328 
10978000    252.97008   -9091.8847   -8127.4474   -9091.8847            0    5893.7403    24.935833    25.091246    23.167795     14495.42    7009.1215    5984.0467    4688.0525   -261.77481   -545.54326    666.60444   -6881.5058 
10979000    256.74392   -9148.8392   -8170.0143   -9148.8392            0    6368.6937    24.988331    25.170906    22.930226    14422.629    7785.8525    4545.1008    6775.1278   -523.66411    1001.9484   -307.30193   -6830.4281 
10980000    250.54287   -9101.7414   -8146.5577   -9101.7414            0    7015.7778    25.004209     25.01289    23.085032    14438.015    6937.6203    7209.8484    6899.8646    1162.1486   -311.18549    797.48789     -6669.29 
10981000    262.48155   -9107.7922   -8107.0928   -9107.7922            0    6924.8079    25.036019    24.939953    23.157062    14459.203    6332.7797      7970.86    6470.7841    1128.2317    162.18055    304.08067   -6646.8402 
10982000    255.10006     -9112.99   -8140.4322     -9112.99            0    7812.7374    25.166523     24.88944     22.95516    14378.669    5583.2862    9180.3223    8674.6037   -346.52104    222.61503   -294.93648   -6502.1158 
10983000    257.74532   -9110.1418   -8127.4992   -9110.1418            0    7518.9723     25.12564    24.948284    22.938248    14378.648    7416.7439    7167.4705    7972.7024    760.85821    880.12051    306.77731    -6550.787 
10984000    255.30043   -9120.5971   -8147.2755   -9120.5971            0    6628.3846    25.031586    24.995601    23.053258    14423.952    6570.0956    7680.2756    5634.7824   -105.90206   -95.052437   -196.60228   -6752.9382 
10985000     253.7969   -9164.8783   -8197.2888   -9164.8783            0     7074.307    25.014746    24.873566    23.166532    14414.354     6345.626    7685.6572    7191.6378   -177.22104   -1071.2912   -331.27093   -6710.1382 
10986000    256.70899   -9117.6308   -8138.9391   -9117.6308            0    8814.0227     25.02151    24.922553    22.940623     14305.77    9143.3294    8703.3853    8595.3533    -541.6381    181.89049    445.50122   -6300.0256 
10987000     245.6383   -9116.6279   -8180.1427   -9116.6279            0    8217.4449    25.004062    24.972303    23.006859     14365.69    8406.8838    8470.0558    7775.3952   -478.81288   -174.83299    595.92126   -6458.5152 
10988000    257.11087   -9082.6958   -8102.4719   -9082.6958            0    6650.1452    25.059507    24.835588    23.242828    14465.583    7444.6152     7622.307    4883.5136    561.31453    322.08945    77.431969   -6699.5194 
10989000    257.09137   -9135.6507   -8155.5011   -9135.6507            0    6643.4487    25.061015    25.001158    23.037218     14434.07    6609.7872    6384.8942    6935.6646    -332.5862   -969.89717     616.0119   -6757.0146 
10990000    258.32043   -9109.1306   -8124.2953   -9109.1306            0    7243.7197    25.099414    25.085569    22.906451     14422.66    6783.1388    6274.8665    8673.1537    51.074622   -974.07483   -172.16807   -6600.6535 
10991000    259.09703    -9127.396      -8139.6    -9127.396            0    6314.6088     25.05162    25.025345    23.029354    14437.688    6313.4127    6060.8324    6569.5814    725.63403    -604.7179    276.34923   -6810.0031 
10992000    259.41634   -9116.8761   -8127.8627   -9116.8761            0    6914.0665    24.960926    24.958934    23.156048    14426.174    6194.5568     8411.063    6136.5797    755.98336   -259.20861    1038.5877   -6673.2057 
10993000    249.52143   -9112.4611   -8161.1716   -9112.4611            0    8162.4123    25.021999    24.899866    23.065922    14371.094    7788.7111     8517.321    8181.2047    310.79564   -515.10781    1492.4582   -6450.4307 
10994000      249.749   -9137.8056   -8185.6485   -9137.8056            0    7789.4826    25.035068    25.020189    22.964644    14384.643    7106.3006    7603.0727    8659.0745    132.35301    1216.1237    224.77651   -6551.5298 
10995000    258.75237   -9122.5215   -8136.0394   -9122.5215            0    6679.2501    25.125094    25.010423    22.949892    14421.465    5411.9928     7408.325    7217.4325   -351.90471    335.06771    8.4839723   -6731.2443 
10996000    243.62343   -9102.5968   -8173.7932   -9102.5968            0    7587.7909    24.998384    24.888235    23.113894    14380.671    7606.5978    7656.1089    7500.6659   -332.03063   -184.84682   -341.20073    -6582.426 
10997000    268.03296    -9122.049   -8100.1851    -9122.049            0    8213.3812    24.990876    24.970481    22.988197    14345.421    7576.3164    8280.9906    8782.8367   -816.38176    363.86376   -235.30522    -6381.837 
10998000    246.27212   -9136.5167    -8197.615   -9136.5167            0    8093.9416    25.043008    25.072407    22.859561    14353.256    7999.8671    7696.1202    8585.8374   -271.29893   -716.68816    759.11578   -6503.3304 
10999000    251.16518   -9175.1514   -8217.5952   -9175.1514            0    8221.1577    24.958092    24.966927    22.981907    14320.644    8430.9689     8207.176    8025.3281   -119.37764   -507.18457   -606.44945   -6500.5908 
11000000    266.63122   -9138.6294   -8122.1096   -9138.6294            0    7771.8487    24.806048      25.0018    23.122828    14340.682    8222.1058    8111.5902    6981.8502    437.22388    -510.4928    85.842189    -6496.673 
Loop time of 538.729 on 64 procs for 250000 steps with 1920 atoms

Performance: 80.189 ns/day, 0.299 hours/ns, 464.055 timesteps/s
196.3% CPU use with 32 MPI tasks x 2 OpenMP threads

MPI task timing breakdown:
Section |  min time  |  avg time  |  max time  |%varavg| %total
---------------------------------------------------------------
Pair    | 68.626     | 73.611     | 87.152     |  44.1 | 13.66
Bond    | 0.54956    | 0.87027    | 1.5757     |  23.8 |  0.16
Kspace  | 245.22     | 254.42     | 268.37     |  34.0 | 47.23
Neigh   | 4.5437     | 5.2364     | 6.2893     |  22.4 |  0.97
Comm    | 78.238     | 93.792     | 103.21     |  69.0 | 17.41
Output  | 0.62045    | 0.62083    | 0.62235    |   0.0 |  0.12
Modify  | 86.508     | 95.126     | 100.73     |  36.2 | 17.66
Other   |            | 15.06      |            |       |  2.79

Nlocal:        60.0000 ave          65 max          55 min
Histogram: 2 2 2 3 5 5 3 2 5 3
Nghost:        3380.94 ave        3427 max        3348 min
Histogram: 2 6 3 4 4 5 5 2 0 1
Neighs:        21182.5 ave       23262 max       19203 min
Histogram: 2 2 4 5 4 4 4 4 1 2

Total # of neighbors = 677840
Ave neighs/atom = 353.04167
Ave special neighs/atom = 2.0000000
Neighbor list builds = 10402
Dangerous builds = 0

unfix		3
unfix		2
unfix		1

write_data	data.final.${pid}
write_data	data.final.0
System init for write_data ...
PPPM initialization ...
  extracting TIP4P info from pair style
  using 12-bit tables for long-range coulomb (../kspace.cpp:340)
  G vector (1/distance) = 0.37441089
  grid = 30 30 30
  stencil order = 5
  estimated absolute RMS force accuracy = 0.0032729978
  estimated relative force accuracy = 9.8565357e-06
  using double precision FFTW3
  3d grid and FFT values/proc = 5400 960
Last active /omp style is kspace_style pppm/tip4p/omp
WARNING: Not all mixed pair coeffs generated from mixing. Use write_data with 'pair ij' option to store all pair coeffs. (../write_data.cpp:312)

write_restart   restart.lmp.${pid}
write_restart   restart.lmp.0
System init for write_restart ...
PPPM initialization ...
  extracting TIP4P info from pair style
  using 12-bit tables for long-range coulomb (../kspace.cpp:340)
  G vector (1/distance) = 0.37441089
  grid = 30 30 30
  stencil order = 5
  estimated absolute RMS force accuracy = 0.0032729978
  estimated relative force accuracy = 9.8565357e-06
  using double precision FFTW3
  3d grid and FFT values/proc = 5400 960
Last active /omp style is kspace_style pppm/tip4p/omp
Total wall time: 0:08:58
