#include		in.partitions
include		in.temp
variable        temperature equal 58.97
variable	tempDamp equal 100.0
include		in.pressure
variable        pressure equal 6812.7
variable        pressureDamp equal 1000.0 # This is 1 ps
include		in.seed
variable        seed equal 745823

units		real
atom_style	full
read_restart    restart.lmp.${pid}
read_restart    restart.lmp.0
Reading restart file ...
  restart file = 30 Jul 2021, LAMMPS = 30 Jul 2021
  restoring atom style full from restart
  triclinic box = (-3.0565513 -0.057487592 0.027996094) to (14.666550 22.637487 19.202002) with tilt (-0.15370197 -6.5428163 0.14692263)
  2 by 4 by 4 MPI processor grid
  restoring pair style lj/cut/tip4p/long/omp from restart
  restoring bond style harmonic/omp from restart
  restoring angle style harmonic/omp from restart
  1008 atoms
  672 bonds
  336 angles
Finding 1-2 1-3 1-4 neighbors ...
  special bond factors lj:    0        0        0       
  special bond factors coul:  0        0        0       
     2 = max # of 1-2 neighbors
     1 = max # of 1-3 neighbors
     1 = max # of 1-4 neighbors
     2 = max # of special neighbors
  special bonds CPU = 0.002 seconds
  read_restart CPU = 0.009 seconds

include 	in.setup
variable	out_freq equal 1000
variable	out_freq2 equal 10000
variable	out_freq3 equal 1000

timestep	2.0

neigh_modify    delay 7 every 1

include		in.tip4p
# This is TIP4P/Ice

# create groups ###
group ox type 2
336 atoms in group ox
group hy type 1
672 atoms in group hy

# set charges - beside manually ###
set group ox charge -1.1794
Setting atom values ...
  336 settings made for charge
set group hy charge 0.5897
Setting atom values ...
  672 settings made for charge

# ### TIP3P Potential Parameters ###
pair_style lj/cut/tip4p/long/omp 2 1 1 1 0.1577 8.5
pair_coeff 1 1*2 0.000 0.000
pair_coeff 2 2 0.21084 3.1668
bond_style  harmonic
bond_coeff  1 450 0.9572
angle_style harmonic
angle_coeff 1 55 104.52
kspace_style pppm/tip4p/omp 1.0e-5
pair_modify tail yes

thermo          ${out_freq}
thermo          1000
thermo_style    custom step temp pe etotal epair emol press lx ly lz vol pxx pyy pzz pxy pxz pyz enthalpy

restart 	${out_freq3} restart.lmp.${pid} restart2.lmp.${pid}
restart 	1000 restart.lmp.${pid} restart2.lmp.${pid}
restart 	1000 restart.lmp.0 restart2.lmp.${pid}
restart 	1000 restart.lmp.0 restart2.lmp.0


include         in.dump
dump            myDump all atom ${out_freq2} dump.water.${pid}
dump            myDump all atom 10000 dump.water.${pid}
dump            myDump all atom 10000 dump.water.0
dump            myDump2 all dcd ${out_freq2} dump.dcd
dump            myDump2 all dcd 10000 dump.dcd
dump_modify     myDump append yes
dump_modify     myDump2 append yes


variable natoms 	equal  "count(all)"                        # NUMBER ATOMS
variable H      	equal  "enthalpy/v_natoms"                 # ENTHALPY-per-atom
variable Vol      	equal  "vol/v_natoms"                 # volume-per-atom
fix AVG all 		ave/time ${out_freq} 1 ${out_freq} v_Vol v_H file vol_enthalpy.dat
fix AVG all 		ave/time 1000 1 ${out_freq} v_Vol v_H file vol_enthalpy.dat
fix AVG all 		ave/time 1000 1 1000 v_Vol v_H file vol_enthalpy.dat



fix 		1 all shake 1e-6 200 0 b 1 a 1
       0 = # of size 2 clusters
       0 = # of size 3 clusters
       0 = # of size 4 clusters
     336 = # of frozen angles
  find clusters CPU = 0.001 seconds
fix             2 all nph tri ${pressure} ${pressure} ${pressureDamp}
fix             2 all nph tri 6812.7 ${pressure} ${pressureDamp}
fix             2 all nph tri 6812.7 6812.7 ${pressureDamp}
fix             2 all nph tri 6812.7 6812.7 1000
fix             3 all temp/csvr ${temperature} ${temperature} ${tempDamp} ${seed}
fix             3 all temp/csvr 58.97 ${temperature} ${tempDamp} ${seed}
fix             3 all temp/csvr 58.97 58.97 ${tempDamp} ${seed}
fix             3 all temp/csvr 58.97 58.97 100 ${seed}
fix             3 all temp/csvr 58.97 58.97 100 745823


run             250000
PPPM initialization ...
  extracting TIP4P info from pair style
  using 12-bit tables for long-range coulomb (../kspace.cpp:340)
  G vector (1/distance) = 0.38001717
  grid = 24 27 32
  stencil order = 5
  estimated absolute RMS force accuracy = 0.0023835245
  estimated relative force accuracy = 7.1779133e-06
  using double precision FFTW3
  3d grid and FFT values/proc = 5355 672
Last active /omp style is kspace_style pppm/tip4p/omp
Neighbor list info ...
  update every 1 steps, delay 7 steps, check yes
  max neighbors/atom: 2000, page size: 100000
  master list distance cutoff = 10.8154
  ghost atom cutoff = 10.8154
  binsize = 5.4077, bins = 5 5 4
  1 neighbor lists, perpetual/occasional/extra = 1 0 0
  (1) pair lj/cut/tip4p/long/omp, perpetual
      attributes: half, newton on, omp
      pair build: half/bin/newton/tri/omp
      stencil: half/bin/3d/tri
      bin: standard
Per MPI rank memory allocation (min/avg/max) = 10.31 | 10.33 | 10.33 Mbytes
Step Temp PotEng TotEng E_pair E_mol Press Lx Ly Lz Volume Pxx Pyy Pzz Pxy Pxz Pyz Enthalpy 
40500000    62.500219   -5256.6714   -5131.6633   -5256.6714            0    7070.7977    17.723102    22.694974    19.174006    7712.2708    8126.0154    6753.5686    6332.8091   -235.72881   -178.79598   -442.09436   -4336.3713 
40501000    59.785389   -5273.1045   -5153.5263   -5273.1045            0    6652.2598    17.862338    22.617196    19.120854    7724.7483    6758.2635    6733.2354    6465.2806    95.542599   -6.6029688    20.792501   -4404.0992 
40502000    60.486747   -5272.1136   -5151.1326   -5272.1136            0     6343.345    17.832542    22.751618     19.05567    7731.2508    5982.6294    6043.7132    7003.6924    720.49616   -481.95699   -319.18923   -4435.9055 
40503000    56.592085   -5265.2135   -5152.0223   -5265.2135            0     6310.834    17.794658     22.61289    19.195629    7724.1031    7276.1918    6061.2513     5595.059    770.80457   -320.66794   -215.82626   -4441.1187 
40504000    55.463691   -5265.4536   -5154.5194   -5265.4536            0    8170.1385    17.808676     22.62757    19.047672    7675.5844    7928.6245    8277.0448    8304.7461   -656.64758   -147.04254   -1110.4912   -4239.9498 
40505000    58.131771   -5266.9384   -5150.6676   -5266.9384            0    6043.3038    17.872796    22.728582    19.057394    7741.5578     5728.666    6246.2961    6154.9492   -678.90026    152.94807    293.50188   -4468.3624 
40506000     59.80186   -5266.4297   -5146.8186   -5266.4297            0    6999.5846    17.849308    22.653467    19.098717    7722.5414    6491.9186    7340.0819    7166.7533   -527.00874    597.93431   -121.60279    -4358.488 
40507000    59.966738   -5269.9718   -5150.0309   -5269.9718            0     6486.827    17.849287    22.715391    19.033096    7717.0359    6844.6725    5997.7737    6618.0347    985.97817   -569.63367    536.52331   -4419.9706 
40508000    58.889019   -5264.3241   -5146.5388   -5264.3241            0    6983.0211    17.800595    22.741182    19.037689    7706.5818    6391.3486    7190.3292    7367.3856    533.90624    565.63013   -643.13563   -4361.6989 
40509000     61.83017   -5266.0266   -5142.3587   -5266.0266            0    6232.9872    17.781212    22.683954    19.146343    7722.6428    6073.1272     6412.563    6213.2713    371.67061    478.96109   -1463.3544   -4440.3571 
40510000    60.764709   -5268.1959   -5146.6589   -5268.1959            0    6698.1169    17.722793    22.744894     19.15298    7720.6245    7945.3138    5996.5328    6152.5042   -676.49691   -337.14773  -0.89717242   -4392.4684 
40511000    58.869599    -5268.329   -5150.5825    -5268.329            0    6384.5639    17.787132    22.766604    19.037551    7709.3057    5933.8287     6412.456    6807.4069   -568.25495   -171.78272    156.63258   -4432.7512 
40512000    60.590324   -5259.2364   -5138.0482   -5259.2364            0    6953.5357    17.788819    22.696245    19.094949    7709.3833    7799.8971    6911.2885    6149.4215    27.192929    817.47076     -500.653   -4356.2382 
40513000    60.572651   -5260.5569   -5139.4041   -5260.5569            0    7036.6563    17.809544    22.629729    19.121353    7706.3861    7527.7151    6715.5207     6866.733    834.88337    -234.8887   -582.63642   -4348.5562 
40514000    58.953643   -5268.0361   -5150.1215   -5268.0361            0    7182.9258     17.77352    22.627219    19.161097    7705.9287    7736.8939    7153.5236      6658.36    348.07033    352.20094    392.40877   -4342.8823 
40515000    59.237472    -5270.744   -5152.2617    -5270.744            0    6092.0221    17.835619    22.631817    19.155466    7732.1512    6291.0506    6237.4428    5747.5728    93.905065    135.11506   0.20233306   -4465.2918 
40516000    57.968805   -5262.4101   -5146.4653   -5262.4101            0    7094.1434    17.874771    22.598947    19.076523    7705.9804    6854.7103    6978.4015    7449.3184   -705.05129   -185.02387   -1395.9208   -4349.1984 
40517000    60.262896   -5272.9423   -5152.4091   -5272.9423            0    6244.5063    17.863409    22.659406    19.108815    7734.7557    5717.6907    6774.8291     6240.999    150.84246    465.32246    -127.4256   -4448.0071 
40518000     57.13896   -5269.0886   -5154.8036   -5269.0886            0    6195.5502    17.798304    22.755032    19.056484    7717.8946    6527.8235    5647.4109    6411.4161   -418.57824     168.8003    -176.7123   -4457.4475 
40519000    56.810032    -5261.439   -5147.8119    -5261.439            0    7243.7992    17.838801    22.565041    19.142444    7705.4705    7516.7031    7255.2946    6959.3999    426.39497   -343.39406    701.79371   -4333.7799 
40520000    59.746989    -5269.325   -5149.8237    -5269.325            0    7023.7853    17.822086    22.605546    19.149497    7714.9106    7232.4955     7251.411    6587.4494   -385.27231   -267.84529     146.1453   -4359.5491 
40521000    58.844799   -5272.3982   -5154.7013   -5272.3982            0     6941.843    17.846708    22.607457    19.133134    7719.6204     7462.287    6646.5927    6716.6492   -38.726372    296.41589    332.32336   -4373.1696 
40522000    60.555811   -5266.9932   -5145.8741   -5266.9932            0    7469.1002    17.710135    22.732088    19.116698    7696.1602    7641.4774    7402.7875    7363.0358    125.72242     240.3279       454.66   -4307.5378 
40523000    58.506567   -5271.1682   -5154.1478   -5271.1682            0    6324.2591    17.787588    22.710504    19.105913    7718.1219    6642.5148    6417.4781    5912.7843    -176.7369   -462.28273   -353.53868   -4442.2836 
40524000    60.979286   -5262.6465   -5140.6804   -5262.6465            0    7065.3735    17.840022    22.527854    19.227857     7727.626    7930.4287      6635.27    6630.4219   -791.34062    347.05588   -243.93896   -4344.4163 
40525000    59.327676    -5258.985   -5140.3223    -5258.985            0    7546.9065    17.834887    22.714162    19.030152    7709.2004    7133.3416     7612.173    7895.2048    408.50271     688.5223   -187.87903   -4291.8177 
40526000    60.165564   -5264.3081   -5143.9696   -5264.3081            0    6464.3403    17.699622    22.843122    19.086878    7717.1038      6740.52    6101.8538    6550.6472    35.331438   -459.17065    -56.32712   -4416.4336 
40527000    59.523472   -5261.3124   -5142.2581   -5261.3124            0    6719.4044    17.793108    22.736479    19.099881    7726.9071    7307.0837    6096.7281    6754.4013   -355.67743    12.313758   -184.65393   -4385.0551 
40528000    56.607489   -5267.5795   -5154.3575   -5267.5795            0    6659.1573    17.825782    22.664205    19.128103    7727.8906    7647.4348    6237.5882     6092.449    481.59059   -725.85603   -89.541951   -4403.8481 
40529000    59.020258   -5265.3795   -5147.3317   -5265.3795            0    7297.0018    17.828377    22.624255    19.094351    7701.7779    7472.4513    7338.5679    7079.9862     182.0785    583.44078    78.924366    -4327.714 
40530000    62.230661   -5268.7468   -5144.2778   -5268.7468            0    6981.4514    17.899537    22.586277    19.089788    7717.6938    7414.6471    6762.7035    6767.0037    64.421117   -135.88825    828.35597    -4358.483 
40531000    62.412134   -5267.1308   -5142.2988   -5267.1308            0    6748.2908    17.867149    22.627978    19.126256    7732.6964      5516.28    7353.5227    7375.0696   -117.78466     -58.9449     396.6599   -4381.2708 
40532000    57.129717   -5261.3118   -5147.0453   -5261.3118            0    6540.9577    17.883158    22.596902    19.126478    7729.0858    6040.2793    6638.4417    6944.1523    84.816172      -439.35    299.31238   -4409.7434 
40533000    59.641828   -5268.2112   -5148.9202   -5268.2112            0    6633.5338    17.978998    22.532151    19.086944     7732.226    5439.7182    6804.9874    7655.8956   -216.36388     514.3639    -29.99316   -4400.8792 
40534000    57.211541   -5269.2191    -5154.789   -5269.2191            0    6937.1626    17.850175    22.592696    19.107345    7705.6783    7049.1344    6733.7328    7028.6205   -80.468887    98.676293    903.04331   -4375.1947 
40535000    56.601966    -5269.638   -5156.4271    -5269.638            0    7065.7435    17.824825    22.652479    19.091142    7708.5543    7713.2081    7035.1694     6448.853   -175.64852    103.69222   -223.02219   -4362.0866 
40536000    57.562663   -5271.5776   -5156.4451   -5271.5776            0    6786.4287    17.872414    22.625729    19.107158    7726.4833    6310.7589    7025.1673    7023.3598   -160.55636    367.38412    258.37412   -4391.7311 
40537000    61.472847   -5268.6652   -5145.7119   -5268.6652            0    7379.8837    17.795777    22.640472    19.113236    7700.8146    6961.7818    7478.8112     7699.058   -369.13253   -268.07951   -144.09687   -4316.8884 
40538000    59.371682   -5272.9632   -5154.2125   -5272.9632            0    6299.2477    17.873845    22.652038     19.12511    7743.3558    5623.8342    6192.9254    7080.9836    171.85908   -63.602905     688.6166   -4442.8453 
40539000    60.726902   -5271.3607   -5149.8994   -5271.3607            0     6443.385    17.834088    22.647273    19.108899    7717.9593     6944.098    6350.4011    6035.6559    67.051203   -80.844147   -302.33751   -4424.6415 
40540000    58.360421   -5263.8498   -5147.1218   -5263.8498            0    7167.8232    17.715709    22.650301    19.200773    7704.6202     7779.117    7740.6975    5983.6552    153.25618   -73.541425    250.91567   -4341.7166 
40541000    59.008801   -5267.1084   -5149.0835   -5267.1084            0    6454.4869    17.790793    22.692699    19.154607    7733.1195    7791.0312    5655.9515    5916.4779   -235.44467    -607.1207    61.637718    -4421.149 
40542000    58.559689   -5264.5256    -5147.399   -5264.5256            0    7201.5806    17.803165    22.700515    19.084783    7712.9437    7553.6509    6844.0795    7207.0114     443.0638   -264.80421    -771.1488   -4337.3265 
40543000    60.427965   -5266.9066   -5146.0432   -5266.9066            0    6294.1026    17.871578     22.73279    19.008293    7722.5154    5951.3045    5675.2074     7255.796   -556.94865   -375.33069    -413.6784   -4437.1701 
40544000    57.191548   -5268.5413   -5154.1511   -5268.5413            0    7381.4244    17.698418    22.743649    19.124066    7697.9455    7854.3188    7078.0487    7211.9056    110.48519    335.09622    762.23358   -4325.4634 
40545000    57.857263   -5269.7772   -5154.0555   -5269.7772            0    7525.6042    17.757003    22.709297    19.081713    7694.6828     6676.044    7909.8139    7990.9549    305.57768    301.26012    1988.8134   -4309.5393 
40546000    58.640494   -5272.4688   -5155.1806   -5272.4688            0    6688.9444     17.83859    22.688862    19.067956     7717.513    6347.8265    6528.6649    7190.3419    997.59908    125.37727    1199.7701   -4402.3264 
40547000    58.983339   -5266.2815   -5148.3075   -5266.2815            0    7508.7988    17.840465    22.598382    19.106434    7703.0579    7132.9322    7753.6453    7639.8188   -71.271825    124.71636    1031.9161   -4304.7601 
40548000    59.509025   -5273.0713   -5154.0459   -5273.0713            0    6764.3153    17.876711     22.56988     19.12347    7715.8466    6514.5268    7022.4209    6755.9981     79.67805   -196.33296    187.40884    -4392.873 
40549000    59.813446   -5265.6924   -5146.0581   -5265.6924            0    6857.7186    17.924013    22.394006    19.240548    7722.9725    6418.8702    7545.0199    6609.2657    51.984109    123.99899   -15.244577   -4373.6621 
40550000    58.719924   -5271.6615   -5154.2144   -5271.6615            0    6378.7961    17.958894    22.478363    19.139281    7726.2703    5359.5182    7095.9588    6680.9113   -136.16904   -312.43897   -681.97413   -4435.4534 
40551000    60.874374   -5258.6244   -5136.8682   -5258.6244            0    6185.8939    17.901514     22.63253    19.091376    7734.9961    6366.1831    5926.1796    6265.3189   -772.68684   -454.68927   -1078.9889   -4439.0561 
40552000    57.710347   -5269.5713   -5154.1435   -5269.5713            0    6748.5308      17.8873    22.620744    19.097343    7727.2443    6075.6327    7034.1974    7135.7624   -374.90716    265.12426   -283.73751    -4393.625 
40553000    58.294144   -5273.0529   -5156.4574   -5273.0529            0    6730.8039    17.771525    22.627098     19.17201    7709.4111    5749.8694    7307.1508    7135.3914    277.34563     142.5951    75.713071   -4399.6872 
40554000    59.628313   -5261.0038   -5141.7398   -5261.0038            0    7332.0821    17.807493    22.677006     19.08449    7706.7106    8009.0908    6772.1801    7214.9754    342.75306    162.49197    694.24712   -4317.6543 
40555000    60.992426   -5267.8842   -5145.8918   -5267.8842            0    6259.9312    17.722427    22.834572    19.103948    7731.0631    6872.0092    6061.8227    5845.9618   -382.08514    768.18619   -396.26079   -4440.0869 
40556000    61.710974   -5263.7135   -5140.2839   -5263.7135            0    7406.0389    17.815212    22.727336    19.069113    7720.9373    6370.7071    7394.0341    8453.3756    192.60601   -380.86971   -268.05356   -4306.3495 
40557000    55.367782   -5267.3144    -5156.572   -5267.3144            0    7128.0381    17.816048    22.739217    19.038363    7712.8787    7283.7888    6756.3456    7343.9799    565.14393    342.72367   -743.77067   -4354.7787 
40558000    61.367634    -5272.192   -5149.4491    -5272.192            0    6289.1137    17.837119    22.701392    19.044893    7711.7992    6700.5257    5977.1996    6189.6158    460.03384   -221.33826   -1076.3204   -4442.1208 
40559000    60.784928   -5270.5188   -5148.9415   -5270.5188            0    7350.1093    17.749419    22.667673    19.158082    7708.0248    7120.0337    7483.0956    7447.1986   -884.73207    15.063751   -1059.4247    -4322.689 
40560000    61.795429   -5273.0276   -5149.4292   -5273.0276            0     6733.521    17.874011    22.585865    19.113051    7715.9384    6829.8973    6644.2335    6726.4323     857.1084     541.7741   -38.520486   -4391.7124 
40561000    61.587899   -5265.6697   -5142.4863   -5265.6697            0    7267.4386      17.7704    22.669171    19.132339    7707.2758    8608.6725    6898.0139    6295.6293    82.607219   -332.34324   -733.51309   -4325.6065 
40562000    62.450783   -5259.4969   -5134.5877   -5259.4969            0    7967.2436    17.829102    22.711961    18.981624    7686.3024    7339.3475    7422.0319    9140.3516    818.68942   -154.88916    343.17884   -4241.4848 
40563000    59.366464   -5262.2897   -5143.5494   -5262.2897            0     6893.975    17.847688    22.531237    19.223328    7730.2862    7270.3592    7472.8078     5938.758   -157.81326    154.20158    716.29286   -4366.3344 
40564000    58.202351   -5267.2166   -5150.8047   -5267.2166            0    7115.5348    17.793634    22.663837    19.120698    7710.8427    7105.8683    6953.7845    7286.9517   -651.73583    112.84327    396.42674   -4350.6292 
40565000    55.846681   -5266.9218   -5155.2215   -5266.9218            0    6677.6983    17.767824    22.775309    19.091095    7725.5494    6995.8107    5906.9632    7130.3209   -383.26839   -93.533458    480.12251   -4402.8505 
40566000    62.148696   -5269.9658   -5145.6607   -5269.9658            0    5619.9757    17.785156    22.705484    19.213005    7758.6065    6081.3043    5271.2596    5507.3632    57.072396   -736.83497    938.34571   -4509.7531 
40567000    58.787111   -5270.6713   -5153.0898   -5270.6713            0    7288.2135    17.821982    22.645532    19.116543    7715.2123    7774.1955    6647.9211    7442.5238    261.74555   -288.62472    644.39134   -4333.0312 
40568000    59.045189   -5269.7139   -5151.6162   -5269.7139            0    6149.2803    17.885879    22.654206    19.108921    7742.7508    6464.0198    5764.3333    6219.4877   -543.75424   -510.60781    157.04253    -4457.239 
40569000    57.129645    -5269.887   -5155.6206    -5269.887            0    7424.6654    17.802945     22.64692    19.103897    7702.3452    6902.4022    7828.4589     7543.135     210.3022    503.46356    -696.5639    -4321.602 
40570000    58.693309   -5263.6636   -5146.2697   -5263.6636            0    6874.1303    17.816201    22.720689    19.084865    7725.4841    6926.7577    6552.2752    7143.3579    -222.5446   -173.67525   -837.12247   -4371.7734 
40571000    59.253456   -5263.9733   -5145.4591   -5263.9733            0    7142.0755    17.935462    22.414269     19.17155    7707.1601    6479.8501    8197.3274    6749.0488   -335.13637    108.87583   -579.39378   -4342.6825 
40572000     61.82229   -5265.3062    -5141.654   -5265.3062            0    5903.9232    17.888333    22.589428     19.19158    7755.0717    6339.9059    6166.7956    5205.0681    176.20818    54.360846    456.96755   -4473.9217 
40573000    57.546554   -5274.6856   -5159.5854   -5274.6856            0    6683.3867    17.847964    22.629184    19.094626    7712.0303    7419.5586    6054.5226    6576.0787   -246.65911   -584.83478   -1384.7651   -4407.8912 
40574000    55.254374   -5269.0882   -5158.5726   -5269.0882            0      5929.67     17.83583    22.657185    19.121728    7727.2757    6758.6392    5388.3608    5642.0098    -58.72203   -641.48841    510.05083   -4490.3321 
40575000    56.963196   -5267.5573   -5153.6239   -5267.5573            0     6840.717    17.857838    22.602147    19.127256    7720.2478    7156.5972    7049.6318    6315.9218   -8.6023687    373.82431   -654.82069   -4383.4146 
40576000    60.359399   -5273.1448   -5152.4186   -5273.1448            0    5508.1896    17.770342    22.732151    19.183624    7749.3806    5586.6297    6079.7249    4858.2141   -295.43132    892.93812    230.00685   -4529.9008 
40577000    54.454251   -5267.4715   -5158.5563   -5267.4715            0    6769.7847    17.763479     22.82415    19.014422    7709.1369     7471.621    5990.9898    6846.7433    350.05293   -511.58603    310.82036   -4397.4304 
40578000     61.80248   -5261.5484   -5137.9358   -5261.5484            0    7182.5339    17.774064    22.850518    18.971068    7705.0342    6740.4351    6638.9924    8168.1744    -386.0564     147.8183   -664.63367   -4330.8343 
40579000    59.345845   -5269.8124   -5151.1133   -5269.8124            0     7043.501    17.650056    22.773113     19.15794    7700.4713    8023.8505    6647.6158    6459.0368     320.1681    311.70044   -207.95348   -4360.1037 
40580000    62.011901   -5265.9468   -5141.9153   -5265.9468            0    7432.6393    17.715702    22.810162    19.110824    7722.6465    8504.7426    6888.9203    6904.2549    613.20872    1181.8951    511.02229   -4304.8003 
40581000    58.253741    -5266.381   -5149.8663    -5266.381            0    6118.3343    17.805515    22.790467    19.039143    7726.0081     5966.949    5967.0978    6420.9561    748.78863   -240.30946    551.00973   -4460.4775 
40582000    58.887929   -5271.2593   -5153.4762   -5271.2593            0    6408.9329    17.720186    22.806002    19.085626    7713.0093    7111.5024    5865.1454    6250.1508    403.05136     192.2416   -88.496041   -4432.5589 
40583000    59.850482    -5265.848   -5146.1396    -5265.848            0    6838.6319    17.716479    22.851221    19.072978    7721.5653    7339.8274    6596.5349    6579.5333   -215.84734    729.34495    547.88149   -4376.0337 
40584000     60.40845   -5259.9017   -5139.0774   -5259.9017            0    7442.4207    17.807471    22.758828    19.006061    7702.7223    6350.8104    7645.5472    8330.9044    98.384583   -244.91199    133.58587   -4303.0233 
40585000    58.379072   -5268.9704   -5152.2051   -5268.9704            0    6853.9999    17.765157     22.77457    19.052788      7708.64    7598.0755    6699.4048    6264.5193   -96.197157    383.63851   -299.71533   -4381.6605 
40586000    59.258758   -5275.0931   -5156.5683   -5275.0931            0    6269.1413    17.757263    22.642715    19.250829    7740.2318    7607.0316    6410.9031    4789.4891    342.36686      754.551   -921.73671   -4448.8867 
40587000    59.326373   -5274.1943   -5155.5342   -5274.1943            0    5700.5368    17.871643    22.648606    19.119894    7739.1175     5953.582    5137.4502    6010.5781    135.82009   -248.59802   -185.88222   -4512.1312 
40588000    58.406991   -5263.4136   -5146.5924   -5263.4136            0    7390.8778    17.872107    22.541885    19.093179    7692.0879     7196.757     7671.782    7304.0944   -50.652512   -270.34434   -556.20689   -4317.4747 
40589000    57.506993   -5277.8307   -5162.8096   -5277.8307            0    6039.5429    17.909262    22.428734    19.243718    7729.8566    5987.0393    7037.7297    5093.8598    0.2785007    220.01198    150.15734   -4481.9597 
40590000    58.260289   -5266.4424   -5149.9146   -5266.4424            0    7105.4338    17.860152    22.480582    19.186025     7703.316    6714.8772    7485.0318    7116.3923   -18.555752   -570.37064    682.81527   -4351.6549 
40591000    58.376257   -5269.7072   -5152.9475   -5269.7072            0    6186.7467    18.024234    22.407965    19.111261    7718.7783    4610.3583    6833.9167     7115.965   -383.72309   -678.25949   -639.22857   -4456.5025 
40592000    58.936566   -5270.7257   -5152.8453   -5270.7257            0    6911.1046    17.887844    22.567712     19.12751    7721.5406    6572.9575    6951.6057    7208.7505    -933.9687    -586.7933   -442.39331   -4374.5806 
40593000    58.904751   -5264.5491   -5146.7323   -5264.5491            0    6649.6402    17.839438    22.584996    19.196861    7734.4848    6856.9559    6963.2223    6128.7423    85.119293    491.53005    926.68261    -4396.656 
40594000    56.489879   -5262.5805   -5149.5938   -5262.5805            0    7856.3067    17.831802     22.51148    19.182784    7700.3578    8625.4129    7684.0216    7259.4855    334.18116    91.045909    1263.7349   -4267.3163 
40595000    58.363418   -5276.7606   -5160.0266   -5276.7606            0    6166.6953    17.831873    22.698519    19.118653    7738.4107    6063.7528    6013.9628    6422.3701   -719.53226    169.33036    158.36842   -4464.0732 
40596000    61.591462   -5269.2834   -5146.0928   -5269.2834            0    7112.7869    17.802886    22.726922     19.06683     7714.531    6533.7735    6832.6494    7971.9379    137.27016     318.2251    337.11961   -4345.8437 
40597000    58.398086   -5270.6507   -5153.8473   -5270.6507            0    5829.7941    17.907114    22.700986    19.050601    7744.2436    5986.3797    5730.2929    5772.7097   -33.284698    170.47744   -52.419005   -4495.4196 
40598000    58.264324   -5267.2213   -5150.6854   -5267.2213            0    6816.7892    17.757038    22.726068    19.113405    7713.1699    6629.3132    6785.7275    7035.3267    460.85034    149.86318    244.36608   -4383.8739 
40599000    57.313976   -5264.0683   -5149.4332   -5264.0683            0    6639.9212    17.699583    22.769349    19.134312    7711.2804    6856.5113    6517.8123    6545.4401   -10.465353    -42.73349   -374.90668   -4402.7003 
40600000    59.264863   -5267.7936   -5149.2566   -5267.7936            0    7205.4386    17.780791    22.702072    19.087951    7705.0574    8033.8499     6925.585    6656.8808    882.30833    184.84628    342.41236   -4339.5789 
40601000    56.927382    -5271.803   -5157.9412    -5271.803            0    7018.0441    17.759987     22.72182    19.086936    7702.3272    7483.6854    6702.9196    6867.5272   -464.91506   -798.30835   -520.45194   -4369.6005 
40602000    58.771148   -5262.2192   -5144.6696   -5262.2192            0     8210.301    17.716994    22.747277    19.074468    7687.2656    8902.3023    7341.4178    8387.1829    1109.3198   -8.8856807    535.12196   -4224.2055 
40603000    60.188754   -5266.8348   -5146.4498   -5266.8348            0    6317.9165    17.857904    22.717729    19.037069    7723.1683    6592.8793    5963.2728    6397.5975   -244.89801    405.68193    43.952488   -4434.8345 
40604000    60.631804   -5268.8688   -5147.5977   -5268.8688            0    6376.0668    17.773349    22.734562    19.127277    7728.7451    6164.2917    6722.5562    6241.3526    73.184546   -604.29423    332.80101   -4428.9141 
40605000    61.081345   -5262.0489   -5139.8786   -5262.0489            0     6417.949    17.840861    22.622286    19.135183    7722.9802    6368.8783    6972.8608    5912.1078    410.50482    482.49925   -157.77477   -4417.0139 
40606000    57.689315   -5271.8866   -5156.5009   -5271.8866            0    7261.3776    17.840148    22.577059    19.125674    7703.4026    7055.0519    7407.4519    7321.6289    292.52852   -100.21027    101.26055   -4340.7125 
40607000    57.960226    -5264.694   -5148.7663    -5264.694            0    6327.8482     17.80187    22.696874    19.143247    7734.7679    6539.1391    5784.5323    6659.8732    266.37916   -387.98734   -201.17989   -4434.9619 
40608000    60.185154    -5264.662   -5144.2842    -5264.662            0    7387.9308    17.815197     22.59863    19.133919    7703.2973    7120.3974     8028.777    7014.6179   -552.66858    458.17428   -167.29083   -4314.2894 
40609000    58.268818   -5268.3327   -5151.7879   -5268.3327            0    6998.0703    17.832491    22.692059    19.055701    7711.0024    5729.9876    7678.1849    7586.0385    147.69233   -141.12334    36.092038   -4364.8055 
40610000     60.76607   -5268.0582   -5146.5186   -5268.0582            0    6118.7472    17.779454    22.695579    19.168573    7734.8067     6774.308    5714.6619    5867.2717    235.54808   -680.73306     299.2377   -4456.2981 
40611000    64.457978   -5269.0542   -5140.1303   -5269.0542            0    6882.0349     17.88008    22.520157    19.167838    7718.1643     6179.095    7286.1878    7180.8218   -601.92962    495.16884   -399.54501    -4365.478 
40612000    58.901984   -5267.6212   -5149.8099   -5267.6212            0    6475.2379    17.792378    22.635632    19.179978    7724.5772    5807.3486    6638.8748    6979.4903    126.07745   -488.69192   -566.62729   -4420.3418 
40613000    58.247186   -5269.0815     -5152.58   -5269.0815            0    6291.4132    17.818632    22.709983    19.078532    7720.3348    5166.9055     6728.034       6979.3   -381.15245    266.04306    347.05359   -4444.2099 
40614000    60.778674   -5268.6224   -5147.0575   -5268.6224            0    6068.0688    17.816038    22.693824    19.139804    7738.4911    6045.0578    6061.4136    6097.7352   -402.32899    -330.1234   -1116.1743   -4462.2277 
40615000    57.682238    -5262.064   -5146.6924    -5262.064            0    7653.6213    17.763137    22.673938    19.116146    7699.2238    7716.3827    8016.0781    7228.4029    631.93896   -39.127523    780.94705   -4287.3034 
40616000    55.597911   -5264.7531   -5153.5504   -5264.7531            0    7599.3284    17.797403    22.768359    18.965905    7685.3194    7148.6569    7301.2576    8348.0707   -391.02799   -508.40055   -802.08301   -4301.7987 
40617000    57.620746   -5275.9977   -5160.7491   -5275.9977            0    6217.0679    17.900954    22.703516    19.056142    7744.6945    5779.6944    6246.3808    6625.1284      19.6768    525.00753   -407.49307   -4458.5411 
40618000    55.500882   -5268.2894   -5157.2807   -5268.2894            0    6039.8481    17.767149    22.753586    19.139999    7737.6573    5594.7362     6479.968    6044.8401    277.62951   -120.76177    131.28113   -4475.7093 
40619000     60.10569    -5273.308   -5153.0892    -5273.308            0    6542.6647    17.740353    22.756333     19.08696    7705.5083      6393.61    6362.1832    6872.2011   -820.70451    345.85665   -413.41672   -4417.8446 
40620000    58.290683   -5269.4159   -5152.8274   -5269.4159            0    6636.4154     17.80022    22.787879     19.05703    7730.0889    6119.5033    6073.9886    7715.7542   -32.485873    409.53993    289.51991   -4404.6683 
40621000    56.732423   -5269.5927   -5156.1209   -5269.5927            0    6903.9164    17.767162    22.746819    19.088844    7714.6882    8266.9549     6183.724    6261.0704   -867.84272   -49.039962    -886.5867   -4379.3556 
40622000     62.49802   -5269.1429   -5144.1391   -5269.1429            0    6633.1845    17.773762     22.82862    19.036938    7724.2463    7418.2411    5778.0978    6703.2147    240.21758   -45.393373    653.88579   -4396.9095 
40623000    59.050239   -5268.8772   -5150.7694   -5268.8772            0    6273.3478    17.839038    22.729393    19.060195    7728.3469    5795.2714    6015.7619      7009.01   -221.04608   -108.48414   -171.51753   -4443.7003 
40624000    59.434025   -5265.7864    -5146.911   -5265.7864            0    6918.2669    17.819102    22.770328    19.024934     7719.306    7380.2828    6704.5612    6669.9567     146.8929   -247.70772     299.7053   -4368.0652 
40625000    59.036388   -5260.7397   -5142.6596   -5260.7397            0    7215.7033    17.857486    22.659146    19.044803     7706.201    6995.7646    7316.4139    7334.9315   -626.02564    216.90385   -1255.3257   -4331.7081 
40626000    56.426841   -5265.3222   -5152.4615   -5265.3222            0    6491.2187    17.731295    22.716396    19.131319    7705.9252     7282.088    6427.1783    5764.3897   -425.47753    138.79024   -1623.2844   -4422.9588 
40627000    58.850396   -5270.8322   -5153.1242   -5270.8322            0    6758.9054    17.796883    22.755787    19.059162    7718.6189    6443.0451     6410.124    7423.5472    185.66496     97.36386    706.25217   -4392.2868 
40628000    56.535085   -5265.5926   -5152.5155   -5265.5926            0    7806.1185    17.806784    22.700902    19.016438    7687.0159    7041.6429    7724.1043    8652.6084   -20.254066   -26.413056    224.08604   -4277.3931 
40629000    60.449155   -5263.0111   -5142.1053   -5263.0111            0    5978.7273    17.848791    22.790783    19.018222    7736.3828    5834.4721    5614.7959    6486.9139    679.34845   -261.55667    95.167278   -4467.5422 
40630000    57.118739   -5270.8768   -5156.6323   -5270.8768            0    6433.6804    17.792534    22.705301    19.088673    7711.5343    5942.4052    6854.9351    6503.7007    194.76677   -123.70278    102.59434   -4433.0696 
40631000      55.7039   -5268.7626   -5157.3479   -5268.7626            0    7176.5873    17.791042    22.614718    19.131354    7697.2974    7000.4621    7092.3996    7436.9003    181.73111   -106.75406    105.60406   -4351.7244 
40632000    58.065333   -5258.3166   -5142.1788   -5258.3166            0    6938.6038    17.764317    22.639058    19.178076    7712.7969    6072.9228    7454.5311    7288.3573   -493.48039    383.49492    662.75852   -4361.7022 
40633000     60.11562   -5264.9407   -5144.7021   -5264.9407            0    6553.5637     17.75119    22.734179    19.137615    7723.1513    6192.8563    6711.0052    6756.8297    122.86506   -141.63281   -1383.6158   -4406.5464 
40634000    56.067792   -5267.7884   -5155.6459   -5267.7884            0    6715.0163    17.824659    22.678381    19.086655    7715.4827    6526.5315    6834.7833    6783.7343   -100.08992    161.52142   -238.04706   -4400.0561 
40635000    57.664882   -5267.9519    -5152.615   -5267.9519            0    7123.7465    17.789316    22.726867    19.070636     7710.171    7438.6313    6581.6148    7350.9935   -431.42938   -392.11597   -497.10908   -4351.5858 
40636000    62.072851   -5272.1398   -5147.9864   -5272.1398            0    5715.4108    17.762422    22.782711    19.148962    7749.1278    5774.1379    5679.5714     5692.523    340.83606    274.82255    55.021578   -4502.0702 
40637000    58.359842   -5269.1309    -5152.404   -5269.1309            0    7413.0741    17.741605    22.717029    19.124401    7707.8328    8135.3456    7158.8814    6944.9954    135.21897    143.56855    42.960748   -4319.0941 
40638000    57.983893   -5266.2983   -5150.3234   -5266.2983            0     7101.686    17.852124    22.639344    19.079236    7711.0714     7683.016      7038.82    6583.2221   -283.09377   -22.680501    1354.1922   -4351.6815 
40639000     55.73104   -5267.1155   -5155.6465   -5267.1155            0    7314.3569    17.787056     22.66536    19.088789    7695.6454    7157.4433    8023.1941    6762.4333    1643.0519    512.62783    136.55655   -4334.7336 
40640000     58.93397   -5266.1293    -5148.254   -5266.1293            0    6343.9772    17.876403     22.55661    19.213182    7747.3516    5735.0038    7205.7347    6091.1932   -93.952872    626.06244    1354.5546    -4431.466 
40641000    58.584139   -5271.3464   -5154.1708   -5271.3464            0    6839.8253    17.871515    22.534403    19.175577    7722.4635    6738.4528    7318.7366    6462.2865    722.27711    475.36112    366.67459   -4383.8409 
40642000    57.969866   -5263.9918   -5148.0449   -5263.9918            0    6593.1373    17.840135    22.590563    19.115484    7703.8975    5021.3535      7184.25    7573.8085    133.98453   -76.406633   -806.50796   -4407.2832 
40643000    55.573596   -5264.2987   -5153.1447   -5264.2987            0      7393.26    17.921379    22.526462     19.09792    7709.9307    5967.1701    7570.2299    8642.3799    265.81361   -158.06614   -391.18202   -4321.8359 
40644000    60.373131   -5269.5135   -5148.7598   -5269.5135            0    6696.2151    17.886355    22.523721    19.159592    7718.7724    7146.2662    6476.8946    6465.4845   -222.71916   -758.35061    758.48246   -4394.9643 
40645000    62.628624   -5276.4887   -5151.2237   -5276.4887            0    6906.7758    17.774462    22.666106    19.122348    7703.9704    7000.8405    7010.1768    6709.3099   -734.43924   -216.82124   -288.67289   -4375.2163 
40646000    57.204956   -5268.3685   -5153.9515   -5268.3685            0    6227.7899    17.823568     22.64155    19.161925    7732.8564    6687.3077    6297.7605    5698.3016   -144.30743     276.2854    71.536249   -4451.6077 
40647000     56.08981   -5272.7139   -5160.5273   -5272.7139            0    6877.2552    17.842743    22.655485     19.12222    7729.8896    7016.6745    7134.6021    6480.4892   -63.566247    425.42478   -430.07662    -4385.237 
40648000    57.709186   -5270.8501   -5155.4246   -5270.8501            0    5934.1336    17.764897    22.679361    19.212851    7740.7907    6547.7739    5941.5455    5313.0812     -447.373    118.83762    677.25936   -4485.5114 
40649000    60.885145   -5263.2988    -5141.521   -5263.2988            0    7702.5736    17.856817    22.550482    19.129027    7702.8735    7927.3115    7836.2622    7344.1471    328.71143    965.49021    47.689518   -4276.2254 
40650000    59.721987   -5273.2738   -5153.8225   -5273.2738            0    7414.0476    17.738353    22.722435    19.116109    7704.9119    8140.0936    7271.5475    6830.5016    714.41565    84.526095    693.84868    -4320.719 
40651000     60.58267   -5259.4549   -5138.2821   -5259.4549            0    6843.4465    17.786718    22.667508    19.126462    7711.4181    6667.8078    7142.4169    6720.1148    324.46352   -14.665188   -723.77822   -4368.6467 
40652000    59.059251   -5269.1912   -5151.0654   -5269.1912            0    6580.2774      17.8416    22.675875    19.135089    7741.5577    7101.7222    5969.7652    6669.3448   -437.74978    70.210424   -161.89824   -4408.1344 
40653000    60.182514    -5266.105   -5145.7325    -5266.105            0    6908.7637     17.80385    22.620875    19.146109    7710.8784    6678.5186    7137.8444     6909.928   -110.74475   -120.80006    415.81121   -4368.8057 
40654000    57.660552   -5269.8294   -5154.5012   -5269.8294            0    6211.0086    17.787366    22.695864    19.162569    7735.9222    6122.9799     6350.431    6159.6149   -380.69496    755.29195   -556.44119   -4453.7722 
40655000    57.784498   -5264.9812    -5149.405   -5264.9812            0    7968.7786    17.872835      22.5982    19.022308    7682.9942    8319.7162    7860.3821    7726.2377    246.19056    57.287113    577.46657   -4256.5146 
40656000    57.051194   -5273.5631   -5159.4537   -5273.5631            0    6508.5637    17.811169     22.69593    19.098266    7720.3028    6031.1591    6571.6064    6922.9256    683.65114   -182.55361    1651.4421    -4426.637 
40657000    59.626124   -5271.4308   -5152.1712   -5271.4308            0    6661.6885    17.839027    22.642643    19.114418    7720.7477    5543.6754    7026.2061    7415.1838    122.97438    -199.4096     585.1459   -4402.0705 
40658000    56.304237   -5272.2415   -5159.6261   -5272.2415            0    5986.3778    17.815617    22.737575    19.106984     7739.932    6217.6073    6243.2438    5498.2823    493.86923    640.19853    533.65055   -4483.8899 
40659000    61.038586   -5278.7638   -5156.6791   -5278.7638            0    6878.0179     17.79921    22.722269    19.072048    7713.4691    6583.8654    6763.6083    7286.5799   -28.986935   -290.25319   -1782.7667     -4382.95 
40660000    59.131835   -5261.9645   -5143.6935   -5261.9645            0    7806.7886    17.774286    22.631891    19.090507    7679.4565    7927.8808    8309.9241     7182.561    25.427724    98.920732    305.30559   -4269.3566 
40661000    59.071642   -5276.7727   -5158.6221   -5276.7727            0    6242.6006    17.840195    22.689987     19.10991    7735.5731    6453.9989    6422.0051    5851.7978   -70.413346   -29.202861   -1822.4296   -4454.3607 
40662000    59.243046   -5265.9863   -5147.4929   -5265.9863            0      6489.69    17.763406    22.900163    18.962606    7713.7019    6772.3851    6208.3702    6488.3146    139.47518    402.66575   -606.86943    -4417.426 
40663000    60.547279   -5269.8166   -5148.7145   -5269.8166            0    7715.8699    17.708231    22.757869     19.07358    7686.6834    7819.6601    7468.7416    7859.2079    42.034087     44.49829   -232.87693   -4283.7471 
40664000    57.477112   -5272.2475   -5157.2862   -5272.2475            0    6246.3343    17.806734    22.719016    19.140761    7743.4229    6570.8754    6557.5715    5610.5561     1141.118    779.42077    401.45636   -4451.8884 
40665000    57.675829   -5267.1429   -5151.7841   -5267.1429            0     7361.181    17.831545    22.694129     19.02742    7699.8526    6151.5378    7506.7044    8425.3006    949.24144    672.77688   -22.756128   -4325.1643 
40666000    62.018638   -5265.9682   -5141.9232   -5265.9682            0    6904.1114    17.784302     22.79695    19.061079    7727.8921       6326.6    6904.2988    7481.4356   -142.59748     286.3571    142.15016   -4363.8066 
40667000    58.989741   -5271.8592   -5153.8725   -5271.8592            0    6135.5397    17.766883    22.784678    19.102383    7732.8875    6958.5442    6050.1202    5397.9548    385.28156    102.95814    471.83312   -4461.9294 
40668000     60.74077   -5264.7316   -5143.2425   -5264.7316            0     7251.155     17.70463    22.787938    19.081687    7698.5449    8085.3822    7358.5018    6309.5811   -1379.1445    198.73908    -680.1607   -4329.1163 
40669000    63.677707   -5265.7436   -5138.3804   -5265.7436            0    7630.7949    17.724931    22.769751     19.07047    7696.6943    8512.5318    6806.6366    7573.2162    136.45308   -257.68126    300.46682   -4281.8359 
40670000    58.206026   -5268.1769   -5151.7577   -5268.1769            0    6528.7628    17.809966    22.626243    19.181916    7729.7872    6388.9375    6962.7954    6234.5554   -437.55137    823.42252   -707.60487   -4415.7636 
40671000    60.507078   -5267.5343   -5146.5127   -5267.5343            0    6402.1512    17.780611    22.638924    19.199012    7728.2534     6773.122    6934.2439    5499.0878   -454.84812    155.96152   -459.60989   -4424.9349 
40672000    58.982288   -5274.5995   -5156.6277   -5274.5995            0    6669.2169    17.821283    22.667233    19.117467    7722.6761    7095.3752    6541.4546    6370.8208    20.060892    -386.8957   -742.81723   -4405.4917 
40673000    58.026959   -5276.1336   -5160.0725   -5276.1336            0    6213.8313    17.866816    22.635629    19.111301    7729.1188    6554.3634    6310.4549    5776.6755    394.20768    448.28662   -896.97535   -4459.6415 
40674000    57.503628   -5268.5726   -5153.5583   -5268.5726            0    6319.6195    17.839177     22.71808    19.065211    7726.5931    6275.2843    6092.4484    6591.1258   -361.09588   -775.91215    515.74198   -4441.4355 
40675000    57.352051   -5266.1077   -5151.3965   -5266.1077            0    7074.9005    17.829368    22.488902    19.217352    7705.4453    7419.3484    7645.2233    6160.1298    152.88713    485.43154    -171.8576   -4356.3473 
40676000    59.068669   -5269.8927   -5151.7481   -5269.8927            0    6096.7698    17.909325    22.587222    19.098471    7725.7497    5413.5824    6924.0663    5952.6607    342.46256     715.4549   -223.61847    -4464.812 
40677000    60.715118   -5267.5064   -5146.0686   -5267.5064            0    7164.2171    17.831627    22.693386    19.071972    7717.6646    7325.6227     7178.441    6988.5877     304.7124    207.52177    1242.8632   -4339.7057 
40678000    58.210987   -5263.8085   -5147.3794   -5263.8085            0    7058.0793    17.805219    22.679123    19.115445    7718.9458    7954.1178    6813.7673    6406.3528   -738.18468   -495.75328   -617.70049   -4352.8309 
40679000    60.320691   -5268.0315   -5147.3827   -5268.0315            0    6501.0838    17.901631    22.575345    19.111481     7723.628    5863.8782    6887.3049    6752.0682   -651.67205    420.37865   -1772.3684   -4415.0928 
40680000    59.732844   -5266.8398   -5147.3667   -5266.8398            0    7316.3322    17.797633    22.711629    19.073759     7709.866    7371.0626    7303.0026    7274.9315   -1015.1824    459.87221    305.33116   -4324.7148 
40681000    58.832676   -5270.4413   -5152.7687   -5270.4413            0    7108.5167    17.785484    22.698581    19.085765    7705.0232    6095.1973    7013.4425    8216.9103    32.409359   -318.88219   -507.48305   -4353.9856 
40682000    61.235133   -5271.5228    -5149.045   -5271.5228            0    6125.8182    17.756633    22.698096     19.14443    7716.0047    6390.4718    6092.6379    5894.3449   -641.23773   -340.25185    67.738417   -4459.7066 
40683000    59.071182   -5275.7284   -5157.5788   -5275.7284            0    6878.0684    17.879179    22.691889    19.014406    7714.3793    6137.0291    6679.9011    7817.2751    100.34571    133.85851    583.47585   -4383.7527 
40684000    55.465158   -5269.3361   -5158.3989   -5269.3361            0    6237.3342    17.923382    22.658677    19.041652    7733.1979    5998.9309     6160.121    6552.9507    288.58265    478.44124    265.89136   -4454.9476 
40685000    60.616498   -5265.3273   -5144.0868   -5265.3273            0    6421.4221    17.723751     22.71936     19.16982    7719.1551    6010.9194    6693.4775    6559.8694   -50.335535   -567.96946    654.06684   -4421.1891 
40686000    60.408697   -5268.3418   -5147.5169   -5268.3418            0     6377.166    17.836704    22.690495    19.097148    7729.0672    5524.7063    6687.4645     6919.327    43.460843   -143.41816   -526.59114   -4428.6795 
40687000    57.532299   -5270.4473   -5155.3756   -5270.4473            0    6543.0986    17.817921    22.798255    19.023306       7727.6    6539.3631    6263.7941    6826.1385   -72.702339   -624.45269    72.259033   -4417.9742 
40688000    59.238673   -5262.0174   -5143.5327   -5262.0174            0    6711.5237    17.721436    22.803036    19.082193    7711.1629    7637.3098    6047.3191    6449.9422   -222.69323   -655.23093   -2176.7049   -4388.7588 
40689000    56.079048   -5267.9058   -5155.7408   -5267.9058            0    6967.3496    17.788471    22.682004    19.095192     7704.493    6633.2904    7550.0497    6718.7086    605.61208    222.19329    792.64902   -4372.8746 
40690000    62.005899   -5265.3109   -5141.2915   -5265.3109            0    6868.6332    17.812641    22.634602    19.152153    7721.8041    7272.0803    6569.7276    6764.0917    527.45365    -46.87225   -522.71241   -4367.7831 
40691000    60.380795   -5269.6994   -5148.9303   -5269.6994            0     6244.031    17.863698    22.693932    19.078663    7734.4433    5916.0937    6019.5657    6796.4337   -292.56439   -339.61276    649.57424   -4444.6104 
40692000     61.05367   -5268.7339    -5146.619   -5268.7339            0    6822.5355    17.824928    22.640887    19.114213    7713.9647    7376.7251     6436.091    6654.7905   -378.42395    355.39099   -353.19513   -4379.0819 
40693000    56.100321   -5266.3012   -5154.0937   -5266.3012            0    6610.1062    17.843115    22.731044    19.082038    7739.5342    6760.9872    6261.2447    6808.0868    145.52282   -5.5984032    787.18339     -4407.99 
40694000    62.669792   -5273.2882   -5147.9409   -5273.2882            0    6434.0165    17.789336    22.687483    19.097213    7707.5447    6516.5955    6416.3908    6369.0631    196.97735   -256.38762    875.87111   -4424.7147 
40695000    56.770744   -5263.4878   -5149.9393   -5263.4878            0    7119.2326    17.890396      22.6185     19.06859    7716.1796    6575.4652    7224.6989    7557.5338    106.32366    57.149946   -227.83603   -4348.7938 
40696000    56.577799   -5267.7189   -5154.5563   -5267.7189            0    6600.1822      17.8387      22.7392    19.060526    7731.6688    6535.2576    6366.1252    6899.1637    423.77813   -300.34314   -175.42114     -4410.33 
40697000    58.504958   -5264.2081    -5147.191   -5264.2081            0    7127.3537    17.659047    22.757573       19.173    7705.1888    8093.4925    6918.4995    6370.0691    148.89102    -101.3461   -62.412205    -4346.274 
40698000    58.501912   -5270.1978   -5153.1868   -5270.1978            0    6152.5037    17.880706    22.679934     19.08426    7739.3014    6743.0379     5608.603    6105.8703    807.43248    -654.8893    1075.3412   -4458.7551 
40699000    61.272323    -5268.052   -5145.4998    -5268.052            0    7035.7881    17.793637    22.734072    19.077456    7717.2475    6434.1314    6742.6802    7930.5526    -582.0313   -307.63495   -967.18562    -4353.635 
40700000    59.396351   -5269.9034   -5151.1034   -5269.9034            0    7065.8945    17.747676    22.763764    19.058074    7699.5365    6424.8391    7027.8947    7744.9495   -301.69697    264.66316   -248.26004   -4357.6752 
40701000    60.621132   -5272.8593   -5151.6095   -5272.8593            0    6509.2058       17.818    22.694616    19.118519    7731.0068    6606.9101    6109.2033    6811.5042   -627.10798    -548.0628     -2.04308   -4417.7043 
40702000     59.81212   -5273.5698   -5153.9381   -5273.5698            0    6352.9202    17.786767    22.763796    19.081952    7726.1746    6581.4651    6065.1924     6412.103    15.315115   -197.33364    442.52773   -4438.1017 
40703000    57.050508   -5272.9172   -5158.8092   -5272.9172            0    5871.0647    17.832185     22.68432    19.139238    7742.0323    5456.5952    6071.6363    6084.9625   -580.11513    611.46134   -714.90314   -4495.9096 
40704000    56.807297   -5268.8824   -5155.2607   -5268.8824            0    7671.3515    17.834134    22.536109    19.171009    7705.0582    6915.8946    8823.3784    7274.7814   -505.00233    439.27947   -219.07109   -4293.2281 
40705000    56.898377   -5270.9102   -5157.1064   -5270.9102            0    6751.2254    17.842748    22.586485    19.154848    7719.4989    6836.8648    7036.0671    6380.7444   -561.23232   -109.98907   -371.73983   -4397.0469 
40706000    58.674119   -5271.3585    -5154.003   -5271.3585            0    7044.5514    17.858549    22.657688    19.060111    7712.3577    6528.3213    7178.3703    7426.9625   -565.13933     687.0045    1082.8331   -4361.6542 
40707000    56.742563   -5267.8914   -5154.3992   -5267.8914            0    6032.2941     17.79074    22.771227    19.113612    7743.2485     5691.402    6103.5933     6301.887    582.29368   -115.26692    1072.5323   -4473.1883 
40708000    59.891948   -5266.8736   -5147.0823   -5266.8736            0    6515.8624    17.875109    22.633522    19.095458    7725.5769    6223.6173    6659.9028     6664.067   -153.04248    133.95017    150.39703   -4412.9426 
40709000    60.017098   -5273.0939   -5153.0523   -5273.0939            0    5761.9707    17.879695    22.635597    19.132311    7743.1823    5474.1982    6099.0298    5712.6841   -3.0530668    37.554932    3.1171251   -4502.3738 
40710000    60.561412   -5268.0899   -5146.9596   -5268.0899            0    6670.1893    17.775738    22.750448    19.071586    7712.6638    6964.5804    6479.8729    6566.1146    117.15612   -384.01834    82.090991   -4396.6881 
40711000     60.00103   -5268.9607   -5148.9512   -5268.9607            0     5968.735    17.752051    22.837564    19.061275       7727.7    5877.8985    5885.6962    6142.6104    110.67301   -305.73238    200.89978   -4476.2713 
40712000    59.025749   -5271.4773   -5153.4185   -5271.4773            0    6166.0462    17.809506    22.802023    19.044207    7733.7146    5578.6492    6549.7731    6369.7162     181.3415      353.346    390.34225   -4457.9606 
40713000    57.940067   -5266.5466   -5150.6593   -5266.5466            0    6946.9722    17.769912    22.804351    19.034789    7713.4927    6542.8733    6825.5207    7472.5227   -148.65246    265.39089   -191.01757   -4369.1709 
40714000    56.226139   -5262.6052   -5150.1459   -5262.6052            0    6985.3238    17.820543    22.807392    18.986538     7716.891     7256.753    6365.0355    7334.1829   -569.09912   -248.94037   -410.14872   -4363.9971 
40715000      57.7718    -5276.394   -5160.8432    -5276.394            0     6109.288    17.792428    22.811679    19.052923     7733.108    6426.2637    5114.1609    6787.4394    542.12257   -255.46396   -428.77014   -4471.8411 
40716000     58.46593    -5266.232   -5149.2929    -5266.232            0    7343.5334    17.694267    22.828618    19.082003    7707.9014    7965.9331    7049.5594    7015.1078   -216.47101   -192.03206    101.48909   -4323.7929 
40717000    56.963229   -5271.2919   -5157.3584   -5271.2919            0     7217.294    17.769318    22.695164    19.100864    7702.9502    7229.3971     7468.625    6953.8598    331.68343   -164.04352   -327.22318   -4346.5703 
40718000    57.633914   -5259.8628   -5144.5879   -5259.8628            0    6946.4786     17.85449     22.65254    19.043256    7702.0365    7102.4628    7395.1715    6341.8015   -438.81198    517.40555    -347.7436   -4364.3156 
40719000    56.837503   -5262.1704   -5148.4884   -5262.1704            0    7745.9368    17.692098    22.784808    19.081278    7691.8739    7703.0341    7243.2539    8291.5225    1104.3424   -588.37954   -731.20021    -4279.564 
40720000    57.303125   -5269.9571   -5155.3438   -5269.9571            0    7388.0109    17.725054     22.72244    19.096201    7691.1185    7949.6507    7117.0915    7097.2904    433.89822    81.739283    44.624145   -4326.6522 
40721000    59.608196   -5272.9932   -5153.7695   -5272.9932            0    7198.0422    17.796264    22.653105    19.108614    7703.4589    8204.8416    6415.0151    6974.2699   -112.32061   -573.55445   -630.02426   -4345.0907 
40722000    56.287328   -5272.1435   -5159.5619   -5272.1435            0    7090.8078    17.787747    22.661016    19.107606    7702.0548    6529.0169    7584.3957    7159.0107    685.97596      439.884   -136.54219   -4363.0758 
40723000    58.133279   -5277.0374   -5160.7636   -5277.0374            0    5952.0994    17.820097    22.643491    19.185731    7741.6191    5932.8443    5903.3547    6020.0991    276.75851    -446.7569    398.64369   -4488.7503 
40724000    57.481823   -5263.7613   -5148.7905   -5263.7613            0    7404.4015    17.821032    22.664294     19.04869    7693.7873    7470.4681    7379.6439    7363.0926    482.14811   -230.22914   -164.13944   -4317.9723 
40725000    58.373995   -5268.3789   -5151.6237   -5268.3789            0    7624.8545    17.810584    22.703702    19.016615    7689.6761    7353.0437     7421.435    8100.0849    153.52657   -164.13657    302.60163   -4296.5265 
40726000    57.958509   -5270.8515   -5154.9273   -5270.8515            0    5932.1155    17.865193    22.538724     19.21381    7736.6071      5674.26    6220.6499    5901.4365    451.54491   -34.205633    129.79583   -4485.6039 
40727000    63.526787   -5265.5121   -5138.4506   -5265.5121            0    6699.1642    17.842578    22.664645    19.122386    7733.0104    6091.3204    7098.0308    6908.1413   -442.70817    554.64397   -235.99062   -4382.9321 
40728000    61.736527   -5264.8886   -5141.4079   -5264.8886            0    7574.3935    17.737028    22.756787    19.064593    7695.1899    7696.8404    7399.7418    7626.5983    320.92916   -650.22105    150.37106   -4291.3606 
40729000    61.311278   -5271.1788   -5148.5487   -5271.1788            0    6405.0988    17.805687    22.746903    19.073267    7725.1352    7012.8851    6359.7881    5842.6232    89.984812     10.57468     684.0939   -4426.9299 
40730000    61.718014    -5264.686   -5141.2423    -5264.686            0    6672.3822    17.766198    22.771252    19.077529    7717.9779    6650.8311    6444.8002    6921.5154   -109.00228    686.16995    647.24988   -4390.2071 
40731000    61.434092   -5267.8841   -5145.0083   -5267.8841            0    6823.6425     17.77893    22.796769    19.063457    7726.4602    5973.2264    6996.2082     7501.493   -409.96935    517.20134   -366.81388   -4376.1033 
40732000    59.000568   -5268.6389   -5150.6304   -5268.6389            0    6588.5615    17.735614    22.808012    19.076932    7716.8877    6663.7822    6726.5038    6375.3984     -65.8895    350.02912   -403.89126   -4409.1347 
40733000    58.410565    -5269.661   -5152.8327    -5269.661            0    7301.8247    17.729544    22.749545    19.108096    7707.0415    7129.6728    7355.3436    7420.4575   -684.93802    313.14661    185.85328   -4332.1127 
40734000    58.391014   -5266.3576   -5149.5683   -5266.3576            0    5625.8814    17.789567    22.856123    19.068541    7753.2789    5712.4251    5092.9788    6072.2402   -651.14393    54.907115   -542.83878   -4513.4296 
40735000    57.152873   -5268.3545   -5154.0417   -5268.3545            0    6833.8262     17.81837    22.792949    18.972414    7705.3272    5732.7969    6769.1659    7999.5159    97.319211   -278.91302    -361.8657   -4386.0953 
40736000    60.106147   -5272.3785   -5152.1587   -5272.3785            0    7191.7185    17.741748    22.755457    19.068287    7698.2791    7032.6166    6916.8143    7625.7246    107.33166   -228.64916      505.612   -4344.7337 
40737000     56.65107   -5266.0278   -5152.7186   -5266.0278            0    6920.5649    17.758506    22.700923     19.15906    7723.6775     7009.329    7061.5282    6690.8376    26.391811    578.76664    72.406188    -4373.173 
40738000    57.849935   -5263.5941   -5147.8871   -5263.5941            0    6465.4671    17.843587    22.677795    19.116055    7735.3729    6595.8401    6400.1297    6400.4315   -766.44889   -228.58947   -264.34692   -4418.5017 
40739000    59.632155   -5267.1129   -5147.8412   -5267.1129            0    7187.9482    17.748374    22.861742     18.99177    7706.0769    8004.6709    6159.4628    7399.7108   -613.78052   -129.21899    43.738805    -4340.022 
40740000    57.953992   -5263.3076   -5147.3924   -5263.3076            0    6077.1884    17.800802    22.741041    19.124539    7741.7811    6845.8444    5698.2973    5687.4235   -469.95679    718.57303   -1102.1604   -4461.2418 
40741000    58.389449   -5268.7812   -5151.9951   -5268.7812            0    7229.3822    17.794345    22.698815    19.046224    7692.9708    7069.0599    7211.3057    7407.7811   -231.97059    124.91309   -1008.4136   -4340.9011 
40742000    57.577061   -5268.7349   -5153.5737   -5268.7349            0    6721.2606    17.827186    22.541576    19.208489    7718.9863    6820.4731    7333.2478    6010.0609   -46.935702    404.26883   -679.57598   -4396.9379 
40743000    61.368796   -5267.1715   -5144.4264   -5267.1715            0    6215.0802    17.865778     22.79034     18.98762    7731.1354    6483.7119    5873.7754    6287.7532    146.44227     651.6407    -400.6691   -4443.6719 
40744000    60.304403   -5265.0677   -5144.4515   -5265.0677            0    6482.1253    17.767059    22.791517    19.071623     7722.829    6426.0744     5764.098    7256.2035   -354.69586   -38.260043   -162.17289   -4414.3727 
40745000    61.454684    -5266.766    -5143.849    -5266.766            0    6932.7158    17.779448    22.692971    19.137734    7721.4727    7178.0557    6544.3622    7075.7293    751.51526   -351.24969   -621.70424   -4363.1576 
40746000    56.803796   -5262.9275   -5149.3129   -5262.9275            0    7416.7832    17.786147    22.716648    19.052101    7697.8417    7631.5241    6688.0244    7930.8012    380.98403   -530.74129    206.91068   -4316.6668 
40747000    60.048687   -5273.6288    -5153.524   -5273.6288            0    6138.4088    17.792304    22.718158    19.138373    7735.8908    6639.8872    5592.9851     6182.354   -192.70311   -482.49217    981.07693   -4460.9885 
40748000    62.639866   -5270.0417   -5144.7542   -5270.0417            0    6736.3156    17.823001    22.561147    19.193603    7717.8888    5721.5276    7355.8708    7131.5484    256.76209    216.85359    1143.3748   -4386.5314 
40749000    57.892887   -5270.7358   -5154.9428   -5270.7358            0    6517.8998     17.84006    22.613728    19.161982    7730.5236    5641.4979    6532.2933    7379.9082    258.37947    173.25102    113.17268   -4420.1034 
40750000    60.306679   -5263.5263   -5142.9055   -5263.5263            0    7015.7462    17.856188    22.596764    19.113097     7711.983    7082.8885    6561.3144    7403.0356    90.559382    -90.22847    484.28674    -4353.835 
Loop time of 443.57 on 64 procs for 250000 steps with 1008 atoms

Performance: 97.392 ns/day, 0.246 hours/ns, 563.609 timesteps/s
196.8% CPU use with 32 MPI tasks x 2 OpenMP threads

MPI task timing breakdown:
Section |  min time  |  avg time  |  max time  |%varavg| %total
---------------------------------------------------------------
Pair    | 35.933     | 39.754     | 45.171     |  36.2 |  8.96
Bond    | 0.99173    | 1.18       | 1.3789     |   9.9 |  0.27
Kspace  | 214.36     | 224.01     | 232.09     |  26.6 | 50.50
Neigh   | 0.40532    | 0.44257    | 0.497      |   3.6 |  0.10
Comm    | 69.351     | 77.499     | 83.707     |  36.7 | 17.47
Output  | 0.47938    | 0.47971    | 0.48115    |   0.0 |  0.11
Modify  | 88.663     | 91.001     | 93.182     |  13.7 | 20.52
Other   |            | 9.207      |            |       |  2.08

Nlocal:        31.5000 ave          36 max          28 min
Histogram: 3 4 4 5 0 7 3 1 4 1
Nghost:        2977.50 ave        2991 max        2964 min
Histogram: 3 3 2 4 2 6 3 5 2 2
Neighs:        10833.4 ave       12343 max        9549 min
Histogram: 3 4 4 2 5 5 3 1 2 3

Total # of neighbors = 346670
Ave neighs/atom = 343.91865
Ave special neighs/atom = 2.0000000
Neighbor list builds = 1030
Dangerous builds = 0

unfix		3
unfix		2
unfix		1

write_data	data.final.${pid}
write_data	data.final.0
System init for write_data ...
PPPM initialization ...
  extracting TIP4P info from pair style
  using 12-bit tables for long-range coulomb (../kspace.cpp:340)
  G vector (1/distance) = 0.38003241
  grid = 24 27 32
  stencil order = 5
  estimated absolute RMS force accuracy = 0.0023815754
  estimated relative force accuracy = 7.1720435e-06
  using double precision FFTW3
  3d grid and FFT values/proc = 5355 672
Last active /omp style is kspace_style pppm/tip4p/omp
WARNING: Not all mixed pair coeffs generated from mixing. Use write_data with 'pair ij' option to store all pair coeffs. (../write_data.cpp:312)

write_restart   restart.lmp.${pid}
write_restart   restart.lmp.0
System init for write_restart ...
PPPM initialization ...
  extracting TIP4P info from pair style
  using 12-bit tables for long-range coulomb (../kspace.cpp:340)
  G vector (1/distance) = 0.38003241
  grid = 24 27 32
  stencil order = 5
  estimated absolute RMS force accuracy = 0.0023815754
  estimated relative force accuracy = 7.1720435e-06
  using double precision FFTW3
  3d grid and FFT values/proc = 5355 672
Last active /omp style is kspace_style pppm/tip4p/omp
Total wall time: 0:07:23
