LAMMPS (30 Jul 2021)
  using 1 OpenMP thread(s) per MPI task
package omp 0
using multi-threaded neighbor list subroutines
echo both

include		in.partitions
variable        pid world 0
include		in.temp
variable        temperature equal 245.21
variable	tempDamp equal 100.0
include		in.pressure
variable        pressure equal 625.0
variable        pressureDamp equal 1000.0 # This is 1 ps
include		in.seed
variable        seed world 745823

units		real
atom_style	full
read_restart	restart.lmp.${pid}
read_restart	restart.lmp.0
Reading restart file ...
  restart file = 30 Jul 2021, LAMMPS = 30 Jul 2021
  restoring atom style full from restart
  orthogonal box = (0.053798237 1.1548985 0.065633724) to (18.153774 22.474279 22.147562)
  4 by 4 by 4 MPI processor grid
  restoring pair style lj/cut/tip4p/long/omp from restart
  restoring bond style harmonic/omp from restart
  restoring angle style harmonic/omp from restart
  864 atoms
  576 bonds
  288 angles
Finding 1-2 1-3 1-4 neighbors ...
  special bond factors lj:    0        0        0       
  special bond factors coul:  0        0        0       
     2 = max # of 1-2 neighbors
     1 = max # of 1-3 neighbors
     1 = max # of 1-4 neighbors
     2 = max # of special neighbors
  special bonds CPU = 1.682 seconds
  read_restart CPU = 2.072 seconds
include 	in.setup
variable	out_freq equal 1000
variable	out_freq2 equal 10000
variable	out_freq3 equal 1000

timestep	2.0

neigh_modify    delay 7 every 1

include		in.tip4p
# This is TIP4P/Ice

# create groups ###
group ox type 2
288 atoms in group ox
group hy type 1
576 atoms in group hy

# set charges - beside manually ###
set group ox charge -1.1794
Setting atom values ...
  288 settings made for charge
set group hy charge 0.5897
Setting atom values ...
  576 settings made for charge

# ### TIP3P Potential Parameters ###
pair_style lj/cut/tip4p/long/omp 2 1 1 1 0.1577 8.5
pair_coeff 1 1*2 0.000 0.000
pair_coeff 2 2 0.21084 3.1668
bond_style  harmonic
bond_coeff  1 450 0.9572
angle_style harmonic
angle_coeff 1 55 104.52
kspace_style pppm/tip4p/omp 1.0e-5
pair_modify tail yes

thermo          ${out_freq}
thermo          1000
thermo_style    custom step temp pe etotal epair emol press lx ly lz vol pxx pyy pzz pxy pxz pyz enthalpy

restart 	${out_freq3} restart.lmp.${pid} restart2.lmp.${pid}
restart 	1000 restart.lmp.${pid} restart2.lmp.${pid}
restart 	1000 restart.lmp.0 restart2.lmp.${pid}
restart 	1000 restart.lmp.0 restart2.lmp.0


include         in.dump
dump            myDump all atom ${out_freq2} dump.water.${pid}
dump            myDump all atom 10000 dump.water.${pid}
dump            myDump all atom 10000 dump.water.0
dump            myDump2 all dcd ${out_freq2} dump.dcd
dump            myDump2 all dcd 10000 dump.dcd
dump_modify     myDump append yes
dump_modify     myDump2 append yes


variable natoms 	equal  "count(all)"                        # NUMBER ATOMS
variable H      	equal  "enthalpy/v_natoms"                 # ENTHALPY-per-atom
variable Vol      	equal  "vol/v_natoms"                 # volume-per-atom
fix AVG all 		ave/time ${out_freq} 1 ${out_freq} v_Vol v_H file vol_enthalpy.dat
fix AVG all 		ave/time 1000 1 ${out_freq} v_Vol v_H file vol_enthalpy.dat
fix AVG all 		ave/time 1000 1 1000 v_Vol v_H file vol_enthalpy.dat


timer           timeout 23:50:00 every 1000
New timer settings: style=normal  mode=nosync  timeout=23:50:00

fix 		1 all shake 1e-6 200 0 b 1 a 1
       0 = # of size 2 clusters
       0 = # of size 3 clusters
       0 = # of size 4 clusters
     288 = # of frozen angles
  find clusters CPU = 1.218 seconds
fix             2 all nph iso ${pressure} ${pressure} ${pressureDamp}
fix             2 all nph iso 625 ${pressure} ${pressureDamp}
fix             2 all nph iso 625 625 ${pressureDamp}
fix             2 all nph iso 625 625 1000
fix             3 all temp/csvr ${temperature} ${temperature} ${tempDamp} ${seed}
fix             3 all temp/csvr 245.21 ${temperature} ${tempDamp} ${seed}
fix             3 all temp/csvr 245.21 245.21 ${tempDamp} ${seed}
fix             3 all temp/csvr 245.21 245.21 100 ${seed}
fix             3 all temp/csvr 245.21 245.21 100 745823

run             250000
PPPM initialization ...
  extracting TIP4P info from pair style
  using 12-bit tables for long-range coulomb (../kspace.cpp:340)
  G vector (1/distance) = 0.37194138
  grid = 24 25 25
  stencil order = 5
  estimated absolute RMS force accuracy = 0.003253906
  estimated relative force accuracy = 9.7990412e-06
  using double precision FFTW3
  3d grid and FFT values/proc = 2940 384
Last active /omp style is kspace_style pppm/tip4p/omp
Neighbor list info ...
  update every 1 steps, delay 7 steps, check yes
  max neighbors/atom: 2000, page size: 100000
  master list distance cutoff = 10.8154
  ghost atom cutoff = 10.8154
  binsize = 5.4077, bins = 4 4 5
  1 neighbor lists, perpetual/occasional/extra = 1 0 0
  (1) pair lj/cut/tip4p/long/omp, perpetual
      attributes: half, newton on, omp
      pair build: half/bin/newton/omp
      stencil: half/bin/3d
      bin: standard
Per MPI rank memory allocation (min/avg/max) = 9.233 | 9.238 | 9.252 Mbytes
Step Temp PotEng TotEng E_pair E_mol Press Lx Ly Lz Volume Pxx Pyy Pzz Pxy Pxz Pyz Enthalpy 
13500000    261.40897   -3951.1127   -3503.0667   -3951.1127            0    662.87983    18.099976    21.319381    22.081928    8520.9807    1320.0541   -200.49453    869.07994    166.18218    1282.7443   -2118.7236   -3420.6907 
13501000    252.45658   -3967.5457   -3534.8438   -3967.5457            0    925.80126    18.044506    21.254045    22.014255    8442.8793    952.74101    531.91179     1292.751   -1070.0057    613.34872     49.77595   -3420.8492 
13502000    245.97378   -3962.0151   -3540.4245   -3962.0151            0    -138.2558    18.195368     21.43174    22.198306    8656.4155   -1129.2877    781.92767   -67.407391   -6.5092248    420.43921   -391.59328   -3557.8786 
13503000    241.43462   -3954.9791   -3541.1684   -3954.9791            0   -208.86253    18.095645    21.314279    22.076645    8514.8654   -588.26477    521.90595   -560.22876    187.18935    94.105641    498.43317    -3567.105 
13504000    228.19731   -3969.6237   -3578.5013   -3969.6237            0    1301.0841    18.096813    21.315655    22.078069    8516.5139    2649.1316     764.5304    489.59023   -1662.4342   -117.44021   -567.03837   -3416.9007 
13505000    250.30648   -3957.9731   -3528.9564   -3957.9731            0    1933.0165    18.052129    21.263023    22.023555    8453.5838    2162.6463    2014.2905    1622.1125    920.29228   -570.87905   -36.061367   -3290.6409 
13506000    243.12401   -3928.9875   -3512.2812   -3928.9875            0    1400.4557     17.96353    21.158665    21.915464     8329.724    3584.8515    1312.7019   -696.18617    1789.9207   -203.15201   -225.32548   -3342.1532 
13507000    246.84988   -3959.6999   -3536.6077   -3959.6999            0     906.1853    18.086033    21.302958    22.064918    8501.3043    242.40488    163.56689    2312.5841    236.15365   -61.270251   -566.87075   -3424.2563 
13508000     250.5158   -3956.5605    -3527.185   -3956.5605            0     50.76072    18.184861    21.419365    22.185488     8641.429    2272.3258   -503.98452   -1616.0591    196.18768    891.55994   -1210.5941   -3520.7878 
13509000    249.66856   -3942.5003   -3514.5769   -3942.5003            0    2311.2309    18.029133    21.235937      21.9955    8421.3185    2250.7133    1942.4758    2740.5036   -155.76385   -86.001508   -391.95782   -3230.7201 
13510000    245.92786   -3960.4713   -3538.9594   -3960.4713            0    257.63714    18.166436    21.397662    22.163009     8615.188    558.94157   -2553.0289    2766.9988   -56.066897    1304.9185    146.28299   -3506.5889 
13511000    242.49498   -3955.9476   -3540.3195   -3955.9476            0    1097.5216    18.097359    21.316298    22.078735    8517.2847    3123.5602   -763.64975     932.6543    229.02469    217.85319    930.98218   -3403.9899 
13512000    255.01934   -3938.4989   -3501.4045   -3938.4989            0    1854.4642    18.143671    21.370848    22.135236    8582.8411    2579.9401    1671.1772    1312.2754      3.80972    72.005007   -601.53619   -3269.2776 
13513000    246.69535   -3932.2071   -3509.3797   -3932.2071            0    990.11051    18.146809    21.374544    22.139064    8587.2947    2947.0013   -909.62417    932.95436    -1064.951   -592.57756   -180.73113   -3385.3813 
13514000    236.68165   -3961.8485   -3556.1843   -3961.8485            0    1567.8141    18.085313    21.302109    22.064039    8500.2881    1665.8811    2076.6061    960.95502   -1577.2714   -389.78693   -320.92265   -3361.8255 
13515000    227.54591   -3911.6062   -3521.6003   -3911.6062            0    1924.0919    18.080071    21.295936    22.057645    8492.8999    2246.3792    1787.6623     1738.234    92.367359    948.09501   -291.32408   -3283.2818 
13516000    249.21754    -3945.408   -3518.2576    -3945.408            0    2459.8371     18.07316    21.287795    22.049213    8483.1636    2691.6411    2596.6722     2091.198   -916.57602   -741.21387   -94.094203   -3213.9309 
13517000    259.85334   -3984.3184   -3538.9387   -3984.3184            0    2305.2654    18.103067    21.323022      22.0857    8525.3473    3640.2105    802.93122    2472.6545    -151.7244   -1157.2108   -445.41226   -3252.3171 
13518000    243.06284   -3999.2828   -3582.6814   -3999.2828            0    301.40073    18.167075    21.398415    22.163789    8616.0979    17.843749    1029.2034   -142.84497   -1045.6352    1426.3377    787.49291   -3544.8083 
13519000    238.07958   -3958.3241   -3550.2638   -3958.3241            0   -103.16649    18.143292    21.370401    22.134773    8582.3028    391.29774   -637.25929    -63.53792   -353.12142    -1327.354   -919.67387   -3563.1765 
13520000    236.18219   -3961.1471   -3556.3389   -3961.1471            0   -179.59709    18.174251    21.406867    22.172544    8626.3122    502.16325   -297.97858   -742.97593   -550.30583   -379.08522    641.89971   -3578.9333 
13521000    243.38782   -3982.1443   -3564.9859   -3982.1443            0     385.9914    18.130474    21.355304    22.119136    8564.1267   -218.55571    1058.8322    317.69773   -1206.2882    335.36897    741.60507   -3516.7759 
13522000    253.36221   -3954.3729   -3520.1187   -3954.3729            0    457.56634    18.055489    21.266981    22.027655    8458.3056    1947.0133   -1413.1314    838.81716    701.31027    792.38605    818.14018   -3463.6753 
13523000    248.16122   -3986.5432   -3561.2034   -3986.5432            0    824.50078    18.051186    21.261913    22.022405    8452.2592    492.79935    933.78854    1046.9145   -1120.9995    1292.6172   -75.629027   -3459.5692 
13524000    239.16708   -3896.4912    -3486.567   -3896.4912            0    1448.1585    18.133372    21.358717    22.122672     8568.234     1324.972    832.14479    2187.3586    42.878142   -644.62292    694.23616   -3305.6067 
13525000    234.65837   -3933.2295   -3531.0331   -3933.2295            0    783.14249    18.123557    21.347156    22.110697    8554.3277    1550.4241   -85.641768    884.64517    429.03268    407.61313    163.28919   -3433.3313 
13526000    236.12049    -3901.068   -3496.3655    -3901.068            0    -663.9866    18.191089      21.4267    22.193086    8650.3107   -391.09277    -821.4287   -779.43832    503.06714    192.46108    421.01027   -3580.1314 
13527000    246.32067   -3941.6496   -3519.4644   -3941.6496            0    456.30287    18.106327    21.326862    22.089677    8529.9543   -136.79977    556.97889    948.72949    159.03386    332.33723    -1223.501   -3462.7001 
13528000    231.10699   -3949.0058   -3552.8963   -3949.0058            0    408.18896    18.051277     21.26202    22.022516    8452.3873     350.0615     324.2913    550.21407    1012.2503   -252.78222   -1295.5426   -3502.5791 
13529000    240.53784   -3971.2959   -3559.0222   -3971.2959            0    809.80352    18.094619    21.313071    22.075393    8513.4176    332.44713     969.2246    1127.7388    -553.1664    349.46144   -1098.2315   -3458.4775 
13530000    262.27891   -3971.7609   -3522.2239   -3971.7609            0    1000.6852    18.103952    21.324064    22.086779    8526.5969    1525.2734    846.41093    630.37139     326.2022   -602.43036    -500.7648    -3397.787 
13531000    247.56307   -3940.4324   -3516.1178   -3940.4324            0    947.62832    18.107209      21.3279    22.090753    8531.2002    992.39864    848.07434     1002.412   -17.988389    1192.8434    2.3858516    -3398.215 
13532000     240.1261   -3918.0082   -3506.4403   -3918.0082            0    469.94742    18.066689    21.280174    22.041319    8474.0558    23.340828    901.76591    484.73552   -131.99828   -1054.7436    1180.3949   -3448.3616 
13533000    244.74437   -3939.1162   -3519.6327   -3939.1162            0    1534.9559    17.999498    21.201031    21.959345    8379.8598    2845.6722   -287.16536    2046.3607   -638.55623   -457.20859     499.5696   -3332.0432 
13534000    251.05223   -3993.4023   -3563.1073   -3993.4023            0    715.66895    18.063047    21.275883    22.036875    8468.9316    1700.1785    1010.1858    -563.3575   -260.19458   -469.53623    866.25956   -3474.7146 
13535000    232.31873   -3962.4243   -3564.2379   -3962.4243            0   -263.90938    18.071992     21.28642    22.047788      8481.52   -847.33512   -995.21162    1050.8186   -793.59373    340.21198    583.21909    -3596.882 
13536000    240.43428   -3958.0611    -3545.965   -3958.0611            0    2569.2882    18.009992    21.213391    21.972148    8394.5252    4766.2849    736.78171    2204.7978   -640.36103   -246.78999   -388.20027   -3231.4185 
13537000    253.47645   -3952.2071   -3517.7571   -3952.2071            0   -230.02638    18.135829    21.361611    22.125669    8571.7166    57.825545   -1251.0071    503.10242   -810.27026   -1326.7912   -369.51969   -3546.5126 
13538000    242.06962    -3948.955    -3534.056    -3948.955            0    1130.6341    18.026972    21.233392    21.992864    8418.2913    1010.9414    705.75788     1675.203   -337.28103   -321.59566    697.84904   -3395.2456 
13539000    246.44771   -3954.2742   -3531.8712   -3954.2742            0    452.79961    18.074054    21.288848    22.050303    8484.4226    652.96263    254.90999    450.52622    -424.6242   -481.99779    77.437132   -3475.8434 
13540000    251.00726   -3979.1531   -3548.9352   -3979.1531            0    998.35015    18.028257    21.234906    21.994432    8420.0919    1287.7079    1283.6268    423.71579   -769.24625    131.68382    154.72258   -3426.3394 
13541000     225.2213   -3926.9866    -3540.965   -3926.9866            0   -897.36439    18.154441    21.383533    22.148375    8598.1341    577.49032   -1688.0726   -1581.5109    605.87837    206.57383    476.23595   -3653.4899 
13542000    250.13813   -3971.6591   -3542.9309   -3971.6591            0    1963.8228    17.970254    21.166586    21.923668    8339.0823    2765.3206    2518.9296    607.21815     359.5042    1145.4945   -338.01044   -3304.0967 
13543000    254.67105   -3957.2815    -3520.784   -3957.2815            0    332.34456    18.046148    21.255978    22.016258    8445.1837    1084.3829   -382.90146    295.55225   -749.93336   -446.79079    1273.2786    -3479.851 
13544000    244.11843   -3936.5507     -3518.14   -3936.5507            0    98.100061    17.983463    21.182144    21.939783     8357.484    1010.6568    3.1679853   -719.52456   -936.18653    383.63682    229.34307   -3506.1831 
13545000    243.24349   -3981.9506   -3565.0396   -3981.9506            0   -334.06405    18.073208    21.287851    22.049271    8483.2312    124.65239   -229.80897   -897.03557    -649.1594    586.35306    469.47792   -3606.3697 
13546000     264.9411   -3966.5147   -3512.4147   -3966.5147            0   -491.57708    18.155255    21.384493    22.149369    8599.2916   -194.88961     72.93347   -1352.7751    660.91084    250.85035   -650.44509   -3574.0643 
13547000    228.31881    -3941.113   -3549.7824    -3941.113            0    1197.8109    18.042021    21.251118    22.011224    8439.3921    1189.1567    735.52054    1668.7554   -1488.5819   -612.45572    319.33786    -3402.356 
13548000    243.75845   -3929.3309   -3511.5373   -3929.3309            0    1999.6504      18.1054     21.32577    22.088546    8528.6441    1173.3168    2967.7175    1857.9168   -300.36303    811.34184    1063.3462   -3262.8177 
13549000    245.48152   -3931.5379    -3510.791   -3931.5379            0    984.42924    18.136776    21.362727    22.126825    8573.0602    1053.2275    161.27266    1738.7875   -704.49834    474.92632    507.54291   -3387.7085 
13550000    234.51553   -3935.5341   -3533.5826   -3935.5341            0    2061.4498     18.07261    21.287148    22.048542      8482.39     1906.853    2870.2765      1407.22   -494.37038    -650.9693    493.90286   -3278.5669 
13551000    244.25933   -3900.8339   -3482.1818   -3900.8339            0    615.57357    18.182855    21.417001     22.18304     8638.569    1205.6622   -245.12124    886.17979   -76.687281   -692.11426    599.38328   -3404.6289 
13552000    244.42131    -3960.267   -3541.3373    -3960.267            0     1618.808      18.1201    21.343084    22.106479    8549.4336     1394.361    1405.3422    2056.7208    481.96349   -710.38036   -439.10877   -3339.4966 
13553000    244.08745   -3963.5949   -3545.2374   -3963.5949            0    1160.8697    18.108682    21.329636     22.09255    8533.2824    2675.2963  -0.77358347    808.08627   -1861.1764    630.33889    450.75828   -3400.7681 
13554000    249.63842   -3943.4605   -3515.5888   -3943.4605            0    437.77965    18.105237    21.325578    22.088347    8528.4131    1543.8557   -1066.4544    835.93768    -180.8922    355.07908    -1016.537   -3461.1386 
13555000    248.15191   -3948.6144   -3523.2905   -3948.6144            0   -148.23249    18.169377    21.401126    22.166598    8619.3736    1582.3618   -951.45876   -1075.6005   -733.39528   -455.49587   -909.61396    -3541.924 
13556000    252.80805    -3913.208   -3479.9036    -3913.208            0   -248.45837    18.168268     21.39982    22.165245    8617.7955    182.08571   -218.69511   -708.76572   -443.89259   -334.89569   -1577.7005   -3511.1303 
13557000    242.23175   -3934.0601   -3518.8831   -3934.0601            0   -32.503403    18.099322     21.31861     22.08113     8520.057   -941.57541   -177.64436    1021.7096   -195.49896   -262.25583    1197.6599   -3522.9219 
13558000    247.07923   -3941.3187   -3517.8334   -3941.3187            0    1255.0223    18.073182    21.287821     22.04924    8483.1955    529.48018    1308.1872    1927.3996   -540.19327     100.4466     1040.798   -3362.5636 
13559000    245.50046   -3937.5339   -3516.7545   -3937.5339            0    45.460253    18.184189    21.418573    22.184668    8640.4711    797.63067    823.52655   -1484.7765     205.7554    907.92971    243.64337   -3511.0259 
13560000    228.88604   -3955.8756   -3563.5728   -3955.8756            0    1039.2004    18.150797    21.379242     22.14393    8592.9582    1025.9089    883.12806    1208.5641    727.98843   -426.61435    973.17164   -3433.3408 
13561000    244.38767   -3940.8634   -3521.9913   -3940.8634            0   -1502.3852    18.255975    21.503127    22.272246     8743.205   -622.41362   -1438.6816   -2446.0602    -592.6961    875.10675    1432.9178   -3713.5615 
13562000    249.32374   -3965.1473   -3537.8149   -3965.1473            0    550.53925    18.208637    21.447369    22.214495    8675.3683    230.80015    1064.4402     356.3774   -342.37512   -201.69533    450.52578   -3468.1599 
13563000    259.17879   -3950.8692   -3506.6456   -3950.8692            0    1910.7851     18.12285    21.346323    22.109834    8553.3266    1385.8362    830.42504     3516.094   -10.634189   -304.11457   -15.839651   -3268.2914 
13564000    236.80408   -3953.2347   -3547.3606   -3953.2347            0    2558.5398    18.074636    21.289533    22.051013    8485.2423    3215.8242    1287.7598    3172.0352   -107.24947   -148.05148    19.580918    -3230.745 
13565000    231.67999   -3982.3234   -3585.2319   -3982.3234            0    1288.0679    18.062554    21.275302    22.036273    8468.2378    1016.5158    3328.3709   -480.68299   -283.36956   -1343.6734    685.75746   -3426.1547 
13566000    258.31385   -3952.1804   -3509.4393   -3952.1804            0    1134.1525     18.15352    21.382449    22.147252    8596.8265    1482.2656    1467.0849    453.10697    657.95213   -555.11345    739.46989   -3367.2439 
13567000     242.1026   -3993.6906    -3578.735   -3993.6906            0   -821.24134    18.180339    21.414038    22.179971    8634.9838    -2096.847   -5.4672082   -361.40987   -1167.5695   -291.86462   -1086.3073   -3682.1559 
13568000    245.06184   -3969.3702   -3549.3426   -3969.3702            0    488.10352    18.143198     21.37029    22.134659    8582.1696    749.66682     497.9676    216.67613   -801.15453   -2022.1982   -274.64545   -3488.2506 
13569000    238.83749   -3991.4531   -3582.0938   -3991.4531            0   -1050.9181    18.219982    21.460733    22.228336    8691.5943   -1827.8596    -681.3187   -643.57597    547.53842    -19.31063   -1511.4696    -3715.306 
13570000    245.59579   -3956.3696   -3535.4268   -3956.3696            0    934.77953    18.224418    21.465957    22.233747    8697.9434    2036.5038   -420.48981    1188.3246   -378.49885   -179.89677   -1190.7668   -3416.8495 
13571000    241.13666   -3966.7364   -3553.4364   -3966.7364            0     428.6606     18.16564    21.396725    22.162039    8614.0567    1315.8741    537.32724   -567.21957   -402.99692   -309.85897   -1471.6148   -3499.5849 
13572000     269.1736   -3954.3872   -3493.0328   -3954.3872            0    606.28732    18.279805    21.531196    22.301319    8777.4884    1354.4775   -410.67692    875.06139    785.03175   -199.69604   -809.51993   -3415.4216 
13573000    234.49663   -3965.6521   -3563.7329   -3965.6521            0    401.60683    18.281133     21.53276    22.302939    8779.4012    1644.0285   -1079.6125    640.40451    427.77886   -898.05186   -1657.3949   -3512.3118 
13574000    252.16874   -3980.5924   -3548.3838   -3980.5924            0    1337.6417    18.171162    21.403229    22.168776    8621.9146    870.33312    1842.5697    1300.0223   -278.01742   -787.78338   -961.44654   -3380.1863 
13575000     246.8482   -3963.7764    -3540.687   -3963.7764            0   -439.29656     18.23156     21.47437    22.242461    8708.1739   -486.58995   -1173.1948    341.89509    644.58423    101.88895    169.65259   -3596.4776 
13576000    239.00809   -3958.5703   -3548.9186   -3958.5703            0    744.11613    18.182537    21.416626    22.182652    8638.1155    1695.2379   -249.30991    786.42043   -501.69352   -1807.1971   -861.81106   -3455.1763 
13577000    240.25027   -3969.0726   -3557.2918   -3969.0726            0    108.93819    18.235047    21.478477    22.246715    8713.1715   -531.18542   -171.25917    1029.2591    1203.8647   -916.19512    979.35695   -3543.4488 
13578000    267.25032   -3964.9937   -3506.9358   -3964.9937            0    1316.6459    18.156955    21.386495    22.151443    8601.7074     2700.014    -1198.857    2448.7805   -120.74182    328.27992    185.58896   -3341.7665 
13579000    248.18356   -3958.2513   -3532.8732   -3958.2513            0   -86.887485    18.172557    21.404872    22.170477    8623.8997    -2156.904    571.89746    1324.3441    935.66177      -857.72   -441.43595   -3543.8011 
13580000    247.76979   -3912.5177   -3487.8488   -3912.5177            0     583.3353    18.224388    21.465921     22.23371    8697.9003   -348.02266    6.1692696    2091.8593   -143.32557    590.77136   -403.15863   -3413.8527 
13581000    244.11463   -3967.6643   -3549.2602   -3967.6643            0   -267.46191    18.182372    21.416432    22.182451    8637.8805    794.39161   -1738.9698    142.19246    931.07385   -416.07615    115.87023   -3582.9536 
13582000    234.28211    -3972.002   -3570.4505    -3972.002            0    353.87628    18.190172    21.425619    22.191967    8649.0015   -131.54405    1335.4118   -142.23895    500.71021   -305.07805    264.80565   -3525.8137 
13583000    226.36765    -3965.214   -3577.2276    -3965.214            0    834.69504    18.233705    21.476895    22.245077     8711.247    611.69993    236.46222     1655.923    570.58753   -512.29649    7.1459622   -3471.1841 
13584000    258.77106   -3945.5431   -3502.0184   -3945.5431            0   -46.463074    18.248937    21.494837    22.263661    8733.0975    443.95941   -807.86963      224.521   -873.26284    1453.6289    247.80258   -3507.9361 
13585000    244.65644   -3970.9036   -3551.5709   -3970.9036            0   -240.02871    18.251611    21.497986    22.266922    8736.9364    150.67653   -1013.1172    142.35451   -635.94555   -2026.7896   -870.81531   -3582.1551 
13586000     252.5205   -3967.9699   -3535.1584   -3967.9699            0    388.06871    18.171241    21.403322    22.168872    8622.0271    915.96942    107.60198    140.63472   -64.154702    1624.0424    63.754677   -3486.3614 
13587000    241.31076   -3968.6806   -3555.0822   -3968.6806            0    233.71046    18.292522    21.546175    22.316834    8795.8201    170.60497   -650.68573    1181.2121    357.27922   -796.32466    584.66346   -3525.1023 
13588000    253.86599   -3932.1006   -3496.9829   -3932.1006            0    1632.9976    18.227346    21.469406    22.237319    8702.1365    3937.8896     -53.3664    1014.4697   -928.17575    334.95474    385.28073   -3289.7364 
13589000    238.42044   -3975.9054    -3567.261   -3975.9054            0    1155.8442      18.1257     21.34968    22.113312    8557.3629    444.50704    1136.0334    1886.9921    102.64217    717.19833   -438.03104   -3423.0112 
13590000    250.34631   -3962.2236   -3533.1386   -3962.2236            0    1811.1628    18.195648     21.43207    22.198648    8656.8158     2027.397    620.08901    2786.0022   -291.28451   -1166.5492   -962.30601   -3304.4779 
13591000    234.77556   -3970.5364   -3568.1391   -3970.5364            0    1724.6167    18.230336    21.472928    22.240967    8706.4201    1170.0894    736.17475    3267.5858   -738.12854    203.83087   -187.70307   -3349.1573 
13592000    255.34341   -3960.2924   -3522.6425   -3960.2924            0    188.57743    18.174052    21.406632    22.172301     8626.028     776.7853    65.646669   -276.69967   -1012.9232   -502.91682    -506.0451   -3498.9192 
13593000    240.30919   -3976.4265   -3564.5448   -3976.4265            0    293.04741    18.248231    21.494006    22.262799    8732.0838    158.94742    771.36555   -51.170751    487.34693    23.072429    779.74186   -3527.2256 
13594000    233.36172   -3952.3257   -3552.3517   -3952.3257            0    721.35813    18.238317    21.482329    22.250704    8717.8599    451.89799     1859.861   -147.68464   -65.361018    425.71401   -555.19035   -3460.6375 
13595000    237.99445   -3979.6696   -3571.7553   -3979.6696            0   -1150.8456    18.329858    21.590151    22.362384    8849.7884   -32.251614   -2331.1434   -1089.1419    -100.4616   -141.76576        773.3   -3720.2893 
13596000    266.13372   -4004.3975   -3548.2534   -4004.3975            0    1234.1445    18.275196    21.525767    22.295696    8770.8505     2699.934    641.26256    361.23691   -996.71315   -1344.5575    361.03826   -3390.3892 
13597000    247.21282   -3975.3729   -3551.6585   -3975.3729            0   -728.56115    18.229351    21.471768    22.239766    8705.0092   -319.45042    -1002.324   -863.90905   -41.464952   -691.00516   -113.81843    -3644.152 
13598000    240.97485   -4012.3354   -3599.3127   -4012.3354            0    1451.0826    18.139157    21.365531     22.12973    8576.4373    570.88367    3283.2557    499.10853   -131.66254    388.23207    667.27873   -3417.8134 
13599000    243.28664   -3984.3428   -3567.3578   -3984.3428            0    1065.3472    18.185136    21.419688    22.185823      8641.82    2186.0439     169.8912    840.10644    495.46865   -1299.0898    133.31586   -3433.0899 
13600000    241.20127   -4003.4028    -3589.992   -4003.4028            0    994.28639    18.100654    21.320179    22.082755     8521.938    2476.2171    485.96877    20.673332    17.609546     46.17224   -185.37379   -3466.4184 
13601000    243.72692   -4000.0912   -3582.3516   -4000.0912            0    806.71058    18.118715    21.341453     22.10479    8547.4739    2060.8216    1474.9463   -1115.6362   -277.55664   -102.56777    573.09786   -3481.7902 
13602000    253.48419   -3969.6143   -3535.1511   -3969.6143            0   -155.29027    18.226006    21.467828    22.235685    8700.2176     65.78467   -464.10304    -67.55244    110.24326    405.53541   -519.12529   -3554.8549 
13603000    245.63917   -3955.7733   -3534.7561   -3955.7733            0   -443.58316    18.247834    21.493538    22.262315    8731.5139   -114.08183   -958.96968   -257.69797   -934.29612    510.93664      980.258   -3591.2421 
13604000    240.33899   -3957.5768    -3545.644   -3957.5768            0    800.09825     18.13927    21.365664    22.129867    8576.5965   -258.20763    1535.7198    1122.7825   -648.48669   -294.25647    213.92835    -3445.567 
13605000    251.47374   -3966.1961   -3535.1788   -3966.1961            0    176.10297    18.181229    21.415086    22.181056    8636.2512    165.38024    1509.9235   -1146.9948    539.78653   -614.01313    534.37275   -3512.9984 
13606000    229.62236   -3963.6805   -3570.1156   -3963.6805            0    596.02012    18.168262    21.399813    22.165238    8617.7872    138.91747    1755.1075   -105.96461    228.00066     203.9615     412.9864   -3495.2068 
13607000    253.66523   -4000.9176   -3566.1441   -4000.9176            0    476.48476    18.146908    21.374661    22.139186     8587.436    417.59906    261.40266    750.45256    532.48653    254.89672   -10.360061   -3506.4696 
13608000    247.78691    -3974.715   -3550.0167    -3974.715            0    -291.3038    18.273429    21.523685     22.29354    8768.3063   -188.84449   -1564.5213    879.45439   -113.45113    -236.9738    600.06476   -3587.2677 
13609000    246.85827   -3998.2881   -3575.1815   -3998.2881            0   -134.50709    18.299703    21.554633    22.325595     8806.183    641.64162   -293.00799   -752.15489    453.62197    154.28153   -779.37755   -3592.4561 
13610000    237.08151   -3969.5732   -3563.2236   -3969.5732            0    630.86515    18.325516    21.585037    22.357087    8843.5008    325.38217    357.73534     1209.478    126.67913    244.12828    4.7831844   -3481.8588 
13611000    247.40065   -3993.9666   -3569.9303   -3993.9666            0    1497.4758    18.286119    21.538633    22.309023    8786.5873    2703.0029    1681.2566    108.16805   -249.44234     362.8129   -566.67661   -3378.0387 
13612000    239.79176   -3968.1463   -3557.1514   -3968.1463            0   -603.53088     18.35346    21.617951    22.391178     8884.018   -1121.8415   -201.92381   -486.82732    145.35656    379.02605    171.02057   -3635.3474 
13613000    249.18682   -4017.2468   -3590.1491   -4017.2468            0    1174.2403    18.290052    21.543265    22.313821    8792.2578    1407.4033    502.52164    1612.7959   -76.650201    324.80758   -1575.5681   -3439.5809 
13614000    252.39982   -3964.6124   -3532.0077   -3964.6124            0    -9.358785    18.341638    21.604027    22.376756    8866.8624   -1141.4605   -281.27365    1394.6578    1336.1773   -555.13328    351.00631   -3533.2179 
13615000    245.24568   -3961.7622   -3541.4195   -3961.7622            0   -310.32233    18.434273    21.713139     22.48977    9001.8884   -524.47647    379.10435   -785.59486    841.38586   -903.58002   -480.23204   -3582.1596 
13616000    234.67621   -3992.5366   -3590.3096   -3992.5366            0    212.84991     18.37021    21.637681    22.411613    8908.3642   -247.59136    28.357855    857.78323   -55.341978    -150.5043    452.33732   -3562.6563 
13617000    243.44897   -4015.4895   -3598.2263   -4015.4895            0    823.36423     18.36419     21.63059    22.404269    8899.6087    2035.1408    99.543465    335.40843   -140.14619    144.82197     -546.532   -3491.3605 
13618000      248.993   -4004.1115    -3577.346   -4004.1115            0    -306.5611    18.342401    21.604925    22.377686    8867.9684    53.640257    635.67535   -1608.9989   -1619.9469   -16.003786   -53.841692   -3616.9936 
13619000    253.47478   -3986.5935   -3552.1464   -3986.5935            0    517.09021    18.350496    21.614461    22.387563    8879.7152   -159.78967    1262.0425    449.01777   -488.41785    894.81607   -774.18139   -3485.1825 
13620000    239.43232    -3986.101   -3575.7222    -3986.101            0    2009.7128    18.215764    21.455764     22.22319    8685.5587    1276.5725     3231.823    1520.7429   -569.49085    856.89164    -489.4622    -3321.152 
13621000     234.3783   -3972.6715   -3570.9551   -3972.6715            0   -958.47486    18.361091     21.62694    22.400489    8895.1048    1605.7556    -1756.893   -2724.2872    437.72164   -244.18672   -294.39974   -3695.2942 
13622000    251.66069   -3967.9205   -3536.5827   -3967.9205            0    935.79632    18.326413    21.586093    22.358181    8844.7991    1200.4863    1115.5078    491.39483   -774.08891    381.72166    453.07742   -3415.8722 
13623000    241.34368   -4025.0009   -3611.3461   -4025.0009            0    918.33255    18.290761      21.5441    22.314686    8793.2802    177.76289     2485.969    91.265797    104.59687   -298.34655   -511.49063   -3493.5782 
13624000    249.01328   -3979.1511   -3552.3509   -3979.1511            0    756.39005    18.331071     21.59158    22.363863    8851.5448   -195.42889     1900.256    564.34309    957.16165   -175.25129    378.07306   -3454.7079 
13625000    266.82406   -3981.6855   -3524.3582   -3981.6855            0   -29.948671    18.338613    21.600464    22.373065    8862.4757   -227.99788   -14.890958    153.04282   -1208.9889    1310.8341   -363.46915   -3528.2291 
13626000    251.84792   -3980.7074   -3549.0487   -3980.7074            0     1308.685    18.303399    21.558986    22.330104    8811.5197    2860.2351    1679.1608   -613.34093    427.60168    1740.9309   -721.38574   -3380.8735 
13627000    257.45184   -3990.7325   -3549.4689   -3990.7325            0    2782.8575    18.223048    21.464344    22.232076    8695.9826    2459.4356    2435.6382    3453.4987   -899.55518   -288.24586    199.57455   -3196.5414 
13628000     245.0293    -3988.707   -3568.7352    -3988.707            0    857.85351    18.336215    21.597639    22.370139     8858.999    613.64882    488.34871     1471.563    494.73788    384.20849    1191.7091    -3457.901 
13629000    254.86411   -3979.3245   -3542.4961   -3979.3245            0   -182.34035    18.337332    21.598956    22.371503    8860.6191   -676.47142   -161.03471    290.48509    180.42998   -155.77996    1173.7754   -3566.0587 
13630000    247.70555   -4017.9747   -3593.4158   -4017.9747            0    1513.4252    18.210118    21.449114    22.216302    8677.4853    1197.7578    992.10488    2350.4129   -1450.5855    1477.9772   -1144.9756   -3401.8885 
13631000    244.55898   -4022.9492   -3603.7835   -4022.9492            0    587.61548    18.309143    21.565751    22.337111    8819.8176    290.61869    2156.8878   -684.66003    796.28257   -143.64612   -348.90609   -3528.1997 
13632000    243.50059   -3952.7052   -3535.3536   -3952.7052            0    1656.4126    18.316928    21.574922     22.34661     8831.074    2415.9276     2207.606    345.70424    338.50345   -711.77745   -496.28021   -3322.0206 
13633000    240.42359   -3984.6313   -3572.5535   -3984.6313            0    195.44814    18.357345    21.622528    22.395918    8889.6613    1913.3161    -848.2198   -478.75185     484.5838    106.85023   -422.42221   -3547.2143 
13634000    230.61064   -3987.2128    -3591.954   -3987.2128            0    323.73232    18.325562    21.585091    22.357143    8843.5673    854.36923    613.43882    -496.6111   -191.61502    201.54896    1209.3494   -3550.2009 
13635000    245.05303   -4012.4842   -3592.4717   -4012.4842            0    519.71264    18.204248    21.442199     22.20914    8669.0956    37.771288    1980.5809   -459.21425   -131.85222    435.91048   -452.16056   -3526.7645 
13636000    249.98674   -3992.5114   -3564.0427   -3992.5114            0    1537.4093    18.258935    21.506613    22.275858    8747.4587    989.63994    891.53533    2731.0526    244.42798   -13.291809   -170.68607   -3367.9112 
13637000    228.68633   -3969.6709   -3577.7103   -3969.6709            0   -361.54984    18.374009    21.642155    22.416247    8913.8912   -559.83664   -1349.0066    824.19372    247.84377   -240.36318   -1135.0441   -3624.7118 
13638000    249.81995   -3987.2076   -3559.0248   -3987.2076            0    370.59288    18.310284    21.567096    22.338504    8821.4678   -710.68291    1139.6899    682.77165    550.92121   -377.00931    576.71901   -3511.3472 
13639000    228.85018   -4006.2032   -3613.9618   -4006.2032            0    2104.5634    18.201061    21.438446    22.205252    8664.5438    2707.1444    1678.8274    1927.7184    1312.5919   -40.743524    899.59383   -3348.0218 
13640000    246.13061   -3992.7242   -3570.8648   -3992.7242            0    1816.6011    18.285632    21.538059    22.308428    8785.8847    3036.8791    522.41593    1890.5083   -683.91688    1705.8303    1264.8589    -3338.098 
13641000    232.98902   -3984.1354   -3584.8002   -3984.1354            0    90.294037    18.289018    21.542047    22.312559    8790.7666   -328.14426    1497.9832   -898.95682   -195.14918   -563.33735    165.37655   -3573.2241 
13642000    236.38667   -3996.9527   -3591.7941   -3996.9527            0    738.58398    18.303839    21.559505    22.330641    8812.1559    849.52711    888.21066    478.01418   -647.55677   -565.13686    1032.2549    -3496.874 
13643000    236.43903   -3998.0281   -3592.7797   -3998.0281            0    405.15657    18.306648    21.562813    22.334068    8816.2131    726.73237    642.37903   -153.64168    309.85718   -473.91518    228.29777   -3540.6865 
13644000    236.30816   -3981.4007   -3576.3766   -3981.4007            0    1461.0551    18.334937    21.596134     22.36858    8857.1467    1782.6687    1787.1744    813.32224    242.57624   -579.04503    668.76359   -3387.6486 
13645000    254.45033   -3984.0425   -3547.9234   -3984.0425            0    213.47787    18.361121    21.626975    22.400524    8895.1473    978.95022    295.23033   -633.74694   -702.47584    426.75572    234.34399   -3520.2296 
13646000    248.12116   -4016.7876   -3591.5165   -4016.7876            0    395.39347    18.394071    21.665787    22.440724    8943.1229   -131.06002    1223.6134    93.627061   -62.205581   -409.82477   -196.63523   -3539.9468 
13647000    230.03984   -4002.6531   -3608.3727   -4002.6531            0    1311.4747    18.363381    21.629637    22.403281    8898.4321    2058.5954    535.36687    1340.4619   -567.08836   -1070.6227    200.26385   -3438.1767 
13648000    228.26572   -4002.1421   -3610.9025   -4002.1421            0     388.8292    18.318099    21.576302    22.348039    8832.7681   -497.65257    1095.4183    568.72182   -674.61197    795.64814    551.46599   -3560.8147 
13649000    258.66618   -3975.4975   -3532.1525   -3975.4975            0   -132.58247    18.307898    21.564286    22.335593    8818.0198    310.54202    1228.2406     -1936.53    -761.9537    424.15566   -38.238759   -3549.2028 
13650000    243.14379    -3986.227   -3569.4868    -3986.227            0   -517.98228    18.257437    21.504849     22.27403    8745.3056    155.85927   -36.313269   -1673.4929    347.19089   -1445.2419    1173.4617    -3635.551 
13651000    236.15155   -3945.9163   -3541.1606   -3945.9163            0   -240.42131    18.240035    21.484352      22.2528    8720.3237   -394.07232    206.36092   -533.55253   -672.57985   -335.18942    199.42734   -3571.7367 
13652000    230.73565   -3976.6841   -3581.2111   -3976.6841            0    706.45472    18.198489    21.435416    22.202114    8660.8707    1585.9255    459.31698    74.121648    197.57736   -143.89587    960.68971   -3491.9789 
13653000    248.20329   -3974.1996   -3548.7877   -3974.1996            0    332.00101    18.253825    21.500594    22.269623    8740.1164   -311.85259    1435.8791   -128.02349   -1276.5259    617.51108   -82.199028   -3506.4689 
13654000    232.73812   -3981.7379   -3582.8327   -3981.7379            0   -84.514138    18.196704    21.433314    22.199936    8658.3228   -1177.5965    1187.6268   -263.57274    -1333.944    1282.1834    457.74196   -3593.5046 
13655000    250.62574   -3998.3554   -3568.7915   -3998.3554            0    538.13335    18.205138    21.443247    22.210225    8670.3672    1568.3912    186.65051   -140.64166    271.29618    667.80201   -1100.2556   -3500.7454 
13656000    232.58322   -3996.0301   -3597.3905   -3996.0301            0     -955.189    18.248313    21.494103      22.2629     8732.202   -870.02219     112.2052     -2107.75    611.29558    865.99204   -219.34232    -3719.034 
13657000     238.6303   -3969.3968   -3560.3926   -3969.3968            0    1178.4704    18.238097    21.482069    22.250436    8717.5439    788.87901     1565.536    1180.9962    788.92747   -606.18815    601.32675   -3410.5661 
13658000    244.31788   -3992.9519   -3574.1994   -3992.9519            0   -183.19748    18.298695    21.553446    22.324365    8804.7281   -978.33751   -451.83314    880.57819   -670.12936    568.91041    26.810446   -3597.7234 
13659000    238.54941    -3976.606   -3567.7405    -3976.606            0   -6.9782469     18.33026    21.590625    22.362875    8850.3712   -164.80704    960.73005   -816.85775   -654.21219    32.218156   -222.18137   -3568.6412 
13660000    266.44087   -3981.9964   -3525.3259   -3981.9964            0    2478.2984    18.327752    21.587671    22.359815    8846.7389     2855.668    2050.2854    2528.9417   -807.52252    881.75366   -416.21921   -3205.5743 
13661000    236.81405   -3995.3566   -3589.4654   -3995.3566            0    399.56526    18.312538    21.569751    22.341254    8824.7259    251.60443   -35.802142     982.8935    407.82679   0.97195779    504.38195   -3538.0415 
13662000    238.73803   -3972.9761   -3563.7873   -3972.9761            0   -235.76232    18.445193    21.726001    22.503093    9017.8957    -540.9236   -1914.0932    1747.7299    1112.0981    654.34799   -629.48604    -3594.794 
13663000    254.44052    -3986.221   -3550.1186    -3986.221            0    951.79901    18.343804    21.606578    22.379398    8870.0032    1315.9966    1034.4613    504.93906   -636.76086   -1338.4524    -93.72987    -3426.994 
13664000    241.05598   -3980.2307    -3567.069   -3980.2307            0    889.36014    18.377213     21.64593    22.420157    8918.5559    1225.6788    1193.5619    248.83968    261.15728   -175.45178   -261.47143   -3451.3917 
13665000    227.56979   -3939.3597   -3549.3129   -3939.3597            0    197.87498    18.320515    21.579146    22.350985    8836.2621   -105.63436     345.3162     353.9431    41.524746   -404.22101   -368.57274   -3523.8132 
13666000    245.91261   -3950.8108    -3529.325   -3950.8108            0    1786.1966    18.279594    21.530947    22.301062    8777.1846    1500.7161    754.48172    3103.3921    395.43697   -533.47784   -684.23167   -3300.6807 
13667000    234.86188   -3965.8768   -3563.3316   -3965.8768            0    692.84585    18.360236    21.625933    22.399446    8893.8622    872.11128   -947.52523    2153.9515    383.86135   -491.82366   -256.57765   -3473.4641 
13668000    251.88621   -3939.6041   -3507.8797   -3939.6041            0     70.30642    18.292491    21.546138    22.316796    8795.7753   -11.727314   -561.50642      784.153    61.012429   -213.08832    214.89019    -3498.861 
13669000    250.81167    -3940.071   -3510.1884    -3940.071            0   -675.19135    18.312008    21.569127    22.340607    8823.9599   -1009.6845   -1492.7914     476.9018   -132.95298    440.49758    786.82439   -3597.0777 
13670000    249.97041    -3975.555   -3547.1142    -3975.555            0   -860.84149    18.300676    21.555779    22.326782    8807.5881   -1419.4634   -1785.6116    622.55051     489.2975   -1307.3009    497.82537    -3657.689 
13671000     242.6442   -3966.9357   -3551.0518   -3966.9357            0    1290.3772    18.155474     21.38475    22.149636    8599.6022   -319.96623    1610.8716    2580.2262    629.86355   -827.93499    1287.1605   -3389.2174 
13672000    241.59748   -3965.9219    -3551.832   -3965.9219            0    101.97531    18.264198    21.512812    22.282279    8755.0251    74.568336    291.52181   -60.164222   -479.45329    54.516255   -1640.4564   -3538.8115 
13673000    248.43506   -3982.9187   -3557.1095   -3982.9187            0   -358.37135    18.290041    21.543252    22.313807    8792.2413   -361.81751    18.526392   -731.82292    872.68123   -1492.8659    724.01343    -3603.062 
13674000    241.93417    -3985.255   -3570.5882    -3985.255            0    2130.3876    18.202552    21.440202    22.207071    8666.6736     1557.722    2679.7817    2153.6591   -280.38266   -755.49721   -1366.6674   -3301.3188 
13675000    240.61342   -3948.1748   -3535.7717   -3948.1748            0    379.29765    18.161069     21.39134    22.156461    8607.5548    1198.3616   -1171.0494    1110.5808    548.61314    816.15995    101.99346   -3488.1575 
13676000    249.21917   -3986.4617   -3559.3086   -3986.4617            0    976.92081    18.021441    21.226877    21.986116    8410.5451    734.84754    2368.1527   -172.23781    554.56607   -637.89689   -1045.8285   -3439.4803 
13677000    246.71318   -3931.5904   -3508.7324   -3931.5904            0    1295.6713    18.204528    21.442529    22.209482    8669.4963    2967.3033    88.408269    831.30232   -730.34002    355.56322    672.44367   -3344.9133 
13678000    243.85405   -3942.5278   -3524.5703   -3942.5278            0   -85.932888    18.132282    21.357433    22.121342    8566.6886   -413.88993   -534.81241    690.90367   -388.13026    -480.6674     566.5912   -3535.3065 
13679000    236.29156   -3953.3293   -3548.3336   -3953.3293            0    153.48868    18.074061    21.288856    22.050312    8484.4324    834.34205    -73.71838   -300.15763    777.30327   -353.67311   -363.05552   -3529.3414 
13680000    241.99349   -3975.2842   -3560.5156   -3975.2842            0    842.65982    17.997555    21.198743    21.956975    8377.1468    1645.4739    67.257562      815.248    -1954.376   -722.42369   -718.13493   -3457.5661 
13681000    250.57506   -3967.6753   -3538.1982   -3967.6753            0    852.21855    17.999574    21.201121    21.959439    8379.9668   -265.74441    1101.5759    1720.8241   -295.56271   -37.108752    -921.8407   -3434.0458 
13682000    255.18786   -3944.3503    -3506.967   -3944.3503            0    1015.6458    17.967943    21.163863    21.920848     8335.865    582.58722    1720.0422    744.30784    394.20178   -135.61929   -110.96027   -3383.4949 
13683000    239.39666   -3964.2671   -3553.9495   -3964.2671            0    1828.1662     18.01067    21.214191    21.972976    8395.4742    2206.4596    2709.1062    568.93286    538.75891    73.524727    56.749563   -3330.1099 
13684000    243.60872   -3981.9575   -3564.4205   -3981.9575            0   -212.40228    18.115844    21.338071    22.101287    8543.4105   -681.35941    442.82121   -398.66866    1524.4086   -182.03356    -954.7421   -3590.8851 
13685000    251.19656   -3952.4863    -3521.944   -3952.4863            0    549.71934    18.100566    21.320076    22.082648    8521.8143    184.17779    1174.2358    290.74443   -466.98094    1552.4375   -811.85821   -3453.6238 
13686000    254.73343   -3941.3136   -3504.7092   -3941.3136            0   -1107.0386    18.076038    21.291186    22.052725     8487.218   -2116.7856   -1341.8831    137.55279   -481.40154    -1416.634   -454.13029   -3641.7355 
13687000     246.6615   -3952.6343    -3529.865   -3952.6343            0    1263.5299    17.964461    21.159762      21.9166    8331.0192    1047.1669    1029.1944    1714.2284   -1627.7851   -1779.1397    796.20932   -3376.3469 
13688000    254.64858   -3917.8618   -3481.4028   -3917.8618            0    1127.5184    18.018031    21.222861    21.981956    8405.7719   -801.11393    1981.5269    2202.1421   -1227.6108   -42.380729   -1390.1789   -3343.1808 
13689000    242.05934   -3951.2982   -3536.4168   -3951.2982            0    1941.2099    18.006306     21.20905    21.967652    8389.3726    1251.7556    1484.0515    3087.8225    281.18142   -550.04476   -981.03024    -3298.909 
13690000    254.31842   -3916.0614   -3480.1683   -3916.0614            0    1564.5484     18.00769     21.21068     21.96934    8391.3067    818.50568    2122.3976    1752.7419    601.98069    188.74798   -1185.7733    -3288.701 
13691000    248.15021   -3926.3035   -3500.9826   -3926.3035            0    652.29546    18.008332    21.211436    21.970123     8392.204    684.30373    742.88592    529.69673    713.67036   -1095.0503   -136.25229    -3421.147 
13692000    257.71228   -3955.4656   -3513.7555   -3955.4656            0    1274.9955    18.036573    21.244701    22.004577     8431.749    2399.0878    955.58448    470.31405   -825.20179    -870.9638    742.03669   -3356.9714 
13693000    248.85704   -3950.9071   -3524.3746   -3950.9071            0    126.45276    18.069116    21.283032    22.044279    8477.4706    308.08682   -789.35822    860.62968   -654.50127   -19.127858    170.85426   -3508.7406 
13694000    248.36591   -3947.6975   -3522.0068   -3947.6975            0    677.56044    18.130267    21.355059    22.118883    8563.8324   -142.22056    1076.4475    1098.4544   -603.19565   -49.272025    204.25453   -3437.3831 
13695000    244.05474   -3970.7064   -3552.4049   -3970.7064            0    460.41342    18.106726    21.327331    22.090163    8530.5174    1141.8054   -122.34617    361.78105   -144.90955   -1137.6235    683.36886   -3495.1254 
13696000    247.12199   -3953.5136   -3529.9549   -3953.5136            0   -343.01623    18.200554    21.437849    22.204633    8663.8199   -474.07419   -42.809461   -512.16505     98.98314    1061.3643    455.67782   -3573.2961 
13697000     237.3953   -3947.9826   -3541.0952   -3947.9826            0    1022.9965    18.093299    21.311517    22.073783    8511.5546    337.61183    306.77306    2424.6045   -623.88611   -568.69884   -595.11773   -3414.1083 
13698000    242.22923   -3955.2968   -3540.1242   -3955.2968            0    792.21362    18.129681    21.354369    22.118168    8563.0025   -296.25274    2771.3267   -98.433051   -338.30886    155.95232   -729.30354   -3441.1905 
13699000    247.66728   -3924.8122    -3500.319   -3924.8122            0    2498.0118    18.046449    21.256333    22.016626    8445.6071    2540.6876     2256.741    2696.6067    1154.3317   -775.70261   -538.49669   -3192.6376 
13700000    234.87762   -3956.9717   -3554.3995   -3956.9717            0    242.09125    18.143851     21.37106    22.135456    8583.0969    1187.5591   -26.876205   -434.40914    1617.0986   -679.35311   -356.20303   -3524.0956 
13701000     243.0044   -3951.9686   -3535.4673   -3951.9686            0   -647.84539     18.17546    21.408292    22.174019     8628.034    174.28373   -1157.3667    -960.4532   -18.542956    101.01038    41.645734   -3616.9864 
13702000    255.81769   -3979.1518    -3540.689   -3979.1518            0    85.342083    18.119125    21.341936     22.10529    8548.0539   -990.73606    384.02596    862.73636    637.04945   -1827.7691   -334.82385   -3530.0499 
13703000     232.6886     -3968.13   -3569.3097     -3968.13            0    737.92403    18.129273    21.353888     22.11767    8562.4239   -22.238769    1808.5598    427.45106    280.40485   -944.64419    1730.8556   -3477.1621 
13704000    229.78042   -3960.6157   -3566.7799   -3960.6157            0    1313.9743     18.05125    21.261988    22.022483    8452.3492    591.92335    1223.0614    2126.9381    266.16315   -506.05966     97.11306   -3404.8078 
13705000    230.79753   -3977.2286   -3581.6495   -3977.2286            0    188.88248    18.183979    21.418326    22.184412    8640.1719    1070.7688   -129.96121   -374.16018   -892.26234   -137.59328    269.79118   -3557.8488 
13706000    240.51585   -3979.6851   -3567.4491   -3979.6851            0    1658.5986    18.019807    21.224953    21.984123    8408.2578    568.71331    3575.0719    832.01063   -1195.7796    613.04069   -683.24581   -3364.0621 
13707000    242.24151   -3985.6331   -3570.4395   -3985.6331            0   -511.76027    18.119776    21.342703    22.106084    8548.9754   -252.67028   -640.20671   -642.40381   -172.48669    1849.9042   -1516.7077   -3634.2447 
13708000    255.68939   -3983.3037   -3545.0609   -3983.3037            0     311.6169    18.053754    21.264937    22.025538    8455.8671    414.14195    46.107742      474.601    908.14064    402.35098    46.993768   -3506.6322 
13709000    236.98745   -3963.1252   -3556.9368   -3963.1252            0    729.09634    18.056395    21.268049     22.02876    8459.5791    539.73909    828.39641    819.15353    1645.1033    703.92568    176.25921   -3466.9851 
13710000    246.05503    -3947.557   -3525.8271    -3947.557            0    529.54589    18.038033     21.24642    22.006358    8433.7966   -387.19068    911.49604    1064.3323    2335.3325   -466.40408    -65.99512   -3460.6939 
13711000    243.24643    -3983.337    -3566.421    -3983.337            0    648.19369    18.119846    21.342786     22.10617    8549.0751   -557.49345    1498.5851    1003.4894   -555.14905   -255.31671    170.32269   -3485.6045 
13712000    246.75468   -3986.5876   -3563.6585   -3986.5876            0    103.71955    18.138585    21.364857    22.129031    8575.6253   -831.56837    548.82859    593.89843   -239.97486    1126.4627   -299.41541   -3550.6866 
13713000    246.93664   -3962.8364   -3539.5954   -3962.8364            0    538.20721    18.209193    21.448024    22.215173    8676.1625     103.7121    850.80474     660.1048   -36.314216    353.42837    1425.5572   -3471.4945 
13714000      232.521   -3960.0413   -3561.5083   -3960.0413            0   -586.36609    18.206833    21.445245    22.212294    8672.7903   -1531.1292   -694.61425    466.64519    615.40504    238.27291    220.50379   -3635.6741 
13715000    228.84548   -4005.8525   -3613.6191   -4005.8525            0    531.78831    18.098426    21.317555    22.080037    8518.7914    745.91274    224.77811    624.67407     427.7086   -480.40959   -36.896372   -3547.5509 
13716000    243.23569   -3988.1654   -3571.2677   -3988.1654            0    609.57747    18.157978      21.3877    22.152691    8603.1613     612.3388   -333.57506    1549.9687    1539.0417    802.10048    605.14401   -3494.7851 
13717000    229.34641   -3980.6459    -3587.554   -3980.6459            0    1208.7087    18.096885     21.31574    22.078157     8516.616    3174.7327    305.27635    146.11712    745.71449    2153.2753    120.84424    -3437.425 
13718000    244.73536   -3972.6609   -3553.1928   -3972.6609            0    510.82145    18.218336    21.458793    22.226327    8689.2381    1105.7417    269.13184    157.59083   -289.08184    795.74991    314.69054   -3488.4597 
13719000    250.82692   -3966.1214   -3536.2126   -3966.1214            0    617.62415    18.168415    21.399993    22.165424    8618.0044    278.18298    1199.5198    375.16964    408.66241    134.61741    93.315269   -3458.5867 
13720000    237.30054   -3991.9229   -3585.1979   -3991.9229            0    321.54067    18.172657    21.404989    22.170599     8624.042    642.59528    -356.4343    678.46104   -592.66448   -207.47792     27.47547   -3544.7569 
13721000    238.91725    -3985.746   -3576.2501    -3985.746            0    645.87297    18.180764    21.414538    22.180489    8635.5887     -194.511    681.41233    1450.7176   -834.21219    94.729861    391.59265    -3494.908 
13722000    238.06146    -3975.746   -3567.7168    -3975.746            0    471.79846     18.17661    21.409645    22.175421    8629.6708    377.94212    405.57585     631.8774   -103.09835    197.87231   -1621.6799   -3508.3386 
13723000    244.63481   -3993.3156   -3574.0199   -3993.3156            0   -469.78154    18.180772    21.414548    22.180499    8635.6004   -1142.8953    1165.7324   -1432.1817     426.8318     282.4817    239.64276   -3633.1848 
13724000    247.22703   -3988.1495   -3564.4108   -3988.1495            0   -547.68526    18.144134    21.371393    22.135801    8583.4979   -109.71077   -341.17577   -1192.1692    1259.0798   -682.34819   -327.07142   -3632.9709 
13725000    247.42765   -3998.0243   -3573.9418   -3998.0243            0    1703.1602     18.07088    21.285109    22.046431    8479.9534    3013.2586     853.0798    1243.1422    60.438119    972.61921    200.19343   -3363.3095 
13726000      257.184   -4000.7393   -3559.9347   -4000.7393            0    1169.9632    18.071958     21.28638    22.047747    8481.4722    983.47462     1426.216     1100.199    435.07966    1136.4456   -1343.3614   -3415.2178 
13727000    264.08142    -3944.691   -3492.0645    -3944.691            0    1725.3809    18.106775    21.327389    22.090223     8530.587    1242.2368    1461.8574    2472.0485    1962.8407   -105.69805    1100.9968   -3277.4101 
13728000    256.46187   -3987.5018   -3547.9349   -3987.5018            0    939.00087    18.089322    21.306831     22.06893    8505.9422    996.00387    462.22792    1358.7708   -731.25482     183.3164    408.74403   -3431.4515 
13729000    252.68255   -3981.9513    -3548.862   -3981.9513            0    1283.7219    18.070892    21.285123    22.046446    8479.9703    1668.7845    965.44848    1216.9328   -823.48331    1132.6308    -1197.848    -3390.102 
13730000    253.32241    -3964.661    -3530.475    -3964.661            0    1386.5598    18.121462    21.344689    22.108142    8551.3622    1048.9474    723.19434    2387.5376   -76.222517   -815.77805   -70.524115   -3357.5532 
13731000    245.59731   -3966.2959   -3545.3505   -3966.2959            0    1389.6173    18.125202    21.349093    22.112704     8556.657    1308.0182    1252.9021    1607.9315   -1022.6262    298.87344   -439.92906   -3371.9401 
13732000    242.68204   -3964.1737    -3548.225   -3964.1737            0     804.5292    18.086636    21.303668    22.065653    8502.1538    134.14351    439.29159    1840.1525   -167.30153    258.13729   -664.87456   -3448.4672 
13733000    239.51579   -3984.3645   -3573.8426   -3984.3645            0    105.04491    18.065279    21.278512    22.039598    8472.0712   -724.06877   -599.17516    1638.3786    891.50522    701.08352    1334.9844   -3560.8636 
13734000    249.36996   -3973.0453   -3545.6337   -3973.0453            0    950.12598    18.061821     21.27444     22.03538    8467.2075    746.07462    1346.6047    757.69863   -23.109052   -1024.1598   -527.16416   -3428.3069 
13735000    243.21952    -3996.258   -3579.3881    -3996.258            0    102.36688    18.061423    21.273971    22.034894    8466.6481    1626.9788    -1153.706   -166.17211   -782.78621     859.1661   -625.18189   -3566.7481 
13736000     238.2982    -3968.713    -3560.278    -3968.713            0    551.22593      18.0363    21.244379    22.004244    8431.3657     300.1762   -41.496333    1394.9979    711.61122   -759.22143   -32.811622   -3492.4977 
13737000    241.26574   -3970.4138   -3556.8926   -3970.4138            0   -777.33083    18.191971    21.427738    22.194162    8651.5679   -1438.8608   -179.85417   -713.27755   -286.97215    -707.4515     1107.952   -3654.9717 
13738000    249.33314   -3960.6445    -3533.296   -3960.6445            0    1264.8859    18.103607    21.323657    22.086358    8526.1095    -531.6268     1988.567    2337.7175    435.39099    1567.0615   -272.76936   -3376.0143 
13739000    247.85936   -3970.5427   -3545.7202   -3970.5427            0    718.00101    18.149921    21.378209    22.142861    8591.7137   -581.00066    1446.2151    1288.7886    1041.5969    632.04853    13.524291   -3455.7537 
13740000    247.23822   -3952.7802   -3529.0223   -3952.7802            0   -1030.9723     18.18471    21.419186    22.185303     8641.213   -817.23918    -683.5586   -1592.1191     414.3702    981.19304   -932.60086   -3658.9488 
13741000    243.04344   -3984.2444   -3567.6762   -3984.2444            0    225.20537    18.075746    21.290841    22.052368    8486.8064    649.01635      357.519   -330.91922    189.37685     19.39495   -1058.8063   -3539.8022 
13742000    253.81301   -3974.3478   -3539.3209   -3974.3478            0    2241.6775    18.132767    21.358005    22.121934    8567.3765    1396.2429    2229.3709    3099.4186    1089.3206   -217.95206    965.91491   -3259.2314 
13743000     257.5195   -3954.6526    -3513.273   -3954.6526            0    470.21078    18.149313    21.377494     22.14212    8590.8511    322.98555    264.81792    822.82887    347.35878   -633.08604   -201.08111   -3454.3609 
13744000     243.5234   -3940.5278   -3523.1371   -3940.5278            0    420.34532    18.148262    21.376255    22.140837    8589.3581    1001.4646   -1043.4353    1303.0067    541.00186   -402.02567    -379.7594   -3470.4817 
13745000    254.33748   -3936.9129   -3500.9872   -3936.9129            0    58.037332    18.262358    21.510645    22.280034    8752.3793   -1043.0367    665.79539    551.35331   -235.43805    760.05007   -51.720272    -3493.579 
13746000    244.37939   -3959.4009    -3540.543   -3959.4009            0    657.50523    18.149396    21.377591    22.142221    8590.9684    404.81366    892.25535    675.44668    766.00522    144.78436   -625.19398   -3458.1638 
13747000    248.33409   -3982.8225   -3557.1864   -3982.8225            0    464.77782    18.108768    21.329737    22.092655    8533.4045    901.10948    83.286467    409.93751    -553.9977    92.718746   -689.98321   -3499.3443 
13748000    252.17704   -3949.3484   -3517.1255   -3949.3484            0    858.01432    18.133937    21.359383    22.123361     8569.035     569.2349    1524.2252    480.58286   -968.65397    -348.1745   -278.44811    -3409.899 
13749000    239.51259    -3963.826   -3553.3096    -3963.826            0   -106.67626    18.228303    21.470533    22.238487    8703.5072   -257.58135    335.15972   -397.60716   -1254.7536    514.70381   -980.27535   -3566.8502 
13750000      247.217   -3929.2483   -3505.5268   -3929.2483            0    479.21457    18.158392    21.388187    22.153195    8603.7487    233.00259   -411.28077    1615.9219     465.3569    128.82334   -107.35069   -3445.3964 
Loop time of 504.389 on 64 procs for 250000 steps with 864 atoms

Performance: 85.648 ns/day, 0.280 hours/ns, 495.649 timesteps/s
99.1% CPU use with 64 MPI tasks x 1 OpenMP threads

MPI task timing breakdown:
Section |  min time  |  avg time  |  max time  |%varavg| %total
---------------------------------------------------------------
Pair    | 18.664     | 21.561     | 26.129     |  32.0 |  4.27
Bond    | 0.25833    | 0.27445    | 0.28633    |   1.0 |  0.05
Kspace  | 245.41     | 256.21     | 266.91     |  35.9 | 50.80
Neigh   | 3.1428     | 4.0968     | 4.984      |  25.9 |  0.81
Comm    | 97.261     | 109.46     | 123.89     |  62.1 | 21.70
Output  | 0.82086    | 0.82163    | 0.82795    |   0.1 |  0.16
Modify  | 99.067     | 103.92     | 112.14     |  26.9 | 20.60
Other   |            | 8.049      |            |       |  1.60

Nlocal:        13.5000 ave          19 max           8 min
Histogram: 2 7 7 4 9 13 10 5 3 4
Nghost:        1914.53 ave        1974 max        1872 min
Histogram: 6 4 9 11 13 9 5 3 3 1
Neighs:        3587.80 ave        5486 max        2203 min
Histogram: 5 7 7 8 14 9 9 2 2 1

Total # of neighbors = 229619
Ave neighs/atom = 265.76273
Ave special neighs/atom = 2.0000000
Neighbor list builds = 10952
Dangerous builds = 0

unfix		3
unfix		2
unfix		1

write_data	data.final.${pid}
write_data	data.final.0
System init for write_data ...
PPPM initialization ...
  extracting TIP4P info from pair style
  using 12-bit tables for long-range coulomb (../kspace.cpp:340)
  G vector (1/distance) = 0.37167356
  grid = 24 25 25
  stencil order = 5
  estimated absolute RMS force accuracy = 0.0032852817
  estimated relative force accuracy = 9.8935284e-06
  using double precision FFTW3
  3d grid and FFT values/proc = 2940 384
Last active /omp style is kspace_style pppm/tip4p/omp
WARNING: Not all mixed pair coeffs generated from mixing. Use write_data with 'pair ij' option to store all pair coeffs. (../write_data.cpp:312)

write_restart   restart.lmp.${pid}
write_restart   restart.lmp.0
System init for write_restart ...
PPPM initialization ...
  extracting TIP4P info from pair style
  using 12-bit tables for long-range coulomb (../kspace.cpp:340)
  G vector (1/distance) = 0.37167356
  grid = 24 25 25
  stencil order = 5
  estimated absolute RMS force accuracy = 0.0032852817
  estimated relative force accuracy = 9.8935284e-06
  using double precision FFTW3
  3d grid and FFT values/proc = 2940 384
Last active /omp style is kspace_style pppm/tip4p/omp
Total wall time: 0:08:29
