LAMMPS (30 Jul 2021)
  using 1 OpenMP thread(s) per MPI task
package omp 0
using multi-threaded neighbor list subroutines
echo both

include		in.partitions
variable        pid world 0
include		in.temp
variable        temperature equal 267.61
variable	tempDamp equal 100.0
include		in.pressure
variable        pressure equal 10500.0
variable        pressureDamp equal 1000.0 # This is 1 ps
include		in.seed
variable        seed world 745823

units		real
atom_style	full
read_restart    restart.lmp.${pid}
read_restart    restart.lmp.0
Reading restart file ...
  restart file = 30 Jul 2021, LAMMPS = 30 Jul 2021
  restoring atom style full from restart
  triclinic box = (-3.1528831 -0.12549498 -0.018065889) to (14.762882 22.705494 19.248064) with tilt (-0.27526900 -6.4959576 -0.023371458)
  4 by 4 by 4 MPI processor grid
  restoring pair style lj/cut/tip4p/long/omp from restart
  restoring bond style harmonic/omp from restart
  restoring angle style harmonic/omp from restart
  1008 atoms
  672 bonds
  336 angles
Finding 1-2 1-3 1-4 neighbors ...
  special bond factors lj:    0        0        0       
  special bond factors coul:  0        0        0       
     2 = max # of 1-2 neighbors
     1 = max # of 1-3 neighbors
     1 = max # of 1-4 neighbors
     2 = max # of special neighbors
  special bonds CPU = 0.196 seconds
  read_restart CPU = 0.358 seconds

include 	in.setup
variable	out_freq equal 1000
variable	out_freq2 equal 10000
variable	out_freq3 equal 1000

timestep	2.0

neigh_modify    delay 7 every 1

include		in.tip4p
# This is TIP4P/Ice

# create groups ###
group ox type 2
336 atoms in group ox
group hy type 1
672 atoms in group hy

# set charges - beside manually ###
set group ox charge -1.1794
Setting atom values ...
  336 settings made for charge
set group hy charge 0.5897
Setting atom values ...
  672 settings made for charge

# ### TIP3P Potential Parameters ###
pair_style lj/cut/tip4p/long/omp 2 1 1 1 0.1577 8.5
pair_coeff 1 1*2 0.000 0.000
pair_coeff 2 2 0.21084 3.1668
bond_style  harmonic
bond_coeff  1 450 0.9572
angle_style harmonic
angle_coeff 1 55 104.52
kspace_style pppm/tip4p/omp 1.0e-5
pair_modify tail yes

thermo          ${out_freq}
thermo          1000
thermo_style    custom step temp pe etotal epair emol press lx ly lz vol pxx pyy pzz pxy pxz pyz enthalpy

restart 	${out_freq3} restart.lmp.${pid} restart2.lmp.${pid}
restart 	1000 restart.lmp.${pid} restart2.lmp.${pid}
restart 	1000 restart.lmp.0 restart2.lmp.${pid}
restart 	1000 restart.lmp.0 restart2.lmp.0


include         in.dump
dump            myDump all atom ${out_freq2} dump.water.${pid}
dump            myDump all atom 10000 dump.water.${pid}
dump            myDump all atom 10000 dump.water.0
dump            myDump2 all dcd ${out_freq2} dump.dcd
dump            myDump2 all dcd 10000 dump.dcd
dump_modify     myDump append yes
dump_modify     myDump2 append yes


variable natoms 	equal  "count(all)"                        # NUMBER ATOMS
variable H      	equal  "enthalpy/v_natoms"                 # ENTHALPY-per-atom
variable Vol      	equal  "vol/v_natoms"                 # volume-per-atom
fix AVG all 		ave/time ${out_freq} 1 ${out_freq} v_Vol v_H file vol_enthalpy.dat
fix AVG all 		ave/time 1000 1 ${out_freq} v_Vol v_H file vol_enthalpy.dat
fix AVG all 		ave/time 1000 1 1000 v_Vol v_H file vol_enthalpy.dat



fix 		1 all shake 1e-6 200 0 b 1 a 1
       0 = # of size 2 clusters
       0 = # of size 3 clusters
       0 = # of size 4 clusters
     336 = # of frozen angles
  find clusters CPU = 0.023 seconds
fix             2 all nph tri ${pressure} ${pressure} ${pressureDamp}
fix             2 all nph tri 10500 ${pressure} ${pressureDamp}
fix             2 all nph tri 10500 10500 ${pressureDamp}
fix             2 all nph tri 10500 10500 1000
fix             3 all temp/csvr ${temperature} ${temperature} ${tempDamp} ${seed}
fix             3 all temp/csvr 267.61 ${temperature} ${tempDamp} ${seed}
fix             3 all temp/csvr 267.61 267.61 ${tempDamp} ${seed}
fix             3 all temp/csvr 267.61 267.61 100 ${seed}
fix             3 all temp/csvr 267.61 267.61 100 745823


run             250000
PPPM initialization ...
  extracting TIP4P info from pair style
  using 12-bit tables for long-range coulomb (../kspace.cpp:340)
  G vector (1/distance) = 0.37971891
  grid = 24 27 32
  stencil order = 5
  estimated absolute RMS force accuracy = 0.0023968499
  estimated relative force accuracy = 7.2180422e-06
  using double precision FFTW3
  3d grid and FFT values/proc = 3825 384
Last active /omp style is kspace_style pppm/tip4p/omp
Neighbor list info ...
  update every 1 steps, delay 7 steps, check yes
  max neighbors/atom: 2000, page size: 100000
  master list distance cutoff = 10.8154
  ghost atom cutoff = 10.8154
  binsize = 5.4077, bins = 5 5 4
  1 neighbor lists, perpetual/occasional/extra = 1 0 0
  (1) pair lj/cut/tip4p/long/omp, perpetual
      attributes: half, newton on, omp
      pair build: half/bin/newton/tri/omp
      stencil: half/bin/3d/tri
      bin: standard
Per MPI rank memory allocation (min/avg/max) = 9.313 | 9.327 | 9.337 Mbytes
Step Temp PotEng TotEng E_pair E_mol Press Lx Ly Lz Volume Pxx Pyy Pzz Pxy Pxz Pyz Enthalpy 
26250000    267.54004    -4773.992   -4238.8789    -4773.992            0    10481.209    17.915765    22.830989     19.26613    7880.5144    9769.8051    10073.646    11600.175   -214.21579   -317.37728    199.73144   -3034.2818 
26251000    269.42974   -4815.9185   -4277.0258   -4815.9185            0    9265.2406    17.999351    23.018792    19.111257    7918.2393     9559.178     7895.445    10341.099   -273.34864   -191.84171    -1238.278   -3207.0814 
26252000    263.64591   -4790.9753   -4263.6509   -4790.9753            0    10238.704     17.73886    23.129173    19.176444      7867.81    11361.691    10520.815    8833.6067     2080.975    -1027.179   -89.395533   -3088.8216 
26253000    260.83627   -4792.5795   -4270.8747   -4792.5795            0    11091.753     17.73022    23.170737    19.158906    7870.9053    11400.785    10856.149    11018.324    142.59096   -256.58859   -973.19616   -2997.6626 
26254000    247.57571   -4806.6149   -4311.4329   -4806.6149            0    9697.6396    18.059453    22.818104    19.241412    7929.0487    8095.9394     9464.171    11532.808    1293.6322    722.00253    1901.0871   -3190.0265 
26255000    254.84196   -4784.3014    -4274.586   -4784.3014            0    10611.357    17.900399    22.754398    19.352624    7882.5717    10045.973    11356.339     10431.76   -86.155382    895.44625    30.728972   -3054.7126 
26256000     268.1616   -4783.2922   -4246.9358   -4783.2922            0    11258.224    18.032772    22.617623    19.201767    7831.6026    10663.665    11377.483    11733.523     25.21906   -1255.5563    537.74498   -2961.0678 
26257000    258.62697   -4777.9415   -4260.6556   -4777.9415            0    11614.473     17.78035    22.757705    19.373023     7839.099    12404.748      11267.4    11171.269    370.05913    -1162.579    1217.6436   -2932.8285 
26258000    275.72972   -4819.2471   -4267.7536   -4819.2471            0    9927.5203    17.997304    22.690748    19.355309    7904.1717     10476.43    9540.5435    9765.5869    146.59698   -50.957953    928.32357   -3123.3663 
26259000    277.17515   -4782.2287   -4227.8442   -4782.2287            0    12818.956     17.95101    22.586409    19.300415    7825.3309    13997.108    12992.281    11467.479   -1712.7635    258.16519   -4.7116475   -2764.8882 
26260000    276.81131   -4811.2748    -4257.618   -4811.2748            0    8994.4714    18.011961    22.785265    19.314079    7926.6393    8815.9803    9412.5822    8754.8518   -365.45952     752.1722   -1.3615389     -3217.84 
26261000    266.02568   -4808.2847   -4276.2005   -4808.2847            0    9908.1294    17.842152    22.912341    19.323271    7899.4587    9435.7011    10654.499    9634.1877   -230.21199   -206.42614   -542.52931   -3134.7294 
26262000    279.46191    -4788.393   -4229.4347    -4788.393            0    9475.9355    17.853955     22.84294    19.383816    7905.4341    9556.1758      10600.5    8271.1307     836.0072   -848.68446   -1118.4625    -3136.929 
26263000    277.89923   -4782.0122   -4226.1794   -4782.0122            0    11825.382    17.868406    22.941185    19.196322    7869.0027    12304.537    11447.535    11724.075     182.7861   -1109.8943    380.77145   -2869.0828 
26264000    261.01834    -4791.373    -4269.304    -4791.373            0    11417.904    17.648946    23.125812    19.264022    7862.5373    12375.231    10134.582    11743.899    955.12249   -25.101249    961.51046   -2960.0468 
26265000    263.57382   -4798.2231   -4271.0429   -4798.2231            0    11364.802    17.787624    23.099727    19.129427    7860.0764    12444.432    10136.532    11513.442   -1376.5186   -1456.7311    308.82876   -2968.2826 
26266000     268.5545   -4795.9325   -4258.7903   -4795.9325            0    11075.949    17.707239    23.123071    19.184002    7854.8079    10333.573     12293.61    10600.662   -769.80075    407.91345   -75.758047   -2989.9926 
26267000    267.81073   -4807.9668   -4272.3122   -4807.9668            0    11013.354     17.82512    23.049873    19.119552    7855.5881    11165.407    10322.154      11552.5   -417.95469    461.40459   -552.03308   -3010.5597 
26268000    261.56196   -4821.0524   -4297.8962   -4821.0524            0     9342.556    17.692633    23.247901    19.216985    7904.2645    8863.4858    9028.9148    10135.267    390.49569    39.976364   -824.39523   -3220.9275 
26269000    266.89165    -4800.659   -4266.8427    -4800.659            0    9281.2097     17.57323    23.390455    19.126967    7862.0602    9105.5202    8282.2644    10455.845   -735.02804    201.28801    211.64193   -3202.6585 
26270000    271.53541   -4813.9461   -4270.8418   -4813.9461            0    9863.9294    17.667859    23.176505    19.224861    7872.1812    9564.6859    9652.1401    10374.962    32.612682    253.31361      64.1667   -3138.3868 
26271000    269.66504   -4842.1301   -4302.7667   -4842.1301            0    9775.9444    17.928102     23.01811    19.185845    7917.4427    8669.4327    10894.874    9763.5268    834.46646     1953.811   -39.985959   -3173.9601 
26272000    274.97759   -4825.2792     -4275.29   -4825.2792            0    10249.182     17.72982    23.064355    19.259549    7875.7467    10332.391    9568.8369    10846.318    409.97532    -697.1392    1416.3019   -3098.0722 
26273000    259.84544   -4812.2264   -4292.5034   -4812.2264            0    9979.5028    17.844201    23.193763    18.969493    7850.9831    9873.8178    8600.2378    11464.453    1534.4672   -1512.7531    544.01114   -3149.8649 
26274000    283.24917   -4776.4055   -4209.8722   -4776.4055            0    11301.194    17.541009    23.051041    19.342038    7820.7307    12973.299    10168.625    10761.658   -882.08026   -789.34389   -580.78157   -2920.8881 
26275000    272.47006   -4790.3075   -4245.3337   -4790.3075            0        10253    17.942073    23.117987     19.08338    7915.4925    8670.4252    9960.8355    12127.738     1056.964    1507.4098    981.66482   -3061.7342 
26276000    265.76018   -4774.9297   -4243.3765   -4774.9297            0    10947.229    17.688554    23.060301    19.299875    7872.4841    12486.948    10709.127    9645.6128   -1986.2732     619.3519   -393.14762    -2986.502 
26277000    282.83072   -4798.0623   -4232.3659   -4798.0623            0     11700.56    17.870125    22.971287    19.111958    7845.4545    11848.702    10582.208    12670.771   -262.32593   -151.36579    470.97273   -2893.6123 
26278000    263.12738    -4807.802   -4281.5147    -4807.802            0     9667.724     17.87205    22.761116    19.274833    7840.7674      9283.06    9776.1496    9943.9625    238.18634   -1177.5579   -1255.0154   -3176.0148 
26279000    260.68006   -4793.3819   -4271.9895   -4793.3819            0    9213.4712     17.95126     22.82787    19.298735    7908.4097    8351.7999    9698.0937    9590.5201    528.50083   -1480.1801    821.22669   -3209.3442 
26280000    268.40703   -4785.2936   -4248.4464   -4785.2936            0    9478.1745    17.925609    22.918838    19.285738    7923.2395    9098.6115    9004.2678    10331.644   -2895.0033   -1492.7697   -713.35123   -3153.2214 
26281000    285.16801   -4815.8496   -4245.4783   -4815.8496            0    9460.2008    17.923581    22.749329    19.395767    7908.6135    9825.5839    9118.6398    9436.3787    472.69406    572.80209    1635.9477   -3154.3481 
26282000    274.35086   -4794.2817    -4245.546   -4794.2817            0    11959.424     18.02439    22.687386    19.153063    7832.1911    14289.526    11500.163    10088.583   -95.539333    37.067935    579.51795   -2879.4871 
26283000    264.02266   -4798.9388   -4270.8608   -4798.9388            0    9479.8245    17.879558    22.668039    19.430669    7875.1436    11357.873    8966.3531    8115.2476    1845.0797   -699.54126    1110.3353   -3182.0945 
26284000    259.24243   -4817.4122   -4298.8953   -4817.4122            0    10301.515    17.942667    22.758055    19.290592     7877.124    10595.014    10535.216    9774.3139    634.22102    -214.0897    844.86149   -3115.4596 
26285000    269.59351   -4843.7754    -4304.555   -4843.7754            0    10504.052    18.029092    22.715585    19.165693    7849.1443    10509.278    10926.069    10076.808    2439.1485    52.192842   -1253.4558   -3102.1382 
26286000    262.60341   -4827.5361   -4302.2968   -4827.5361            0    10118.433    17.849228    22.907408    19.219016    7858.2628    10743.058    11276.408    8335.8314     486.1754    967.26767   -215.24385   -3142.6768 
26287000    270.95103   -4807.5053   -4265.5697   -4807.5053            0    9968.5366    17.785282    23.170729    19.128918    7882.9884     10688.78    8989.8333    10226.996   -1119.3299    204.95684    342.36509   -3119.5339 
26288000    267.49497   -4810.4574   -4275.4344   -4810.4574            0    10541.953     17.68416    23.206515    19.211753    7884.2676    10293.707    9952.4606     11379.69    1394.0566   -642.61936      1105.71    -3063.279 
26289000    267.32326   -4808.4578   -4273.7782   -4808.4578            0    10712.825    17.683277     23.37336    18.985863    7847.1913    9080.9774    10316.844    12740.653    1739.2502   -348.19942       355.05   -3047.7679 
26290000    278.30038   -4812.8282    -4256.193   -4812.8282            0    11806.675    17.529573    23.520059    19.007607    7836.7713    12072.798    11041.709    12305.516     1886.033    350.90526    672.89758   -2906.7932 
26291000      267.332   -4802.1227   -4267.4257   -4802.1227            0     10360.28    17.783115    23.200071    19.059489    7863.3645    9451.3157    9452.4411    12177.083    1130.5215    174.92393    761.92365    -3079.318 
26292000     268.0272   -4804.9536   -4268.8661   -4804.9536            0    9913.3597     17.82568    23.200449    19.063103    7883.8089    9530.1227    10244.159    9965.7978   -1710.3672      256.401   -657.85114   -3129.0551 
26293000    275.10965   -4789.2091   -4238.9558   -4789.2091            0    11746.053    17.698536    23.244318    19.002544     7817.464    12424.602    10191.791    12621.767   -1108.0295   -832.76703   -1177.8624   -2899.7919 
26294000    259.88786   -4799.1806   -4279.3728   -4799.1806            0    13581.802    17.596863    23.062426    19.168542    7779.0994     14515.74    12070.684    14158.983    246.53722   -1592.9495   -1310.4224   -2738.5147 
26295000    252.91614   -4815.7889   -4309.9253   -4815.7889            0    8855.3646    17.874517    23.176891    19.102457    7913.6844    7005.3832    8677.4994    10883.211    202.45773    327.03094   -1266.4114   -3287.9014 
26296000    258.46996   -4806.5161   -4289.5442   -4806.5161            0    11376.956    17.761928    23.064365    19.158254    7848.5154     11975.98    11427.157    10727.732   -51.488578    1651.5679   -1356.8903   -2987.3088 
26297000    259.73961   -4785.4274   -4265.9161   -4785.4274            0    11916.149    17.741945    22.985156    19.260676    7854.5299     11572.23      11594.5    12581.717   -1081.1962    -215.8328   -137.51533   -2900.9181 
26298000    258.21908   -4801.9993   -4285.5292   -4801.9993            0    10107.545    17.880458    22.975097    19.168841    7874.6607    10268.197    8709.0937    11345.343   -1655.5062        -1574    -451.3127   -3124.7399 
26299000    267.60299   -4773.5616   -4238.3225   -4773.5616            0    12707.798    17.883648    22.675441    19.261509    7810.9191    13576.784    12713.891    11832.719    270.49155    417.17775    2509.4568   -2790.7233 
26300000     268.0926    -4819.508   -4283.2897    -4819.508            0    12043.121    17.881002    22.700526    19.259516    7817.5945    12175.216    12844.164    11109.983    988.10573    1398.0502    1782.6909   -2910.2342 
26301000    293.18858   -4799.8157   -4213.4024   -4799.8157            0    9571.6379    18.167545    22.491823    19.466041    7954.2372    8957.7101    11431.465     8325.739    -135.8544    879.29697   -627.57418   -3103.0504 
26302000    263.21158    -4818.809   -4292.3533    -4818.809            0    9797.7531    17.976153    22.671298    19.297984     7864.753    7988.4457    10512.652    10892.162    118.13821    764.86564    1239.1406   -3168.5574 
26303000    261.02163   -4833.0612   -4310.9857   -4833.0612            0    8847.6919    18.078007    22.632315    19.323153    7906.0131    9325.9556    9642.5851    7574.5349   -366.27898    260.48119   -2928.5639   -3290.8371 
26304000    272.29263   -4776.8269    -4232.208   -4776.8269            0    9376.0447    17.970385    22.656898    19.474308    7929.0268    10587.449    9851.1016    7689.5837    173.18026    292.86901    747.67226    -3147.993 
26305000    284.38347   -4823.5042   -4254.7021   -4823.5042            0    9344.1655    18.030782    22.952601    19.107002    7907.4963    8270.7276    8284.1841    11477.585   -478.14205   -1329.9547    2904.8836   -3177.1075 
26306000    286.21707   -4795.0294   -4222.5599   -4795.0294            0    10369.918    17.804353    22.932531     19.34206    7897.3413    10869.791    10349.106    9890.8566   -1876.6681    65.506892    1486.9127   -3028.2085 
26307000    252.24676   -4817.4827   -4312.9581   -4817.4827            0    9731.4655    17.856634    23.016831    19.221726    7900.1895    10986.088    9323.2233    8885.0857   -1682.9279     939.3054    655.42153    -3191.736 
26308000    262.81539   -4795.4921   -4269.8289   -4795.4921            0    11080.283    17.761213    23.091718     19.17357    7863.7889    10154.907      11476.5    11609.442   -405.54358    338.15601    2202.1606   -2999.0833 
26309000    250.92138   -4776.1722   -4274.2984   -4776.1722            0    10150.334    17.835311    23.059048    19.204625    7898.1957     10061.07    10674.597    9715.3361   -594.69455   -381.17522   -594.60182   -3105.1111 
26310000    268.64012   -4810.5866   -4273.2731   -4810.5866            0    11509.583    17.764411    22.908297    19.307276    7857.1423    11566.725    11301.198    11660.824   -1380.9611    203.69702   -1276.3276   -2954.4089 
26311000     277.9856   -4812.4129   -4256.4073   -4812.4129            0    9909.9782    17.913241    23.028638    19.141751     7896.308    10902.186    8686.4881     10141.26    186.71397    254.01408    376.47394   -3115.1787 
26312000    281.76391   -4770.8253   -4207.2626   -4770.8253            0    10301.029    17.550642    23.289492    19.265151    7874.5445     11433.77    9074.6133    10394.703    982.14625    752.08929   -875.67811   -3024.2703 
26313000    269.32766   -4766.5113   -4227.8227   -4766.5113            0    10384.132    17.897132    23.243179    18.929025    7874.2138    9164.3683     9699.717     12288.31   -401.72817    1061.4727   -2246.4695   -3035.3367 
26314000     253.3839   -4772.3188   -4265.5197   -4772.3188            0    9631.5567    17.557918    23.265378     19.33493    7898.1562    9264.4547    9277.0557     10353.16    1182.3132    327.69311    2056.7532   -3156.0943 
26315000    265.20397   -4815.9816   -4285.5409   -4815.9816            0    12328.452    17.890266    22.870823    19.114101    7820.8231    12243.613    12138.967    12602.774    1981.6282   -292.70801   -214.76107    -2879.374 
26316000    261.15741   -4767.7126   -4245.3655   -4767.7126            0    8716.6882    18.030644    23.041274    19.144191    7953.4351    7847.3771    8944.9788    9357.7086    732.10856   -495.64609   -240.52134   -3234.2934 
26317000    265.25618   -4817.7224   -4287.1773   -4817.7224            0    10422.132    17.665167     23.10248    19.282291    7869.2799    13091.163    10204.763    7970.4684     1507.736    150.40465   -894.48954   -3091.0775 
26318000    263.39402   -4797.6943   -4270.8737   -4797.6943            0    8312.9763    17.875815    23.199657    19.084683    7914.6617    9172.7971    7438.9269     8327.205   -1670.9358   -763.97989   -1431.8687   -3311.3299 
26319000    273.27404   -4841.2559    -4294.674   -4841.2559            0    12370.047    17.817414    22.935371     19.08552    7799.2789    11531.813    13291.717     12286.61    632.11286   -378.14493   -58.823358   -2887.6495 
26320000    275.92328   -4808.6608   -4256.7802   -4808.6608            0    9904.5856    17.814887    22.952211     19.29879    7891.1025    11058.982    9262.2474    9392.5271    63.228181    -56.70843    1791.3208   -3116.9244 
26321000    272.26202   -4810.4941   -4265.9364   -4810.4941            0    9987.7678    17.877207    23.222677     18.96565     7873.715    11342.611    9207.3165    9413.3761    322.19829    592.75857   -461.52119   -3119.0405 
26322000     275.7607    -4760.828   -4209.2725    -4760.828            0    9737.7426    17.635011    23.207024    19.312452     7903.739    10498.948    8626.3187    10087.961   -632.07288    -781.4649   -611.92803   -3086.8231 
26323000    259.14138   -4823.1407   -4304.8259   -4823.1407            0    11256.386    17.912566    23.208233    18.829031    7827.5861    9410.9714    10217.877     14140.31   -508.25066    454.58698    2052.7366   -3019.8271 
26324000    264.14877   -4843.8898   -4315.5596   -4843.8898            0    8969.8429    17.745851    23.076066    19.254259    7884.7047    9792.5519    8288.3154    8828.6615    -662.1458    421.43531   -559.53476   -3284.1144 
26325000    266.28634   -4811.3866    -4278.781   -4811.3866            0    10108.171    17.844982    23.193096    19.019236    7871.6885    9764.2177    9375.8972    11184.399   -276.47539   -148.20791    -1268.725   -3118.3579 
26326000    267.04903   -4789.2906   -4255.1595   -4789.2906            0    10638.341    17.707498     23.12934    19.292937    7901.6683    10684.576    9196.9875    12033.459    1389.0775    -496.1248    954.54934   -3029.2213 
26327000    255.15482    -4833.145   -4322.8038    -4833.145            0    10082.057    17.680729     23.13037    19.242119    7869.2916    11481.969    9267.5579    9496.6443   -650.91206    262.04659    1670.9555    -3165.731 
26328000    284.15595   -4799.4534   -4231.1064   -4799.4534            0    8460.2051    17.941165    23.004919    19.260341    7949.4177    7864.1585    7657.1966    9859.2602    2041.3051    274.35097    220.43936   -3250.2801 
26329000     269.4711   -4825.0058   -4286.0303   -4825.0058            0    9389.6443    17.808419    22.978518    19.202609    7857.9199    10655.849     8823.667    8689.4172   -781.67232   -668.55541   -293.58861   -3209.9798 
26330000    272.67946   -4773.8629   -4228.4703   -4773.8629            0     12075.57    17.732539     22.97925    19.217203    7830.6343    13655.353    10043.213    12528.144   -884.98156   -1402.1046   -949.67406   -2849.4188 
26331000    262.28565   -4782.1375   -4257.5338   -4782.1375            0    11938.879    17.816193    22.814662    19.270188    7832.7611    10507.485    11533.546    13775.606   -92.879222    94.996051   -1105.1359   -2893.7224 
26332000    262.17671   -4827.4501   -4303.0643   -4827.4501            0    9758.8189    17.910256    22.886694    19.195681    7868.4354    7948.7145    11298.956    10028.786    727.78596    75.440355   -1577.6789   -3183.2099 
26333000    283.54631   -4827.1297   -4260.0021   -4827.1297            0    10601.966    17.997475     22.74718    19.278408    7892.4219    10490.498    11858.253    9457.1454    188.21743    913.68103    427.38015   -3039.6853 
26334000     270.3642   -4767.6867   -4226.9249   -4767.6867            0    12101.525     18.00859    22.718347    19.173185    7844.2365    11350.529    11784.543    13169.502    -845.4546   -7.4638131   -1788.8015   -2842.5088 
26335000    264.39111   -4814.6984   -4285.8835   -4814.6984            0    12118.437    17.722104    22.950956    19.205995    7811.8318    11513.467    12593.753    12248.093    373.98715   -213.21145   -1800.2174   -2905.2596 
26336000     260.9261   -4805.8051   -4283.9207   -4805.8051            0    9492.3203    17.799952    23.201609    19.091937    7884.7318    12085.699    7460.7044    8930.5578    640.50879     211.8363    1148.3482   -3192.3919 
26337000    268.61036   -4811.8356   -4274.5817   -4811.8356            0    10900.307    17.732506    23.012849    19.239018    7850.9718    11848.771    10473.348    10378.803   -696.88966    82.163172   -735.47426   -3026.5143 
26338000    263.26129   -4797.0153   -4270.4602   -4797.0153            0    8664.8959    17.744163    23.278792    19.135592    7904.1988    9010.4017    8807.8473    8176.4387   -383.46971   -250.93188    1598.3162   -3271.6175 
26339000    264.76226   -4847.5973   -4318.0401   -4847.5973            0    10605.392    17.789831    22.975128     19.13633    7821.4702    9412.4043    11403.065    11000.705   -395.37722    223.07002    1357.1327    -3108.303 
26340000    267.25633    -4810.539   -4275.9933    -4810.539            0    11580.645    17.858257    22.823597    19.198334    7825.0428    12638.278      11803.4    10300.256   -788.36757    138.10603    1723.2089   -2954.4076 
26341000    264.88691   -4807.9077   -4278.1012   -4807.9077            0    10052.505    17.863195    22.619096    19.464721    7864.7073    13114.465    9955.0175    7088.0316   -1020.9645     330.7214   -955.28995   -3125.0921 
26342000    271.62952   -4821.1046    -4277.812   -4821.1046            0     11951.01    18.058853    22.647913    19.189915    7848.5856    11478.098    12212.666    12162.265   -1076.3736    392.68264    294.71277   -2909.8567 
26343000    273.63805   -4789.3478   -4242.0379   -4789.3478            0    9447.3855    17.907718    22.793793    19.332952    7891.4177    8069.7799    9919.9894    10352.387     157.5464    -723.1346    1600.1071    -3154.755 
26344000    265.75486   -4799.0466    -4267.504   -4799.0466            0    10720.501    18.108983    22.758137    19.189432    7908.4776      9875.47    10615.051    11670.983   -275.43726   -642.37318   -1259.3177   -3031.0332 
26345000    252.72964   -4828.8693   -4323.3788   -4828.8693            0    9634.0119    17.819268    22.697313    19.530183    7898.9727    9841.2849    10908.279    8152.4714   -1186.3192    1640.7236   -704.33632   -3213.5559 
26346000      266.878   -4788.7198   -4254.9309   -4788.7198            0    11833.397    17.906337    22.851332    19.165774    7842.3209    10529.169      12687.6     12283.42    -101.1974    707.56922     1224.834   -2901.5192 
26347000     266.4408   -4801.9757   -4269.0611   -4801.9757            0    12095.533    17.757792    22.934955    19.210775     7824.052    11872.816    12513.031    11900.752    1263.4111    1059.5291   -1119.7409    -2888.891 
26348000    264.43564   -4803.9952   -4275.0913   -4803.9952            0    8798.3132    17.827504    23.247998    19.088199    7911.1763    10800.528    7014.2502    8580.1612   -825.34575    287.50648   -165.76356   -3259.9737 
26349000    255.35427   -4794.4682   -4283.7281   -4794.4682            0     8954.566    17.683441    23.265496     19.24366    7917.1114    9095.2604    9744.6014    8023.8364   -1115.2065    290.16748    -438.2729   -3249.8075 
26350000    256.98715    -4794.162    -4280.156    -4794.162            0    9806.4785    17.869062    23.126424    19.119165    7900.9474    10504.113    9377.9225    9537.3997    826.89646    1096.8691    206.34879   -3150.1828 
26351000    262.87413    -4842.696   -4316.9153    -4842.696            0    9800.2408    17.734107    23.253944    19.114191    7882.4617    10136.237    9904.6614    9359.8243    1040.2527    -572.1703   -1051.8641   -3190.3029 
26352000     269.9471   -4807.9865   -4268.0589   -4807.9865            0    10117.701     17.75225     23.13013    19.146967    7861.9714    9593.7909    9776.1966    10983.116    54.743657    46.976644   -1640.8157   -3107.9755 
26353000    270.61991   -4793.6045   -4252.3312   -4793.6045            0    10964.642    17.823232    23.180263    19.130748    7903.8149    11276.398    10064.353    11553.174    680.64006     270.0501    2624.6921   -2988.4476 
26354000    278.65355   -4822.8489   -4265.5074   -4822.8489            0    9086.0828    17.740771    23.237479    19.196248    7913.6688    10681.392    7449.4823     9127.374    465.58353   -25.877587    136.42043   -3216.8577 
26355000    278.91675   -4784.7058   -4226.8379   -4784.7058            0    10226.285    17.815371    23.170584    19.162677    7910.2105    9755.2422    9928.4589    10995.155    111.37168    759.42162    300.80998     -3047.11 
26356000    258.40158   -4817.2896   -4300.4546   -4817.2896            0    10257.165    17.686016    23.135497    19.240566    7872.7544    10577.753     10491.92    9701.8211    1909.2643   -300.04278    547.21127   -3122.7674 
26357000    274.25709   -4813.7448   -4265.1967   -4813.7448            0    8816.8423    17.910499    23.413585    18.838959    7900.0984    7460.8311    8579.8004    10409.895   -876.47024   -329.95988    1362.5474   -3249.3657 
26358000    278.74907   -4817.0627   -4259.5301   -4817.0627            0    9208.0091    17.845029    23.063143    19.257515    7925.6703    7357.2607    10637.093    9629.6738   -788.95639    456.86541   -62.417928   -3195.1969 
26359000    264.15337   -4801.8719   -4273.5325   -4801.8719            0    10330.387    17.850543    23.110991    19.080273    7871.4474    10316.337    10823.861    9850.9624   -12.828787    1646.3336    1506.9789   -3087.6352 
26360000    271.37197   -4784.7019   -4241.9244   -4784.7019            0    10169.473    17.673115    23.134916    19.342364    7908.4358    10871.394    9446.3527    10190.673    711.26596   -1195.0879    1953.0153   -3069.0137 
26361000    277.75431   -4776.5666   -4221.0237   -4776.5666            0    11284.917    18.030777     22.86831    19.056022    7857.4344    8355.1543    11927.712    13571.884   -1385.7477   -1019.8318    174.09386   -2927.8555 
26362000    272.21825    -4817.724   -4273.2539    -4817.724            0    9755.6403    17.907534    22.918863    19.243062    7897.7434    10254.205    10110.448    8902.2687    1062.9013   -413.80404    1117.1223   -3149.5945 
26363000    263.13837    -4808.507   -4282.1977    -4808.507            0    13432.424    17.773102    22.817724     19.19077    7782.6582    12624.261    12983.906    14689.105   -1493.0401   -736.80083   -1508.6006   -2757.5896 
26364000    273.21032   -4792.7606   -4246.3062   -4792.7606            0     8859.153    17.764481    23.183293    19.147165    7885.5526    8639.5774    7587.2966    10350.585   -119.75163   -2496.3591    117.74755   -3227.4797 
26365000    262.08785    -4794.617    -4270.409    -4794.617            0    8830.6408     17.75371    23.058709    19.319031    7908.7792    9540.2072    8997.2821     7954.433    249.10073    60.651893   -1443.9351   -3251.8702 
26366000     263.4843   -4830.0015   -4303.0003   -4830.0015            0    10217.565    17.960861    22.992397    19.089562    7883.2875    9002.3914    10960.103      10690.2   -305.28132    573.91375    99.239121   -3128.2904 
26367000    257.24025   -4822.1592    -4307.647   -4822.1592            0    11397.721    17.780943    22.909507    19.301159    7862.3781    13064.901    10587.861    10540.401    -27.42176    824.43361    475.91031   -3000.7305 
26368000    262.03654   -4812.7504    -4288.645   -4812.7504            0    11228.298    17.924874    22.870641    19.103409    7831.5066    11255.182    11007.991    11421.722   -1193.8884   -581.24733   -915.41952   -3006.2106 
26369000    252.80755   -4798.8548   -4293.2084   -4798.8548            0    10264.667    17.849589    23.025741    19.180543    7883.2033    10390.976    10705.728    9697.2982   -268.28819    543.14421    790.97551   -3113.0957 
26370000    263.94966   -4811.4383   -4283.5064   -4811.4383            0    8135.2791     18.01481    22.984197    19.189943    7945.7095    8518.2098    6946.4122    8941.2154   -159.30669   -778.85827   -20.728556   -3340.7901 
26371000    258.65576   -4808.3881   -4291.0446   -4808.3881            0    12225.807    17.708756     22.78993      19.4385    7845.0152    13434.593    12263.145    10979.683    -333.2955   -260.68976   -3692.0525   -2892.2717 
26372000    268.59563   -4792.9338   -4255.7093   -4792.9338            0    7931.6851    17.997426    22.885617    19.378459    7981.6423    9798.6729    6531.1757    7465.2066    466.74246   -398.32362   -103.51246    -3332.429 
26373000    266.09098   -4803.8497   -4271.6348   -4803.8497            0    11426.542    17.935185    22.725381    19.244898    7843.9109    10931.947    12500.183    10847.496   -612.65275    1176.2434   -576.93289    -2964.491 
26374000    270.58001   -4795.9418   -4254.7484   -4795.9418            0    11339.071    17.884538    22.745355     19.35359    7872.8501    11141.005    12397.541    10478.667    2116.5349    513.60952    1139.4592   -2952.8252 
26375000    281.51988   -4793.6057   -4230.5312   -4793.6057            0     12237.58    18.025536    22.729062    19.109867      7829.38    11976.043     12479.48    12257.218   -1129.5504    273.56601   -582.93528   -2833.2017 
26376000    269.62212   -4819.7573   -4280.4798   -4819.7573            0    11249.008    17.834267    22.880502    19.234494    7848.7694    12573.645    9992.1534    11181.225     864.7848   -386.21414    943.97051    -2992.848 
26377000    272.22144   -4834.9473   -4290.4708   -4834.9473            0    10153.488    17.778749    22.914511    19.280171    7854.5747    9267.8897     9758.082    11434.494    -1751.405    -84.88678   -4227.3326   -3127.3794 
26378000    268.61911   -4829.1042   -4291.8328   -4829.1042            0    10868.801    17.888545    22.869644    19.227519    7866.0675    11538.632    10110.053    10957.719    619.04101   -373.27981    808.12814     -3044.98 
26379000    279.06952   -4782.1408   -4223.9672   -4782.1408            0    9503.6142    17.870001    23.018996    19.211679    7902.7146    10361.108    8300.1757    9849.5592   -501.55343   -134.29102   -1593.3965   -3128.6473 
26380000    252.00033   -4816.8522   -4312.8204   -4816.8522            0    10245.034    17.841241    23.004371    19.217917     7887.543    11629.579    9831.8471    9273.6748    363.17068    761.90262    467.32431   -3134.3165 
26381000    264.89298   -4834.4126   -4304.5939   -4834.4126            0    11026.168    17.786399    22.920581    19.210902    7831.7967    10879.041    11223.542    10975.921    336.66398     178.2638   -1062.9177   -3045.1991 
26382000    276.66492   -4786.3531   -4232.9891   -4786.3531            0    8165.2839    17.856763    22.903498    19.357904    7917.0411    8127.5033    8424.2326    7944.1157    741.71992   -855.79243   -877.07327   -3290.2097 
26383000    263.26497   -4775.2451   -4248.6826   -4775.2451            0    10051.594    17.945525    23.021464     19.08465     7884.484     9220.856    10271.718    10662.209    1305.3236     624.1161    1290.4609   -3092.8788 
26384000    265.89989   -4830.9031   -4299.0704   -4830.9031            0    11049.061    17.768219    23.024427    19.200149    7854.8397    11381.415    11163.046    10602.723   -619.25373    772.91409   -412.40878   -3033.3477 
26385000    264.79905    -4813.941   -4284.3101    -4813.941            0    11133.172    17.857056    22.911501    19.137793    7829.8829    11012.568    12219.265    10167.684    1705.6195    1833.0371    3201.7338   -3013.0042 
26386000    286.49009   -4824.8593   -4251.8437   -4824.8593            0    9953.3914    17.899957    22.720441    19.409828    7893.8782    9335.7319    11867.013    8657.4298   -442.82142    1361.8471   -767.08649   -3105.9683 
26387000    264.18972   -4809.5104   -4281.0983   -4809.5104            0    11022.291    17.953857    22.852637    19.127806    7848.0045    11347.358    9566.1337    12153.381   -232.73279   -549.05339   -129.66919    -3019.541 
26388000    266.54095   -4800.1539   -4267.0391   -4800.1539            0    11495.854    17.893514    22.840922    19.146503    7825.2591     11630.16    11296.762     11560.64   -1409.7986   -770.09762   -1434.7892   -2955.0934 
26389000     259.2771   -4823.8369   -4305.2507   -4823.8369            0    12505.346    17.744788    22.935395    19.224062    7823.8801    12883.306    12903.016    11729.715   -144.31615    126.34362    668.77582   -2878.3499 
26390000    275.24363   -4803.2164   -4252.6952   -4803.2164            0    10316.433     17.81028    23.110298     19.13559    7876.2256    11009.023    10482.796    9457.4816    1488.7831    252.69044    506.90583   -3067.6808 
26391000     266.3249    -4813.556   -4280.8733    -4813.556            0    9140.5055    17.734278    23.195066    19.174676    7887.4602     9541.089    8601.3522    9279.0753    26.389146    73.923885    804.69865   -3229.4362 
26392000     269.3343   -4806.3714   -4267.6695   -4806.3714            0    10807.217    17.718302    23.170431    19.106497    7843.9943    11440.398    10756.486    10224.765   -125.28862    143.47104   -1175.9779   -3031.3606 
26393000    262.61509   -4809.6888   -4284.4262   -4809.6888            0    10466.986    17.803052     23.08074    19.120957    7856.9468    10959.616    9200.0508    11241.291    429.39072   -1626.1017   -1245.1437   -3085.0613 
26394000    264.67319   -4801.1479   -4271.7688   -4801.1479            0    10589.758    17.643662     23.17323    19.276997    7881.6054    9917.7323    9624.4389    12227.103    878.90434   -506.61955    236.19114   -3054.5277 
26395000    265.96859   -4795.7256   -4263.7556   -4795.7256            0    11100.809    17.832195    23.147471    18.956954    7824.8658    10383.776     10738.58    12180.072   -960.26275    787.76504    902.67577   -2996.9574 
26396000     276.7156   -4836.4467   -4282.9813   -4836.4467            0    10029.079    17.569152    23.116211    19.299485    7838.1424    9999.5195    9938.4803    10149.236   -1249.2001    530.05327    2050.5157   -3136.5446 
26397000    267.07721   -4852.4324    -4318.245   -4852.4324            0    9565.5893    18.059616    22.863712    19.078167    7877.5633    9578.5493     9483.289    9634.9296   -362.13056   -753.69987    344.55827    -3219.291 
26398000    262.44151   -4811.2808   -4286.3653   -4811.2808            0    10507.232    17.924794    22.750468    19.359916    7894.9245    10318.218    10710.135    10493.343    302.99417    130.97338   -1470.6628   -3076.5692 
26399000    281.90956   -4814.5667   -4250.7127   -4814.5667            0    9667.4039    17.992986    22.811745    19.276188    7911.9386    10054.789    9918.7677    9028.6546   -281.55743   -146.23377    -13.70306   -3135.2151 
26400000    268.91289   -4817.2915   -4279.4325   -4817.2915            0    11216.378    17.859457    22.672942    19.319623    7823.0259    11843.155    11205.869     10600.11     1025.321   -317.88787   -1813.6757   -2999.7469 
26401000    288.15724   -4816.6882   -4240.3382   -4816.6882            0    8108.2502    17.964444    22.882263    19.331483    7946.5374    7556.6598    7702.4386    9065.6522    -783.4869   -1009.0286   -488.83414    -3300.656 
26402000    264.46478   -4791.3965   -4262.4343   -4791.3965            0    10757.886    17.775543    23.104885    19.147463    7863.8991    11673.329    11201.224    9399.1055    13.670613   -817.82867    -315.2166   -3028.6456 
26403000    268.56763   -4797.5872   -4260.4188   -4797.5872            0     9600.548    17.821943    23.310279    18.990377    7889.2571    9764.5874    8803.0164     10234.04     233.1388   -1327.7917    1614.8885   -3155.8112 
26404000     267.3946   -4807.6837   -4272.8615   -4807.6837            0    10514.374    17.620878    23.145464     19.22752    7841.8172     12207.56    9388.2304    9947.3302    831.21446    72.273781   -279.79495   -3070.3866 
26405000    256.71745   -4787.9815   -4274.5149   -4787.9815            0    11618.514    17.873798    23.097871    18.967426     7830.639    9552.0865    11787.133    13516.322    1044.0772   -972.50329    460.88394   -2947.6593 
26406000    259.20453   -4819.5999   -4301.1588   -4819.5999            0    10364.747    17.499107     23.35937    19.106125    7809.9746    11780.881    9694.7305    9618.6292    393.57734   -809.86738   -302.41817   -3120.6093 
26407000    270.17384   -4822.6616   -4282.2805   -4822.6616            0    10693.506    17.800868    23.102324    19.132019    7867.8786    10489.733    10836.593    10754.193   -451.26759    176.07406   -1080.2549   -3055.2548 
26408000    266.21179   -4848.1333   -4315.6768   -4848.1333            0    8432.8356     17.98614    22.962887    19.230076    7942.2845    8083.1744    8395.0233    8820.3091   -334.50042    638.77822    780.61869   -3338.9008 
26409000     267.7391   -4830.5376   -4295.0263   -4830.5376            0    9702.0005    17.747428    22.946436    19.297088    7858.5507    10099.615    9111.6911    9894.6952   -1782.8247    763.53626   -1290.4512   -3183.0907 
26410000    274.39303   -4812.3818   -4263.5618   -4812.3818            0    10391.336    17.848382    22.950666    19.218129    7872.3657    9826.1184    11764.694    9583.1956   -1529.0313    -482.5233   -585.29867   -3070.5286 
26411000    244.16496   -4781.1107   -4292.7506   -4781.1107            0    11702.894    17.713042    23.006867    19.227125    7835.4685    11630.241    12089.295    11389.146   -277.59215   -776.37304   -393.97809   -2955.4344 
26412000    272.76307   -4826.1875   -4280.6276   -4826.1875            0    9733.3871    17.820371     23.13953    19.168398     7904.185    10417.857    9295.2781    9487.0259   -914.24874    456.18829   -156.86118    -3158.617 
26413000    253.06389   -4798.9786   -4292.8195   -4798.9786            0    9301.4209    17.911775    23.069087     19.15178    7913.6745    8806.2348    8122.2975    10975.731    -1233.631   -50.733905   -1781.5955   -3219.3163 
26414000    268.45926   -4815.7702   -4278.8185   -4815.7702            0    11778.113    17.910705     22.96629    19.058602    7839.6117    11473.394    10858.955    13001.989    1134.5533   -704.82983    2916.7864   -2932.1951 
26415000    255.92717   -4787.8862   -4276.0003   -4787.8862            0    12199.115    17.606061    22.754566      19.5511    7832.5281    12772.927    12088.599     11735.82   -85.857396   -705.18298   -936.30343   -2882.5028 
26416000    275.29777   -4779.1439   -4228.5144   -4779.1439            0    10680.193     18.03774    22.875936    19.094972    7879.1613    11309.162     10153.25    10578.166    804.07169   -113.47163   -88.895462   -3001.2589 
26417000    265.47454   -4827.4805   -4296.4987   -4827.4805            0    9776.2022    17.779159      22.9485    19.284846    7868.3144    8593.4263    10993.103    9742.0768   -480.13629    1015.6779   -1103.4076   -3174.6668 
26418000    265.85484   -4788.2527   -4256.5102   -4788.2527            0    9502.2701     17.92039    23.172517    19.101073    7931.9223     9646.127    8755.0642    10105.619   -143.22429   -19.853435     402.3318   -3157.2976 
26419000    272.58536   -4780.7467   -4235.5423   -4780.7467            0    10992.282    17.677189      23.0578    19.297957    7865.7913    13300.304    10305.665    9370.8785   -679.09071     138.7485   -855.71602   -2974.5682 
26420000    261.75453   -4788.3623   -4264.8209   -4788.3623            0    10232.374    17.742196    23.376997    19.015319    7886.7797    9917.2377    9216.4692    11563.415    278.70862   -907.43269   -764.57158   -3087.8872 
26421000    278.60594   -4815.4362   -4258.1899   -4815.4362            0     11420.31    17.759845    23.113066    19.135977    7855.0216    10019.238    11467.381     12774.31    -784.6858     68.20676   -1023.4863   -2949.9086 
26422000    257.14858   -4803.0252   -4288.6963   -4803.0252            0    9700.8584    17.992619     22.93364    19.120375    7889.7598    8506.1281    9712.7942    10883.653    838.39623    613.14083    91.460458   -3172.4762 
26423000    259.41844   -4809.1023   -4290.2333   -4809.1023            0    11867.433    17.712951    22.767884    19.323032    7792.7162    11850.095    12322.719    11429.485   -35.232015   -256.46168   -1433.8225   -2941.5141 
26424000     259.0396   -4797.3601    -4279.249   -4797.3601            0    11103.538    17.835052    22.837552    19.267033    7847.6343    11613.586    11022.633    10674.395    1940.3939   -1211.2137   -1167.1039   -3008.4524 
26425000    268.08845   -4821.6455   -4285.4355   -4821.6455            0     9547.754    18.007699    22.832356    19.209029    7897.9498    8329.1216    10790.521    9523.6194    4.7315723    757.03263   -1145.7588   -3185.6918 
26426000     258.1354   -4809.0216   -4292.7189   -4809.0216            0    9202.4574    17.891169    22.794255    19.382609    7904.5354    9544.1315    8235.2939    9827.9467   -509.10574   -377.85102    1814.0168   -3231.8639 
26427000    272.26602     -4801.25   -4256.6843     -4801.25            0    9966.2278    18.006422    22.662537    19.335101    7890.0979    10097.313    10684.644    9116.7267   -217.10133   -486.37796   -727.71248   -3109.8806 
26428000     267.3018   -4796.8099   -4262.1733   -4796.8099            0     8681.582    17.919946    22.780277    19.353069    7900.3358    10230.403    8898.4897    6915.8533    782.06166   -1080.6901    744.75512   -3261.8962 
26429000    265.25519   -4797.4759   -4266.9328   -4797.4759            0    8836.0484    17.984244    22.938644    19.260136    7945.4638    7043.3254    10305.532    9159.2877    713.12672    968.20683    19.062826    -3243.043 
26430000    268.82194   -4810.9298   -4273.2527   -4810.9298            0     8302.192    17.838439    22.977383    19.342345    7928.0529    8618.3636    7661.3056    8626.9068    534.37634   -244.53924    1120.1541   -3313.3323 
26431000    262.31508   -4820.1607   -4295.4981   -4820.1607            0       9820.9    17.924414     22.99679    19.140583    7889.8246    10323.484    9791.5997    9347.6165   -756.70482    772.20393   -423.39009   -3165.4563 
26432000    262.18419   -4788.8381   -4264.4373   -4788.8381            0    9867.4894    17.682225    23.001984     19.38091    7882.7248    11102.432    8909.0618    9590.9746    -4.096336   -220.03704    865.99768   -3130.0564 
26433000    272.81334   -4837.0327   -4291.3723   -4837.0327            0    11070.768    17.943501    22.920394    19.058616    7838.2775    10968.817    10864.495    11378.992   -768.70041    44.606647   -729.83817    -3025.837 
26434000    262.23969   -4835.5761   -4311.0643   -4835.5761            0    9060.4047    17.744771    23.012382    19.396094    7920.3846    7825.6271    10007.183     9348.404    2504.8047    1116.2108    2014.1778   -3264.4908 
26435000    285.31737   -4815.4713   -4244.8013   -4815.4713            0    10120.048    18.177016    22.665447    19.182762    7903.1098    9122.2762    10977.056    10260.813    408.46343      1143.53   -1705.3768   -3078.3772 
26436000    278.83824   -4810.8644   -4253.1535   -4810.8644            0    11845.251    17.818217    22.624525      19.4708    7849.2384    13778.351     11671.15    10086.251   -481.69726   -654.86694   -1725.5733    -2897.191 
26437000    262.37144   -4817.0853     -4292.31   -4817.0853            0    9410.0138    17.968376    22.775564    19.258325    7881.2747    8029.2289    9698.6981    10502.114    674.78517   -294.93011    1210.1737   -3210.7201 
26438000    275.51364    -4805.101   -4254.0397    -4805.101            0    9388.5894    18.110862     22.40691     19.49408    7910.8624     9579.351    9302.8104    9283.6069   -1193.6554    507.98245   -3058.4929   -3170.8611 
26439000    265.16972   -4845.6177   -4315.2455   -4845.6177            0    8270.7975    17.962265    22.658457    19.428517    7907.3525     7612.006    10061.846    7138.5407     521.4979    567.91782    -993.2602   -3361.4519 
26440000     272.0247   -4773.9079   -4229.8249   -4773.9079            0    11160.478    18.033751    22.661169    19.304631    7889.1438     10357.44    11475.535     11648.46   -297.96831    197.28479   -153.31612   -2945.7552 
26441000    265.60631   -4787.0319   -4255.7865   -4787.0319            0    9186.2964      17.9278    22.686175    19.400313    7890.3637    9705.4847     10076.71    7776.6943    135.42592   -248.84183    538.42178   -3198.6931 
26442000    283.20776   -4833.7528   -4267.3022   -4833.7528            0    10502.136    17.969714    22.693311    19.345809     7889.072    9613.8782    10185.576    11706.955    1321.9497   -391.11127    3590.6287   -3058.9892 
26443000    259.35139   -4800.6595   -4281.9247   -4800.6595            0    10682.114    17.884468    22.832254    19.315914    7887.5128    11960.928    10682.702    9402.7124   -1247.3533   -314.54735   -1117.6987   -3053.1474 
26444000    271.08422   -4790.9051   -4248.7032   -4790.9051            0    12756.364    17.826615     22.88789     19.09525    7791.1215    10915.445    13447.672    13905.976    -201.1013   -922.19517   -1889.1867   -2799.2547 
26445000    276.47347   -4815.0276   -4262.0465   -4815.0276            0    10253.676    17.850868    22.895833    19.265505    7874.0142    9454.1029    11046.613    10260.313   -507.73117   -203.52209    16.741588   -3084.5715 
26446000    260.88362   -4815.7154   -4293.9159   -4815.7154            0    8919.5316    17.824294    22.819069    19.468647    7918.5567    10027.475    9003.5349    7727.5844    1252.6422    173.64684    490.52813   -3263.8525 
26447000    272.81205   -4820.4083   -4274.7505   -4820.4083            0    10328.139    17.983859    22.874802    19.073066    7846.2249    11416.033    9107.6015    10460.783   -586.08316   -65.254576   -963.12737   -3092.9104 
26448000    265.13637   -4801.3296   -4271.0241   -4801.3296            0    10067.861    17.640231    22.972949    19.431208    7874.4603    12539.911    10142.721    7520.9529   -1444.4582    469.84713   -365.94423   -3114.8216 
26449000     274.9481   -4799.1898   -4249.2596   -4799.1898            0    9511.2857     17.90624    23.031894    19.109196     7880.912    9788.9022    8980.5032    9764.4517   -1183.2807    443.12423    362.78297   -3156.0798 
26450000    267.47507   -4811.2986   -4276.3154   -4811.2986            0    10777.349    17.962736    22.793281    19.220765     7869.552    10123.427    10613.819    11594.801    1220.0648    -67.28397    1392.8734   -3039.4061 
26451000    259.63314   -4791.5053   -4272.2069   -4791.5053            0    10872.594    17.996642    22.608583    19.384553    7887.1592    11766.612     11195.71    9655.4592    72.619031    1099.2791    1417.7449   -3021.5746 
26452000    260.88541   -4807.1569   -4285.3538   -4807.1569            0    7453.3714     18.15176    22.725126    19.356713    7984.6641    7005.9846    8089.5831    7264.5464    533.77261   -995.21674    349.67695   -3417.4226 
26453000    254.71513   -4810.2199   -4300.7582   -4810.2199            0      9455.07    17.827782    22.703037    19.419184    7859.8136    9483.7389    10172.518    8708.9527   -1798.4197   -157.25011   -328.77597   -3216.9489 
26454000    258.86604   -4831.6716   -4313.9076   -4831.6716            0    10207.296    17.962472    22.798126    19.239947    7878.9641     8860.533    10555.771    11205.583    241.78228    1194.0437    1575.1698   -3141.0218 
26455000    258.87777   -4814.1471   -4296.3595   -4814.1471            0    11419.981    17.821239    22.695697    19.400644    7846.8899    12993.047    11850.768    9416.1279   -1176.7836    747.92064   -861.46284   -2989.4702 
26456000    263.18213   -4820.2105   -4293.8137   -4820.2105            0    9263.9179     18.06334    22.644975    19.297069    7893.3477    9574.7958    9391.0418    8825.9161   -59.438379    742.06487     1533.253    -3227.385 
26457000    273.59057   -4816.8614   -4269.6465   -4816.8614            0    9584.1159    17.880312    22.663103    19.421498    7870.0443    11419.294    10798.003    6535.0503   -210.87489    -180.4327    711.38783    -3169.615 
26458000    266.90029   -4791.6554   -4257.8219   -4791.6554            0    9592.7591     18.02485    22.672208    19.363041    7912.9617    9540.0801    10719.165    8519.0322   -297.89504   -1004.5539    222.31179   -3150.7942 
26459000    264.07873    -4801.686   -4273.4959    -4801.686            0    8902.8515    18.000635    22.676982    19.414118    7924.8445    11248.604    7730.6622    7729.2886    -128.5076   -1414.7245     688.4062   -3244.5424 
26460000    266.72283   -4785.8921   -4252.4134   -4785.8921            0    11498.455    17.931577    22.777908    19.255905    7864.9554    8409.0087    12269.512    13816.844    145.55986    14.536746    2452.0448   -2933.5142 
26461000    275.59726   -4822.6958   -4271.4672   -4822.6958            0    10094.514    17.894788    22.823652    19.307079    7885.4824    9574.4274    10334.821    10374.293   -752.50171    353.39676   -262.67216   -3110.5813 
26462000    260.67718   -4797.1239   -4275.7373   -4797.1239            0    9923.4608    17.892148    23.001875    19.178631    7893.0224    8399.2686    10130.759    11240.355    646.78111   -82.430585    251.65604   -3133.4315 
26463000    267.88773    -4807.948   -4272.1395    -4807.948            0    10088.326    17.816666     22.99858    19.176263    7857.6276    10881.643    11001.104    8382.2313    55.782713    1169.1641    521.11494   -3116.0633 
26464000    266.62833   -4799.7535   -4266.4639   -4799.7535            0    10046.765    17.640731    23.348128    19.059168    7850.0532    10760.188    9512.7813    9867.3269    780.75847     549.3697    -1432.972   -3116.2602 
26465000    262.16141   -4845.6269   -4321.2717   -4845.6269            0    9919.0394    17.581907    23.301476    19.222526    7875.1686    10512.672    9532.5016    9711.9449      26.5002   -413.07111   -458.13712   -3182.0576 
26466000    269.62447   -4818.0311   -4278.7488   -4818.0311            0    9546.9077    17.695744    23.397427    19.004075    7868.3496    9008.4986    9332.8967    10299.328   -579.69781   -199.03116   -8.8823814   -3183.2239 
26467000    250.15704   -4806.5355   -4306.1905   -4806.5355            0    11798.326    17.566398    23.430833    19.027785    7831.7475    14916.418    10122.197    10356.364    1147.5013    1280.4201   -1091.6676   -2958.6092 
26468000    274.06759   -4799.6932   -4251.5242   -4799.6932            0    9418.0445    17.745409    23.285244    19.130212    7904.7219    10659.913     8817.242    8776.9784    54.655875    600.35124   -238.74281   -3165.7907 
26469000    267.20195   -4799.9035   -4265.4666   -4799.9035            0    11783.154     17.70938    23.262418    19.006926    7830.1502    12517.655    10031.906      12799.9    203.52056   -1089.9402    462.42168   -2919.8928 
26470000     268.8483   -4844.5544   -4306.8246   -4844.5544            0    10914.977    17.570528    23.387492    19.021914    7816.6863    11946.846    10103.777    10694.308   -358.73045    421.11534   -810.56581   -3062.5352 
26471000    260.62922   -4805.7884   -4284.4977   -4805.7884            0    9753.5524    17.787716    23.234529    19.023691    7862.2864    9510.6511    10111.473    9638.5331    1032.5856   -883.02445   -749.41027   -3166.1224 
26472000    255.58193   -4830.2142   -4319.0188   -4830.2142            0    9557.6841    17.834033    23.010973    19.228542    7890.9794     11738.61     8811.626    8122.8168    589.33511   -250.72746    1640.3494   -3219.1029 
26473000    265.82954   -4838.6015   -4306.9096   -4838.6015            0    10426.995    17.935956    23.000399    19.103673    7880.9173     8988.196    10091.953    12200.836   -382.93224    1090.2644    186.88324   -3108.4819 
26474000    277.22386   -4827.2587   -4272.7767   -4827.2587            0    9576.1807    17.850703    22.973128    19.230301    7886.0868    8548.8824    9449.0012    10730.659   -1102.2543     254.1549   -707.17813   -3171.4155 
26475000    264.88481   -4827.7727   -4297.9703   -4827.7727            0    8160.8569     17.84409    22.962582    19.307758    7911.2839     7422.966    8713.3173    8346.2874    498.44336   -991.77866   -920.04465   -3356.3873 
26476000    266.82687   -4816.3739   -4282.6872   -4816.3739            0    11232.881     17.86386    22.788175    19.329665    7868.8119    10361.468    12106.982    11230.193    1161.4229    118.71449    1961.1285   -2993.6181 
26477000    281.83906   -4775.3338   -4211.6209   -4775.3338            0    10899.573    18.153973    22.762502    19.131426    7905.6763    11140.343    9867.9051    11690.472    1523.5983    817.64127    -1603.535   -2954.9417 
26478000    272.67208   -4794.5791   -4249.2013   -4794.5791            0    9307.6466    17.773814    23.012489    19.319145     7901.911     10743.29    9895.5963    7284.0539    1268.9486    579.52443   -1482.6521   -3176.5763 
26479000    277.25008   -4819.6227   -4265.0883   -4819.6227            0    8045.4171     17.95614    23.106835    19.190315    7962.2451    8463.1821    7638.5903    8034.4788   -941.00371   -17.168753   -1413.9674    -3330.845 
26480000    269.01479   -4769.5039    -4231.441   -4769.5039            0    11274.098      17.6561    23.066946    19.359172    7884.4546    11871.969    10582.085    11368.239    419.06676    459.24252    -1157.501   -2935.0699 
26481000    285.32474   -4810.5194   -4239.8346   -4810.5194            0    11529.807    17.924202    22.837193    19.061475    7802.5949    9760.2366    11658.475    13170.708   -586.88546   -551.31262    1679.4918   -2927.8252 
26482000    272.31139   -4805.6792   -4261.0228   -4805.6792            0    11162.764    17.730811    23.103569    19.181461    7857.5899    13849.589    8942.4989    10696.203    242.94773    47.078583    606.57262   -2981.8271 
26483000    260.65261   -4798.8363   -4277.4989   -4798.8363            0    10230.656    17.791042    23.197123     19.02712    7852.5114    9486.1306    10020.584    11185.254   -1057.7997    42.788741   -275.10661   -3105.8757 
26484000    272.08785   -4788.2464   -4244.0371   -4788.2464            0      10261.1    17.779138    23.063687    19.169219    7860.3858    8640.8726    10538.644    11603.783   -418.53951   -1321.2569    467.03688   -3067.7491 
26485000    248.95331   -4795.2832   -4297.3459   -4795.2832            0    10974.443    17.848234    22.796665     19.32593    7863.3386    12351.047    11057.451    9514.8309    73.192561    8.7411699   -1010.6583   -3038.8107 
26486000    268.23466   -4825.5323   -4289.0299   -4825.5323            0    8339.9823    18.072542    22.829249    19.206216    7924.1496    6898.6711     9768.478    8352.7978   -2290.1163    618.48023    98.919341   -3325.2149 
26487000    265.61589   -4822.0884   -4290.8238   -4822.0884            0    9516.5441    17.929411    22.693974    19.471239    7922.6442    12753.823    8472.2982    7323.5108   -1293.0864   -483.03543     271.2135   -3191.2476 
26488000     277.0997   -4802.4845   -4248.2509   -4802.4845            0    11731.585    17.915903    22.909981     19.12115     7848.333    12416.268    11619.007    11159.479   -1435.2553   -1597.5022   -969.91156   -2905.4551 
26489000    266.44853   -4814.3144   -4281.3844   -4814.3144            0     9380.706     17.87477    22.805123    19.378346     7899.318    10532.663    9389.9158    8219.5389   -1489.1258     489.3177   -253.98256   -3200.6947 
26490000    276.98859   -4810.8316   -4256.8202   -4810.8316            0    11359.356    17.829716    23.006211    19.165457    7861.5595    11634.764    12203.504      10239.8   -402.09339   -242.57327    640.62988   -2954.4384 
26491000    268.43814   -4831.2642   -4294.3548   -4831.2642            0    10420.382    17.702278    23.095217    19.277341    7881.3088    12207.631    8552.8504    10500.665    439.54059   -503.08901    482.40846   -3096.6277 
26492000    263.07614   -4818.1838    -4291.999   -4818.1838            0    10119.799    17.913706    23.107585    19.085086    7900.1279    9155.6644    10443.052     10760.68   -1507.9157   -910.52522   -489.93618   -3126.0437 
26493000    276.51574   -4794.5641   -4241.4985   -4794.5641            0    11052.992     17.57649    23.105022    19.311045    7842.3156    11991.647    10930.182    10237.147   -419.25011    190.04207   -231.48191   -2977.3442 
26494000    261.24969   -4774.1879   -4251.6563   -4774.1879            0    10688.662    17.897894    23.035539    19.130063    7887.0882    10833.522      10529.8    10702.664   -1315.2269    819.42792   -512.45997   -3022.1919 
26495000    274.49445   -4792.7685   -4243.7457   -4792.7685            0    9787.4594    17.767229    22.950736    19.361771    7895.1684    10598.476    10277.019    8486.8832   -2205.8354    1391.8256   -20.826495   -3116.7889 
26496000    252.28639   -4796.1624   -4291.5585   -4796.1624            0    8564.2836    17.893314    22.901818     19.32807    7920.4384    9144.3137    8302.2409    8246.2963   -231.77966   -154.10303    550.11296   -3302.2855 
26497000     274.0452   -4811.9672   -4263.8429   -4811.9672            0    12482.444    17.986838    22.489536    19.322155    7816.1137    13402.553    12094.556    11950.222   -733.63655   -513.11914   -1146.8608   -2840.9691 
26498000     280.2234   -4801.5885   -4241.1071   -4801.5885            0     10518.28    17.876838    22.772012    19.321355    7865.5609    10215.563    11646.466    9692.8104    769.77181   -595.98702    1959.1353   -3034.5433 
26499000    257.52216   -4807.4257   -4292.3496   -4807.4257            0    9050.3558    17.809258    23.023091    19.223923    7882.2728    8526.3298     9017.552    9607.1855    989.79085   -469.62884    528.24319   -3251.9672 
26500000    284.58299   -4810.1799   -4240.9788   -4810.1799            0    9471.5593    17.727387    22.970625    19.419526    7907.8092    9924.6743    10284.641    8205.3621   -571.34998    1859.7059   -2472.4946   -3148.6495 
Loop time of 490.479 on 64 procs for 250000 steps with 1008 atoms

Performance: 88.077 ns/day, 0.272 hours/ns, 509.706 timesteps/s
99.2% CPU use with 64 MPI tasks x 1 OpenMP threads

MPI task timing breakdown:
Section |  min time  |  avg time  |  max time  |%varavg| %total
---------------------------------------------------------------
Pair    | 28.892     | 32.991     | 36.791     |  35.6 |  6.73
Bond    | 0.27815    | 0.28347    | 0.29539    |   0.7 |  0.06
Kspace  | 219        | 228.8      | 239.34     |  31.9 | 46.65
Neigh   | 4.6747     | 5.3603     | 6.2467     |  18.6 |  1.09
Comm    | 91.281     | 104.02     | 113.11     |  48.9 | 21.21
Output  | 1.2773     | 1.2784     | 1.2894     |   0.1 |  0.26
Modify  | 107.29     | 110.54     | 115.14     |  18.6 | 22.54
Other   |            | 7.211      |            |       |  1.47

Nlocal:        15.7500 ave          19 max          13 min
Histogram: 6 10 0 13 0 14 11 0 6 4
Nghost:        2524.62 ave        2554 max        2494 min
Histogram: 1 2 7 9 18 8 4 4 6 5
Neighs:        5282.19 ave        6427 max        4351 min
Histogram: 6 10 2 11 10 4 11 3 3 4

Total # of neighbors = 338060
Ave neighs/atom = 335.37698
Ave special neighs/atom = 2.0000000
Neighbor list builds = 9940
Dangerous builds = 0

unfix		3
unfix		2
unfix		1

write_data	data.final.${pid}
write_data	data.final.0
System init for write_data ...
PPPM initialization ...
  extracting TIP4P info from pair style
  using 12-bit tables for long-range coulomb (../kspace.cpp:340)
  G vector (1/distance) = 0.38385417
  grid = 24 30 36
  stencil order = 5
  estimated absolute RMS force accuracy = 0.0019046738
  estimated relative force accuracy = 5.7358685e-06
  using double precision FFTW3
  3d grid and FFT values/proc = 4320 480
Last active /omp style is kspace_style pppm/tip4p/omp
WARNING: Not all mixed pair coeffs generated from mixing. Use write_data with 'pair ij' option to store all pair coeffs. (../write_data.cpp:312)

write_restart   restart.lmp.${pid}
write_restart   restart.lmp.0
System init for write_restart ...
PPPM initialization ...
  extracting TIP4P info from pair style
  using 12-bit tables for long-range coulomb (../kspace.cpp:340)
  G vector (1/distance) = 0.38385417
  grid = 24 30 36
  stencil order = 5
  estimated absolute RMS force accuracy = 0.0019046738
  estimated relative force accuracy = 5.7358685e-06
  using double precision FFTW3
  3d grid and FFT values/proc = 4320 480
Last active /omp style is kspace_style pppm/tip4p/omp
Total wall time: 0:08:12
