#include		in.partitions
include		in.temp
variable        temperature equal 278.30
variable	tempDamp equal 100.0
include		in.pressure
variable        pressure equal -1625.0
variable        pressureDamp equal 1000.0 # This is 1 ps
include		in.seed
variable        seed equal 745823

units		real
atom_style	full
#include		in.box
read_restart	restart.lmp.${pid}
read_restart	restart.lmp.0
Reading restart file ...
  restart file = 30 Jul 2021, LAMMPS = 30 Jul 2021
  restoring atom style full from restart
  orthogonal box = (-0.047839568 0.024977081 -0.12195980) to (18.255412 23.604201 22.335156)
  2 by 4 by 2 MPI processor grid
  restoring pair style lj/cut/tip4p/long/omp from restart
  restoring bond style harmonic/omp from restart
  restoring angle style harmonic/omp from restart
  864 atoms
  576 bonds
  288 angles
Finding 1-2 1-3 1-4 neighbors ...
  special bond factors lj:    0        0        0       
  special bond factors coul:  0        0        0       
     2 = max # of 1-2 neighbors
     1 = max # of 1-3 neighbors
     1 = max # of 1-4 neighbors
     2 = max # of special neighbors
  special bonds CPU = 0.001 seconds
  read_restart CPU = 0.005 seconds
include 	in.setup
variable	out_freq equal 1000
variable	out_freq2 equal 10000
variable	out_freq3 equal 1000

timestep	2.0

neigh_modify    delay 7 every 1

include		in.tip4p
# This is TIP4P/Ice

# create groups ###
group ox type 2
288 atoms in group ox
group hy type 1
576 atoms in group hy

# set charges - beside manually ###
set group ox charge -1.1794
Setting atom values ...
  288 settings made for charge
set group hy charge 0.5897
Setting atom values ...
  576 settings made for charge

# ### TIP3P Potential Parameters ###
pair_style lj/cut/tip4p/long/omp 2 1 1 1 0.1577 8.5
pair_coeff 1 1*2 0.000 0.000
pair_coeff 2 2 0.21084 3.1668
bond_style  harmonic
bond_coeff  1 450 0.9572
angle_style harmonic
angle_coeff 1 55 104.52
kspace_style pppm/tip4p/omp 1.0e-5
pair_modify tail yes

thermo          ${out_freq}
thermo          1000
thermo_style    custom step temp pe etotal epair emol press lx ly lz vol pxx pyy pzz pxy pxz pyz enthalpy

restart 	${out_freq3} restart.lmp.${pid} restart2.lmp.${pid}
restart 	1000 restart.lmp.${pid} restart2.lmp.${pid}
restart 	1000 restart.lmp.0 restart2.lmp.${pid}
restart 	1000 restart.lmp.0 restart2.lmp.0


include         in.dump
dump            myDump all atom ${out_freq2} dump.water.${pid}
dump            myDump all atom 10000 dump.water.${pid}
dump            myDump all atom 10000 dump.water.0
dump            myDump2 all dcd ${out_freq2} dump.dcd
dump            myDump2 all dcd 10000 dump.dcd
dump_modify     myDump append yes
dump_modify     myDump2 append yes


variable natoms 	equal  "count(all)"                        # NUMBER ATOMS
variable H      	equal  "enthalpy/v_natoms"                 # ENTHALPY-per-atom
variable Vol      	equal  "vol/v_natoms"                 # volume-per-atom
fix AVG all 		ave/time ${out_freq} 1 ${out_freq} v_Vol v_H file vol_enthalpy.dat
fix AVG all 		ave/time 1000 1 ${out_freq} v_Vol v_H file vol_enthalpy.dat
fix AVG all 		ave/time 1000 1 1000 v_Vol v_H file vol_enthalpy.dat


timer           timeout 23:50:00 every 1000
New timer settings: style=normal  mode=nosync  timeout=23:50:00

fix 		1 all shake 1e-6 200 0 b 1 a 1
       0 = # of size 2 clusters
       0 = # of size 3 clusters
       0 = # of size 4 clusters
     288 = # of frozen angles
  find clusters CPU = 0.000 seconds
fix             2 all nph aniso ${pressure} ${pressure} ${pressureDamp}
fix             2 all nph aniso -1625 ${pressure} ${pressureDamp}
fix             2 all nph aniso -1625 -1625 ${pressureDamp}
fix             2 all nph aniso -1625 -1625 1000
fix             3 all temp/csvr ${temperature} ${temperature} ${tempDamp} ${seed}
fix             3 all temp/csvr 278.3 ${temperature} ${tempDamp} ${seed}
fix             3 all temp/csvr 278.3 278.3 ${tempDamp} ${seed}
fix             3 all temp/csvr 278.3 278.3 100 ${seed}
fix             3 all temp/csvr 278.3 278.3 100 745823


run             250000
PPPM initialization ...
  extracting TIP4P info from pair style
  using 12-bit tables for long-range coulomb (../kspace.cpp:340)
  G vector (1/distance) = 0.37310684
  grid = 24 27 27
  stencil order = 5
  estimated absolute RMS force accuracy = 0.0028627097
  estimated relative force accuracy = 8.6209652e-06
  using double precision FFTW3
  3d grid and FFT values/proc = 6615 1296
Last active /omp style is kspace_style pppm/tip4p/omp
Neighbor list info ...
  update every 1 steps, delay 7 steps, check yes
  max neighbors/atom: 2000, page size: 100000
  master list distance cutoff = 10.8154
  ghost atom cutoff = 10.8154
  binsize = 5.4077, bins = 4 5 5
  1 neighbor lists, perpetual/occasional/extra = 1 0 0
  (1) pair lj/cut/tip4p/long/omp, perpetual
      attributes: half, newton on, omp
      pair build: half/bin/newton/omp
      stencil: half/bin/3d
      bin: standard
Per MPI rank memory allocation (min/avg/max) = 12.26 | 12.29 | 12.31 Mbytes
Step Temp PotEng TotEng E_pair E_mol Press Lx Ly Lz Volume Pxx Pyy Pzz Pxy Pxz Pyz Enthalpy 
 6500000    296.26126   -4164.1091   -3656.3275   -4164.1091            0   -1667.3339    18.303252    23.579224    22.457115    9691.9624   -3254.6664   -1503.5213   -243.81411   -1068.3365     289.6208    453.81625   -3892.0007 
 6501000    299.01521   -4204.0557   -3691.5538   -4204.0557            0   -2133.4589    18.427993    23.800379     22.22813     9749.107   -2176.5954    -1906.174   -2317.6072   -711.18537    316.28345    62.312211   -3994.8906 
 6502000    262.37658   -4136.6521   -3686.9476   -4136.6521            0   -2289.5299    18.167928    23.961104    22.400668    9751.5398    -2913.599     -1955.19   -1999.8008     376.4084   -107.47722   -408.52045   -4012.5559 
 6503000    273.64323   -4170.4336   -3701.4185   -4170.4336            0   -774.07168    17.929249    23.923065    22.528175    9662.8431   -583.16535   -226.72774   -1512.3219    704.31855     821.8874    309.94588   -3810.5027 
 6504000    258.19745    -4185.108   -3742.5665    -4185.108            0   -2406.3069    18.385632    23.751019    22.244048    9713.4751   -2663.7473   -3271.5899   -1283.5836     272.0943    579.59386    613.02048   -4083.4465 
 6505000    280.98865   -4158.8801   -3677.2752   -4158.8801            0   -2484.5825      18.4574    23.406013    22.623543    9773.6904   -3021.8212   -1114.8557   -3317.0705   -754.23519   -353.20181    314.07947   -4031.4257 
 6506000    280.78782   -4147.8033   -3666.5426   -4147.8033            0   -1483.4125    18.281596    23.751763    22.290592    9679.0236   -914.40737   -1988.2455   -1547.5846   -1101.3348   -622.89734     405.4794   -3875.9391 
 6507000    277.66409   -4166.5319   -3690.6252   -4166.5319            0   -804.63245    18.126057    23.787801     22.10585    9531.5793    -2576.427   -886.75585    1049.2855    1164.6995    97.434409    202.79274   -3802.4758 
 6508000    279.20356   -4154.1993   -3675.6539   -4154.1993            0   -852.43019    18.091299    23.752485    22.439664    9642.6228   -325.17615     -84.3814    -2147.733   -719.63716    80.744341    430.26244   -3795.5293 
 6509000    285.11321   -4140.6725   -3651.9982   -4140.6725            0   -479.94965    18.286216    23.900517    21.947024    9591.9473   -1255.0836   -1190.9204     1006.155    728.48744   -148.83396    139.37257   -3719.1378 
 6510000    275.30451   -4151.9518   -3680.0893   -4151.9518            0   -1181.7801    18.300037    23.592098    22.401029    9671.3364   -1174.2044   -1633.9451   -737.19082    -267.4065   -313.46331    122.55177   -3846.7753 
 6511000    276.57334   -4170.3708   -3696.3336   -4170.3708            0   -1709.2744    18.302887    23.306733    22.534439    9612.7522   -1621.3644   -1794.4716   -1711.9872    610.70907    1180.1215   -82.572005   -3935.9604 
 6512000    287.46901   -4142.7821     -3650.07   -4142.7821            0   -1371.8608    18.287506    23.902846    22.153753     9683.925   -1033.1478    -833.5174   -2248.9172   -664.27722    9.1125505   -514.12459   -3843.8181 
 6513000     289.2746   -4157.1989   -3661.3922   -4157.1989            0   -2133.1256    18.139646    24.032148    22.306877    9724.3405   -1467.6689   -3278.8109    -1652.897    594.31084    279.96084     543.5986    -3963.911 
 6514000    264.70234   -4164.5444   -3710.8536   -4164.5444            0   -1640.0476    18.214987    23.738918    22.381215    9677.7285   -2239.8831   -1046.9701   -1633.2895     -272.786    658.05371   -997.95041   -3942.3295 
 6515000    278.04417   -4155.9212    -3679.363   -4155.9212            0   -1652.3485    18.423379    23.669863    22.296339    9722.9616   -2606.1124   -2689.7945    338.86129   -639.92357   -320.14761    466.84891    -3913.665 
 6516000    292.92175   -4182.4885   -3680.4306   -4182.4885            0   -1626.3769    18.290816    23.751695    22.300151    9688.0298    -1543.525   -3515.4983    179.89269   -103.95378    175.79455    -666.8248   -3910.2214 
 6517000    288.63822   -4178.8463   -3684.1303   -4178.8463            0   -1315.3152    18.036308    23.913837    22.350615     9640.208    213.34869   -2206.6293   -1952.6651    610.37217    114.50083    802.84838   -3869.0538 
 6518000    276.21774   -4197.2997    -3723.872   -4197.2997            0   -1569.9786    18.174916    23.920043     22.20377     9652.973   -1907.0559   -2751.4629   -51.416949   -104.14881   -452.49799    84.912765   -3944.8916 
 6519000    279.47075   -4170.2019   -3691.1986   -4170.2019            0   -1191.8364    18.338546    23.393262    22.409088    9613.4627   -843.98431    943.95003    -3675.475    562.53269   -329.31099     155.2057    -3858.297 
 6520000    272.11544   -4179.6634   -3713.2668   -4179.6634            0   -2755.5729     18.43448    23.582908    22.240808    9668.9391   -3498.1196   -1592.4057   -3176.1935    601.93162    496.60712    553.05146   -4101.8344 
 6521000    261.57272   -4157.3861   -3709.0594   -4157.3861            0   -1991.6521    18.378281    23.796835    22.194029    9706.4456   -1726.5178   -1546.5682   -2701.8704   -12.343543    419.78773   -795.91743   -3990.9948 
 6522000    290.56225   -4166.1102   -3668.0964   -4166.1102            0     -1238.48    18.093948    23.869097    22.437774    9690.5648   -749.56387   -209.27241   -2756.6037    -329.8024   -327.40476     333.2265    -3843.127 
 6523000    275.48836   -4189.2312   -3717.0536   -4189.2312            0    -1794.733    18.077246    23.940843     22.34487    9670.5135   -2165.8324   -1735.5239   -1482.8427   -3.4115209   -50.664175   -8.2105199   -3970.1729 
 6524000    292.48618   -4133.5396   -3632.2283   -4133.5396            0   -911.98208    18.331713    23.717597    22.327905    9707.8198    140.33076   -976.84997    -1899.427   -183.71232   -24.133156    341.33523   -3761.3454 
 6525000    273.96005   -4138.0576   -3668.4994   -4138.0576            0   -1491.3967    18.612344    23.342423    22.292239    9685.0238   -3654.9229   -1370.7287    551.46148   -589.20151    83.062119   -345.08163   -3879.1535 
 6526000    302.60612   -4179.7329   -3661.0764   -4179.7329            0   -1217.5087    18.272992    23.574885    22.413176    9655.2311   -271.31088   -1429.2037   -1952.0116    24.939663   -196.58195    528.21694   -3832.5158 
 6527000    286.19787   -4160.4846   -3669.9513   -4160.4846            0   -1480.1462    18.214209    23.935926    22.153207    9658.2214   -621.66772   -2633.5565   -1185.2145    -389.9592   -247.83323   -151.29466   -3878.4376 
 6528000    270.28279   -4169.2884    -3706.033   -4169.2884            0    -2674.608    18.076289    24.088088    22.373553    9741.9649    -1288.471   -3679.2755   -3056.0775   -106.70951    511.94556    347.75694   -4086.0321 
 6529000    279.85431   -4203.1401   -3723.4794   -4203.1401            0   -2404.6684    18.274105    23.734726    22.448617    9736.6583   -1978.4204   -3527.4158    -1708.169   -142.94664   -412.06629    628.18166   -4064.9403 
 6530000    286.94915   -4153.3665   -3661.5455   -4153.3665            0   -2594.2244    18.502257    23.565712    22.277993    9713.6255   -2937.2194    -1956.888   -2888.5659   -950.74208   -1256.0359    465.37124   -4029.0518 
 6531000    292.51535   -4154.5914   -3653.2301   -4154.5914            0    -1704.035    18.476318    23.639133    22.265246    9724.6609   -2433.4824   -239.84125   -2438.7813   -96.443758    123.88348    249.36901   -3894.9035 
 6532000    267.65578    -4131.039   -3672.2862    -4131.039            0   -1902.6783    18.113576    23.847286    22.565411    9747.3463   -879.35719   -2299.7396   -2528.9382    757.44405    280.89707   -396.73947   -3942.7615 
 6533000    292.19775   -4185.8668   -3685.0498   -4185.8668            0   -1442.5377    18.183172    23.874061    22.292901    9677.4859   -1669.2852   -1292.1674   -1366.1604   -727.79915     715.4844   -152.93127   -3888.6441 
 6534000    274.57282   -4204.6922   -3734.0838   -4204.6922            0   -112.18818    18.334943    23.604149    22.126295    9575.8341    537.86787      207.716   -1082.1484    718.71705   -598.08666   -1050.8305   -3749.7513 
 6535000    266.39154   -4200.3332   -3743.7472   -4200.3332            0   -60.987289    18.252132    23.476439    22.364227    9582.9611   -276.51878   -580.96709      674.524   -518.20276   -669.68548    521.75164   -3752.2707 
 6536000    274.11906   -4192.2876   -3722.4569   -4192.2876            0   -408.07015    18.344249    23.619762     22.09584    9573.8362   -494.65602   -623.58653    -105.9679   -593.50504   -52.286183    396.71183   -3779.4335 
 6537000    291.58806   -4184.5236   -3684.7516   -4184.5236            0   -556.09552    18.242003    23.774851    22.252189    9650.7945    -1480.413    515.94328   -703.81684   -904.16148   -431.02382    860.22473   -3763.0203 
 6538000    276.14983   -4163.8421   -3690.5307   -4163.8421            0   -1270.2308    18.141896     23.80236    22.437868    9689.1189   -494.73166   -969.53053   -2346.4302    775.15415    574.68504   -638.32375   -3870.0218 
 6539000    271.31062    -4149.348   -3684.3309    -4149.348            0   -2370.6134     18.27556    23.838971    22.356661    9740.1388    -2325.566   -3297.9938   -1488.2805    186.28601   -741.52711    313.02477   -4021.0763 
 6540000     267.0421   -4157.7401   -3700.0391   -4157.7401            0   -3494.1708    18.429979    23.907166    22.356297    9850.3761   -4334.2043    -3039.432    -3108.876   -304.03096    205.22148    203.53114   -4202.0034 
 6541000    273.36146   -4158.7014   -3690.1692   -4158.7014            0   -1813.9107    18.399513    23.608614    22.391586    9726.6136   -888.09738   -1884.8246   -2668.8101   -845.70279   -93.674077     549.3686   -3947.4773 
 6542000    285.96517   -4189.6061   -3699.4716   -4189.6061            0   -2524.8351     18.44958    23.709586    22.318161     9762.676   -3677.8489   -2180.9388   -1715.7177   -147.21543    358.68138    675.44085   -4058.9541 
 6543000    271.80705   -4140.2828   -3674.4148   -4140.2828            0   -1883.6934    18.092312    24.028491    22.427701    9750.0161   -1712.5202   -2602.5567   -1336.0034    924.23593   -291.60386     364.3379   -3942.2647 
 6544000    276.17364   -4162.5585   -3689.2064   -4162.5585            0   -1438.2141    18.056931    23.965106    22.274038    9638.7838    -1472.633   -1708.8906   -1133.1186   -468.88033    247.63472   -127.19694   -3891.3787 
 6545000    269.50968   -4211.9989   -3750.0685   -4211.9989            0   -1046.9831    18.273426    23.386601    22.400946    9573.1186   -2187.6126   -805.64813   -147.68845    -570.6798   -100.09727    1330.9403   -3896.2421 
 6546000    277.08311   -4152.7857   -3677.8747   -4152.7857            0     -1266.18    18.364172    23.460256    22.321837    9616.8768   -1410.9556   -831.71655   -1555.8678   -139.15635   -598.52772    876.56467   -3855.4593 
 6547000    271.50633   -4174.8554   -3709.5029   -4174.8554            0   -2073.0862     18.33556    23.830161    22.172235    9687.9215   -1995.2725   -3919.5663   -304.41995    242.81916     97.08588   -239.98151   -4002.4059 
 6548000    276.96702     -4161.47    -3686.758     -4161.47            0   -1535.3063    18.018813    23.878121    22.534122    9695.4276    10.101452   -1407.1415   -3208.8789    613.06482   0.98815234   -65.824116    -3903.847 
 6549000    290.19096   -4168.2112   -3670.8338   -4168.2112            0   -1545.0626    18.276654    23.827071    22.276402     9700.908    34.511112   -3925.7655   -743.93351   -118.52608    -204.5218   -537.93956   -3889.4258 
 6550000     282.3213   -4194.0537   -3710.1646   -4194.0537            0    48.560836    18.195615    23.609266    22.258467    9561.9057    257.75784   -1790.3808    1678.3055   -314.20865   -126.85714   -315.13532   -3703.3928 
 6551000    288.83302    -4156.367   -3661.3171    -4156.367            0    -1944.004    18.318529    23.550068     22.43883    9680.1694   -2286.2382    -2460.558   -1085.2158   -353.15877   -71.909312   -251.14176   -3935.7625 
 6552000    276.38339   -4172.0579   -3698.3462   -4172.0579            0   -1439.0167    18.527983    23.721092    22.062704    9696.6466    -3511.152   -574.20251   -231.69553   -1212.0792    281.32894    445.12949   -3901.8457 
 6553000    274.74278     -4185.37   -3714.4703     -4185.37            0   -2402.9429    18.096819    23.791761    22.530248    9700.5153   -1387.1968   -3214.7936   -2606.8383   -186.85675   -164.94497    354.33181   -4054.4196 
 6554000    283.13768   -4151.2784   -3665.9901   -4151.2784            0   -2188.1062     18.18834    23.926089    22.355422    9728.5393    -1611.416    -2236.026   -2716.8767   -1450.1179   -361.37467   -474.18118   -3976.4403 
 6555000    268.22448   -4158.9156    -3699.188   -4158.9156            0   -1246.6685    18.338047    23.816864    22.135396    9667.7399    -2100.783   -1650.2428    11.020395   -237.97037    69.630827    210.48832   -3874.9609 
 6556000    306.23383   -4173.8127   -3648.9384   -4173.8127            0   -1551.3375    18.320707    23.562434    22.461084    9696.0109    -1859.433   -1063.7357   -1730.8439    678.92081    379.86768   -224.23537   -3868.3075 
 6557000    288.57498   -4189.9148   -3695.3071   -4189.9148            0   -1061.1296    18.467323    23.473574    22.330156    9679.9901   -1895.8889   -247.84134   -1039.6587    56.000541   -842.51381    -245.9687   -3845.1097 
 6558000    274.11737   -4164.8393   -3695.0115   -4164.8393            0   -1556.8107    18.394216    23.787504    22.256534    9738.4012   -2372.0652   -3012.0518     713.6848     4.773712     90.67148   -328.72672   -3916.1169 
 6559000    285.95642   -4176.0733   -3685.9538   -4176.0733            0   -2425.2822    18.041623    23.832702    22.589411    9713.0092   -1568.7135   -1487.3933     -4219.74    630.20982   -7.4181916   -21.709437   -4029.5054 
 6560000    262.45137   -4179.6697   -3729.8371   -4179.6697            0   -2516.4629    18.105435    24.160336    22.184203    9704.1112   -1388.6001   -3047.4409   -3113.3476   -609.79488   -51.842482    -456.0527   -4085.9782 
 6561000    271.29869   -4152.4336   -3687.4369   -4152.4336            0   -2014.6245    18.251491    23.741768    22.368021    9692.5705   -1705.6789   -2713.4771   -1624.7175   -297.82549   -16.227444    275.51477   -3972.2165 
 6562000    281.11215   -4139.8752   -3658.0586   -4139.8752            0   -3452.6192    18.538988    23.295684     22.58369    9753.4077    -4157.574   -2080.2518   -4120.0318    235.51582   -202.29477    204.27404    -4149.171 
 6563000    284.58711   -4133.2515    -3645.479   -4133.2515            0   -2500.4207    18.419051     23.79476    22.239494    9747.0566   -3170.0651    -3075.631   -1255.5659    362.72124   -430.87451    51.983085   -4000.9158 
 6564000    270.60148    -4162.334   -3698.5323    -4162.334            0   -960.77486    18.091964    23.847641     22.44202    9682.6244   -725.68992   -415.42357   -1741.2111    591.33106   -605.31057    18.131285   -3834.2044 
 6565000    272.98331   -4199.1209   -3731.2369   -4199.1209            0   -2090.6408    18.148663    23.778974    22.409097    9670.7939   -1246.0095   -2691.9681   -2333.9449   -185.01738    270.27157   -20.044057   -4026.0979 
 6566000    287.39951   -4143.9837   -3651.3907   -4143.9837            0   -3049.4683    18.650659    23.945998    21.966484    9810.4212   -3431.0571   -2894.8456   -2822.5022    407.69893    -43.23164    10.077764   -4087.6932 
 6567000    272.52256   -4201.1962   -3734.1018   -4201.1962            0   -2582.9141    18.353946    23.548501    22.565249    9752.8796   -3203.3153   -1175.9805   -3369.4464    708.42438   -170.05012   -349.67879   -4101.4845 
 6568000    270.88735    -4162.578   -3698.2864    -4162.578            0   -1510.3592    18.288802    23.613414    22.295274    9628.4609   -1143.6165   -2469.2286   -918.23236    1010.2125     315.3728     715.1975   -3910.3729 
 6569000    263.57365   -4192.9622    -3741.206   -4192.9622            0   -1365.3354    18.197965    23.868578    22.184282    9635.9548   -1920.9969   -1892.3908   -282.61841    137.47325    973.11233   -246.92447   -3933.0773 
 6570000     278.4119   -4168.6208   -3691.4323   -4168.6208            0   -1839.8605    17.917289    24.225298    22.392679    9719.5801   -1206.7036   -2876.0893   -1436.7885   -1296.4874   -304.70587    -129.4727   -3952.2327 
 6571000    298.90515   -4210.1613   -3697.8481   -4210.1613            0   -1491.9656    18.322968    23.704572    22.335836    9701.3047   -1452.1088   -1410.2614   -1613.5266    740.82449    312.62369   -183.22152   -3908.9367 
 6572000    299.85951   -4131.5774   -3617.6284   -4131.5774            0   -1935.2115    18.627357    23.397976    22.395704    9760.9985   -2378.3221    -2365.915   -1061.3974    98.186649   -1091.8334    1059.1463   -3893.1138 
 6573000    274.73776   -4195.4659   -3724.5748   -4195.4659            0   -2251.7205     18.36722    23.668475    22.381646    9729.8407   -2481.1396   -1263.1615   -3010.8605    1243.1723   -830.67122   -292.48055   -4044.0934 
 6574000    277.23551   -4175.0379   -3699.8658   -4175.0379            0   -1144.1275    17.997223    23.961719    22.371155    9647.4352   -1247.3716   -2463.3723    278.36154    1263.1632   -724.62846    189.26221   -3860.8421 
 6575000    296.68728   -4205.8796   -3697.3677   -4205.8796            0   -1428.9944    18.130408    23.996412    22.258315     9683.808   -1104.5862   -2761.8774   -420.51965    -1072.185   -39.312125    219.41745   -3899.1823 
 6576000    271.80541   -4166.6165   -3700.7513   -4166.6165            0   -2850.9144    18.464852    23.586898    22.360837    9738.7839    -4552.871   -2818.3299   -1181.5424    1046.2439    409.35866     23.76365   -4105.6672 
 6577000    270.16923   -4177.3343   -3714.2735   -4177.3343            0   -2630.5575     18.51261    23.491501    22.396115    9739.8244   -4494.5475   -2390.8592   -1006.2657     419.5405   -669.66979    -24.99387    -4087.932 
 6578000    280.13111   -4116.5713   -3636.4361   -4116.5713            0   -3329.3421     18.50286    23.846767    22.354646    9863.6165   -5077.5655   -2737.2455   -2173.2152    555.39111    353.26422    216.95892   -4115.3644 
 6579000    281.27164   -4184.8592   -3702.7693   -4184.8592            0   -480.79328    18.145361    23.767554    22.317545    9624.9066   -226.25966   -1322.9327    106.81256   -279.07304    302.38168    1006.6824   -3770.2579 
 6580000    281.92412   -4124.6024   -3641.3942   -4124.6024            0   -797.89188    18.148489    23.848539    22.412264     9700.363   -1294.1384   -104.81716   -994.72006      294.854   -524.88003     84.19266   -3754.2718 
 6581000      275.424    -4161.707   -3689.6397    -4161.707            0   -2327.8434    18.506297    23.572104    22.272123    9715.8205   -3093.5358   -1918.4291   -1971.5652   -320.22099     511.8174   -116.39079   -4019.4841 
 6582000    271.72035    -4184.423   -3718.7036    -4184.423            0   -1590.0852    18.384167    23.326504    22.489491    9644.3561   -1685.6679    -816.3281   -2268.2596   -1302.5405    -124.7819   -188.58975   -3942.3539 
 6583000    265.35155   -4168.8781   -3714.0746   -4168.8781            0   -2373.8183    18.155917    23.778103    22.431222    9683.8555   -731.46885   -2573.1688   -3816.8173     793.2719    252.37178   -282.45256   -4049.3268 
 6584000    300.43209   -4152.9662   -3638.0359   -4152.9662            0   -2353.3766    18.143126    24.200496    22.210966    9752.2277   -1194.5781   -3737.5737    -2127.978   -64.528991    602.52153   -717.42892   -3972.7478 
 6585000    280.83884   -4179.0038   -3697.6557   -4179.0038            0   -2322.5347    18.370608    23.757739    22.181974    9681.1919   -2402.8114   -2389.6206    -2175.172    -942.3552    156.37627    788.11873   -4025.5749 
 6586000    268.42956   -4157.6751    -3697.596   -4157.6751            0   -1834.0879    18.373821    23.490635    22.407267    9671.2614   -2021.8145   -2233.2445   -1247.2049     268.2264   -597.30011   -551.07883   -3956.2857 
 6587000    269.06187   -4174.6032   -3713.4404   -4174.6032            0   -1503.9759    18.316345    23.737947     22.27312    9684.1839   -1564.4712   -1041.8627   -1905.5937   -614.21925   -51.162466     337.1333   -3925.8527 
 6588000    286.16123    -4156.954   -3666.4835    -4156.954            0   -659.82851    18.193483    23.905837    22.199069    9655.0505   -1276.8094   -2620.8452    1918.1691    166.01119   -19.088864     865.0304   -3759.3933 
 6589000    269.43224   -4190.9027   -3729.1051   -4190.9027            0   -1954.9182    18.077693      23.9241    22.452282    9710.4444   -1858.6495   -2513.8879   -1492.2172    398.91857    737.05069    346.61486   -4005.9545 
 6590000    269.12191   -4160.9222   -3699.6564   -4160.9222            0   -975.36365    18.304189    23.574196    22.295286    9620.5616   -1796.5963    232.10949   -1361.6041    39.742753   -690.14498   -199.18565   -3836.5058 
 6591000    270.53416    -4192.111   -3728.4247    -4192.111            0   -1356.1884     18.47234    23.456936    22.384452    9699.2837   -2463.8543   -1107.0187   -497.69222   -212.21625   -39.910639   -298.43408   -3920.2631 
 6592000    285.38835   -4161.9501   -3672.8043   -4161.9501            0   -119.95167    18.289284    23.681881    22.219952    9624.0086     105.9748    -26.02208   -439.80774   -60.889427    477.34867    92.592293   -3689.6403 
 6593000     274.4899   -4194.3527   -3723.8864   -4194.3527            0   -1743.3333    18.136848    24.094878    22.200073    9701.5464   -1427.8451   -3019.0649   -783.08997   -89.680856   -681.13364   -495.66825   -3970.5456 
 6594000    269.73074   -4168.1225   -3705.8132   -4168.1225            0   -1604.4603    18.140208    23.817282    22.406343    9680.6704   -1944.8852   -1154.6621   -1713.8337   -216.42137   -471.53871    250.40752   -3932.3352 
 6595000    270.24337   -4174.4641   -3711.2762   -4174.4641            0   -2155.3442    18.438414    23.631842     22.33862    9733.6896   -3231.7435   -1913.0664   -1321.2226    513.81841    -387.2046   -1316.1059     -4017.24 
 6596000    283.52572   -4155.3111   -3669.3577   -4155.3111            0   -1717.2503    18.402836    23.589206    22.200498      9637.42   -3697.7839   -207.85849   -1246.1086   -331.62424    3.4477619   -320.40083   -3910.7205 
 6597000    281.92486   -4169.6639   -3686.4544   -4169.6639            0   -2514.6299    18.280065    23.646857     22.57954    9760.3694   -2625.4238   -554.60723   -4363.8588   -547.28316    240.02902    337.73905   -4044.3993 
 6598000    261.96153   -4177.8713   -3728.8782   -4177.8713            0   -2398.0606    18.250152    23.813889    22.324237    9702.2717    -3361.624   -2220.0942   -1612.4634    202.68137   -941.39312    178.39678   -4068.1982 
 6599000    274.26804   -4160.8717   -3690.7856   -4160.8717            0   -1318.6313    18.151903    23.683017    22.350519    9608.3057   -1428.3158   -1225.4862   -1302.0919    267.03052   -133.96882   -320.04474   -3875.5619 
 6600000    275.89429   -4193.0853    -3720.212   -4193.0853            0   -942.07466    18.279075    23.688482    22.312509    9661.3954   -1657.8741    -42.21395   -1126.1359   -739.82176   -437.73203    778.69634   -3852.9517 
 6601000    263.39445   -4180.3464   -3728.8973   -4180.3464            0   -2454.6756    18.401332    23.880853    22.123787    9722.0657   -2747.1335   -2834.4371   -1782.4562    481.68956    224.64396     87.06007   -4076.9368 
 6602000     288.7028   -4175.7243   -3680.8976   -4175.7243            0   -1438.5989    18.242741    23.635433    22.562777    9728.5074   -481.74053   -2067.9412    -1766.115    211.53078     880.9162   -515.76323   -3885.0064 
 6603000    279.72557   -4155.0911    -3675.651   -4155.0911            0   -2269.8021    18.389272    23.737777    22.308953    9738.3134   -2134.3294   -2241.1672   -2433.9097   -39.216474   -325.84469    77.568186   -3998.0158 
 6604000    279.34528   -4171.2026   -3692.4143   -4171.2026            0    -1866.993    18.353304    23.791812    22.147524    9670.9012   -1463.5318   -3135.4025   -1002.0448   -423.21526     479.8513   -1.4703639   -3955.7353 
 6605000    277.85762   -4148.5222   -3672.2838   -4148.5222            0   -1309.1865    18.225731    23.583592    22.495682    9669.2787   -2232.2742     909.7456   -2605.0308    1466.0966   -586.08136   -1008.2197   -3856.9007 
 6606000    275.75477    -4193.658   -3721.0237    -4193.658            0   -2292.0572    18.346601    23.703427    22.179637    9645.4211   -3321.4703    -2278.126   -1276.5752   -140.87631    83.020173    586.95594   -4043.4442 
 6607000    275.81778   -4190.0305   -3717.2883   -4190.0305            0   -1728.5368      18.3698    23.608906    22.340595    9688.9124   -1590.8281   -2303.5243    -1291.258   -748.66546     -169.874    93.968112   -3961.5355 
 6608000    277.60874   -4168.1509    -3692.339   -4168.1509            0   -1610.0558    18.217593    23.620257    22.429959    9651.7061   -1882.2042   -1092.7525   -1855.2107   -140.25537    589.96744    712.80826   -3918.9709 
 6609000    272.14128   -4181.9081   -3715.4673   -4181.9081            0   -1755.0416    18.208683    23.907662    22.148033    9641.6375   -1969.8693   -1608.8512   -1686.4043    -464.2309   -641.27904    18.152537   -3962.2497 
 6610000    275.65339    -4177.381   -3704.9205    -4177.381            0   -1658.0566      17.9852    23.773368    22.562131    9646.8631   -1.3963209   -1518.5754    -3454.198   -927.76601    35.990697   -78.360952   -3938.1918 
 6611000     275.1967   -4159.6035   -3687.9258   -4159.6035            0   -1639.6843    18.366869    23.631856    22.386886    9716.8752   -1432.9559    -1105.074   -2381.0231    63.255988   -366.83503    9.1104398   -3920.2865 
 6612000    284.89531   -4178.0969   -3689.7961   -4178.0969            0   -2951.3378    18.599978    23.669615    22.203151     9775.033   -2993.1264   -2991.6732   -2869.2139     386.1357   -405.94284   -467.83267   -4110.5354 
 6613000    277.02798   -4183.3846   -3708.5682   -4183.3846            0   -1899.8331    18.214894    23.644695    22.437033    9663.3073   -1766.4523   -2286.1734   -1646.8738    755.64521   -100.25011   -181.91896   -3976.3106 
 6614000    284.70549   -4133.6296   -3645.6542   -4133.6296            0   -1876.4343    18.303319    24.095211     22.23147    9804.5749   -2457.5269   -2026.4119   -1145.3641      80.0661   -974.86178    521.38008   -3913.9649 
 6615000    283.44885   -4158.4037    -3672.582   -4158.4037            0   -1230.6054    18.215691    23.813461    22.344853    9692.7202   -525.59895   -2687.7196   -478.49768   -606.91218   -477.35021    134.05719   -3846.5384 
 6616000    271.00485   -4179.1673   -3714.6743   -4179.1673            0   -1473.2908    18.367118    23.469372    22.402949    9657.1209   -2657.9928   -1394.4538   -367.42587   -307.62798    727.39789    402.83178   -3922.1714 
 6617000    267.68422   -4193.8544   -3735.0528   -4193.8544            0   -2016.9998    18.493674    23.568123    22.212256    9681.4606   -3123.2158   -2524.9856   -402.79793   -154.03269    520.65633    465.23688   -4019.8414 
 6618000    276.30493   -4200.0947   -3726.5175   -4200.0947            0   -28.603124    18.069047    23.521709    22.373904     9509.242    552.25763   -193.47781   -444.58919     393.0672    -293.9283    -740.7956   -3730.4843 
 6619000    288.00753   -4183.3614   -3689.7264   -4183.3614            0   -1246.0675     18.14075    23.846627    22.356343    9671.2579   -1610.9812   -1525.7814   -601.43984   -626.42438   -838.11519     172.3978   -3865.4784 
 6620000    284.08684   -4192.6544   -3705.7392   -4192.6544            0   -1460.1161    18.106279    24.045704    22.070234    9608.8994   -597.66868   -2064.7501   -1717.9294   -292.67949    163.58213     371.7524    -3910.354 
 6621000    274.02593   -4183.6864   -3714.0154   -4183.6864            0   -2185.2748    18.206342    23.636175    22.530111    9695.3443   -1611.9615   -2018.3417   -2925.5211    440.14454   -867.59441    416.66915   -4023.0059 
 6622000    278.62155   -4143.4039   -3665.8561   -4143.4039            0   -2215.2684    18.606536    23.542857    22.235661    9740.3542   -2280.1789   -2084.2587   -2281.3676    -591.0261   -982.91808    535.72676   -3980.5418 
 6623000    276.68754   -4215.0185   -3740.7856   -4215.0185            0   -2097.9073    18.345904    23.673932    22.138635     9615.245   -3236.8561   -773.35585   -2283.5098    732.03507    271.43085   -314.30381   -4034.9719 
 6624000    285.98701   -4157.1485   -3666.9766   -4157.1485            0   -1995.9078     18.15787    23.715305    22.395533    9643.9515   -1897.2287   -1634.2146   -2456.2801    334.22154   -1446.2615   -516.15267   -3947.6953 
 6625000     303.9017    -4173.901   -3653.0238    -4173.901            0   -394.64946    18.224723    23.813612    22.198431    9634.0408   -525.58545   -14.721785   -643.64116    254.77514    249.86485    279.06233   -3708.4731 
 6626000    282.27979   -4181.7184   -3697.9005   -4181.7184            0   -180.06189     18.17573    23.799944    22.123647    9570.2771    78.527047   -443.67677   -175.03596   -589.36475   -250.73761    -429.3452   -3723.0322 
 6627000    279.27375    -4170.302   -3691.6363    -4170.302            0   -321.11476    18.137586    23.589542     22.28138    9533.2523   -478.60717   -1001.9584    517.22128     630.4845   -160.60205   -276.39562   -3736.2818 
 6628000    286.53368   -4188.5806   -3697.4717   -4188.5806            0    58.714159    18.378119    23.551197    22.057025    9546.8693   -2436.3945    1837.9175    774.61945    -499.5795   -294.30736     32.86673   -3689.2969 
 6629000    285.63454   -4161.2706   -3671.7027   -4161.2706            0     -825.887    18.298993    23.574044    22.321887    9629.2438   -159.97897   -144.94046   -2172.7416   -1463.9999    107.31283    410.81323   -3787.6842 
 6630000    279.24842   -4202.1892    -3723.567   -4202.1892            0   -1663.0226    18.113879    23.928514    22.342694     9684.177   -888.45513   -2872.5614   -1228.0512    76.887856    169.80467   -168.10902    -3958.442 
 6631000    271.84781   -4197.9553   -3732.0175   -4197.9553            0   -938.98963    18.306266    23.803047    22.200512    9673.7602   -836.74809   -1606.0184   -374.20237    229.34909    65.757057    199.17013   -3864.4919 
 6632000    285.55842   -4146.1993   -3656.7619   -4146.1993            0    -691.3125    18.202655    23.473529    22.562462    9640.5013   -654.95955   -475.62809   -943.34985    301.03874   -230.01817    535.13701   -3753.9582 
 6633000    274.55317   -4179.1879   -3708.6132   -4179.1879            0   -2023.1731    18.403907    23.710486    22.075869    9633.1494   -1730.4623   -2787.6437   -1551.4133    926.98932   -48.354643    47.377395    -3992.848 
 6634000     273.2525   -4200.9652   -3732.6197   -4200.9652            0   -2342.8149    18.417275    23.492985    22.371357    9679.5661   -2813.5452   -1681.0602   -2533.8393   -887.88179   -50.142505   -834.30489   -4063.3468 
 6635000    255.37136    -4173.793   -3736.0952    -4173.793            0   -2108.1278     18.20729    23.653798    22.434142    9661.7472   -1120.2953    -2968.823   -2235.2651     900.6646    74.858204    843.76277   -4033.1445 
 6636000    268.94835   -4151.7008   -3690.7326   -4151.7008            0   -362.61087    18.040433     23.94558    22.209417     9594.216    758.92096   -2116.7969    270.04332   -1124.3445   -1023.8892   -41.388939   -3741.4697 
 6637000    268.47535   -4187.4339   -3727.2763   -4187.4339            0   -739.05568    18.213437    23.711616    22.264817    9615.5072   -1556.7733   -275.03386   -385.35986    141.24706    544.33774    124.27555   -3830.9158 
 6638000    281.99546   -4187.1803   -3703.8498   -4187.1803            0    214.82562    18.312329    23.426897    22.338499    9583.2394    1352.0163   -600.82617   -106.71325    415.83213    255.87759    374.80428   -3673.8254 
 6639000    254.38671   -4190.0648   -3754.0547   -4190.0648            0   -2227.9836    18.390885    23.615933    22.333821    9699.9787   -2570.6635   -2141.0759   -1972.2113    173.98135   -1025.9653   -667.42405   -4069.2347 
 6640000    294.07583   -4201.0563   -3697.0204   -4201.0563            0   -3038.5872    18.229371    24.086359    22.296927    9790.1162   -2816.0073   -4128.2637   -2171.4905    794.11618    131.67597     -191.336   -4130.8663 
 6641000    263.13842   -4176.5509   -3725.5407   -4176.5509            0   -1404.5624    18.058746    23.953611    22.363606    9673.8735    183.01125   -3626.8798   -769.81848    482.27487   -404.55407    851.73948   -3923.7013 
 6642000    272.03882   -4182.9686   -3716.7033   -4182.9686            0   -2498.2646    18.338262    23.648764    22.365904    9699.5834   -2533.1184    -2463.396   -2498.2793    824.07902    161.00742    221.02614    -4070.104 
 6643000    260.96174   -4158.6151   -3711.3357   -4158.6151            0    -1161.725    18.371398     23.63566    22.333905     9697.831   -2573.5892    281.34429   -1192.9303   -1892.8618     360.8297   -127.36971   -3875.6418 
 6644000     267.3814   -4156.9144   -3698.6318   -4156.9144            0   -1435.4796    18.332948    23.498856    22.413701     9655.896   -2295.5692   -462.45715   -1548.4125    329.24928    568.85142    422.32827    -3900.778 
 6645000    280.43376   -4142.7039     -3662.05   -4142.7039            0   -1865.4056    18.264442    23.936038    22.268872    9735.4692   -985.82941   -2781.7294    -1828.658   -1342.7376   -626.88163    107.06038   -3926.9037 
 6646000    272.32983   -4179.5915   -3712.8275   -4179.5915            0   -2458.5868    18.020432    24.112191    22.419624    9741.5973   -2067.3374   -3755.6006   -1552.8225    827.97962    595.35562    159.78581   -4062.1219 
 6647000    270.16016   -4190.9532    -3727.908   -4190.9532            0   -1238.0924    18.313683    23.629305    22.385413    9687.0546   -1529.9436   -1424.9148   -759.41882   -167.78725   -480.03124    525.38571   -3902.8204 
 6648000    266.69964   -4199.6569   -3742.5429   -4199.6569            0    -1450.816    18.557433     23.45935    22.126117    9632.5012    -1914.414   -2379.4212   -58.612673   -54.999325    125.68415    435.90078   -3946.3537 
 6649000    284.67813   -4140.8929   -3652.9644   -4140.8929            0   -1567.4717    18.274263    23.692306    22.261395    9638.2808   -971.86806   -598.33463   -3132.2124   -193.23377    910.07325   -220.96063   -3873.2951 
 6650000    264.67197   -4157.6839   -3704.0452   -4157.6839            0   -2003.1276    17.963455    23.997826    22.463355    9683.5898   -2512.6866   -1331.5817   -2165.1145   -1138.7044    319.52378    495.90148   -3986.9373 
 6651000    281.61914   -4160.3086    -3677.623   -4160.3086            0   -2364.4433    18.275945    23.931135    22.350353    9775.2422   -1805.3007   -2713.0779   -2574.9511   -1304.0683    844.02937   -209.98459   -4014.7025 
 6652000    272.44124   -4190.3846   -3723.4297   -4190.3846            0   -2647.8725    18.505785    23.714449    22.266846    9771.9051   -2940.2595   -2578.4062   -2424.9517   -158.93719   -410.61124   -538.17445   -4100.7865 
 6653000    276.42758   -4159.3315   -3685.5441   -4159.3315            0   -2174.5235    18.423131    23.497255    22.430822    9710.1466   -3012.8276   -1992.3907   -1518.3521    1045.3392    345.07191    -405.8377   -3993.4839 
 6654000     268.5412   -4185.6259   -3725.3555   -4185.6259            0   -1661.5014    18.306704    23.816737    22.192132    9675.9013    -1109.122   -1954.9944   -1920.3879    448.61436    188.49683   -968.72506   -3959.8151 
 6655000    275.37309   -4174.6107   -3702.6306   -4174.6107            0   -2396.6797    18.182464    23.850336    22.384764    9707.3289   -1691.2325    -1774.033   -3724.7737   -658.84267     1138.169    749.90467    -4041.932 
 6656000    259.61217   -4197.3612   -3752.3948   -4197.3612            0   -1343.2313    18.098763    23.818562    22.441926    9674.4113    889.31408    -1941.515   -2977.4929   -690.42813   -717.09474   -226.40318   -3941.9132 
 6657000    262.75727   -4166.2988   -3715.9418   -4166.2988            0   -826.94979    18.463777    23.614253    22.202136    9680.3161    -2344.955   -138.42269    2.5283084   -233.49139   -219.10249    269.09469   -3832.6885 
 6658000    284.86309    -4203.843   -3715.5974    -4203.843            0   -707.26776    18.256917    23.393154    22.459174    9592.0184    344.00687   -514.92158   -1950.8886   -503.24031    188.13291   -469.94709   -3814.5369 
 6659000    283.94787   -4194.7354   -3708.0585   -4194.7354            0   -39.444426    18.153589    23.749751    22.198211     9570.608    219.80776     75.10979   -413.25083    306.94125   -480.10902   -481.75391    -3713.564 
 6660000    313.18759   -4200.0884   -3663.2956   -4200.0884            0   -277.89424    18.109088    23.872904     22.12318     9564.216    860.17812   -176.97418   -1516.8867    685.58424    566.43964    710.02523   -3702.0574 
 6661000     273.8022   -4209.3518   -3740.0641   -4209.3518            0   -1324.5646    18.159647    23.677731    22.489345    9669.9519   -1092.9567   -1183.8866   -1696.8504   -712.59846    291.05865    338.44284   -3926.8626 
 6662000    272.10564   -4170.8987    -3704.519   -4170.8987            0   -1528.3722    18.403155    23.665543    22.341933     9730.373   -2725.6145   -202.68169   -1656.8203    188.88611   -172.31382    430.06604   -3921.4065 
 6663000    284.20991   -4177.6329   -3690.5069   -4177.6329            0   -3093.9023    18.596185    23.757081     22.21935    9816.3104   -3951.0419   -2621.3251     -2709.34   -41.301941    449.01572    405.00931   -4133.4325 
 6664000    280.18929   -4183.0397   -3702.8049   -4183.0397            0   -3353.3809    18.223616    23.823365    22.559752    9794.2679   -2060.2613   -3464.0676   -4535.8137     492.7246    970.89882   -426.63205   -4181.7996 
 6665000    277.23571   -4173.4955    -3698.323   -4173.4955            0   -1665.2871    18.277252    23.852762    22.238027    9694.9557   -2080.2488   -3126.1857    210.57315   -113.14563    89.839101    45.006556   -3933.7795 
 6666000    287.35616   -4174.3168   -3681.7982   -4174.3168            0    144.86601    18.258806    23.758545    22.199659     9630.271   -140.44139   -489.55635    1064.5958    1038.6135   -331.14163    183.99758   -3661.4521 
 6667000    256.41422    -4175.859   -3736.3738    -4175.859            0   -2281.1259    18.247853    23.515612     22.52357    9665.0765   -2453.8666   -2539.7295   -1849.7817   -187.63693    120.10336   -647.53398   -4057.9104 
 6668000    284.31092   -4136.8962    -3649.597   -4136.8962            0   -2081.7537    18.501058    23.881591    22.060106    9746.9204   -1470.5212   -4108.2751   -666.46485    565.58023    169.54109   -171.44604   -3945.5159 
 6669000    287.27216   -4158.7624   -3666.3877   -4158.7624            0   -2042.7265    18.264328    23.750737    22.401299    9717.4876   -1467.6921   -1023.6529   -3636.8344   -915.48295    280.26817   -69.799612   -3955.8821 
 6670000    269.85168   -4150.5442   -3688.0277   -4150.5442            0   -2974.1293    18.163993    23.824779    22.534071    9751.6894    -1581.142   -3489.7856   -3851.4604   -99.516478    376.03509   -690.30891   -4111.0035 
 6671000    275.04196   -4170.9604   -3699.5479   -4170.9604            0   -2454.6402    18.298695      23.8116    22.219039    9681.3067   -2946.7083   -2697.2165   -1719.9956   -1659.4832   -210.61069   -439.95451   -4046.1232 
 6672000    276.35816   -4178.1199   -3704.4515   -4178.1199            0   -1448.2949    18.322987    23.491469    22.481122    9676.6365   -2148.0175   -676.12735   -1520.7399    493.38292   -536.19938   -202.80397   -3908.8404 
 6673000    269.28023   -4180.3353   -3718.7982   -4180.3353            0   -1281.8581    18.443747     23.65816    22.198661    9686.2774   -1615.6732   -1048.8945   -1181.0067    -570.7043    247.62805   -229.37559   -3899.8792 
 6674000     265.9042   -4174.6812   -3718.9305   -4174.6812            0   -1978.8921    18.330288    23.876071    22.218411    9724.0046   -1168.0141   -3513.2608   -1255.4014    103.35273   -106.18808     130.6904   -3999.5664 
 6675000    299.83744   -4195.8111      -3681.9   -4195.8111            0   -2472.9066     18.11422    23.642123    22.626401    9689.9514   -1911.4709   -2554.5086   -2952.7403   -410.96372    829.97499   -112.40734   -4031.3662 
 6676000    280.21046   -4195.1139   -3714.8428   -4195.1139            0   -1368.1151    18.249327    23.665264    22.273224    9619.2518   -1520.9135   -1736.3515   -847.08037    779.86092   -175.53605    146.13495   -3906.7715 
 6677000    286.84498   -4156.5426   -3664.9001   -4156.5426            0    393.04275      18.3556    23.576161    21.852203    9456.6406   -52.224704    108.86607    1122.4869   -1167.1376   -359.61088   -32.511962   -3610.6935 
 6678000    264.61075   -4139.4813   -3685.9475   -4139.4813            0     306.8281    18.161436    23.619806    22.318329    9573.8846   -375.82172   -495.99811    1792.3041   -158.32282   -25.353803   -1510.9561   -3643.1065 
 6679000    272.64989   -4165.7945   -3698.4819   -4165.7945            0   -1969.2112     18.09448    23.868914    22.327992    9643.3613   -1261.8566    -2342.029   -2303.7481   -969.54766   -1014.7649    776.23494   -3975.4289 
 6680000    266.56108   -4164.8072   -3707.9307   -4164.8072            0   -2984.4081    18.189946    23.867075     22.41493    9731.2356   -3785.2782   -2862.8777   -2305.0686   -884.22726    -462.5242   -22.177439   -4131.4781 
 6681000    271.66297   -4153.1115   -3687.4905   -4153.1115            0   -2511.2327    18.516487    23.490581    22.326519    9711.2104   -2836.4103   -2025.8665   -2671.4211    116.42353   -328.33699     97.52332   -4043.1514 
 6682000    304.55585   -4186.3821   -3664.3838   -4186.3821            0   -634.00741    18.475652    23.354304    22.248847     9600.066   -1283.8644   -96.929187   -521.22868    1281.1652   -277.32546    31.326258   -3753.1493 
 6683000    281.35217   -4202.0394   -3719.8114   -4202.0394            0   -1659.1615    18.240594    23.682962    22.425691    9687.7032   -1689.1066   -1448.2088   -1840.1691   -719.00344   -54.014916    311.55667   -3954.2264 
 6684000    288.44856   -4217.0926   -3722.7016   -4217.0926            0   -2728.4845    18.054382    24.102724    22.346847    9724.4493   -1607.1038   -3243.3114   -3335.0382    787.46481   -672.14733   -117.38897   -4109.6583 
 6685000    287.76638     -4179.32   -3686.0982     -4179.32            0   -724.43672    18.180024    23.948804     22.17164    9653.3068   -944.96157   -1172.6693   -55.679328    240.32741   0.24813196   -316.39124    -3788.087 
 6686000    269.50694   -4129.6365   -3667.7108   -4129.6365            0    -372.4096    18.443908    23.345432     22.47757    9678.4146   -1638.0229    1349.0645   -828.27038    425.46191    -31.76767   -565.54923   -3720.2763 
 6687000    284.01181   -4203.3734   -3716.5869   -4203.3734            0   -1749.5288    18.411083     23.60887    22.172094    9637.4302   -1538.2162   -2467.9105   -1242.4597   -474.79406    437.34137   -520.91325   -3962.4868 
 6688000     292.6198    -4170.427   -3668.8867    -4170.427            0   -1299.3459    18.072553    23.835268     22.29557    9604.1322   -643.44545    -2172.405   -1082.1872   -566.98008    388.70232    108.14714   -3850.8814 
 6689000    269.11159   -4198.8408   -3737.5927   -4198.8408            0   -1126.9023    18.112894    23.781136    22.349484    9626.9329   -1644.4388    -468.4546   -1267.8137    522.64707   -582.67199    530.91698   -3895.8086 
 6690000    296.22124   -4165.5663   -3657.8532   -4165.5663            0   -1171.3193    18.385716    23.828352    22.029925    9651.3389   -478.82813    -2839.021   -196.10861   -774.44818   -682.06372   -433.92217   -3822.7221 
 6691000     277.0721   -4165.3116   -3690.4196   -4165.3116            0   -1377.2861    18.371463    23.439736    22.337854     9619.177   -1342.3091   -1651.7519   -1137.7972   -434.66036   -368.82269    532.49663   -3883.6333 
 6692000    277.24934   -4161.9387   -3686.7428   -4161.9387            0   -2780.3117     18.45865    23.621148    22.432372    9780.8399   -3999.7945   -1116.3322   -3224.8083   -886.33012    102.56474    165.39123   -4083.3363 
 6693000    284.95112   -4175.1387   -3686.7423   -4175.1387            0   -1899.7699    18.159495    24.077454    22.310921    9755.1024   -145.85106   -3448.6391   -2104.8195   -415.67096    444.63215    294.89963   -3957.0191 
 6694000    291.69871   -4169.1851   -3669.2234   -4169.1851            0   -1325.7391    18.046132     23.96589    22.449084    9709.0402    1062.4075   -2616.7674   -2422.8573    29.872898    347.44688    463.23133   -3856.9433 
 6695000    278.15582   -4169.4505    -3692.701   -4169.4505            0   -1297.0237    18.297442    23.774496    22.308949    9704.6705   -1317.7168   -996.83615   -1576.5182    585.41419   -371.32706   -515.32688   -3876.2722 
 6696000     284.8954    -4182.166    -3693.865    -4182.166            0   -2004.0208    18.510658    23.662095    22.130322    9693.1018   -1864.4782   -2909.3038   -1238.2805   -273.60316    304.30869    192.52086   -3977.1613 
 6697000    278.64359   -4166.1427   -3688.5571   -4166.1427            0   -632.04696     18.25614     23.47628    22.470773    9630.6646   -23.878639   -803.92235   -1068.3399    153.18652    1010.5509    295.79438   -3777.3302 
 6698000     289.9124   -4181.8298   -3684.9298   -4181.8298            0   -1645.0562    18.337326    23.815787    22.158633    9677.0706    -2074.011   -902.69785   -1958.4596    470.18983   -5.7048343   -553.67326   -3917.0968 
 6699000    279.70103   -4150.1708   -3670.7728   -4150.1708            0    -1502.692     18.17341    23.875903    22.203532    9634.2588    -1910.106   -2324.9787   -272.99134    402.22745   -818.36676   -372.11104   -3881.9097 
 6700000    279.34763   -4176.2753    -3697.483   -4176.2753            0   -1038.8545    18.001454    23.714797     22.54245    9623.3907   -512.78068    188.08781   -2791.8706   -656.85262    358.08458   -18.768153   -3843.2834 
 6701000    283.32183   -4180.0551   -3694.4512   -4180.0551            0   -721.27364     18.33845     23.58699    22.144327    9578.5031   -890.24066   -1279.4912    5.9109034   -227.27472   -15.798519    513.79377   -3795.2078 
 6702000    271.92604   -4140.9206   -3674.8487   -4140.9206            0   -1279.5909    18.340622    23.544932    22.268134    9616.0193   -540.68435   -955.09725   -2342.9912    574.53108   -919.80963    1078.1205   -3854.2982 
 6703000    277.25118   -4202.5265   -3727.3275   -4202.5265            0   -539.84027      18.1234    23.548356    22.371727    9547.7225    1177.7424   -713.34254   -2083.9206   -239.18198   -860.91612    -442.1037   -3802.4968 
 6704000    264.94739   -4167.4551   -3713.3443   -4167.4551            0   -914.65616    18.208305    23.967136    21.956534    9581.8512   -372.86686   -1893.6897   -477.41191    1687.7984   -691.60777    150.65401   -3841.1597 
 6705000    275.21298   -4200.8144   -3729.1088   -4200.8144            0   -1159.6385    18.210742    23.682269    22.377256    9650.6772    141.27462   -1562.2955   -2057.8947    893.30668    432.16409    249.80627   -3892.3224 
 6706000    272.54038   -4188.8123   -3721.6874   -4188.8123            0   -2759.3654    18.297161    23.637979    22.535511    9746.7867   -2277.6447   -2203.5643   -3796.8871   -634.58123   -532.26049    811.37695   -4113.9226 
 6707000    290.71608   -4196.2236   -3697.9462   -4196.2236            0   -1580.6307    18.369739    23.830349    22.006177    9633.3644   -2595.4783   -1608.1703    -538.2435   -477.33918     164.5336    565.76622   -3920.0134 
 6708000    257.98259   -4123.6915   -3681.5182   -4123.6915            0    -1056.178    18.112579    23.503664    22.750966     9685.359   -38.254342   -575.75318   -2554.5266   -496.57322    163.56193   -750.63563   -3830.7044 
 6709000    274.70297   -4177.1458   -3706.3143   -4177.1458            0   -1449.5144    18.242049    23.721067    22.360832    9675.9991   -1389.1268   -1748.4098   -1211.0067   -388.68634    248.23957   -469.61933   -3910.8618 
 6710000    280.65153   -4161.7287   -3680.7016   -4161.7287            0   -1459.8927    18.252962    24.029274    22.076019    9682.6613   -2587.4088   -2166.7471    374.47776   -377.97857   -503.01852   -41.775848   -3886.8555 
 6711000    285.52818   -4202.1818   -3712.7963   -4202.1818            0   -1944.0841    18.217959     23.66978    22.398726    9658.6683   -1062.6751     -2500.03   -2269.5471     675.2357    -156.5686   -404.47537   -3986.6434 
 6712000    284.37533   -4184.4802   -3697.0706   -4184.4802            0   -1903.3962     18.39791    23.906914    22.097858    9719.4612   -2896.8898   -1362.1056   -1451.1933   -522.78103   -517.35058   -319.29427   -3966.8739 
 6713000    292.49771   -4174.7936   -3673.4625   -4174.7936            0   -1541.0612    18.241066    23.650411    22.538378    9723.2525    14.136739    -1048.008   -3589.3122   -654.93226   -100.49247   -251.74833   -3891.9906 
 6714000    268.47083   -4164.4164   -3704.2666   -4164.4164            0   -1028.6442    18.172363    23.829832    22.340637    9674.4868    46.263315   -2640.5508   -491.64499   -307.79483     179.1366    -669.2856   -3849.4005 
 6715000    262.17254   -4213.4136   -3764.0589   -4213.4136            0   -587.20216    18.241364    23.821291    22.065877    9588.3481   -649.73737   -2590.3359    1478.4668   -404.21012   -800.51966   -5.2882969    -3846.171 
 6716000    279.26163   -4182.1761   -3703.5312   -4182.1761            0   -2518.9541    18.248493    23.510417    22.738331    9755.4191   -1626.1701   -2430.1778   -3500.5145   -483.88515    78.260744    363.20589   -4061.9098 
 6717000    275.10913   -4193.8849   -3722.3573   -4193.8849            0   -1193.1414    18.317337    23.808367    22.209095    9685.5167   -2771.2945   -298.08245   -510.04717   -32.073572   -782.06331   -603.54345   -3890.8925 
 6718000    287.27517   -4176.5016   -3684.1217   -4176.5016            0   -2894.5722    18.238161     23.98563    22.291476    9751.4905   -3316.4942   -3258.9664   -2108.2559   -821.39232   -513.04384   -368.93167   -4095.7747 
 6719000    275.16004   -4146.7106   -3675.0957   -4146.7106            0   -1442.1952    18.233472    23.743576    22.407578     9700.864   -2953.8588   -548.97345   -823.75343    137.82702    352.62483   -472.53464   -3879.1333 
 6720000    274.50352   -4198.0044   -3727.5148   -4198.0044            0    -1275.597    18.677286    23.539661    22.022348    9682.2787   -2817.8084   -1642.3881    633.40556   -450.40748   -150.53518   -157.27368   -3907.6368 
 6721000    274.13821   -4167.1056   -3697.2421   -4167.1056            0   -1666.6106    18.429367    23.442338    22.472722    9708.8326   -2343.0955    -233.3319   -2423.4044   -1047.4215   -83.148559   -230.55536   -3933.2231 
 6722000    274.38171    -4190.119   -3719.8381    -4190.119            0   -1639.8293    18.200206    23.856056    22.320659    9691.2981   -1839.0765   -1767.6096   -1312.8018    447.17483   -119.58832    393.97976   -3951.6077 
 6723000    278.90922   -4193.3422   -3715.3013   -4193.3422            0   -1449.7223    18.123518    24.025121     22.17741    9656.4817   -1176.3163   -1365.6611   -1807.1896   -73.418364   -344.47434    223.94117   -3919.4655 
 6724000    283.55397   -4177.8216   -3691.8198   -4177.8216            0   -2335.3716    18.312894    23.743714    22.342188    9714.7431   -2435.2541   -2654.8792   -1915.9814    203.53561    593.57401    378.11936   -4022.6943 
 6725000    276.47478    -4190.323   -3716.4547    -4190.323            0    156.44566    18.506075    23.352261    22.110987     9555.455    283.61176    617.44949   -431.72427   -645.98434     849.5566    424.57858    -3694.653 
 6726000    284.18168   -4181.0834   -3694.0057   -4181.0834            0   -1495.3041    18.341731    23.662665    22.397158    9720.6855   -554.06045   -1394.9812   -2536.8707   -562.24361   -151.76692    327.86587   -3905.9893 
 6727000    283.88797   -4114.3075   -3627.7332   -4114.3075            0   -1164.3434    18.158819    23.765527    22.492706    9706.8147   -1484.0513    149.84049   -2158.8192    165.00159   -242.93723   -304.80389   -3792.5622 
 6728000    294.22501   -4172.7109   -3668.4193   -4172.7109            0   -1504.4476     18.31341    23.821381     22.19111    9680.8878   -2193.9107   -733.24822   -1586.1838   -168.19649    401.47845   -177.83182    -3880.826 
 6729000    295.57999   -4188.3034   -3681.6894   -4188.3034            0   -893.46398    18.111027    23.710685    22.451678    9641.3086   -33.595708   -1453.2132    -1193.583     427.9012    572.06816    317.62186   -3807.3181 
 6730000    284.00899   -4141.6951   -3654.9134   -4141.6951            0   -1548.5569    18.369759    23.674372    22.228373    9666.9527    -1239.782   -929.20892   -2476.6799    399.35118   -1137.1322   -77.011158    -3873.233 
 6731000    279.94592   -4156.1309   -3676.3131   -4156.1309            0   -831.54955    18.281025    23.511181    22.341456    9602.5474   -157.72512   -1218.9713   -1117.9522   -343.80289   -1041.5049   -58.751214   -3792.7661 
 6732000    279.41507   -4172.0293   -3693.1215   -4172.0293            0   -1076.8411    18.219074    23.800289    22.296531    9668.2042   -68.952781   -1919.4766    -1242.094    -815.0875     140.9487   -477.18305    -3844.957 
 6733000    276.32823   -4177.5939   -3703.9768   -4177.5939            0    -3072.796    18.163893    24.188712    22.161481    9736.8945   -3558.9076   -2330.2947   -3329.1858   -273.39965   -382.93463    2.4461206   -4140.3219 
 6734000    284.08419   -4161.5868   -3674.6762   -4161.5868            0   -1468.3043    18.130571      23.7336    22.487898    9676.6265    423.46578   -808.60157    -4019.777    171.00894   -318.73911    225.73599   -3881.8887 
 6735000    277.56735   -4198.0063   -3722.2654   -4198.0063            0   -185.64426    18.264877    23.572727    22.257588    9583.0702   -679.44477    778.68244   -656.17046   -133.33196   -59.114891   -608.82994   -3748.2109 
 6736000     268.8601   -4163.5438   -3702.7268   -4163.5438            0   -1599.7875    18.351414    23.747636    22.294041    9715.8034   -1588.4305   -1617.8437   -1593.0882      546.086     324.2757    396.93166   -3929.4087 
 6737000    265.67997    -4146.933   -3691.5666    -4146.933            0   -3200.0891    18.171679    23.748891    22.658455    9778.4197   -2014.2373   -3939.3747   -3646.6553   -174.64152   -55.683452   -42.358533   -4147.9256 
 6738000    271.28332   -4147.8257   -3682.8554   -4147.8257            0   -2477.9603     18.29297    23.837807    22.365064     9752.606   -1968.4684   -2734.6253   -2730.7872   -1408.3387     293.4248   -353.26158      -4035.3 
 6739000    272.05744    -4163.398   -3697.1009    -4163.398            0   -1837.3328    18.259386    23.913799    22.212708    9699.2075   -2791.9491   -1667.3873   -1052.6621   -1466.0022   -320.54744     229.6613   -3956.9971 
 6740000    270.50657   -4153.4198   -3689.7808   -4153.4198            0   -1681.8661    18.249385     23.66847     22.63293     9775.955   -2737.1347   -1599.1495   -709.31406   -231.33491    8.6534541   -291.47976   -3929.5683 
 6741000    259.46668   -4156.8645   -3712.1475   -4156.8645            0   -1339.8615     18.46568    23.805559    22.187717     9753.406   -1412.3421   -1623.6854   -983.55705     1110.298   -37.269753   -1059.8664    -3902.734 
 6742000    284.57755   -4183.0423   -3695.2862   -4183.0423            0   -1585.2731    18.417644    23.477134    22.439394    9702.6479   -3227.1941   -38.048454   -1490.5766   -102.68249    440.12071    1028.0171   -3919.6073 
 6743000    290.73078   -4161.5857   -3663.2831   -4161.5857            0   -744.29605    18.261499    23.610393    22.325845    9626.0376   -948.32793   -1025.2742   -259.28606    284.66732    461.85922    381.73323   -3767.7718 
 6744000     282.3557   -4170.7168   -3686.7688   -4170.7168            0   -1118.0026    18.212727    23.739232    22.155653     9579.133   -371.56423    -1117.173   -1865.2705    564.13993    202.65552    -268.7376   -3842.9558 
 6745000    300.05543   -4180.1395   -3665.8548   -4180.1395            0   -503.57297    18.212574    23.620108    22.296878    9591.7368   -818.97513   -698.22336    6.4795881    205.54166   -972.34184    176.90355   -3736.2974 
 6746000    268.02544    -4161.747   -3702.3606    -4161.747            0   -1217.6924    18.469774    23.516336    22.158521     9624.363   -566.77936   -1626.5959    -1459.702   -80.050862   -160.08732    628.59587   -3873.2777 
 6747000    270.84222   -4165.8982   -3701.6839   -4165.8982            0   -1432.9107    18.348816    23.485635    22.429688    9665.7061   -1300.7223   -1187.3469   -1810.6628    283.44611   -793.43476    623.46993   -3903.6733 
 6748000    277.36286    -4142.203   -3666.8126    -4142.203            0   -1588.2029    18.126444    24.033825    22.275964    9704.4747   -782.74704   -2724.4784   -1257.3832    771.91604   -479.94503   -296.15162   -3891.5906 
 6749000    260.31394   -4166.8033   -3720.6341   -4166.8033            0   -2087.2241    18.223947    23.956509    22.279944    9727.0257   -1152.2324   -2924.9065   -2184.5333    475.59454 -0.013285757   -659.21121    -4016.725 
 6750000    292.08774   -4147.4766   -3646.8482   -4147.4766            0    -1832.306    18.497836    23.481807    22.439996     9747.095   -1178.3078   -2746.5743   -1572.0358   -492.44443    -1040.028    234.44684    -3907.313 
Loop time of 431.961 on 64 procs for 250000 steps with 864 atoms

Performance: 100.009 ns/day, 0.240 hours/ns, 578.755 timesteps/s
372.0% CPU use with 16 MPI tasks x 4 OpenMP threads

MPI task timing breakdown:
Section |  min time  |  avg time  |  max time  |%varavg| %total
---------------------------------------------------------------
Pair    | 23.783     | 28.196     | 34.582     |  46.7 |  6.53
Bond    | 1.5768     | 2.0779     | 3.0425     |  26.0 |  0.48
Kspace  | 225.17     | 230.75     | 239.14     |  27.7 | 53.42
Neigh   | 1.8157     | 2.0424     | 2.1932     |   7.8 |  0.47
Comm    | 56.158     | 65.851     | 72.4       |  51.3 | 15.24
Output  | 0.666      | 0.66635    | 0.66769    |   0.0 |  0.15
Modify  | 68.802     | 77.265     | 85.309     |  56.1 | 17.89
Other   |            | 25.11      |            |       |  5.81

Nlocal:        54.0000 ave          63 max          46 min
Histogram: 2 2 3 1 0 0 3 2 2 1
Nghost:        2457.56 ave        2485 max        2444 min
Histogram: 3 4 3 0 1 1 3 0 0 1
Neighs:        12503.2 ave       14150 max       10647 min
Histogram: 2 1 3 1 1 0 1 2 2 3

Total # of neighbors = 200052
Ave neighs/atom = 231.54167
Ave special neighs/atom = 2.0000000
Neighbor list builds = 7625
Dangerous builds = 0

unfix		3
unfix		2
unfix		1

write_data	data.final.${pid} nocoeff
write_data	data.final.0 nocoeff
System init for write_data ...
PPPM initialization ...
  extracting TIP4P info from pair style
  using 12-bit tables for long-range coulomb (../kspace.cpp:340)
  G vector (1/distance) = 0.37306427
  grid = 24 27 27
  stencil order = 5
  estimated absolute RMS force accuracy = 0.002861141
  estimated relative force accuracy = 8.616241e-06
  using double precision FFTW3
  3d grid and FFT values/proc = 6615 1296
Last active /omp style is kspace_style pppm/tip4p/omp

write_restart   restart.lmp.${pid}
write_restart   restart.lmp.0
System init for write_restart ...
PPPM initialization ...
  extracting TIP4P info from pair style
  using 12-bit tables for long-range coulomb (../kspace.cpp:340)
  G vector (1/distance) = 0.37306427
  grid = 24 27 27
  stencil order = 5
  estimated absolute RMS force accuracy = 0.002861141
  estimated relative force accuracy = 8.616241e-06
  using double precision FFTW3
  3d grid and FFT values/proc = 6615 1296
Last active /omp style is kspace_style pppm/tip4p/omp
Total wall time: 0:07:12
