#include		in.partitions
include		in.temp
variable        temperature equal 266.47
variable	tempDamp equal 100.0
include		in.pressure
variable        pressure equal 7872.3
variable        pressureDamp equal 1000.0 # This is 1 ps
include		in.seed
variable        seed equal 745823

units		real
atom_style	full
read_restart    restart.lmp.${pid}
read_restart    restart.lmp.0
Reading restart file ...
  restart file = 30 Jul 2021, LAMMPS = 30 Jul 2021
  restoring atom style full from restart
  triclinic box = (-3.1120492 -0.29783554 -0.034148246) to (14.722048 22.877835 19.264146) with tilt (-0.21808424 -6.1982776 -0.016748079)
  2 by 4 by 4 MPI processor grid
  restoring pair style lj/cut/tip4p/long/omp from restart
  restoring bond style harmonic/omp from restart
  restoring angle style harmonic/omp from restart
  1008 atoms
  672 bonds
  336 angles
Finding 1-2 1-3 1-4 neighbors ...
  special bond factors lj:    0        0        0       
  special bond factors coul:  0        0        0       
     2 = max # of 1-2 neighbors
     1 = max # of 1-3 neighbors
     1 = max # of 1-4 neighbors
     2 = max # of special neighbors
  special bonds CPU = 0.002 seconds
  read_restart CPU = 0.008 seconds

include 	in.setup
variable	out_freq equal 1000
variable	out_freq2 equal 10000
variable	out_freq3 equal 1000

timestep	2.0

neigh_modify    delay 7 every 1

include		in.tip4p
# This is TIP4P/Ice

# create groups ###
group ox type 2
336 atoms in group ox
group hy type 1
672 atoms in group hy

# set charges - beside manually ###
set group ox charge -1.1794
Setting atom values ...
  336 settings made for charge
set group hy charge 0.5897
Setting atom values ...
  672 settings made for charge

# ### TIP3P Potential Parameters ###
pair_style lj/cut/tip4p/long/omp 2 1 1 1 0.1577 8.5
pair_coeff 1 1*2 0.000 0.000
pair_coeff 2 2 0.21084 3.1668
bond_style  harmonic
bond_coeff  1 450 0.9572
angle_style harmonic
angle_coeff 1 55 104.52
kspace_style pppm/tip4p/omp 1.0e-5
pair_modify tail yes

thermo          ${out_freq}
thermo          1000
thermo_style    custom step temp pe etotal epair emol press lx ly lz vol pxx pyy pzz pxy pxz pyz enthalpy

restart 	${out_freq3} restart.lmp.${pid} restart2.lmp.${pid}
restart 	1000 restart.lmp.${pid} restart2.lmp.${pid}
restart 	1000 restart.lmp.0 restart2.lmp.${pid}
restart 	1000 restart.lmp.0 restart2.lmp.0


include         in.dump
dump            myDump all atom ${out_freq2} dump.water.${pid}
dump            myDump all atom 10000 dump.water.${pid}
dump            myDump all atom 10000 dump.water.0
dump            myDump2 all dcd ${out_freq2} dump.dcd
dump            myDump2 all dcd 10000 dump.dcd
dump_modify     myDump append yes
dump_modify     myDump2 append yes


variable natoms 	equal  "count(all)"                        # NUMBER ATOMS
variable H      	equal  "enthalpy/v_natoms"                 # ENTHALPY-per-atom
variable Vol      	equal  "vol/v_natoms"                 # volume-per-atom
fix AVG all 		ave/time ${out_freq} 1 ${out_freq} v_Vol v_H file vol_enthalpy.dat
fix AVG all 		ave/time 1000 1 ${out_freq} v_Vol v_H file vol_enthalpy.dat
fix AVG all 		ave/time 1000 1 1000 v_Vol v_H file vol_enthalpy.dat



fix 		1 all shake 1e-6 200 0 b 1 a 1
       0 = # of size 2 clusters
       0 = # of size 3 clusters
       0 = # of size 4 clusters
     336 = # of frozen angles
  find clusters CPU = 0.000 seconds
fix             2 all nph tri ${pressure} ${pressure} ${pressureDamp}
fix             2 all nph tri 7872.3 ${pressure} ${pressureDamp}
fix             2 all nph tri 7872.3 7872.3 ${pressureDamp}
fix             2 all nph tri 7872.3 7872.3 1000
fix             3 all temp/csvr ${temperature} ${temperature} ${tempDamp} ${seed}
fix             3 all temp/csvr 266.47 ${temperature} ${tempDamp} ${seed}
fix             3 all temp/csvr 266.47 266.47 ${tempDamp} ${seed}
fix             3 all temp/csvr 266.47 266.47 100 ${seed}
fix             3 all temp/csvr 266.47 266.47 100 745823


run             250000
PPPM initialization ...
  extracting TIP4P info from pair style
  using 12-bit tables for long-range coulomb (../kspace.cpp:340)
  G vector (1/distance) = 0.38356196
  grid = 24 30 32
  stencil order = 5
  estimated absolute RMS force accuracy = 0.0019274553
  estimated relative force accuracy = 5.8044745e-06
  using double precision FFTW3
  3d grid and FFT values/proc = 5355 768
Last active /omp style is kspace_style pppm/tip4p/omp
Neighbor list info ...
  update every 1 steps, delay 7 steps, check yes
  max neighbors/atom: 2000, page size: 100000
  master list distance cutoff = 10.8154
  ghost atom cutoff = 10.8154
  binsize = 5.4077, bins = 5 5 4
  1 neighbor lists, perpetual/occasional/extra = 1 0 0
  (1) pair lj/cut/tip4p/long/omp, perpetual
      attributes: half, newton on, omp
      pair build: half/bin/newton/tri/omp
      stencil: half/bin/3d/tri
      bin: standard
Per MPI rank memory allocation (min/avg/max) = 10.33 | 10.34 | 10.34 Mbytes
Step Temp PotEng TotEng E_pair E_mol Press Lx Ly Lz Volume Pxx Pyy Pzz Pxy Pxz Pyz Enthalpy 
 1250000    274.00344   -4783.4025   -4235.3618   -4783.4025            0     7541.641    17.834097     23.17567    19.298294    7976.3162    9242.1959    6475.3942    6907.3328    1024.8206    5.5789823    1548.4742   -3358.0699 
 1251000    269.57909   -4824.7556   -4285.5641   -4824.7556            0    7076.3819    18.050579    22.989508    19.197699    7966.5447    7576.9317    6778.2798    6873.9343   -1133.6993   -203.23305   -1846.2911   -3463.4026 
 1252000    264.23238   -4798.8333   -4270.3359   -4798.8333            0    8711.4217    17.968649    22.833579    19.398133    7958.8323    9425.5576    8249.3418    8459.3658    839.84702   -46.084707     2783.517   -3259.1889 
 1253000    264.49363   -4807.2217   -4278.2018   -4807.2217            0    6618.8901    18.034111    22.927738    19.306187    7982.7489    5922.8834    6713.2924    7220.4944   -1224.6168    839.54799    -2406.058   -3507.6292 
 1254000    263.62282   -4836.3425   -4309.0643   -4836.3425            0    6966.4443    17.934842    22.919046    19.395332    7972.4409    6488.4652    7112.8596    7298.0082    1242.6929   -1203.9103    1328.9072   -3499.0767 
 1255000    276.03186   -4819.4757   -4267.3778   -4819.4757            0    7664.0507    18.005992     22.85917    19.389185    7980.6279    8111.6737     8286.041    6594.4374   -611.65307    529.58609    325.66842   -3375.3645 
 1256000    266.21881   -4792.4756   -4260.0051   -4792.4756            0    8751.4568    18.036778    22.920132    19.273867    7967.9195     7750.063    8774.8499    9729.4575    377.29426    156.87731    102.22385   -3243.0514 
 1257000    267.67542   -4813.3405   -4277.9566   -4813.3405            0    7148.6315    18.071001    22.989898    19.222427    7985.9664    6669.2578    7696.1157     7080.521    31.902631    999.70556   -1047.2649    -3445.376 
 1258000    255.36493    -4775.656   -4264.8946    -4775.656            0    8350.4423    17.821584    23.181036    19.322565    7982.5918    8396.4112    8374.6321    8280.2837   -1050.5058    399.89709   -606.73523   -3292.7535 
 1259000    277.53556   -4790.4632   -4235.3578   -4790.4632            0    8518.7592    17.992216    23.032705    19.228937    7968.6523    8804.1616    8288.7953    8463.3206     545.6446   -954.65427    1577.1393   -3245.3534 
 1260000     267.7652   -4792.4469   -4256.8835   -4792.4469            0    7460.4913    17.849708    23.296027    19.263699    8010.3716    7817.9171    6389.2977     8174.259    1033.9442     561.2137    2455.9745   -3385.3261 
 1261000    261.18954   -4796.8031   -4274.3918   -4796.8031            0    9414.1544    17.867675    23.037136     19.23445    7917.2854    8916.4281    9498.3469    9827.6882    686.56132    1742.7555    1010.9172   -3187.3819 
 1262000    280.46669   -4783.5552   -4222.5872   -4783.5552            0    8506.8937    17.755221    23.532711    19.052782    7960.7947    10584.115    6416.7253    8519.8405    2905.3934   -1134.4879    1191.3904   -3234.9366 
 1263000    275.25809   -4782.8457   -4232.2955   -4782.8457            0    7741.5599    17.846491    23.207068    19.293293    7990.6015    8212.5849    6854.9157     8157.179   -925.30413   -611.10762   -423.08175    -3330.135 
 1264000    282.43178    -4838.196   -4273.2976    -4838.196            0     8188.569    17.796005    23.330352    19.091585    7926.5791    7697.5881    7499.4722    9368.6467   -1878.4131     -961.154   -61.572812   -3326.6906 
 1265000    270.12823    -4810.662   -4270.3722    -4810.662            0    7081.9487     17.87697    23.090038    19.336298    7981.6356    8023.1701    6451.2173    6771.4588    142.83336    210.67862    577.60026   -3446.0053 
 1266000    260.87694    -4783.501   -4261.7149    -4783.501            0    9297.8934    17.939244    23.123392    19.156347    7946.3622    9255.0435    7888.9819    10749.655    751.83053   -184.60889    829.60267   -3184.1863 
 1267000    275.59372   -4820.7984   -4269.5769   -4820.7984            0    7651.5853    17.660208    23.366583    19.284436    7957.8903    7865.0222    7354.2533    7735.4805    59.848678    612.50956   -827.57072   -3381.5517 
 1268000    258.29609    -4814.259   -4297.6349    -4814.259            0    6403.9602    18.002504    23.141045    19.167585    7985.1538    7415.5825    5042.4976    6753.8005    861.78511    -941.5728    225.36938   -3551.8599 
 1269000    258.45872   -4786.1412   -4269.1918   -4786.1412            0    8119.8596    17.768698    23.093286    19.397285    7959.4358    8986.8484    7528.7043    7844.0262   -1715.0994    28.668584   -834.60187   -3326.6368 
 1270000    262.01201   -4804.2871   -4280.2307   -4804.2871            0     6956.174    17.980309    23.218299    19.189403    8011.0419    7007.4878    6408.0538    7452.9805     772.3858    167.89464    2292.6502   -3467.5212 
 1271000    259.08757   -4821.3357   -4303.1285   -4821.3357            0    4863.5903    18.082417    23.163046    19.181056    8033.8676    3536.1282    6157.6269     4897.016   -838.38378    457.04726   -1514.9185   -3733.2825 
 1272000    262.96593   -4794.0433   -4268.0789   -4794.0433            0    7845.5433    17.793119    22.972115    19.509234    7974.3129    7986.7917     8024.144     7525.694    379.51804    867.35906    2401.2672   -3355.6644 
 1273000    269.32035   -4852.9022   -4314.2282   -4852.9022            0    5556.5227    18.181956    22.970446    19.218958    8026.7526     5503.284    5306.9972    5859.2868   -815.66069    1193.9163    80.962167   -3663.7708 
 1274000     279.1653   -4775.0483   -4216.6832   -4775.0483            0    6054.2586    17.875233    22.860457    19.616156    8015.8675    7538.9782    6653.8081    3969.9897   -149.87664   -902.37757   -486.11027    -3508.921 
 1275000    278.15487   -4799.1853   -4242.8412   -4799.1853            0    7237.8091    18.146749     22.76036     19.30033    7971.5485    6729.7822    8546.1939    6437.4514     429.0562    232.14135   -119.87106   -3401.3963 
 1276000    278.81301   -4812.2852   -4254.6247   -4812.2852            0     6598.612    18.063988    22.774824     19.43786     7996.816    6550.4751    6664.8563    6580.5047   -406.58155    267.49553    579.46859   -3485.0592 
 1277000    279.90883   -4800.2263   -4240.3741   -4800.2263            0     8244.763    18.180345    22.924292    19.204211    8003.7685    5666.4637    8673.1455     10394.68    203.11886     719.5839    2092.0707   -3277.9897 
 1278000    271.35798   -4826.6061   -4283.8566   -4826.6061            0    7550.2778    17.919089    22.913953    19.449389    7985.8641    9088.5021    7007.8721    6554.4593    210.96752    982.45165     670.6731   -3404.5087 
 1279000    274.17151   -4815.1595   -4266.7826   -4815.1595            0    9400.0764     18.02579    22.758961    19.231996    7889.8929    9130.7589    9745.7145    9323.7558    1176.5706   -970.83724    1174.7454   -3185.1534 
 1280000    275.19316   -4794.6217   -4244.2013   -4794.6217            0    8052.1233    18.155728    22.759683    19.334853    7989.5216    7952.3199    7877.0484    8327.0017   -533.00443    635.18696    305.50968   -3305.9762 
 1281000    266.43991   -4781.9587    -4249.046   -4781.9587            0     8335.763    18.018252    22.826879    19.454013    8001.4443    8140.6881    8361.1712    8505.4296    20.651667    7.9237205    1696.5522    -3276.322 
 1282000    271.30917   -4798.1123   -4255.4604   -4798.1123            0    8035.2603    18.101523    22.836554    19.289517     7973.831    7148.0609    9098.5056    7859.2143   -2626.4395    1.3531359    -2672.066   -3321.0388 
 1283000    263.64635   -4797.3463    -4270.021   -4797.3463            0    7828.6949    17.958793    22.834394    19.482775    7989.4605    9551.4013    6722.6387    7212.0447   -667.89192   -168.85009    978.09387   -3357.8365 
 1284000     249.5389   -4798.5099   -4299.4013   -4798.5099            0    8574.3377    18.100307     22.92914     19.15856    7951.2712    8273.6882    8654.8727    8794.4524   -1440.7431    2116.8018   -289.48074   -3305.1114 
 1285000    279.14155   -4869.6815   -4311.3639   -4869.6815            0    8711.2024    18.030093    22.917778    19.244467    7952.0002    6871.4078    8934.6834    10327.516   -1255.0474    862.48022    279.74937   -3301.1104 
 1286000    268.96655   -4832.8271   -4294.8608   -4832.8271            0    7761.2355    17.943193    22.943393    19.390353    7982.5764    8704.5904    7794.7346    6784.3815    1336.8652    695.75002    906.41741   -3391.3157 
 1287000    263.00039   -4789.3707   -4263.3374   -4789.3707            0    9095.2771    18.038662    22.907939     19.24354    7951.9804     7507.442    10086.625    9691.7648   -1538.8709   -688.11949   -264.05535   -3208.5447 
 1288000    272.75724   -4821.1967   -4275.6486   -4821.1967            0    6990.6835     18.01668    22.818708    19.407382    7978.7117    6559.3072     7629.523    6783.2202   -168.33261    -1112.291    882.98313   -3462.2034 
 1289000    260.28302   -4799.7999   -4279.2017   -4799.7999            0    7225.4481    18.218087    22.686132    19.339995    7993.1798    5367.3086    8762.2003    7546.8354    44.320274    291.38556   -1765.9068   -3436.9144 
 1290000     263.2126   -4797.9262   -4271.4684   -4797.9262            0    7537.8689    17.978731    22.707929    19.558178     7984.817    7127.4836    7715.0447    7771.0784   -164.08307    640.76144    1381.9304   -3393.6809 
 1291000    267.53795   -4809.5061   -4274.3972   -4809.5061            0     8873.933    18.182661    22.670179     19.31616    7962.2015    8033.5824    9751.9738    8836.2429    1023.5634     1263.094    346.70717   -3243.9513 
 1292000    268.05129   -4792.1444   -4256.0087   -4792.1444            0    9470.4618    17.806174     22.75391    19.547402    7919.8265     10044.44    10092.479    8274.4658    545.43534    357.31227    727.95358   -3162.1463 
 1293000    271.97673   -4792.2653   -4248.2783   -4792.2653            0    7984.8206    18.190991    22.720767     19.30295    7978.1654    7539.0365    9045.6017    7369.8235    401.29609    1138.1283    1023.3084   -3319.2176 
 1294000     258.6524    -4825.991   -4308.6542    -4825.991            0    8424.7248    18.056516    22.812054    19.319798    7957.9451    9678.3459    6977.9593    8617.8692   -1193.1291   -320.36173   -159.96019   -3330.8936 
 1295000     249.3266   -4808.1479   -4309.4639   -4808.1479            0    7326.3551        18.08    22.777876     19.41582    7995.9003    8336.3929    7729.3883    5913.2842    1515.9083    90.147778    873.78153   -3455.1229 
 1296000    263.31364   -4820.7265   -4294.0666   -4820.7265            0     8762.765    17.886282    22.713484    19.524472    7932.0076    7652.0568    10863.083    7773.1558   -1740.7466   -247.81418   -113.84931   -3280.3883 
 1297000    259.80376   -4794.5277   -4274.8881   -4794.5277            0    7057.6738    18.088825    22.737819    19.446906    7998.5208    6117.2596    8549.4362    6506.3257   -566.68872    86.606373   -16.813274   -3451.6089 
 1298000    264.38923   -4835.8206   -4307.0095   -4835.8206            0    7029.3245    18.188166    22.551845    19.476518    7988.8141    5876.7609    7899.9812    7311.2314    204.22885    45.834476   -313.81707   -3488.0323 
 1299000    260.69417   -4783.7238   -4262.3032   -4783.7238            0    7833.7478    18.156993    22.732601    19.499143    8048.3821    6136.9827    8872.8898    8491.3708    407.57979    1160.5263   -2094.6795   -3342.7983 
 1300000    261.83145   -4815.0166   -4291.3213   -4815.0166            0    11128.565    18.012547    22.735385      19.2166    7869.6243    7989.8884     12415.97    12979.836   -991.57048   -47.832645   -706.40784   -3014.0915 
 1301000    288.88408   -4785.6084   -4207.8046   -4785.6084            0    7653.3726    18.021528    22.847558    19.465693    8014.9585    6258.1819    8144.9859    8556.9499   -17.752611    75.309116   -349.11715   -3313.2023 
 1302000    258.37359   -4804.6223   -4287.8432   -4804.6223            0    9560.8112    18.081247    22.535469    19.470284    7933.5443      9964.05    10153.083    8565.3009    1386.6408   -694.47005   -135.09573   -3181.6324 
 1303000    260.77712   -4837.9675    -4316.381   -4837.9675            0    7669.5378     18.02725    22.880895    19.295312    7958.9228     7284.666    7048.3335    8675.6138   -673.25701   -1225.9883   -1378.2298   -3426.1569 
 1304000    281.84252   -4809.9176   -4246.1977   -4809.9176            0     6630.901    18.062674    22.828192    19.466139    8026.6325    7221.4031    7388.1194    5283.1805   -1122.9592    147.06274    1354.2278   -3469.9831 
 1305000    273.09455   -4807.2837   -4261.0609   -4807.2837            0    6274.9782    18.018392    22.757909    19.623465    8046.8163    8537.5519     5561.884    4725.4985    470.08507    630.21775    384.57798   -3524.6636 
 1306000    277.93388   -4773.5516   -4217.6495   -4773.5516            0    9465.6609    18.149527    22.694933    19.267193    7936.2011    9930.5906    10139.958    8326.4341    1279.0979    -487.9931    1108.4229   -3122.0811 
 1307000    264.24618   -4834.9008   -4306.3758   -4834.9008            0    7215.8688    17.920578    22.831455    19.513345    7983.9411    8215.9359    6890.5339    6541.1367    1109.6276   -326.37051    343.42523   -3466.1774 
 1308000    267.77904   -4817.8143   -4282.2231   -4817.8143            0    5732.4488    18.146823    22.954726    19.320719    8048.1487    4483.5658    5453.7679    7260.0129   -328.89523   -271.45148   -1019.7247   -3609.3827 
 1309000    277.97935   -4840.4917   -4284.4986   -4840.4917            0    8542.0654    17.975161    22.768227    19.547663    8000.1265    9600.7207    7820.7666    8204.7091   -75.219118     1340.388    477.11686   -3287.8648 
 1310000    277.23833   -4828.3822   -4273.8713   -4828.3822            0    8806.2383    18.097131    22.836387    19.215154    7941.1062    9826.9485    8683.5034    7908.2632   -539.89748    205.08947    1585.3042   -3253.9954 
 1311000    269.18041   -4780.7947   -4242.4007   -4780.7947            0    9179.5649    17.729254    23.008873    19.474741    7944.3341    11243.598    9061.3183    7233.7788    119.38014   -1164.3196    875.03063   -3178.8566 
 1312000    280.89701   -4782.9816   -4221.1529   -4782.9816            0    7842.8321      18.0252    23.111268    19.172509    7986.9841     8250.187    6128.9199    9149.3895    769.67698   -565.10326    88.866703   -3307.6043 
 1313000     270.8698   -4793.9066   -4252.1336   -4793.9066            0    7106.9755    18.034572    23.013034    19.339968    8026.6712    5459.2171    8307.4743     7554.235    995.53787    1388.8126   -846.12782   -3420.1856 
 1314000    271.81938   -4827.2874    -4283.615   -4827.2874            0    7573.4489    18.039076    22.757563     19.46305    7990.0765    6441.3419     8324.207     7954.798    691.68228    812.14743   -999.14918   -3401.1032 
 1315000    271.76808   -4840.2112   -4296.6414   -4840.2112            0    9666.6894    17.974913    22.784713    19.290566    7900.5133    13269.751    8509.0716    7221.2454   -1397.2852   -641.24571    131.16117    -3182.837 
 1316000    273.08165   -4775.3225   -4229.1255   -4775.3225            0    8429.5807    17.925064    22.955385    19.309388    7945.3638    8388.9316    8351.8702    8547.9403   -3020.8875    418.70032   -1090.6639    -3252.348 
 1317000    270.11609   -4833.6921   -4293.4265   -4833.6921            0    6426.2282    17.951216     22.94517    19.485193    8025.8281    7388.2801    6394.4474     5495.957    50.932036    3.5307074    1294.1397   -3541.2463 
 1318000    281.10747   -4836.4335   -4274.1839   -4836.4335            0    7021.6581    17.970013    22.989545    19.385355    8008.5245    5838.2253    7643.4621    7583.2868   -411.99191   -509.11699    1423.4561   -3454.0815 
 1319000    258.63941   -4831.8468   -4314.5361   -4831.8468            0    8092.8885    17.940416    23.128019    19.187351    7961.3363    8997.1298    8375.5168    6906.0189    590.60297    970.69211    715.22171   -3374.8876 
 1320000    274.34151   -4820.1903   -4271.4734   -4820.1903            0    7139.8228    17.862958    23.210757    19.246086    7979.6729    7330.1693    7138.6473    6950.6518   -746.68751    1074.1406    669.06552    -3440.574 
 1321000    272.54091   -4810.7196   -4265.6042   -4810.7196            0    8955.5379    17.896524     23.18189    19.156486    7947.5518    7882.7235     9234.059    9749.8311   -1663.8142    862.94887   -211.48645   -3227.5956 
 1322000    269.48551   -4753.8434   -4214.8391   -4753.8434            0     8071.613    18.029142    23.157088    19.200307    8016.1747    8927.8116    7364.0665     7922.961    1829.2715    616.89859    2107.2189   -3271.2055 
 1323000    263.29153   -4832.9126    -4306.297   -4832.9126            0    7969.1786    17.766202     22.86926    19.532032    7935.8622    8823.5331    8153.2542    6930.7484     74.26121     487.8264    -778.9847   -3383.9729 
 1324000    260.56911   -4834.2622   -4313.0918   -4834.2622            0    5832.6796    17.988679    23.107771    19.275581    8012.4399    5969.3955    6893.8697    4634.7736   -1155.5039    48.403389   -168.91636   -3631.5244 
 1325000    257.64037   -4790.4853   -4275.1727   -4790.4853            0    9585.5093     17.87299    23.037161    19.273751     7935.831    10256.658    8738.9729    9760.8966    779.57904    308.50292   -436.79252   -3165.7846 
 1326000    275.36884   -4825.6727    -4274.901   -4825.6727            0    5025.8274    17.946781    23.284387    19.277102    8055.5114    5771.8493    4033.7881    5271.8449   -621.23922   -650.98907   -863.29004   -3684.4599 
 1327000    258.93237   -4839.6371   -4321.7403   -4839.6371            0    7653.3486    17.839865    23.081692    19.329286    7959.3027    9535.0537    6781.4686    6643.5234    1215.4053    927.27919    934.73031   -3433.3529 
 1328000    275.93351   -4781.4254   -4229.5243   -4781.4254            0    8549.3371    18.078049    22.835959    19.278212    7958.6161    8952.9441     7739.251    8955.8161   -582.56072   -1883.6579    -1387.945   -3237.2177 
 1329000    273.75534   -4826.8834   -4279.3389   -4826.8834            0    8676.0274    17.842176    22.957257    19.355428     7928.127    11992.659    6645.6092    7389.8138   -1548.4963   -352.32629   -1212.6778   -3276.1854 
 1330000     276.9059   -4795.9748   -4242.1288   -4795.9748            0    7300.7029     17.88453    23.154461    19.256128    7974.0908    8608.9621    6666.4298    6626.7168    838.19019   -852.07488    310.51085   -3393.1013 
 1331000    271.28008    -4807.215   -4264.6213    -4807.215            0     8736.189    17.952609    23.043693    19.258064    7966.9538    10035.952    6795.5528    9377.0623    470.86278    53.906819   -1213.5423   -3249.5648 
 1332000    264.56095   -4824.3653   -4295.2108   -4824.3653            0    9775.7221    17.883975    23.036675    19.139778    7885.3459    9659.6936     9890.806    9776.6668    234.88748   -233.58192    1093.4851   -3171.0058 
 1333000    274.57607   -4800.9226   -4251.7365   -4800.9226            0    7560.4141    17.974029    22.952542     19.37855    7994.6139     7300.106    8468.0164    6913.1198    1210.5566   -112.29142    1426.9975   -3370.2433 
 1334000    273.88407   -4785.5464   -4237.7444   -4785.5464            0    6704.8989    17.917846    23.077238    19.406102    8024.3143    6962.7641    6617.2712    6534.6614    2324.6082    115.82906   -777.21932   -3453.0943 
 1335000    258.71629   -4811.1766    -4293.712   -4811.1766            0    8589.5736    18.029015    22.937277    19.202546    7940.9538    9173.9588    8641.1507    7953.6113    4.4631713    727.07257   -1245.4756   -3298.9478 
 1336000    258.40545   -4812.6057   -4295.7629   -4812.6057            0    6480.7074    18.041447    22.842782    19.494301      8033.93    6847.7266    7865.6517    4728.7439     288.0539    539.16371   -1008.3293   -3536.4403 
 1337000    266.86129   -4813.3719   -4279.6163   -4813.3719            0    8748.5261    18.008918    22.924617    19.261242    7951.9567     7553.907    8560.4487    10131.223    1607.6179   -119.39925   -207.21128   -3265.0399 
 1338000     261.3758   -4797.1322   -4274.3483   -4797.1322            0    7804.4972    17.925191    22.896361    19.409977    7966.2747     9520.882    7087.2275     6805.382    733.38479   -257.44005   -878.96885   -3367.6222 
 1339000    261.63572   -4845.8492   -4322.5454   -4845.8492            0    7519.5349    18.081594     22.88554     19.28532    7980.4012    8079.8329    7343.9064    7134.8653    300.51729   -815.74565    493.90941   -3447.3771 
 1340000     263.2192   -4815.0848   -4288.6138   -4815.0848            0     6550.286     18.03095    22.845452    19.367722    7978.0531    5705.7931    8148.1389    5796.9261    1838.8068   -320.47566     1693.292   -3526.4768 
 1341000    265.07341   -4819.9886   -4289.8091   -4819.9886            0    7759.5816    17.962234    23.045125    19.280867    7981.1593    8633.1402    7893.2379    6752.3668    690.45632    26.777441   -1506.7642   -3386.6169 
 1342000    270.32611   -4830.6673   -4289.9817   -4830.6673            0    7659.0103    18.012571    22.838267    19.435421    7995.2636    7715.7191    8608.4995    6652.8121    1583.4448    2542.8151    665.88746   -3396.9203 
 1343000    273.45626   -4800.9516   -4254.0053   -4800.9516            0    7717.6064    18.093916    22.903506    19.230996    7969.5962    6080.1501    7829.2612     9243.408     3.543085    -1357.094   -1372.9314   -3357.0003 
 1344000    265.21386   -4797.6265    -4267.166   -4797.6265            0     9890.838    17.849882    22.780955    19.370783    7876.8839    7610.6986    11212.133    10849.682    1555.4117    592.23543    1311.8021   -3130.9434 
 1345000    246.97344   -4813.5416   -4319.5642   -4813.5416            0    8155.3333    18.053341    22.905862    19.242433    7957.2721    7176.9423    8518.7273    8770.3301   -419.70852    127.82653    -418.2306   -3373.1488 
 1346000    276.07646   -4817.4242   -4265.2372   -4817.4242            0    8140.9743    17.942369    22.948615    19.376106    7978.1604     6558.627    9203.9682    8660.3277   -72.293209    675.40775    64.163507    -3318.008 
 1347000    259.70767   -4786.1587   -4266.7112   -4786.1587            0    9500.6139    17.804365    23.166364    19.245235    7937.9357    8501.3031    9441.3918    10559.147    865.44401   -319.45814    2060.7733    -3166.857 
 1348000    259.11418   -4796.3202   -4278.0598   -4796.3202            0    7605.3574    17.956924    23.249017    19.094418    7971.5538    8281.6174    5876.2584    8658.1965    353.46706    616.97727    951.71736   -3393.8843 
 1349000    257.77867   -4793.0733   -4277.4841   -4793.0733            0    9528.7228    17.790161    23.052771    19.283468    7908.3916    10228.922    8868.4687    9488.7778   -888.94021    -772.6522   -806.11362   -3178.4815 
 1350000    266.40243   -4810.0421   -4277.2044   -4810.0421            0    8796.8768    18.030591     23.05555    19.109319    7943.8431    6916.6452    9009.2064    10464.779    583.05012    1008.7738   -312.78474   -3258.0615 
 1351000    252.20823   -4826.2969   -4321.8493   -4826.2969            0    6580.6914    17.943286    23.115432    19.286695    7999.4805    6852.8819    6580.1881    6309.0043   -1519.4169    263.54602   -1908.4085   -3554.1181 
 1352000    264.78224   -4801.7258   -4272.1286   -4801.7258            0    8758.3833    18.061297    22.832534    19.293065    7956.1739    8696.7378    9899.7891    7678.6229    445.94623    698.05858    667.21971   -3255.8703 
 1353000      267.088   -4791.0677   -4256.8587   -4791.0677            0    9096.8966    17.925631    22.946698    19.348935    7958.8756    10968.509    7718.1438    8604.0371   -1885.4862   -1113.8031   -1191.2604   -3200.9634 
 1354000    285.73289   -4817.6805   -4246.1794   -4817.6805            0    8528.9807    18.032663    22.934628    19.174608    7930.0886      7913.03    8691.2348    8982.6774    802.42449   -550.98762    873.62259    -3259.784 
 1355000    275.15822   -4781.3959   -4231.0455   -4781.3959            0     8766.516    17.939077    22.995585    19.303909    7963.2401      8975.85    8585.8887    8737.8092    1108.2237     151.1319   -813.40384   -3212.9401 
 1356000    248.71826   -4796.6223   -4299.1551   -4796.6223            0    7367.9896     18.11237    22.894671    19.288777    7998.6072    7984.3236    6610.8748    7508.7705    357.45947    1457.0522    249.84094   -3439.6682 
 1357000    273.69281   -4802.6991   -4255.2797   -4802.6991            0    9688.6334    18.039333    22.647108       19.356    7907.6759    8661.4476    11077.674    9326.7787    -87.69605    880.12263    378.28769   -3137.9347 
 1358000     278.2427   -4814.7345   -4258.2148   -4814.7345            0    6054.2796    18.071007     22.77525     19.51078    8030.0851    7245.5982    6077.8041    4839.4366   -41.764066   -1831.4451   -562.69014   -3549.1947 
 1359000    262.68525   -4809.8521   -4284.4492   -4809.8521            0    8153.9769    17.800787    23.060921     19.37348    7952.8631    9292.7934    7749.8966    7419.2407   -771.90639   -300.67886   -267.10222   -3338.7154 
 1360000    263.13579   -4777.3248   -4251.0207   -4777.3248            0    8638.7935    18.010168    23.059153    19.175799    7963.6942    7610.7794    8671.4517    9634.1495   -271.41475    1061.2764   -589.83137   -3247.6912 
 1361000    280.24032   -4795.7138   -4235.1985   -4795.7138            0    8387.5239    17.931497    22.973535    19.348855    7970.7586    9402.8737     6944.771    8814.9269    176.57257   -697.68685    -219.9197    -3260.188 
 1362000    263.30291   -4792.8739   -4266.2355   -4792.8739            0    8209.3604    17.960947    23.039078     19.20243     7946.036    9531.6563    7182.3443    7914.0806    541.31754   -1530.8497   -2704.1254   -3314.8956 
 1363000    273.89578   -4838.6152   -4290.7898   -4838.6152            0     10078.02    17.811739    23.077866    19.199666    7892.1559     8863.328    10352.475    11018.257    363.40471    345.38134   -249.76156   -3130.8198 
 1364000    275.10465   -4812.1537   -4261.9104   -4812.1537            0    7977.0288    18.020672     23.08839    19.204665    7990.4523    8113.0853    7417.8971    8400.1042   -65.905513    453.21109   -159.85266   -3332.3269 
 1365000    263.12178   -4807.3513   -4281.0752   -4807.3513            0     7448.769    18.027314    22.980704    19.319515    8003.6953    6475.1407    7533.1266    8338.0398   -354.19888    980.53022   -1443.4925   -3411.6126 
 1366000    259.11149   -4814.9352   -4296.6802   -4814.9352            0    8662.7756    18.016851    22.822489    19.310237    7940.1645    7333.6707    9972.3569    8682.2992    1240.0966    503.42273   -491.35248   -3293.5381 
 1367000     260.2642   -4837.0481   -4316.4876   -4837.0481            0    6292.8893    17.961673    22.823805    19.517279    8001.1813    8450.5765    5546.6749    4881.4165   -2894.0387   -227.74067   -3405.5847   -3582.1765 
 1368000    258.26629   -4815.7876   -4299.2231   -4815.7876            0    8587.6133    18.099571    22.647201    19.424951    7962.3769    8094.8756    9369.3913    8298.5729    31.945794   -1618.8862    581.91531   -3302.0028 
 1369000    267.28999   -4832.3567   -4297.7437   -4832.3567            0    8467.3168    18.113793    22.758026    19.250312    7935.6362    6758.3885    9023.9256    9619.6364   -518.47013    368.85739    1214.9687   -3317.7948 
 1370000    255.88133   -4801.8625   -4290.0682   -4801.8625            0    7550.2794    17.985196    22.913274     19.42573    8005.3376    6578.0785    7484.4857     8588.274    938.83751   -322.29042   -635.55741   -3408.5758 
 1371000    260.72922   -4824.6393   -4303.1487   -4824.6393            0    8031.3417      18.0653    22.894438    19.209091    7944.7818    6439.2258    7900.8235    9753.9757   -304.73997   -738.66575   -2494.5742   -3372.5853 
 1372000    270.90554   -4789.9678   -4248.1233   -4789.9678            0    7090.5564    17.913774    22.879773    19.563379    8018.3067    8584.4968    7143.6316    5543.5409   -554.44946    325.34708    1142.9599   -3418.9622 
 1373000     278.2081   -4833.6555    -4277.205   -4833.6555            0    7928.1399    18.095307    22.878186     19.21185    7953.4713     8703.832    7519.8024    7560.7853   -394.51446   -564.09672   -1066.2055   -3357.5945 
 1374000    280.78006     -4815.59   -4253.9951     -4815.59            0    8541.1696    17.793491    22.980429     19.38404    7926.1739    8532.3006    9795.5923     7295.616    1860.8646    409.00442    2416.1292   -3266.6777 
 1375000    271.41057   -4790.5722   -4247.7176   -4790.5722            0    8764.4359    18.190428    22.848428    19.244848    7998.5953    8304.8173    9761.2365    8227.2539    -1096.252     361.9645    817.30138   -3225.3347 
 1376000    267.59635   -4826.5611   -4291.3353   -4826.5611            0     8047.597    17.871675    22.888158    19.424175    7945.4537    8425.0344    7988.1016    7729.6551   -367.66977    538.26935    177.52993   -3358.8096 
 1377000    254.92025   -4809.2065   -4299.3345   -4809.2065            0    7046.4678    18.197642    22.866168    19.262533    8015.3388    5838.7564    7887.6736    7412.9733    318.12461    1477.2098   -412.93482   -3475.6341 
 1378000    271.24279   -4833.5587   -4291.0396   -4833.5587            0    9029.2714    18.034828    22.541196    19.432823    7899.9591    8110.0085    10267.618    8710.1875    886.04968    937.19166   -119.27315    -3250.752 
 1379000    277.31352   -4785.8257   -4231.1644   -4785.8257            0    6440.1873     18.18364    22.888464    19.332122    8045.9439    7753.7712     5862.043    5704.7478   -494.84171    1080.3541   -1496.9335    -3475.461 
 1380000    250.00613   -4819.8617   -4319.8186   -4819.8617            0    6223.9676    18.093201    22.718156    19.469557    8002.8479    4007.5866    8090.2543     6574.062    571.28999   -120.17243    635.07131   -3593.3986 
 1381000    263.69165   -4842.8982   -4315.4823   -4842.8982            0    7764.7802    18.147417    22.624261    19.337177    7939.3014    5211.5917    8367.9873    9714.7617   -493.58234   -841.38744    -3275.103   -3416.4251 
 1382000    278.02653   -4798.0525    -4241.965   -4798.0525            0    6723.2269    18.085502    22.707692    19.535356    8022.7799    8240.4414    6652.7862    5276.4532    308.13412   -349.80295    711.02087   -3455.3205 
 1383000    269.35733   -4787.7848   -4249.0369   -4787.7848            0    7514.5826    18.206999    22.666249    19.345488    7983.5808    7734.8881    8446.3641    6362.4955   -225.73877    868.04959   -1426.5565   -3374.0965 
 1384000    257.51344   -4823.1341   -4308.0754   -4823.1341            0    8020.1957    18.093687    22.699568    19.448013    7987.6662    7003.6102     8772.544    8284.4329    1770.4479     429.3465    2280.3347   -3373.7875 
 1385000    270.60242   -4829.3597   -4288.1215   -4829.3597            0    10148.358    18.085057    22.582905    19.330966    7895.0203    10353.579    11093.986    8997.5085    800.24797   -101.18301   -1140.2929   -3119.6317 
 1386000    269.76382   -4797.7515   -4258.1905   -4797.7515            0    6972.7631    17.998971    23.003529    19.354154    8013.3909    8119.4658    7188.0517    5610.7718   -59.077839   -248.85497    1304.9402    -3443.304 
 1387000    270.48423   -4827.2095   -4286.2076   -4827.2095            0    8439.2926    18.003156    22.991704    19.189515    7942.9859    8496.3939    8225.8727    8595.6111   -93.137739   -149.23483     899.0871   -3308.5974 
 1388000    264.52435   -4802.1786   -4273.0972   -4802.1786            0    7275.3714    17.644092    23.153519    19.451652    7946.4439    7495.4145    6919.3104    7411.3895   -1622.9368    63.286959    240.95975   -3429.9491 
 1389000    256.57297   -4820.7471   -4307.5695   -4820.7471            0     6671.254    18.030383     23.22508    19.007495    7959.5233    6545.9918    5609.5472    7858.2229   -442.58543      46.0991    454.84481   -3533.1604 
 1390000    265.37864   -4791.5128   -4260.7227   -4791.5128            0    6452.1826    17.898217    23.159978    19.355486    8023.2807    7161.3617    5334.5223     6860.664   -1281.2206   -563.21181   -362.43343   -3505.7443 
 1391000     279.4302   -4835.1107   -4276.2158   -4835.1107            0    8047.4948    17.901701    23.055455    19.163237    7909.2783    8567.4031    7216.1376    8358.9438   -914.01137    -786.8271    2542.0341   -3347.9476 
 1392000     261.7549   -4799.3243   -4275.7821   -4799.3243            0    8562.5386    17.904372    23.021003    19.276168    7945.1851    8000.7192    8358.9626     9327.934    1007.2198     143.5681    931.60855   -3283.6204 
 1393000    263.37135   -4816.1055   -4289.3303   -4816.1055            0    7705.2212    18.036792    23.064997    19.208324    7991.0189    7330.8636    6353.3476    9431.4524    1312.7544   -1172.2417    373.16949   -3391.3575 
 1394000    266.38382   -4801.8274   -4269.0269   -4801.8274            0    8176.0402    17.857046    22.857669    19.483647     7952.649    9783.5632    8317.0173    6427.5401   -2611.4194   -432.75261    51.408535   -3320.7597 
 1395000    263.92132   -4812.1046   -4284.2293   -4812.1046            0    7481.3566    18.142869    22.997297    19.090979    7965.4616    9436.2613    6776.3665     6231.442    1022.1345    -669.2091    710.07517   -3415.1344 
 1396000    257.03584   -4807.9609   -4293.8574   -4807.9609            0    8006.8682    17.924687    23.001338    19.369452    7985.8661    9759.7766    6959.3169     7301.511   -1017.0509   -96.698293   -1174.2323   -3361.3322 
 1397000    255.49519   -4824.3805   -4313.3586   -4824.3805            0    7884.8808    17.986373    22.890632     19.29871    7945.6541    7742.6898    8972.3355    6939.6172    668.00095   -257.51923    810.73702   -3399.6648 
 1398000    257.93383    -4813.839   -4297.9395    -4813.839            0    7725.6478    17.939771    22.968166    19.373998    7982.9328    8224.9782    7701.0589    7250.9063   -254.57199   -33.048258    292.84573   -3398.4973 
 1399000    288.38176   -4818.3536   -4241.5544   -4818.3536            0    8285.7057     18.04968    22.920464     19.28347    7977.7069    8273.7221    7642.6629    8940.7322    1945.7739   -404.66231   -569.86251   -3277.5402 
 1400000    268.18946   -4828.9368   -4292.5248   -4828.9368            0    8060.7222    17.915994    22.786455    19.503515    7962.1536    9647.6829     7813.896    6720.5875   -621.08112   -381.80941   -695.73964    -3356.515 
 1401000    283.27952   -4789.3131   -4222.7191   -4789.3131            0    7793.9592     18.02548    22.904872    19.259512    7951.6999    7319.9932    6749.9282    9311.9561    1252.1228   -2009.1517   -1933.0591    -3318.874 
 1402000    262.12376   -4794.5292   -4270.2493   -4794.5292            0    8273.7333    17.913385    22.874318    19.398185    7948.5318    8611.2599    8732.5037    7477.4362    581.80984    269.42536   -1823.7033   -3311.1484 
 1403000    270.98609   -4798.0795   -4256.0738   -4798.0795            0     8338.763    17.999368    22.902717    19.285037     7949.956    7681.8799    9003.1463    8331.2628    1334.3603     283.1964   -970.67443   -3289.2614 
 1404000    261.05132   -4811.5238    -4289.389   -4811.5238            0    7650.9596    17.999947    23.007917    19.294993    7990.8531    5884.0559    8517.6066    8551.2164    765.27362    301.33082   -1156.3691   -3397.7584 
 1405000    269.59563   -4833.6375    -4294.413   -4833.6375            0    8646.3139     18.06576    22.868152    19.199305     7931.819    7833.0298      8768.47    9337.4418   -196.86753    741.70451   -280.91564   -3294.2295 
 1406000    263.00595   -4840.1631   -4314.1188   -4840.1631            0    7155.5179    17.975508    22.974819    19.344117    7988.8114      7568.26     6190.134    7708.1596     402.2984    508.86051   -672.75111   -3480.4392 
 1407000    267.63346   -4804.0321   -4268.7322   -4804.0321            0    10777.493     17.93134    22.789455     19.24872     7865.902    10089.674    10858.831    11383.973    2403.7099   -1070.4352    298.09562   -3032.3801 
 1408000    265.09426    -4838.242   -4308.0207    -4838.242            0     6957.646    17.999363    22.884787    19.321259    7958.6502    5716.0539    8000.7701     7156.114   -933.84371    538.16016   -422.85939   -3500.4554 
 1409000    273.65611   -4835.2106   -4287.8646   -4835.2106            0    9261.2499    17.865736    23.081965     19.12638     7887.266    7834.9006    9366.2002    10582.649    169.67778    217.88469    1180.0729   -3222.5644 
 1410000    266.30403   -4801.9183   -4269.2773   -4801.9183            0     6253.723    17.889706    23.286538    19.298111    8039.3871    8686.8481    4571.3675    5502.9535    192.99049    253.88227   -384.28506   -3536.0519 
 1411000     251.6967   -4812.5096   -4309.0851   -4812.5096            0    7708.1037    17.826096    23.239806    19.273836    7984.6683    10276.539    6097.8972    6749.8752    648.88179   -1987.7748   -719.07654   -3411.4903 
 1412000    250.80323   -4776.1388   -4274.5013   -4776.1388            0     8281.509    17.797359    23.029816    19.404867     7953.471    8275.1136    7531.9712    9037.4423   -990.78534   -256.65437    2263.9258   -3313.9025 
 1413000    266.43847   -4811.7231   -4278.8133   -4811.7231            0    10143.382    17.989651    23.013235    19.100286    7907.5194    9712.7465    9845.9472    10871.452    693.51723   -148.48217   -1360.2335   -3109.0474 
 1414000    269.67621   -4831.2914   -4291.9057   -4831.2914            0    5727.7779     17.95974    22.894648    19.553564    8040.0721     6522.193    5764.4073    4896.7335    2130.9573   -473.25103    1334.8746   -3620.2882 
 1415000    266.99619   -4816.9777   -4282.9523   -4816.9777            0    7179.2392    17.911977    23.071648    19.220575    7943.0726    5012.8738    7178.7294    9346.1146   -1333.1478    -221.4448   -1257.4154    -3451.298 
 1416000    283.92548   -4799.8595   -4231.9735   -4799.8595            0    7999.2464     17.86458    22.941546    19.509809    7995.9213    9152.9791    6490.0882     8354.672    386.23886   -1259.4748    690.74974   -3299.1629 
 1417000      266.715   -4827.1621   -4293.6991   -4827.1621            0    7877.6196    18.106672    22.887346    19.207354    7959.7899    7310.1256    7462.1888    8860.5443   -487.94921   -420.11093    824.48005   -3379.2228 
 1418000    261.67636   -4774.5204   -4251.1354   -4774.5204            0    9456.1423    17.905771    22.829639    19.428263    7941.9301    10022.915    9221.6616    9123.8502   -1123.1288   -696.21963   -787.74582   -3155.8786 
 1419000    287.10713   -4810.9096   -4236.6598   -4810.9096            0    7906.4808    18.058934    22.920177    19.305263    7990.7179    7870.5871    8389.7262    7459.1292   -628.77199    219.97908    491.35215   -3315.2669 
 1420000     275.6533    -4817.164   -4265.8234    -4817.164            0    7583.5168    17.944986    22.860747     19.46412    7984.8782    7991.7684    7150.8314    7607.9507   -568.39533    -253.7441   -7.8857581   -3382.7133 
 1421000    270.37774   -4804.9483   -4264.1595   -4804.9483            0    7957.5279    18.144157    22.746975    19.383832     8000.186     7845.999    9180.5682    6846.0163    99.435773    270.62919    926.38181   -3335.7188 
 1422000     270.0171   -4833.8852   -4293.8176   -4833.8852            0    8077.1423    18.075759    22.553584    19.462139     7934.191     7098.697    9523.1194    7609.6103     681.8581    -264.6254    499.85692    -3359.195 
 1423000    258.42141   -4827.6799   -4310.8051   -4827.6799            0    6802.4312    18.370968    22.618988    19.298149    8019.0119    6285.5421     7436.721    6685.0305    1161.3774    225.09574    -1052.607   -3515.2672 
 1424000    269.69781   -4820.8502   -4281.4213   -4820.8502            0    8994.9181    17.888912    22.690705    19.524815    7925.3576    8677.8216    9411.5558    8895.3767     1278.568   -1285.5389    673.71919   -3241.7598 
 1425000    249.70305   -4793.3903   -4293.9534   -4793.3903            0    7544.4727    18.038551    22.833044    19.401376    7990.9425    7648.9899    8053.8759    6930.5523   -355.55549   -263.99266    278.04978   -3414.7228 
 1426000    264.83486   -4812.5752   -4282.8728   -4812.5752            0    8116.5382    18.123142    22.655015    19.376077    7955.4309    7503.6544    9147.9638    7697.9965    745.10874    849.34057    528.43543   -3341.1774 
 1427000    269.38749   -4797.9059   -4259.0977   -4797.9059            0     7315.537    18.114572    22.796151     19.36327    7995.9174    6034.6189    7556.1032    8355.8888   -14.449682   -1184.7848   -224.81833   -3406.0164 
 1428000    270.15548   -4811.8615   -4271.5172   -4811.8615            0    7474.9253    18.102999    22.851936    19.358545     8008.409    8644.6867    5991.7745    7788.3147    -278.2137   -369.52074    1044.9255   -3398.4876 
 1429000    269.81125   -4794.2104   -4254.5546   -4794.2104            0    7005.2831    18.162025    22.799596    19.401352     8033.844    6089.4093    8219.3213    6707.1185   -170.15782    -446.8346    1899.5388    -3433.778 
 1430000    262.53181   -4796.9422   -4271.8462   -4796.9422            0    8362.1622    18.040296    22.737446    19.444245    7975.8394    7008.9762    8915.8001    9161.7103   -1752.3726   -423.77248   -1537.6337   -3299.1642 
 1431000    264.31028   -4825.2082    -4296.555   -4825.2082            0    7836.6137     18.02443    22.729975    19.359642    7931.5454    8981.0451     7684.426      6844.37   -1859.8831    138.34585    642.56759   -3390.0668 
 1432000    275.98427   -4815.6977   -4263.6951   -4815.6977            0    8051.5698    18.167263    22.717934    19.363452    7991.7362     7471.925    8825.8643    7856.9202    -502.7278    261.04951    193.22537   -3325.2744 
 1433000    254.02999   -4810.0029   -4301.9115   -4810.0029            0    8362.6547    17.981844     22.74725     19.42133    7944.0522    6525.3698    8848.9416    9713.6527   -1823.2191    -706.3648    635.60658    -3333.049 
 1434000    251.30894   -4810.6997   -4308.0507   -4810.6997            0    7878.4841    18.069363    22.889376    19.258156    7965.1051    9940.4553    7501.1818    6193.8153   -154.28911   -122.20492     1118.507   -3392.8633 
 1435000    273.91089   -4805.3591   -4257.5035   -4805.3591            0    5826.9065    18.063569    22.972901    19.483506    8085.1208    4929.8425    6790.1394    5760.7376    -382.8991    552.04634    129.78434   -3570.4343 
 1436000    269.60866   -4801.4741   -4262.2235   -4801.4741            0    7375.0195    18.101696    22.885541     19.27646    7985.6031    7125.2215    6534.2557    8465.5811    616.50034   -176.74436    560.23005   -3403.3152 
 1437000    261.39691   -4813.8262   -4291.0001   -4813.8262            0    6170.2165    17.950606    22.884722    19.533687    8024.3335    5523.8606    6996.7358    5990.0531   -1096.4957   -17.869288   -954.53365   -3568.9202 
 1438000    278.93603   -4800.1152   -4242.2087   -4800.1152            0    9642.3539    18.038475    22.579123    19.416468    7908.1901    9354.2703    10345.587    9227.2048    923.80282   -795.34715    856.92825   -3130.1287 
 1439000    253.76645   -4822.3634   -4314.7991   -4822.3634            0    7994.2987    18.076243    22.743776    19.396984    7974.5273    7991.1056    9104.3571    6887.4333   -505.00031    2753.8576   -1098.2467   -3385.0598 
 1440000     271.2719   -4773.8844   -4231.3071   -4773.8844            0    9133.7339    18.123123    22.799139    19.322085    7983.7231    7813.4208    11378.301    8209.4796    46.834929    1755.8124   -1429.4477   -3167.8261 
 1441000    259.76657   -4785.7329   -4266.1676   -4785.7329            0     7898.498    18.224514    22.480743    19.511694     7993.953    8154.3749     9129.527     6411.592    1596.4649     1355.624    1035.2425   -3345.3323 
 1442000    269.34289   -4799.6558   -4260.9367   -4799.6558            0    8368.6786    18.024121    22.825324    19.427826    7992.7316    10182.207    7384.0316    7539.7974   -875.28116    -969.4537   -1857.0941   -3285.4351 
 1443000    272.97681   -4821.8793   -4275.8919   -4821.8793            0    7898.8269    17.984078    22.774465     19.37731    7936.5151    7721.5487       8183.3     7791.632    85.294543   -530.16776   -1648.5615   -3361.6348 
 1444000    269.70875   -4812.9469   -4273.4961   -4812.9469            0     6468.992    18.029601    22.942427    19.338471    7999.2192    5140.7802    7043.8195    7222.3762   -334.64496    348.10676   -903.81198   -3518.8209 
 1445000    267.29147   -4811.3499    -4276.734   -4811.3499            0    7382.9512    17.966597    23.149797    19.235502     8000.489    7539.3411     6546.993    8062.5196    1663.9977    714.25896     954.9053   -3415.2991 
 1446000    257.53824   -4808.7145   -4293.6062   -4808.7145            0    7281.5267    17.911997    23.025547     19.39041    7997.2553    9392.0504    5975.3856    6477.1441   -1244.4439   -440.54373   -1329.4837   -3444.3489 
 1447000    260.77809   -4787.3432   -4265.7548   -4787.3432            0    9969.0687    17.975839    22.917247    19.215087    7915.7849    9698.9248    10583.138     9625.143    41.637254   -1740.5912     2073.725   -3114.8896 
 1448000    255.77629   -4790.1138   -4278.5296   -4790.1138            0    8157.9585     17.85664    22.930885    19.481984      7977.26    9133.1713    7994.1859    7346.5183    48.387471    358.77174    810.82541   -3329.4315 
 1449000    271.69921   -4800.6735   -4257.2416   -4800.6735            0    8927.3603    18.136221    22.799216    19.247112    7958.5197    10250.725    7925.4543    8605.9012    1428.4665   -9.2961991    1153.5296    -3221.071 
 1450000    266.53596   -4817.4378   -4284.3329   -4817.4378            0     8116.225    17.921103    22.983893    19.336471    7964.6288     8978.303     7922.865    7447.5071     178.3928   -541.07582   -506.70721   -3341.5851 
 1451000    263.88999   -4807.2683   -4279.4557   -4807.2683            0    6201.0971    17.908658    23.179068    19.323901    8021.4671    7762.1967    5012.0137    5829.0809    260.85244   -760.41651     496.3663   -3554.0212 
 1452000    271.04597   -4827.2454     -4285.12   -4827.2454            0    6273.1188    17.940662    23.001818    19.391477    8002.2392    6306.5542    5447.6128    7065.1894    396.52934   -800.90409   -835.61586   -3553.0191 
 1453000    259.59607   -4827.0191   -4307.7949   -4827.0191            0    8378.3128    17.930226    23.082492    19.170672     7934.248    10090.246    6871.6882    8173.0037   -406.66534    1256.7356   -98.003013   -3338.3163 
 1454000    252.16697   -4815.4834   -4311.1183   -4815.4834            0    8804.1754    17.846182    23.049505     19.27335    7928.0093    7505.9087    9014.0614     9892.556    1813.7888    1243.2902    339.32447    -3293.163 
 1455000    264.37398   -4834.9307   -4306.1501   -4834.9307            0    6040.8133     17.98242    23.236642    19.198558    8022.1375      7952.31    4061.2341    6108.8957    981.96147   -1496.7076   -2013.4629   -3599.4073 
 1456000    257.13825   -4814.0279   -4299.7196   -4814.0279            0    6185.8286    17.871171    23.090222    19.384431    7998.9721    7656.1876    5222.4273    5678.8707    1285.1625   -1340.7696    536.58337   -3578.1006 
 1457000     260.7672   -4802.9079   -4281.3413   -4802.9079            0    7029.9986    18.104606    22.825226    19.369745    8004.3867     4669.644    8704.6702    7715.6817    891.20282      1661.11   -718.18083    -3460.689 
 1458000    280.87194   -4814.0789   -4252.3003   -4814.0789            0    8222.6071    17.805871    23.134105    19.381957     7983.872     8383.882    6714.3125    9569.6267    1426.4221    393.23231     1346.639    -3294.888 
 1459000    259.29544    -4793.469    -4274.846    -4793.469            0    8544.0571    18.002277    23.070531    19.150717    7953.7161    7995.9028    8094.4247     9541.844   -139.91584   -231.23504   -2522.5801   -3283.7628 
 1460000    269.22203   -4806.2784   -4267.8011   -4806.2784            0    6591.7516     18.13392    22.930844    19.291479    8021.9002    7906.0096    6703.6846    5165.5607   -65.029619    516.06421   -764.56534   -3496.6243 
 1461000    268.79113   -4800.7917   -4263.1762   -4800.7917            0     7368.945    17.874626    23.171872    19.271976    7982.2315    6737.5718    6203.7124    9165.5508    247.65182   -201.20429    1372.2918   -3405.3378 
 1462000     271.8867    -4807.153    -4263.346    -4807.153            0    10305.328    17.774104    22.967995    19.282146    7871.6571    10451.999    9915.0484    10548.938     354.4377   -366.98405    647.02638   -3080.2938 
 1463000    269.04063   -4818.7118   -4280.5972   -4818.7118            0    8448.1211    18.010225    22.927291    19.225693    7938.7821    7555.9771    7707.9107    10080.475    154.69639    150.08421    52.416468   -3302.4823 
 1464000    267.91377   -4810.0554   -4274.1947   -4810.0554            0     9986.777      17.9979    22.909417    19.183149    7909.6227     10300.34    9058.6185    10601.372   -1016.6719    517.46651    709.50265   -3122.1827 
 1465000    263.64616   -4859.9532   -4332.6283   -4859.9532            0    6163.1241    17.945449    22.899881    19.510152    8017.6705    6699.2991    6358.1451    5431.9281   -369.20539    1431.8201   -1035.8881   -3611.9772 
 1466000    266.14024   -4810.9478   -4278.6345   -4810.9478            0    9654.3487    17.945038    22.828299    19.239577    7881.5829    11061.759    7924.0576    9977.2295    176.53603   -353.41954    2390.5783   -3168.9173 
 1467000    253.17532   -4820.1873   -4313.8054   -4820.1873            0    7486.8511    18.046111    22.863213     19.32407    7972.9583    6767.2545    7213.3023    8479.9964   -693.02038   -640.52437   -747.90808   -3443.2537 
 1468000    285.65703   -4833.4634   -4262.1141   -4833.4634            0    6423.2184    18.072973    22.758844    19.462392    8005.2703    6205.8114    7666.8202    5397.0235     165.1293    1320.5989    294.06151    -3512.212 
 1469000    268.49944   -4817.3361   -4280.3041   -4817.3361            0    8856.3385    18.009913    22.791906    19.396285    7961.7916    7973.6195    9811.7935    8783.6026    588.67732    1539.1585   -1369.5432   -3251.9542 
 1470000    252.84075    -4816.896   -4311.1833    -4816.896            0    8364.9431    17.875446     22.81891    19.454542    7935.4722     7576.287    9597.9142     7920.628    1433.9531     193.3926    97.477304   -3343.1024 
 1471000    267.19926   -4813.6619   -4279.2303   -4813.6619            0    9189.2756    18.009834    22.715664    19.324214    7905.6387    10539.346    8927.2069    8101.2736   -714.02104   -211.40876   -331.02967    -3219.747 
 1472000     255.6062   -4827.5749   -4316.3309   -4827.5749            0    7522.8007    17.974092    22.819536    19.399162    7956.7686    8357.8086    7013.1769    7197.4164    210.74238    396.01901   -366.31932   -3443.3753 
 1473000    262.58264    -4835.058   -4309.8603    -4835.058            0    6986.8244    17.952965    23.050267    19.248957    7965.6156    6987.6607    5857.7998    8115.0126    103.34145   -59.530954    1760.9255   -3498.1986 
 1474000    261.93957   -4794.3599   -4270.4484   -4794.3599            0    9792.6972    17.840066    22.960604    19.337605    7921.0443    9415.2927     9522.135    10440.664    1581.2281    803.28588   -1193.1767    -3139.193 
 1475000    270.25988   -4839.1962    -4298.643   -4839.1962            0    7866.3028    18.022912    22.918807    19.250914    7951.8522    6994.3759    7051.5045    9553.0281      1615.13    332.04093    394.99491    -3386.391 
 1476000    256.78798   -4797.1962   -4283.5885   -4797.1962            0    8622.0815     17.88662    22.872023    19.430801    7949.2025    10466.746    8569.4149     6830.084    2663.7448    219.51856   -1208.0573   -3284.0223 
 1477000    275.98403   -4759.1199   -4207.1177   -4759.1199            0    9332.5468    18.107616    22.851312    19.272993    7974.8325    8044.4034    9733.5721    10219.665    1627.8872    349.05607    -459.8931   -3121.6982 
 1478000    273.12619   -4802.5702   -4256.2841   -4802.5702            0    8456.8334    17.946816      22.7741    19.471725    7958.5337    8398.3707    8773.9338    8198.1957    734.00037   -694.68499   -725.46987   -3274.7244 
 1479000    273.10699   -4812.2673   -4266.0195   -4812.2673            0    6412.2626     18.17862    22.679243    19.487892    8034.4163    6817.9209    5869.8019    6549.0651    2299.1894   -555.15895   -673.54673   -3514.6709 
 1480000    276.53613   -4785.6302   -4232.5238   -4785.6302            0     8005.762    18.024201    22.716255    19.497572    7983.1318     7890.565    9142.2402    6984.4809    309.24623    1268.2739    -1271.531   -3300.4467 
 1481000    270.87836   -4792.0508   -4250.2606   -4792.0508            0    9569.9975     18.17169    22.760569    19.202668    7942.1855    10522.437     8843.386    9344.1696    597.99967    42.106697    325.53305   -3141.7809 
 1482000    255.91385   -4786.6185   -4274.7592   -4786.6185            0    6379.5703    18.108669    22.618691    19.602519    8029.0815     4491.288    8156.5642    6490.8588    2680.7213    1083.3294    386.50523   -3527.7375 
 1483000    267.94093   -4824.2464   -4288.3314   -4824.2464            0    8648.0198    17.974725    22.873704    19.340273     7951.725    8825.7425    8515.5493    8602.7676    -94.84403    153.46301   -1338.8068     -3285.44 
 1484000    276.24522   -4802.9877   -4250.4632   -4802.9877            0     8174.126    18.190227    22.715523    19.296738    7973.4224    6515.0694    9125.6575    8881.6511   -1397.0049   -55.077464   -1747.2028   -3299.9416 
 1485000    269.62557   -4843.9981   -4304.7136   -4843.9981            0    8092.5911    18.162209    22.529326    19.478241    7970.1522    7578.9089    8666.6304     8032.234   -998.96913    1200.4825    2177.6435   -3364.0592 
 1486000    267.63831   -4825.3038   -4289.9941   -4825.3038            0      6887.05    18.107136    22.707468    19.457637    8000.3425    6813.0354    7846.4236    6001.6909   -1249.2287   -386.17941     1153.598   -3486.4352 
 1487000    254.67753   -4800.1612   -4290.7747   -4800.1612            0     6991.804    18.112591    22.815483    19.368934    8004.1639    6261.8868    7795.2789    6918.2462   -1570.2498    392.30625    813.34046   -3474.6038 
 1488000    274.77691    -4807.773   -4258.1852    -4807.773            0    8086.8793    18.013209    22.750152    19.388706    7945.5544    8344.7985    8880.1025    7035.7368    443.17199    1157.1021    1939.3286   -3321.0958 
 1489000     274.4186    -4818.477   -4269.6059    -4818.477            0    8204.8487    18.097868    22.693562    19.338258    7942.3208    9067.2268    8262.0839    7285.2356    795.58203    648.42803    2019.9983   -3319.2334 
 1490000    273.09746   -4808.1902   -4261.9615   -4808.1902            0    7878.8969    18.007049    22.694748    19.531499    7981.8483    8507.9277    7463.1732    7665.5899   -922.29173    713.56896    489.86983   -3344.8022 
 1491000    256.63866   -4812.0282   -4298.7191   -4812.0282            0     7998.444    18.217673    22.739981    19.187636    7948.8535    6161.1562    8056.9402    9777.2357   -1028.3705     212.7304    2783.1655   -3371.4925 
 1492000     267.4454   -4821.7597   -4286.8358   -4821.7597            0    6246.8964    18.092191    22.685092     19.56523    8030.0206    7239.8256    5426.5446    6074.3191    947.11378   -1596.9811    1754.7956   -3555.2642 
 1493000    271.99658    -4792.379   -4248.3522    -4792.379            0    7508.5192    18.116169    22.644045    19.473534    7988.4985    7468.0583    7415.8049    7641.6945   -107.35965   -681.61223   -452.72464   -3373.5793 
 1494000    261.63882   -4779.3489   -4256.0389   -4779.3489            0    9254.1067    18.181068    22.696985    19.339367    7980.4949    8780.4605    9469.8066    9512.0529    536.44461    1129.9596    580.43375   -3178.9781 
 1495000    283.17167    -4812.553   -4246.1747    -4812.553            0    7030.8911    17.986423    22.815475    19.535761    8016.8664    6950.5486    7694.2064    6447.9184    781.92583     412.3758   -1950.1503   -3424.1386 
 1496000    248.51413   -4776.6894   -4279.6304   -4776.6894            0    8159.9535    18.157791    22.790144    19.299147    7986.3476    6863.6603    8548.3451     9067.855   -371.72073    379.43548   -1676.2607   -3329.2187 
 1497000    274.27237    -4820.428   -4271.8493    -4820.428            0    7989.9698    18.015412    22.737914    19.385013    7940.7389    6853.6631     8830.626    8285.6202       2317.3   -799.72175    243.47012   -3346.5507 
 1498000     271.3253   -4783.5015   -4240.8173   -4783.5015            0    7447.6328    18.063177    22.913028    19.314589    7993.9627    7224.5465    8362.2249    6756.1269    2150.3099   -1039.0178    -826.8741   -3372.5444 
 1499000    255.02179   -4806.2746   -4296.1995   -4806.2746            0    7560.3953    18.027028    22.905568    19.290482    7965.4122    6931.0369     8441.099    7309.0501    107.39146    534.47679   -291.11429   -3417.9283 
 1500000    269.79656   -4778.0706   -4238.4442   -4778.0706            0    7931.3987    18.053382    22.807576    19.386835    7982.6044    10109.711     6297.884    7386.6015    1502.5242    70.808882    667.60017   -3315.0858 
Loop time of 495.653 on 64 procs for 250000 steps with 1008 atoms

Performance: 87.158 ns/day, 0.275 hours/ns, 504.385 timesteps/s
194.5% CPU use with 32 MPI tasks x 2 OpenMP threads

MPI task timing breakdown:
Section |  min time  |  avg time  |  max time  |%varavg| %total
---------------------------------------------------------------
Pair    | 35.561     | 40.074     | 42.121     |  24.0 |  8.09
Bond    | 1.0147     | 1.1913     | 1.4715     |   9.2 |  0.24
Kspace  | 240.02     | 249.45     | 258.8      |  33.3 | 50.33
Neigh   | 3.8095     | 4.4305     | 5.082      |  19.9 |  0.89
Comm    | 79.09      | 89.58      | 99.923     |  60.0 | 18.07
Output  | 0.74946    | 0.74981    | 0.75186    |   0.0 |  0.15
Modify  | 95.888     | 98.88      | 102.29     |  18.6 | 19.95
Other   |            | 11.3       |            |       |  2.28

Nlocal:        31.5000 ave          35 max          29 min
Histogram: 2 8 0 7 0 6 6 0 2 1
Nghost:        2903.66 ave        2924 max        2883 min
Histogram: 2 0 2 10 4 4 0 6 2 2
Neighs:        10494.8 ave       11632 max        9617 min
Histogram: 2 4 4 6 2 5 5 2 1 1

Total # of neighbors = 335832
Ave neighs/atom = 333.16667
Ave special neighs/atom = 2.0000000
Neighbor list builds = 10148
Dangerous builds = 0

unfix		3
unfix		2
unfix		1

write_data	data.final.${pid}
write_data	data.final.0
System init for write_data ...
PPPM initialization ...
  extracting TIP4P info from pair style
  using 12-bit tables for long-range coulomb (../kspace.cpp:340)
  G vector (1/distance) = 0.37986062
  grid = 24 27 36
  stencil order = 5
  estimated absolute RMS force accuracy = 0.0023630279
  estimated relative force accuracy = 7.1161882e-06
  using double precision FFTW3
  3d grid and FFT values/proc = 5670 1296
Last active /omp style is kspace_style pppm/tip4p/omp
WARNING: Not all mixed pair coeffs generated from mixing. Use write_data with 'pair ij' option to store all pair coeffs. (../write_data.cpp:312)

write_restart   restart.lmp.${pid}
write_restart   restart.lmp.0
System init for write_restart ...
PPPM initialization ...
  extracting TIP4P info from pair style
  using 12-bit tables for long-range coulomb (../kspace.cpp:340)
  G vector (1/distance) = 0.37986062
  grid = 24 27 36
  stencil order = 5
  estimated absolute RMS force accuracy = 0.0023630279
  estimated relative force accuracy = 7.1161882e-06
  using double precision FFTW3
  3d grid and FFT values/proc = 5670 1296
Last active /omp style is kspace_style pppm/tip4p/omp
Total wall time: 0:08:15
