LAMMPS (30 Jul 2021)
Processor partition = 0
  using 4 OpenMP thread(s) per MPI task
using multi-threaded neighbor list subroutines
variable        pid world 0 1
variable        phase world IceIh Liquid

shell cd ${phase}
shell cd IceIh
include Restart.lmp
echo both
log log.lammps
#include		in.partitions
include		in.temp
variable        temperature equal 278.50
variable	tempDamp equal 100.0
include		in.pressure
variable        pressure equal -2375.0
variable        pressureDamp equal 1000.0 # This is 1 ps
include		in.seed
variable        seed equal 745823

units		real
atom_style	full
#include		in.box
read_restart	restart.lmp.${pid}
read_restart	restart.lmp.0
Reading restart file ...
  restart file = 30 Jul 2021, LAMMPS = 30 Jul 2021
  restoring atom style full from restart
  orthogonal box = (-0.14847304 -0.17838380 0.044490021) to (18.356045 23.807562 22.168706)
  2 by 4 by 2 MPI processor grid
  restoring pair style lj/cut/tip4p/long/omp from restart
  restoring bond style harmonic/omp from restart
  restoring angle style harmonic/omp from restart
  864 atoms
  576 bonds
  288 angles
Finding 1-2 1-3 1-4 neighbors ...
  special bond factors lj:    0        0        0       
  special bond factors coul:  0        0        0       
     2 = max # of 1-2 neighbors
     1 = max # of 1-3 neighbors
     1 = max # of 1-4 neighbors
     2 = max # of special neighbors
  special bonds CPU = 0.001 seconds
  read_restart CPU = 0.005 seconds
include 	in.setup
variable	out_freq equal 1000
variable	out_freq2 equal 10000
variable	out_freq3 equal 1000

timestep	2.0

neigh_modify    delay 7 every 1

include		in.tip4p
# This is TIP4P/Ice

# create groups ###
group ox type 2
288 atoms in group ox
group hy type 1
576 atoms in group hy

# set charges - beside manually ###
set group ox charge -1.1794
Setting atom values ...
  288 settings made for charge
set group hy charge 0.5897
Setting atom values ...
  576 settings made for charge

# ### TIP3P Potential Parameters ###
pair_style lj/cut/tip4p/long/omp 2 1 1 1 0.1577 8.5
pair_coeff 1 1*2 0.000 0.000
pair_coeff 2 2 0.21084 3.1668
bond_style  harmonic
bond_coeff  1 450 0.9572
angle_style harmonic
angle_coeff 1 55 104.52
kspace_style pppm/tip4p/omp 1.0e-5
pair_modify tail yes

thermo          ${out_freq}
thermo          1000
thermo_style    custom step temp pe etotal epair emol press lx ly lz vol pxx pyy pzz pxy pxz pyz enthalpy

restart 	${out_freq3} restart.lmp.${pid} restart2.lmp.${pid}
restart 	1000 restart.lmp.${pid} restart2.lmp.${pid}
restart 	1000 restart.lmp.0 restart2.lmp.${pid}
restart 	1000 restart.lmp.0 restart2.lmp.0


include         in.dump
dump            myDump all atom ${out_freq2} dump.water.${pid}
dump            myDump all atom 10000 dump.water.${pid}
dump            myDump all atom 10000 dump.water.0
dump            myDump2 all dcd ${out_freq2} dump.dcd
dump            myDump2 all dcd 10000 dump.dcd
dump_modify     myDump append yes
dump_modify     myDump2 append yes


variable natoms 	equal  "count(all)"                        # NUMBER ATOMS
variable H      	equal  "enthalpy/v_natoms"                 # ENTHALPY-per-atom
variable Vol      	equal  "vol/v_natoms"                 # volume-per-atom
fix AVG all 		ave/time ${out_freq} 1 ${out_freq} v_Vol v_H file vol_enthalpy.dat
fix AVG all 		ave/time 1000 1 ${out_freq} v_Vol v_H file vol_enthalpy.dat
fix AVG all 		ave/time 1000 1 1000 v_Vol v_H file vol_enthalpy.dat


timer           timeout 23:50:00 every 1000
New timer settings: style=normal  mode=nosync  timeout=23:50:00

fix 		1 all shake 1e-6 200 0 b 1 a 1
Finding SHAKE clusters ...
       0 = # of size 2 clusters
       0 = # of size 3 clusters
       0 = # of size 4 clusters
     288 = # of frozen angles
  find clusters CPU = 0.000 seconds
fix             2 all nph aniso ${pressure} ${pressure} ${pressureDamp}
fix             2 all nph aniso -2375 ${pressure} ${pressureDamp}
fix             2 all nph aniso -2375 -2375 ${pressureDamp}
fix             2 all nph aniso -2375 -2375 1000
fix             3 all temp/csvr ${temperature} ${temperature} ${tempDamp} ${seed}
fix             3 all temp/csvr 278.5 ${temperature} ${tempDamp} ${seed}
fix             3 all temp/csvr 278.5 278.5 ${tempDamp} ${seed}
fix             3 all temp/csvr 278.5 278.5 100 ${seed}
fix             3 all temp/csvr 278.5 278.5 100 745823


run             250000
PPPM initialization ...
  extracting TIP4P info from pair style
  using 12-bit tables for long-range coulomb (../kspace.cpp:340)
  G vector (1/distance) = 0.3703392
  grid = 24 27 25
  stencil order = 5
  estimated absolute RMS force accuracy = 0.0033032291
  estimated relative force accuracy = 9.9475762e-06
  using double precision FFTW3
  3d grid and FFT values/proc = 6300 1296
Last active /omp style is kspace_style pppm/tip4p/omp
Neighbor list info ...
  update every 1 steps, delay 7 steps, check yes
  max neighbors/atom: 2000, page size: 100000
  master list distance cutoff = 10.8154
  ghost atom cutoff = 10.8154
  binsize = 5.4077, bins = 4 5 5
  1 neighbor lists, perpetual/occasional/extra = 1 0 0
  (1) pair lj/cut/tip4p/long/omp, perpetual
      attributes: half, newton on, omp
      pair build: half/bin/newton/omp
      stencil: half/bin/3d
      bin: standard
Setting up Verlet run ...
  Unit style    : real
  Current step  : 9750000
  Time step     : 2
  Walltime left : 23:49:59.95
Per MPI rank memory allocation (min/avg/max) = 12.24 | 12.27 | 12.30 Mbytes
Step Temp PotEng TotEng E_pair E_mol Press Lx Ly Lz Volume Pxx Pyy Pzz Pxy Pxz Pyz Enthalpy 
 9750000    282.15035   -4120.3707   -3636.7747   -4120.3707            0   -3639.7568    18.504518    23.985945    22.124216    9819.7971   -3958.3677   -5273.6617   -1687.2409   -538.98694   -226.19982   -792.44252   -4158.0303 
 9751000    277.85207   -4160.7493   -3684.5204   -4160.7493            0   -3387.6222    18.223141    23.741328    22.615488    9784.4003   -1459.7833   -3794.7008   -4908.3824   -559.24962   -251.38277    85.649128   -4167.9186 
 9752000    291.59459   -4188.1467   -3688.3635   -4188.1467            0    -3276.697    18.343185      23.9903    22.316538    9820.5825   -4159.3099   -3614.4353   -2056.3457    -225.7597    -311.5985    192.29177   -4157.6623 
 9753000    286.65214   -4180.8066   -3689.4946   -4180.8066            0   -2994.4024    18.372736    23.782995     22.29231    9740.8183   -2554.8944   -3530.6092   -2897.7036   -1172.6849    739.31305   -393.31774    -4114.879 
 9754000     272.9201    -4212.559   -3744.7833    -4212.559            0    -1129.864    18.119466    23.671211    22.402965     9608.849    -1607.002   -1116.6106    -665.9792   -662.03757     1192.166   -400.30918    -3903.117 
 9755000    283.18571   -4163.0406   -3677.6699   -4163.0406            0   -2108.0973      18.3205    23.852887    22.085048    9651.0955   -1689.1981   -3174.6069   -1460.4869   -424.88665   -202.00388    321.61276   -3974.3874 
 9756000    278.91479   -4136.8027   -3658.7523   -4136.8027            0   -2445.4085      18.3062    23.599834    22.539647    9737.6523   -2734.7186   -1496.1232   -3105.3839    5.2678108    266.30495    333.70408   -4006.0338 
 9757000    285.60108    -4169.599   -3680.0885    -4169.599            0   -1292.2844    18.399047    23.709245    22.147452    9661.3279   -720.57128   -1979.3522   -1176.9296   -186.34873   -90.185584   -177.76303   -3862.1721 
 9758000    282.13931   -4146.1053   -3662.5282   -4146.1053            0   -2146.0517    18.225888    23.819561    22.486275    9762.0265   -1734.0027    -2963.086   -1741.0664    788.41355    365.85665    2.2041638   -3968.0598 
 9759000    297.75455   -4159.5876   -3649.2465   -4159.5876            0   -2329.5411    18.192042    23.946017    22.407512    9761.3155   -1693.4781   -1994.1743   -3300.9708   -798.64455   -64.885674     78.35172   -3980.8771 
 9760000    276.28433   -4141.0279    -3667.486   -4141.0279            0   -1919.5104    18.435308    23.684075    22.401435    9780.9866   -2282.6266    -1543.382   -1932.5226   -797.78458    240.05042   -115.25373   -3941.2958 
 9761000    284.84217   -4177.6045   -3689.3948   -4177.6045            0   -2083.6539    18.338612    23.548516    22.564401    9744.3715   -682.07245   -2171.6516   -3397.2377    420.81956    466.21652    686.94573   -3985.5063 
 9762000    302.12812   -4154.0568   -3636.2196   -4154.0568            0     -720.025    18.245351    23.942668     22.20851    9701.6182   -469.76485   -1197.6594   -492.65079    678.27269    590.71242     23.01379   -3738.0946 
 9763000    279.26902   -4132.0932   -3653.4357   -4132.0932            0   -2117.2363    18.299928    23.762104    22.461279    9767.1697   -2344.1498   -1553.4803   -2454.0787    540.81659    318.49907    894.78643   -3955.0236 
 9764000    272.79727   -4177.8334   -3710.2682   -4177.8334            0   -2429.1588    18.426444    23.879626    22.146817    9744.9667   -2688.5833   -2256.8538   -2342.0392    -454.7672   -101.14334   -578.75229    -4055.501 
 9765000     276.0571   -4155.1416   -3681.9891   -4155.1416            0   -2480.4336    18.183467    23.602772    22.762594    9769.2556   -1564.6118   -1944.0707   -3932.6182   -441.31448    678.16558    903.97082   -4035.3878 
 9766000    287.33273   -4174.9422   -3682.4637   -4174.9422            0   -2881.8126    18.449481    23.834568    22.219097    9770.5235    -4885.587   -2853.4687   -906.38204   -282.69186   -20.759832     474.7921    -4093.102 
 9767000    300.07233   -4183.1817    -3668.868   -4183.1817            0   -2689.6766    18.323621    23.675546    22.591549    9800.7044   -3229.9905   -1836.2978   -3002.7415    32.752032    283.94073   -439.26308   -4053.3121 
 9768000    259.39846   -4154.9008   -3710.3007   -4154.9008            0   -3205.3096    18.352837    24.015262    22.192298    9781.2152   -2429.9594    -4125.925   -3060.0443    129.29284   -183.48946   -662.45402   -4167.5349 
 9769000    273.21166   -4152.2128   -3683.9374   -4152.2128            0   -2309.1163    18.278932    23.876973    22.402681    9777.5505   -2766.7358    -2018.612    -2142.001    401.07757    424.95365    371.03571    -4013.207 
 9770000    278.63048   -4188.2026   -3710.6394   -4188.2026            0   -3562.7264    18.324674    23.854654    22.421734    9801.1846   -3392.5574   -4098.2448   -3197.3772   -372.71079    173.72604    11.405322   -4219.8964 
 9771000    285.79541   -4189.7995    -3699.956   -4189.7995            0   -1805.0103    18.569546    23.472475    22.433769    9778.2786   -2101.4948   -1917.4101   -1396.1261   -300.88079   -925.48506    516.46078   -3957.3616 
 9772000    287.69993   -4158.2444   -3665.1365   -4158.2444            0    -1448.686    18.192505    23.775887    22.328466    9658.0205   -1890.2357   -174.73734   -2281.0849   -1489.0235    170.49288    710.91724   -3869.1873 
 9773000    273.36152     -4187.01   -3718.4777     -4187.01            0   -1422.4963    18.208733    23.842669    22.264708     9666.107   -1494.4961   -2006.9773   -766.01545   -652.40273    165.29997   -102.85825   -3919.0073 
 9774000    297.01344   -4141.7162   -3632.6453   -4141.7162            0   -1697.3574    18.450229    23.677461    22.212458     9703.614   -3187.7121   -2643.0829    738.72288   -148.94639   -349.32098   -227.54708   -3872.8507 
 9775000    276.41002   -4155.4499   -3681.6925   -4155.4499            0   -1687.5826    18.332371    23.600542    22.471393    9722.3353   -2824.5954   -331.09611   -1907.0562   -59.467662   -282.19586   -629.59958   -3920.9754 
 9776000    301.34394   -4168.1538   -3651.6606   -4168.1538            0   -2006.1005    18.225262    23.956738    22.324402    9747.2313   -1759.2945   -2788.3336   -1470.6735   -1300.2569    187.72452    -105.1146   -3936.8346 
 9777000    290.61154   -4154.2284   -3656.1301   -4154.2284            0   -2298.0883    18.416327    23.717784    22.414531    9790.5428   -1986.3505   -1884.0045   -3023.9099    -116.7802   -889.92162   -297.01949   -3984.2627 
 9778000     270.2052   -4160.6284   -3697.5059   -4160.6284            0    -2767.166    18.446933    23.731455    22.468803    9836.2252   -2907.7434    -2805.319   -2588.4356    82.434754    66.508742    420.84444   -4094.4593 
 9779000    279.25366   -4190.7194   -3712.0881   -4190.7194            0   -3656.0132    18.416925    23.893194    22.352575    9836.0082   -4081.1076   -3054.8301   -3832.1018   -716.85748    174.00661   -215.86036   -4236.5363 
 9780000    272.86689   -4123.1846   -3655.5001   -4123.1846            0    -2144.953    18.096344    23.884774    22.542976    9743.6848   -2311.5848   -1754.1668   -2369.1075    188.29693    938.14428    438.60706   -3960.3015 
 9781000    277.79505   -4119.2465   -3643.1153   -4119.2465            0   -1462.4472    18.295174    23.869856    22.249784    9716.5517   -1299.8433   -1980.6445    -1106.854   -1259.7708   -33.548103   -231.47453   -3850.3528 
 9782000    273.92443   -4143.1113   -3673.6143   -4143.1113            0   -2300.6368    18.433727    23.380588    22.547725    9717.8748   -2902.6684   -1793.1521   -2206.0899    430.25245   -352.94265    166.04846   -3999.6725 
 9783000    287.17347   -4162.8251   -3670.6196   -4162.8251            0   -2087.2225    18.382615    23.761942    22.387863    9779.1675   -2198.2661     -1832.29   -2231.1115   -794.15572   -1069.4094   -874.35222   -3968.2974 
 9784000    270.52518   -4181.5088   -3717.8379   -4181.5088            0   -1551.9188    18.123218    23.892095    22.310234    9660.3684   -1293.7218   -3033.5635   -328.47123   -627.82381     -623.577    206.08055   -3936.4824 
 9785000    269.47962   -4193.8237   -3731.9449   -4193.8237            0   -1557.1723     18.21846    23.752543    22.435094    9708.4452    50.301685   -944.01753   -3777.8011     784.0395   -74.766047    1193.1939   -3952.4214 
 9786000    260.66956   -4147.4221   -3700.6434   -4147.4221            0   -2571.5578    18.556358    23.842772    22.066832    9763.1391   -3279.7879   -2149.7343   -2285.1511   -417.31559   -26.417532   -245.65138   -4066.7956 
 9787000    285.15872   -4156.1185   -3667.3662   -4156.1185            0   -2264.6757     18.31024    23.752324    22.499691    9785.3581   -1763.4083   -2434.6684   -2595.9505   -1493.2516   -57.243761    90.957532   -3990.5568 
 9788000     270.6117   -4139.3282    -3675.509   -4139.3282            0   -1941.0424    18.339621    23.780344    22.271868    9713.2627   -1531.6983   -1199.8211    -3091.608   -685.16328    367.91977    325.19228   -3950.4731 
 9789000    274.20078   -4154.3297   -3684.3589   -4154.3297            0   -1887.3343    18.323345    23.754109    22.364454    9734.2343   -3503.7477    -1626.898   -531.35732    314.69543    83.254404      308.373   -3952.2921 
 9790000    283.01254   -4178.4081   -3693.3343   -4178.4081            0   -2263.1182    18.146312    23.778897    22.574951    9741.0754   -3069.9526   -2286.0232   -1433.3789   -611.62153   -446.71096     1055.101    -4014.841 
 9791000    269.47527   -4152.7743   -3690.9029   -4152.7743            0   -2985.0108     18.34838    23.912021    22.281072    9775.7505   -2439.8897   -4954.8295   -1560.3133    728.34758   -546.38788     152.0389   -4116.4738 
 9792000    277.21227   -4161.6025   -3686.4701   -4161.6025            0   -3333.9193    18.200931    23.704265    22.736943    9809.6198   -2738.8768   -1786.8347   -5476.0463    320.10741    365.72466    174.26131   -4163.4314 
 9793000    285.22932   -4166.9098   -3678.0366   -4166.9098            0    -1695.236    18.370573    23.861382    22.104518    9689.4552   -1902.0842   -1382.3044   -1801.3194   -80.511104   -432.16173    461.35167   -3917.5917 
 9794000    289.24043   -4174.0562    -3678.308   -4174.0562            0   -881.40326    18.068266    23.479082    22.599282    9587.2095   -1040.7577   -43.455136    -1559.997    291.33773   -99.443118    419.03859   -3801.5455 
 9795000     268.5443    -4195.131   -3734.8553    -4195.131            0   -2409.9996     18.32964    23.769869    22.189555    9667.8367   -4224.5419   -1083.5808   -1921.8762    567.25931   -182.59964   -191.40057   -4074.6544 
 9796000    287.05534    -4164.456    -3672.453    -4164.456            0   -936.87137    18.363995    23.421902    22.488967    9672.9475   -1654.0053    205.35165   -1361.9604   -244.52438    -456.8759     22.95927   -3804.6174 
 9797000    266.60031   -4156.4768    -3699.533   -4156.4768            0   -2139.2274    18.271416    23.764666     22.44452    9745.7272   -1476.2374   -1902.5107   -3038.9342    334.86474    585.59056     1927.278   -4003.5845 
 9798000    278.65882   -4151.3201   -3673.7084   -4151.3201            0   -1254.1897     18.39872    23.899201    22.036773    9689.8932   -1733.8445   -1451.5588   -577.16562    253.15039   -320.93095   -362.14388    -3850.947 
 9799000     277.3578    -4141.304   -3665.9222    -4141.304            0   -1560.7011     18.21419     23.59676    22.522779    9680.1976   -2822.5196    357.84615   -2217.4299    152.72318   -161.17362   -443.61653   -3886.2554 
 9800000    280.76225   -4184.6181   -3703.4012   -4184.6181            0   -2342.5274    18.381466     23.82791    22.168644    9709.6865   -3036.5161   -2636.9363   -1354.1298   -23.289575   -155.46066   -481.98698   -4035.1167 
 9801000    273.29048   -4124.9528   -3656.5423   -4124.9528            0   -2937.1164    18.396535    23.695953    22.598145    9851.0606   -2502.1671   -2372.5742   -3936.6078   -472.77572    57.905821   -33.281546   -4078.5108 
 9802000    282.34892   -4182.3431   -3698.4067   -4182.3431            0   -3450.5273    18.493703    23.801806    22.347195    9836.8668   -3223.3961   -3944.6327    -3183.553   -538.67022   -738.31937   -31.881225   -4193.4215 
 9803000     282.7538   -4187.4263    -3702.796   -4187.4263            0   -2826.6125    18.376937    23.743681    22.326158    9741.7092   -3393.1438   -2387.2184   -2699.4753    261.52165   -150.30515   -229.64134   -4104.3809 
 9804000     288.5747   -4155.3506   -3660.7435   -4155.3506            0   -2923.3939    18.078975    23.847257    22.645563    9763.2714   -2472.8357   -2758.0375   -3539.3085   -182.86213   -288.45139    249.34537   -4076.9976 
 9805000      265.652   -4144.1949   -3688.8764   -4144.1949            0   -2863.9149    18.327585    23.975942    22.199991    9755.1451   -4125.2359   -2090.9486   -2375.5603   -724.35107    167.84489   -91.450281   -4096.3221 
 9806000    286.68846   -4127.0705   -3635.6962   -4127.0705            0    -2885.375    18.436288     23.66859    22.640405    9879.3885    -2855.536   -3565.5538   -2235.0354    187.59514   -394.46466    4.8579061   -4051.4232 
 9807000    276.28436   -4159.8401   -3686.2982   -4159.8401            0   -1736.5796    18.474063    23.654119    22.270459    9731.9165   -2217.3078   -2021.8158   -970.61509   -747.87621     108.0198    150.47967    -3932.771 
 9808000    277.93781   -4152.4774   -3676.1015   -4152.4774            0   -3594.2276    18.175089    23.970761    22.599185    9845.8035    -3790.746   -3109.6128    -3882.324     107.3007   -267.30134    5.8934055   -4192.2001 
 9809000    288.13299   -4174.9638   -3681.1137   -4174.9638            0   -2741.2148    18.245687    23.982169     22.42456    9812.3404   -2960.1827   -2197.9322   -3065.5295   -572.03434   -222.74785    428.09241   -4073.3896 
 9810000    271.72879   -4188.0061   -3722.2723   -4188.0061            0    -2607.032    18.391511     23.77945    22.265121    9737.4285   -3114.4397   -2366.3139   -2340.3423   -131.18885   -69.229894    392.46167   -4092.4979 
 9811000    274.79991   -4151.8454   -3680.8477   -4151.8454            0   -2902.4733    18.278404    23.661953     22.70894    9821.6788   -698.81304    -3349.689   -4658.9179   -16.408906    319.70332    -303.1899   -4096.5954 
 9812000    277.71128   -4130.3788   -3654.3912   -4130.3788            0   -3123.9044    18.305957    23.989239    22.365044    9821.5195   -3312.7601   -3691.8861    -2367.067    496.49089   -777.22779    -687.5933   -4101.8492 
 9813000    289.77098   -4137.6083   -3640.9507   -4137.6083            0   -2411.7254    18.369615    23.835687    22.476885    9841.5581   -2832.1687   -3600.7982   -802.20924   -476.66434     769.8625    -399.2722   -3987.1033 
 9814000    291.50313   -4179.9598   -3680.3334   -4179.9598            0   -2239.0996    18.433888    23.691345    22.301065    9739.4017   -2465.4271   -825.25818   -3426.6135    571.41329   -1015.2494    480.59134   -3998.3733 
 9815000    265.38171   -4172.9096   -3718.0544   -4172.9096            0    -3480.391    18.391974    23.804614    22.352456    9786.2144   -3694.9622   -2577.4122   -4168.7984    896.30009   -213.74862     1725.722   -4214.7824 
 9816000     281.7896   -4117.9856   -3635.0078   -4117.9856            0   -3356.4995    18.271057    24.023844    22.534338    9891.2455   -3195.6484    -3153.749   -3720.1012   -1017.3408    158.03743    392.27063   -4119.1952 
 9817000    271.12754    -4181.875   -3717.1717    -4181.875            0   -3070.7175    18.369994    24.018462    22.272977    9827.2606   -2328.1846   -3817.6474   -3066.3205   -589.68483   -310.63192    -89.17681   -4157.2685 
 9818000    279.88767   -4170.9842   -3691.2663   -4170.9842            0   -2886.7995    18.478983    23.562172    22.431854    9766.9406   -3713.9081   -3403.1184   -1543.3721    343.59084   -277.06786    99.574096   -4102.4644 
 9819000    269.64195   -4197.4806   -3735.3235   -4197.4806            0   -1744.0323    18.421203    23.467051    22.405546     9685.723   -1997.8301   -1390.4568   -1843.8101    460.07475    421.54092    356.18772   -3981.6791 
 9820000    274.26143   -4156.1748   -3686.1001   -4156.1748            0   -1974.0349    18.156809    24.055969    22.248989    9717.9055    -907.3514   -2733.2332   -2281.5201   -145.35831   -754.68496     426.0269   -3965.8715 
 9821000    278.85772   -4171.9134   -3693.9608   -4171.9134            0   -2330.2069    18.252325    23.838217    22.431509    9760.0139   -1827.6386    -3232.385   -1930.5971    597.84318    63.424748    -589.4945    -4025.642 
 9822000    290.82707   -4111.6597    -3613.192   -4111.6597            0   -2505.0985    18.556507    23.746812    22.352452    9849.7838   -2447.0004   -2368.0348   -2700.2603    87.518102    99.539299   -544.99206   -3973.0469 
 9823000    261.85126   -4176.7544   -3727.9503   -4176.7544            0   -2374.1511    18.395241    23.630899    22.422939     9747.164   -1811.0686    -1434.838   -3876.5469   -8.5816588   -983.92377    15.051177   -4065.4416 
 9824000    290.49761   -4193.1488   -3695.2458   -4193.1488            0   -1912.1781    18.242629    23.957984    22.301004     9746.801   -1095.9925   -2175.5488   -2464.9929   -224.40034    878.51723    67.142011   -3967.0564 
 9825000    281.16043   -4173.7529   -3691.8535   -4173.7529            0   -2803.5278    18.237379    24.013335    22.276431    9755.7467   -2796.8134   -2987.8014   -2625.9687    -595.2543    -510.6654   -72.701807   -4090.7326 
 9826000    268.82021   -4151.0725   -3690.3239   -4151.0725            0   -2620.5161     18.35971    23.740024     22.43081     9776.692    -2834.064   -1972.9471   -3054.5373   -483.70709    1040.5289    90.264407    -4063.965 
 9827000    264.59583   -4156.7951   -3703.2869   -4156.7951            0   -3245.1392    18.413678    23.873302    22.413313    9852.7869    -3947.775   -3801.4254   -1986.2172   -853.50794   -224.85666   -351.27598     -4169.59 
 9828000    291.25226   -4130.7067   -3631.5103   -4130.7067            0   -2177.8371    18.242632    23.831349    22.438918    9755.2418   -1232.4946   -2137.4564   -3163.5603   -1127.4207    289.30954    347.09578   -3941.3516 
 9829000    294.13516   -4206.7105   -3702.5729   -4206.7105            0   -952.03272    18.325943    23.500111    22.321065    9612.8276   -2116.9223   -794.57705    55.401228   -501.17003    216.69063    102.24844   -3836.0414 
 9830000    290.00909   -4135.4762   -3638.4105   -4135.4762            0   -2023.6839    18.370183    23.806669    22.297799      9751.56   -2589.1439   -2245.0802   -1236.8276   -431.30822   -319.29112    292.18291   -3926.2118 
 9831000    272.43291   -4154.1078   -3687.1671   -4154.1078            0   -2966.1982    18.076149    23.895021    22.630151    9774.6401   -2354.9122   -3447.9552   -3095.7273    171.01367   -156.84414    88.009091   -4110.0078 
 9832000    283.34505   -4195.3088   -3709.6651   -4195.3088            0   -2390.1907    18.444229    23.773188    22.227017     9746.061   -2857.8715   -2473.8417   -1838.8589   -373.63896   -63.813715    132.51751   -4049.3979 
 9833000    264.21707   -4157.4515   -3704.5925   -4157.4515            0   -3293.2365     18.44932    23.447946    22.581026    9768.5215   -3396.2831    -2549.201   -3934.2252   -84.964063   -178.93344    396.96711   -4173.7597 
 9834000    293.38455    -4140.434   -3637.5829    -4140.434            0   -2312.3177    18.389408    23.865443    22.263555    9770.8369   -3282.2731   -1299.9029    -2354.777   -411.04408     575.5017     -43.6934   -3967.0827 
 9835000    289.60369   -4184.5017   -3688.1309   -4184.5017            0    -2498.562    18.055472    23.994708    22.506205    9750.4932   -1694.4653   -2837.1064   -2964.1142    163.70064   -816.95092   -739.42855   -4043.4288 
 9836000    274.73767   -4156.0969   -3685.2059   -4156.0969            0   -2486.1403    18.361871    23.866757    22.310832    9777.4614   -1910.3746   -1648.1562     -3899.89    581.85827    253.91019    597.21547   -4039.7152 
 9837000    275.96821   -4179.8283   -3706.8282   -4179.8283            0   -3670.6691    18.558402    23.519158    22.448338    9798.2048   -3598.8087   -2772.0618   -4641.1367    328.90892     911.7891    479.18116    -4231.355 
 9838000    293.02244   -4152.1246   -3649.8942   -4152.1246            0   -2998.2167    18.328042    23.749035    22.498495    9792.9945   -2499.2049   -2098.7004   -4396.7448    753.42436    612.64252   -129.14531   -4078.1018 
 9839000    267.49263   -4172.3496   -3713.8763   -4172.3496            0   -3382.8504    18.204892    24.021527    22.448259    9816.8329   -2456.6904    -3731.843    -3960.018   -396.58018   -275.38087   -466.19717   -4198.1938 
 9840000    280.71155    -4162.078    -3680.948    -4162.078            0   -1514.3383    18.258161    23.683309    22.277177     9632.956   -1564.1455   -1494.5003   -1484.3692   -831.62932    567.51209   -156.48272   -3893.6925 
 9841000    274.32915   -4194.9145   -3724.7237   -4194.9145            0   -1866.6102     18.35237    23.689037     22.34203    9713.1973   -3492.5416   -2363.2375    255.94863   -485.67349   -778.98735    662.49021   -3989.1422 
 9842000    298.18991   -4179.0673   -3667.9801   -4179.0673            0   -2263.7079    18.212697    23.715366    22.499631    9718.0581   -1841.8074   -2337.2506   -2612.0657    274.36709   -474.00611    78.497818   -3988.8106 
 9843000    272.00998   -4175.4565   -3709.2407   -4175.4565            0   -2948.8794    18.137874    23.972458    22.462586    9766.9437    -2836.758   -3353.6385   -2656.2418    718.60343    75.287396    512.03535   -4129.2816 
 9844000     274.3617   -4166.4782   -3696.2316   -4166.4782            0    -1845.804    18.424924    23.620404    22.233872    9676.2736   -1285.7916   -2778.3772   -1473.2433   -330.56216   -26.549665   -26.038123   -3956.7088 
 9845000    275.64386   -4181.3445   -3708.9003   -4181.3445            0   -3264.9275    18.500023    23.620118    22.479503    9822.9293   -3271.7793   -2685.8464   -3837.1567   -995.53329    247.84173    748.25681   -4176.6252 
 9846000    273.62178   -4125.9008   -3656.9225   -4125.9008            0   -2206.5213    18.364425    23.802665    22.395388    9789.5228   -2999.5015   -1797.3866   -1822.6758    -579.1169   -149.26863   -549.13324   -3971.9478 
 9847000    275.25354   -4149.2852     -3677.51   -4149.2852            0   -2042.4487    18.192595    23.901094    22.306948    9699.5726   -1261.8036   -2399.5646    -2465.978   -288.91036   -349.71883    518.79824   -3966.4314 
 9848000    263.00508   -4175.8446   -3725.0629   -4175.8446            0   -2321.4115    18.433127    23.769145    22.229561    9739.6523   -3090.7608   -1719.3871   -2154.0864   -578.90075   -653.41501    461.60508   -4054.8028 
 9849000    269.42722   -4131.6097   -3669.8207   -4131.6097            0   -2738.7303    18.522951    23.504343    22.599632     9839.197   -2874.1074   -2569.4588   -2772.6248    80.397755    406.02499    149.32847   -4062.8137 
 9850000    277.92502   -4188.1666   -3711.8126   -4188.1666            0   -1951.6831    18.268967    23.842965    22.341159    9731.5038   -3059.3858   -3039.1171    243.45366   -164.79667   -13.824336   -186.40007   -3988.8033 
 9851000    269.71131   -4184.3595   -3722.0835   -4184.3595            0   -2888.5401     18.01802    24.239261    22.359526    9765.3771     -1590.88   -4089.8876   -2984.8525    387.14101   -152.79932   -255.49755   -4133.4636 
 9852000    292.64218   -4168.2838   -3666.7052   -4168.2838            0   -2715.6228    18.382179    23.718117    22.370607    9753.3763   -3702.4016   -1943.7888   -2500.6779    374.37495   -224.31896    39.947134   -4052.9835 
 9853000    277.13925   -4143.6741   -3668.6669   -4143.6741            0     -2180.94    18.472338    23.430083    22.463299    9722.3049   -3016.4364   -146.26905   -3380.1144   -772.74824    303.14995    289.35317   -3977.9021 
 9854000    277.14089   -4164.3207   -3689.3107   -4164.3207            0   -2675.0218    18.194403    24.034553    22.296999    9750.3515   -2770.1944   -2363.6696   -2891.2016    -335.4556   -237.61074    -310.9836   -4069.6958 
 9855000    279.43356   -4133.2359   -3654.2963   -4133.2359            0    -1613.126    18.116818    23.806038    22.382303    9653.2558   -3436.9495    1567.8168   -2970.2454   -441.50956   -25.291123    276.13058   -3881.3968 
 9856000    266.88044   -4178.6023   -3721.1784   -4178.6023            0   -2747.8592    18.436019    23.662605     22.33372    9742.9565    -3410.056   -2239.1376   -2594.3841   -657.35492   -26.931742    238.07472   -4111.6245 
 9857000    268.50555   -4166.3088   -3706.0995   -4166.3088            0   -2030.2163     18.55949    23.431688    22.372654    9729.4236    -3230.833   -1983.4105    -876.4055   -549.54195   -814.56225   -135.40778   -3994.1743 
 9858000    271.88483   -4150.2555   -3684.2542   -4150.2555            0   -2063.8666    18.221683    23.829331    22.505841    9772.2726   -1070.6116   -3011.0517   -2109.9366    278.12194   -68.205025    651.88108   -3978.3936 
 9859000    280.92158   -4181.6377   -3700.1477   -4181.6377            0   -2526.3502    18.135106    24.237038    22.109893    9718.2096   -3247.1701    -3489.747   -842.13356     215.9935    864.22619    272.85787   -4058.2076 
 9860000    265.28116   -4145.2807   -3690.5979   -4145.2807            0   -3918.3577    18.357503    23.819842    22.463435    9822.6498   -3342.3778   -4293.6179   -4119.0774   -308.43637    712.64839   -102.45849   -4251.9155 
 9861000    288.05199   -4157.5932    -3663.882   -4157.5932            0   -3137.7836    18.412323    23.747014    22.501227    9838.3844   -4686.1477    -2600.076   -2127.1272    467.35667   -243.08618    505.30209   -4114.0998 
 9862000    273.83771   -4153.7634   -3684.4149   -4153.7634            0   -2368.4594    18.309456    24.174811     21.99531    9735.7323   -2407.0806   -4126.0713   -572.22636   -579.28892   -171.38045    230.89197   -4020.7022 
 9863000    267.81756   -4156.2561    -3697.226   -4156.2561            0    -2722.614    18.259633     23.72494    22.540669     9764.814   -3094.2846   -1815.4756    -3258.082   -1116.5686   -287.02261    90.793662   -4084.9529 
 9864000     297.7877    -4150.711   -3640.3131    -4150.711            0   -3044.3192    18.524098    23.823885    22.315361    9848.1256   -4269.6911   -2804.5892   -2058.6773   -1376.6271   -189.77113   -116.86947   -4077.5529 
 9865000    296.47514    -4157.393   -3649.2447    -4157.393            0   -3675.9427    18.363076      23.7063    22.699823    9881.7006   -3996.0056   -2056.0189   -4975.8038   -187.47746   -487.06865    745.94722   -4179.0013 
 9866000     267.1207   -4157.9732   -3700.1374   -4157.9732            0   -2858.9981    18.324215     23.97389    22.363331    9824.2718   -2434.9445   -3314.2883   -2827.7615   -101.92699    295.16482    289.14112   -4109.7659 
 9867000     269.0244   -4184.9259   -3723.8273   -4184.9259            0   -1871.7267    18.311462      23.5891    22.558641    9744.2259    -1583.004   -1875.7543   -2156.4218      16.3534   -155.84663   -79.821309   -3989.8175 
 9868000    272.25169   -4184.5999   -3717.9699   -4184.5999            0   -1054.4624    18.382272    23.606244    22.191919     9629.881   -291.26558   -2022.1512   -849.97034   -109.13763    530.13152   -370.49028   -3866.0606 
 9869000    275.14211   -4146.4188   -3674.8346   -4146.4188            0   -1876.5099    18.280379    23.788687    22.407295    9744.1758   -1363.5873   -2313.6101   -1952.3322    296.00809    590.90933    736.82701   -3941.5032 
 9870000    273.12542   -4171.8242   -3703.6966   -4171.8242            0   -2289.1508    18.125076    23.997622    22.463776    9770.8154   -2936.2726   -1826.0288   -2105.1509   -19.302843    802.71904   -889.81699   -4029.8945 
 9871000     284.0834   -4194.5047   -3707.5955   -4194.5047            0    -1487.275    18.364616    23.624465    22.337518    9691.2266   -2220.5673   -1361.1322   -880.12549    -627.1829    610.12705   -512.87072   -3917.8018 
 9872000    299.67984   -4173.6666   -3660.0256   -4173.6666            0   -2389.0471    18.364689    23.699484    22.474168    9781.5142   -1537.4468   -2295.4989   -3334.1955    830.59376   -121.83323   -537.98999   -4000.8311 
 9873000    270.42257    -4182.035     -3718.54    -4182.035            0   -3495.5803    18.005144    24.295212    22.450518    9820.7272   -2552.6744   -5064.1526    -2869.914    214.63909   -366.46447    72.143533   -4219.1953 
 9874000    294.66842   -4173.8566    -3668.805   -4173.8566            0   -1902.4122    18.256962     23.89585    22.358742    9754.3506   -2049.9488   -1821.2388    -1836.049   -1256.4169   -342.86924    614.99455   -3939.4368 
 9875000    276.36187   -4119.4499   -3645.7751   -4119.4499            0   -2224.5237    18.644743    23.472693    22.295326    9757.3783   -3786.6492   -256.56203   -2630.3597    1058.9798   -40.819809   -300.71475   -3962.3278 
 9876000    287.28742   -4180.9273   -3688.5265   -4180.9273            0    -1997.562    18.346416    23.604042    22.419621    9708.8073   -1391.4906   -1883.2794    -2717.916    540.52307    -541.6218    367.02321   -3971.3673 
 9877000    277.03567   -4152.7676    -3677.938   -4152.7676            0    -2573.077    18.112629     24.15113    22.368348    9784.8206   -1472.1325   -2952.4227   -3294.6757     64.99974   -146.60074    62.842603   -4045.1201 
 9878000    267.39081   -4135.0973   -3676.7986   -4135.0973            0   -3051.0257    18.285965    23.917557    22.479068    9831.3463   -3464.3333   -1735.2387    -3953.505    498.47317    400.07884   -19.217628   -4114.2549 
 9879000    293.80568   -4159.4338    -3655.861   -4159.4338            0   -2093.7409    18.464243    23.545797     22.37669    9728.3849   -2004.5066   -2916.2918   -1360.4243    -160.0315   -77.427403    -574.9025   -3952.9178 
 9880000    267.56961   -4185.7057   -3727.1005   -4185.7057            0   -1146.9813    18.322577    23.688548    22.327492    9690.9184   -113.98597   -1391.7125   -1935.2454    459.84308    -18.84704    107.99694   -3889.2058 
 9881000    269.67792   -4191.8098   -3729.5911   -4191.8098            0   -2047.9611    18.129113    23.927732    22.365842    9702.0466   -958.76875   -2383.8553   -2801.2592   -190.26278    326.02903   -315.12804   -4019.3661 
 9882000    275.53694   -4112.7598   -3640.4989   -4112.7598            0   -3912.0043    18.216975    24.096178    22.493627    9873.7905   -3266.6257   -5181.0804   -3288.3068    99.085879   -464.48144   -193.50637    -4203.824 
 9883000    270.38814   -4156.3961   -3692.9601   -4156.3961            0   -2540.1091    18.360357    23.692525    22.554878    9811.4442    -3267.084   -2216.5012   -2136.7423    940.83766     369.2823   -234.53738    -4056.424 
 9884000    271.27323   -4182.4432   -3717.4902   -4182.4432            0   -3067.3048    18.466727     23.70075    22.332376    9774.3291   -3435.4741    -2843.056   -2923.3844     480.4613    -14.51904    785.12764   -4154.7301 
 9885000    271.24465   -4194.5188   -3729.6147   -4194.5188            0   -2659.8053    18.126124    23.876492    22.569537    9767.8307   -2538.7863    -2729.502   -2711.1277    579.20572   -649.55264    89.435697   -4108.5141 
 9886000    265.66383   -4135.4882   -3680.1494   -4135.4882            0   -2597.4279    18.258814    24.022023    22.297612    9780.0371   -2705.2754   -3901.9595   -1185.0488    213.04717    52.471266   -669.70688   -4050.6253 
 9887000    270.76239   -4181.4314    -3717.354   -4181.4314            0   -2601.2453    18.444234     23.54845    22.443687    9748.0364   -3238.2892   -2916.5849   -1648.8617   -533.52433    278.97466   -331.59122   -4087.1603 
 9888000    276.23103   -4161.5062   -3688.0557   -4161.5062            0   -1182.4515    18.366363    23.579687     22.38491     9694.302   -1252.0114   -1094.5588   -1200.7843   -1441.9806    136.76139   -657.57388   -3855.2324 
 9889000    260.39769   -4189.1154   -3742.8027   -4189.1154            0   -1873.3467    18.183494    23.948183    22.279619    9701.9195   -2865.2621    -3340.238     585.4598    -396.2976    47.255976   -745.87632   -4007.8673 
 9890000    271.02216   -4151.9489   -3687.4262   -4151.9489            0   -2176.9321    18.189979    23.764497    22.614578    9775.7326   -296.46382   -2573.9209   -3660.4115   -593.71371    249.17728      48.6495   -3997.7893 
 9891000     262.3909   -4172.5439   -3722.8149   -4172.5439            0   -2489.3637    18.456741    23.793394    22.216347    9756.2753   -2976.1735   -2330.2523   -2161.6654   -179.42505   -109.30096    590.81764   -4077.0147 
 9892000    270.43454   -4164.2551   -3700.7396   -4164.2551            0      -2727.7      18.3525    23.564548    22.669202    9803.7127   -2623.2247   -3099.9462   -2459.9292    495.18347    -897.8615   -703.96163   -4090.7382 
 9893000    269.19798   -4165.1191    -3703.723   -4165.1191            0   -2707.2138    18.269948     24.01213    22.344404    9802.4984   -1543.3487   -4293.1887    -2285.104    442.96354   -386.24576    212.65364   -4090.7446 
 9894000    272.74308   -4162.9333    -3695.461   -4162.9333            0    -2508.573     18.19813     23.90992    22.479817     9781.324    -1027.655   -2029.6964   -4468.3676   -370.68904    354.41633   -786.26627   -4053.3103 
 9895000    283.22805    -4148.823   -3663.3798    -4148.823            0   -2140.5315    18.499239    23.630278     22.40125    9792.5309   -3278.1222   -1657.2036   -1486.2687    614.36591    -389.9335    491.38473   -3969.0777 
 9896000     284.9138   -4193.9856   -3705.6531   -4193.9856            0   -3658.7613    18.428986    23.678219    22.468778    9804.6009    -4785.687   -3142.7774   -3047.8196   -848.64348    671.20905    965.89724   -4228.8195 
 9897000    279.48324   -4201.8338   -3722.8091   -4201.8338            0   -1931.2747    18.257761    24.093839    22.192654    9762.5386    -1410.736   -4011.5775   -371.51057    495.30167    443.36688    709.21008   -3997.7775 
 9898000    273.69292   -4201.7343    -3732.634   -4201.7343            0   -2545.3753     18.19718    23.777915    22.492445    9732.2785   -1521.4197   -2433.8033   -3680.9027   -66.307459    392.67504    209.85378   -4093.9126 
 9899000    289.93408   -4135.6155   -3638.6784   -4135.6155            0   -3531.9636    18.724506    23.543879    22.408756    9878.8441   -4715.8815   -3681.5173   -2198.4921      516.497   -271.04228   -486.58371   -4147.5383 
 9900000    279.06821   -4179.3319   -3701.0186   -4179.3319            0    -1515.039    18.360486     23.68786    22.360939    9725.2335    -1280.854   -1582.2032   -1682.0596   -794.25408   -510.06785    345.12118   -3915.9004 
 9901000    272.52662   -4127.6515   -3660.5502   -4127.6515            0   -2306.9315     18.12825    23.956018     22.57472    9803.7648   -1020.1145   -1356.2576   -4544.4224    12.120288   -201.81606   -670.51535   -3990.3903 
 9902000    273.83573   -4189.3246   -3719.9796   -4189.3246            0   -2414.7097    18.277798     23.87992    22.349723    9755.0363   -1987.2128   -2824.5083   -2432.4079   -66.944359   -219.52734   -453.08912   -4063.5135 
 9903000     278.6615   -4163.1525   -3685.5362   -4163.1525            0   -2131.1547    18.496478    23.406178    22.337367    9670.5579   -2958.9228   -1469.7667   -1964.7745    72.870772    556.83602     126.3491    -3986.104 
 9904000    276.34843   -4198.2424   -3724.5906   -4198.2424            0   -2167.2636    18.473591    23.702879    22.262335    9748.1708    -2960.625    -1706.941   -1834.2248    324.14559   -336.49785   -309.70587   -4032.7042 
 9905000     262.6146   -4139.1049   -3688.9925   -4139.1049            0   -3883.1428    18.031769    23.994012    22.848387    9885.4569   -3143.5918   -3125.4425   -5380.3941    1245.4535   -78.328586   -392.04254   -4248.8223 
 9906000    274.56464   -4208.4937   -3737.8993   -4208.4937            0   -2907.2275    18.319023    23.990026    22.266047    9785.3454   -3881.4771   -3886.7799    -953.4257    27.560825   -215.52907    10.058925   -4152.7875 
 9907000    275.16083   -4169.1571   -3697.5408   -4169.1571            0   -2819.8087    18.386776    23.706182    22.388594    9758.7459   -3630.2989   -2496.6765   -2332.4508   0.86359484   -428.79811    453.52341   -4098.8597 
 9908000    283.29104   -4198.3037   -3712.7525   -4198.3037            0   -2075.3764    18.404609    23.482837    22.308924    9641.7483   -2558.3969   -2485.2115   -1182.5208    600.73199   -1154.5537   -1016.9894   -4004.5816 
 9909000    256.24588   -4138.4558   -3699.2592   -4138.4558            0   -1467.9589     18.22273    23.754186    22.331476    9666.5395   -363.47168   -1973.4393   -2066.9658     370.4929    361.45236     132.2748    -3906.207 
 9910000    293.74733   -4158.5941   -3655.1212   -4158.5941            0   -942.35945    18.036803    24.021585    22.232585    9632.7694   -628.78978   -1586.2318   -612.05677    -1275.963    538.74186   -686.70529   -3787.5077 
 9911000    270.23844   -4199.6556   -3736.4761   -4199.6556            0   -1983.0555    18.292512    23.630498    22.340945    9657.1229   -1925.1484   -1227.0976   -2796.9204   -334.05569   -118.45108   -1.7018972   -4015.7681 
 9912000    275.06125    -4175.477   -3704.0314    -4175.477            0   -1639.9208    18.341688    23.752426    22.304898    9717.3426   -1027.6067   -2123.1586   -1768.9973   -45.722362      518.245    106.90514   -3936.4368 
 9913000    274.69959   -4163.0172   -3692.1915   -4163.0172            0   -1877.7725    18.302695    23.733052    22.259397    9669.0099   -2817.8385   -403.63027   -2411.8486    290.18557   -1134.6943   -23.726004   -3956.9811 
 9914000    271.26772   -4173.9974   -3709.0538   -4173.9974            0    -1881.849    18.253044    23.622075    22.494408    9699.0216   -2523.8206   -2552.2639   -569.46254   -1116.0395   -300.15524    594.63695   -3975.2419 
 9915000    289.54804    -4189.667   -3693.3916    -4189.667            0   -2664.8498    18.463948    23.939274    22.087845     9763.126   -2806.1997   -3088.8173   -2099.5325   -428.22577    -489.5531    616.42684   -4072.8267 
 9916000    289.29252   -4166.5322   -3670.6947   -4166.5322            0   -2790.3754    18.211936    23.731281    22.724393     9821.314   -2797.7607   -2230.5638   -3342.8018    432.69093   -597.33955    379.13618   -4070.3708 
 9917000    262.35792   -4174.7325   -3725.0599   -4174.7325            0   -2654.5884    18.471756    23.908867     22.17786    9794.6027   -3748.4494    -2245.023   -1970.2928   -320.05233    -774.7707   -270.59938   -4104.2526 
 9918000     283.9421   -4135.0695   -3648.4024   -4135.0695            0   -2314.8432    18.320816    23.588387    22.551703      9745.91   -2114.2171   -2323.9039   -2506.4085    1833.1241   -695.76251   -162.08485   -3977.4206 
 9919000    287.83693   -4137.2292   -3643.8866   -4137.2292            0   -2923.1125     18.37485    23.994204    22.250411    9809.9812   -2029.9509   -4577.7125    -2161.674    768.74313    -970.4339    359.78662   -4062.0919 
 9920000     283.6641   -4165.1873   -3678.9967   -4165.1873            0   -2295.7124    18.242074    23.939885    22.463775    9810.2259   -1964.8317   -1723.3451   -3198.9604    21.246855   -75.565595   -302.44395    -4007.449 
 9921000    276.31329   -4162.5303   -3688.9387   -4162.5303            0   -2714.4606    18.251405    23.683327     22.64573    9788.7073   -2807.6955     -2179.74   -3155.9462    226.85512   -611.75512    539.70686   -4076.4504 
 9922000    284.81156   -4185.4504   -3697.2931   -4185.4504            0   -3293.4106    18.426928    23.975897    22.131331    9777.6693    -3785.468   -2864.1472   -3230.6165    438.32067   -337.92976   -213.56133   -4166.9245 
 9923000    275.78693   -4173.0699   -3700.3805   -4173.0699            0   -2092.9438    18.272156     23.53989    22.607318    9723.9623   -1181.6755   -2945.5646   -2151.5913    1095.4677    32.351931   -3.7826123   -3997.1893 
 9924000     266.3541   -4163.7707   -3707.2489   -4163.7707            0   -1618.3623     18.34872    23.849189    22.148709    9692.3215   -2688.6453    -1987.349   -179.09263   -950.00418    219.75324    304.12625   -3936.0086 
 9925000    281.07721   -4163.8224   -3682.0657   -4163.8224            0   -1432.0507    18.126206    23.715743    22.437062    9645.1643   -2527.6301   -645.70552   -1122.8165     1094.418    237.27097   -193.40842   -3883.5049 
 9926000    276.13177   -4182.3219   -3709.0415   -4182.3219            0   -2479.7104    18.378948    23.808773    22.329361    9770.8862   -1657.8969   -1524.5384    -4256.696    412.37306   -721.98017    297.83659   -4062.3962 
 9927000    278.69421   -4132.8157   -3655.1433   -4132.8157            0   -3611.4633    18.428872    23.815615    22.470555    9862.2122   -3660.7692   -3687.6744   -3485.9463   -72.723088    -306.8188    661.92244    -4174.581 
 9928000    278.76845   -4131.4245   -3653.6249   -4131.4245            0   -3192.6119    18.267123    23.848431     22.69679    9887.6801   -1906.4096   -4236.2834   -3435.1428   -777.61506    629.30061    90.409644   -4114.0049 
 9929000    278.10006     -4154.85   -3678.1961     -4154.85            0   -2894.4991    18.488549    23.933737    22.220711    9832.6662   -1865.9139   -3313.3107   -3504.2727     172.6793    159.26834    223.18787   -4093.2653 
 9930000    274.30169   -4166.8335   -3696.6898   -4166.8335            0   -3688.6624    18.309124    23.604563    22.681032    9802.2628   -2105.5093   -2898.0042   -6062.4736   -231.04241   -899.11439   -972.76593   -4224.0061 
 9931000     283.7765   -4167.1976   -3680.8143   -4167.1976            0   -1962.2832    18.267556    23.957862    22.296989    9758.3127   -2877.8167   -2758.3306   -250.70252    285.39559   -267.30263    160.06883   -3960.0766 
 9932000    300.28639   -4165.0919   -3650.4113   -4165.0919            0    -305.3848    18.249704    23.750931    22.293044    9662.8633    -1203.983    86.086035    201.74252    219.59548    526.60347   -345.90293    -3693.447 
 9933000    274.84735   -4190.7622   -3719.6833   -4190.7622            0   -459.90928     18.29266    23.667303    22.176453    9601.0278   -1856.1275   -720.75341    1197.1531   -444.52067   -101.44273    417.42921   -3784.0803 
 9934000     272.8147    -4182.788   -3715.1929    -4182.788            0   -2202.3526      18.3167    23.673053     22.44422    9732.0874   -1864.5358   -1501.9778   -3240.5442   -476.45159   -1264.8979     504.6167   -4027.7784 
 9935000    274.61062   -4142.6402    -3671.967   -4142.6402            0    -3627.087    18.299356    23.937699    22.450452    9834.2967   -4721.8737   -2835.6226   -3323.7648   -222.09276    271.90905    -244.7974   -4192.1752 
 9936000    293.64574   -4167.5257   -3664.2269   -4167.5257            0    -1879.195    18.315768    23.869259    22.274994    9738.2667   -2893.6194   -2552.9696   -190.99613    525.89414   -299.20322   -357.58498   -3931.1151 
 9937000    281.00343   -4188.8527   -3707.2225   -4188.8527            0   -2733.1266    18.371175    23.523051     22.44388    9699.0351   -3694.8672   -1954.7451   -2549.7676    195.92545    -243.3613   -10.943542   -4093.8245 
 9938000    298.39366   -4168.9414   -3657.5048   -4168.9414            0   -2401.5665    18.365593    23.850249    22.249279    9745.7176   -3463.4105   -1719.7064   -2021.5828    565.14311   -730.98474    209.50583   -3998.8426 
 9939000    266.41237   -4176.5128   -3719.8911   -4176.5128            0   -3129.0681      18.0423    24.013732    22.376696    9694.9937   -3043.7174   -4041.2753   -2302.2116   -225.85671   -349.40666     127.9692   -4162.3149 
 9940000    294.21929   -4147.7942   -3643.5124   -4147.7942            0     -1405.88     18.26084    23.752865    22.300422    9672.7471    -1800.496    -1429.384   -987.76018    178.59558     731.1078    581.73446   -3841.8358 
 9941000    282.78273   -4167.1974   -3682.5175   -4167.1974            0   -2614.0999    18.331602    23.640015    22.372837    9695.4781   -1945.4459   -2622.6055   -3274.2482   -460.56426   -152.46378   -250.22094   -4052.1476 
 9942000    286.85891   -4172.8431   -3681.1768   -4172.8431            0   -1665.0076    18.210935    23.635233    22.409527    9645.5015   -1971.5549   -616.48824   -2406.9795    -201.8851   -771.57164    244.55329    -3915.393 
 9943000    274.24419   -4152.3428   -3682.2976   -4152.3428            0   -2443.6098     18.27093    23.954243    22.261916    9743.2904   -2022.1924   -1445.6618   -3862.9754   -131.95691    -91.90224    629.85531   -4029.5246 
 9944000    285.21185   -4151.2248   -3662.3814   -4151.2248            0   -1849.9547     18.25875    23.417541     22.63437    9677.8912   -2062.1853   -1832.6593   -1655.0194    19.075124    267.04305    156.91405    -3923.488 
 9945000    268.82125   -4156.7064    -3695.956   -4156.7064            0   -1710.4603    18.432715    23.681812    22.221163    9699.9835   -2257.2148   -3084.5782    210.41213    805.01867    420.80797    254.93828    -3937.925 
 9946000    273.85713   -4144.8552   -3675.4735   -4144.8552            0   -3379.8591    18.258829    23.806052    22.644363    9842.8395   -2528.8859    -4640.323   -2970.3683   -496.69643   -497.14481   -259.89809   -4160.6445 
 9947000    287.06916   -4169.4596   -3677.4328   -4169.4596            0   -3021.1706    18.273159    24.071947    22.329012    9821.8741   -2875.6027   -3895.4705   -2292.4387   -558.81455    2.5261534     189.4008   -4110.1912 
 9948000    297.03193    -4175.642   -3666.5394    -4175.642            0   -3614.1609     18.44555    23.831987    22.412981    9852.6144   -5110.4673   -3614.5857   -2117.4296   -221.72812    98.039076   -515.91787   -4185.8592 
 9949000    281.63491   -4142.5606    -3659.848   -4142.5606            0   -2248.6027    18.502691    23.585699    22.368321    9761.5112   -1680.7192   -1331.2393   -3733.8495   -1118.8607    303.33855   -305.99752   -3979.9628 
 9950000    284.18291   -4172.7048    -3685.625   -4172.7048            0   -2649.2378    18.472318    23.590399    22.364944    9745.9569    -2368.081   -2959.8867   -2619.7458    487.76374   -586.63254   -8.7978969   -4062.1738 
 9951000    263.41122   -4127.0841   -3675.6063   -4127.0841            0   -2652.3753    18.119629    24.042386    22.403539    9759.8579   -2835.9522   -2999.5411   -2121.6325   -395.42708    43.835825    530.40531   -4053.1388 
 9952000    285.47241   -4146.7318   -3657.4418   -4146.7318            0   -3184.0168     18.29573    24.015354    22.333626    9812.9137   -3393.7093   -3292.4724   -2865.8686   -213.23363    10.156211   -315.75051   -4113.1106 
 9953000    256.10386   -4149.6662   -3710.7129   -4149.6662            0   -2347.3042    18.438022    23.623839    22.338336    9730.0623   -3818.8547   -1954.5414   -1268.5164   -1096.4377   -174.69056    253.70463   -4043.8024 
 9954000    258.02269   -4148.1758   -3705.9337   -4148.1758            0   -1177.3357    18.189926    23.582796    22.464434    9636.5529   -1390.3346   -1075.8805   -1065.7921   -491.55903   -225.34587    -282.4708   -3871.3956 
 9955000    273.50045    -4190.675   -3721.9046    -4190.675            0   -2238.7269    18.256585    23.904138     22.28176    9723.9367   -2087.7218    -2090.237   -2538.2217   -700.52162   -468.38956    420.22807   -4039.3866 
 9956000     267.3719   -4170.1381   -3711.8718   -4170.1381            0   -2118.0247    18.113062    23.860699    22.613726    9773.4336    113.33047   -2351.9104   -4115.4942   -624.05138    555.61361    6.3177922   -4013.7655 
 9957000    267.77962    -4160.383   -3701.4179    -4160.383            0   -2245.8639    18.499657    23.710986      22.2232    9748.0977   -1664.9375   -2414.3626   -2658.2914    650.21136    400.95503    522.97978   -4020.7034 
 9958000    283.45055   -4145.9632   -3660.1387   -4145.9632            0   -2435.1125    18.552897     23.31738    22.614307    9783.0606   -2389.9757   -1384.4767   -3530.8849   -195.84806     530.6257   -368.24955   -4007.5705 
 9959000    283.25514   -4180.4539   -3694.9643   -4180.4539            0   -1507.5454     18.21024    23.860946    22.242375    9664.6132   -574.62179   -2017.4009   -1930.6136   -78.432222    190.65084   -243.27325   -3907.4505 
 9960000    287.62436     -4156.52   -3663.5417     -4156.52            0   -1711.8437      18.1037    24.068362    22.301717    9717.4468   -375.77561   -2239.1402   -2520.6154    432.12386   -392.48933    428.21108   -3906.1425 
 9961000    277.87279   -4189.7082   -3713.4438   -4189.7082            0   -1759.3082    18.337769    23.663556    22.362178    9703.7726   -1395.2348   -1658.6614   -2224.0285    134.72027    112.34714    867.56971   -3962.4203 
 9962000    286.72801   -4177.5355   -3686.0935   -4177.5355            0   -2277.9092    18.546867    23.428926    22.211991     9651.847    -4014.311   -2093.3527    -726.0639    283.83317    448.53867    474.45574   -4006.7372 
 9963000     296.5631   -4176.4174   -3668.1184   -4176.4174            0   -2249.8901    18.135781    23.858362    22.400634    9692.5306   -443.87068   -3496.4661   -2809.3336    532.66183   -38.614337    174.70038    -3986.153 
 9964000    281.12688   -4185.8209   -3703.9791   -4185.8209            0    -2743.472    18.286045    23.960879     22.35467     9794.692   -2153.5317   -3017.6087   -3059.2757   -396.19171   -234.29834    280.96271   -4095.8718 
 9965000    269.49943    -4220.023   -3758.1102    -4220.023            0   -3123.5839     18.34168    23.766035    22.248917    9698.5032    -2978.646     -2405.01   -3987.0958   -530.49863    242.92559    577.42047   -4199.9184 
 9966000    265.48046    -4161.575   -3706.5505    -4161.575            0   -2943.4335     18.44012    23.478676    22.543859    9760.3549   -3067.2744   -2547.0831    -3215.943    634.37554   -48.213284   -482.21587   -4125.5329 
 9967000    250.75325   -4148.2403   -3718.4578   -4148.2403            0   -2977.1834     18.32934    23.910115    22.287965    9767.8485   -3570.8987   -2132.0089   -3228.6425    1091.9257   -341.41792   -490.33081   -4142.5696 
 9968000    287.03654   -4168.5208     -3676.55   -4168.5208            0   -2861.7166    18.078273    23.959282    22.578287    9779.6143   -2316.7589   -2706.8309   -3561.5598   -364.55182    740.58785    113.88724   -4084.7041 
 9969000    279.04434   -4149.1885   -3670.9161   -4149.1885            0   -1948.2821    18.364776    23.794019    22.353996    9768.0662   -1985.1142   -1717.3056   -2142.4265    203.63455   -47.564527    19.461121   -3948.4629 
 9970000    277.07341   -4195.4791   -3720.5848   -4195.4791            0   -979.23067    18.372497    23.416342    22.363857    9621.3039   -2956.2774    778.02167   -759.43632   -263.15642   -418.76743   -328.89656   -3857.9874 
 9971000    291.07493   -4197.6612   -3698.7688   -4197.6612            0   -1799.7336    18.333808       23.646    22.285964    9661.4385   -683.24448   -1700.5747   -3015.3818   -1000.1473   -464.93753    69.947022   -3952.3551 
 9972000    279.61797   -4197.3726    -3718.117   -4197.3726            0   -1259.8069    18.242242    23.696386    22.329697    9652.5744    -1177.773   -1590.7613   -1010.8866    861.27839   -636.45262    1040.0798   -3895.4637 
 9973000    276.73314   -4178.3837   -3704.0726   -4178.3837            0   -3048.4721    18.280607    23.979109    22.263929    9759.4526    -4065.241   -2797.3293   -2282.8459   -549.92196   -719.40528    730.66381   -4137.9665 
 9974000      273.994   -4156.9898   -3687.3734   -4156.9898            0   -3123.7767    18.304941     23.69547    22.600135    9802.6771   -5069.9408   -1753.1886   -2548.2007    374.80818    220.53555    44.983618   -4133.9548 
 9975000    283.84088   -4193.1063   -3706.6127   -4193.1063            0   -2913.7294     18.54236    23.702983    22.211576    9762.1928   -2817.6779   -3628.4627   -2295.0475    292.14978   -266.35375   -954.98749   -4121.4449 
 9976000    288.15537   -4173.4378   -3679.5494   -4173.4378            0   -2942.6982     18.33149    23.875223    22.438434    9820.5937     -3338.71   -1613.2729   -3876.1118   -34.006446   -145.17959   -534.09242   -4101.0123 
 9977000    298.03626   -4123.5334   -3612.7094   -4123.5334            0    -2640.226    18.225931    24.021481    22.439245    9824.2125    -2781.218   -2390.8167   -2748.6434   -23.079715    535.97686   -231.24306   -3990.9906 
 9978000    282.94571   -4151.1863    -3666.227   -4151.1863            0   -1327.4183    18.308898    23.808463     22.22248    9686.9281   -788.97419    -1987.593   -1205.6875    252.65664    58.650429    325.39208   -3853.7566 
 9979000    276.15824   -4148.4654   -3675.1396   -4148.4654            0   -2362.0048    18.266377    23.739032    22.480237    9748.0177   -1887.5018     -3378.53   -1819.9826    -256.4928    220.26122   -364.30185   -4010.9337 
 9980000    279.68807   -4126.0299   -3646.6541   -4126.0299            0    -3196.514    18.585889    23.906158     22.26524    9892.8292   -3525.5521   -3807.4937   -2256.4963    521.39456    -9.799865   -59.574131   -4107.8369 
 9981000    294.95406   -4173.5309   -3667.9897   -4173.5309            0   -3237.7149    18.387386    23.828416    22.409542     9818.568   -3022.0157    -3626.577   -3064.5521    101.98285    424.73331     -278.439   -4131.6102 
 9982000     274.2943   -4147.5486   -3677.4176   -4147.5486            0   -2959.2658    18.216727    23.995186    22.516364    9842.2123   -2960.2003   -3721.4963   -2196.1007   -254.79469    205.19511    -408.2035   -4102.1864 
 9983000    275.29151   -4175.3087   -3703.4684   -4175.3087            0   -2331.2814    18.177996    23.984417     22.39968    9766.0063   -1121.2029    -3708.068   -2164.5734   -886.00628    281.24801   -32.607214   -4035.5063 
 9984000    277.54645   -4130.1511    -3654.446   -4130.1511            0    -3316.212    18.651379    23.563609    22.465971    9873.6546   -5403.4696   -1290.8339   -3254.3324   -981.61398    608.14854    79.636428    -4131.971 
 9985000     272.1031   -4175.8749   -3709.4995   -4175.8749            0   -2549.3911    18.478754    23.648524    22.354278    9768.7129   -3378.7849   -3216.9737   -1052.4149   -1155.1229    182.01545    415.13283   -4072.7027 
 9986000    280.66163    -4170.231   -3689.1866    -4170.231            0   -2794.8379    18.392019    23.830759    22.283721    9766.8607   -4064.5174   -1187.8156   -3132.1809   -990.91002   -768.86508     391.2014   -4087.2823 
 9987000    286.59293   -4181.3471   -3690.1366   -4181.3471            0   -1672.3267    18.099711    23.798046    22.508825    9695.4006   -1877.7705   -2198.8363    -940.3733    -87.13087   -600.66794    303.99013   -3926.5994 
 9988000    283.96681   -4151.9023   -3665.1929   -4151.9023            0   -1528.7005    18.366564    23.964497    22.156559     9752.109   -2079.6318   -1135.1443   -1371.3254    30.206218   -408.57036    215.70276   -3882.6116 
 9989000    273.29563   -4156.7251   -3688.3057   -4156.7251            0   -2254.3277    18.403575     23.50144    22.524911    9742.2609   -1855.4183   -2712.6037   -2194.9612    86.551942   -157.86814   -365.95448   -4008.6026 
 9990000    277.74629   -4162.8336    -3686.786   -4162.8336            0   -3046.7423    18.372142    23.887098    22.399182    9830.0411   -2887.6913   -3436.9461   -2815.5894    -148.7519   -178.00413   -41.538024   -4123.5702 
 9991000    269.72848   -4173.6439   -3711.3385   -4173.6439            0   -3011.7561    18.304904    23.982627    22.410357    9838.1394   -3677.2478   -3429.9462   -1928.0744    485.61121    -604.9039    353.09067   -4143.4628 
 9992000    283.38048   -4166.0467   -3680.3423   -4166.0467            0   -2948.2263    18.277404    23.746562    22.692437    9849.0965   -1903.9506   -2900.9749   -4039.7532   -99.683494   -347.82639    338.08402   -4103.8224 
 9993000    283.17498   -4149.8295   -3664.4772   -4149.8295            0   -1425.4343    18.549769    23.653555    22.050804    9675.1868   -3004.8967   -539.99782   -731.40841    82.100226   -428.62568     604.6038   -3865.6098 
 9994000    282.39493   -4156.8109   -3672.7957   -4156.8109            0   -3280.7436    18.361754    23.702907    22.497768    9791.6347   -3842.6274   -3103.8494   -2895.7542   -506.48672   -118.96782    389.38691    -4141.289 
 9995000    294.63143   -4157.5295   -3652.5413   -4157.5295            0   -2972.2084    18.379653    23.918121    22.330379    9816.5856   -3314.5204   -2232.9587   -3369.1463    369.46825    117.93344    351.76146    -4078.057 
 9996000    266.99641    -4142.342   -3684.7193    -4142.342            0   -3420.5179    18.295177    24.077416    22.297659    9822.1322   -2891.2807   -4142.8524   -3227.4207   -265.68491   -143.55946   -79.254342   -4174.6939 
 9997000    258.67152   -4124.8592   -3681.5051   -4124.8592            0   -3016.6455    18.245247    23.788441    22.647295    9829.5142   -1789.3262   -2599.8178   -4660.7923   -769.62931   -197.30823    496.45973   -4113.9514 
 9998000    286.11416   -4146.6869    -3656.297   -4146.6869            0   -2102.8619    18.431131    23.869884    22.259295    9792.9533   -2566.8175   -2159.5143   -1582.2539   -1586.3236    37.574987    760.93856   -3956.6281 
 9999000    272.31723   -4181.3615    -3714.619   -4181.3615            0    -1939.865    18.282905    23.640171     22.59905    9767.5581    -730.4571   -2532.9437   -2556.1941   -311.67053   -609.23226   -752.26956   -3990.9524 
10000000    292.64252   -4145.7943   -3644.2151   -4145.7943            0   -2338.2743    18.365209    23.770875    22.488552    9817.5363     -2328.19   -1970.0808   -2716.5522   -1593.7775    455.03546    20.226418   -3979.0062 
Loop time of 467.962 on 64 procs for 250000 steps with 864 atoms

Performance: 92.315 ns/day, 0.260 hours/ns, 534.232 timesteps/s
377.3% CPU use with 16 MPI tasks x 4 OpenMP threads

MPI task timing breakdown:
Section |  min time  |  avg time  |  max time  |%varavg| %total
---------------------------------------------------------------
Pair    | 24.642     | 27.107     | 30.166     |  34.9 |  5.79
Bond    | 1.6814     | 1.9017     | 2.3712     |  12.4 |  0.41
Kspace  | 250.98     | 255.75     | 262.23     |  21.6 | 54.65
Neigh   | 1.8529     | 2.1179     | 2.4312     |  12.2 |  0.45
Comm    | 68.102     | 75.031     | 84.133     |  46.6 | 16.03
Output  | 0.68169    | 0.68209    | 0.68349    |   0.0 |  0.15
Modify  | 73.198     | 80.705     | 86.869     |  53.5 | 17.25
Other   |            | 24.67      |            |       |  5.27

Nlocal:        54.0000 ave          62 max          44 min
Histogram: 1 3 2 0 1 1 1 2 1 4
Nghost:        2432.81 ave        2472 max        2390 min
Histogram: 2 1 0 2 3 1 2 1 2 2
Neighs:        12426.5 ave       14677 max       10201 min
Histogram: 3 1 2 0 2 0 3 1 2 2

Total # of neighbors = 198824
Ave neighs/atom = 230.12037
Ave special neighs/atom = 2.0000000
Neighbor list builds = 7714
Dangerous builds = 1

unfix		3
unfix		2
unfix		1

write_data	data.final.${pid} nocoeff
write_data	data.final.0 nocoeff
System init for write_data ...
PPPM initialization ...
  extracting TIP4P info from pair style
  using 12-bit tables for long-range coulomb (../kspace.cpp:340)
  G vector (1/distance) = 0.37270474
  grid = 24 27 27
  stencil order = 5
  estimated absolute RMS force accuracy = 0.0029071225
  estimated relative force accuracy = 8.7547131e-06
  using double precision FFTW3
  3d grid and FFT values/proc = 6615 1296
Last active /omp style is kspace_style pppm/tip4p/omp

write_restart   restart.lmp.${pid}
write_restart   restart.lmp.0
System init for write_restart ...
PPPM initialization ...
  extracting TIP4P info from pair style
  using 12-bit tables for long-range coulomb (../kspace.cpp:340)
  G vector (1/distance) = 0.37270474
  grid = 24 27 27
  stencil order = 5
  estimated absolute RMS force accuracy = 0.0029071225
  estimated relative force accuracy = 8.7547131e-06
  using double precision FFTW3
  3d grid and FFT values/proc = 6615 1296
Last active /omp style is kspace_style pppm/tip4p/omp
Total wall time: 0:07:48
