LAMMPS (30 Jul 2021)
Processor partition = 0
  using 2 OpenMP thread(s) per MPI task
using multi-threaded neighbor list subroutines
variable        pid world 0 1
variable        phase world IceIh Liquid

shell cd ${phase}
shell cd IceIh
include Restart.lmp
echo both
log log.lammps
#include		in.partitions
include		in.temp
variable        temperature equal 207.00
variable	tempDamp equal 100.0
include		in.pressure
variable        pressure equal 3407.4
variable        pressureDamp equal 1000.0 # This is 1 ps
include		in.seed
variable        seed equal 745823

units		real
atom_style	full
#include		in.box
read_restart	restart.lmp.${pid}
read_restart	restart.lmp.0
Reading restart file ...
  restart file = 30 Jul 2021, LAMMPS = 30 Jul 2021
  restoring atom style full from restart
  orthogonal box = (0.15262249 -0.019635683 0.17755231) to (18.054950 23.648813 22.035643)
  2 by 4 by 4 MPI processor grid
  restoring pair style lj/cut/tip4p/long/omp from restart
  restoring bond style harmonic/omp from restart
  restoring angle style harmonic/omp from restart
  864 atoms
  576 bonds
  288 angles
Finding 1-2 1-3 1-4 neighbors ...
  special bond factors lj:    0        0        0       
  special bond factors coul:  0        0        0       
     2 = max # of 1-2 neighbors
     1 = max # of 1-3 neighbors
     1 = max # of 1-4 neighbors
     2 = max # of special neighbors
  special bonds CPU = 0.002 seconds
  read_restart CPU = 0.008 seconds
include 	in.setup
variable	out_freq equal 1000
variable	out_freq2 equal 10000
variable	out_freq3 equal 1000

timestep	2.0

neigh_modify    delay 7 every 1

include		in.tip4p
# This is TIP4P/Ice

# create groups ###
group ox type 2
288 atoms in group ox
group hy type 1
576 atoms in group hy

# set charges - beside manually ###
set group ox charge -1.1794
Setting atom values ...
  288 settings made for charge
set group hy charge 0.5897
Setting atom values ...
  576 settings made for charge

# ### TIP3P Potential Parameters ###
pair_style lj/cut/tip4p/long/omp 2 1 1 1 0.1577 8.5
pair_coeff 1 1*2 0.000 0.000
pair_coeff 2 2 0.21084 3.1668
bond_style  harmonic
bond_coeff  1 450 0.9572
angle_style harmonic
angle_coeff 1 55 104.52
kspace_style pppm/tip4p/omp 1.0e-5
pair_modify tail yes

thermo          ${out_freq}
thermo          1000
thermo_style    custom step temp pe etotal epair emol press lx ly lz vol pxx pyy pzz pxy pxz pyz enthalpy

restart 	${out_freq3} restart.lmp.${pid} restart2.lmp.${pid}
restart 	1000 restart.lmp.${pid} restart2.lmp.${pid}
restart 	1000 restart.lmp.0 restart2.lmp.${pid}
restart 	1000 restart.lmp.0 restart2.lmp.0


include         in.dump
dump            myDump all atom ${out_freq2} dump.water.${pid}
dump            myDump all atom 10000 dump.water.${pid}
dump            myDump all atom 10000 dump.water.0
dump            myDump2 all dcd ${out_freq2} dump.dcd
dump            myDump2 all dcd 10000 dump.dcd
dump_modify     myDump append yes
dump_modify     myDump2 append yes


variable natoms 	equal  "count(all)"                        # NUMBER ATOMS
variable H      	equal  "enthalpy/v_natoms"                 # ENTHALPY-per-atom
variable Vol      	equal  "vol/v_natoms"                 # volume-per-atom
fix AVG all 		ave/time ${out_freq} 1 ${out_freq} v_Vol v_H file vol_enthalpy.dat
fix AVG all 		ave/time 1000 1 ${out_freq} v_Vol v_H file vol_enthalpy.dat
fix AVG all 		ave/time 1000 1 1000 v_Vol v_H file vol_enthalpy.dat


timer           timeout 23:50:00 every 1000
New timer settings: style=normal  mode=nosync  timeout=23:50:00

fix 		1 all shake 1e-6 200 0 b 1 a 1
Finding SHAKE clusters ...
       0 = # of size 2 clusters
       0 = # of size 3 clusters
       0 = # of size 4 clusters
     288 = # of frozen angles
  find clusters CPU = 0.001 seconds
fix             2 all nph aniso ${pressure} ${pressure} ${pressureDamp}
fix             2 all nph aniso 3407.4 ${pressure} ${pressureDamp}
fix             2 all nph aniso 3407.4 3407.4 ${pressureDamp}
fix             2 all nph aniso 3407.4 3407.4 1000
fix             3 all temp/csvr ${temperature} ${temperature} ${tempDamp} ${seed}
fix             3 all temp/csvr 207 ${temperature} ${tempDamp} ${seed}
fix             3 all temp/csvr 207 207 ${tempDamp} ${seed}
fix             3 all temp/csvr 207 207 100 ${seed}
fix             3 all temp/csvr 207 207 100 745823


run             250000
PPPM initialization ...
  extracting TIP4P info from pair style
  using 12-bit tables for long-range coulomb (../kspace.cpp:340)
  G vector (1/distance) = 0.37171571
  grid = 24 27 25
  stencil order = 5
  estimated absolute RMS force accuracy = 0.0031586585
  estimated relative force accuracy = 9.5122061e-06
  using double precision FFTW3
  3d grid and FFT values/proc = 4410 672
Last active /omp style is kspace_style pppm/tip4p/omp
Neighbor list info ...
  update every 1 steps, delay 7 steps, check yes
  max neighbors/atom: 2000, page size: 100000
  master list distance cutoff = 10.8154
  ghost atom cutoff = 10.8154
  binsize = 5.4077, bins = 4 5 5
  1 neighbor lists, perpetual/occasional/extra = 1 0 0
  (1) pair lj/cut/tip4p/long/omp, perpetual
      attributes: half, newton on, omp
      pair build: half/bin/newton/omp
      stencil: half/bin/3d
      bin: standard
Setting up Verlet run ...
  Unit style    : real
  Current step  : 12500000
  Time step     : 2
  Walltime left : 23:49:59.95
Per MPI rank memory allocation (min/avg/max) = 10.19 | 10.21 | 10.23 Mbytes
Step Temp PotEng TotEng E_pair E_mol Press Lx Ly Lz Volume Pxx Pyy Pzz Pxy Pxz Pyz Enthalpy 
12500000    214.24387   -4326.4787    -3959.272   -4326.4787            0    2431.9831    17.902327    23.668449    21.858091    9261.7175    3349.8793   -420.40056    4366.4705    -184.6949    62.161761   -225.59371   -3630.7776 
12501000    212.31068    -4360.989   -3997.0958    -4360.989            0    2550.7895    17.947704    23.323178    22.035563    9224.0313    2450.5829    2407.0032    2794.7825   -258.75045     -537.853    841.60187   -3653.9559 
12502000    204.98663   -4351.3081    -3999.968   -4351.3081            0    1829.6789     18.16649    23.229562    22.058678    9308.7536    2072.6279    2673.6999    742.70884   -789.14051   -781.32376    734.79191   -3751.5733 
12503000    205.02794   -4351.8137   -4000.4028   -4351.8137            0    2682.1153    18.149971    23.344577    21.887902    9273.9788     2562.755    1943.0553    3540.5355    311.80253    693.20964    559.54826   -3637.6428 
12504000    204.94119    -4381.211   -4029.9488    -4381.211            0    2720.3356    17.770293    23.418974    22.120564    9205.7391    2027.7735    4170.7656    1962.4677     712.7058   -253.64629    323.45025   -3664.7267 
12505000    208.77692   -4334.6243   -3976.7878   -4334.6243            0    3562.2507     17.92605    23.574928    21.619424    9136.4837    2968.2505    2455.8391    5262.6626   -341.67162    442.32996   -626.53785   -3502.1313 
12506000    215.13261   -4342.4891   -3973.7592   -4342.4891            0     4407.989    17.849546    23.280118    21.915404    9106.7173    3975.9856    3979.5542    5268.4271   -245.84892    512.49409   -75.067034   -3388.3248 
12507000    210.34117   -4350.0478   -3989.5302   -4350.0478            0     4119.292    18.023363    23.229408     21.82094     9135.818    4155.4422    4237.4789     3964.955    126.99566     813.7865   -552.21613     -3440.69 
12508000    209.97111   -4338.5193    -3978.636   -4338.5193            0    3839.7256    18.063087    23.159684    21.926593    9172.6697    3649.9545     4506.009    3363.2132   -22.765914   -521.89154    472.88345   -3464.9806 
12509000    204.68748   -4316.1686   -3965.3412   -4316.1686            0    4584.4183    17.737711    23.480423    21.975887    9152.7144    5012.8585    2815.6599    5924.7365    888.69769    380.01495    863.15665   -3353.3996 
12510000    214.81132   -4355.9696   -3987.7904   -4355.9696            0    3597.6729    17.857865    23.487719    21.861595    9169.6389     3352.448    4264.4147    3176.1559    494.50863   -199.21906    303.45585   -3506.6744 
12511000    209.31301   -4354.5215   -3995.7662   -4354.5215            0    3138.9658    17.966949     23.11179    22.082491    9169.7181    2691.9553    3957.2166    2767.7255   -20.505361   -290.57803    318.82652   -3575.9894 
12512000     217.5763   -4330.9896   -3958.0712   -4330.9896            0    3188.2305    17.988931    23.546214    21.730289    9204.3248     3453.412    1908.4218    4202.8576   -357.52073     223.4679   -490.95661   -3530.0971 
12513000    221.48163   -4351.2308   -3971.6189   -4351.2308            0    3160.1314    18.016159    23.206849    21.923493     9166.175    1687.0518    3443.0422    4350.3002    395.27083   -79.189762   -636.72682   -3549.1748 
12514000    211.75996   -4370.9586   -4008.0092   -4370.9586            0    2904.5551    17.949046    23.263198    21.977278     9176.661    3959.0797    2744.7616    2009.8241    908.97853   -415.42212    23.587234   -3619.2863 
12515000    202.68363   -4332.6343   -3985.2415   -4332.6343            0    4002.4279    17.889395    23.513485    21.601191    9086.3686    3398.0722     4439.472    4169.7393   -132.84573   -2.2139657   -251.98051   -3454.8583 
12516000    209.94745   -4351.6855   -3991.8428   -4351.6855            0    4138.6016    17.883652    23.368881    21.910791    9156.9782    6149.2988    3470.7759    2795.7301   -750.93304    16.038905    24.754746   -3439.1527 
12517000    217.13661   -4361.6476   -3989.4829   -4361.6476            0    3475.0762    17.967269    23.171161    22.060052    9184.0958    3536.9925    4466.5111    2421.7251   -1152.2532   -277.82809    722.71798    -3524.029 
12518000    199.57074   -4361.1386   -4019.0812   -4361.1386            0    3116.9061    18.050981    23.206582    21.865307    9159.4114    2035.0221    3371.5326    3944.1636   -32.172713    530.65857   -1039.8711    -3602.723 
12519000    209.90823   -4355.4284   -3995.6528   -4355.4284            0    1874.1345    17.846913    23.448426    22.069877    9235.8466    2036.9404    2676.8478    908.61524   -100.29278    587.07894   -678.75065   -3743.2156 
12520000    201.94834   -4352.0465   -4005.9139   -4352.0465            0    3597.6968    17.854069    23.409157    21.892416    9149.9069    3737.2491    4142.3078    2913.5334     -1159.49    122.48715   -286.43885     -3525.83 
12521000    199.61667   -4348.9203   -4006.7842   -4348.9203            0    2592.9677    18.220243    22.936829    21.930316    9164.9991    1901.6111    3732.9307    2144.3614    1148.4728   -117.67531    -733.1027   -3660.2027 
12522000    214.04343   -4340.7703   -3973.9072   -4340.7703            0    3665.3858    17.826936    23.324116    21.920028    9114.2934    4016.8369    3315.1631    3664.1573    487.64921    174.62454   -1.3456866   -3486.6945 
12523000    192.77156    -4337.881   -4007.4771    -4337.881            0    3866.6122     17.78634    23.617515    21.807583     9160.693    4514.5291    2677.4018    4407.9057   -489.79129    300.29039    864.59709   -3490.9004 
12524000    214.72695   -4319.3032   -3951.2685   -4319.3032            0    4550.4812    17.858584    23.176114    22.076322    9137.2256    4481.9611    4251.2749    4918.2077    178.29363    702.19535    131.91342   -3344.8848 
12525000     220.7665   -4363.7866   -3985.4003   -4363.7866            0    3980.9659    18.095073    23.109849    21.870894    9145.8478     5257.965    3231.1478    3453.7849    740.90354    324.38501    186.26843   -3454.4079 
12526000    216.25197   -4336.2686   -3965.6201   -4336.2686            0    4424.7989    17.937514    23.267282    21.996685    9180.4751    4218.7949    3838.9659     5216.636   -28.668676    1063.1683   -351.78263   -3373.1934 
12527000    213.08158   -4338.4116   -3973.1971   -4338.4116            0    4252.7057    17.894028    23.590554    21.696866    9158.8988    4707.4213    1869.2762    6181.4195   -1501.3673    -88.27992     308.0664   -3405.1498 
12528000    202.17114    -4352.024   -4005.5095    -4352.024            0    5169.4932    17.885925    23.240421    21.935079     9117.895    4079.6544    6433.3697    4995.4553    347.66867   -554.32876   -409.51054   -3318.0954 
12529000    196.79892   -4357.2927    -4019.986   -4357.2927            0     4244.261    18.014338    23.421668    21.669306    9142.8403    4790.0671    4033.8833    3908.8327   -651.08792    40.425643    358.71061   -3454.0608 
12530000    219.89239   -4352.8495   -3975.9614   -4352.8495            0    4169.7763    17.785608    23.287163    22.153874     9175.611    4904.5574    2558.4366     5046.335    134.40745   -343.82912    44.342392    -3417.975 
12531000     213.2746   -4333.7942   -3968.2489   -4333.7942            0    3072.8027    18.033808    23.298079    21.851161    9180.8329    3310.7732    4082.4992    1825.1358   -215.28971   -875.30035   -489.01627    -3556.822 
12532000    208.68826   -4338.5824   -3980.8979   -4338.5824            0    3510.5226    17.890434    23.151899    22.089349    9149.3539    4660.3681    2977.9264    2893.2732    380.32871    600.29369   -116.73211    -3512.475 
12533000    210.30853   -4346.4685   -3986.0069   -4346.4685            0    3284.5799    17.886849    23.373597    21.925335    9166.5441     2982.974    2972.2705    3898.4952    -206.7499    236.59742   -19.392615    -3546.909 
12534000    206.41764   -4366.0022   -4012.2094   -4366.0022            0    4462.9402    17.895996    23.428409    21.751113     9119.692    4652.7069    5082.9456    3653.1682    391.43161   -87.885609    214.62726   -3418.6323 
12535000    206.30897   -4374.9746   -4021.3681   -4374.9746            0    1836.4672    18.006812    23.132448    22.222392     9256.552    2282.9691    2714.0389     512.3935    642.89351    487.29592    193.77108     -3773.45 
12536000    218.17917   -4389.3268   -4015.3751   -4389.3268            0    3286.6954     18.16127    23.269194    21.835964    9227.8371    1967.0381    3232.7566    4660.2914     205.4108   -1138.6627    120.30812   -3573.0565 
12537000    205.84297    -4333.006   -3980.1982    -4333.006            0    4357.4101    17.807687    23.142916    22.110789    9112.3384    4365.1821    4469.9658    4237.0822   -284.97965   -374.77963   -1041.8494   -3401.1241 
12538000    207.82461   -4343.5948   -3987.3905   -4343.5948            0    3826.7222    17.836122    23.829258    21.513486    9143.6953     3277.999     3020.699    5181.4686    -907.3791    579.48371    79.387051   -3477.0917 
12539000    209.00947   -4348.8362   -3990.6011   -4348.8362            0    3652.1013    17.804456    23.329173    22.085574    9173.5351    6347.2811    2210.5009    2398.5221   -591.41867   -306.12317    519.61976   -3501.9989 
12540000    202.61809   -4350.5128   -4003.2323   -4350.5128            0    3299.2135     18.05317    23.310368    21.733754    9146.1297    2752.5962    3560.3432     3584.701    -1165.888     675.4225   -130.68318   -3563.1604 
12541000      205.952   -4347.3609   -3994.3662   -4347.3609            0    4379.4002    18.021532    23.089187    21.924759    9122.9477    3550.0481     4839.604    4748.5485    572.85091    205.99014   -486.28665   -3411.6921 
12542000    200.88647    -4345.486   -4001.1735    -4345.486            0    2001.0803    17.887523    23.379251    21.936405    9173.7362    1624.7279    1672.3953    2706.1178   -676.62057    260.66268    57.956449   -3733.4499 
12543000    212.01813   -4343.3414   -3979.9495   -4343.3414            0    3878.3227    17.746593    23.702392    21.615271    9092.1762    4918.9812    2753.7111    3962.2759   -334.19031    76.474651   -199.62549   -3465.6837 
12544000    205.84381   -4342.7991   -3989.9898   -4342.7991            0    3549.8747    17.985625    23.198392    21.985221    9173.0604    3175.2384    5025.0091    2449.3764     670.0448   -463.95998    1552.2202   -3515.0888 
12545000     197.8435   -4368.1414   -4029.0445   -4368.1414            0    3412.6565    18.033964    23.106405    21.892589    9122.6437    4358.0157    3520.9599     2358.994   -34.746496    253.55277    312.46322   -3575.0096 
12546000    216.74993   -4356.6136   -3985.1117   -4356.6136            0    2627.9786    17.865241     23.41822     21.97697    9194.5518    1524.7242    2744.5438    3614.6677     118.9542   -590.10857    -256.9444   -3632.7178 
12547000    197.55721   -4350.2051   -4011.5988   -4350.2051            0    2240.1687    17.935083    23.496397     21.88692    9223.3633    2034.9038    949.34108    3736.2613   -76.996764   -615.13544   -372.62575   -3710.2664 
12548000    206.67324   -4338.4826   -3984.2518   -4338.4826            0    2498.3928    17.887238    23.062875    22.321677    9208.3867    2997.2763    2416.4191    2081.4831    659.02255    23.780511    402.34172   -3648.7304 
12549000    210.57404    -4345.517   -3984.6003    -4345.517            0    2197.6057    18.125408    23.427401    21.844517    9275.8634    480.17482    2751.8737    3360.7685    347.05777    386.30926   -139.36012   -3687.3105 
12550000    200.01956   -4348.4145   -4005.5878   -4348.4145            0    2243.8543    18.027273       23.164    22.126962    9239.8598    3415.7139    1153.2472    2162.6018   -675.96747    46.392365     -382.806   -3703.2197 
12551000    208.49071   -4335.8193   -3978.4733   -4335.8193            0    3592.6696    17.979139    23.466386    21.729181    9167.6591    3021.8141    3611.7185    4144.4763   -296.09759    346.79669   -784.25015   -3498.1302 
12552000    210.17954   -4357.4315    -3997.191   -4357.4315            0    3585.9551    17.674508    23.485361    22.017368    9139.2374    3922.7234     3458.318     3376.824    1442.9714   -619.35838   -34.936786   -3519.2319 
12553000    208.85138   -4364.6016   -4006.6375   -4364.6016            0    4702.5658    17.846008    23.196534    21.938312    9081.7052     4526.191     5304.059    4277.4473    871.71835   -694.92849   -239.49545   -3383.7951 
12554000    211.43023   -4341.4182    -3979.034   -4341.4182            0    3338.3834    18.167213    23.295369    21.657192    9165.5816     3956.557    2639.9062    3418.6869   -137.82527   -182.48572   -649.27208   -3532.7903 
12555000    210.68095   -4352.1428   -3991.0428   -4352.1428            0     3922.972    17.836059    23.114647    22.133587    9125.1073    4444.2326    4660.3723    2664.3111    -38.78941   -274.30844   -641.53563   -3468.9724 
12556000    211.22308   -4323.4885   -3961.4594   -4323.4885            0    3389.6879    17.975734    23.443232     21.64676    9122.1461    3724.3043    3613.6599    2831.0996    209.60562   -184.19453    722.36207    -3510.505 
12557000    205.22735   -4346.4711   -3994.7185   -4346.4711            0    3128.3092    17.806187    23.350659    22.064143    9173.9663    3047.8173    2744.1801    3592.9301    196.79194    -171.8897   -89.699248    -3576.173 
12558000    201.91466   -4337.5646   -3991.4898   -4337.5646            0     4589.056    17.952097     23.41707    21.729782    9134.8856    4834.8218     3666.583    5265.7632    198.72814   -257.48007   -583.69244   -3380.1223 
12559000    211.89229   -4355.8908   -3992.7146   -4355.8908            0    2712.3895    17.964969    23.348581    21.955659    9209.4447    2722.2026     3380.638    2034.3278    546.59275   -392.01999   -585.00628   -3628.4128 
12560000    206.65099   -4373.3557   -4019.1629   -4373.3557            0    4111.9083    17.761711    23.196146    22.156455    9128.5311    3804.4618    4667.1019    3864.1613    398.62243    701.09232    885.47145   -3471.7435 
12561000    202.06519    -4342.131   -3995.7982    -4342.131            0    3387.8365    18.030729    23.421364    21.741834    9181.6697    3518.5959    3591.1861    3053.7274    1025.0709   -124.84057   -300.05104   -3542.1492 
12562000    203.08168   -4326.6766   -3978.6016   -4326.6766            0    4565.0688    17.961687    23.167216    21.981795    9147.1147    4436.7401    5518.7238    3739.7425    249.08643   -258.84377    916.90834   -3369.6155 
12563000    205.32062   -4313.3265    -3961.414   -4313.3265            0    3107.1165    18.080096    23.508621    21.544757    9157.3432    1608.6963    4346.7878    3365.8655   -1243.5689    964.90407   -757.60837   -3546.4572 
12564000    199.68329   -4338.2874   -3996.0371   -4338.2874            0    2643.5609    17.906981    23.349822    21.929411    9169.2309     2625.408    2305.7062    2999.5684   -159.27579     515.7416    105.29816     -3642.53 
12565000    203.37462   -4363.3222   -4014.7451   -4363.3222            0    4494.9262    17.883636    23.273655    21.823532    9083.3377    5060.3743    3578.4677    4845.9366   -285.57366   -434.64873    506.48883    -3419.297 
12566000    215.74361   -4339.7336   -3969.9564   -4339.7336            0    3420.5856    17.836199    23.400851    21.920184    9149.0958    3572.1613    2578.6197    4110.9757    117.38761    202.26718    531.73549   -3513.5471 
12567000     203.7666   -4372.0598   -4022.8108   -4372.0598            0    3227.8911    17.817338    23.243151    22.104786    9154.2787    4500.9359    3284.6496    1898.0879    50.174719    434.00522    530.43925   -3591.8687 
12568000     198.7046   -4338.6674   -3998.0945   -4338.6674            0    3473.5498    17.966597    23.338202    21.784891    9134.5806    4267.8334    3042.0617    3110.7544    195.87892    290.25955  -0.11324666   -3535.3534 
12569000    202.59384   -4371.4813   -4024.2424   -4371.4813            0    3977.1884    17.700461    23.234126    22.175554     9119.802    5104.4131     2799.752    4027.4002   -185.30473   -877.72542   -134.45168   -3495.2646 
12570000    216.77948   -4368.5864   -3997.0338   -4368.5864            0    2852.7399    18.061462     23.35107    21.826015    9205.2194    3027.8282    3259.6688    2270.7229   -96.924851   -297.18608    286.36217   -3614.0572 
12571000    210.83358   -4357.6788   -3996.3173   -4357.6788            0    2753.1316    17.941252    23.137321     22.20152    9216.1286    3016.3998    3332.0785    1910.9167   -597.45259   -231.70974    81.084974    -3626.275 
12572000    215.57386   -4305.5862      -3936.1   -4305.5862            0    6040.4993    17.890923    23.344093    21.774925    9094.2404    6234.5126    5780.9979    6105.9874   -42.843662    656.11182   -128.56608   -3134.9476 
12573000    196.56249   -4353.0291   -4016.1277   -4353.0291            0      3234.21    17.888246    23.423697    21.907652       9179.5    3534.2241    3129.5257    3038.8801   -825.04876    21.611454   -73.013343   -3583.1524 
12574000    205.89909   -4356.1789   -4003.2749   -4356.1789            0    2410.8313     18.06264    23.174522     22.01122    9213.7435    2914.6162    3329.9318    987.94597    233.69483   -512.76328    681.30741   -3679.3243 
12575000    209.66538   -4360.0832   -4000.7239   -4360.0832            0    2642.3542    18.111889    23.244548    22.044729    9280.8897    2861.1149    2565.4621    2500.4858    58.798327     267.5806    251.99145   -3643.0753 
12576000    205.29925   -4356.7289    -4004.853   -4356.7289            0    3272.2799    17.915217    23.297866    22.045215    9201.3709    4320.9079    4137.8184    1358.1135    732.55032    659.60983    1336.3275   -3565.7374 
12577000     202.2303   -4355.9308    -4009.315   -4355.9308            0    4033.0409    17.938686    23.462205    21.714581    9139.2572    4601.5517     4375.663    3121.9079   -626.53311    939.17706   -750.66811   -3471.7643 
12578000    223.42947   -4337.8817   -3954.9312   -4337.8817            0    3695.5786    17.700086    23.504373    22.036624    9167.8835    4278.9638    2704.5787    4103.1933   -406.63316    -1162.116    51.408855   -3460.8169 
12579000    200.93678   -4350.8697   -4006.4709   -4350.8697            0     3999.719    18.043911     23.28715    21.829551    9172.5866    3502.8055    3794.9883    4701.3631    369.74782   -434.63292    121.89046   -3471.4174 
12580000    212.01131   -4325.0022    -3961.622   -4325.0022            0    3281.1224    18.048761    23.192747    21.885234    9161.1667     2955.206    4614.1083     2274.053   -144.99718    98.635987   -140.87527   -3523.2437 
12581000     207.4916   -4343.4101   -3987.7766   -4343.4101            0    3681.6922    17.742209    23.338064    22.003838    9111.1031    2681.7524    3470.6367    4892.6876    2.1576662    -549.6787   -11.593799   -3498.5677 
12582000    208.45621   -4370.9768     -4013.69   -4370.9768            0    1686.3444    17.907288     23.48826    21.879125    9202.6017    2204.1626    2006.2732    848.59728    1057.2254   -129.64054   -370.63974   -3787.3649 
12583000    196.73234   -4348.2002   -4011.0077   -4348.2002            0    4982.7667    17.737811    23.344605    22.017872    9117.2087    6430.7427     4486.009    4031.5484   -923.61625   -155.92505   -104.27525   -3348.4735 
12584000    222.20155   -4337.8996   -3957.0537   -4337.8996            0    2316.0625    18.145444    23.360905    21.873386    9271.9969    2128.7617    3459.9423    1359.4835    1062.1826   -232.02286    298.52871   -3643.8698 
12585000    196.66799   -4334.5286   -3997.4464   -4334.5286            0    1442.8506    17.995355    23.298065    22.107452    9268.7033    1114.4636    3045.5861    168.50215   -1337.1155    16.401764    598.81804   -3802.4098 
12586000    209.45697   -4354.5263   -3995.5242   -4354.5263            0    3120.2596    18.138985    23.347481    21.754134    9212.8673    1888.3166    3304.9875    4167.4748   -1042.3288   -187.55822    571.20406   -3576.2854 
12587000    210.27475   -4369.2831   -4008.8794   -4369.2831            0    2631.1215    17.891933    23.346803     21.90943    9151.9946    3521.4677    2511.7899     1860.107   -515.52153    344.60222   -141.66282   -3657.6971 
12588000    204.09181   -4316.0001   -3966.1938   -4316.0001            0    3321.7426    17.731433    23.521783    22.046215    9194.9236    3176.8857    2756.0949    4032.2471    652.22523    862.21946    534.77967    -3520.753 
12589000    193.82803   -4355.0289   -4022.8143   -4355.0289            0    4075.4609    17.953375    23.412674    21.829615    9175.7844    3527.7374    4392.4252    4306.2202    -997.6215    396.05566   -46.640504   -3477.4385 
12590000    201.13126   -4339.2291    -3994.497   -4339.2291            0     2400.756    18.191517    23.071289    22.090641    9271.4806    2462.1473    2524.7033    2215.4175    260.78704   -555.47889    21.411187   -3669.8787 
12591000    194.28488   -4352.6728   -4019.6751   -4352.6728            0    3855.2074     18.07623    23.179268    21.920448    9184.5314    4488.5937    4256.7478    2820.2806    634.19634     3.642765    276.06252   -3503.2818 
12592000    208.95551      -4332.4   -3974.2575      -4332.4            0    5103.1616    17.768442    23.346461    21.926615    9095.8231    5291.2155    5802.6919    4215.5774    138.37537   -266.32941    838.46047   -3297.3065 
12593000      213.767   -4377.0253    -4010.636   -4377.0253            0    3735.2548    17.767558    23.559922    21.846062    9144.8111    4169.9657     3786.994    3248.8048    429.97087   -618.70159    783.70598   -3512.4737 
12594000    208.50911   -4352.9381   -3995.5606   -4352.9381            0    4734.6934    17.906445    23.095816     22.08852    9135.0156    4148.7972    6902.9055    3152.3774    287.05436   -1122.3287   -441.65099   -3364.7819 
12595000    199.53964   -4357.6255   -4015.6213   -4357.6255            0     3725.138    18.066983    23.290307    21.825598    9183.8972    4340.5574    3932.1471    2902.7094    277.92893    241.98842    131.66095   -3516.6849 
12596000    209.25462   -4338.2513    -3979.596   -4338.2513            0    3867.7225    18.118149    23.155619    21.847492    9165.8304    2978.4186    4290.1506    4334.5984   -119.53298    101.89233    386.87059   -3462.5812 
12597000    209.46025   -4346.6388   -3987.6311   -4346.6388            0    3639.7787    17.831175    23.301427     21.96844    9127.7073    3601.7776    4963.3174     2354.241    496.10307   -139.75805    -450.8232   -3503.1101 
12598000    207.72557   -4370.8982   -4014.8637   -4370.8982            0    4191.3302     17.79804    23.589223    21.707594    9113.7579    3782.5485    4456.2843    4335.1578    388.37907   -494.61962   -327.82443   -3457.7738 
12599000    200.04921   -4332.6445    -3989.767   -4332.6445            0    2946.6928    17.988525    23.339537    21.839175    9169.0435    3507.0475    617.64167    4715.3893    86.509443     200.0238   -248.27796    -3595.732 
12600000    202.23476   -4360.0131   -4013.3896   -4360.0131            0    3616.0525    17.943468    23.314055    21.935693     9176.468    3857.7132    2778.5739    4211.8703   -308.23138   -259.00948     -927.226   -3529.4556 
12601000    204.93912   -4372.4107    -4021.152   -4372.4107            0    3860.9244    18.074752     23.40051    21.669861    9165.4502    2033.0423    3801.7672    5747.9638   -481.51217   -427.19704    710.14432   -3505.0673 
12602000    219.11531   -4341.7661     -3966.21   -4341.7661            0    5566.9847    17.724624    23.150527    22.002968    9028.5742    5396.4609    6497.7373     4806.756   -257.32899     210.8167    624.96107   -3233.1912 
12603000    206.01457   -4338.4965   -3985.3945   -4338.4965            0       3242.7    18.031115     23.25128    21.870247    9169.0245    2264.6707    3525.7766    3937.6527   -172.64442    228.29111   -1318.1732    -3551.778 
12604000     211.8782   -4363.6806   -4000.5287   -4363.6806            0    3087.7831    17.881251    23.197264    22.046591    9144.8403    3615.7628    3325.0065      2322.58    587.77588    480.44879   -219.55074   -3588.7168 
12605000    210.82664   -4342.1675   -3980.8179   -4342.1675            0    1798.7241    17.933507    23.613225    21.922932    9283.6585    1842.0746    2606.3336    947.76414     964.8586   -98.268786    -369.3731   -3737.2839 
12606000    198.77372   -4357.7699   -4017.0786   -4357.7699            0    3572.2153    17.997894     23.29584     21.86414    9167.1102    3311.9067    4254.4054    3150.3337   -438.60379    811.16362   -192.04189   -3539.4987 
12607000     205.7248   -4369.6492    -4017.044   -4369.6492            0    2482.2507    18.086376    23.282475    21.902347    9222.9819     1966.943    3424.1929    2055.6161    -821.3823    529.75245   -464.96394    -3683.162 
12608000    212.74398   -4362.7213   -3998.0854   -4362.7213            0    2531.2575    18.019766    23.091761    22.065779    9181.7503    1436.8935    2706.0885    3450.7906   -193.22409   -288.02871    544.17925   -3659.1338 
12609000    206.29214   -4358.6655   -4005.0878   -4358.6655            0    2994.0197    17.863735    23.611982    21.770744    9182.8603    2766.3424    2324.8658    3890.8509    176.16614   -58.982369    149.03867   -3604.1209 
12610000    203.02547   -4355.3538   -4007.3751   -4355.3538            0    2123.4606    17.925094    23.478297     21.87844    9207.5563    1181.2602    3282.4069    1906.7147   -539.92123    231.99764    -89.52901   -3722.2309 
12611000    211.35566   -4346.8809   -3984.6245   -4346.8809            0    3274.6024    18.041044    23.119666    21.932232    9147.9979    4088.9803    3711.8005    2023.0264   -371.03776   -90.306432    158.12629   -3547.7462 
12612000    214.68602   -4367.9626   -3999.9981   -4367.9626            0    3217.7839    17.977836     23.34518    21.942731    9209.2723    2831.0976    3048.2002     3774.054   -781.43513    296.29151    616.54087   -3567.8247 
12613000    207.99953   -4360.5245   -4004.0204   -4360.5245            0    2732.8369    17.831161     23.60174    21.891047    9212.7687    2677.5826    2046.6921     3474.236   -269.36472    -468.4245   -48.922459   -3636.8398 
12614000    213.86086   -4331.9662    -3965.416   -4331.9662            0    2703.6812    17.955187    23.311356     21.93823    9182.4605    1884.7842    4343.2981    1882.9614   -1123.7052    292.25578    927.35809   -3603.3478 
12615000    210.63985   -4330.5319   -3969.5024   -4330.5319            0     4003.377    18.181304    23.136742    21.705912    9130.7249    2954.6247    4286.2895    4769.2169    176.90239    56.360444    38.050906   -3436.4037 
12616000    204.83372   -4362.1544   -4011.0764   -4362.1544            0    3249.6327    17.840262    23.357346    22.055696    9190.6346    4950.4079    4631.8194    166.67088    380.94473   -103.64271   -72.219996   -3575.5087 
12617000    196.18036   -4354.6393   -4018.3929   -4354.6393            0    3862.2519    17.829159    23.614675     21.62026    9102.7731    4514.4042    3246.7931    3825.5583    450.02417    1109.6302    550.52661   -3505.6612 
12618000    209.66008   -4377.1735   -4017.8233   -4377.1735            0    3366.1027    17.983338    23.190599    22.071998    9205.0025    4194.3052    2492.5048    3411.4979   -609.10875   -255.94188   -106.55562   -3565.9391 
12619000    204.06593   -4336.9356   -3987.1736   -4336.9356            0    3038.2471    18.116863    23.349771    21.758134    9204.2261    2893.1508    2294.3139    3927.2765   -327.57618   -763.27416   -270.00164   -3579.3369 
12620000    204.06166   -4360.2919   -4010.5372   -4360.2919            0    2180.6638    17.823752    23.519891    21.986152    9216.8741    2329.6751    2538.2483     1674.068   -451.74125    400.56317    -442.9039   -3717.4153 
12621000    207.82939    -4362.378   -4006.1656    -4362.378            0    3095.1123    18.013646    23.313387    21.821254    9164.0343    3145.7639    2053.8443    4085.7286   -32.943447   -363.53877    55.789184   -3592.5099 
12622000    207.58179   -4333.9911    -3978.203   -4333.9911            0    2025.0534    18.187738    23.124155    22.074499    9284.0062    2533.4843    2635.2178    906.45819   -395.88878    50.674311   -483.97278   -3704.0154 
12623000     209.5868   -4381.3271   -4022.1025   -4381.3271            0    4702.6646    17.973855    23.098688    21.915118    9098.5535    4942.7072    5597.8842    3567.4025   -181.52098   -491.67138   -299.16702   -3398.0915 
12624000    207.07935   -4334.9835   -3980.0566   -4334.9835            0    2164.1905    17.899642     23.39635    22.083807    9248.3953    1802.3867    2265.1801    2425.0046   -210.81001   -120.23828    97.875733   -3688.1542 
12625000     223.4964   -4348.9058   -3965.8406   -4348.9058            0    1762.7397    17.710829    23.637076    22.077314    9242.2752    2957.2885    1102.1617    1228.7688   -995.15055    376.14295   -338.99575   -3728.2425 
12626000    212.38871   -4353.6135   -3989.5865   -4353.6135            0    3645.3891    17.992298    23.234217    21.870288    9142.5884    5038.5859    2727.6832    3169.8982   -195.07099    143.07684   -118.27987   -3503.5275 
12627000    212.08538   -4351.7744   -3988.2673   -4351.7744            0    4048.4388    18.086556    23.005616    21.886506    9106.8081    4221.0438    4500.0365    3424.2362   -547.90081     14.94968    349.08552   -3450.5801 
12628000    213.00046   -4356.5668   -3991.4913   -4356.5668            0     5040.831    17.817634    23.401355    21.820216    9098.0871    4842.2212    4756.9475    5523.3244     1247.656   -29.984434   -378.28516   -3322.6422 
12629000    212.86876   -4338.1412   -3973.2914   -4338.1412            0    2988.8703    17.839938    23.405252    21.878283    9135.2392    2727.2175    2702.9842    3536.4093   -190.72754   -331.43263    -368.9139   -3575.0899 
12630000    200.47362   -4358.9366   -4015.3316   -4358.9366            0    2747.2744     18.05527    23.267999    21.819965    9166.7852    2859.4962    2724.9319    2657.3951    494.05938    305.25173    109.80238   -3648.0536 
12631000    197.92426   -4357.5433   -4018.3079   -4357.5433            0    3027.3801    17.840449    23.318718    21.984823    9146.0471    3044.7467    3120.9748    2916.4187   -343.04954    516.96945    612.47287   -3614.4987 
12632000    211.90139   -4336.8757    -3973.684   -4336.8757            0    3483.7632    17.690221    23.603268    21.880029    9135.9415    4433.2578    2530.6588    3487.3729    146.23956    459.42511    -717.4474   -3509.5132 
12633000    210.73897   -4361.8528   -4000.6534   -4361.8528            0    3219.3254    17.908014    23.298059    21.890459    9133.1804    3164.9273    3753.4082    2739.6408      474.534   -333.91758   -560.84233   -3571.8455 
12634000     199.2876   -4365.5178   -4023.9457   -4365.5178            0    2780.2949    17.867335    23.174185    22.150668    9171.7265    2938.3188    2885.5971    2516.9687      199.994    136.32196   -286.86753   -3652.0528 
12635000    204.60882   -4374.9981   -4024.3056   -4374.9981            0     3556.282    17.995704    23.410992    21.658138    9124.5147    3417.0113    3481.1268    3770.7077    1062.4037   -893.89256    227.57736   -3551.0651 
12636000    199.01778   -4335.1322   -3994.0226   -4335.1322            0    4439.6035    17.634554    23.626344    21.903862    9126.0259    5651.4894    4105.9979     3561.323     826.1634    831.39674   -97.398484   -3403.1392 
12637000    200.93956   -4361.5047   -4017.1012   -4361.5047            0    2473.7546     17.98856    23.366435    21.897779    9204.2609    2255.1559    1939.1938     3226.914    156.06046   -136.41373    110.24043   -3685.0375 
12638000    205.86886    -4348.826   -3995.9738    -4348.826            0    3675.2496    18.143613    23.089807    21.949198    9195.2329     3715.209    3796.0637    3514.4762    273.92933    464.64077    818.82779   -3503.1117 
12639000    188.38077   -4364.8864   -4042.0083   -4364.8864            0     3725.894    17.904582    23.346938    21.950511    9175.6907    5488.6834    2389.2266    3299.7721    1003.9386    331.56452   -188.47567   -3543.4164 
12640000    205.84863   -4343.7666   -3990.9491   -4343.7666            0    4237.4502    17.812493    23.545005     21.77836      9133.74    3603.1223    3356.2499    5752.9785   -894.64835    -420.6429   -847.08217   -3426.4943 
12641000     198.1498   -4363.5765   -4023.9545   -4363.5765            0    2590.4345    18.038046    23.212911    22.021215    9220.6252    1983.6276    2903.9395    2883.7364   -155.52195   -306.67113    366.11791     -3675.61 
12642000     201.4603   -4353.0038   -4007.7077   -4353.0038            0    2786.8657    18.181772    23.156769    21.883864    9213.7872    2797.9947    3646.3636    1916.2386    149.46478   -368.03575   -495.19486   -3633.2264 
12643000    203.89042   -4363.0393   -4013.5781   -4363.0393            0     2976.122    17.870135     23.30843    22.023048    9173.1455    3078.2348    4193.6519    1656.4794   -290.65186   -304.25428    197.79988   -3615.4297 
12644000    192.48792   -4337.9075   -4007.9898   -4337.9075            0    2035.3011    17.890731    23.636182    21.968239    9289.6778    2063.6648    1690.5999    2351.6386   -81.832017    82.076814   -1033.1123   -3732.2463 
12645000    223.40462    -4356.703   -3973.7951    -4356.703            0    5106.8652     17.92704    23.228437    21.895573     9117.691    6235.7291    5220.1959    3864.6705    821.91648    -518.2441    232.65984   -3294.7241 
12646000    198.10121   -4350.8382   -4011.2995   -4350.8382            0    2934.5482    18.067277    23.311447    21.894755    9221.5094    2328.7981    2803.0002    3671.8463    1088.8491   -366.25932    384.94741   -3616.6431 
12647000    200.63751   -4368.8968    -4025.011   -4368.8968            0    3575.2469    17.998436    23.347868    21.853154     9183.244    3229.0446    4198.8708    3297.8253    395.47845   -106.18432   -893.78662   -3546.1846 
12648000    198.81738   -4369.5423   -4028.7761   -4369.5423            0    3926.0911    17.720187    23.472787     21.95367    9131.4572    4370.6906    3488.5237    3919.0589    600.61668   -374.65484    1217.2091    -3505.927 
12649000    220.23273   -4338.6567   -3961.1854   -4338.6567            0    3574.4175    18.014244    23.250131    21.819734    9138.8361    3350.5206     3239.315     4133.417   -251.47712    666.73316    405.19311    -3484.785 
12650000    206.02009   -4366.2602   -4013.1488   -4366.2602            0    2696.7237    18.083004    23.190249    21.986488    9220.0201    2823.9235    2850.8191    2415.4283   -76.116479    245.15307   -226.15922   -3650.5351 
12651000    200.15298   -4319.2082   -3976.1528   -4319.2082            0    4436.6579    17.756318    23.505193    21.769504    9085.8441    3945.9837    5628.1858    3735.8041    554.48148    130.65908   -311.59573   -3388.2614 
12652000    208.58201   -4384.2454   -4026.7429   -4384.2454            0    3132.9602    17.887537    23.456332     21.84245    9164.5679    3330.6579    2573.1837    3495.0391   -410.71255    807.42318   -229.99955   -3608.0046 
12653000    207.12263   -4347.4348   -3992.4337   -4347.4348            0    3619.0479    17.875633    23.231228    21.984017    9129.3664     3711.509     3374.732    3770.9025   -2246.7874   -28.295032    574.50947   -3510.5848 
12654000    201.41799   -4360.0354   -4014.8118   -4360.0354            0    3138.8923    18.141611    23.474025    21.493622    9153.2017     1797.973    2048.8419    5569.8621    310.40726   -276.58203    137.95087   -3595.8009 
12655000    210.28899   -4362.9608   -4002.5326   -4362.9608            0    4055.5089    17.876079    23.290305     21.99346    9156.7421    5730.1716    3501.0439    2935.3113   -624.87241    8.1165728    524.06559   -3460.9531 
12656000     195.5013   -4370.0524   -4034.9698   -4370.0524            0     3514.969    18.088214    23.211519    21.736429    9126.1464    3073.6736     2792.967    4678.2665    706.17698    648.92306   -245.09783   -3567.1433 
12657000    193.78782   -4343.6429   -4011.4972   -4343.6429            0    3336.9024    17.987715    23.144665    21.985333    9152.9255    3546.9046    3880.0165     2583.786    118.97328   -38.626979    428.66092   -3566.0674 
12658000    194.14019   -4345.8961   -4013.1464   -4345.8961            0    3357.0245    17.879037     23.40672    21.930129    9177.5314    4274.3138    2836.3091    2960.4508    284.92894   -902.19797    280.89487   -3563.8259 
12659000    196.46554   -4336.8293   -4000.0941   -4336.8293            0    3820.7533    17.795327    23.480046    21.900646    9150.8585     5299.689    2703.2983    3459.2726   -17.236032    338.18994   -40.952155   -3490.1921 
12660000    220.15563   -4350.2368   -3972.8975   -4350.2368            0    4224.4667    17.903795    23.140713     22.10641    9158.8309    4900.1048    4235.3252    3537.9702   -378.62515   -76.316691     119.1437   -3408.6264 
12661000    194.14327   -4356.2416   -4023.4866   -4356.2416            0    4430.8979    18.137957    23.294401    21.516288    9090.9081    2589.1616    5507.8303    5195.7019   -342.96257   -29.494523   -133.82593   -3436.0312 
12662000    195.26093   -4340.3537   -4005.6832   -4340.3537            0    4904.8176    17.807537    23.188733    22.012749    9089.8169     5127.209    6386.0189    3201.2249   -671.79198    156.32557    880.47343   -3355.4728 
12663000     204.6184   -4350.4467   -3999.7378   -4350.4467            0    3158.5422    18.115438    23.580465    21.507082    9187.1899    2971.4766    3716.6169     2787.533    883.57691   -77.058013   -455.79089   -3576.5382 
12664000    203.13526   -4351.5416   -4003.3747   -4351.5416            0    4441.3584    17.840753    23.203121    22.111793    9153.4232    5131.8624      4432.52    3759.6927    563.70635   -367.10521   -610.69384   -3410.4832 
12665000    208.67394   -4358.8597   -4001.1997   -4358.8597            0    3201.0866    18.052113     23.41828     21.67508    9163.1277    3339.6097    3362.8316    2900.8185    1044.2443   -187.81702     666.5004   -3573.4231 
12666000    197.10788   -4320.5231   -3982.6869   -4320.5231            0     3961.927    17.808788    23.230338    22.141256    9159.9299    3144.5251    3996.9972    4744.2588    1155.7438    -635.5799    803.39501   -3453.4203 
12667000    205.72648   -4372.9946   -4020.3865   -4372.9946            0    3612.9247    18.004989    23.288058    21.865085    9168.0568    3293.0939    4254.1908    3291.4892    329.49628    -415.4443    461.86587   -3537.3142 
12668000    216.10501   -4334.5649   -3964.1683   -4334.5649            0     3973.582     17.79314    23.268223    22.116141    9156.4085    4670.9314    4907.5157     2342.299   -758.89014   -466.58403    592.66799   -3433.5488 
12669000    209.66676   -4334.9105   -3975.5489   -4334.9105            0    3585.3382    18.041649    23.243319    21.857176    9165.7589    3016.3721    3316.9704    4422.6719   -138.68467    78.978372    694.89023   -3496.2853 
12670000    211.00736   -4357.0465   -3995.3871   -4357.0465            0    4523.0419    18.036625    23.275171    21.753082    9132.0644     3915.765    4120.0777     5533.283   -537.68418    603.26141   -1.9497443   -3393.0003 
12671000    207.88057   -4356.4235   -4000.1233   -4356.4235            0    3521.5759     17.85293    23.245599    22.069365    9158.8317    4217.9654    3394.4708    2952.2914   -950.03458   -453.41686    21.844094   -3529.7388 
12672000    204.42532   -4351.4756   -4001.0976   -4351.4756            0    5237.6722    17.874835    23.467313    21.741776    9120.1178    4738.7834    6355.4061     4618.827    1436.4033    18.518615   -260.41092   -3304.4475 
12673000    194.16248   -4342.0742   -4009.2864   -4342.0742            0    3302.0011    17.724108    23.330454     22.20822    9183.3537    4031.5099    3101.1666     2773.327   -194.66773    421.85005   -106.29055     -3567.05 
12674000    196.73612   -4347.8795   -4010.6805   -4347.8795            0     2945.043    18.249063    23.175331    21.696556     9176.083    1548.3452    3393.4777     3893.306    1777.3873    123.70049   -59.301516   -3616.5638 
12675000    213.89827   -4352.9518   -3986.3375   -4352.9518            0    3895.3552    17.944291    23.178232    22.114537    9197.8102    3663.2574    3658.8998    4363.9084   -1092.6345    104.48023    1138.7359   -3463.8121 
12676000    204.87205   -4361.7513   -4010.6076   -4361.7513            0    3029.3256    18.050441    23.375192    21.838587    9214.4099    2499.4037    2402.6875    4185.8857   -307.28698    678.96917    649.05817   -3603.5186 
12677000    214.96963   -4342.6542   -3974.2036   -4342.6542            0    3267.6828    17.843287    23.493898    21.835454     9153.605    2170.3303    2647.7737    4984.9446   -703.90218    197.75052   -203.64289   -3537.9812 
12678000    210.91188   -4339.9634   -3978.4677   -4339.9634            0    3661.8773    17.815473    23.389972    22.035051     9182.081     4380.806    2613.6817    3991.1441    234.07404   -187.93194    214.02414   -3488.1012 
12679000     198.1939    -4337.984   -3998.2865    -4337.984            0    3770.1203     18.08249    23.304039    21.850558    9207.7169    4188.8676    3308.3678    3813.1255   -450.82804   -170.97354   -679.53351   -3492.0154 
12680000    212.10862   -4370.2713   -4006.7244   -4370.2713            0    3143.5572    17.959153    23.104679    22.202606    9212.7597    1792.8251    4163.4591    3474.3874    387.16653    43.452821    894.70076   -3584.3603 
12681000    200.77863    -4340.292   -3996.1643    -4340.292            0     2478.927    18.014028    23.516824    21.855199    9258.5774    1630.3309    2557.4164    3249.0337   -627.47656     -136.437    658.67012   -3661.4426 
12682000    220.62524   -4347.6495   -3969.5054   -4347.6495            0    3585.6197    17.699658    23.598664    22.175761    9262.5555    3339.4871    4030.3895    3386.9824   -761.48091   -668.07939    385.38169   -3485.1424 
12683000    211.38753   -4372.1376   -4009.8266   -4372.1376            0    4258.5907    17.921335    23.427412    21.809047    9156.5388    4376.0614    4546.9063    3852.8045    129.91494     290.4893   -148.04782   -3441.1399 
12684000    207.01366   -4376.8883   -4022.0739   -4376.8883            0    2810.3116    18.008448    23.248304    22.011949    9215.6523     2594.872    4343.9555    1492.1073   -651.06303   -454.91516    101.31797   -3644.3657 
12685000    214.09787   -4348.9914    -3982.035   -4348.9914            0    4579.2891    17.914803    23.294142    21.900561    9139.3226    4832.3707    4917.2693    3988.2271    1243.7793   -559.71231   -511.95667   -3371.6723 
12686000     213.2594   -4345.9733    -3980.454   -4345.9733            0    2933.0461    17.847396    23.498409    21.896545     9183.092    3237.4804    1701.1737    3860.4843   -594.68668    -5.578486   -289.34698   -3587.6429 
12687000    197.24942   -4344.3924   -4006.3136   -4344.3924            0    2911.5799    17.897967    23.203294    22.135035    9192.4984    3134.8635    2590.8621    3009.0142    207.49921   -319.75954    892.25758    -3615.978 
12688000    207.13052   -4328.4305   -3973.4159   -4328.4305            0    3732.6623    18.086571    23.248481    21.851165    9188.0942    3680.2599    4886.5744    2631.1526   -356.16451    732.97237    578.21692   -3473.2431 
12689000    194.47366   -4351.4674   -4018.1462   -4351.4674            0     2747.239    17.775961    23.304243     22.15737     9178.808    3304.3939    3515.0629    1422.2603      150.107   -493.96553   -480.46467   -3650.3912 
12690000    217.04907   -4332.7752   -3960.7606   -4332.7752            0    4220.7502    17.875021    23.423438     21.83574    9142.5029    4240.7638    4645.2734    3776.2134   -843.23734    1.4219549    493.71927    -3397.991 
12691000    206.97539   -4348.9918   -3994.2431   -4348.9918            0    2367.7405    18.199664     23.23711    21.899088    9261.2908    3758.0613    1391.3948    1953.7655   -41.905909    -559.7846   -275.13621   -3674.4408 
12692000    211.57476   -4348.6782   -3986.0463   -4348.6782            0    4063.0687    17.828606    23.353882    21.950771    9139.5803    4270.4754    3929.9816    3988.7491   -610.13893    706.92864    351.51522   -3444.4742 
12693000    200.31421   -4336.0816   -3992.7499   -4336.0816            0    4121.3173    17.793672     23.48375    21.875796    9141.0671      3870.81    4279.3941     4213.748   -955.89588    389.72377   -686.26074   -3443.3243 
12694000    215.66487   -4347.8966   -3978.2544   -4347.8966            0    2508.3335    18.067071    23.305371    21.951662    9242.9618    719.41902    4435.3087    2370.2729     321.9398   -86.478152   -95.124337   -3640.1333 
12695000    198.54556    -4340.321   -4000.0207    -4340.321            0    3858.4914    18.045824    23.005743     21.98324    9126.5087    3384.4753    3434.4156    4756.5833   -169.22209   -389.35674   -228.99163   -3486.4525 
12696000     206.2658   -4352.4659   -3998.9334   -4352.4659            0    4291.7659    17.917316    23.492303    21.776859     9166.294     5117.343    3474.7293    4283.2253    185.91412   -392.79243    883.82056   -3425.2058 
12697000     200.2908   -4337.4802   -3994.1886   -4337.4802            0    2660.9184     17.60047    23.612258    22.230133     9238.551    3830.5668    1831.3109    2320.8775    155.96685    341.03798   -377.06176   -3635.6703 
12698000    207.91911   -4344.7485   -3988.3823   -4344.7485            0    3177.3102    18.007732    23.304515    21.810686     9153.104    4473.0669    2966.7618    2092.1021   -74.331496   -386.11564   -699.40838   -3564.2475 
12699000    224.50951   -4364.7909   -3979.9893   -4364.7909            0    2434.5541    17.936196    23.362446    21.957623     9200.978    1807.0859     1487.876    4008.7005   -382.79071   -1281.7166    618.17288   -3653.3042 
12700000    197.52402   -4337.3551   -3998.8056   -4337.3551            0    3537.2446     18.05154    23.330832    21.707049    9142.0854    2473.9328    3119.4573    5018.3437    115.31447   -62.088713    146.92757   -3527.1921 
12701000    208.33588   -4356.6066   -3999.5261   -4356.6066            0     3518.537    17.925146     23.11667    22.115842    9164.1345    3615.0333    5681.6143    1258.9633   -745.67785    5.0264777   -190.78064   -3529.2754 
12702000    205.69373    -4341.239    -3988.687    -4341.239            0     4589.163    17.855656    23.502554     21.68832    9101.5797    4241.5213    4954.9159    4571.0519   -124.52095    502.90372   -889.54864   -3379.5343 
12703000    204.51251   -4370.0089   -4019.4814   -4370.0089            0    2494.0107    17.855629    23.478724    22.010433    9227.3759    3797.5138    2304.0913     1380.427    305.39632    113.43326    71.361767   -3683.8579 
12704000     206.8387   -4370.8241   -4016.3096   -4370.8241            0    3072.2584    18.133451    23.036416    21.988403    9185.2094    3021.0464    3636.9726    2558.7564    319.19334   -508.73425   -55.438326   -3604.7595 
12705000    194.34266   -4350.1428   -4017.0462   -4350.1428            0     3790.547     17.97044    23.303451    21.865688    9156.7656    2331.0824    4198.2407    4842.3179   -1658.4005   -115.96161    402.18507   -3510.8488 
12706000     195.3943   -4347.2908   -4012.3917   -4347.2908            0     4865.282    17.870621    23.316631    21.878994    9116.5972    3538.1733    5996.5403    5061.1323   -607.83951    903.15173   -61.463123   -3365.5222 
12707000    203.00423   -4349.7233    -4001.781   -4349.7233            0    3908.4878    18.111274    23.056563    21.894551    9142.8082    3627.0107     3490.033    4608.4196   -350.31173    -492.4308     6.753849   -3480.6292 
12708000    210.33382   -4342.7236   -3982.2186   -4342.7236            0    3604.1305    17.971516    23.273701    21.958513    9184.4489     4437.656     3446.316    2928.4194     100.3349   -177.45673    146.01276   -3499.4606 
12709000    207.44806   -4357.1634   -4001.6045   -4357.1634            0    2407.3542    17.856151    23.533165    21.916805    9209.6988    3736.3303    1917.3012     1568.431   -1089.2434   -103.38605   -19.820598   -3678.2631 
12710000    215.83779   -4340.1162   -3970.1776   -4340.1162            0    4678.3058    17.898662     23.24576    21.912894    9117.2536    4020.7469    4779.1733    5234.9974    286.50467   -79.919019   -41.182227    -3348.123 
12711000    199.43629   -4347.8463   -4006.0193   -4347.8463            0    2681.1302    18.129341    23.126285    22.013888    9229.6376    2409.1538    3558.0012    2076.2356    853.91519   -238.69539    313.94994   -3645.1263 
12712000    206.75883   -4351.0717   -3996.6942   -4351.0717            0    2685.4935    17.974562    23.404042    21.900843    9213.1894    3344.0392    2323.2972    2389.1441   -914.92732   -136.85102    20.802419   -3635.8581 
12713000    204.91915   -4332.4463   -3981.2219   -4332.4463            0    3404.2834    17.759957    23.538851    21.964627    9182.2898    4993.2446    3116.5059    2103.0997    157.96646    56.389243    -359.4322   -3525.3398 
12714000     200.9442    -4344.594   -4000.1825    -4344.594            0    3582.8709    17.942543     23.53023    21.661935     9145.499    2531.7953    4194.7532    4022.0643    528.63182   -37.319193   -247.38477   -3522.3073 
12715000    208.02803   -4401.8221   -4045.2692   -4401.8221            0    2404.0253    18.095761    23.176601    21.924516    9195.1028     1002.935    3470.1112    2739.0298   -200.85763   -376.30155    728.95426   -3722.8867 
12716000    210.81823   -4367.3353        -4006   -4367.3353            0    3748.8588    17.940116     23.06594     21.97366    9092.8245    3613.5222    4554.6592    3078.3949   -667.24443   -546.40159   -188.43176   -3508.8657 
12717000    200.79563   -4362.4131   -4018.2563   -4362.4131            0    4101.8864    17.854285    23.460668    21.804686    9133.4037     4775.112    3718.3628    3812.1844   -549.71145    927.17376    645.06287   -3471.8796 
12718000    206.55794   -4342.4667   -3988.4335   -4342.4667            0    2770.6838    17.817798    23.400976    22.076619    9204.9316    4442.1764    2210.2242    1659.6507    635.94799    58.418894    298.99327   -3616.4845 
12719000    203.07349    -4336.411     -3988.35    -4336.411            0    3725.5063    18.049124     23.25359    21.842576    9167.4805    3217.1429    3385.1932    4574.1828    603.80821    230.66854    269.92112   -3490.2561 
12720000    198.91309   -4355.2484   -4014.3182   -4355.2484            0    4556.5784    17.921115     23.41681    21.781617    9140.7722    4095.6458    5016.4547    4557.6348    108.08615   -160.76596    881.54687   -3406.8863 
12721000    205.54798   -4353.2065   -4000.9042   -4353.2065            0    3823.3146    17.662087    23.499454     22.08376    9165.8515    4042.7856    4811.5188    2615.6393   -414.87317    278.14124   -45.028388   -3489.8244 
12722000    199.50779   -4355.9162   -4013.9667   -4355.9162            0    4532.5531     17.92085    23.280077    21.843526    9113.0922    3202.9444    5217.0849      5177.63     423.3493   -551.65741   -409.12509   -3411.5673 
12723000     202.7556   -4351.7816   -4004.2655   -4351.7816            0    3250.9575     17.92095    23.114332    22.133986    9168.5782    3400.5478    2958.2652    3394.0594    457.94002    181.23585    682.89977   -3569.5659 
12724000    211.86756    -4358.993   -3995.8592    -4358.993            0    3100.5955    17.987301    23.368031    21.768714    9149.9955    3734.4749    2580.5734    2986.7382   -277.98675    190.70274    327.30225   -3582.1055 
12725000    192.84669   -4342.2016   -4011.6689   -4342.2016            0    2488.5858    17.855024    23.335527     22.10816    9211.5059    2651.5571    1997.5377    2816.6626    -786.3484   -398.37572   -316.85817   -3677.3514 
12726000    206.20546   -4344.3672   -3990.9381   -4344.3672            0    5040.9175     17.97189    23.147305    21.837157     9084.275    3876.7577    5857.6472    5388.3475    42.913878   -458.69024   -240.03369    -3323.093 
12727000    207.57031   -4295.7655   -3939.9971   -4295.7655            0    5425.4079    18.029749    23.009174    21.814778    9049.8528    4658.1641    5216.1383    6401.9213   -846.10225    151.12666   -350.21612   -3223.9364 
12728000     211.1263   -4333.0031   -3971.1399   -4333.0031            0    5152.0416    17.847272    23.398759    21.755221    9085.0674     5121.822    5757.7946    4576.5082    1042.0483   -1477.7217   -361.62052    -3288.513 
12729000    216.58542   -4357.5266   -3986.3066   -4357.5266            0    4795.3237    17.773694    23.483195     21.93406    9154.9062    5939.7503    4509.9328    3936.2882    1087.9798   -971.07726   -27.439635   -3346.0593 
12730000    214.02614   -4335.2708   -3968.4373   -4335.2708            0    3839.7257    17.919335    23.474265    21.777918    9160.7339    2775.9348     2663.832    6079.4105    525.00399   -425.67652   -650.01566   -3455.4503 
12731000    206.68366    -4336.443   -3982.1943    -4336.443            0    2895.3955    18.029577    23.074542    22.048983    9172.9114    2159.6961     3390.177    3136.3136   -460.48498     302.7665    114.98283   -3594.8555 
12732000    208.44946   -4352.7305   -3995.4553   -4352.7305            0    3110.3466      18.0701    23.123879    21.990025    9188.5497    3387.2923    3915.0523    2028.6951    1224.3789   -236.57004   -286.58219   -3578.6515 
12733000    200.86413   -4357.6657   -4013.3915   -4357.6657            0    2438.7415    17.915605    23.455309    21.957944    9227.0802    2634.1252    2461.0314    2221.0679    602.24418   -27.359723   -152.49665   -3685.2161 
12734000    208.46354   -4336.7563   -3979.4569   -4336.7563            0    4242.8084    17.759302    23.571663    22.003901    9211.1913    5173.2737    4896.8175    2658.3339   -522.85769    242.01833   -198.16451    -3409.496 
12735000    210.29724   -4372.5136   -4012.0714   -4372.5136            0    4229.3962    17.957846    23.356367    21.791687    9140.0882     4478.316    3808.1645     4401.708   -1397.2584   -112.05613   -7.4585483   -3448.2979 
12736000    206.36247   -4355.7392    -4002.041   -4355.7392            0    5307.7728    18.084848     23.05623    21.803402    9091.3298    5233.5791    5299.3005    5390.4388    643.57471   -49.200051    505.15018   -3298.2955 
12737000    210.03702   -4354.7811   -3994.7848   -4354.7811            0    3888.7995    18.018992    23.191072    21.890522    9147.6054    4593.7355    4066.6786    3005.9845   -241.37172   -19.236626    1000.5179   -3475.9862 
12738000    206.38037   -4341.7216   -3987.9927   -4341.7216            0    2403.4311    17.810255    23.590795    22.000541    9243.7047    2454.6754    986.44533    3769.1724    38.380187    84.536298   -141.87574   -3663.9862 
12739000     207.4731   -4353.9889   -3998.3871   -4353.9889            0    2984.3122    17.969779    23.320395    21.903018    9178.7301    3764.6763    2254.3585    2933.9019    -684.0125   -177.67032    160.23438      -3598.9 
12740000     208.9448   -4352.2081   -3994.0838   -4352.2081            0    3633.5525    18.045991    23.066991     22.01822    9165.4521    3636.7097    4499.2683    2764.6797   -788.97533   -177.08059   -129.76129   -3508.3915 
12741000    209.42435   -4375.4367   -4016.4905   -4375.4367            0     3179.932    17.957362    23.524935    21.785001    9202.9816    2674.2427    3100.7769    3764.7763   -473.19685   -270.18883    778.18676   -3589.6926 
12742000    203.72293   -4346.3572    -3997.183   -4346.3572            0    3020.6246     17.70913    23.465335      22.1315    9196.7598    2795.7541    3037.2192    3228.9006    654.98219    802.68201   -189.46461   -3592.0408 
12743000    218.19466   -4349.1745   -3975.1963   -4349.1745            0    3742.6803    18.100733    23.262385    21.717151    9144.3587     3041.264     4370.543    3816.2337   -448.12823   -167.07333    222.39884   -3476.0684 
12744000    205.95385    -4338.096   -3985.0981    -4338.096            0    4618.2668    17.986827    23.093799    21.980292    9130.2651     3088.614    5172.9347    5593.2517   -56.840175   -662.69575    876.09078   -3370.1503 
12745000    202.25064   -4319.8608   -3973.2102   -4319.8608            0    4169.4564    17.986524     23.48252    21.745383    9184.5738    3815.2326    5182.7702    3510.3665   -1266.6866    153.32729    -243.7017   -3414.7215 
12746000    204.10467   -4353.7084     -4003.88   -4353.7084            0    2365.4174    17.939691    23.428462    21.918948    9212.5201    2669.6746    2271.5798    2154.9978    355.07688    233.73003   -111.91293   -3686.0739 
12747000     212.0453   -4370.7149   -4007.2765   -4370.7149            0    4092.9079    17.913405    23.205159    21.966486    9131.1034    3025.1197    6006.2873    3247.3167    626.82643    554.13148     153.4488    -3462.233 
12748000    209.52467   -4331.7726   -3972.6545   -4331.7726            0    2864.5686    17.859818    23.710454    21.824452    9241.8785    2749.7275    1031.9878    4811.9905    144.17945   -449.12843   -238.79998   -3586.5585 
12749000    195.48201   -4351.8396   -4016.7901   -4351.8396            0     3936.478    17.875996    23.346666    21.920117    9148.2493    3101.4516    3447.0408    5260.9416    -210.2612    339.36194     128.3365   -3491.5937 
12750000    222.85359   -4345.0244   -3963.0609   -4345.0244            0    3341.1626    18.284637    22.907309    21.905214    9175.0388    1484.0196    4638.5843    3900.8839    44.543133    896.21408    45.575618   -3515.9849 
Loop time of 411.945 on 64 procs for 250000 steps with 864 atoms

Performance: 104.868 ns/day, 0.229 hours/ns, 606.876 timesteps/s
191.0% CPU use with 32 MPI tasks x 2 OpenMP threads

MPI task timing breakdown:
Section |  min time  |  avg time  |  max time  |%varavg| %total
---------------------------------------------------------------
Pair    | 17.406     | 25.039     | 33.366     | 101.0 |  6.08
Bond    | 0.89957    | 1.0479     | 1.3734     |  10.5 |  0.25
Kspace  | 202.5      | 212.55     | 221.83     |  40.3 | 51.60
Neigh   | 1.2242     | 1.2889     | 1.4167     |   5.1 |  0.31
Comm    | 62.472     | 67.949     | 71.172     |  25.6 | 16.49
Output  | 0.57294    | 0.57332    | 0.57509    |   0.0 |  0.14
Modify  | 73.932     | 76.391     | 79.206     |  15.9 | 18.54
Other   |            | 27.11      |            |       |  6.58

Nlocal:        27.0000 ave          37 max          17 min
Histogram: 1 5 5 3 2 2 4 1 2 7
Nghost:        2140.06 ave        2287 max        2021 min
Histogram: 8 4 2 2 0 0 6 4 4 2
Neighs:        6622.97 ave        9372 max        3973 min
Histogram: 1 6 4 3 3 2 3 4 2 4

Total # of neighbors = 211935
Ave neighs/atom = 245.29514
Ave special neighs/atom = 2.0000000
Neighbor list builds = 4419
Dangerous builds = 0

unfix		3
unfix		2
unfix		1

write_data	data.final.${pid} nocoeff
write_data	data.final.0 nocoeff
System init for write_data ...
PPPM initialization ...
  extracting TIP4P info from pair style
  using 12-bit tables for long-range coulomb (../kspace.cpp:340)
  G vector (1/distance) = 0.37222621
  grid = 24 27 25
  stencil order = 5
  estimated absolute RMS force accuracy = 0.0030872085
  estimated relative force accuracy = 9.2970366e-06
  using double precision FFTW3
  3d grid and FFT values/proc = 4410 672
Last active /omp style is kspace_style pppm/tip4p/omp

write_restart   restart.lmp.${pid}
write_restart   restart.lmp.0
System init for write_restart ...
PPPM initialization ...
  extracting TIP4P info from pair style
  using 12-bit tables for long-range coulomb (../kspace.cpp:340)
  G vector (1/distance) = 0.37222621
  grid = 24 27 25
  stencil order = 5
  estimated absolute RMS force accuracy = 0.0030872085
  estimated relative force accuracy = 9.2970366e-06
  using double precision FFTW3
  3d grid and FFT values/proc = 4410 672
Last active /omp style is kspace_style pppm/tip4p/omp
Total wall time: 0:06:52
