LAMMPS (30 Jul 2021)
  using 1 OpenMP thread(s) per MPI task
package omp 0
using multi-threaded neighbor list subroutines
echo both

include		in.partitions
variable        pid world 0
include		in.temp
variable        temperature equal 260.80
variable	tempDamp equal 100.0
include		in.pressure
variable        pressure equal 7625.0
variable        pressureDamp equal 1000.0 # This is 1 ps
include		in.seed
variable        seed world 745823

units		real
atom_style	full
read_restart    restart.lmp.${pid}
read_restart    restart.lmp.0
Reading restart file ...
  restart file = 30 Jul 2021, LAMMPS = 30 Jul 2021
  restoring atom style full from restart
  triclinic box = (-3.2048734 -0.18679891 -0.021284517) to (14.814872 22.766798 19.251283) with tilt (0.23812307 -6.4742838 0.12296894)
  4 by 4 by 4 MPI processor grid
  restoring pair style lj/cut/tip4p/long/omp from restart
  restoring bond style harmonic/omp from restart
  restoring angle style harmonic/omp from restart
  1008 atoms
  672 bonds
  336 angles
Finding 1-2 1-3 1-4 neighbors ...
  special bond factors lj:    0        0        0       
  special bond factors coul:  0        0        0       
     2 = max # of 1-2 neighbors
     1 = max # of 1-3 neighbors
     1 = max # of 1-4 neighbors
     2 = max # of special neighbors
  special bonds CPU = 1.698 seconds
  read_restart CPU = 2.081 seconds

include 	in.setup
variable	out_freq equal 1000
variable	out_freq2 equal 10000
variable	out_freq3 equal 1000

timestep	2.0

neigh_modify    delay 7 every 1

include		in.tip4p
# This is TIP4P/Ice

# create groups ###
group ox type 2
336 atoms in group ox
group hy type 1
672 atoms in group hy

# set charges - beside manually ###
set group ox charge -1.1794
Setting atom values ...
  336 settings made for charge
set group hy charge 0.5897
Setting atom values ...
  672 settings made for charge

# ### TIP3P Potential Parameters ###
pair_style lj/cut/tip4p/long/omp 2 1 1 1 0.1577 8.5
pair_coeff 1 1*2 0.000 0.000
pair_coeff 2 2 0.21084 3.1668
bond_style  harmonic
bond_coeff  1 450 0.9572
angle_style harmonic
angle_coeff 1 55 104.52
kspace_style pppm/tip4p/omp 1.0e-5
pair_modify tail yes

thermo          ${out_freq}
thermo          1000
thermo_style    custom step temp pe etotal epair emol press lx ly lz vol pxx pyy pzz pxy pxz pyz enthalpy

restart 	${out_freq3} restart.lmp.${pid} restart2.lmp.${pid}
restart 	1000 restart.lmp.${pid} restart2.lmp.${pid}
restart 	1000 restart.lmp.0 restart2.lmp.${pid}
restart 	1000 restart.lmp.0 restart2.lmp.0


include         in.dump
dump            myDump all atom ${out_freq2} dump.water.${pid}
dump            myDump all atom 10000 dump.water.${pid}
dump            myDump all atom 10000 dump.water.0
dump            myDump2 all dcd ${out_freq2} dump.dcd
dump            myDump2 all dcd 10000 dump.dcd
dump_modify     myDump append yes
dump_modify     myDump2 append yes


variable natoms 	equal  "count(all)"                        # NUMBER ATOMS
variable H      	equal  "enthalpy/v_natoms"                 # ENTHALPY-per-atom
variable Vol      	equal  "vol/v_natoms"                 # volume-per-atom
fix AVG all 		ave/time ${out_freq} 1 ${out_freq} v_Vol v_H file vol_enthalpy.dat
fix AVG all 		ave/time 1000 1 ${out_freq} v_Vol v_H file vol_enthalpy.dat
fix AVG all 		ave/time 1000 1 1000 v_Vol v_H file vol_enthalpy.dat



fix 		1 all shake 1e-6 200 0 b 1 a 1
       0 = # of size 2 clusters
       0 = # of size 3 clusters
       0 = # of size 4 clusters
     336 = # of frozen angles
  find clusters CPU = 0.196 seconds
fix             2 all nph tri ${pressure} ${pressure} ${pressureDamp}
fix             2 all nph tri 7625 ${pressure} ${pressureDamp}
fix             2 all nph tri 7625 7625 ${pressureDamp}
fix             2 all nph tri 7625 7625 1000
fix             3 all temp/csvr ${temperature} ${temperature} ${tempDamp} ${seed}
fix             3 all temp/csvr 260.8 ${temperature} ${tempDamp} ${seed}
fix             3 all temp/csvr 260.8 260.8 ${tempDamp} ${seed}
fix             3 all temp/csvr 260.8 260.8 100 ${seed}
fix             3 all temp/csvr 260.8 260.8 100 745823


run             250000
PPPM initialization ...
  extracting TIP4P info from pair style
  using 12-bit tables for long-range coulomb (../kspace.cpp:340)
  G vector (1/distance) = 0.37781453
  grid = 24 27 32
  stencil order = 5
  estimated absolute RMS force accuracy = 0.0026379394
  estimated relative force accuracy = 7.9440762e-06
  using double precision FFTW3
  3d grid and FFT values/proc = 3825 384
Last active /omp style is kspace_style pppm/tip4p/omp
Neighbor list info ...
  update every 1 steps, delay 7 steps, check yes
  max neighbors/atom: 2000, page size: 100000
  master list distance cutoff = 10.8154
  ghost atom cutoff = 10.8154
  binsize = 5.4077, bins = 5 5 4
  1 neighbor lists, perpetual/occasional/extra = 1 0 0
  (1) pair lj/cut/tip4p/long/omp, perpetual
      attributes: half, newton on, omp
      pair build: half/bin/newton/tri/omp
      stencil: half/bin/3d/tri
      bin: standard
Per MPI rank memory allocation (min/avg/max) = 9.312 | 9.326 | 9.336 Mbytes
Step Temp PotEng TotEng E_pair E_mol Press Lx Ly Lz Volume Pxx Pyy Pzz Pxy Pxz Pyz Enthalpy 
 2750000    274.32188   -4814.4089   -4265.7313   -4814.4089            0    7639.7697    18.019746    22.953597    19.272567    7971.4802    5384.3957    8103.9972    9430.9161   -1279.8726     -339.894   -1122.8432   -3377.5633 
 2751000    265.10866   -4832.1402   -4301.8901   -4832.1402            0    8073.1265    17.838575    22.927546    19.452747    7956.0714    9034.0321    7709.3345     7476.013    736.36601    -157.3357    2469.2106    -3365.156 
 2752000    263.49706   -4826.3036   -4299.2769   -4826.3036            0    7166.9095    18.136186    22.912269    19.261967    8004.1402    6839.0576     6817.241      7844.43   -955.52302   -14.079781   -1058.5931    -3462.668 
 2753000    264.29324   -4833.1651    -4304.546   -4833.1651            0    8166.3336    17.878248    22.910805    19.396532    7944.9174    8083.3344    7380.4965    9035.1698   -314.91263    187.07094   -74.415264   -3358.3254 
 2754000    246.08264   -4832.7089   -4340.5132   -4832.7089            0    8372.5386    17.810491    23.059158    19.261066    7910.4219    8419.3115    8215.9406    8482.3637    295.95726    -1029.374    2580.7346    -3374.612 
 2755000    243.68128   -4784.1592   -4296.7665   -4784.1592            0    7877.9341     18.05022     22.94125    19.319451    8000.0809    6688.0759    7240.2355     9705.491   -699.91259   -795.73601    24.400879   -3377.6245 
 2756000    264.30945   -4811.0129   -4282.3614   -4811.0129            0    7267.0603    17.884285    22.964605    19.480875    8000.9032    7302.6607    8173.6143     6324.906   -734.87616   -145.80575   -360.66951   -3434.4047 
 2757000      261.784   -4829.8587   -4306.2584   -4829.8587            0    6310.0898     18.06952     22.79248    19.430317    8002.3605      5713.74    6753.0188    6463.5107   -86.722744    691.31242    251.59047   -3569.8317 
 2758000    256.92023   -4812.7743   -4298.9021   -4812.7743            0    6456.9998    18.113601    22.892757    19.361854     8028.785    5409.9034    6251.9621    7709.1338    44.810818   -1433.2356    -314.1865   -3542.8417 
 2759000    263.10552   -4782.1257   -4255.8821   -4782.1257            0     8810.609    18.013566    22.692378    19.430723     7942.709    8190.3817    9902.7569    8338.6884    1113.5832     923.1385   -612.73525   -3235.2941 
 2760000    266.94973   -4827.6575   -4293.7251   -4827.6575            0    5273.2154    18.133637    22.732695    19.601684    8080.3322     5566.422     6613.033    3640.1911    141.68672    1619.1568   -158.06217   -3672.3117 
 2761000    267.77852   -4825.3475   -4289.7574   -4825.3475            0    10508.854    17.851531    22.802453    19.344799    7874.4688    11378.273    10072.097    10076.192    1256.3677    1169.2962    1068.3282   -3082.9095 
 2762000    268.44712   -4777.6914    -4240.764   -4777.6914            0    7388.8769    18.034465     23.09153    19.188729    7991.0192    5368.7424    7743.1773    9054.7111    1345.3665    125.21103    1374.6594   -3379.6582 
 2763000    267.83825   -4788.2646    -4252.555   -4788.2646            0    7533.7928    17.810581    23.037319    19.435056      7974.36    9512.7606    6557.9854    6530.6325    717.26989   -1888.1804   -88.085422    -3376.391 
 2764000    253.96607   -4806.6938   -4298.7303   -4806.6938            0    7862.4303    18.031692    22.982719    19.234914    7971.2813    7335.2527    7151.2592     9100.779   -553.06131   -1110.6781    605.73114   -3384.6995 
 2765000    271.84252   -4839.8914   -4296.1727   -4839.8914            0    6912.6443    17.764009    23.042394    19.513462    7987.3534    8947.0003    6003.1395    5787.7929    733.46856   -597.32417    755.56503   -3490.9371 
 2766000    261.14757   -4821.4882   -4299.1608   -4821.4882            0     6424.345    18.003508    23.250343    19.131175    8008.0755     6476.057     5778.565    7018.4131   -225.09734    890.58936    98.546174   -3548.8643 
 2767000    269.81594   -4834.8264   -4295.1612   -4834.8264            0    8626.3916    17.871516    22.999449    19.287423     7927.806     7030.107    8918.4405    9930.6274    917.09781    1252.3997     897.2604   -3297.7872 
 2768000    260.44711   -4828.0458   -4307.1194   -4828.0458            0    7544.3444    17.866009    23.249514    19.136133    7948.6912    7682.1925    7455.7161    7495.1248    2220.8616    423.35497   -518.74838   -3432.5526 
 2769000     266.7147   -4823.8763   -4290.4139   -4823.8763            0    7836.3101    17.965019    23.370524     18.96081    7960.7325     6925.429    7735.4993    8848.0018    327.67344   -695.59478   -2023.7126   -3380.6253 
 2770000    262.71122   -4831.9584   -4306.5035   -4831.9584            0    7728.6627    17.739126    23.231966     19.33622    7968.7418    8676.2011    6453.2378     8056.549    830.86733    618.48085   -1869.4426   -3408.3098 
 2771000    262.80244   -4845.2378   -4319.6005   -4845.2378            0    9291.8339    17.949506    23.058537    19.126808     7916.382    9349.1646     8770.304    9756.0332   -667.62733    291.37124    172.79136   -3246.8368 
 2772000    267.96481   -4829.5716   -4293.6089   -4829.5716            0    8853.2516    17.731814    23.034135    19.502156    7965.4019    9717.4848    7255.2245    9587.0455   -235.29072   -813.89814    459.29318   -3265.1513 
 2773000    259.79659   -4850.3846   -4330.7593   -4850.3846            0    6825.8653    18.054025    23.076289     19.11242     7962.614    6480.9167    7083.7593    6912.9199    17.437124   -898.94078    675.10259   -3538.0951 
 2774000    268.00098   -4787.4534   -4251.4183   -4787.4534            0    8672.6788    17.870849    22.953817    19.445655    7976.6897    11021.006    8120.0442    6876.9865   -79.623377   -1067.9098   -1569.2509   -3242.5097 
 2775000    265.04375   -4796.9087   -4266.7884   -4796.9087            0    8044.9198     17.92879    23.156038    19.172084    7959.4777     7343.779    7676.4897    9114.4906     177.8467   -324.32613    2147.0324   -3332.9275 
 2776000    262.06226   -4797.2168   -4273.0599   -4797.2168            0    6899.3069    17.851697     23.01519    19.407658    7973.8344    7630.4243    7982.9821    5084.5143    -254.8781    237.32794    879.28648   -3470.7382 
 2777000     270.3179    -4796.167   -4255.4978    -4796.167            0    8195.7188    18.097095     23.02746    19.191329    7997.6051    5189.7397    8982.9508    10414.466    -105.0876    731.56889    552.16334   -3299.5749 
 2778000    258.15718   -4813.7102    -4297.364   -4813.7102            0    7041.5551    17.785418    22.971158    19.586269    8002.0021    7706.2889    8605.4459    4812.9306    244.16778    1472.0502    504.45426   -3475.6075 
 2779000    259.13825   -4818.5687   -4300.2602   -4818.5687            0    5889.1572    18.053162    23.150301    19.184546    8017.9149    6705.3214    4613.7558    6348.3943    66.088659   -45.206041    959.50042    -3611.623 
 2780000     267.9076   -4802.3965   -4266.5482   -4802.3965            0    6669.3963     17.83958    23.188163    19.386849    8019.7011    7314.0312    6182.9301    6511.2275   -540.60513   -946.57621   -1960.0392   -3486.5016 
 2781000    269.57767   -4803.5687     -4264.38   -4803.5687            0    7498.4353    17.768127    23.457011    19.141548    7977.9514    8099.1819    6743.8639    7652.2601    183.31178    89.690525    1310.1825   -3391.9353 
 2782000    275.57706   -4833.3349   -4282.1467   -4833.3349            0    7867.7089    17.860849    23.009626    19.300921    7932.1274    7780.5773    7415.5214    8407.0281      -547.89   -1359.2386   -1159.2233   -3371.9948 
 2783000     260.4119   -4810.9093   -4290.0534   -4810.9093            0    8531.8339    17.963951    22.922234    19.278927    7938.5586    6705.7391    9738.9044    9150.8581    113.17244    542.14406    -476.4622    -3302.274 
 2784000    252.77039   -4834.8126   -4329.2406   -4834.8126            0    7367.7861    17.953419    23.064609    19.294807    7989.7597    7741.8799    7588.0141    6773.4643   -2329.1213     1802.702   -2319.5427   -3470.7281 
 2785000    259.93695   -4847.5978   -4327.6918   -4847.5978            0    9517.0628    18.020569    22.969302    19.085019    7899.6689    8631.5133    9146.6932    10772.982    1240.9785    27.490416    1121.7888   -3231.2446 
 2786000     255.4184   -4838.5409   -4327.6725   -4838.5409            0     8806.858    17.769774     23.03044    19.390279    7935.3887    10726.542    7365.3671    8328.6652    103.49027   -1928.2604    353.44603   -3308.4592 
 2787000    259.10507   -4811.6097   -4293.3675   -4811.6097            0    8044.7725    17.986451      23.0637    19.182629    7957.6088    9554.3113    6411.4125    8168.5936   -313.29716   -1545.3277   -242.45019    -3359.743 
 2788000    258.41976   -4815.6348   -4298.7634   -4815.6348            0    8864.7979    17.880374    23.029403    19.275049    7936.9709    8447.9096    9095.3591    9051.1252    997.82354    1612.3565    944.69075   -3272.6401 
 2789000    266.94772   -4844.6637   -4310.7353   -4844.6637            0    7496.3198    17.966192    23.111392    19.231956    7985.5644    8732.0853    8537.8985    5218.9755    -1039.187    325.58063   -1079.4184   -3437.7044 
 2790000     259.1429   -4810.3086   -4291.9908   -4810.3086            0    7651.3615    17.909665    22.928889    19.414083    7972.3683    10196.636    6550.4116    6207.0369   -467.16903   -1698.4044   -178.77139   -3402.3761 
 2791000    260.93158   -4812.3559   -4290.4605   -4812.3559            0     7103.431     18.09258    22.900622    19.277947     7987.458    5824.5895    6309.0525    9176.6509   -1638.9388   -881.56422   -498.08995   -3462.9898 
 2792000    263.33181    -4819.179   -4292.4828    -4819.179            0    10200.717     17.91148    22.912159    19.279201    7912.0042     9851.305    10199.843    10551.004    1081.2311    777.87239    834.99784   -3115.4378 
 2793000    276.77385   -4835.0786   -4281.4967   -4835.0786            0    7125.0312    17.968773    22.976093     19.34613    7987.0921    6505.3065    7475.6716    7394.1155    681.55106     674.9519   -1517.9046   -3451.5479 
 2794000    245.05844   -4815.6901    -4325.543   -4815.6901            0    7092.3314     17.82909    23.296541    19.209326    7978.7112    6090.7652    7417.3486    7768.8804      91.5295    199.65361     238.8527   -3500.2699 
 2795000    254.58705   -4839.1878   -4329.9823   -4839.1878            0    6533.5255    17.917516    23.018354    19.339807    7976.3503    6689.2593    5921.6117    6989.7054   -292.62898   -3.5537912   -1904.0659   -3569.9576 
 2796000    267.90072   -4857.3091   -4321.4746   -4857.3091            0    6864.9575    17.947065    22.933436    19.347861    7963.3451    7625.1005    7161.3654    5808.4066   -1554.5301   -1042.9103    -456.6934   -3524.1975 
 2797000    266.16804   -4828.7605   -4296.3916   -4828.7605            0    8736.5516    17.975255    22.842046    19.332024    7937.5666    9461.0121    8064.8503    8683.7925   -493.55597    -862.1162   -140.75626   -3285.0373 
 2798000    255.92552   -4833.0552   -4321.1726   -4833.0552            0    7740.2324    17.996916    22.940669    19.382675    8002.3566    9586.2997    8167.5378    5466.8596   -1020.6652   -44.817663    413.03182   -3417.8397 
 2799000    267.98206    -4804.556   -4268.5587    -4804.556            0    9371.0708    17.888561    22.844313    19.350372    7907.5658    8388.3077    9070.0469    10654.858   -874.07504   -277.59724    275.55464   -3187.8518 
 2800000    248.44238   -4808.4664    -4311.551   -4808.4664            0    8182.8368    18.079847    23.018728    19.120082     7957.302    6746.1018    9622.5884    8179.8203   -2015.7261    916.54577    1606.3417   -3361.9402 
 2801000    265.35516   -4764.1351    -4233.392   -4764.1351            0    7019.1716    17.996511    22.992061    19.424596    8037.4485    7210.0658    6889.0436    6958.4054   -481.03229    255.38234   -1104.8211   -3410.6192 
 2802000    253.50724    -4823.196   -4316.1502    -4823.196            0     8353.939    17.988857    22.937189    19.230649    7934.8315    8918.5578    7625.7129    8517.5462   -658.47946   -585.52036   -672.66461   -3349.4209 
 2803000    249.76792   -4832.8004   -4333.2337   -4832.8004            0    6707.4749    18.040046    22.820587    19.360007    7970.2134    8433.7782    6233.3233    5455.3231    907.52914   -66.908317    619.94954   -3553.5744 
 2804000     268.7863   -4804.9398   -4267.3339   -4804.9398            0    7013.2837    17.882789    22.978725    19.447879    7991.5941    6069.7055    8530.9759    6439.1696   -368.13795    244.63909   -2361.4814   -3449.9413 
 2805000    266.02289   -4803.8488   -4271.7701   -4803.8488            0    8985.5146    18.015472    22.719151    19.408885    7943.9836    7187.5351    9183.8497    10585.159    1316.7664   -88.144754     505.3532   -3230.7546 
 2806000    257.91231   -4768.1715   -4252.3151   -4768.1715            0    8179.4354    18.047638    22.883296    19.396056    8010.3662    9281.3734    8016.5072    7240.4257    414.64753   -1370.6949    381.06002   -3296.7691 
 2807000    243.57533   -4811.6402   -4324.4594   -4811.6402            0    7991.8473    18.061934    22.795255    19.328633     7958.108    6683.7804    9127.0084    8164.7532   -295.86068   -500.10554   -898.94765   -3396.9189 
 2808000    261.37002   -4822.8242   -4300.0519   -4822.8242            0    6066.5128    17.949656    22.883624    19.543433    8027.5274    5929.1693    5741.9077    6528.4612    502.67197     262.1584   -1481.7409   -3589.8255 
 2809000    255.21424   -4818.2914   -4307.8314   -4818.2914            0     7343.543    18.122039    22.906362    19.345787     8030.629    9155.8668    7039.6883    5835.0739   -88.756331   -490.16456   -544.00867   -3447.7668 
 2810000    255.34678   -4805.4235   -4294.6983   -4805.4235            0    7401.7467    17.737277    22.971159    19.557676     7968.693    9615.8424     6341.199    6248.1986   -565.31579    587.16876    -2558.595   -3434.5028 
 2811000    255.42553   -4782.6903   -4271.8077   -4782.6903            0    8516.3698    18.009309    23.209709    18.940941    7917.1395    7722.6648    7263.5834    10562.861    219.67219   -14.713216   -1900.7756    -3288.479 
 2812000    279.62668   -4811.3791   -4252.0912   -4811.3791            0    7339.7379    17.819301    23.243167    19.384633     8028.669    6163.5397    7102.6868    8752.9871    440.65609    296.84646    129.49382    -3392.682 
 2813000    269.66588   -4815.1533   -4275.7882   -4815.1533            0    6226.7732    18.009594    23.135335    19.209544    8003.8104     6782.068    5448.7096    6449.5419   -61.462231    -104.9302    317.56308   -3548.9534 
 2814000    245.56836   -4805.9753   -4314.8083   -4805.9753            0     5240.826    17.879973    23.215894    19.410111    8057.1283    5697.8953    6236.8737     3787.709     315.7431   -478.29342    1544.5606   -3698.9853 
 2815000    247.37114   -4819.4843   -4324.7114   -4819.4843            0    7883.4438    17.969994    23.002506    19.208797    7940.0499    10421.019    6565.5242    6663.7884   -427.52699    651.10299   -252.84556   -3411.8285 
 2816000    266.50399   -4792.7683   -4259.7274   -4792.7683            0    8634.9927    17.955485     22.87401    19.406952    7970.7059    7287.2125    8617.1339    10000.632     1012.876   -1195.6994    1462.5357   -3255.9564 
 2817000    260.98212   -4829.5713   -4307.5748   -4829.5713            0    7238.5168    18.135421    22.809684    19.327945    7995.2602    6366.3859    8148.6729    7200.4915    784.74916   -109.73419   -228.24258   -3463.5444 
 2818000    264.60045   -4826.3078   -4297.0742   -4826.3078            0    7513.0868    17.933961    22.793647    19.501107    7971.6696    9521.2182    7189.3881    5828.6541    562.68898   -1320.2389    113.22922   -3423.6131 
 2819000    250.02541   -4829.2723   -4329.1906   -4829.2723            0       7709.2     18.08698    22.974008    19.161376    7962.1349    7188.9058    7563.0575    8375.6366    2121.5775    108.69211      1448.74   -3434.0016 
 2820000    252.49617   -4795.5541   -4290.5306   -4795.5541            0    6099.8434    17.940432    22.887584     19.44227    7983.2518    6347.7823     5555.699    6396.0489   -814.88571   -162.10497   -514.92173   -3580.3409 
 2821000    252.82573   -4797.0878    -4291.405   -4797.0878            0    8816.3685    18.014585    22.923243    19.272576    7958.6625    7719.2447    9314.3425    9415.5182      475.638    930.12558    962.69403   -3268.0986 
 2822000    276.80374   -4792.8189   -4239.1772   -4792.8189            0    6304.0909    17.844202    23.218395    19.411138    8042.3012    8013.3616    5642.8699    5256.0411   -45.361592    405.63311   -946.66716   -3499.7785 
 2823000    250.00474   -4833.8467   -4333.8064   -4833.8467            0    9172.6966    17.974919    23.001128    19.154566    7919.3289    7311.2863    9111.2538     11095.55   -922.88943   -73.059247    74.864747   -3274.4031 
 2824000     256.3037   -4855.5157   -4342.8766   -4855.5157            0    5683.9102    17.913318    23.007232    19.418554    8003.0821    5433.9398    5196.9271    6420.8636   -2446.1231    50.645439   -827.40236   -3679.4691 
 2825000    265.92475    -4836.784   -4304.9017    -4836.784            0    9348.3112    17.974144    22.992501    19.170807    7922.7295    9250.3206    8540.5466    10254.066    1751.6655   -463.26047     2143.191   -3224.7521 
 2826000    259.32283   -4816.3007    -4297.623   -4816.3007            0    5820.5442    17.950603    23.170489    19.393029     8066.031    6728.0507    5230.3752    5503.2068   -1145.0229     3.951372   -950.37498   -3612.9245 
 2827000    261.70582   -4860.0636   -4336.6196   -4860.0636            0    10159.098    18.071972    22.970403    18.983947    7880.6252    8950.8665    9258.0102    12268.419    372.44923    1136.6232    3893.0045   -3169.0259 
 2828000    280.12642   -4807.5364    -4247.249   -4807.5364            0    6722.6713    17.776427    23.051391    19.546927    8009.7711    6882.0392    7253.3611    6032.6138   -476.43832   -562.43958    -123.8246   -3461.9449 
 2829000    256.01839   -4825.4638   -4313.3954   -4825.4638            0     9132.004    17.906414    23.039646     19.19421    7918.7141    7953.8976    9309.7586    10132.356   -113.96287    642.94495    508.21902   -3258.7739 
 2830000    265.39843   -4793.9189   -4263.0892   -4793.9189            0    8012.0503    17.847594    23.170534    19.299004    7980.8768    9493.0972    7380.6631    7162.3905    239.27211    514.64897     1790.108   -3330.5434 
 2831000    270.16471   -4831.0521   -4290.6893   -4831.0521            0    8132.5357     17.85901     23.25661    19.124948    7943.3564    8919.8531    7720.1103    7757.6438    469.53429    285.28861    1434.3953     -3348.57 
 2832000    253.70852   -4836.7465   -4329.2981   -4836.7465            0    7125.2052     17.88512    23.252434    19.228656    7996.6705    7446.6232    6344.2214    7584.7712   -1659.6975    189.82166    266.61667   -3498.3336 
 2833000    272.36161   -4822.5645   -4277.8076   -4822.5645            0    9026.9713    17.857085    23.157228    19.246414    7958.7884    9310.8005    9224.7013    8545.4122     375.9204     768.0849    1439.2364   -3230.0402 
 2834000    272.44304   -4806.2324   -4261.3126   -4806.2324            0    7363.4052    17.856575    23.136477    19.299632    7973.4161    7009.8018    7751.2196    7329.1941    368.05995   -168.64329    211.81368   -3405.0657 
 2835000    257.40491   -4834.0163   -4319.1747   -4834.0163            0    6568.4077     17.86503    23.310189    19.172149    7983.9962    7315.8658    5381.8153    7007.5419   -583.59546   -205.57574    3117.1739   -3554.3598 
 2836000    261.85415   -4827.7843   -4304.0437   -4827.7843            0    8566.6452     17.78185    23.128992     19.23703     7911.734    9163.1052    7831.9373    8704.8933   -611.09407   -724.00364    642.85719   -3315.5854 
 2837000    259.32184   -4834.7043   -4316.0286   -4834.7043            0    8015.4451    17.967867    23.023679    19.268248    7971.0123     8747.864     7555.642    7742.8293    728.77366    390.17473    328.39732   -3384.2408 
 2838000    251.06285    -4809.503   -4307.3463    -4809.503            0    6196.3274    17.917463    23.150378    19.354306    8028.0896    6207.9512    6513.0327    5867.9983    765.07186    219.82045    34.794579   -3581.8713 
 2839000      243.725   -4829.9818   -4342.5017   -4829.9818            0    8442.4095    17.920845    23.172369    19.135657    7946.4339    10064.348    7088.4992    8174.3809     996.7835    1135.1554    712.45676   -3364.1059 
 2840000    262.74142   -4839.8017   -4314.2864   -4839.8017            0    8758.5338    17.795306     23.14085    19.305805    7950.1015    9768.6222    7587.0427    8919.9364   -114.51323   -456.40778   -1178.9714   -3298.7863 
 2841000     246.1626   -4808.2444   -4315.8887   -4808.2444            0    8877.3131    17.890198    23.260483    19.048604    7926.7842    9047.2631    7433.2561     10151.42   -691.48197   -1373.3577   -1462.1047   -3289.6357 
 2842000    268.04084   -4829.1675   -4293.0527   -4829.1675            0    8806.6351    17.680983    23.171812      19.3361    7922.0078    8725.7537      8451.05    9243.1015    1517.2359    -279.4983   -296.05057   -3275.5838 
 2843000    265.32105    -4814.752   -4284.0771    -4814.752            0    5951.0154    18.166746     23.14629    19.144035    8049.9285    3802.4437    6596.1613    7454.4412   -503.79722    95.078439   -516.15651   -3585.4282 
 2844000    266.02901   -4835.6603   -4303.5694   -4835.6603            0     6363.275     17.77481    23.203946    19.375912    7991.5125    6875.5907    5760.0602    6454.1742    815.19334    1030.1875    456.86652   -3561.9423 
 2845000    254.12964   -4849.0339   -4340.7432   -4849.0339            0    8430.8393    17.885589    23.071214     19.26277    7948.6325    8438.4173    6918.3981    9935.7026     29.66688    413.81576   -985.60975    -3363.418 
 2846000    258.46592   -4800.1539   -4283.1901   -4800.1539            0    7585.2075    18.116238    23.212695    18.988636    7985.2288    6938.9965    5999.9459    9816.6801    953.14449    105.56435   -1195.8301   -3399.8444 
 2847000    260.00383   -4819.2786   -4299.2388   -4819.2786            0    7580.9703    17.757487     23.20755     19.38616    7989.1874    10808.147    6013.1233    5921.6404   -29.134544   -1872.9045    2396.9259   -3415.9489 
 2848000      254.495   -4813.7907   -4304.7692   -4813.7907            0    6569.9652    17.956937    23.085868    19.232217    7972.7441    6913.7799    5661.8238    7134.2918   -1479.3375    189.96164    1239.2187   -3540.8512 
 2849000    256.07615    -4824.883   -4312.6991    -4824.883            0    7627.4668    18.025977    23.149478    19.082828    7963.1102    4864.3131    8284.5831    9733.5043   -135.23858    783.60939    502.72721   -3426.8925 
 2850000    261.85802   -4821.3606   -4297.6122   -4821.3606            0    10129.894     17.92199    22.938431    19.228328    7904.8109    9251.4106    10168.572    10969.698   -889.71307   -34.461688    1627.4244    -3129.802 
 2851000    246.66284   -4838.5238   -4345.1676   -4838.5238            0    6928.7518    17.917247    23.011173    19.318956    7965.1454    7055.1127    5981.9278    7749.2148    -351.7182   -163.50403   -1000.3925   -3540.2997 
 2852000    251.92164   -4795.6146   -4291.7402   -4795.6146            0    7240.5415     17.90578    23.296219    19.081214    7959.4794    8099.2358    6200.5118    7421.8769   -11.561577   -174.41624    4181.2328    -3451.252 
 2853000     256.2024   -4796.6741   -4284.2376   -4796.6741            0    7468.3346     17.80733    23.357669    19.223123     7995.622    8838.7285     6129.947    7436.3285   -773.65195    923.87803    1652.3878   -3413.3704 
 2854000    260.19967   -4809.5905    -4289.159   -4809.5905            0     6641.305    17.965235    23.111592     19.27792    8004.2921    7377.7223     6881.189    5665.0037    522.30628    529.09577    -907.0433   -3513.8903 
 2855000    278.24859   -4796.2457   -4239.7142   -4796.2457            0     8982.962    17.882899    23.260498    19.081512    7937.2435    9681.9029       8473.3    8793.6829   -237.50566   -376.44844   -1602.7493   -3199.8775 
 2856000    254.31694   -4852.3305   -4343.6652   -4852.3305            0     5516.469    17.887081    23.135636    19.467667    8056.2849    7603.9331    5788.8203    3156.6536    968.85013    294.52646    196.72118   -3695.5206 
 2857000    272.93902   -4835.0845   -4289.1728   -4835.0845            0    8730.2195     17.95264    22.929366    19.283271    7937.8171    10563.192    7589.9513    8037.5151   -353.54803   -538.79688    -870.9048   -3278.5196 
 2858000    269.84963   -4822.4232   -4282.6906   -4822.4232            0    8697.0514    17.989584    22.863808    19.396287    7977.8945     8149.118    8023.3095    9918.7267    1036.6777    154.16031    85.146471   -3270.7939 
 2859000    258.31956   -4829.5587   -4312.8877   -4829.5587            0    6544.0054    18.022684    22.867511    19.344619    7972.5736    6578.9837     6439.743    6613.2893   -319.06619   -93.016457    580.06228   -3552.0043 
 2860000    268.75575   -4806.1525   -4268.6078   -4806.1525            0     8137.659    17.887766    22.935899    19.411772    7964.1062    6481.3121    10246.948    7684.7166   -256.30191    569.35484   -171.35497   -3323.4324 
 2861000    270.64507   -4811.0608   -4269.7372   -4811.0608            0    5441.5971    18.161236    23.036842    19.274182    8063.8844    4999.9909    5607.1557    5717.6447   -908.60118   -942.58558    1172.7731   -3629.7864 
 2862000    264.45809   -4812.3328   -4283.3839   -4812.3328            0    8644.2722    17.743011    22.860428    19.551041    7930.1528    8932.4048    9387.0224    7613.3893   -427.85808    95.441421    1962.6918   -3283.6467 
 2863000    257.61471   -4825.4418   -4310.1805   -4825.4418            0    10388.273    17.952715    22.870626    19.214117    7889.1213    10990.416    9053.5159    11120.885   -895.40212   -1702.2337   -1842.2218   -3114.9605 
 2864000    261.30046   -4805.7246   -4283.0914   -4805.7246            0    5000.4154      17.8637    23.003367    19.616027    8060.7208    5223.5506    5002.9341    4774.7617    1344.7566    -380.9172    811.89831   -3695.2558 
 2865000    264.18643   -4837.7936   -4309.3881   -4837.7936            0    6327.6829    18.270696    22.972044    19.087904    8011.4842    4915.7616    5990.3229    8076.9642    -871.9107   -480.06266   -2018.7622   -3570.0662 
 2866000     259.8814   -4847.1539    -4327.359   -4847.1539            0    7568.4466    17.850919    23.000591    19.375741    7955.3245    8014.2444    7959.3184    6731.7769    2.5090664    1132.3619    1305.6144    -3449.266 
 2867000    255.33237   -4849.4657   -4338.7694   -4849.4657            0    6338.2732    17.987919    23.142021    19.209895    7996.6336    5909.8611    6655.4277    6449.5307    -898.1871    -1131.489    805.04366   -3599.5829 
 2868000    254.51238   -4829.2089   -4320.1527   -4829.2089            0    7662.9702    17.719711     23.01337    19.408592    7914.6349    8747.7695    7260.8755    6980.2656   -816.97305   -315.43743    1279.6505   -3435.6403 
 2869000    251.03388   -4830.2134   -4328.1146   -4830.2134            0    8010.8102    17.871326    23.180167    19.206517     7956.498    8236.7067    6825.1388    8970.5852    109.39395    560.67819   -1085.8615   -3398.5613 
 2870000    254.82556   -4815.5441   -4305.8615   -4815.5441            0    8297.7628    17.890252    23.132087    19.210856    7950.1989    9067.6706    7354.4605    8471.1573    1100.3414    184.60252   -1086.7616   -3343.7733 
 2871000    264.25216   -4848.4814   -4319.9444   -4848.4814            0    7008.3973     17.79326    23.367247    19.137232    7956.8687    6709.7633    6340.4599    7974.9686    124.73323    294.62336      379.843   -3506.6706 
 2872000    259.38451   -4787.2439   -4268.4428   -4787.2439            0    6697.7144    17.828773    23.294212    19.273965    8004.6167    8593.5181    5840.0089    5659.6161    428.79453   -762.66267    2267.0567   -3486.5575 
 2873000    249.38464   -4801.0096   -4302.2095   -4801.0096            0    8871.6788    17.979916    22.959783    19.277305    7957.9601    9295.5429    9289.4252    8030.0683   -1863.8764    647.23046    563.05919   -3272.5741 
 2874000    267.15009   -4816.7928   -4282.4596   -4816.7928            0    10222.362    17.841238    22.917414    19.345083    7909.7212    10170.268    9702.0069    10794.811    520.32375    1396.8191    1936.5545   -3103.2573 
 2875000     270.8802   -4810.4833   -4268.6895   -4810.4833            0    7401.1536    17.965333    23.022521    19.299569    7982.4417    7062.0168    6851.4976    8289.9465   -429.51657     440.6303   -489.30147   -3407.0788 
 2876000    261.24049   -4840.9205   -4318.4072   -4840.9205            0    6296.8811    18.146705    22.945078    19.313673      8041.78     6988.951    5593.5634    6308.1289   -1113.6341    663.35338   -673.78215    -3579.902 
 2877000    254.76476    -4812.375    -4302.814    -4812.375            0    8582.8659    17.935663     22.83285    19.420737    7953.2247    9142.8659    9224.3989     7381.333    33.257611    2.0727518    774.96167   -3307.2906 
 2878000    251.96355   -4822.0676   -4318.1093   -4822.0676            0     6903.115    18.004825     23.03129    19.214363    7967.7034      5274.23     7129.645    8305.4701   -616.72947    1035.0087    269.82412    -3515.962 
 2879000    260.81356   -4777.6994     -4256.04   -4777.6994            0    7588.3732    17.906874    22.907483     19.54454     8017.198    9726.4349    8160.9996    4877.6852    818.20181    251.14504    978.79739   -3368.7876 
 2880000    245.73552   -4834.7279   -4343.2265   -4834.7279            0    6930.1297    18.101447    23.134666    19.086269    7992.7748    7326.1859    5105.6874    8358.5159   -1899.5933    196.96374    541.11247    -3535.406 
 2881000    257.21223   -4845.7074   -4331.2512   -4845.7074            0     8317.656    17.778273     23.00765    19.372296    7923.9722    9500.1095    8265.9796    7186.8788   -1723.7842    -259.3235   -597.72008   -3370.0378 
 2882000     267.2474   -4801.9782   -4267.4504   -4801.9782            0    7664.2454    18.028218    23.216061    19.132825    8007.9329    6775.2497    5443.0755    10774.411   -236.88258    -1423.895     2114.118   -3372.3624 
 2883000    274.14191   -4824.0121   -4275.6944   -4824.0121            0    8538.1629    17.915778    22.837809     19.39388    7935.1438    8281.0011    10438.925    6894.5621    119.86242     1150.565   -616.77341   -3287.6075 
 2884000    259.53479   -4847.1146   -4328.0129   -4847.1146            0    8097.9019     18.04532    22.968883    19.198433    7957.3824    7035.0394    9246.1425    8012.5237   -529.63103     627.2153   -599.79087   -3388.2493 
 2885000    270.90679    -4851.354   -4309.5069    -4851.354            0     8906.075    17.665993      23.1551    19.330441    7907.2683    10607.051    8001.6609    8109.5134    871.40107    -62.53611    878.59425   -3282.4637 
 2886000    277.40605   -4836.0148   -4281.1685   -4836.0148            0    8859.1944    17.975357     22.95431     19.22715    7933.3508    9601.7196    7589.5609    9386.3026   -761.23657   -1070.8181   -518.50966   -3256.1616 
 2887000    262.46868    -4832.464   -4307.4942    -4832.464            0    8519.8307     17.90785    22.923346    19.337449    7938.1745    7914.9423    8557.9565    9086.5932   -293.93901   -19.904637    1121.2197   -3321.1523 
 2888000    248.69734    -4805.597   -4308.1716    -4805.597            0    6606.2181    18.162494    23.068087    19.084607    7995.9539    5458.7275    7594.7579    6765.1689   -764.49249    2112.3112   -1063.3308   -3537.8021 
 2889000    251.79965    -4838.713   -4335.0826    -4838.713            0    8268.4188    17.797529    23.070251    19.365752    7951.4515     9247.934    8589.8124    6967.5101   -161.00679    1258.5669    835.61593   -3376.2457 
 2890000     265.3277   -4816.4116   -4285.7235   -4816.4116            0    7610.6293    18.065502     23.17669    19.087386    7991.8606     8665.788    5178.8821     8987.218   -625.42151   -808.09317    98.521061   -3398.6811 
 2891000    269.26635   -4835.4569   -4296.8909   -4835.4569            0     10707.82    17.786239      22.8985    19.319343     7868.347    11724.508    10139.869    10259.084   -179.46646    348.13969   -2706.0417   -3068.1496 
 2892000    263.35486   -4825.5953    -4298.853   -4825.5953            0    7456.7093     17.98885    23.383547    19.018605    8000.0455    6600.3584    7360.9915    8408.7779    99.128533     459.2967    2076.9566   -3428.8604 
 2893000    257.96851   -4833.0111   -4317.0422   -4833.0111            0    7240.3368    17.870784    23.084296    19.333919    7975.9084    7503.4662    6576.4152     7641.129    112.31721    446.72314   -1857.7513    -3474.843 
 2894000    262.63172   -4827.2591   -4301.9632   -4827.2591            0    7887.8172    17.980445    23.147453    19.143332    7967.4835    6224.6251    8620.4834    8818.3431    1637.3543     1029.354   -612.37053    -3385.418 
 2895000    265.41998   -4839.1983   -4308.3255   -4839.1983            0    7322.9604    17.940639     22.92028    19.402266    7978.2988     9355.802    5936.0182    6677.0611   -294.66674   -309.24447    -1155.251   -3456.2602 
 2896000    260.81262   -4834.7543   -4313.0968   -4834.7543            0    7843.0915    18.173159    22.707273    19.298306    7963.6943    7276.0962    7643.5054     8609.673    1894.9594   -705.68193    345.80064    -3402.182 
 2897000    256.00206     -4850.82   -4338.7842     -4850.82            0     6788.487    18.029865    22.678094    19.578022    8005.1198    8307.3297    6907.8017    5150.3296    821.73234     371.5411    -1559.567   -3546.2524 
 2898000    261.29511   -4838.5585    -4315.936   -4838.5585            0    7945.2074    18.148047    22.611143    19.376476       7951.1    8229.2011    7949.1898    7657.2313    175.22972    351.05482    1689.9728   -3394.6206 
 2899000    269.87527   -4810.9745   -4271.1907   -4810.9745            0    7551.3336    18.014206    22.532368    19.613542    7961.1901    8261.9131    9685.0614    4707.0263    764.04291   -435.01838   -1730.7597   -3394.4371 
 2900000    266.54686    -4850.395   -4317.2684    -4850.395            0    6215.3151    18.120192    22.721285    19.429229    7999.2863    6493.1539    6637.6678    5515.1236   -115.31186   -13.480268    877.51473   -3592.1811 
 2901000    270.23452   -4792.0627   -4251.5603   -4792.0627            0    8182.8509    18.180568    22.508524    19.455192    7961.4098    6672.4707    8361.4839    9514.5979    1982.2343    384.17992   -1355.5878   -3301.4577 
 2902000    252.98915   -4799.6619   -4293.6523   -4799.6619            0    8382.0638    18.130247    22.652753    19.392728    7964.5934    9662.2724      9115.99    6367.9289    599.26129   -1238.0739    2155.3653   -3320.0302 
 2903000    264.07915   -4807.6464   -4279.4555   -4807.6464            0    8108.2946    18.010788    22.563955    19.521941    7933.6115    8047.4364    9249.7072    7027.7404   -585.83812    201.11697   -893.96479   -3341.2967 
 2904000    264.82614   -4840.2464   -4310.5614   -4840.2464            0    6760.3039     18.24469     22.70005    19.332473    8006.6479    6937.1884    6522.3206    6821.4027    1834.4881    53.727313    -1445.417   -3521.1692 
 2905000    253.37329   -4827.4413   -4320.6634   -4827.4413            0    7266.3243    17.888289     23.07013    19.402592    8007.1614    5488.7401     8311.859    7998.3739   -322.37828    663.03407    259.00284   -3472.1294 
 2906000    253.82178   -4841.2572   -4333.5823   -4841.2572            0    6546.8657    17.969869    23.169414       19.206     7996.444    5681.9378    6209.7187    7748.9405    896.16094    93.215247   -295.51979   -3570.0872 
 2907000     267.0292   -4847.1967   -4313.1053   -4847.1967            0    7845.5432     17.91685    23.016373    19.282029    7951.5405    6743.5312    8427.5216    8365.5768    300.87522    1210.7346   -559.20303   -3403.2964 
 2908000    244.71263    -4816.473   -4327.0175    -4816.473            0    5787.2593    17.747006    23.201648    19.401731    7988.8524     5999.181    6017.0371    5345.5598   -940.94959    1958.4766   -2524.1809   -3652.7485 
 2909000    254.10856   -4839.4493   -4331.2008   -4839.4493            0    6190.3259    18.016248     23.17742    19.159607    8000.4801    6820.6733    5633.0615     6117.243    667.12118    532.82408   -119.30405    -3608.921 
 2910000    258.21121   -4804.9185   -4288.4641   -4804.9185            0     6532.463    17.790453    23.227792    19.318668    7983.1098    7510.8752    5448.7173    6637.7964    679.36064   -344.62873   -1446.8662   -3527.9191 
 2911000      252.959   -4830.1148   -4324.1655   -4830.1148            0    6906.2599    17.825717    23.350148    19.122777    7959.5331    6859.2458    5642.2737    8217.2603    296.82517   -994.57884   -776.87246   -3522.4756 
 2912000     262.1748   -4839.0498   -4314.6678   -4839.0498            0    6525.3416    17.946498    23.086964    19.312009    8001.5479    8228.0069    5710.4157    5637.6023    1297.0039    49.748352    1433.2651   -3553.1972 
 2913000    252.89717   -4818.9125    -4313.087   -4818.9125            0    8509.7499    17.914391    23.029544    19.237168     7936.491     9597.443    7281.0292    8650.7775   -2.3679647    198.60205   -354.57973    -3328.121 
 2914000    259.14596     -4838.25   -4319.9261     -4838.25            0    6727.6229    17.912072    23.078285     19.41585    8026.1224    5246.0646    6784.5608    8152.2431    274.01171   -169.51078    1002.2786   -3532.4393 
 2915000    251.98703   -4825.4745   -4321.4693   -4825.4745            0    5434.4338    18.221531    23.042616    19.169076    8048.5536    3484.6321    5149.6821    7668.9871    240.64931   -623.52016    363.59776    -3683.576 
 2916000    263.23192   -4779.2246   -4252.7282   -4779.2246            0    8231.2828    17.863727    23.086302    19.364215    7985.9458    9104.0203    7191.8998    8397.9282   -1746.7284   -1316.0273   -908.93695   -3294.0568 
 2917000    258.45678   -4840.9031   -4323.9576   -4840.9031            0    7692.9057    18.000194    22.991407    19.312211    7992.3539     6322.931    8372.1278    8383.6582    547.92305    2388.5517     2454.624   -3427.2704 
 2918000     249.7015   -4781.6994   -4282.2656   -4781.6994            0    7232.5619    17.938253    23.105316    19.351796    8020.7196    8275.0006    6592.4327    6830.2523   -1209.8098    378.78061   -505.78651   -3436.2441 
 2919000     274.9769   -4810.8328    -4260.845   -4810.8328            0     8159.387    17.875864    23.003897    19.350524    7957.2168    7003.0779    8675.5769    8799.5062   -141.81155    138.48051    2365.4658   -3313.9658 
 2920000    257.10702   -4803.9016   -4289.6558   -4803.9016            0    9558.5757    18.039993     22.77247    19.288029    7923.8155    10627.254    8967.1209    9081.3524    829.55446   -61.676105    452.27922   -3185.0599 
 2921000    262.99066   -4820.7192   -4294.7054   -4820.7192            0    5533.9784    18.138994    22.794502     19.47282    8051.4139    4174.9002    5745.3026    6681.7325   -1322.8631   -792.18368    -640.7872   -3644.8967 
 2922000    251.85228   -4822.4905   -4318.7548   -4822.4905            0    6293.4034    17.961296    22.886483    19.406627    7977.4999    7696.3107    5467.4528    5716.4468   -1841.2675   -1948.2379    617.82075   -3586.5573 
 2923000    268.24087   -4873.7946   -4337.2797   -4873.7946            0    5689.3624    18.123889    22.847238    19.296048    7990.1232    4890.6276    6157.9653    6019.4941    117.37158   -627.89043   -574.08454   -3674.3111 
 2924000    265.28254   -4849.6725   -4319.0746   -4849.6725            0     4890.634    18.091251    22.741982      19.5232    8032.4482    5219.6435      4654.86    4797.3985   -936.55608   -815.92062    538.94289   -3746.1612 
 2925000    258.38245   -4836.8709    -4320.074   -4836.8709            0    6608.4048    18.216334    22.734007    19.348382    8012.7505    5936.5665    6882.3448    7006.3032    520.47544    472.35871    1807.6173   -3547.8307 
 2926000    266.87983   -4839.1681   -4305.3755   -4839.1681            0    9535.0274    17.963026    22.700053    19.353194    7891.4902    10336.843    9902.5142    8365.7256    1038.3875   -463.45563     590.6268   -3207.9959 
 2927000    275.49813   -4825.6059   -4274.5756   -4825.6059            0    8436.9642    18.047146    22.690871    19.422061    7953.4396    7527.0453    8815.9834    8967.8638   -588.01866    502.74394     2226.936   -3295.9488 
 2928000     268.1159   -4819.4964   -4283.2315   -4819.4964            0    9761.3552    17.859472    22.836292    19.421656    7921.0082    11703.608    8660.0338    8920.4243   -772.39678   -1105.3693   -30.031701   -3155.6019 
 2929000    262.29497   -4814.1122   -4289.4899   -4814.1122            0    5546.6746    18.116017    22.988115    19.362294    8063.4869    5924.1003    5475.0135    5240.9099    846.58763    1003.7879    281.72418   -3637.2138 
 2930000    251.13783   -4794.5268   -4292.2201   -4794.5268            0    8539.9933    17.969453    22.893958    19.374265    7970.4156    7554.6439    8949.9676    9115.3683   -1414.0955    -199.0125    506.17098   -3299.5284 
 2931000    256.97064   -4824.8902   -4310.9172   -4824.8902            0    7533.8674    17.834394    22.975105    19.444784    7967.4435    8446.0556    6552.9101    7602.6365    52.424663   -1040.6261     404.2063   -3435.5045 
 2932000    267.71257   -4833.1236   -4297.6654   -4833.1236            0    6341.3828    17.960333    22.959188    19.442722    8017.2969    7784.3314    5783.0165    5456.8006    1289.9227   -1842.4728    1037.0232   -3556.2052 
 2933000    244.98975   -4813.0083   -4322.9985   -4813.0083            0    8669.1715    18.027638    22.741554    19.334965    7926.8812    10182.934    7555.0304    8269.5496   -1818.9614   -787.03254   -864.75687   -3320.7952 
 2934000    244.55882   -4819.8069    -4330.659   -4819.8069            0    6859.3353    18.030379    22.764399    19.527874    8015.2305    8512.3673    5612.4669    6453.1715    1233.0271    1170.2516    777.83808   -3528.8444 
 2935000    262.11319   -4799.5198   -4275.2611   -4799.5198            0    6903.6923    18.065113    22.748599    19.466057    7999.6929    4856.2853    8508.2678    7346.5238    32.953711    252.26705   -1270.7746   -3469.8258 
 2936000    264.00683   -4815.3695   -4287.3233   -4815.3695            0    6526.8433       18.043    22.882711    19.336761    7983.6218     6981.929    7167.8105    5430.7905    953.68174   -713.20262    651.44312   -3527.3837 
 2937000    254.74278   -4833.7455   -4324.2285   -4833.7455            0    6418.5696    18.162612    22.697917    19.452403    8019.3204    4027.7218    7087.8886    8140.0983    209.82088    820.39586   -329.45043   -3573.5539 
 2938000    260.54953   -4804.3931   -4283.2618   -4804.3931            0    7891.4427    18.170546     22.62382    19.428678    7986.8802    4602.3183    10438.269    8633.7413   -957.54691    921.96366   -1437.2909    -3364.063 
 2939000    252.17777   -4840.4561   -4336.0694   -4840.4561            0    6842.3856    18.227853    22.463969    19.493105      7981.84    7054.2396    7000.2896    6472.6276    1610.3811   -950.87908    2356.4894   -3539.5682 
 2940000    274.03531   -4802.9889   -4254.8844   -4802.9889            0    8289.8188     18.11102    22.609921    19.483091    7978.1063     8890.693     7885.426    8093.3374    573.63903   -47.263025    46.655064   -3290.3433 
 2941000    268.15588   -4818.2137   -4281.8688   -4818.2137            0       8329.5    18.239879    22.507339    19.364515    7949.7366    8217.8913    8584.9128    8185.6959    532.40077   -727.67621    -1473.764   -3316.1569 
 2942000    257.68933   -4809.0942   -4293.6837   -4809.0942            0    7451.6247    18.142527    22.539857    19.538104    7989.7159    8429.0524    8420.7882    5505.0334   -862.55241   -614.45021    583.57853   -3425.4069 
 2943000    262.43257   -4832.3639   -4307.4664   -4832.3639            0    7812.2363    18.170805    22.589264    19.379643    7954.6672    6339.0801    9831.7236    7265.9053   -92.883975    689.63696    4259.5306   -3401.1637 
 2944000    270.55343   -4830.4982   -4289.3579   -4830.4982            0    6665.2172    18.086262    22.471864    19.652052    7987.2227    7896.8365    7518.9501    4579.8649   -544.85954    487.76906      -1738.7   -3512.9571 
 2945000    266.02743   -4831.3677     -4299.28   -4831.3677            0    7389.3266    18.097516     22.61241    19.462104    7964.4467    7479.7276    6751.2994    7936.9527    1611.9027   -1089.4446    867.21979   -3440.9855 
 2946000    250.97635   -4826.2602   -4324.2765   -4826.2602            0    6273.3151    18.142827     22.76031    19.385253    8004.8762    4841.9986     7533.518    6444.4288   -5.7212588    2005.5625    1916.7383   -3591.9114 
 2947000    255.97531   -4805.5432   -4293.5609   -4805.5432            0    7235.7142    18.092956     22.64591    19.421907    7957.7664     5659.488    8084.4143    7963.2404   -827.35445   -421.38451     461.0475   -3453.8139 
 2948000    262.02516   -4816.4709   -4292.3882   -4816.4709            0    7327.1304    18.116145    22.669801    19.437635    7982.8306    7978.1533    6186.3771    7816.8607    1285.1532   -1294.3594     166.5719   -3439.3534 
 2949000    262.63789    -4814.025   -4288.7168    -4814.025            0    5577.3953     18.10117    22.833602    19.450139    8039.0324    5426.2516    5846.8421    5459.0921   -360.09549   -65.462291   -110.93732   -3634.8172 
 2950000    260.54508    -4819.453   -4298.3306    -4819.453            0     7747.427    18.028547    22.809444    19.294799    7934.4289    7191.7405    9161.3836    6889.1568    -132.9981    1126.9774    2015.5438   -3401.8332 
 2951000    260.07809   -4817.3299   -4297.1416   -4817.3299            0    7960.0219    18.051172    22.759235      19.4063    7972.7069    8138.5238    8500.8008    7240.7411    -570.7357    1944.9531    614.65522      -3371.6 
 2952000    267.04573   -4842.8093   -4308.6848   -4842.8093            0    5663.8315     18.06894    22.872793    19.387371    8012.5504    5456.1368    5859.1025    5676.2551   -1629.5134   -956.16889   -1031.5069   -3646.8388 
 2953000    254.53115   -4835.6685   -4326.5748   -4835.6685            0    8375.7254    17.953858    22.873305    19.307732    7928.9922    7213.6669    8874.2271    9039.2822    1921.3263   -472.71964   -1114.7104   -3358.0376 
 2954000     250.1178   -4843.4211   -4343.1546   -4843.4211            0    6654.5664    17.971106    22.971026    19.402271    8009.5435    8544.1141    6581.2097    4838.3754   -449.81967   -1073.5266   -1935.7543   -3565.8282 
 2955000    254.95164   -4843.0311   -4333.0964   -4843.0311            0    8309.2758    17.991553    22.910787    19.264632    7940.8938    6329.1601    10211.098    8387.5695    322.07332    876.94151   -1827.9044   -3370.8009 
 2956000    256.64245   -4829.8506   -4316.5339   -4829.8506            0    7190.4286    17.983422    22.968368    19.360793    7996.9727    8786.1675    5498.7454     7286.373    619.75339   -573.39965    100.21075   -3477.9312 
 2957000    259.35121   -4803.1682   -4284.4338   -4803.1682            0    10059.323    17.920996    22.798931    19.300344    7885.7257     10651.17    10404.488    9122.3108    855.16738   -73.697966    -1928.869   -3127.5591 
 2958000     271.4199   -4827.3155   -4284.4422   -4827.3155            0    7317.6067    17.944239    22.974044    19.404077    7999.3642    9099.9218    6566.2346    6286.6636    824.89039   -118.49361   -85.601766   -3430.7517 
 2959000    253.56976   -4809.4535   -4302.2827   -4809.4535            0    6788.5205    18.054178    23.021216    19.281993    8014.1582    6009.9146     6190.388    8165.2588    1205.5399    435.08332    191.81578   -3508.8521 
 2960000    274.15675   -4836.0707   -4287.7233   -4836.0707            0    6612.4086    18.017438    22.876927    19.391087    7992.6884    8217.9271     5932.176    5687.1226   -1139.2412   -506.10679    2240.5761   -3516.9468 
 2961000    264.85025   -4828.6486   -4298.9154   -4828.6486            0    6412.8834    17.959032    23.021809    19.328074    7991.1808    8216.5232    5209.5398    5812.5872    -172.9034   -1139.8925    663.06862   -3551.5376 
 2962000    260.77092   -4821.3565   -4299.7824   -4821.3565            0     8932.912    17.953663    22.903126     19.25473    7917.4487    7916.8876    8772.8991    10108.949    624.83832    -501.4758   -1326.5459   -3268.3181 
 2963000    247.53146    -4795.731   -4300.6375    -4795.731            0    8538.9645    17.919768    22.949009    19.369401    7965.4899      9542.21    7819.9372    8254.7463    1427.5803    99.773183    2253.6224   -3308.6788 
 2964000     260.9691   -4833.3437   -4311.3732   -4833.3437            0    7665.4869    18.075998    22.976573    19.235574     7989.005    6558.1345    7913.9951    8524.3313     681.5353    34.654476    1949.3555   -3418.2563 
 2965000    248.50547   -4847.7923   -4350.7507   -4847.7923            0    6583.4703     17.78299     23.06187    19.471803    7985.5616    6644.5967    6615.7941    6490.0201   -1208.9673    954.04253   -334.68814   -3584.0317 
 2966000    259.45359   -4831.2091   -4312.2699   -4831.2091            0    6322.3141    18.034545    23.075611    19.121449    7957.5468    5223.3735    5389.4912    8354.0776    566.63967   -333.50491    1454.1786   -3578.5485 
 2967000    245.64466   -4837.3734   -4346.0538   -4837.3734            0    7281.5756    17.832406    23.138152    19.345366    7982.0702    5968.5299    7080.5283    8795.6688   -519.39753    468.94962    712.16906   -3498.4033 
 2968000    271.20318   -4825.4515   -4283.0116   -4825.4515            0    6451.5269    18.041053    23.262722    19.127662    8027.5738    6528.4243    4950.7657    7875.3907    -16.83005    660.12151    1565.2598    -3527.706 
 2969000    260.76065   -4817.9942   -4296.4406   -4817.9942            0     8799.667    17.804302    23.056723    19.329388    7934.8851    11360.531    7656.1263     7382.344    50.260315   -94.108342    1378.2357   -3278.1242 
 2970000    260.43908   -4856.2408   -4335.3304   -4856.2408            0    8893.3217    17.922607    22.954183    19.287843    7934.9958    8378.5544    9412.6436     8888.767    280.31484   -477.87871    408.89052   -3306.1617 
 2971000    253.82384   -4808.4609   -4300.7819   -4808.4609            0    9534.9522    17.854019    22.994448    19.291719     7920.086    10132.578    9598.3417     8873.937   -1721.7839   -991.05497    953.04973   -3199.4345 
 2972000    244.49577   -4826.9028    -4337.881   -4826.9028            0    7679.8363    18.083257    22.954508    19.199945    7969.7485     7763.432    7671.1648    7604.9121   -1323.0086     1657.234   -626.29321    -3445.249 
 2973000    252.33699   -4843.0492    -4338.344   -4843.0492            0    4518.3451    18.037667     23.00106    19.360334    8032.3213    4223.8136    3472.5979    5858.6237   -307.64291    580.58341   -1054.2286   -3809.0507 
 2974000    272.04308   -4842.3339   -4298.2141   -4842.3339            0    7600.9245    17.876493    23.031357    19.352354    7967.7491    6194.6822    7369.9232     9238.168   -418.24533    413.14892    2617.9407   -3414.9757 
 2975000    250.95284   -4824.7329   -4322.7963   -4824.7329            0     8296.292    18.033027    22.961444    19.208537    7953.5701    6626.0958    10344.088    7918.6919   -627.24702    1372.8873    1970.1401   -3360.4707 
 2976000    262.59714   -4836.7326   -4311.5058   -4836.7326            0    8221.7286    17.984371    22.895746    19.389639    7983.9863    7035.0223    8483.4939    9146.6697   -1958.6383    -130.4844    735.27087   -3354.1821 
 2977000    275.92937   -4789.3484   -4237.4555   -4789.3484            0    8408.0533    18.092017    22.890505    19.216629    7958.2868     5362.452     10755.09    9106.6179   -678.92862    1040.0768    703.07901   -3261.5879 
 2978000    258.49072   -4803.9745   -4286.9611   -4803.9745            0    6879.5314    17.934289    22.931551    19.526613    8030.5356    7630.0197     6873.064    6135.5104   -1407.5111    645.80263   -339.48543   -3481.2502 
 2979000    258.51818     -4810.68   -4293.6117     -4810.68            0    7903.2955    18.051669    23.130577    19.162432    8001.1878    8298.1515    7300.9005    8110.8345   -256.38489    144.14106   -1044.6729   -3371.3832 
 2980000    269.83442   -4796.1866   -4256.4845   -4796.1866            0    7690.6856    17.751934    23.341784    19.263488    7982.0539    8282.6088      7112.75     7676.698    195.22209   -778.27436    1763.1777   -3361.2112 
 2981000    279.31431   -4835.1973   -4276.5342   -4835.1973            0    7999.4844    17.900715    23.193817    19.147479    7949.7634    8076.4068    7811.8298    8110.2168   -179.92454    963.14946   -841.66832   -3349.0808 
 2982000     261.2708   -4819.5066   -4296.9327   -4819.5066            0    7383.5195     17.76897    23.308223    19.241044    7968.9309    7836.0793    7572.3642    6742.1149     -1361.99    724.10086   -753.41569   -3438.8298 
 2983000    260.27371   -4832.7326    -4312.153   -4832.7326            0    9304.7398    17.905325    23.096938     19.11715    7906.0539    11115.477    7860.9634    8937.7788     357.1376   -901.49212   -273.83786   -3239.3009 
 2984000    266.25334   -4810.2821   -4277.7425   -4810.2821            0     6894.609    17.745936    23.261334    19.330346    7979.4536    7183.9924    4914.5279    8585.3066    463.91323     183.7714    -721.6928    -3475.402 
 2985000    240.33175   -4805.8235   -4325.1303   -4805.8235            0      7181.27     17.99848    23.211783    19.134328    7993.8786    6373.3922    7085.4989    8084.9189    1251.1109    893.26821   -790.38457   -3487.9198 
 2986000    256.21806   -4816.8807    -4304.413   -4816.8807            0    6474.0489    17.721395     23.25732    19.407374    7998.7907    8850.6598    5200.0896    5371.3972    212.69616      -886.25    605.67922   -3549.1882 
 2987000    264.78341   -4835.9885   -4306.3889   -4835.9885            0     7341.624    18.012616    22.974039    19.240265    7962.0553    8348.4895    7555.6008    6120.7816   -395.42999   -86.235292   -1328.4558   -3453.8912 
 2988000    259.51978   -4803.6302   -4284.5586   -4803.6302            0    7508.7511    17.944571    23.059772    19.336804    8001.5253    7915.1841    7466.3651    7144.7042   -906.45499    60.270586     1435.907   -3408.3321 
 2989000    262.93949   -4830.7486   -4304.8371   -4830.7486            0    6389.6422    17.928008    23.277046    19.189351    8007.9283    6959.7352    5710.2444     6498.947    464.47297   -289.38857   -614.69262   -3558.6073 
 2990000    260.26981   -4799.9254   -4279.3537   -4799.9254            0    9407.6002    17.756597    23.058227    19.306337    7904.7026    8532.9382     11274.42     8415.442    570.43995    547.72726    -594.8437   -3194.8269 
 2991000    253.68458   -4835.7875    -4328.387   -4835.7875            0    6702.4097     17.96181    23.168176     19.23315    8003.7289    6771.8545    6297.0211    7038.3535    1564.1752    724.39519    137.74012   -3546.0403 
 2992000    266.97027   -4843.1658   -4309.1923   -4843.1658            0    7779.6403    17.937338      22.9549     19.29353    7944.1072    6745.2469    8306.4023    8287.2718    2256.3048    202.53814    1142.8802   -3407.8692 
 2993000    265.91791    -4801.121   -4269.2523    -4801.121            0    6991.0888     18.07465    22.915545    19.274744     7983.415    5399.8626    7866.9316    7706.4722    971.07138    139.16207   -906.26431   -3455.2804 
 2994000    264.07173     -4813.51   -4285.3339     -4813.51            0    7784.8484    17.953003    22.868796    19.399421    7964.6953    7881.9146    8507.4439    6965.1869    1266.7195    1511.2948    981.15199   -3381.0699 
 2995000    264.67577   -4797.3381   -4267.9539   -4797.3381            0    6277.8576    18.199587    22.734534    19.368619    8013.9427    4487.4989    7291.4158    7054.6581   -1233.4183    85.935156     1836.421   -3534.2285 
 2996000    256.63864   -4823.2741   -4309.9651   -4823.2741            0    7268.8704    17.987248    22.839677    19.417035     7976.963    5833.8713    7182.4635    8790.2765   -644.14373   -1300.8901   -411.56838   -3464.3351 
 2997000     262.4486   -4824.8668   -4299.9372   -4824.8668            0     7997.216    18.163995    22.566545    19.377143    7942.6641     8494.398    8625.9916    6871.2583   -119.60179    1249.4695    587.38412   -3373.5748 
 2998000    279.70865   -4840.6057   -4281.1538   -4840.6057            0    7167.9323    17.997375    22.763387    19.497762     7987.867    6452.5296    9146.9283    5904.3391   -984.32904     1329.926   -516.42956   -3446.1267 
 2999000    252.24541   -4820.8188   -4316.2969   -4820.8188            0    7766.8835    18.124427     22.63598    19.445202    7977.6694    7352.6907    7525.6886    8422.2713   -1627.5641   -793.17156    511.51616   -3412.6501 
 3000000    258.30693   -4778.8279   -4262.1821   -4778.8279            0    8304.0887    17.956727     22.76759    19.522863    7981.5598    8779.9938    8682.3079    7449.9643   -880.94293    122.02374   -199.40413   -3295.5624 
Loop time of 540.267 on 64 procs for 250000 steps with 1008 atoms

Performance: 79.961 ns/day, 0.300 hours/ns, 462.734 timesteps/s
99.2% CPU use with 64 MPI tasks x 1 OpenMP threads

MPI task timing breakdown:
Section |  min time  |  avg time  |  max time  |%varavg| %total
---------------------------------------------------------------
Pair    | 27.977     | 31.789     | 35.436     |  32.0 |  5.88
Bond    | 0.28435    | 0.29229    | 0.30762    |   1.0 |  0.05
Kspace  | 245.98     | 255.67     | 276.04     |  45.4 | 47.32
Neigh   | 4.3611     | 5.1075     | 6.866      |  28.7 |  0.95
Comm    | 97.154     | 117.3      | 127.33     |  74.4 | 21.71
Output  | 1.3906     | 1.3922     | 1.4039     |   0.3 |  0.26
Modify  | 118.27     | 120.94     | 124.42     |  17.1 | 22.39
Other   |            | 7.78       |            |       |  1.44

Nlocal:        15.7500 ave          19 max          12 min
Histogram: 4 5 5 0 14 14 0 10 7 5
Nghost:        2499.69 ave        2529 max        2478 min
Histogram: 11 7 3 8 9 9 8 4 2 3
Neighs:        5238.20 ave        6433 max        3964 min
Histogram: 4 5 5 1 13 14 10 1 6 5

Total # of neighbors = 335245
Ave neighs/atom = 332.58433
Ave special neighs/atom = 2.0000000
Neighbor list builds = 9579
Dangerous builds = 0

unfix		3
unfix		2
unfix		1

write_data	data.final.${pid}
write_data	data.final.0
System init for write_data ...
PPPM initialization ...
  extracting TIP4P info from pair style
  using 12-bit tables for long-range coulomb (../kspace.cpp:340)
  G vector (1/distance) = 0.37931647
  grid = 24 27 32
  stencil order = 5
  estimated absolute RMS force accuracy = 0.0024347592
  estimated relative force accuracy = 7.3322052e-06
  using double precision FFTW3
  3d grid and FFT values/proc = 3825 384
Last active /omp style is kspace_style pppm/tip4p/omp
WARNING: Not all mixed pair coeffs generated from mixing. Use write_data with 'pair ij' option to store all pair coeffs. (../write_data.cpp:312)

write_restart   restart.lmp.${pid}
write_restart   restart.lmp.0
System init for write_restart ...
PPPM initialization ...
  extracting TIP4P info from pair style
  using 12-bit tables for long-range coulomb (../kspace.cpp:340)
  G vector (1/distance) = 0.37931647
  grid = 24 27 32
  stencil order = 5
  estimated absolute RMS force accuracy = 0.0024347592
  estimated relative force accuracy = 7.3322052e-06
  using double precision FFTW3
  3d grid and FFT values/proc = 3825 384
Last active /omp style is kspace_style pppm/tip4p/omp
Total wall time: 0:09:04
