LAMMPS (30 Jul 2021)
  using 1 OpenMP thread(s) per MPI task
package omp 0
using multi-threaded neighbor list subroutines
echo both

include		in.partitions
variable        pid world 0
include		in.temp
variable        temperature equal 261.36
variable	tempDamp equal 100.0
include		in.pressure
variable        pressure equal 3250.0
variable        pressureDamp equal 1000.0 # This is 1 ps
include		in.seed
variable        seed world 745823

units		real
atom_style	full

read_restart	restart.lmp.${pid}
read_restart	restart.lmp.0
Reading restart file ...
  restart file = 30 Jul 2021, LAMMPS = 30 Jul 2021
  restoring atom style full from restart
  orthogonal box = (-0.060445030 -0.16732076 0.0033543805) to (20.060446 20.167322 20.696644)
  4 by 4 by 4 MPI processor grid
  restoring pair style lj/cut/tip4p/long/omp from restart
  restoring bond style harmonic/omp from restart
  restoring angle style harmonic/omp from restart
  972 atoms
  648 bonds
  324 angles
Finding 1-2 1-3 1-4 neighbors ...
  special bond factors lj:    0        0        0       
  special bond factors coul:  0        0        0       
     2 = max # of 1-2 neighbors
     1 = max # of 1-3 neighbors
     1 = max # of 1-4 neighbors
     2 = max # of special neighbors
  special bonds CPU = 0.015 seconds
  read_restart CPU = 0.127 seconds
include 	in.setup
variable	out_freq equal 1000
variable	out_freq2 equal 10000
variable	out_freq3 equal 1000

timestep	2.0

neigh_modify    delay 7 every 1

include		in.tip4p
# This is TIP4P/Ice

# create groups ###
group ox type 2
324 atoms in group ox
group hy type 1
648 atoms in group hy

# set charges - beside manually ###
set group ox charge -1.1794
Setting atom values ...
  324 settings made for charge
set group hy charge 0.5897
Setting atom values ...
  648 settings made for charge

# ### TIP3P Potential Parameters ###
pair_style lj/cut/tip4p/long/omp 2 1 1 1 0.1577 8.5
pair_coeff 1 1*2 0.000 0.000
pair_coeff 2 2 0.21084 3.1668
bond_style  harmonic
bond_coeff  1 450 0.9572
angle_style harmonic
angle_coeff 1 55 104.52
kspace_style pppm/tip4p/omp 1.0e-5
pair_modify tail yes

thermo          ${out_freq}
thermo          1000
thermo_style    custom step temp pe etotal epair emol press lx ly lz vol pxx pyy pzz pxy pxz pyz enthalpy

restart 	${out_freq3} restart.lmp.${pid} restart2.lmp.${pid}
restart 	1000 restart.lmp.${pid} restart2.lmp.${pid}
restart 	1000 restart.lmp.0 restart2.lmp.${pid}
restart 	1000 restart.lmp.0 restart2.lmp.0


include         in.dump
dump            myDump all atom ${out_freq2} dump.water.${pid}
dump            myDump all atom 10000 dump.water.${pid}
dump            myDump all atom 10000 dump.water.0
dump            myDump2 all dcd ${out_freq2} dump.dcd
dump            myDump2 all dcd 10000 dump.dcd
dump_modify     myDump append yes
dump_modify     myDump2 append yes


variable natoms 	equal  "count(all)"                        # NUMBER ATOMS
variable H      	equal  "enthalpy/v_natoms"                 # ENTHALPY-per-atom
variable Vol      	equal  "vol/v_natoms"                 # volume-per-atom
fix AVG all 		ave/time ${out_freq} 1 ${out_freq} v_Vol v_H file vol_enthalpy.dat
fix AVG all 		ave/time 1000 1 ${out_freq} v_Vol v_H file vol_enthalpy.dat
fix AVG all 		ave/time 1000 1 1000 v_Vol v_H file vol_enthalpy.dat


timer           timeout 02:55:00 every 1000
New timer settings: style=normal  mode=nosync  timeout=02:55:00

fix 		1 all shake 1e-6 200 0 b 1 a 1
       0 = # of size 2 clusters
       0 = # of size 3 clusters
       0 = # of size 4 clusters
     324 = # of frozen angles
  find clusters CPU = 0.041 seconds
fix             2 all nph aniso ${pressure} ${pressure} ${pressureDamp}
fix             2 all nph aniso 3250 ${pressure} ${pressureDamp}
fix             2 all nph aniso 3250 3250 ${pressureDamp}
fix             2 all nph aniso 3250 3250 1000
fix             3 all temp/csvr ${temperature} ${temperature} ${tempDamp} ${seed}
fix             3 all temp/csvr 261.36 ${temperature} ${tempDamp} ${seed}
fix             3 all temp/csvr 261.36 261.36 ${tempDamp} ${seed}
fix             3 all temp/csvr 261.36 261.36 100 ${seed}
fix             3 all temp/csvr 261.36 261.36 100 745823


run             250000
PPPM initialization ...
  extracting TIP4P info from pair style
  using 12-bit tables for long-range coulomb (../kspace.cpp:340)
  G vector (1/distance) = 0.3707567
  grid = 24 24 24
  stencil order = 5
  estimated absolute RMS force accuracy = 0.003690811
  estimated relative force accuracy = 1.1114768e-05
  using double precision FFTW3
  3d grid and FFT values/proc = 2197 216
Last active /omp style is kspace_style pppm/tip4p/omp
Neighbor list info ...
  update every 1 steps, delay 7 steps, check yes
  max neighbors/atom: 2000, page size: 100000
  master list distance cutoff = 10.8154
  ghost atom cutoff = 10.8154
  binsize = 5.4077, bins = 4 4 4
  1 neighbor lists, perpetual/occasional/extra = 1 0 0
  (1) pair lj/cut/tip4p/long/omp, perpetual
      attributes: half, newton on, omp
      pair build: half/bin/newton/omp
      stencil: half/bin/3d
      bin: standard
Per MPI rank memory allocation (min/avg/max) = 9.220 | 9.221 | 9.224 Mbytes
Step Temp PotEng TotEng E_pair E_mol Press Lx Ly Lz Volume Pxx Pyy Pzz Pxy Pxz Pyz Enthalpy 
 3250000    264.41761   -4657.8136    -4147.862   -4657.8136            0    1756.5726    20.120891    20.334643    20.693289    8466.6826    3875.4123   -1703.7557    3098.0611   -210.66159    384.19456    -477.4401   -3930.9641 
 3251000       264.92   -4702.1952   -4191.2747   -4702.1952            0    3043.1135     20.40349    19.935319     20.68503    8413.6375    1960.7556    2667.6409    4500.9439   -381.30352    418.39701   -680.10946   -3817.8717 
 3252000    263.63912   -4686.2621   -4177.8119   -4686.2621            0    5057.7503     19.90822    20.152027    20.848187    8364.1046    6173.6139    2942.4328    6057.2042   -921.33265   -223.22201    280.20863    -3560.858 
 3253000    257.85889    -4678.659   -4181.3564    -4678.659            0    4499.9282    19.730596    20.197266    20.908433     8332.096    5638.3368    4327.9111    3533.5368    539.63691    123.30036    2076.4709   -3634.5473 
 3254000    265.38193   -4733.0878   -4221.2764   -4733.0878            0    3257.7925    20.159955    20.187871    20.686289    8419.0415    2722.7959      2698.77    4351.8116    257.74494   -880.48532     277.0373   -3821.2746 
 3255000    256.35706   -4664.3792    -4169.973   -4664.3792            0    4066.3522    20.211373    20.171276    20.417614    8324.0405    2867.9896    4626.9879    4704.0791    260.87374   -166.22647    152.44903   -3676.3277 
 3256000    269.06101   -4686.2031   -4167.2964   -4686.2031            0    3057.7764    20.016851    20.213425     20.90297    8457.5323    3543.1854    3371.0621    2259.0817    552.10672     871.0979    1183.5177   -3790.1367 
 3257000     273.9843   -4714.6831   -4186.2813   -4714.6831            0    2809.4958    20.213959     20.01665    20.922061    8465.3956    1435.1638    3875.0085    3118.3151   -57.611087   -605.89949   -422.79838   -3839.4235 
 3258000     259.4276   -4675.1851   -4174.8572   -4675.1851            0    3283.5043    19.897009    20.150488    20.995301    8417.7391    4465.0762     2193.967    3191.4698     150.4386    1016.8671   -9.7522719   -3771.7608 
 3259000    267.44211   -4668.1168   -4152.3322   -4668.1168            0     3651.818    20.038413    20.050862    21.140536    8494.0024    4401.9188     3628.343    2925.1923    140.41891     1236.179    98.241634   -3699.9584 
 3260000    264.31149   -4677.5196   -4167.7727   -4677.5196            0    4118.3189    20.408071    20.028186    20.742105    8478.0581    3187.1738    4575.5618     4592.221   -263.72057    604.96818   -324.16051   -3658.5682 
 3261000    263.94369   -4696.5252   -4187.4876   -4696.5252            0    4377.8267     20.17433    20.180947    20.701345    8428.2853    4021.1837    4732.3119    4379.9847    380.03459   -848.06825   -672.33432   -3649.3743 
 3262000    274.22049   -4665.7897   -4136.9324   -4665.7897            0    2239.8878     20.25853    20.113399    20.765864    8461.4227    2399.0761    2619.9557    1700.6315    145.01572   -356.59548   -1654.4196   -3860.5276 
 3263000    272.28794   -4664.8249   -4139.6947   -4664.8249            0    3182.7135    19.954771    20.005744     21.11626    8429.8226    4786.6161    1996.1405    2765.3837    -539.7876    -189.8508    1587.2294   -3748.4109 
 3264000    250.60398   -4679.6922   -4196.3813   -4679.6922            0    2773.1784    20.123063     20.03308    20.951514    8446.1196    1981.4932    3231.3956    3106.6466   -1254.6715    566.95506    1688.8828   -3854.7868 
 3265000     253.2379    -4678.862   -4190.4714    -4678.862            0    1169.4014    20.410664    19.970935    20.982259    8552.7891    793.22139    1852.5242    862.45868    334.65461    374.30167    331.80322   -4044.6077 
 3266000    262.94411   -4691.0201   -4183.9103   -4691.0201            0    1444.7166    20.228582    20.250462    20.832703    8533.8693    2429.9485    658.66781    1245.5335    523.57298   -849.73062    1288.4781   -4004.1041 
 3267000    254.34836   -4678.2553   -4187.7231   -4678.2553            0    2512.4168    20.308961     20.03832    20.929024    8517.2225    4475.8917    629.21749    2432.1411   -23.541524    237.11927   -527.97525   -3875.6434 
 3268000    260.69458   -4711.0262   -4208.2548   -4711.0262            0    5363.1596    19.924895    20.041493     21.02865    8397.2582    6492.9557    5427.3678    4169.1553     1112.344   -252.61596   -1535.3578   -3551.4533 
 3269000      254.779   -4677.8655   -4186.5027   -4677.8655            0    3547.1213    20.259285    20.010164    20.814146    8437.8803     4632.062     2494.504    3514.7979    161.62036    1333.1871   -1043.2344   -3750.0017 
 3270000    263.67784   -4703.2157   -4194.6908   -4703.2157            0    2230.4213    20.051879    20.060646    20.950972    8427.6049    4594.2438     402.9933    1694.0268   -173.00679      732.032    246.03414   -3920.5542 
 3271000    245.60774   -4685.6433   -4211.9681   -4685.6433            0    2426.2348     20.12842    20.161745    20.791865    8437.8391    3365.5189    1639.6391    2273.5464   -30.392545    85.800919   -792.87045   -3913.4024 
 3272000    261.98974   -4689.5653   -4184.2961   -4689.5653            0    3763.4331    20.074284    20.258382     20.77248    8447.5967    4269.6407    2122.5587       4898.1    364.53882    129.62766    161.42827   -3720.6429 
 3273000    252.47203   -4698.3707   -4211.4572   -4698.3707            0     3025.229    20.109683    19.942118    20.951546    8402.1916    4374.7409    2897.9106    1803.0356    266.86273   -51.797584    -410.5806   -3840.7537 
 3274000    272.62457   -4656.6137   -4130.8343   -4656.6137            0    4575.3529    20.212094    20.040642    20.757157    8407.9631    5272.7856    3375.7729    5077.5001   -162.68587   -253.81962    526.18848   -3569.7976 
 3275000    269.99833   -4682.5243   -4161.8099   -4682.5243            0    4327.6649    19.958451    20.085465    20.986635    8413.0123    4375.0302    3697.1532    4910.8112   -323.95661   -638.23964   -1498.1914   -3630.8264 
 3276000    274.20189   -4682.1753   -4153.3539   -4682.1753            0    843.58715     20.06449    20.259678    20.959195    8519.9153   -1423.5078     2108.995    1845.2743   -147.67799   -443.08054    864.34526   -4048.5346 
 3277000    271.26578   -4663.0508    -4139.892   -4663.0508            0    3734.5023    20.250535    20.142154    20.596668    8401.1622    3051.1752    4770.1915    3382.1402   -20.798373    993.14493   -52.074213    -3682.332 
 3278000    262.89282   -4705.3174   -4198.3065   -4705.3174            0    2429.9753    19.953391     20.28551    20.793616    8416.5221     2917.241    1372.6495    3000.0353   -235.96862    295.58191   -445.56273   -3900.0359 
 3279000    261.23785   -4683.1847   -4179.3655   -4683.1847            0    3841.7867    20.111445    20.066951    20.915377    8440.9317    2924.7294    5042.7178    3557.9129   -725.42684    274.81086     345.5262   -3706.4326 
 3280000    252.07327   -4638.8488   -4152.7043   -4638.8488            0    3275.2197    20.108335    20.143154     20.81847    8432.4235    3876.8352     2923.798     3025.026   -803.76756   -685.59814   -1459.1733   -3749.9235 
 3281000    266.99908   -4667.8058   -4152.8756   -4667.8058            0    3697.1991    20.284405    20.048803    20.681361    8410.6551     2328.313    3568.1832    5195.1012    -241.6555    1202.2737   -77.724946   -3699.3743 
 3282000    261.81141   -4684.6903    -4179.765   -4684.6903            0    2969.7974    20.116491    20.113106    20.944199    8474.1301    2836.2769    2008.0802    4065.0349   -150.75917     296.5515    1112.7301   -3812.7381 
 3283000    264.11388   -4687.1462   -4177.7803   -4687.1462            0    4683.6379    20.232815    19.938759     20.79792     8390.239    3571.0848    5076.5069    5403.3221    116.58789    1933.6121   -1573.1371   -3604.6762 
 3284000    265.66806    -4716.965   -4204.6018    -4716.965            0    4427.0368     20.07383    20.066894    20.816243    8385.1869    2826.8124    4881.8336    5572.4645    -393.6576   -835.56014    -1168.714   -3663.2223 
 3285000    238.36614   -4693.9437   -4234.2345   -4693.9437            0    4450.0024    20.233512    19.909492    20.803874    8380.6107    4348.0127    3993.3574    5008.6369    15.816261    -104.3808    -45.55116   -3690.3436 
 3286000    249.50041   -4691.1627   -4209.9802   -4691.1627            0     5120.634    20.010029    20.122112    20.812271    8379.9369     5963.788    4526.6939    4871.4201   -386.03465   -1115.8261    226.49012   -3584.1732 
 3287000    276.09521    -4705.576   -4173.1031    -4705.576            0    2936.1375    20.086816    20.096375    20.893031    8433.9359    4453.1454    945.49722      3409.77   -83.817472    310.40757   -560.96916   -3811.9573 
 3288000    256.00831   -4653.9559   -4160.2223   -4653.9559            0    3678.6698    20.117072    20.107662    20.691247    8369.7602    4417.0971    3110.1158    3508.7966   -253.73111    36.316453   -1531.5293   -3711.1878 
 3289000    249.51257   -4692.4633   -4211.2573   -4692.4633            0    2512.0594    20.252935    20.005531    20.907166    8470.9718    2247.2425     4252.416    1036.5198    618.11496    29.006508    99.136009   -3900.9164 
 3290000    250.63747   -4680.1549   -4196.7795   -4680.1549            0    2021.5938     20.09715    20.167824    20.976325    8502.0357    1153.3843    1586.8327    3324.5645    -353.8883    987.30617   -323.05789    -3946.115 
 3291000    258.51399   -4680.1543   -4181.5883   -4680.1543            0    2684.7849    20.150331    20.192272    20.631027    8394.3719    1566.1111    3458.6889    3029.5548   -621.49727    480.25726   -469.52836   -3852.9081 
 3292000    258.45214   -4694.6119   -4196.1652   -4694.6119            0    2863.0466     20.01825    20.256048    20.695691    8391.9088    4211.1986    1170.6292     3207.312   -785.29847    -1259.464   -570.21785   -3845.7645 
 3293000    261.64098   -4662.9078   -4158.3111   -4662.9078            0    4718.4836    19.902412    20.074814    20.913009    8355.5257    4355.4839    4945.0754    4854.8916   -122.83119    66.173943   -1563.1188    -3583.332 
 3294000    254.35612    -4707.584   -4217.0369    -4707.584            0    2931.4765    20.088326    20.145453    20.902105    8458.8396    3019.1537    2614.9495    3160.3261   -84.448257   -1010.5087   -266.40167   -3855.3997 
 3295000    252.71979   -4701.6784   -4214.2871   -4701.6784            0    3557.9971    20.202523    20.202568    20.541544     8383.884    4214.8027    3392.8488    3066.3399   -449.09848    438.04553    436.30589   -3779.2495 
 3296000    248.68321   -4677.2692   -4197.6627   -4677.2692            0    3161.4134    20.085783    20.279987    20.630234    8403.5078    2651.3484    2635.3109    4197.5809   -1117.2959    584.66811   -134.88792   -3810.2108 
 3297000    262.60262    -4695.379   -4188.9278    -4695.379            0    4306.8851    20.074718    20.052729    20.872478    8402.2758    4776.5487    3278.0998    4866.0068    212.09019   -87.321387    531.58497   -3661.1682 
 3298000    260.26604   -4714.4506   -4212.5057   -4714.4506            0    2285.3263    19.914535    20.196899    20.830653    8378.3355    3462.3766    1278.0474    2115.5549   -1197.8503    729.76922    1277.5776    -3933.263 
 3299000    260.55961   -4675.0989   -4172.5878   -4675.0989            0    5058.8437    20.086994    20.053046    20.625231    8307.9548     4415.921    5449.0159    5311.5941    118.82955    1883.9349    207.11096   -3559.6431 
 3300000    254.84756   -4704.4172   -4212.9223   -4704.4172            0    4065.0304    19.955723    20.187042    20.782776    8372.2798    5953.2744    2509.2541    3732.5628   -236.08953   -72.799747   -986.57952   -3716.5775 
 3301000    279.50158   -4650.3137   -4111.2714   -4650.3137            0    1960.0025    20.178557    20.033891    20.919668    8456.8808    1637.7485    1592.6491      2649.61     553.4347    -1244.466    833.70203   -3869.5346 
 3302000     255.2041   -4698.2755    -4206.093   -4698.2755            0    4656.4484    20.274299    19.920321    20.691525    8356.6978    1319.9056    7693.8846    4955.5549   -58.795758    1184.2279   -287.86505   -3638.5936 
 3303000     251.0105   -4704.3032   -4220.2084   -4704.3032            0    4296.2752    20.010846    20.188143     20.61562    8328.3353    4179.2845     3161.876     5547.665    855.64865    -539.4614     294.5766   -3698.3818 
 3304000    266.69082   -4673.5848   -4159.2492   -4673.5848            0    4800.8712    20.026355    19.927263    21.012305    8385.3898    4868.4125    5948.1921     3586.009    -255.5661   -325.81965   -582.60578   -3572.1395 
 3305000    265.78457   -4687.6575   -4175.0696   -4687.6575            0    4821.7817    20.046975    19.948948    20.976749    8388.9384    2541.8644     6072.311    5851.1697   -498.57537   -88.378158    230.94788   -3585.1532 
 3306000    279.85246   -4673.9273   -4134.2083   -4673.9273            0    3433.7589    20.304513    20.059233    20.855389    8494.2531    3353.8935    3384.0438    3563.3393    565.98152   -661.91469   -948.82066   -3708.8344 
 3307000    243.35411   -4682.8932   -4213.5643   -4682.8932            0    4978.6571    20.159012    19.993769    20.732981    8356.5239    4539.6266    4178.1317    6218.2131   -52.404384    333.50882    619.23603   -3606.8088 
 3308000    270.72671   -4700.8329   -4178.7136   -4700.8329            0    3385.6096    19.922226    20.320072    20.890238    8456.8084     4781.191    2603.8491    2771.7886    1307.4789    -834.4019   -153.17101   -3761.1533 
 3309000    262.06968   -4689.3394    -4183.916   -4689.3394            0    4077.0899    20.178134    19.901598    20.894431    8390.7251    3230.5953    3546.8028    5453.8717     -285.436   -417.35914   -460.82945    -3685.002 
 3310000    269.89503    -4708.791   -4188.2757    -4708.791            0    3146.9853    20.102832    20.200308    20.851601     8467.489     3610.527    1702.7169    4127.7119   -353.48355   -1919.1144    136.32133   -3799.6556 
 3311000    254.49182    -4674.214   -4183.4051    -4674.214            0    1612.5549    20.126188    20.379304    20.731667    8503.2529     1727.131    834.69574    2275.8379    -111.4639    827.16524    1858.3298   -3983.4302 
 3312000    275.41498   -4673.1966   -4142.0356   -4673.1966            0    3413.1348    20.156673    20.106192    20.746288    8407.9298     2978.692     3389.598    3871.1145   -220.91287    659.42694    405.60187   -3723.5135 
 3313000    272.71177   -4686.0177   -4160.0701   -4686.0177            0    3202.9648    20.295472    20.009482    20.969306    8515.6749    3106.5592    2506.5998    3995.7355   -844.47353    178.06212    1064.2337   -3762.2863 
 3314000    258.75889   -4689.7132   -4190.6749   -4689.7132            0    3757.4585    20.019129    20.029922     21.01659    8427.2656    3241.0745    3534.2721    4497.0289   -584.88649    231.14363   -979.39167   -3728.8719 
 3315000    260.43365    -4700.525   -4198.2568    -4700.525            0    4020.2834    20.138439     19.73848    20.993688     8345.037    4146.0123    4838.5986    3076.2392   -955.42193     698.8714    603.82694    -3708.973 
 3316000    272.10849   -4673.6357   -4148.8516   -4673.6357            0    2243.3142    20.229416    20.213594    20.772874    8494.2192    393.44224    4441.5172    1894.9833   -246.35208   -96.125417   -167.18789    -3870.951 
 3317000    261.67802   -4714.5397   -4209.8716   -4714.5397            0    2564.2421    20.296546    20.234251    20.566241    8446.2553    2265.3033    1787.0287    3640.3942   -140.63514    896.64382   -494.16159   -3894.0083 
 3318000     268.1584   -4711.7346   -4194.5685   -4711.7346            0     4122.049    19.988005    20.121864    20.833317     8379.075     4594.942    4709.4485    3061.7566    70.923788    542.39732    197.07214   -3690.8533 
 3319000    241.55088   -4702.0052   -4236.1541   -4702.0052            0    3621.2107    20.082077    19.954069    21.012131    8419.9634    4123.8992    2838.1393    3901.5937     137.0154    568.32086   -810.99538    -3791.482 
 3320000    264.93666   -4693.7335   -4182.7808   -4693.7335            0    2446.0581    20.100158    20.040152    20.983348    8452.3071    3153.4842    2223.6373    1961.0528   -292.04961    2060.1782   -109.13525   -3881.2596 
 3321000    255.20095   -4680.3364   -4188.1599   -4680.3364            0    2896.8017    19.991963    20.271759    20.711498    8393.7952    2376.8383    3083.4293    3230.1375   -410.03681   -38.050839    347.73414   -3833.5482 
 3322000    274.39824   -4651.4993   -4122.2992   -4651.4993            0    3675.2302    20.184016    20.124213    20.695242     8406.147    2701.1761    4367.5858    3956.9288    323.78067    603.72657    630.87215   -3671.7342 
 3323000    245.17069   -4703.7366   -4230.9043   -4703.7366            0    3006.2267    19.953969    20.212553    20.988401    8465.0557    3462.9025    2983.3757    2572.4019   -562.28597    448.85108    265.20374   -3859.7732 
 3324000    252.41909   -4701.0756   -4214.2642   -4701.0756            0     3893.184     20.08731    19.887545    20.981048    8381.6615    3745.2444    3919.0064    4015.3012    269.79378    -1085.702    203.74844   -3738.3694 
 3325000    264.09939   -4712.6437   -4203.3058   -4712.6437            0    3207.6854    20.133273    20.144476     20.76848    8423.1605    3550.0551    2141.1695    3931.8317   -962.48284   -491.13044    992.35657   -3809.2636 
 3326000    249.72613   -4687.5699    -4205.952   -4687.5699            0    1769.2217    20.155499    19.927388    21.102583    8475.7773    2628.9383    2690.6174   -11.890527   -119.63008    125.20241   -1113.1958   -3987.2576 
 3327000    250.45765   -4720.1623   -4237.1337   -4720.1623            0    4181.3624    20.065686    19.963241    20.854861    8353.9595    5812.7719     3730.152    3001.1631   -438.16843     872.6325    338.16503   -3727.7018 
 3328000    277.59757   -4683.0696   -4147.6994   -4683.0696            0    2128.2144     20.09009    19.983272    21.053363    8452.2042    1143.0527    3900.5689    1341.0215   -769.39281   -1262.9915     684.0127   -3885.3613 
 3329000     246.3547   -4689.4998    -4214.384   -4689.4998            0    3084.7309    20.216142     20.27515    20.710589    8488.9663     2388.949    2891.8005    3973.4432     821.4713    970.72912    162.78378   -3832.4855 
 3330000    277.15299   -4706.6873   -4172.1744   -4706.6873            0    2318.5734    20.171072    20.131045    20.766889    8432.7018    113.28293    3667.7529    3174.6845   -403.16947   -428.36264    62.112281   -3887.0309 
 3331000    262.26183   -4683.3086   -4177.5146   -4683.3086            0    3409.2064    19.940077    20.020909    21.032339    8396.4983    5223.9661    2434.0012     2569.652   -458.39877   -261.83593    1624.9993   -3760.0426 
 3332000    263.88375   -4724.7868   -4215.8648   -4724.7868            0    2149.3522    20.271226     20.18577    20.662127     8454.742    1857.1151    1434.3717    3156.5697   -226.58773    63.842868    896.67469   -3950.8417 
 3333000    267.87015   -4694.1208   -4177.5107   -4694.1208            0     1953.487    20.134928    20.136375    20.946722    8492.7323    1096.0552    3293.6805    1470.7254   -222.48786    1034.0975   -754.45152   -3935.5561 
 3334000    262.14284   -4665.6434   -4160.0789   -4665.6434            0    1962.0067    20.280302    20.031711    20.890899    8486.9096     2395.668     1795.251     1695.101   -587.21539    -171.4173   -423.75326   -3917.2357 
 3335000    252.14053     -4702.51   -4216.2358     -4702.51            0    4356.2843    19.718027    20.237288    21.039608    8395.6322    6284.6278    2742.0963    4042.1286   -551.97172   -467.53514   -206.04241    -3682.845 
 3336000    272.73754   -4738.1487   -4212.1515   -4738.1487            0    2415.6873    20.199834    20.164458    20.789948    8468.1346    3392.2244    1592.3629    2262.4745   -342.65783    453.19733   -977.89731   -3913.8164 
 3337000    259.30954   -4710.6781   -4210.5779   -4710.6781            0    3379.3326    20.124761    20.230665    20.611636    8391.7657    3100.9976    2332.0615    4704.9386    93.712888     1447.846    385.30058   -3796.9973 
 3338000     253.2942    -4680.479   -4191.9799    -4680.479            0    3977.2758     20.04188     20.17266    20.961298    8474.6118    3142.3439      4541.97    4247.5137   -21.111939    931.99049    29.772347   -3700.4144 
 3339000    252.85965   -4736.8325   -4249.1715   -4736.8325            0    1615.2654    19.992464    20.072987    21.152609    8488.7206    2682.9433    627.75865    1535.0943    439.26661   -14.929007    628.15487   -4049.2027 
 3340000    266.66309   -4721.3631   -4207.0809   -4721.3631            0    4072.9444    20.173813    19.992267    20.731647    8361.4931    2131.0457     5003.166    5084.6214    111.84076   -861.62851   -1531.1481   -3710.4106 
 3341000    256.80682   -4703.1644   -4207.8909   -4703.1644            0     3219.214    20.120308     19.98454    20.759349    8347.2324    2889.3492    2949.8712    3818.4216   -462.77934    79.418253    1343.1003   -3815.9972 
 3342000     259.5916   -4706.2511   -4205.6068   -4706.2511            0     3545.119    20.133554    19.937184    20.931918    8402.2055    2718.6872    4008.5417    3908.1281   -405.96545   -37.726332    117.77385   -3771.1966 
 3343000    265.68105   -4682.7362   -4170.3479   -4682.7362            0    3970.4167    20.108758    20.048039    20.857643    8408.5744    3545.8177     4259.887    4105.5452   -1156.1172    865.12677   -295.53749    -3683.454 
 3344000    265.10121   -4700.0674   -4188.7974   -4700.0674            0    3788.2348    20.253106    20.301528     20.35224    8368.2098    3744.4068    1506.0657    6114.2319   -683.55318    980.92453   -639.89607   -3726.4745 
 3345000    243.92047   -4704.6109   -4234.1897   -4704.6109            0    3347.1884     20.13052    20.098228    20.830686    8427.8413    2694.8424    4163.7403    3182.9825   -89.632503    171.37507    177.09846    -3822.782 
 3346000    264.21537   -4684.0582   -4174.4967   -4684.0582            0    3952.9721    19.911116     20.09598    21.012389    8407.7586    6076.9383    2709.2387    3072.7391    198.28044    572.22785   -338.68299    -3689.789 
 3347000    260.15836   -4699.3792   -4197.6419   -4699.3792            0    4295.5045    20.109061    20.210667     20.69335      8410.14    6463.7736    2581.8325    3840.9074   -186.19323     60.90644   -840.66592   -3670.7843 
 3348000    270.51688   -4715.9202   -4194.2056   -4715.9202            0    4134.7891    20.246901    19.949065    20.765553    8387.3469     3721.189     4754.774    3928.4042    9.7956423     798.2566    436.83923   -3688.4347 
 3349000    269.62475   -4726.2722   -4206.2782   -4726.2722            0    2597.1029    20.031443    20.049925    21.036096    8448.7046    2701.2272    2646.9855    2443.0961    726.56165    1090.7578    1498.5756   -3886.2744 
 3350000    266.18838   -4697.7543   -4184.3876   -4697.7543            0    3391.6776    20.207159    20.323571    20.571591    8448.3744    3342.7719    2083.0536    4749.2071   -467.77181   -245.18966    1959.1431   -3766.4961 
 3351000    242.06541   -4700.0541   -4233.2106   -4700.0541            0    3428.4346    20.074058    20.255419     20.64976     8396.367    2625.5817    3445.3582    4214.3638   -823.83433    23.857079    1106.8515   -3813.3905 
 3352000    270.82859   -4714.5029   -4192.1872   -4714.5029            0     1737.754    20.238665    19.983918    20.771888    8401.1448    1006.6826      2153.04    2053.5394   -267.01282    180.29351    944.45787    -3979.274 
 3353000    256.72047   -4673.5263   -4178.4193   -4673.5263            0    3412.9691    20.011259    20.051876    20.998099    8425.7664    2410.2846    4570.2061    3258.4166   -593.57744    1175.1466   -845.00829   -3759.0297 
 3354000    261.84401   -4685.5126   -4180.5244   -4685.5126            0     3351.562    20.023305     20.00531    20.980282    8404.1226    3614.1429    3208.3849    3232.1581    625.63051    1131.6676    -887.3125   -3769.7385 
 3355000    276.29591   -4676.3659   -4143.5061   -4676.3659            0    2594.3773    20.209717    20.130809     20.69147    8418.0752    2644.2391    3241.9376    1896.9552    -636.8844    386.22576    875.09888    -3824.997 
 3356000    247.33161   -4693.5215   -4216.5217   -4693.5215            0    3192.2772    20.206944    20.087001      20.7541    8424.0253     2233.956    4231.2317    3111.6438    760.43435   -290.33053    422.50397    -3824.332 
 3357000    264.83517   -4703.4366   -4192.6797   -4703.4366            0    4518.8094    20.290246    19.940116    20.838128    8430.8951    3320.3163    5585.4562    4650.6557   -76.713231    105.47244   -521.63471   -3637.0651 
 3358000    271.63237   -4694.9973   -4171.1315   -4694.9973            0    3365.0224     19.98427    20.061989    21.105953    8461.8873     4861.676    3126.2276    2107.1636    703.77377   -192.20775    274.92054    -3755.861 
 3359000    262.52929   -4703.8347   -4197.5249   -4703.8347            0    2212.2584    20.360611    19.991476    20.922316    8516.1916    1782.7378    2437.2486    2416.7887    410.77627    -129.3521   -607.91244   -3922.7626 
 3360000    255.39029   -4654.3216     -4161.78   -4654.3216            0    5523.6315    20.185261    20.035388    20.704038    8373.1173    6121.8826    5445.0238     5003.988    53.971692     1861.645   -1553.2027    -3487.271 
 3361000     268.4223   -4677.5765   -4159.9015   -4677.5765            0    3591.9586    20.329486    19.869237    20.809793    8405.7285     3132.504    3948.1823    3695.1894   -188.99263   -1142.8374   -304.99313   -3719.5671 
 3362000    266.18224   -4683.8739    -4170.519   -4683.8739            0    2782.3996    20.111639    20.190265    20.716869    8412.2775    4524.2679    1524.2805    2298.6505   -75.705939   -1280.3747    1102.9527   -3829.1619 
 3363000    249.24359   -4711.3121   -4230.6249   -4711.3121            0    3402.2582    19.968996    20.149321    20.997797    8448.7096    5113.7685    2143.5869    2949.4191   -231.83843   -934.18266    1665.5712    -3811.413 
 3364000    266.29559   -4694.1991   -4180.6256   -4694.1991            0    3504.5499    20.020584    20.240128    20.736566    8402.8544    2960.7734    2867.4533     4685.423   -342.12731    1067.2914    27.747411   -3751.1535 
 3365000    260.35661   -4701.4143   -4199.2947   -4701.4143            0    1402.9685    20.147914    20.177411    20.895275    8494.6132    2625.6016   -233.07544    1816.3794   -362.42972    32.675038   -1092.1227   -4025.4876 
 3366000    251.81995    -4706.511   -4220.8551    -4706.511            0    2824.6291    19.964248     20.21907    20.984304    8470.4935    3144.0465    2286.4135    3043.4273   -479.58343   -1131.7586   -1099.5825   -3871.9189 
 3367000    258.06457   -4719.0366   -4221.3374   -4719.0366            0    3234.6585    20.073317    20.123596    20.761734    8386.6469     2171.863    4150.4208    3381.6918    908.05035    1016.1534   -135.61629   -3825.7043 
 3368000    251.17744   -4702.2479   -4217.8311   -4702.2479            0    2285.5273    20.254453    20.170657    20.631116    8428.7524    2560.7501    526.66826    3769.1636   -321.47333    183.57325   -525.08112   -3936.8833 
 3369000    251.66211   -4710.7549   -4225.4034   -4710.7549            0    4449.3098    20.125749    20.083542    20.736376    8381.5672    2999.8349    5929.2192    4418.8753    576.07972    1189.5004   -477.55192    -3681.535 
 3370000    244.23471   -4663.7559   -4192.7287   -4663.7559            0    2610.9609    20.094891    19.972701    21.149905    8488.4985    405.15391    6425.9034    1001.8254   -44.421263    476.88652    529.67699   -3869.5021 
 3371000    251.71172   -4714.9362    -4229.489   -4714.9362            0    4436.4522    20.142034    20.078825    20.838446    8427.6589    3006.2513    6526.0794     3777.026   -68.902268    1666.5516   -46.530902   -3684.2101 
 3372000    266.69431   -4683.1133   -4168.7709   -4683.1133            0    2721.3483    20.273992    20.223312     20.54735     8424.563    2023.3811    2422.1831    3718.4806   -235.19611    1791.7895    226.96669   -3834.4162 
 3373000    256.00403   -4680.6635   -4186.9382   -4680.6635            0    5229.4898    19.929967    20.243571     20.73028    8363.7083    6591.5872    4083.6909    5013.1913    191.47549   -367.09583    2411.1363   -3549.0653 
 3374000    267.61205   -4711.5376   -4195.4253   -4711.5376            0    2112.1613    20.160422    20.093224    21.052712    8528.1987    4017.2983     1489.938    829.24776   -363.13342    46.813893    163.42198   -3932.7251 
 3375000    259.75345   -4660.3054    -4159.349   -4660.3054            0     4378.584    20.148475    20.037581    20.881197    8430.2966    3990.1809     5453.846    3691.7251   -456.17822   -856.92486   -272.60928   -3621.0142 
 3376000    258.51113   -4725.3026   -4226.7421   -4725.3026            0     2468.117    20.350209    20.270963    20.500317    8456.7569    2072.7765      1918.34    3413.2343    -227.9843    344.18742   -525.42474   -3922.3415 
 3377000    246.45535   -4678.9425   -4203.6326   -4678.9425            0    3282.4192    20.200206    20.186085    20.795308    8479.5588    4396.2625    1987.6793    3463.3158    425.23967   -1793.3487   -115.98503     -3797.71 
 3378000    247.77671   -4685.7171   -4207.8589   -4685.7171            0     2742.749    20.172745    19.831044    21.258133    8504.2436    1909.3379    4130.3545    2188.5546    172.35807    305.47794    939.25958   -3867.6876 
 3379000    276.59362   -4684.6983   -4151.2643   -4684.6983            0    2018.5984    20.222007    20.081652    20.961925    8512.4554    3471.3226   -1298.7465    3883.2189    -518.3112   -149.22146   -1560.5063   -3900.6645 
 3380000     246.0817   -4710.2885   -4235.6992   -4710.2885            0    4277.2799    20.195856    20.152623    20.612554    8389.2987     4824.367    2853.7354    5153.7372   -249.80149    464.59603   -140.31276    -3712.377 
 3381000    253.77087   -4724.6767   -4235.2582   -4724.6767            0    1350.0178    20.133349    20.250915    20.811474    8485.2277    480.65191    2085.3339    1484.0675   -548.96398    -182.2477   -153.46241   -4068.1957 
 3382000    266.05456   -4675.2199   -4162.1113   -4675.2199            0    4041.1488    20.095916    20.136642    20.841295    8433.7269     4261.028    4936.9769    2925.4415   -437.00845   -308.57633    5.6456939   -3665.0611 
 3383000    265.31718   -4670.6629   -4158.9764   -4670.6629            0    2705.2681    19.975447    20.272182    20.896657    8462.0156    3493.6292    659.61697    3962.5582   -127.45887    451.03745    755.58822   -3825.1198 
 3384000    255.77843   -4706.4107   -4213.1204   -4706.4107            0    3200.4736    19.917604    20.044601    20.981368    8376.6108    4309.8136    3350.3836    1941.2236   -34.746041    123.10485     273.6763   -3822.1369 
 3385000    270.95888   -4720.3716   -4197.8046   -4720.3716            0    4209.6947    20.200216    20.016479    20.663754    8355.1245     2493.679    5738.8187    4396.5863     3.266949   -1633.8743   -521.45046   -3684.8494 
 3386000    265.95005   -4700.6231   -4187.7161   -4700.6231            0    2458.8473    20.132089    20.351659    20.601833    8441.0119    3231.0501    875.00498    3270.4868   -460.38385    620.36002    -204.7481   -3885.0234 
 3387000    262.04368   -4723.1071   -4217.7338   -4723.1071            0    2695.8932    20.148992    20.097016    20.837566    8437.8515    2962.8339     1472.534    3652.3116    258.99008    1171.4635   -554.79174   -3885.9842 
 3388000    264.58453   -4718.9087   -4208.6351   -4718.9087            0    2760.5687    20.103097    20.108337    21.102585    8530.5058    2517.3284    3308.2788     2456.099   -6.3727737    323.27006   -493.39225   -3865.1964 
 3389000    246.89022   -4721.8542   -4245.7056   -4721.8542            0    3127.7193    20.213399    20.202673    20.628606    8423.9944    1233.0743      4296.11    3853.9737   -558.32999     615.6738     349.2927   -3861.4486 
 3390000    264.67756   -4689.1914   -4178.7385   -4689.1914            0    3397.1939    20.365124    20.165256    20.596082    8458.1507    4032.5423    2206.1317    3952.9077   -348.94925   -45.730225    839.73311   -3759.6829 
 3391000    262.10759   -4711.2355   -4205.7389   -4711.2355            0    3132.5015    20.118265    19.911748    20.986715    8407.0641    2692.5996    4529.0098    2175.8952   -119.66214   -107.02996    513.81583   -3821.6679 
 3392000    271.41526   -4703.4531    -4180.006   -4703.4531            0    4382.7455    19.929503     19.96429    21.062869      8380.46    5698.7728    3577.9331    3871.5305   -274.32298   -992.82755    460.70872    -3644.345 
 3393000    261.14394   -4706.9073   -4203.2692   -4706.9073            0    3272.4923    20.256914     20.03204    20.964635    8507.1829    2473.3977    4463.8722     2880.207    13.679116    905.91191    142.59266   -3797.2559 
 3394000    256.72347   -4690.3174   -4195.2046   -4690.3174            0    1740.7104    20.243079    20.239043    20.766273    8507.9534    665.80869    1624.0104    2932.3121   -360.28496   -1008.9344    1431.3115   -3979.2176 
 3395000    261.24696   -4699.7148   -4195.8781   -4699.7148            0    3795.2726    19.988387    20.115867    20.792516    8360.3325    3486.0816    3871.2437    4028.4925   -56.840114   -525.72528    522.61157   -3733.1323 
 3396000    258.29981   -4723.7102   -4225.5573   -4723.7102            0     2877.582    20.069718    20.045485    20.928636    8419.7418    3106.4362    1990.5503    3535.7595    -225.8051   -153.50569    404.07531   -3872.2095 
 3397000    255.88104   -4726.8539   -4233.3657   -4726.8539            0    1089.1619    20.010148     20.15207    21.100917    8508.8583    420.05312    2242.8384    604.59403    290.63088   -231.15539 -0.076867388   -4098.2084 
 3398000    259.07681     -4703.21   -4203.5586     -4703.21            0    4145.0719    20.185247     20.08459    20.745038    8410.2956    2339.5288     5746.788     4348.899   -491.33337    1199.8179   -632.70202   -3695.1426 
 3399000     273.3568   -4704.3869   -4177.1953   -4704.3869            0    470.59469    20.253795    20.273273    20.834672    8554.9394   -1531.6904    1679.4616    1264.0129   -61.461404   -1362.2004   -1362.2192   -4118.4815 
 3400000    261.99154   -4712.0204   -4206.7477   -4712.0204            0    1724.3317    20.300282    20.063097    20.909559     8516.182   -1000.7934    3414.3767    2759.4119   -491.56645    814.04807    1600.6378    -3992.586 
 3401000    269.30428    -4676.499    -4157.123    -4676.499            0    1423.5238    20.037253    20.084008    21.241317    8548.1083    2723.8102    961.95213    584.80905    510.41496    1054.3207    678.95774   -3979.6589 
 3402000    267.48064   -4692.7577   -4176.8988   -4692.7577            0    3042.6708    20.219977    20.009752    20.803317    8416.9542    2941.9041    2373.7312    3812.3771    19.812759   -645.00298   -573.06181   -3803.4029 
 3403000    252.57849    -4686.685   -4199.5662    -4686.685            0    1726.5165    20.242374    20.291784    20.593773    8458.9719    420.68615    1950.2043    2808.6591   -276.53882    85.424994   -297.91143   -3986.5737 
 3404000     263.2102   -4708.1334   -4200.5104   -4708.1334            0    3352.6037    20.251899    19.944191    20.882502    8434.6044    3224.8194     3042.248    3790.7437   -334.38522    205.19323    174.01074   -3788.1064 
 3405000    254.97597   -4704.2031   -4212.4605   -4704.2031            0      2248.62    19.993637    20.070855    21.134199    8480.9297    3317.7197    1353.5785    2074.5617    439.75111   -1269.7022     658.7487   -3934.3384 
 3406000    262.55087   -4727.0224   -4220.6709   -4727.0224            0    2353.9533    20.093144    20.186412    20.714267    8401.8828    3343.3442    759.61184     2958.904    65.294851    1562.0226    89.588336   -3932.2343 
 3407000    254.71821    -4676.414   -4185.1686    -4676.414            0    3084.1088    20.301592    20.063469    20.754125    8453.5777    2848.9367    3777.9398      2625.45   -509.04456   -76.829876   -930.98302   -3804.9388 
 3408000     242.8931   -4697.5963   -4229.1565   -4697.5963            0    1640.8847    20.149256    20.027059    20.905699    8436.0839   -43.802134    2598.9802    2367.4759    296.56469   -412.44706    286.47537   -4027.2758 
 3409000    245.66057   -4692.9805   -4219.2034   -4692.9805            0     2543.754    20.331788    19.840528    21.020342    8479.4673    2161.6357    2588.9223    2880.7039   -275.07068   -1404.0268    595.77751   -3904.6318 
 3410000    251.10515   -4681.7414    -4197.464   -4681.7414            0    3797.2737    20.105366    20.118173    20.914436    8459.5389    2272.5214    5116.1701    4003.1296   -758.85201   -60.031171   -680.89852   -3728.9803 
 3411000     251.2302   -4698.5617   -4214.0432   -4698.5617            0    2325.3142    20.169085     20.31229    20.594075     8436.987       2998.9    1080.2809    2896.7615    191.80899    641.23742   -1295.7587   -3927.9254 
 3412000    252.79867   -4677.2004   -4189.6569   -4677.2004            0    1610.1769    20.369054    20.230881    20.634476    8503.1355    1286.2046    1693.8849    1850.4412   -399.03843    722.70867    17.479166   -3989.9796 
 3413000    255.32986   -4677.5502   -4185.1251   -4677.5502            0    3804.3019    19.982437    20.125092    20.948195    8424.2829    4031.7183    3660.9476    3720.2398    194.87283    478.65947    275.54242   -3717.7304 
 3414000    264.15405   -4720.5718   -4211.1285   -4720.5718            0    4907.3037    20.191885    19.943703    20.744835    8353.9649     4462.024    5545.9334    4713.9539   -619.33624    769.60383   -270.43082    -3613.252 
 3415000    259.33596   -4703.1511   -4202.9999   -4703.1511            0    2565.7473    20.072393    20.273166    20.811401    8468.8034    2051.2183    1966.4106    3679.6131   -669.78217   -1275.7983   -289.94762   -3886.1075 
 3416000    272.39781    -4695.486   -4170.1439    -4695.486            0    2468.9357    20.210949    19.962429    21.012475    8477.6854    1388.6435    2570.2279    3447.9358    352.42376     -256.392   -223.76905   -3864.8888 
 3417000    260.06873   -4688.8189   -4187.2544   -4688.8189            0    3307.8992    20.017169    20.183378    20.924605    8453.8352    3788.9605    3143.9463    2990.7907    227.78872   -158.44045    163.68014   -3779.4218 
 3418000      259.991   -4668.7708   -4167.3563   -4668.7708            0    4764.7481    20.107945    20.142124    20.775926    8414.5975    6553.5562    2871.6709    4869.0171   -748.67249   -51.628184     475.4031   -3582.6346 
 3419000    277.58379   -4697.0485   -4161.7048   -4697.0485            0    2658.2931     20.29611    20.216642    20.493067     8408.699    1001.5542    3646.1693    3327.1559   -275.58413    179.98202     738.4736   -3835.7124 
 3420000    255.51096   -4678.9533   -4186.1789   -4678.9533            0     3981.936    19.972652     20.28439    20.905753    8469.6117    4946.3763    2458.1536    4541.2781   -493.00853    714.73899    587.05563   -3694.3278 
 3421000    264.87614   -4696.3276   -4185.4917   -4696.3276            0    1403.5643    20.100249    20.204078    21.007592    8531.3301    1653.0297   -149.14294    2706.8061    232.83047    457.94456     52.77637   -4010.8592 
 3422000    260.05522   -4705.2161   -4203.6777   -4705.2161            0    6079.0713    20.068445    20.178133    20.529833    8313.4276    4762.5691    6211.0435    7263.6013   -80.227353   -986.18075    568.85753    -3466.634 
 3423000    249.33409   -4699.7283   -4218.8665   -4699.7283            0    2908.1965    20.128032    20.213153    20.925965    8513.7498    3515.3403    2983.3655    2225.8837   -423.82195    448.36585    1310.3871   -3857.7723 
 3424000    268.79362   -4700.8366   -4182.4455   -4700.8366            0    2497.3943    20.016294    20.149893    20.915895    8435.9285    1614.6841     2053.178    3824.3209   -242.95687    1936.1139   -846.40125   -3875.1926 
 3425000     259.5354   -4703.0543   -4202.5184   -4703.0543            0    2247.3756    20.159125    20.039939    20.824146    8412.6978    1212.5771      2726.34    2803.2099   -39.772051    432.23919    122.39759   -3926.7866 
 3426000    264.49351   -4739.8443   -4229.7463   -4739.8443            0    4087.1981     20.14693    20.085371    20.777623    8407.8435    3211.5659    4328.4388    4721.5895   -770.41656    346.11295   -633.10369    -3728.575 
 3427000    255.49115   -4681.7322    -4188.996   -4681.7322            0    2169.3873    20.232366    20.246987    20.610768    8443.0867    -23.72169    2276.3588    4255.5249    24.331474    57.169626   -63.675173   -3921.8712 
 3428000    264.48359   -4708.2865   -4198.2076   -4708.2865            0    1864.6111     20.09627    20.243397    20.880203    8494.4167    1278.2413    1095.5892    3220.0027    113.62698   -928.62334    271.71477   -3967.2152 
 3429000    268.96183   -4682.0785    -4163.363   -4682.0785            0    3728.1547    20.133842    20.024054    20.967011    8453.0844    2717.2852     4775.758    3691.4208    76.349108    515.04559    1166.5325   -3703.7577 
 3430000    276.49232   -4704.6816   -4171.4429   -4704.6816            0    4916.6266    19.991165    20.250467    20.655641     8362.032    4576.0068    5207.5877    4966.2852   -392.79872   -468.40036    1049.4359   -3571.8521 
 3431000     259.4491   -4712.2497   -4211.8803   -4712.2497            0    2983.8876    20.309881    19.979947    20.838862    8456.2086     2779.822    3211.1147    2960.7262    -156.0819   -414.72855    -555.4227    -3843.892 
 3432000    253.50572   -4683.2134   -4194.3063   -4683.2134            0    4871.0754    20.115565    19.964022    20.845439    8371.2691    5717.5678    4796.7415     4098.917   -729.97515    54.292637    1672.3897   -3599.6144 
 3433000    253.48704   -4723.4137   -4234.5426   -4723.4137            0    2570.1407    19.932172    20.299188    20.959627    8480.4096    2941.9759    2727.4294    2041.0168    339.64628    61.596216    1328.4999   -3916.6726 
 3434000    247.72035   -4700.9343   -4223.1847   -4700.9343            0    1975.3103    20.087885     20.14304    20.929433    8468.6985    1777.1246    1947.1701    2201.6363   -362.48771   -116.77692   -2055.0225   -3979.2195 
 3435000    269.46809   -4692.0177   -4172.3258   -4692.0177            0     2654.609    20.257342    20.087192     20.79808    8463.0114    437.32654    5021.8819    2504.6185   -345.58476    550.39141    236.17542   -3844.6825 
 3436000    267.77549   -4678.9951   -4162.5676   -4678.9951            0     5110.232    20.045519    20.248977    20.643968    8379.4124     3360.252    5851.8172    6118.6267    -176.9163    1331.2824    490.67539    -3538.071 
 3437000    261.03525   -4711.0616   -4207.6332   -4711.0616            0    3153.2217    20.223054    20.059361    20.740442    8413.5995    2045.4614    4646.7798    2767.4239   -149.38041   -539.03568     786.5658   -3820.7212 
 3438000    257.47166   -4679.5894   -4183.0336   -4679.5894            0    3161.0149    20.229634    20.078156    20.793165    8445.6379    2445.2145    3611.0172    3426.8129   -444.77592    63.602028    -159.8991   -3793.6884 
 3439000    257.12639   -4727.6264   -4231.7366   -4727.6264            0    2523.5557    20.219576     19.93405    20.920996    8432.3758    3916.1515    1561.7729    2092.7427   -13.627895   -596.97146    1311.8025   -3921.3959 
 3440000    283.66974   -4703.3121   -4156.2311   -4703.3121            0    1278.5858    20.153091    20.156013     20.79523    8447.1466    1630.6822    472.25718     1732.818    102.11251    147.81989   -447.32992   -3998.7183 
 3441000    250.87217   -4675.1603   -4191.3322   -4675.1603            0    684.88131    20.308393    20.354882    20.611556    8520.3006    279.50983    339.17244    1435.9617    148.52497    1090.5852   -357.59769    -4106.229 
 3442000    270.65607   -4705.4961   -4183.5131   -4705.4961            0    2953.2643    20.036586    20.148476    20.899205    8437.1487    779.05226    3908.2913    4172.4495    197.50859    -1325.279   -304.30585   -3820.1223 
 3443000    255.28544   -4671.4912   -4179.1518   -4671.4912            0    3830.2796    20.075933    20.047034    20.833461    8384.6953    3469.1486    5744.8016    2276.8887    142.17176    263.04002    28.337919   -3710.7769 
 3444000    258.16106    -4670.531   -4172.6457    -4670.531            0    1770.0779    20.201739    20.299706    20.706126    8491.3618    3379.6266   -89.605394    2020.2125   -55.713758   -216.67236    528.85832   -3953.4431 
 3445000    263.91411   -4698.6638   -4189.6833   -4698.6638            0    3994.0959     20.13934     20.08141    20.692042    8368.4069     3171.291    5585.9628    3225.0338    547.89495   -82.736304    1209.0236   -3702.2253 
 3446000    261.15426   -4705.2021   -4201.5441   -4705.2021            0    3900.0349    19.993003    20.181737    20.848256    8412.1365    5276.3126    2155.0022    4268.7899    207.18433   -317.05982   -201.35371   -3723.0786 
 3447000    256.27208   -4686.3212   -4192.0789   -4686.3212            0     4238.561    20.131204    19.955058    20.902804    8397.0607    4386.8452    4076.6011    4252.2367    803.02965    684.60671    827.29669   -3673.0141 
 3448000     261.4347   -4691.5293   -4187.3305   -4691.5293            0    2801.4265     20.29613    19.839719     21.01673    8462.7963    2525.5698    3315.2272    2563.4824    66.648204   -1100.8974    354.45534   -3841.5751 
 3449000    269.09179   -4686.9326   -4167.9665   -4686.9326            0    2297.7465    20.151278    20.145351    20.972629    8513.9344    2037.0861    1976.0786    2880.0749    67.215289    -1991.007   -173.87999   -3882.6622 
 3450000    258.95708   -4710.6497   -4211.2292   -4710.6497            0    2235.8629    20.253932    19.882098    20.944281    8434.0664    652.42741    3118.8167    2936.3446   -622.40961    333.08071   -390.53026   -3936.2132 
 3451000    252.15238   -4684.9167   -4198.6197   -4684.9167            0    3922.1786    20.113094    19.774212    21.149646    8411.6497    5143.9614    4151.8666    2470.7079   -917.90164    121.85161    1318.7423   -3717.4653 
 3452000    265.30802   -4707.5822   -4195.9133   -4707.5822            0    3286.9361    20.213135    20.071292    20.830684    8451.0861    3121.0533    3581.1535    3158.6015    12.544785    530.09821    -1451.261   -3790.7971 
 3453000    259.80129   -4724.7928   -4223.7441   -4724.7928            0    2931.1393    20.201439    20.116236    20.809709    8456.5854    2291.5834    4132.2061    2369.6283    442.79326   -164.51928   -394.36266   -3862.2449 
 3454000    249.99293   -4700.0713   -4217.9389   -4700.0713            0    2697.0205    20.336809    19.829112     21.06036    8492.8188    809.43057    4425.1404    2856.4905   -207.16837    303.92822    588.00642   -3883.8885 
 3455000    252.74528   -4711.5077   -4224.0672   -4711.5077            0    2476.8846     20.24329     19.94398    20.740384    8373.5521    1058.5259    3052.7286    3319.3994    476.51744    215.46363   -949.14053   -3921.5908 
 3456000    247.40563   -4700.9339   -4223.7914   -4700.9339            0    2932.3746    20.022526    20.160591    20.872532    8425.5307     3806.098    2422.1107    2568.9151    1084.9568   -220.60748   -30.921919   -3863.4679 
 3457000    267.30091   -4721.9763    -4206.464   -4721.9763            0    2280.9113    20.390123    19.905609    20.874825    8472.6284    962.45475    3711.8933    2168.3858    427.37739    599.95844 -0.060539122   -3924.6241 
 3458000     276.7706   -4721.5489   -4187.7735   -4721.5489            0      3798.55     19.90403    20.201102    20.755115    8345.2859    4683.0144    2835.8652    3876.7705   -45.911493   -1822.3759    1385.7692   -3725.4617 
 3459000    253.56061   -4692.6233   -4203.6103   -4692.6233            0     1356.275    20.273937    20.162703     20.87848    8534.6501    933.90066    1921.9094    1213.0151   -88.240423    647.29072    220.99564    -4034.796 
 3460000    255.72308   -4664.5636   -4171.3801   -4664.5636            0    3019.9611    20.023961    20.161614     20.93947    8453.5857    3310.0451    2413.9387    3335.8994   -123.95417    -5.314071   -894.20565   -3799.0586 
 3461000    272.22827   -4720.9225   -4195.9073   -4720.9225            0     3618.664    19.926958    20.146721    21.051174    8451.2646    5906.7349    2159.3783    2789.8789   -964.07859    1205.5256   -180.95269   -3749.8961 
 3462000     273.3151   -4715.6644   -4188.5533   -4715.6644            0    4422.0215    20.141092     20.09466     20.70185    8378.6266    3072.1137    5198.4716    4995.4791   -445.01344   -615.88258    -1261.439   -3648.2102 
 3463000    264.67281   -4682.6407   -4172.1969   -4682.6407            0    3813.2876    20.307391    19.868211    20.914297    8438.3233    1469.8572    6752.3172    3217.6884   -317.22942   -798.87342    -1054.516   -3702.9174 
 3464000    265.26909   -4699.7341   -4188.1404   -4699.7341            0    5397.7326    20.076357    19.794126    21.097418    8383.9861    3439.3784    7658.0872    5095.7321   -632.06287    477.76845   -928.83482   -3528.1497 
 3465000    261.16672   -4744.7906   -4241.1086   -4744.7906            0    2220.4651    20.236397    20.176236    20.676401     8442.057    2647.3312    267.93984    3746.1243   -516.31075    848.09657     197.3214   -3967.7277 
 3466000      246.355   -4684.1093   -4208.9929   -4684.1093            0    2455.9739    20.422053    20.072763    20.607179    8447.4394   -19.002219    2718.0262    4668.8978    343.45425   -727.88438    450.04623   -3906.4237 
 3467000    245.39471   -4710.3864   -4237.1221   -4710.3864            0    4734.9683     19.99702    19.965985    20.915835    8350.8603    5685.6358    3956.6111    4562.6581   -109.35306     122.9693    238.11627   -3660.4563 
 3468000    270.65662   -4703.9917   -4182.0077   -4703.9917            0    4113.8026    20.148803    20.110739    20.742473    8405.0017    3528.3983    3107.1314    5705.8781    223.21221   -120.65248    858.28501   -3677.7446 
 3469000     264.3395   -4681.9703   -4172.1693   -4681.9703            0    2852.0727    20.136783    20.360683    20.497033    8403.7557    2514.9581    1895.0436    4146.2163   -43.778204   -26.339848    985.49362   -3822.6188 
 3470000    259.14055   -4731.1221   -4231.3477   -4731.1221            0    2355.4572    20.208295     20.01961    20.885207    8449.3645    1600.6974    2407.4222    3058.2519    281.05071   -1081.3393     298.3306   -3941.0958 
 3471000    267.92794   -4724.8683   -4208.1468   -4724.8683            0    2931.2572    19.875676    19.983726    21.192705    8417.5315    4343.3655    2647.5614    1802.8448    94.198894   -1091.2562    801.68314   -3848.3025 
 3472000    258.61564   -4708.5224   -4209.7604   -4708.5224            0    3552.5554    20.105991    19.999623    20.792223    8360.8073    4504.9334     3575.721    2577.0119   -341.29504   -1159.4574    916.54978   -3776.5839 
 3473000    260.24287    -4718.457   -4216.5567    -4718.457            0    3322.1076    20.003458    20.131232    20.976754    8447.2183    3610.4331    4157.6291    2198.2605   -765.99651    228.54334    717.32503   -3807.2929 
 3474000     258.1642   -4688.7598   -4190.8684   -4688.7598            0    2890.1981     20.20099    19.981896    20.940242    8452.6141    3225.0909      3844.33    1601.1735    -22.88625   -532.45394    272.34959   -3834.5859 
 3475000    259.57124   -4719.8496   -4219.2447   -4719.8496            0    3176.1059    20.102363    20.128875    20.739252    8391.8883    2750.1461    3474.5138    3303.6577    1065.1737   -252.78405     331.3568   -3830.5303 
 3476000    268.74125   -4712.1109   -4193.8208   -4712.1109            0    3954.5713    20.107839    20.269163    20.728197    8448.1718    3409.4175    4790.7596    3663.5369   -686.70742    607.59783    211.12498   -3706.5863 
 3477000    275.25962   -4656.3422   -4125.4808   -4656.3422            0    4413.3706     20.01264     20.20125    20.774253    8398.6219    5333.9254     3250.869    4655.3174    68.292923   -983.94205   -1111.0741   -3584.9079 
 3478000     273.0341   -4695.6195   -4169.0503   -4695.6195            0    2044.5224    20.364212    19.859414    20.894725    8450.2724    54.622283    4362.5669    1716.3779   -214.94493   -85.602717   -965.09608   -3917.0863 
 3479000    273.50258   -4710.0073   -4182.5346   -4710.0073            0    3050.8209    20.088148    20.112917    20.888608    8439.6504    2753.9003     3139.312    3259.2503   -117.39379   -866.12936    1514.8175   -3807.0285 
 3480000    260.81407   -4656.9234   -4153.9215   -4656.9234            0    3919.1177    19.841337    20.174891    21.076144    8436.7134    4925.4025    4210.0252    2621.9255    130.26239    1264.4931   -20.937094   -3671.7101 
 3481000    257.81566   -4669.7629   -4172.5437   -4669.7629            0    3431.9351    20.114663    20.038522    21.043261    8481.8676    3016.4294    3612.4377    3666.9382   -120.85309   -737.82237    1001.5687   -3748.0156 
 3482000    258.65696   -4689.9907    -4191.149   -4689.9907            0    3775.0566    20.217559    19.989385    20.804361    8407.8031    1990.2782    4667.0219    4667.8696   -381.59704   -461.64004   -852.58079   -3728.2546 
 3483000    261.06776   -4704.8996   -4201.4085   -4704.8996            0    3242.9922    20.161598    20.174601    20.710946    8424.2226    3292.7964     3045.461    3390.7191   -5.8704393   -806.75686    125.80744   -3802.9789 
 3484000    253.94845   -4665.7673   -4176.0063   -4665.7673            0    2712.4285    20.280185    20.122042    20.841013     8504.774    1421.4422    2338.9832    4376.8602    64.525897    1016.9189    458.18861   -3839.5746 
 3485000    244.82665   -4694.6658   -4222.4971   -4694.6658            0    2502.3817    20.187633    19.941797    20.925653    8424.2011    3020.2192    3122.5223    1364.4037   -440.13373   -528.94264   -229.65512   -3915.0586 
 3486000    245.63891   -4689.6362   -4215.9009   -4689.6362            0    4236.3586    20.276154    19.911341    20.829926    8409.5706    2239.9979    5992.5703    4476.5075    919.88375   -693.01671   -1985.7811   -3696.3329 
 3487000    265.15873    -4704.509   -4193.1281    -4704.509            0    4200.1151    20.014757      20.3168    20.519676    8344.0351    5639.5151    2545.6048    4415.2255   -701.99601    1336.2553    927.19948   -3682.0195 
 3488000    272.81787   -4712.9396   -4186.7874   -4712.9396            0    4396.2533    20.279927    19.920451    20.786939    8397.6176    2567.0945    6095.9168    4525.7485    233.55972    1368.8342    464.05624   -3648.3755 
 3489000    259.99519   -4703.2305   -4201.8079   -4703.2305            0     2438.021    19.991975    20.083183    21.096342    8470.2338    4900.9065     1466.625    946.53154   -1197.0194   -597.15126    98.576238     -3900.64 
 3490000    256.01606   -4673.4056   -4179.6571   -4673.4056            0    2373.0599    19.959995    20.236805    20.906635    8444.7448    4092.3638    143.77301     2883.043     333.7789    764.06571   -1346.3253   -3887.3959 
 3491000    249.10768   -4701.0037   -4220.5786   -4701.0037            0    2951.1422    20.261388    20.231835    20.618489    8452.0355    2541.8834    2133.1973    4178.3457    698.50493   -440.26659   -694.44285   -3856.8082 
 3492000     256.6325   -4694.2782   -4199.3408   -4694.2782            0    2373.4485    20.285112    20.150349    20.736719    8476.1776    1592.5892    2572.9867    2954.7697    207.35501    482.77739    201.70673   -3905.9438 
 3493000    261.41518   -4676.7917   -4172.6306   -4676.7917            0    2881.1617    20.073827     20.16613    20.936571     8475.363    5130.5648    1614.1683    1898.7519    155.50389    208.71678    1316.1201   -3816.5061 
 3494000    265.87078   -4699.6018   -4186.8476   -4699.6018            0      2067.07    20.184913    20.055404    20.924975    8470.7767    704.64292    3071.6769    2424.8901    568.84357    463.53648    956.62023   -3931.4868 
 3495000    279.94087   -4688.9813   -4149.0918   -4688.9813            0    2863.3694     20.08808    20.195691    20.725598    8408.2226    2113.6689    3146.4762    3329.9631    48.679428    111.95609   -447.97489   -3797.9703 
 3496000    267.45871   -4695.6931   -4179.8765   -4695.6931            0    3893.3782    20.162268    19.936822    20.907894    8404.3784    3151.2227    5093.7304    3435.1814   -321.59357    524.91637   -51.817349   -3702.6681 
 3497000     255.8083   -4700.6333   -4207.2855   -4700.6333            0     4643.603    20.143589    19.993938    20.906309    8420.0085    3530.4584    5775.1869    4625.1638    398.40746    2113.0413    -1639.192   -3637.0641 
 3498000    262.67868   -4680.7228   -4174.1249   -4680.7228            0    1876.4755    20.084046    20.119901    20.959929    8469.6774    2770.9304    48.582223    2809.9139   -378.77255    884.32478   -295.96127   -3942.3397 
 3499000     257.6164   -4712.2721   -4215.4372   -4712.2721            0    2023.6253    20.318621    19.967475    20.889856    8475.2561     2215.057    2803.3174    1052.5015   -358.27179   -622.77072   -316.92646   -3965.3112 
 3500000    265.11587   -4667.8044   -4156.5061   -4667.8044            0    3056.5093    20.018266    20.347279    20.776362    8462.5704    2688.9761    2967.7387    3512.8132   -358.24916    384.52463    -1863.977   -3779.2781 
Loop time of 360.762 on 64 procs for 250000 steps with 972 atoms

Performance: 119.747 ns/day, 0.200 hours/ns, 692.978 timesteps/s
99.1% CPU use with 64 MPI tasks x 1 OpenMP threads

MPI task timing breakdown:
Section |  min time  |  avg time  |  max time  |%varavg| %total
---------------------------------------------------------------
Pair    | 19.835     | 27.765     | 35.707     |  78.3 |  7.70
Bond    | 0.27247    | 0.27988    | 0.28957    |   0.8 |  0.08
Kspace  | 145.47     | 154.44     | 164.34     |  35.6 | 42.81
Neigh   | 2.7178     | 3.1098     | 3.4742     |  10.5 |  0.86
Comm    | 74.804     | 80.629     | 86.824     |  28.1 | 22.35
Output  | 1.1588     | 1.1596     | 1.1613     |   0.0 |  0.32
Modify  | 86.422     | 88.28      | 90.229     |   9.3 | 24.47
Other   |            | 5.1        |            |       |  1.41

Nlocal:        15.1875 ave          20 max          11 min
Histogram: 3 8 4 8 15 6 12 2 2 4
Nghost:        2172.86 ave        2208 max        2140 min
Histogram: 3 5 12 7 4 15 3 8 3 4
Neighs:        4654.36 ave        6765 max        2703 min
Histogram: 2 3 7 13 11 14 5 4 2 3

Total # of neighbors = 297879
Ave neighs/atom = 306.45988
Ave special neighs/atom = 2.0000000
Neighbor list builds = 8270
Dangerous builds = 0

unfix		3
unfix		2
unfix		1

write_data	data.final.${pid}
write_data	data.final.0
System init for write_data ...
PPPM initialization ...
  extracting TIP4P info from pair style
  using 12-bit tables for long-range coulomb (../kspace.cpp:340)
  G vector (1/distance) = 0.37188613
  grid = 24 24 25
  stencil order = 5
  estimated absolute RMS force accuracy = 0.00347427
  estimated relative force accuracy = 1.0462661e-05
  using double precision FFTW3
  3d grid and FFT values/proc = 2366 288
Last active /omp style is kspace_style pppm/tip4p/omp
WARNING: Not all mixed pair coeffs generated from mixing. Use write_data with 'pair ij' option to store all pair coeffs. (../write_data.cpp:312)

write_restart   restart.lmp.${pid}
write_restart   restart.lmp.0
System init for write_restart ...
PPPM initialization ...
  extracting TIP4P info from pair style
  using 12-bit tables for long-range coulomb (../kspace.cpp:340)
  G vector (1/distance) = 0.37188613
  grid = 24 24 25
  stencil order = 5
  estimated absolute RMS force accuracy = 0.00347427
  estimated relative force accuracy = 1.0462661e-05
  using double precision FFTW3
  3d grid and FFT values/proc = 2366 288
Last active /omp style is kspace_style pppm/tip4p/omp
Total wall time: 0:06:01
