LAMMPS (30 Jul 2021)
  using 1 OpenMP thread(s) per MPI task
package omp 0
using multi-threaded neighbor list subroutines
echo both

include		in.partitions
variable        pid world 0
include		in.temp
variable        temperature equal 280.09
variable	tempDamp equal 100.0
include		in.pressure
variable        pressure equal 10875.0
variable        pressureDamp equal 1000.0 # This is 1 ps
include		in.seed
variable        seed world 745823

units		real
atom_style	full
read_restart	restart.lmp.${pid}
read_restart	restart.lmp.0
Reading restart file ...
  restart file = 30 Jul 2021, LAMMPS = 30 Jul 2021
  restoring atom style full from restart
  orthogonal box = (0.65783143 1.8663698 0.80255281) to (17.549741 21.762808 21.410643)
  4 by 4 by 4 MPI processor grid
  restoring pair style lj/cut/tip4p/long/omp from restart
  restoring bond style harmonic/omp from restart
  restoring angle style harmonic/omp from restart
  864 atoms
  576 bonds
  288 angles
Finding 1-2 1-3 1-4 neighbors ...
  special bond factors lj:    0        0        0       
  special bond factors coul:  0        0        0       
     2 = max # of 1-2 neighbors
     1 = max # of 1-3 neighbors
     1 = max # of 1-4 neighbors
     2 = max # of special neighbors
  special bonds CPU = 0.154 seconds
  read_restart CPU = 0.299 seconds
include 	in.setup
variable	out_freq equal 1000
variable	out_freq2 equal 10000
variable	out_freq3 equal 1000

timestep	2.0

neigh_modify    delay 7 every 1

include		in.tip4p
# This is TIP4P/Ice

# create groups ###
group ox type 2
288 atoms in group ox
group hy type 1
576 atoms in group hy

# set charges - beside manually ###
set group ox charge -1.1794
Setting atom values ...
  288 settings made for charge
set group hy charge 0.5897
Setting atom values ...
  576 settings made for charge

# ### TIP3P Potential Parameters ###
pair_style lj/cut/tip4p/long/omp 2 1 1 1 0.1577 8.5
pair_coeff 1 1*2 0.000 0.000
pair_coeff 2 2 0.21084 3.1668
bond_style  harmonic
bond_coeff  1 450 0.9572
angle_style harmonic
angle_coeff 1 55 104.52
kspace_style pppm/tip4p/omp 1.0e-5
pair_modify tail yes

thermo          ${out_freq}
thermo          1000
thermo_style    custom step temp pe etotal epair emol press lx ly lz vol pxx pyy pzz pxy pxz pyz enthalpy

restart 	${out_freq3} restart.lmp.${pid} restart2.lmp.${pid}
restart 	1000 restart.lmp.${pid} restart2.lmp.${pid}
restart 	1000 restart.lmp.0 restart2.lmp.${pid}
restart 	1000 restart.lmp.0 restart2.lmp.0


include         in.dump
dump            myDump all atom ${out_freq2} dump.water.${pid}
dump            myDump all atom 10000 dump.water.${pid}
dump            myDump all atom 10000 dump.water.0
dump            myDump2 all dcd ${out_freq2} dump.dcd
dump            myDump2 all dcd 10000 dump.dcd
dump_modify     myDump append yes
dump_modify     myDump2 append yes


variable natoms 	equal  "count(all)"                        # NUMBER ATOMS
variable H      	equal  "enthalpy/v_natoms"                 # ENTHALPY-per-atom
variable Vol      	equal  "vol/v_natoms"                 # volume-per-atom
fix AVG all 		ave/time ${out_freq} 1 ${out_freq} v_Vol v_H file vol_enthalpy.dat
fix AVG all 		ave/time 1000 1 ${out_freq} v_Vol v_H file vol_enthalpy.dat
fix AVG all 		ave/time 1000 1 1000 v_Vol v_H file vol_enthalpy.dat


timer           timeout 23:50:00 every 1000
New timer settings: style=normal  mode=nosync  timeout=23:50:00

fix 		1 all shake 1e-6 200 0 b 1 a 1
       0 = # of size 2 clusters
       0 = # of size 3 clusters
       0 = # of size 4 clusters
     288 = # of frozen angles
  find clusters CPU = 0.001 seconds
fix             2 all nph iso ${pressure} ${pressure} ${pressureDamp}
fix             2 all nph iso 10875 ${pressure} ${pressureDamp}
fix             2 all nph iso 10875 10875 ${pressureDamp}
fix             2 all nph iso 10875 10875 1000
fix             3 all temp/csvr ${temperature} ${temperature} ${tempDamp} ${seed}
fix             3 all temp/csvr 280.09 ${temperature} ${tempDamp} ${seed}
fix             3 all temp/csvr 280.09 280.09 ${tempDamp} ${seed}
fix             3 all temp/csvr 280.09 280.09 100 ${seed}
fix             3 all temp/csvr 280.09 280.09 100 745823

run             250000
PPPM initialization ...
  extracting TIP4P info from pair style
  using 12-bit tables for long-range coulomb (../kspace.cpp:340)
  G vector (1/distance) = 0.37466582
  grid = 24 24 24
  stencil order = 5
  estimated absolute RMS force accuracy = 0.0031151885
  estimated relative force accuracy = 9.3812976e-06
  using double precision FFTW3
  3d grid and FFT values/proc = 2535 216
Last active /omp style is kspace_style pppm/tip4p/omp
Neighbor list info ...
  update every 1 steps, delay 7 steps, check yes
  max neighbors/atom: 2000, page size: 100000
  master list distance cutoff = 10.8154
  ghost atom cutoff = 10.8154
  binsize = 5.4077, bins = 4 4 4
  1 neighbor lists, perpetual/occasional/extra = 1 0 0
  (1) pair lj/cut/tip4p/long/omp, perpetual
      attributes: half, newton on, omp
      pair build: half/bin/newton/omp
      stencil: half/bin/3d
      bin: standard
Per MPI rank memory allocation (min/avg/max) = 9.239 | 9.240 | 9.242 Mbytes
Step Temp PotEng TotEng E_pair E_mol Press Lx Ly Lz Volume Pxx Pyy Pzz Pxy Pxz Pyz Enthalpy 
 3750000    290.65006    -3772.668   -3274.5037    -3772.668            0    10180.654     16.89191    19.896438     20.60809     6926.149    9644.3609    9966.3022    10931.299    650.96053   -38.590766    271.48218   -2246.1479 
 3751000    278.91439   -3766.2674   -3288.2177   -3766.2674            0    8302.2211    16.882553    19.885417    20.596675     6914.646    9164.3743     6448.369    9293.9199   -1096.7171    923.77221    37.868907   -2450.9967 
 3752000     285.6914   -3807.0276   -3317.3624   -3807.0276            0    10152.992    16.911361    19.919349    20.631821    6950.1035    11363.884    8590.4551    10504.637    604.18979   -100.56586    884.71049   -2288.2538 
 3753000    277.22698   -3761.8333   -3286.6757   -3761.8333            0    11466.941    16.846907    19.843432    20.553188      6870.94    13541.377    11543.096    9316.3504    1375.6009   -603.01735    399.58022   -2137.6238 
 3754000    264.00571   -3799.9132   -3347.4165   -3799.9132            0    9567.3159    16.864926    19.864655     20.57517    6893.0098    8345.4222    10761.197     9595.328    1470.8694    337.21406   -851.82515   -2385.6383 
 3755000    289.54585   -3789.2915   -3293.0198   -3789.2915            0    8386.7193    16.941709    19.955096    20.668846    6987.5876    7140.0068    8791.6342    9228.5168    807.35788   -431.76227   -218.85343   -2438.3561 
 3756000    281.81724   -3762.5194   -3279.4943   -3762.5194            0    9326.4397    16.903954    19.910625    20.622785    6940.9758    7697.7845    10204.876    10076.659   -558.45326   -820.98971   -64.377601   -2335.4067 
 3757000    283.57251   -3773.5918   -3287.5582   -3773.5918            0    13792.521    16.815951    19.806969    20.515421    6833.1334    14450.055    13222.764    13704.744   -236.19331   -116.55664   -1821.9509    -1913.075 
 3758000    274.82081   -3791.4588   -3320.4253   -3791.4588            0    11786.704    16.888953    19.892956    20.604483    6922.5128    12093.083     12506.46    10760.569    -1171.843    665.83348   -919.04995   -2130.4662 
 3759000    313.90665   -3810.5855   -3272.5603   -3810.5855            0    13812.551    16.807867    19.797447    20.505559    6823.2835    11402.245    14750.348     15285.06    1194.2163   -2575.4928   -2429.4683   -1898.0651 
 3760000     285.4473   -3804.4853   -3315.2384   -3804.4853            0    11937.224    16.867395    19.867564    20.578183    6896.0381    12838.172    10768.233    12205.269     1905.701    881.24124    562.44948   -2114.6921 
 3761000    294.83599   -3782.0256   -3276.6868   -3782.0256            0    11432.871    16.817143    19.808373    20.516875    6834.5859    11617.015    13183.284    9498.3125   -688.01731    741.10026    1769.9185   -2137.1106 
 3762000    282.09435   -3750.1899   -3266.6899   -3750.1899            0    10047.676    16.902659      19.9091    20.621205    6939.3803    8357.0402    11837.363    9948.6245    757.06123    -140.1963   -354.89727   -2249.8274 
 3763000    291.66408   -3798.8666   -3298.9644   -3798.8666            0    9619.4192    16.946272     19.96047    20.674413     6993.235    9762.1987    9661.6004    9434.4585   -519.89969   -43.723506   -98.848486   -2317.8879 
 3764000    278.15498   -3807.1661    -3330.418   -3807.1661            0    12561.861    16.790314    19.776771    20.484143    6801.9276     11941.92    14478.986    11264.678   -1155.0932   -1677.4501    1454.5974   -2084.2922 
 3765000    276.00872   -3802.0426   -3328.9731   -3802.0426            0    11567.215    16.856607    19.854856    20.565021    6882.8141     10557.41    11251.601    12892.635   -330.85339   -1244.4503   -291.39354   -2167.8701 
 3766000    272.31594   -3766.0835   -3299.3433   -3766.0835            0    13856.652    16.810883       19.801    20.509238    6826.9569     15425.77    13086.142    13058.043    341.39257   -1019.4553   -507.63616   -1919.7173 
 3767000    294.06777    -3821.702   -3317.6799    -3821.702            0    9899.0112      16.8524    19.849901    20.559888    6877.6623    8725.3824    10260.913    10710.738   -34.528544   -254.19875   -124.62551   -2324.7729 
 3768000    266.34246   -3811.5057   -3355.0038   -3811.5057            0    9338.6263    16.876069     19.87778    20.588765    6906.6821    8770.1244    8747.9841     10497.77   -446.48336   -634.69318    -352.2126   -2414.3532 
 3769000    299.03254   -3796.8205    -3284.289   -3796.8205            0    11185.893    16.764771    19.746686    20.452981    6770.9322    12675.191    8800.3369    12082.153    209.86119   -307.00328    -227.2141   -2179.7144 
 3770000     280.4718   -3826.3789   -3345.6598   -3826.3789            0    10048.226    16.824545    19.817091    20.525905    6843.6146    8821.7937    10902.215    10420.669    1354.8324   -139.35671   -1913.6519   -2342.7756 
 3771000    265.25267   -3795.3985   -3340.7645   -3795.3985            0    8482.2475    16.888793    19.892767    20.604288    6922.3163    9491.6645     7856.169    8098.9092    247.00062    109.20789   -2090.7394   -2484.4402 
 3772000    291.37584   -3796.0552    -3296.647   -3796.0552            0    10255.222    16.936728    19.949229    20.662769    6981.4261    10700.122    10485.425    9580.1176    1198.6152    10.939514    1358.9422   -2252.4917 
 3773000    271.65608   -3832.2679   -3366.6587   -3832.2679            0    10683.822    16.894551    19.899549    20.611312    6929.3982    10241.261    10395.461    11414.744   -269.27688    720.16436    780.55817   -2286.9712 
 3774000    304.58262   -3801.7735   -3279.7293   -3801.7735            0    7845.7114    16.915311    19.924002     20.63664    6954.9743    8750.0035    6635.2955    8151.8352   -241.61481   -127.62414   -320.42209   -2483.9297 
 3775000    269.70031    -3750.309   -3288.0519    -3750.309            0     12386.38    16.818394    19.809846    20.518401    6836.1116    11850.676    12770.232    12538.232   -2059.2539   -483.75002   -624.21399   -2053.1586 
 3776000    289.14369    -3785.798   -3290.2156    -3785.798            0    11650.444     16.90776    19.915108    20.627427    6945.6643    11972.569    10999.335    11979.429      1395.71   -1179.7023   -1340.8432   -2110.0793 
 3777000    285.19116   -3796.9737   -3308.1658   -3796.9737            0    10775.883    16.831212    19.824945     20.53404    6851.7543    11121.592    9736.6308    11469.426   -1329.7561   -316.79606    1989.5364    -2231.377 
 3778000     272.3096    -3782.656   -3315.9267    -3782.656            0    10868.384    16.865492    19.865322    20.575861    6893.7042    11086.251    10787.021    10731.879    -72.87357     -90.2834    -1036.427   -2223.2454 
 3779000    260.37841   -3802.9784   -3356.6987   -3802.9784            0    10827.618    16.832545    19.826514    20.535665    6853.3819    11682.693    10369.044    10431.116    280.65961   -316.80126   -322.52587   -2274.4832 
 3780000    296.77387   -3814.9183    -3306.258   -3814.9183            0    10370.714    16.909411    19.917053    20.629442    6947.6998    10361.575    12947.664    7802.9016    490.29624   -459.64465   -224.74348   -2255.4447 
 3781000    293.58018   -3766.3742   -3263.1878   -3766.3742            0    9627.3092    16.956017    19.971949    20.686302    7005.3067    6856.5216    10568.199    11457.207    433.06916   -1160.6228     309.5883   -2279.6118 
 3782000    276.50261   -3736.2179   -3262.3019   -3736.2179            0     11596.26    16.886175    19.889684    20.601094    6919.0976    11997.466    11748.504    11042.809   -182.24197    1540.6378    1788.7331   -2092.1472 
 3783000     275.9646   -3751.5571   -3278.5632   -3751.5571            0    11067.776    16.861404    19.860506    20.570873    6888.6918    9663.7515    12163.448    11376.129    223.67642    1920.6972   -1821.7922   -2166.6446 
 3784000    274.43391   -3821.4343    -3351.064   -3821.4343            0    10887.755     16.87095     19.87175    20.582519    6900.3985     11175.72     9623.545        11864    372.01093    554.89941   -15.548841   -2255.3722 
 3785000    274.29645   -3826.5301   -3356.3953   -3826.5301            0    12814.541    16.871677    19.872607    20.583406     6901.291    12791.187    13299.372    12353.063    2175.2288     21.28216    -1120.395   -2066.6342 
 3786000    277.95866   -3813.1531   -3336.7415   -3813.1531            0    13141.392    16.824336    19.816846    20.525651    6843.3604    12945.063    13637.217    12841.894    160.83871   -395.50578    1600.4452   -2025.1861 
 3787000     294.5735   -3833.0592   -3328.1703   -3833.0592            0    10475.528    16.890862    19.895204    20.606812    6924.8603    10990.886    10232.498    10203.199   -1816.9181    1205.0191   -169.34546    -2270.226 
 3788000    277.04717   -3797.9638   -3323.1144   -3797.9638            0    9002.0269    16.868629    19.869017    20.579688    6897.5517    7843.9268    9549.9021    9612.2518    1738.9099    908.51271    318.39342   -2417.5671 
 3789000    287.30248   -3826.7806    -3334.354   -3826.7806            0    8285.3075    16.928125    19.939095    20.652273    6970.7922    9079.2521    7886.5728    7890.0977   -976.71959   -1263.8382    1744.9777   -2492.0542 
 3790000    284.47109   -3809.8453   -3322.2716   -3809.8453            0    8859.6984    16.952418    19.967709     20.68191    7000.8458     8051.486     9469.625    9057.9841   -677.04593   -60.611402    -142.7249    -2417.695 
 3791000    274.67519   -3789.4937   -3318.7099   -3789.4937            0    10166.531     16.92793    19.938866    20.652035    6970.5517    12299.237    8986.9162    9213.4415   -374.08419   -1913.4622   -673.05161   -2285.1971 
 3792000     272.6471   -3774.9982   -3307.6904   -3774.9982            0    12443.806    16.841545    19.837115    20.546645    6864.3806    12827.943    13635.297     10868.18    145.59417    50.299951   -660.78691   -2061.9416 
 3793000    278.77519   -3767.0593   -3289.2482   -3767.0593            0    13394.358    16.770719    19.753691    20.460237     6778.141    13345.545     15441.47    11396.058   -1379.5652    979.17815   -2253.0691    -1965.186 
 3794000    276.98979   -3792.1263   -3317.3753   -3792.1263            0    12208.735    16.859817    19.858638    20.568938    6886.7477    11553.265    13872.654    11200.286    1084.3698   -804.04245    610.53606    -2091.177 
 3795000    260.65175   -3812.0076   -3365.2594   -3812.0076            0     10021.77    16.945535    19.959602    20.673514    6992.3228    10215.473    10917.225    8932.6114   -1530.2873     411.0088   -223.46552   -2343.2808 
 3796000     288.9778   -3787.6157   -3292.3176   -3787.6157            0    11572.024    16.859449    19.858204    20.568488    6886.2964    10996.331    12063.348    11656.393   -461.94047   -809.67969   -53.035799   -2130.1442 
 3797000    276.10809   -3792.0293   -3318.7894   -3792.0293            0     13956.42    16.770077    19.752935    20.459454    6777.3629    16794.372    12478.134    12596.755    507.14846    104.68465    2105.9053   -1939.3245 
 3798000    289.33326   -3814.9346   -3319.0273   -3814.9346            0    10217.134     16.90061    19.906687    20.618705    6936.8572     10467.91    9064.6098    11118.883   -424.47693    1814.5832    586.99034    -2285.391 
 3799000    291.32743   -3797.9494   -3298.6241   -3797.9494            0    10593.423    16.964025    19.981381    20.696071    7015.2366    11199.609    10313.823    10266.838   -914.07787   -607.50399     1188.255   -2214.8106 
 3800000    297.83018   -3814.4553   -3303.9845   -3814.4553            0    12265.695    16.805679    19.794871     20.50289    6820.6194     10274.31    12132.536    14390.238    -35.63551    1096.6812   -98.129034   -2083.8946 
 3801000    280.80582   -3782.4768   -3301.1852   -3782.4768            0    10058.073    16.935453    19.947727    20.661213    6979.8495    7190.2183    11973.922    11010.079   -595.41023    227.27019    951.10536   -2277.3342 
 3802000    277.30959   -3782.2282    -3306.929   -3782.2282            0    10348.076    16.882017    19.884786    20.596021    6913.9871    9500.2421    11779.617    9764.3675    110.82659    1272.7293    1675.2102   -2263.4973 
 3803000    280.39999   -3816.2091   -3335.6131   -3816.2091            0    11118.604    16.892594    19.897245    20.608925    6926.9912    12572.736    9065.4694    11717.608   -307.46776    412.61809   -56.640461   -2212.3776 
 3804000    280.99351   -3750.6395   -3269.0263   -3750.6395            0    12566.324    16.827779    19.820901    20.529851     6847.562    12535.069    14053.455    11110.448    805.11113   -39.882547    1440.7638   -2014.0945 
 3805000    280.41058    -3794.665   -3314.0509    -3794.665            0    10498.479    16.888031     19.89187    20.603358    6921.3792    9201.5111    11737.801    10556.125   -23.656413     1488.026   -767.05893   -2254.3216 
 3806000    288.26201   -3767.4004   -3273.3292   -3767.4004            0    11601.616    16.882491    19.885344    20.596599    6914.5697    11280.715    13447.037    10077.095    235.74992   -157.94606    1566.6274   -2103.4001 
 3807000    287.78269   -3830.5816   -3337.3319   -3830.5816            0    11761.026    16.878802       19.881    20.592099    6910.0386    11120.635    11892.861    12269.581   -9.4610542    745.81547   -486.06018   -2152.1049 
 3808000    274.78217   -3794.0954   -3323.1281   -3794.0954            0    11486.932    16.830765    19.824418    20.533494    6851.2079    10389.581    11823.049    12248.166   -118.67833   -152.16334   -156.89027   -2175.3787 
 3809000     286.8609   -3804.8227   -3313.1529   -3804.8227            0    11680.806    16.796508    19.784067      20.4917    6809.4582    12758.799    8796.8414    13486.776    1843.9609    971.73616   -1101.0137   -2153.1442 
 3810000    257.82686   -3770.5454   -3328.6389   -3770.5454            0    10645.507    16.822288    19.814433    20.523152    6840.8609    8419.0996    12985.992    10531.428   -2809.3591    475.56991   -351.74299   -2266.5693 
 3811000    283.35934   -3793.2032    -3307.535   -3793.2032            0    11380.045    16.842287     19.83799    20.547551    6865.2885    12310.989    10246.996    11582.151    839.30805     1110.453    1289.6802   -2168.1285 
 3812000    275.35635   -3778.0551   -3306.1037   -3778.0551            0    10510.763    16.892237    19.896824     20.60849    6926.5518    8132.8171    11774.643    11624.829   -2215.7228   -1356.7141    1522.6064   -2244.3416 
 3813000    295.71561   -3775.1297   -3268.2833   -3775.1297            0    12941.139    16.874811    19.876298     20.58723    6905.1377    13514.666    11776.859    13531.892   -1485.8826    417.56491   -188.84906   -1965.0543 
 3814000    281.63424   -3801.2878   -3318.5764   -3801.2878            0    12441.883    16.876119    19.877839    20.588826    6906.7432    10552.102    11923.873    14849.676   -1251.2343     984.9798    432.01768   -2065.3333 
 3815000    275.04863     -3828.13    -3356.706     -3828.13            0    9622.1015    16.864417    19.864055    20.574549    6892.3855    9784.0183    10217.864    8864.4222    -98.62867    19.472084   -1000.2622   -2389.5081 
 3816000    298.18508   -3803.6742   -3292.5952   -3803.6742            0    11834.189    16.863455    19.862923    20.573376    6891.2065    12016.865    11548.595    11937.107    1102.7067   -5.5353069   -477.67183   -2103.2453 
 3817000    262.13219   -3810.4759   -3361.1903   -3810.4759            0      12148.5    16.848709    19.845554    20.555386    6873.1445    12490.135    12894.507    11060.857    868.14908    147.12659    161.96618   -2143.4518 
 3818000    280.41111   -3783.3545   -3302.7395   -3783.3545            0    10593.987    16.870833    19.871613    20.582377    6900.2558    10960.225    11022.223    9799.5143   -94.487808   -946.90014   -584.55743   -2236.6331 
 3819000    261.83315   -3795.0866   -3346.3136   -3795.0866            0    10540.091    16.843908    19.839899    20.549529    6867.2711    9848.6933    12453.247    9318.3322    908.99635    918.14436    961.41702   -2290.7013 
 3820000    286.25647   -3799.8487    -3309.215   -3799.8487            0    11720.204    16.823412    19.815757    20.524523    6842.2327    12255.736    13277.449    9627.4273    1717.1205    72.747379    440.26491   -2139.6916 
 3821000    274.75751   -3793.5542   -3322.6292   -3793.5542            0    10960.981    16.911576    19.919602    20.632083     6950.368    10531.784    11107.692    11243.467   -614.02175   -1083.8472    1225.7966   -2211.5804 
 3822000     308.7279   -3776.7396   -3247.5905   -3776.7396            0    10235.278    16.891392    19.895829    20.607459    6925.5127    10575.775    12118.064    8011.9963    -436.0036    238.54366   -243.49799   -2213.8121 
 3823000    279.83561   -3821.0917    -3341.463   -3821.0917            0    11561.774    16.829731    19.823201    20.532233    6849.9459    11275.686    13347.654    10061.981   -356.66305   -1585.3171   -473.56603   -2186.4484 
 3824000    283.97954   -3805.0243   -3318.2931   -3805.0243            0    10846.919    16.825381    19.818077    20.526926    6844.6354    10111.586    10651.233    11777.938    1057.4147    112.12406   -632.09269   -2235.5321 
 3825000    279.84726   -3789.6566    -3310.008   -3789.6566            0    10916.419    16.875503    19.877114    20.588075    6905.9878    10589.881    11359.419    10799.957    936.20111    1065.4163    141.05852   -2210.5418 
 3826000    270.10573   -3773.3255   -3310.3735   -3773.3255            0    12010.062    16.828089    19.821266    20.530229    6847.9404    12130.501    11850.797    12048.888    -446.3676   -97.621135   -953.52751   -2110.9264 
 3827000     263.4441   -3777.5055   -3325.9713   -3777.5055            0    10593.109    16.858816    19.857458    20.567716    6885.5208    10466.592    10350.966     10961.77   -126.49258   -904.07381    685.82286   -2262.2298 
 3828000    301.45339   -3770.1224   -3253.4416   -3770.1224            0    12517.218    16.811353    19.801553    20.509811    6827.5293     13010.91    12356.472    12184.273    96.717641   -1244.3456     566.4912   -2007.0707 
 3829000    273.15901   -3795.4871   -3327.3019   -3795.4871            0    12837.824    16.838424    19.833439    20.542837     6860.565    12683.267    11640.438    14189.767    1261.7054   -1169.9438   -320.72936   -2042.8223 
 3830000    286.97656   -3758.3913   -3266.5233   -3758.3913            0     12808.39    16.837493    19.832342    20.541702    6859.4271    10814.418    13909.722     13701.03   -764.85758   -277.31022   -920.51741   -1985.2013 
 3831000    283.38461   -3811.4949   -3325.7834   -3811.4949            0    13296.791    16.810817    19.800922    20.509157    6826.8764    13864.751    13510.953    12514.671     801.1086   -558.17795    96.724807    -2001.915 
 3832000    286.89977   -3863.2867   -3371.5503   -3863.2867            0    9017.7684    16.858892    19.857548    20.567809    6885.6145    6776.4045    8312.8279    11964.073    234.31667    -444.6946    75.043153   -2465.9894 
 3833000    265.40541   -3808.0479   -3353.1521   -3808.0479            0    10916.415    16.813527    19.804113    20.512463    6830.1782    11588.239    8699.5455    12461.461    796.43199   -1165.7204    254.51274   -2265.7555 
 3834000    287.01287   -3795.4767   -3303.5464   -3795.4767            0    8791.4507     16.96233    19.979384    20.694003    7013.1339    9990.9665    9056.1249    7327.2607    1354.4157    352.49418    155.17294   -2404.3624 
 3835000    281.33077   -3798.1999   -3316.0086   -3798.1999            0    11458.207    16.813176      19.8037    20.512035    6829.7506    11822.078    12720.936    9831.6085     2186.851   -873.84779   -1096.3134   -2174.7149 
 3836000    288.26125    -3792.623   -3298.5531    -3792.623            0    11763.044    16.810121    19.800102    20.508309    6826.0288    13544.143    11831.875    9913.1158   -676.80659    1338.7266    66.848027   -2127.5346 
 3837000    272.50719   -3792.5829   -3325.5149   -3792.5829            0    11790.574    16.823931    19.816368    20.525156    6842.8655    13767.459    10332.379    11271.885   -1408.2511    1153.7788   -41.301645   -2148.8607 
 3838000    278.53438   -3776.4484     -3299.05   -3776.4484            0    10451.358    16.863544    19.863027    20.573484     6891.315    10343.547    9878.6998    11131.826    107.01101   -930.39476    77.747102   -2248.6597 
 3839000    268.58459   -3814.5945   -3354.2497   -3814.5945            0    11785.484    16.813479    19.804057    20.512405    6830.1203    13386.956    12206.728     9762.768   -652.84284    525.37459   -688.99176   -2180.2941 
 3840000    281.84255   -3803.9606   -3320.8921   -3803.9606            0    9726.0106    16.819224    19.810824    20.519414    6837.1239    11393.003    8058.9073    9726.1213    13.289014    186.05505    561.35175   -2351.0879 
 3841000    270.97113   -3815.8126   -3351.3774   -3815.8126            0    11508.993    16.839533    19.834746    20.544191    6861.9214     12203.35    13162.479    9161.1488   -883.28319   -1705.4763   -544.76391   -2199.6255 
 3842000    288.98472   -3796.2616   -3300.9517   -3796.2616            0    10602.486    16.835359    19.829829    20.539099    6856.8199    12322.814    10771.816    8712.8285   -218.28838    1452.7776    778.60696   -2240.7064 
 3843000    263.54756   -3779.5486   -3327.8371   -3779.5486            0    10911.727     16.81714    19.808369    20.516871    6834.5824    13163.137     10301.46    9270.5854    2277.7857    2602.9535    878.72131   -2240.2066 
 3844000    283.18854    -3804.287   -3318.9115    -3804.287            0    9434.9529    16.869058    19.869522    20.580211    6898.0777    10000.083    11189.004     7115.772   -287.72651   -576.31573    2498.1006   -2369.7421 
 3845000    273.68921   -3804.7808   -3335.6869   -3804.7808            0    11252.479    16.909757     19.91746    20.629864     6948.126    11108.512    10152.231    12496.693   -82.661249   -305.34354    1633.1863   -2195.4586 
 3846000    276.38297   -3779.9499   -3306.2389   -3779.9499            0    9854.3573    16.879748    19.882113    20.593253    6911.1998    9053.0289    10658.255    9851.7882   -1599.3436    195.53589   -658.99925    -2312.991 
 3847000    287.14046   -3797.2153   -3305.0663   -3797.2153            0    10273.048    16.856695     19.85496    20.565129    6882.9226    10423.643    9612.3347    10783.167    342.72864   -576.18774   -271.08317    -2273.854 
 3848000    270.21275   -3780.1909   -3317.0555   -3780.1909            0    10729.563    16.843409    19.839311     20.54892    6866.6605    11409.428    9810.4666    10968.794    487.40861    1145.9741   -1306.3826   -2242.5627 
 3849000    281.96559   -3783.6119   -3300.3325   -3783.6119            0    11092.767    16.898426    19.904114     20.61604     6934.168    10699.942    9841.9319    12736.429    1213.5297    -189.4117    201.33124   -2178.5461 
 3850000    285.48328   -3804.8744   -3315.5659   -3804.8744            0    11863.903    16.793703    19.780764    20.488278    6806.0478    12416.056    12115.231    11060.421   -2500.8625    1057.1004    934.13956   -2137.9641 
 3851000    276.55879   -3838.0525   -3364.0402   -3838.0525            0    10713.017    16.834014    19.828245    20.537458    6855.1767    9537.4101    12995.224    9606.4183   -1013.8669    432.67126     508.4373   -2292.9986 
 3852000    286.38934   -3792.8526   -3301.9911   -3792.8526            0    11223.762    16.867205     19.86734    20.577951     6895.805    10071.565    10462.462    13137.258    287.03802     238.3061   -339.66345   -2173.2371 
 3853000    286.68039   -3793.5482   -3302.1878   -3793.5482            0     11940.67    16.818519    19.809993    20.518554    6836.2639    13643.884    10489.123    11689.002    221.19959    1424.8576   -1710.5709   -2111.7043 
 3854000    275.83427   -3812.9545    -3340.184   -3812.9545            0    10169.956    16.847454    19.844075    20.553854    6871.6082    9232.3556    10106.058    11171.455   -178.66552    85.208427   -2173.4148   -2320.9982 
 3855000    284.26918   -3794.1453   -3306.9176   -3794.1453            0    13628.774    16.838597    19.833643    20.543048    6860.7764    12167.658    12384.028    16334.636   -224.89535     1069.449    1357.5291   -1943.2581 
 3856000    261.21494    -3814.311   -3366.5976    -3814.311            0     8259.586    16.929732    19.940988    20.654234    6972.7783    7082.5615    11751.376    5944.8203    1144.9201   -305.47308    26.786085   -2526.6735 
 3857000    263.20032   -3779.2875   -3328.1711   -3779.2875            0    11661.228    16.831338    19.825093    20.534193    6851.9075    9253.1399    11965.301    13765.241    1295.8268    643.17877   -2121.0521   -2162.8875 
 3858000    275.45386   -3794.2094   -3322.0909   -3794.2094            0    12358.521    16.849023    19.845923    20.555768    6873.5283    10215.135    13962.947    12897.481    303.87046   -832.46705   -671.95605   -2083.2313 
 3859000    282.18543   -3795.3978   -3311.7417   -3795.3978            0    11083.028    16.808116    19.797741    20.505862    6823.5867    12210.305    11294.747    9744.0304    323.00901    653.88695   -2112.9382    -2208.814 
 3860000     279.9084   -3791.1484    -3311.395   -3791.1484            0    11744.903    16.788365    19.774476    20.481766    6799.5593    11937.507    11436.014     11861.19   -666.49302    1342.0112   -321.37334   -2146.7163 
 3861000    297.88946   -3821.5281   -3310.9557   -3821.5281            0    9888.4286    16.887122    19.890799    20.602249    6920.2612    9737.6377    10034.277    9893.3715   -87.862131     737.0398    104.11255   -2312.9669 
 3862000    279.01402   -3804.4023   -3326.1818   -3804.4023            0     10596.31    16.905423    19.912355    20.624576    6942.7847    10851.201    10110.682    10827.048   -53.355785   -1642.2748    621.76735   -2253.2695 
 3863000    275.96915   -3789.9039   -3316.9022   -3789.9039            0    10600.307    16.801165    19.789554    20.497383    6815.1248    10608.678    10955.455    10236.788    699.99908    1353.0019    1083.0054   -2263.3207 
 3864000    280.23828   -3778.7143   -3298.3955   -3778.7143            0    10318.777    16.915423    19.924134    20.636777    6955.1133    11091.671    10604.539    9260.1206    450.43503   -1898.5865    948.11136    -2251.729 
 3865000    290.46301   -3791.8103   -3293.9667   -3791.8103            0    10407.527    16.879177    19.881441    20.592556    6910.4984    10236.323    9515.3523    11470.905    2779.3863    367.90765   -933.19762   -2245.0698 
 3866000    280.70784   -3829.2551   -3348.1315   -3829.2551            0    11128.982    16.812573     19.80299      20.5113    6829.0163    8704.4287    11999.428    12683.091   -224.59751   -1700.4297    17.710399   -2239.7494 
 3867000    280.00954   -3850.9621   -3371.0354   -3850.9621            0    10782.894    16.820721    19.812588    20.521241    6838.9503    9603.8799    11287.852     11456.95    1256.3941    528.97865   -198.28197   -2295.5595 
 3868000    276.17945   -3816.9225   -3343.5603   -3816.9225            0    10343.397    16.788842    19.775038    20.482348    6800.1395    10945.162    8951.5675    11133.462   -427.81991   -1202.1311   -1035.1988    -2317.774 
 3869000    292.38921   -3828.7192   -3327.5741   -3828.7192            0    13334.006    16.785168    19.770711    20.477866    6795.6765    15336.488    12870.864    11794.666   -954.93342    444.41344    397.96155   -2006.0679 
 3870000    279.88304   -3813.5775   -3333.8676   -3813.5775            0    10413.168    16.889411    19.893495    20.605042    6923.0757    9721.4428    11030.967    10487.094    763.12043   -210.65467    923.57772   -2282.4921 
 3871000    279.16103   -3817.5644    -3339.092   -3817.5644            0    10041.763    16.897929    19.903529    20.615434    6933.5565    9346.2251    10654.044    10125.019    978.25026    1214.6049    381.26954   -2323.6809 
 3872000    287.79515   -3762.2571    -3268.986   -3762.2571            0     9061.319    16.875014    19.876537    20.587477    6905.3865    9461.1809    10073.098    7649.6785    98.032742    2016.0894   -556.71682   -2356.4389 
 3873000    274.29891   -3828.0806   -3357.9417   -3828.0806            0    9522.9026    16.887354    19.891072    20.602532    6920.5466    8450.4028    9370.9511    10747.354   -390.33549   -756.92917   -539.52235   -2396.8039 
 3874000    277.61422    -3773.677   -3297.8557    -3773.677            0     9460.422    16.948034    19.962546    20.676562    6995.4169    11226.382    8499.2619    8655.6225   -860.26784   -857.82967   -222.30408   -2332.6942 
 3875000    298.25065   -3782.4657   -3271.2742   -3782.4657            0    10644.426    16.830208    19.823762    20.532814    6850.5279    10022.131    10808.377    11102.771    535.62233    2869.9031    910.95185   -2207.8117 
 3876000    271.87911   -3784.9335    -3318.942   -3784.9335            0    11837.753    16.911507    19.919522    20.631999    6950.2838    9252.6796    13876.195    12384.385     1074.558   -1591.9629   -978.12312   -2119.0347 
 3877000    288.73622   -3785.4151   -3290.5311   -3785.4151            0     10209.25    16.864014    19.863581    20.574058    6891.8918    11142.186    9446.5768    10038.988   -826.82102   -1295.0738    1612.6614   -2264.3874 
 3878000    273.02084   -3788.8148   -3320.8665   -3788.8148            0    9655.2911    16.928641    19.939704    20.652903    6971.4306     9346.959    9943.7235    9675.1909   -991.42802    259.62894   -2120.6346   -2339.2018 
 3879000    285.15594   -3774.6314   -3285.8839   -3774.6314            0    10520.739    16.898211    19.903861    20.615778    6933.9034    9081.7479    12502.979    9977.4907    1214.2546    105.41002     1077.904    -2221.986 
 3880000    284.14777     -3854.28   -3367.2604     -3854.28            0    9987.2223     16.85616     19.85433    20.564476    6882.2669    11436.914    9071.1831      9453.57   -978.48936    529.21704   -150.40291   -2364.8349 
 3881000    258.43016   -3780.0336   -3337.0932   -3780.0336            0    12095.327    16.845503    19.841777    20.551474    6869.2216    10881.539    12900.017    12504.426    818.75168    -299.3943    1499.4485   -2125.3766 
 3882000    282.75217   -3789.3897   -3304.7622   -3789.3897            0    9742.0653    16.946063    19.960223    20.674157    6992.9756    9838.1155    8775.2157    10612.865   -1484.1348   -1525.4058    577.45065    -2311.214 
 3883000    269.29161   -3802.7797   -3341.2231   -3802.7797            0    9135.9008    16.911013     19.91894    20.631397     6949.675    9713.9693    8562.0417    9131.6912    257.09423   -235.33982   -1463.7814   -2415.2641 
 3884000    268.07331   -3800.2383   -3340.7699   -3800.2383            0    11834.449    16.812028    19.802348    20.510635    6828.3518     11238.38    12613.126     11651.84    364.09692    1212.4728   -157.54525   -2162.2421 
 3885000    284.17994   -3850.8696   -3363.7949   -3850.8696            0    11567.476    16.813377    19.803937    20.512281    6829.9961    12103.666    12670.223      9928.54    90.214533   -1198.9078   -487.08365   -2211.5761 
 3886000    284.91071   -3792.6094   -3304.2822   -3792.6094            0    11556.982    16.829944    19.823451    20.532493     6850.206    10807.328    12083.846    11779.773    360.97481    1915.1221   -817.90144   -2149.7024 
 3887000    275.58401   -3813.1252   -3340.7836   -3813.1252            0    11650.302    16.828019    19.821184    20.530144    6847.8557    12034.504    10306.448    12609.953    1089.4882    993.11745    1632.1199   -2177.2802 
 3888000    281.27041   -3810.5284   -3328.4405   -3810.5284            0    11216.965    16.821873    19.813944    20.522646     6840.355    11083.861    10594.183     11972.85    504.81721     1968.558      108.347   -2209.4411 
 3889000     265.8892   -3831.8333   -3376.1084   -3831.8333            0    8023.3401    16.830094    19.823628    20.532675    6850.3886     6379.408    7940.2398    9750.3726    864.97198    677.10921   -402.82001   -2574.5294 
 3890000    279.55782   -3821.2443   -3342.0918   -3821.2443            0     10418.26      16.8487    19.845543    20.555374    6873.1332    6581.5287    12217.279    12455.972    1158.5138    309.75087    461.36705   -2297.7904 
 3891000     267.0097   -3804.4247   -3346.7792   -3804.4247            0    11829.891    16.840386    19.835751    20.545232    6862.9644    13223.638    11621.756     10644.28    593.55806   -1883.7988   -262.35387   -2162.7337 
 3892000     274.4598   -3801.8346   -3331.4199   -3801.8346            0    10008.909    16.865645    19.865502    20.576047    6893.8915    11524.673    7881.0946     10620.96   -187.04273    633.87773     312.9544   -2325.1208 
 3893000    262.01303   -3766.1083    -3317.027   -3766.1083            0    11935.295    16.903363    19.909929    20.622064    6940.2478    11205.084    12311.968    12288.834   -671.37195   -357.26398    936.75985   -2108.9794 
 3894000    284.33625   -3792.1124   -3304.7698   -3792.1124            0    11341.685    16.871893    19.872861     20.58367     6901.556    12476.391    10101.133    11447.531    1651.5601   -692.43976    2135.1987   -2163.2052 
 3895000     278.4355   -3756.9835   -3279.7546   -3756.9835            0    8608.9317    16.926731    19.937453    20.650572    6969.0706    8770.2622    7298.2258     9758.307      753.786    2082.4361    592.99374   -2404.7708 
 3896000    280.04814   -3804.8854   -3324.8925   -3804.8854            0    12110.031    16.873236    19.874443    20.585308    6903.2043    10650.098    12594.824     13085.17    490.16541    1066.2204    959.75818   -2105.7012 
 3897000    265.19365   -3787.2076   -3332.6747   -3787.2076            0    10763.818    16.875247    19.876812    20.587762    6905.6728    11744.594     11410.65    9136.2112   -633.89323   -184.05631    -974.9277   -2248.6274 
 3898000    264.58338   -3789.8632   -3336.3764   -3789.8632            0    10531.093    16.874429    19.875849    20.586764     6904.669    8818.3492    11089.402    11685.527    248.14159    -938.8458    2234.8831   -2275.9215 
 3899000    289.90014   -3778.1762   -3281.2973   -3778.1762            0    9228.7746    16.908974    19.916538    20.628908    6947.1605    7652.9843    8716.6082    11316.731     1161.316    34.869891   -2303.7038   -2346.2636 
 3900000    259.64789    -3778.093   -3333.0654    -3778.093            0    11140.671    16.905194    19.912085    20.624297    6942.5026    9920.6621    10959.427    12541.922    725.58955     493.6072    2336.0697   -2205.0805 
 3901000    294.62066   -3810.5405   -3305.5708   -3810.5405            0    8442.3981    16.877622    19.879609    20.590659    6908.5886    7540.3356     8503.491    9283.3677    992.55297    302.52417    3127.8172   -2454.9597 
 3902000    267.22228   -3810.8693   -3352.8595   -3810.8693            0    10481.357     16.89237    19.896981    20.608653     6926.716    12185.317    7812.7775    11445.978    1278.1009    1335.5617   -728.46515   -2294.0427 
 3903000    285.13306    -3830.729   -3342.0207    -3830.729            0    9956.0327    16.882274    19.885089    20.596335    6914.3039    9274.4331    10602.538    9991.1267    1978.1104    407.74941    890.14217   -2338.0739 
 3904000     265.3562   -3798.4742   -3343.6628   -3798.4742            0    9727.8772    16.844405    19.840484    20.550135    6867.8789    11165.228    9171.5851     8846.818    1402.3032     1120.279    273.08898   -2369.3092 
 3905000    274.61783   -3773.2759   -3302.5903   -3773.2759            0    10082.534    16.849767      19.8468    20.556677    6874.4396    10271.299    8648.6108    11327.694    135.55849   -3359.1776   -329.92203   -2291.7492 
 3906000    265.72602   -3835.4476   -3380.0023   -3835.4476            0    12981.117    16.837119    19.831902    20.541246    6858.9705     14067.97    13128.988    11746.392   -426.47723   -1131.4306    1263.7073   -2081.4876 
 3907000    273.72202   -3802.1181    -3332.968   -3802.1181            0    11375.975     16.82184    19.813906    20.522606    6840.3151    12047.856    10425.036    11655.032    316.54406    -313.6239   -729.07067   -2198.1123 
 3908000    282.98254   -3830.3365   -3345.3141   -3830.3365            0    11732.325    16.807979    19.797579    20.505695    6823.4198    12880.072    11133.467    11183.435   -328.32285    -451.8483   -481.02363   -2177.8002 
 3909000    272.31137   -3808.2711   -3341.5387   -3808.2711            0    9984.3249    16.865866    19.865762    20.576317    6894.1624    11051.251    10664.625    8237.0987    1001.1637   -687.11493    370.35092   -2337.6719 
 3910000    300.15632   -3812.4635   -3298.0059   -3812.4635            0    11756.031     16.82459    19.817144     20.52596    6843.6698    11858.159    11404.569    12005.365   -213.62783   -1782.7672   -223.77617   -2124.6611 
 3911000    270.78096   -3819.4869   -3355.3776   -3819.4869            0    10106.776     16.83163    19.825437     20.53455     6852.265    11199.091    11056.842    8064.3958   -994.69706   -1206.9038    480.29724   -2345.3746 
 3912000    267.87939   -3789.1337   -3329.9976   -3789.1337            0    11321.618    16.793317    19.780309    20.487807    6805.5783    12561.739    9945.7063    11457.409   -527.26115     782.1626   -1846.2795   -2206.3001 
 3913000    277.66023   -3815.6216   -3339.7214   -3815.6216            0    10701.007    16.798608    19.786542    20.494263    6812.0135    11936.194    11589.811    8577.0156    717.75119    1431.0076   -1021.7991   -2276.6168 
 3914000    283.77511   -3848.1945   -3361.8137   -3848.1945            0    11982.255    16.753864    19.733838    20.439675    6757.7252    12060.419    11955.214    11931.133    789.94473    834.43813   -1345.1854   -2180.9087 
 3915000    293.36168   -3861.6807   -3358.8688   -3861.6807            0    10543.904    16.822601    19.814802    20.523534     6841.243    10565.174    10541.973    10524.565     353.0094    138.57155   -172.12443    -2306.877 
 3916000    292.26503   -3835.5051   -3334.5729   -3835.5051            0    9999.9885     16.77763    19.761832    20.468669    6786.5242    9227.9416    10337.862    10434.162    1035.3002   -1372.0366   -77.469641   -2344.8291 
 3917000    273.71798   -3851.1297   -3381.9864   -3851.1297            0    10352.314    16.804984    19.794051    20.502041    6819.7725    11911.848    9099.7023    10045.391    355.41208    325.90085    1542.2739   -2352.3517 
 3918000    296.63366   -3824.5744   -3316.1544   -3824.5744            0    13024.067    16.702915    19.673827    20.377517    6696.2613    12783.862    14087.339    12201.001   -788.55721    472.73977    1069.0474   -2044.2487 
 3919000    292.50881   -3801.3805   -3300.0304   -3801.3805            0    11193.209    16.749746    19.728988    20.434651    6752.7432    12991.509    10379.636    10208.483      785.136   -1289.1097    400.21305   -2197.7026 
 3920000    269.55766   -3766.9322   -3304.9196   -3766.9322            0    11817.709     16.85939    19.858134    20.568416    6886.2239    14557.078    12080.456    8815.5951    969.04585    671.00933   -311.40536   -2118.0846 
 3921000    275.85646   -3803.0692   -3330.2606   -3803.0692            0    8206.7447    16.887643    19.891412    20.602885    6920.9017    8893.4945    8922.1769    6804.5627    48.435443    719.60877    594.37184    -2501.919 
 3922000    276.19954   -3806.1867   -3332.7902   -3806.1867            0    11866.438    16.818608    19.810099    20.518663    6836.3731     11006.77    12043.508    12549.037    1346.8796    877.00583   -305.25121   -2149.6886 
 3923000    278.76336   -3810.4215   -3332.6306   -3810.4215            0    10142.984    16.826404    19.819281    20.528173    6845.8837    10772.747     9159.747    10496.458   -513.56252    355.95923    87.112961   -2319.9531 
 3924000    271.48779     -3797.52   -3332.1992     -3797.52            0     12313.06    16.826142    19.818973    20.527854    6845.5646    12830.883    12524.828    11583.471   -600.73597    226.09222   -308.64002   -2102.9182 
 3925000    285.09901   -3788.7997   -3300.1497   -3788.7997            0      10894.5    16.819372    19.810999    20.519595    6837.3045    10616.094    10626.057    11441.348    1614.3098    2412.6107   -371.16552   -2213.8039 
 3926000    263.51858   -3811.4053   -3359.7435   -3811.4053            0    11013.245    16.927047    19.937826    20.650958    6969.4611    9902.3555    10808.446    12328.934     -1571.11   -777.49644   -573.86195   -2240.3304 
 3927000    284.93278   -3798.3478   -3309.9827   -3798.3478            0    11555.553    16.933868    19.945859    20.659279    6977.8891     12870.28    9941.1205     11855.26    92.075619    427.20304   -631.43798   -2134.0277 
 3928000    275.32624   -3768.0188    -3296.119   -3768.0188            0    10760.173    16.886195    19.889707    20.601118    6919.1215    11928.518    11363.109    8988.8933   -1573.6896   -1995.4718    1474.7192   -2210.3283 
 3929000    288.96175   -3812.7009   -3317.4304   -3812.7009            0    9472.6417    16.900213    19.906219    20.618221    6936.3681    8794.2169    8070.0681     11553.64   -991.74975    938.37339   -76.089683   -2359.1797 
 3930000    279.67278   -3780.5253   -3301.1757   -3780.5253            0    10621.024    16.856686     19.85495    20.565118    6882.9115    11139.487    10727.142     9996.444   -1110.5954    961.57022   -620.86088   -2235.0351 
 3931000    283.68721   -3774.3288   -3288.0986   -3774.3288            0    10689.434    16.892537    19.897178    20.608856    6926.9213    10980.233    10609.083    10478.986   -847.20225   -617.15565    477.87284   -2208.2302 
 3932000    288.76286   -3768.8324   -3273.9027   -3768.8324            0    12435.762    16.796021    19.783494    20.491106    6808.8664    12543.409    10724.537     14039.34    1426.6346   -1011.2091   -526.25381   -2039.0274 
 3933000    276.79179   -3812.6741   -3338.2624   -3812.6741            0    12044.896    16.803829     19.79269    20.500632    6818.3661    11919.763    12687.487    11527.438    3479.6717   -257.93029    591.18764   -2140.5315 
 3934000    281.61774   -3831.6114   -3348.9283   -3831.6114            0    11940.954    16.901809    19.908099    20.620168    6938.3335    13667.379    10317.537    11837.945     200.2086     7.667247   -1437.2011   -2140.6413 
 3935000    284.98508   -3823.4012   -3334.9465   -3823.4012            0    8503.1483    16.975667    19.995093    20.710274    7029.6892    8743.7452    7984.5907    8781.1091    360.10358       280.88    627.51862   -2463.1969 
 3936000    283.34988   -3779.9535   -3294.3015   -3779.9535            0    12740.236    16.879822      19.8822    20.593343    6911.2904    13994.416    11132.798    13093.494   -3127.3429   -1528.6426   -120.64083   -2010.1611 
 3937000    260.21665   -3789.1559   -3343.1535   -3789.1559            0    11798.332    16.842251    19.837947    20.547506    6865.2438    11028.772    10773.704    13592.521    -979.2892    194.54179   -493.73067   -2161.8745 
 3938000    276.43166   -3744.6339   -3270.8395   -3744.6339            0    13358.056    16.830644    19.824275    20.533346    6851.0602    12753.352    15471.279    11849.538   -354.02704    503.79712    502.29921   -1936.1601 
 3939000    269.55611   -3806.4463   -3344.4364   -3806.4463            0    11033.469    16.926737     19.93746     20.65058     6969.078    11704.753    11879.148    9516.5053   -1492.6722   -187.35344   -1679.5052   -2223.0293 
 3940000    290.83603    -3774.714    -3276.231    -3774.714            0    9378.2009    16.882027    19.884798    20.596033    6913.9994    9031.8878    8546.4139    10556.301   -889.81532    1320.7558   -665.87299   -2330.5933 
 3941000    287.33775   -3798.6978   -3306.2107   -3798.6978            0     9398.845      16.8656    19.865449    20.575993    6893.8365    10491.589    7840.3192    9864.6271   -286.86358    364.24339    -759.3945   -2361.2552 
 3942000     291.3409    -3795.001   -3295.6527    -3795.001            0    11783.212    16.885547    19.888944    20.600328    6918.3251    13999.136    12214.337    9136.1636    327.20062    203.34226   -625.14176   -2106.7658 
 3943000    285.17934   -3789.2208   -3300.4332   -3789.2208            0    11167.944    16.827872     19.82101    20.529964    6847.6754    12747.789    9556.7326     11199.31    638.06965    290.21969   -273.21774   -2185.1317 
 3944000    283.59759   -3783.6951   -3297.6186   -3783.6951            0    11152.624    16.867273    19.867419    20.578033    6895.8878    10305.304    12354.278    10798.292    1074.9441    1131.5914   -910.96044   -2176.0053 
 3945000    267.47913   -3774.6549   -3316.2048   -3774.6549            0    10530.056    16.857535    19.855949    20.566153     6883.951    11147.946    11381.519    9060.7038    2698.5469   -73.763168   -1470.9704    -2259.036 
 3946000    291.34638   -3821.6785   -3322.3208   -3821.6785            0    9484.9703    16.921264    19.931014    20.643902    6962.3201    9564.9547    11345.699    7544.2576    72.364906   -700.19362   -1504.6967    -2359.233 
 3947000    290.04255   -3796.9551   -3299.8321   -3796.9551            0    10782.537    16.857486    19.855892    20.566094    6883.8919    11876.101    10243.463    10228.046   -362.78577   -35.185478   -365.85277   -2217.3247 
 3948000    277.82428   -3790.9794   -3314.7981   -3790.9794            0    9311.0362    16.874966    19.876481    20.587419    6905.3278    9411.1569    8517.7256    10004.226    277.72766    3348.7219    -799.4926   -2377.1105 
 3949000    282.96118   -3768.5045   -3283.5188   -3768.5045            0    10181.118    16.875221    19.876781     20.58773    6905.6405    10443.094    10422.519    9677.7392   -14.144174    1488.4616   -1619.1616   -2258.1613 
 3950000    276.97866   -3797.3441   -3322.6122   -3797.3441            0    11099.233    16.836255    19.830885    20.540192    6857.9149    12492.513    9888.3071     10916.88   -468.99768    705.45897    1061.5303   -2212.5151 
 3951000    273.92223   -3782.5569   -3313.0636   -3782.5569            0    10899.169    16.834477    19.828791    20.538023    6855.7425    9193.2005    12092.018    11412.288   -750.02608    569.85783    -869.8684   -2223.3214 
 3952000    274.63942   -3810.1463   -3339.4237   -3810.1463            0    9715.0893    16.918346    19.927576    20.640342    6958.7184     7900.828    9500.7302     11743.71    1778.6689   -1681.8755    1648.0968   -2353.4804 
 3953000     262.1232   -3795.5389   -3346.2687   -3795.5389            0    13195.697    16.788082    19.774143    20.481421    6799.2161     14661.71    13309.773    11615.608    1216.1514   -462.89798   -500.08419   -2037.7887 
 3954000    273.96916   -3810.5401   -3340.9663   -3810.5401            0    11150.172    16.867927     19.86819    20.578831    6896.6901    13154.443    8348.1809    11947.891    874.78498   -1663.1232   -836.45402   -2219.4692 
 3955000    279.12674   -3834.7533   -3356.3396   -3834.7533            0    10590.765    16.824027    19.816481    20.525273    6842.9828    12789.351    9646.4083    9336.5355    139.72154    -467.5198    848.91161   -2299.4036 
 3956000    281.77487   -3839.3398   -3356.3873   -3839.3398            0    11532.996    16.781242    19.766086    20.473076    6790.9084    10438.669    12700.716    11459.604   -1594.1569    22.146559    241.73051   -2214.1774 
 3957000     270.4292   -3787.5087   -3324.0023   -3787.5087            0    12721.542    16.840614    19.836019    20.545509    6863.2424     12320.35    13804.904    12039.372    732.35636   -2696.6299   -2646.9884   -2050.6605 
 3958000     278.7654    -3768.336   -3290.5416    -3768.336            0    11261.627    16.851814    19.849211    20.559174    6876.9453    11775.131    12355.811    9653.9382   -1030.1866    445.48775     1765.235   -2161.0771 
 3959000    278.61267   -3821.4144   -3343.8818   -3821.4144            0    10672.652    16.851005    19.848258    20.558186    6875.9542    11399.288    10136.363    10482.306    201.22871   -913.02593    753.44072   -2273.6417 
 3960000    297.10872     -3815.55   -3306.3158     -3815.55            0    10716.109    16.860692    19.859668    20.570005      6887.82    9478.6825    10613.287    12056.357    250.45756    718.09297     33.28991   -2229.8635 
 3961000    282.14825   -3849.0204    -3365.428   -3849.0204            0    9470.8741    16.852998    19.850606    20.560618     6878.395    9846.0967    9160.5158    9406.0099   -232.38572    423.97106    219.66322   -2415.3635 
 3962000    283.53248   -3827.2017   -3341.2367   -3827.2017            0    9983.5137    16.907257    19.914516    20.626814    6945.0453    9916.9193    9655.2694    10378.352    3.3740889    355.96499     196.3398   -2330.0429 
 3963000    274.71426   -3807.6874   -3336.8365   -3807.6874            0    9457.0424    16.885232    19.888573    20.599944    6917.9384    12212.215    7144.7059    9014.2057    202.19245    574.18979     513.6309   -2382.7057 
 3964000    281.84751   -3829.3979   -3346.3209   -3829.3979            0    11301.358    16.809433    19.799292    20.507469    6825.1905    11807.304    10257.829    11838.941    178.66769   -331.72896   -890.22084   -2221.4018 
 3965000    263.21147   -3853.0549   -3401.9195   -3853.0549            0    9837.8313    16.866702    19.866747    20.577337    6895.1879    10344.713    10532.473     8636.308   -142.27595    806.78517    207.88439   -2412.6346 
 3966000    279.29321   -3846.6444   -3367.9454   -3846.6444            0    10776.099    16.829926     19.82343    20.532471    6850.1839     11407.57    11267.359    9653.3691   -1335.0709   -41.973432   -18.867692   -2291.3818 
 3967000    270.52941   -3835.0611    -3371.383   -3835.0611            0    9804.2703    16.784923    19.770422    20.477567    6795.3782    12601.343    8521.4565     8290.011    552.35962   -664.28358    142.22236   -2399.7443 
 3968000    294.25373   -3840.6296   -3336.2888   -3840.6296            0    10604.086     16.83559    19.830101     20.53938     6857.102    12189.527    10715.886    8906.8455   -251.19239   -1581.7003   -453.57504   -2275.8399 
 3969000     276.9229   -3794.2807   -3319.6443   -3794.2807            0    12586.468    16.822686    19.814902    20.523638    6841.3472    13019.154    10668.638    14071.613    159.10293   -843.68665    1993.5884   -2063.8416 
 3970000     273.5529   -3810.9706   -3342.1103   -3810.9706            0    10765.547    16.843739      19.8397    20.549323    6867.0644    11899.992    9814.9916    10581.657    700.67421    733.91321    72.917955   -2263.9505 
 3971000    279.39274   -3813.0378   -3334.1683   -3813.0378            0    12911.357    16.844887    19.841052    20.550723    6868.4688    14899.654    12304.233    11530.185    998.97006    656.17798   -1884.7029   -2040.8431 
 3972000    281.47318   -3832.7992   -3350.3638   -3832.7992            0    9489.6175    16.789193    19.775451    20.482776    6800.5654    9858.4452    8726.5393    9883.8679    594.93279   -182.12515    20.114102   -2409.1905 
 3973000    276.62538   -3828.4878   -3354.3614   -3828.4878            0    11107.436    16.793111    19.780067    20.487556    6805.3282    9961.7356    12990.474    10370.097    344.24563    1266.2415   -925.28979   -2251.9625 
 3974000    277.74228   -3836.4995   -3360.4587   -3836.4995            0    9764.0506    16.862282    19.861541    20.571945    6889.7691    10352.322    9285.4698    9654.3597     532.3111   -950.87881    174.31835   -2379.3648 
 3975000    280.53798   -3842.5546   -3361.7221   -3842.5546            0    12222.546    16.769027    19.751699    20.458174    6776.0907     13185.28    10548.689    12933.668    58.195057   -1148.9448   -815.18521   -2153.8617 
 3976000    288.68722   -3850.3533   -3355.5533   -3850.3533            0    10642.197    16.838935    19.834041    20.543461    6861.1897    11958.906    10061.986    9905.6996    507.73784   -652.47031    78.678468   -2290.6587 
 3977000    288.44669   -3756.7593   -3262.3715   -3756.7593            0     10613.35    16.875027    19.876553    20.587494    6905.4034    10450.322    13780.785    7608.9426    1890.2449    667.79141    138.95333   -2193.5199 
 3978000    289.51363    -3776.192   -3279.9755    -3776.192            0     12739.42    16.810428    19.800463    20.508682    6826.4022    12610.107     10084.46    15523.694    499.66828    633.16818    -479.1736   -2011.6888 
 3979000    284.50042   -3822.6741   -3335.0501   -3822.6741            0    8195.7799    16.937139    19.949712     20.66327    6981.9336    7933.0073     8353.662    8300.6704    395.18126   -11.059576    605.38392   -2500.5202 
 3980000     278.0606   -3754.5562   -3277.9698   -3754.5562            0     8537.697    16.953906    19.969461    20.683725    7002.6894    9200.8401    9806.6735    6605.5775    2043.7963    49.390301   -1105.2605   -2406.0401 
 3981000    284.91589   -3766.8612   -3278.5251   -3766.8612            0        11744    16.825361    19.818053    20.526901    6844.6106    12808.245    8460.2344     13963.52   -690.77596    855.68659   -1109.9135   -2106.2199 
 3982000    289.72573   -3789.6356   -3293.0556   -3789.6356            0    12825.951      16.7897    19.776049    20.483395    6801.1824    12037.154    11965.173    14475.527   -288.95745    527.01278    240.77313   -2020.8717 
 3983000    273.27272   -3781.2455   -3312.8654   -3781.2455            0    11368.677    16.845293    19.841531    20.551219    6868.9654    11967.162    10178.564    11960.307   -537.12537   -1237.8796   -1733.1468   -2173.9875 
 3984000    287.53651   -3777.7299   -3284.9021   -3777.7299            0    11026.912    16.828849    19.822162    20.531157     6848.869    15931.248    9715.1258    7434.3616      2004.08      1383.83    168.65182   -2183.4931 
 3985000    277.77731   -3817.1864   -3341.0856   -3817.1864            0    11392.687     16.83809    19.833046    20.542431    6860.1573    13940.633    8797.0119    11440.418    720.81407   -500.11895    2171.0689    -2201.266 
 3986000     272.3665   -3809.7828   -3342.9559   -3809.7828            0    9247.1045    16.878957    19.881182    20.592288    6910.2289    12236.825    7324.8202     8179.668    -212.2794   -2543.4357    242.42635   -2411.0457 
 3987000    282.34276   -3802.5578    -3318.632   -3802.5578            0    10821.527    16.825532    19.818255     20.52711    6844.8201    10963.137    8157.0114    13344.431   -169.85887    18.269269   -1359.2742   -2238.3766 
 3988000    294.46282   -3797.9022    -3293.203   -3797.9022            0     10692.52    16.855615    19.853688    20.563811       6881.6    12113.385    9527.6107    10436.565    938.51174   -918.62346    529.83159   -2220.0902 
 3989000    277.69585   -3788.1021   -3312.1409   -3788.1021            0    9756.0187    16.867182    19.867313    20.577923     6895.777     9273.893    9612.7664    10381.397    933.88421   -2108.4268    108.03807   -2330.9993 
 3990000    280.10194   -3794.7281   -3314.6429   -3794.7281            0    12554.162    16.870594    19.871331    20.582085    6899.9617    13321.709    14210.498    10130.279    1814.2462   -1720.8542   -416.18939   -2051.3319 
 3991000    274.68026   -3808.9497   -3338.1572   -3808.9497            0    9707.7749    16.862963    19.862344    20.572776    6890.6039     9942.954     7758.244    11422.127   -165.41395   -346.86403   -1144.5247   -2362.5997 
 3992000    286.82583   -3806.4014   -3314.7918   -3806.4014            0    10465.493    16.926136    19.936752    20.649846    6968.3353    9404.8635    9779.3064     12212.31    2356.5248    1473.5309   -1167.7947   -2251.2253 
 3993000    275.39226    -3768.051   -3296.0381    -3768.051            0    10191.246     16.94105    19.954319    20.668041    6986.7714    10611.423    11007.893    8954.4223    360.37193    1314.8901    610.71008   -2257.6021 
 3994000    287.51941   -3775.4049   -3282.6064   -3775.4049            0    11028.284    16.888834    19.892816    20.604338    6922.3669    9250.9999    12086.573    11747.279   -323.94941    568.55576   -1047.2773   -2169.2392 
 3995000    283.88599   -3748.8226   -3262.2517   -3748.8226            0    9225.9144    16.968744    19.986939    20.701828    7021.0928    10071.875    9096.6942    8509.1736    1580.7332   -37.969202    338.44342   -2317.5602 
 3996000    275.09582   -3785.1337   -3313.6289   -3785.1337            0    11597.609    16.894009    19.898911    20.610651    6928.7314    9507.6329    11992.283    13292.912   -481.16602    205.71762    754.00994   -2141.7086 
 3997000    270.93541   -3780.3439   -3315.9699   -3780.3439            0    10654.557     16.85968    19.858476     20.56877    6886.5797    11822.582    11281.781     8859.309   -839.88008    1799.3691    176.47913   -2245.8933 
 3998000     283.9318   -3777.1432   -3290.4939   -3777.1432            0    9724.7375    16.861828    19.861006     20.57139    6889.2115    9814.7095    8612.5581    10746.945   -1568.6455   -98.034455    779.65519   -2313.4292 
 3999000    274.66876   -3817.0565   -3346.2837   -3817.0565            0    11468.277    16.853366    19.851039    20.561067    6878.8453    10690.709    12556.382     11157.74   -827.29127    1241.7806    -91.82209   -2195.7758 
 4000000    277.61176   -3756.4263   -3280.6092   -3756.4263            0    9697.7421    16.915218    19.923893    20.636527    6954.8602    9059.0664    10146.058    9888.1015   -483.93017    647.73994    -406.1297   -2296.9721 
Loop time of 447.649 on 64 procs for 250000 steps with 864 atoms

Performance: 96.504 ns/day, 0.249 hours/ns, 558.473 timesteps/s
99.1% CPU use with 64 MPI tasks x 1 OpenMP threads

MPI task timing breakdown:
Section |  min time  |  avg time  |  max time  |%varavg| %total
---------------------------------------------------------------
Pair    | 22.526     | 27.395     | 32.02      |  46.5 |  6.12
Bond    | 0.27346    | 0.28324    | 0.29408    |   0.9 |  0.06
Kspace  | 185.06     | 194.25     | 205.84     |  31.4 | 43.39
Neigh   | 5.7544     | 6.6989     | 8.0436     |  22.9 |  1.50
Comm    | 97.728     | 108.25     | 115.54     |  40.9 | 24.18
Output  | 1.2251     | 1.2258     | 1.2386     |   0.2 |  0.27
Modify  | 103.98     | 105.42     | 106.3      |   4.7 | 23.55
Other   |            | 4.125      |            |       |  0.92

Nlocal:        13.5000 ave          19 max           9 min
Histogram: 3 3 5 11 10 11 10 4 5 2
Nghost:        2288.66 ave        2337 max        2236 min
Histogram: 1 1 8 8 14 11 8 6 4 3
Neighs:        4438.25 ave        6188 max        2456 min
Histogram: 2 3 4 9 14 9 6 7 7 3

Total # of neighbors = 284048
Ave neighs/atom = 328.75926
Ave special neighs/atom = 2.0000000
Neighbor list builds = 15801
Dangerous builds = 1

unfix		3
unfix		2
unfix		1

write_data	data.final.${pid}
write_data	data.final.0
System init for write_data ...
PPPM initialization ...
  extracting TIP4P info from pair style
  using 12-bit tables for long-range coulomb (../kspace.cpp:340)
  G vector (1/distance) = 0.37455228
  grid = 24 24 24
  stencil order = 5
  estimated absolute RMS force accuracy = 0.0031279949
  estimated relative force accuracy = 9.4198638e-06
  using double precision FFTW3
  3d grid and FFT values/proc = 2535 216
Last active /omp style is kspace_style pppm/tip4p/omp
WARNING: Not all mixed pair coeffs generated from mixing. Use write_data with 'pair ij' option to store all pair coeffs. (../write_data.cpp:312)

write_restart   restart.lmp.${pid}
write_restart   restart.lmp.0
System init for write_restart ...
PPPM initialization ...
  extracting TIP4P info from pair style
  using 12-bit tables for long-range coulomb (../kspace.cpp:340)
  G vector (1/distance) = 0.37455228
  grid = 24 24 24
  stencil order = 5
  estimated absolute RMS force accuracy = 0.0031279949
  estimated relative force accuracy = 9.4198638e-06
  using double precision FFTW3
  3d grid and FFT values/proc = 2535 216
Last active /omp style is kspace_style pppm/tip4p/omp
Total wall time: 0:07:28
