#include		in.partitions
include		in.temp
variable        temperature equal 61.47
variable	tempDamp equal 100.0
include		in.pressure
variable        pressure equal 6808.9
variable        pressureDamp equal 1000.0 # This is 1 ps
include		in.seed
variable        seed equal 745823

units		real
atom_style	full
read_restart    restart.lmp.${pid}
read_restart    restart.lmp.0
Reading restart file ...
  restart file = 30 Jul 2021, LAMMPS = 30 Jul 2021
  restoring atom style full from restart
  triclinic box = (-3.1138546 -0.081351853 0.076068832) to (14.723854 22.661351 19.153929) with tilt (-0.19084216 -6.6464937 0.087049981)
  2 by 4 by 4 MPI processor grid
  restoring pair style lj/cut/tip4p/long/omp from restart
  restoring bond style harmonic/omp from restart
  restoring angle style harmonic/omp from restart
  1008 atoms
  672 bonds
  336 angles
Finding 1-2 1-3 1-4 neighbors ...
  special bond factors lj:    0        0        0       
  special bond factors coul:  0        0        0       
     2 = max # of 1-2 neighbors
     1 = max # of 1-3 neighbors
     1 = max # of 1-4 neighbors
     2 = max # of special neighbors
  special bonds CPU = 0.002 seconds
  read_restart CPU = 0.008 seconds

include 	in.setup
variable	out_freq equal 1000
variable	out_freq2 equal 10000
variable	out_freq3 equal 1000

timestep	2.0

neigh_modify    delay 7 every 1

include		in.tip4p
# This is TIP4P/Ice

# create groups ###
group ox type 2
336 atoms in group ox
group hy type 1
672 atoms in group hy

# set charges - beside manually ###
set group ox charge -1.1794
Setting atom values ...
  336 settings made for charge
set group hy charge 0.5897
Setting atom values ...
  672 settings made for charge

# ### TIP3P Potential Parameters ###
pair_style lj/cut/tip4p/long/omp 2 1 1 1 0.1577 8.5
pair_coeff 1 1*2 0.000 0.000
pair_coeff 2 2 0.21084 3.1668
bond_style  harmonic
bond_coeff  1 450 0.9572
angle_style harmonic
angle_coeff 1 55 104.52
kspace_style pppm/tip4p/omp 1.0e-5
pair_modify tail yes

thermo          ${out_freq}
thermo          1000
thermo_style    custom step temp pe etotal epair emol press lx ly lz vol pxx pyy pzz pxy pxz pyz enthalpy

restart 	${out_freq3} restart.lmp.${pid} restart2.lmp.${pid}
restart 	1000 restart.lmp.${pid} restart2.lmp.${pid}
restart 	1000 restart.lmp.0 restart2.lmp.${pid}
restart 	1000 restart.lmp.0 restart2.lmp.0


include         in.dump
dump            myDump all atom ${out_freq2} dump.water.${pid}
dump            myDump all atom 10000 dump.water.${pid}
dump            myDump all atom 10000 dump.water.0
dump            myDump2 all dcd ${out_freq2} dump.dcd
dump            myDump2 all dcd 10000 dump.dcd
dump_modify     myDump append yes
dump_modify     myDump2 append yes


variable natoms 	equal  "count(all)"                        # NUMBER ATOMS
variable H      	equal  "enthalpy/v_natoms"                 # ENTHALPY-per-atom
variable Vol      	equal  "vol/v_natoms"                 # volume-per-atom
fix AVG all 		ave/time ${out_freq} 1 ${out_freq} v_Vol v_H file vol_enthalpy.dat
fix AVG all 		ave/time 1000 1 ${out_freq} v_Vol v_H file vol_enthalpy.dat
fix AVG all 		ave/time 1000 1 1000 v_Vol v_H file vol_enthalpy.dat



fix 		1 all shake 1e-6 200 0 b 1 a 1
       0 = # of size 2 clusters
       0 = # of size 3 clusters
       0 = # of size 4 clusters
     336 = # of frozen angles
  find clusters CPU = 0.000 seconds
fix             2 all nph tri ${pressure} ${pressure} ${pressureDamp}
fix             2 all nph tri 6808.9 ${pressure} ${pressureDamp}
fix             2 all nph tri 6808.9 6808.9 ${pressureDamp}
fix             2 all nph tri 6808.9 6808.9 1000
fix             3 all temp/csvr ${temperature} ${temperature} ${tempDamp} ${seed}
fix             3 all temp/csvr 61.47 ${temperature} ${tempDamp} ${seed}
fix             3 all temp/csvr 61.47 61.47 ${tempDamp} ${seed}
fix             3 all temp/csvr 61.47 61.47 100 ${seed}
fix             3 all temp/csvr 61.47 61.47 100 745823


run             250000
PPPM initialization ...
  extracting TIP4P info from pair style
  using 12-bit tables for long-range coulomb (../kspace.cpp:340)
  G vector (1/distance) = 0.37987421
  grid = 24 27 32
  stencil order = 5
  estimated absolute RMS force accuracy = 0.0023980756
  estimated relative force accuracy = 7.2217334e-06
  using double precision FFTW3
  3d grid and FFT values/proc = 5355 672
Last active /omp style is kspace_style pppm/tip4p/omp
Neighbor list info ...
  update every 1 steps, delay 7 steps, check yes
  max neighbors/atom: 2000, page size: 100000
  master list distance cutoff = 10.8154
  ghost atom cutoff = 10.8154
  binsize = 5.4077, bins = 5 5 4
  1 neighbor lists, perpetual/occasional/extra = 1 0 0
  (1) pair lj/cut/tip4p/long/omp, perpetual
      attributes: half, newton on, omp
      pair build: half/bin/newton/tri/omp
      stencil: half/bin/3d/tri
      bin: standard
Per MPI rank memory allocation (min/avg/max) = 10.31 | 10.32 | 10.33 Mbytes
Step Temp PotEng TotEng E_pair E_mol Press Lx Ly Lz Volume Pxx Pyy Pzz Pxy Pxz Pyz Enthalpy 
40000000    66.410275   -5254.6202   -5121.7914   -5254.6202            0    6733.5926    17.837708    22.742703     19.07786    7739.4624    6717.4669     6643.405     6839.906    257.29106   -374.16224   -466.64109   -4361.7565 
40001000    62.289727   -5264.8944   -5140.3073   -5264.8944            0    6913.7532    17.765026    22.708716    19.111423    7709.9484    7242.4834    7138.1113    6360.6648   -1109.6053   -181.03475    812.90294   -4362.9132 
40002000    65.258659   -5270.3742   -5139.8488   -5270.3742            0    5763.4774    17.775461    22.682749    19.165325    7727.3885    6893.2695    6251.6885    4145.4743   -735.50491    747.06107   -462.62463   -4490.3277 
40003000     58.86143   -5260.6325   -5142.9023   -5260.6325            0    6416.1395    17.824654    22.669586     19.13824    7733.3326    6388.2581    6698.4336    6161.7268   -59.065765    481.92463   -768.25441   -4419.2726 
40004000    62.033152   -5272.5793   -5148.5053   -5272.5793            0    6348.4692    17.818896     22.66037     19.14582    7730.7522    6093.3351    6353.1622    6598.9104     77.80967   -361.46233   -327.67805   -4432.7466 
40005000    59.694588    -5260.073   -5140.6764    -5260.073            0     5813.413    17.848791    22.823382    19.018768    7747.6715    6101.0326    4586.9976     6752.209   -143.56255   -401.17996    182.04845   -4483.8082 
40006000    61.403928   -5258.0389   -5135.2235   -5258.0389            0     7035.056    17.801312    22.717021    19.077605    7714.8455    6772.8134    7027.6659    7304.6886    122.14476    247.76882    370.83172   -4343.6875 
40007000    61.323993   -5264.2867   -5141.6311   -5264.2867            0    6753.8271      17.7849    22.760163    19.055244    7713.3194     7289.417    6248.2373    6723.8269   -65.837623   -610.43012    163.92238   -4381.8874 
40008000    62.695564    -5264.111   -5138.7121    -5264.111            0    6450.1458    17.744638    22.781029    19.124216     7730.794    7394.3015     6058.616    5897.5199   -407.13836    12.552998    -31.24293   -4411.4859 
40009000    61.956275   -5255.8874   -5131.9672   -5255.8874            0    6545.6862    17.820671    22.730237     19.07919    7728.3706    7033.7492    5894.4503     6708.859   -931.06698   -42.409139    860.85386   -4394.2006 
40010000    64.054304   -5264.1956   -5136.0791   -5264.1956            0    7021.1381    17.838562    22.636058    19.078502    7703.7982     6622.581    7385.5913     7055.242   -140.90777    68.510368    -872.8427   -4347.2402 
40011000    59.452952    -5257.721   -5138.8078    -5257.721            0    7074.7571    17.758643    22.792184     19.04885    7710.1794    6109.2423    7893.6951    7221.3339   -202.45327    1135.9356    1225.7526   -4343.2863 
40012000    62.775388   -5256.7742   -5131.2156   -5256.7742            0    6079.4692    17.790922    22.824276    19.105433    7758.0458     5801.435    5875.7775    6561.1951    556.42306   -205.10038    183.40857   -4443.3654 
40013000    64.552417   -5258.6895   -5129.5767   -5258.6895            0    7362.3341    17.822269    22.546054    19.195617    7713.2181    7182.0114    7678.5524    7226.4386    518.10344    188.18451   -97.918167   -4301.3923 
40014000    63.121826   -5261.7031   -5135.4517   -5261.7031            0     7646.366    17.850263    22.508708    19.127162     7685.033    7076.8956    8589.4762    7272.7261    541.23704   -3.7330414    489.42383   -4278.4598 
40015000    62.205001   -5265.1268   -5140.7091   -5265.1268            0    6131.6088    17.918445    22.529726    19.165335    7737.0005    6816.1937    5792.4502    5786.1826    505.32483   -460.12939    -150.8136   -4448.8416 
40016000    61.958573   -5259.4722   -5135.5474   -5259.4722            0    7295.0118    17.864946    22.530041    19.139327      7703.54    6834.1334    7903.4062     7147.496    582.78955   -167.68145    747.15961   -4315.9657 
40017000    61.861482   -5265.7171   -5141.9865   -5265.7171            0    6678.0853    17.872878    22.515848    19.188436    7721.8681    6128.6804    7072.1113    6833.4643    -33.84745   -61.568825    347.48117   -4389.9304 
40018000    63.900956   -5271.1908    -5143.381   -5271.1908            0    7104.4162    17.878848    22.545567    19.122972    7708.2554    7129.6534     7170.839    7012.7563   -981.87723     162.8211   -194.00806   -4344.7239 
40019000    61.050197   -5262.4454   -5140.3374   -5262.4454            0    6697.7549    17.847253    22.654077    19.106575    7725.0372    6215.1094    6916.6708    6961.4844    208.87763    108.49711    575.35636   -4385.7567 
40020000    62.583983   -5265.3576   -5140.1819   -5265.3576            0    6634.2793    17.798981    22.612746    19.194115     7725.321    7045.2769    6492.2662    6365.2948   -770.63603    454.80998    290.82731   -4392.7249 
40021000    60.413156   -5265.0155   -5144.1817   -5265.0155            0     6913.944    17.796388    22.543795    19.229882    7714.9923    7276.5219    7282.9288    6182.3811   -74.334529    540.95318   -497.72041   -4366.2576 
40022000    60.877927   -5258.4159   -5136.6525   -5258.4159            0    7257.2063    17.780507    22.633902    19.149274    7706.4768    8014.8671    6668.4914    7088.2605   -313.30504    -588.5538   -23.777823   -4321.0074 
40023000     58.86622   -5269.5618   -5151.8221   -5269.5618            0    5234.7398    17.919376    22.624494    19.160321    7767.9167    4492.1609    5798.8487    5413.2096    195.72393    337.30769    378.89806   -4558.7936 
40024000    63.005084   -5255.4644   -5129.4464   -5255.4644            0    6562.4831    17.915615    22.522335    19.152345    7727.9997    5887.6843    7142.1619     6657.603    304.74292   -471.32753     283.5876   -4389.8221 
40025000    64.974529   -5264.0045   -5134.0474   -5264.0045            0    6626.9691    17.876576    22.532291    19.166274    7720.1794     6488.039    7168.2325    6224.6358   -746.67283   -615.89092   -451.25564    -4387.911 
40026000    62.267339   -5261.4646   -5136.9223   -5261.4646            0    6512.8339    17.874149    22.604413    19.139584    7733.0552    6319.9295    6428.8774    6789.6948   -454.28749    -18.61674   -610.46299   -4402.4135 
40027000    61.058823   -5255.3467   -5133.2216   -5255.3467            0    6457.4038    17.851662    22.596905    19.164705     7730.895    6966.7412    6451.9476    5953.5227    -141.1942   -131.12035   -596.70235   -4405.1675 
40028000    59.268575   -5260.4454   -5141.9009   -5260.4454            0      6638.17    17.954926    22.521698    19.083708    7716.9825    6121.2974    6832.0411    6961.1717    705.12504    -94.59078    533.01974   -4394.8129 
40029000    60.056629   -5260.0534   -5139.9327   -5260.0534            0    6801.7717    17.865811    22.533967    19.189059    7725.2773    6725.0759    6718.5048    6961.7343   -245.85292   -375.04604    504.45397   -4373.6094 
40030000    66.206389   -5265.5466   -5133.1257   -5265.5466            0    7535.0719    17.922551    22.457032    19.156415    7710.2136    7140.1497    8258.3094    7206.7565    384.66502   -297.34749    129.88802   -4285.8403 
40031000    63.010164   -5257.3679   -5131.3398   -5257.3679            0    6938.2138    17.852128    22.502847    19.227046    7723.9602     6754.763    7470.7489    6589.1294    512.02272   -388.48974   -8.5081965   -4349.7775 
40032000    62.085818   -5259.5009   -5135.3216   -5259.5009            0    7209.9198    17.760441    22.734862    19.099878    7712.1712     7188.339    6774.1293    7667.2912    294.62089   -154.60375     870.5085   -4324.3924 
40033000     63.27377    -5267.018   -5140.4627    -5267.018            0    6662.0714    17.848944    22.556142    19.190067    7725.9845    6453.5756    6897.2165    6635.4221    539.21073   -122.77781    202.09736     -4389.81 
40034000    58.354629   -5262.4022   -5145.6857   -5262.4022            0    6569.4683    17.876287    22.530789    19.168043    7720.2524     5817.042    7107.1885    6784.1743    284.19154    340.68861    1344.3918   -4406.0164 
40035000    59.050089   -5265.9086   -5147.8011   -5265.9086            0    6903.3703    17.838991    22.574845    19.192682    7729.1324    6873.0268    7451.4965    6385.5876    29.116463    180.40046    213.26113   -4369.6431 
40036000    59.754925   -5265.2261   -5145.7089   -5265.2261            0    6999.7398    17.864761    22.474451    19.202387    7709.7718    7915.0821     6902.384    6181.7532   -781.71935   -30.458848    -337.2901   -4358.6643 
40037000    65.450454   -5268.5355   -5137.6265   -5268.5355            0    6790.6197     17.91322    22.459571    19.182391    7717.5214    6558.1661    7645.1803    6168.5126    68.527795   -278.81012    507.19851   -4373.3277 
40038000    61.266622   -5261.0731   -5138.5323   -5261.0731            0    7259.2309    17.792407    22.522214    19.210672    7698.1849    7450.2438    7970.2487    6357.2001   -473.49842   -507.19473   -383.35201   -4323.5375 
40039000    63.316054   -5267.2347   -5140.5948   -5267.2347            0    7665.8769    17.848506    22.544165    19.134375    7699.2834    7321.8624    8382.7861    7292.9824    92.396108    520.36955   -292.30035    -4279.823 
40040000    60.959161   -5256.3744   -5134.4485   -5256.3744            0    7393.0766    17.961015     22.32548    19.212953    7704.1692    7133.2583    7678.5717    7367.3997    299.05759    -290.6117   -78.744397   -4303.7816 
40041000    61.189894   -5260.9124   -5138.5251   -5260.9124            0    6664.3952    17.842876    22.547271    19.215913    7730.7182     6256.252    7386.4856    6350.4481     16.67518    226.60574    1273.1436   -4387.1505 
40042000    62.957658   -5262.5735   -5136.6504   -5262.5735            0    6819.1748    17.810328    22.642493    19.099008     7702.061    6590.6604    6720.5683    7146.2956   -478.60636   -123.11655    -285.7686   -4370.6753 
40043000     65.48519   -5264.0343   -5133.0559   -5264.0343            0    7046.8564    17.826647     22.56637    19.181528    7716.3968    7400.1125    6962.3042    6778.1526   -421.60775     65.42188    6.5376682   -4340.0327 
40044000    59.628902   -5263.6477   -5144.3825   -5263.6477            0    7518.3708    17.756121    22.687441    19.116179    7700.7796    7658.0118    7188.1216    7708.9788    -569.5859    88.524544   -211.64393   -4300.0096 
40045000    61.114667   -5269.0838   -5146.8469   -5269.0838            0     7085.778    17.770873    22.812374    19.053693    7724.2873    6487.1438    7131.9154    7638.2748   -643.36199    506.67223    347.22401   -4348.6283 
40046000    60.374065   -5266.8661   -5146.1105   -5266.8661            0    6824.1414    17.808008    22.714674    19.083007    7719.1352    6523.4636    7071.2609    6877.6996    44.791512    83.448684   -611.56632   -4377.8782 
40047000    62.034532     -5264.28   -5140.2032     -5264.28            0    7449.6653    17.768179    22.654207     19.14773     7707.421    8206.4591    7507.5977    6634.9392   -691.98116    256.13691   -157.46343   -4302.8249 
40048000    58.349571   -5259.9788   -5143.2724   -5259.9788            0    7377.3779    17.752434    22.773632    19.049926    7701.6452    7635.8622    7245.9871    7250.2842   -791.10382    445.44576   -192.64524    -4314.641 
40049000     64.05211   -5266.7242   -5138.6121   -5266.7242            0     5883.987    17.802073    22.795414    19.073145    7739.9893    6120.1045    5432.7752    6099.0812    992.26057    -329.7868    305.96696   -4474.4288 
40050000    61.677014   -5270.5893   -5147.2277   -5270.5893            0    6697.7161    17.778941    22.610886    19.195498    7716.5441    7736.1472    6278.8553     6078.146   -549.81292   -48.589539    180.78359   -4393.4809 
40051000    67.125132   -5259.4432   -5125.1847   -5259.4432            0    6917.2163    17.828936    22.588777    19.166981    7719.1923     7064.733    6681.1762    7005.7397    654.46988   -293.45123    633.92007   -4346.4687 
40052000    62.099348   -5267.9653   -5143.7589   -5267.9653            0    6787.9459    17.877511    22.626297     19.09756    7724.9987    6730.1268    6693.4636    6940.2473    226.85869    62.013358    1332.0327   -4379.0209 
40053000    57.679431   -5265.7215   -5150.3555   -5265.7215            0    6614.1022    17.880839    22.525631    19.204489    7735.1299    6070.1829    7280.8758    6491.2478    211.45739    673.34793    344.33106   -4404.2257 
40054000    60.139492   -5252.3671   -5132.0807   -5252.3671            0    6671.2558    17.839219    22.551777    19.232537    7737.3668    7790.5314    6524.8349    5698.4012    366.51008   -661.46079    352.15747   -4379.2858 
40055000    64.372267    -5261.866   -5133.1135    -5261.866            0    7642.8196    17.876712    22.465601    19.157952    7694.0459    7579.3965    7474.3037    7874.7587    709.80435   -319.10032    1291.6118   -4275.5145 
40056000    63.057696    -5256.041   -5129.9178    -5256.041            0    6492.0038    17.874625    22.627033    19.126828    7735.8402    6135.8068    6428.3232    6911.8815    382.46552   -247.58146    867.12956   -4397.4945 
40057000    59.821283    -5270.086   -5150.4361    -5270.086            0    6716.0451    17.940329    22.550945    19.122071    7736.2426     6442.107    6479.5851    7226.4434    5.3794208   -368.91334    451.05953   -4392.6972 
40058000    62.518224   -5262.1984   -5137.1543   -5262.1984            0    6846.2622    17.812543    22.567678     19.18031    7710.2496    6601.5359    7162.7393    6774.5114    126.81035    397.42856    1348.5524   -4367.3189 
40059000    61.999776   -5264.2881   -5140.2809   -5264.2881            0    6762.1184    17.888155     22.57669    19.114924    7719.6639    5872.2764    7263.5712    7150.5077    766.64075   -691.71748    495.75183   -4378.9788 
40060000    59.484091   -5259.3881   -5140.4126   -5259.3881            0    6414.4503    17.832326    22.660226    19.118794     7725.609    7147.5422    5856.2679    6239.5409    197.99856   -240.45206     577.4228   -4417.6959 
40061000        63.12   -5260.3711   -5134.1233   -5260.3711            0    6656.3719    17.823204    22.681365    19.103382    7722.6302    5962.2132    7055.6833    6951.2191   -283.12917   -127.50097    522.59843   -4384.4385 
40062000    66.139268   -5257.6046   -5125.3179   -5257.6046            0    7240.9228    17.799499    22.650099    19.115682    7706.6861     7406.279    7926.3842    6390.1053    -1052.126    416.97181   -691.95641   -4311.4809 
40063000    64.081673   -5259.9386   -5131.7674   -5259.9386            0    7562.6863    17.842706     22.58497    19.116471    7703.4976    7352.6054    7457.1994    7878.2541   -421.45033    277.69414   -530.49022   -4282.1176 
40064000    60.280596    -5260.881   -5140.3124    -5260.881            0    7004.3105    17.762751    22.734494    19.094152    7710.7369    6596.5572    7366.4443      7049.93   -387.60058   -291.88747    427.88477   -4352.6553 
40065000    61.975088   -5270.2364   -5146.2786   -5270.2364            0    6782.7263    17.817611    22.613707    19.152866    7717.1156    6486.5209    6956.2334    6905.4245    129.91562   -117.35631    941.19274   -4382.9084 
40066000    64.330664   -5263.5199   -5134.8506   -5263.5199            0    5876.6586    17.966362    22.663697    19.044685    7754.6943    5609.5227    5962.8411     6057.612    86.118788    -34.03082   -161.35944   -4470.2342 
40067000    61.146314   -5260.4856   -5138.1855   -5260.4856            0    7718.3105    17.756791    22.704996    19.074681    7690.2987    7582.7906    7711.8954    7860.2457    -524.7601   -16.691447   -380.60998   -4272.5374 
40068000    62.243239   -5261.1935   -5136.6993   -5261.1935            0    7381.3214    17.804229     22.58039    19.161673    7703.4989    7885.3212    7364.1177    6894.5254   -680.73387   -58.144061    350.95848   -4307.4253 
40069000     59.78327   -5268.4063   -5148.8323   -5268.4063            0    6346.2884    17.870878    22.540708    19.177628    7725.1753    5854.6762    6878.2795    6305.9096   -38.461777    428.86157   -208.36071   -4433.8356 
40070000      60.5503   -5255.2897   -5134.1816   -5255.2897            0    7515.6405    17.744689    22.610431    19.200298    7703.4488    7795.6545    7841.5544    6909.7126   -722.11642    519.78453   -365.21937   -4289.8227 
40071000    59.023026   -5257.6798   -5139.6265   -5257.6798            0    6697.1748     17.88841      22.5851      19.0848    7710.4793    5731.9576    7433.8333    6925.7334   -585.00235    520.20989   -665.61629    -4386.533 
40072000    64.573962   -5254.6264   -5125.4705   -5254.6264            0    8011.8809    17.890266    22.583732    19.044111    7694.3725    7630.7073    8026.4874    8378.4479   -17.739616   -210.36228   -1197.8052    -4226.421 
40073000    59.870592   -5269.0992   -5149.3507   -5269.0992            0    6662.0705    17.847751    22.636852     19.11333    7722.1082    5539.5755    7086.0708    7360.5653   -97.535334    289.04791    464.23958   -4399.0748 
40074000    60.005187   -5270.9227    -5150.905   -5270.9227            0    6198.7048    17.833165    22.713794    19.102204    7737.5164     5611.767    6253.5316    6730.8159    -41.28668    12.431544    551.70211   -4451.4199 
40075000    58.614607   -5260.7667   -5143.5302   -5260.7667            0    6443.8591     17.77084     22.68293    19.162644    7724.3609    5968.7917    7059.9717     6302.814    933.52193   -45.501884    297.35562   -4417.6174 
40076000    63.711098   -5267.8855   -5140.4555   -5267.8855            0    5379.9448    17.824545    22.854977    19.030431    7752.6088    5280.2224    4894.3552    5965.2568   -157.41018   -267.90435   -1259.9018   -4532.1782 
40077000    61.276231    -5273.461    -5150.901    -5273.461            0     7376.525    17.821092    22.696743    19.071562    7714.0798    7942.9388    6879.2509    7307.3852    858.64669     86.15835    477.82949   -4321.0276 
40078000    67.356301   -5259.4073   -5124.6864   -5259.4073            0    7270.0421    17.711969    22.714068    19.086172    7678.5744    7200.5748    7014.7123    7594.8393    280.45274   -1162.8685    626.67409   -4310.5571 
40079000    60.941977   -5266.2144   -5144.3229   -5266.2144            0    6434.6025    17.870407    22.686423    19.052857    7724.3257    5821.5188    6489.3966    6992.8922    659.63582   -571.78642    703.89186   -4419.4561 
40080000    65.219652   -5264.5074   -5134.0601   -5264.5074            0    6595.8012    17.922759    22.676703    19.034528    7736.1859    6170.3155    6210.0475    7407.0406   -577.85596    3.1669066   -430.79535   -4389.8932 
40081000    61.679917   -5258.8361   -5135.4687   -5258.8361            0    6972.0187    17.786851    22.640961    19.135944    7706.2631    7316.0335    7056.8056    6543.2169    108.85642   -904.70067   -474.62072   -4351.8978 
40082000    61.908779   -5270.6884   -5146.8632   -5270.6884            0    6746.4328    17.877621    22.489405    19.220341    7727.6737    7468.2721    6649.5031    6121.5231   -639.92601     184.3856    516.18695   -4386.5389 
40083000    63.104754   -5261.8253    -5135.608   -5261.8253            0    7567.0584    17.863985    22.608442    19.076523    7704.5663    7930.4845    7357.6768    7413.0138    444.97477   -660.31062   -98.337838   -4285.3491 
40084000    68.212292   -5267.7743   -5131.3413   -5267.7743            0    6485.1266     17.86317     22.72166    19.012845    7716.9499    6509.5716    6183.6729    6762.1353   -55.140665    -210.5738    974.13127   -4401.4805 
40085000    61.892835   -5268.4535   -5144.6602   -5268.4535            0     6265.284    17.866928    22.660661    19.093237    7730.4011     5837.574    6018.8428    6939.4353   -151.93047   -213.95689     56.62976   -4438.3123 
40086000    61.273551   -5267.5313   -5144.9766   -5267.5313            0    5883.9938    17.799654    22.672385    19.153896    7729.7582    6018.0399    6140.0547    5493.8869    245.50993   -273.59419   -352.90889   -4481.6705 
40087000     62.20413    -5269.469   -5145.0531    -5269.469            0    5442.0058    17.904233     22.58496    19.163868    7749.2242    5148.9983    5428.7687    5748.2505    376.59622    -251.7601   -758.72606   -4530.0276 
40088000    61.928693   -5262.8757   -5139.0106   -5262.8757            0    6862.7336    17.832022     22.63333    19.126934    7719.5932    7416.2397    6446.0558    6725.9054    143.21672    -249.4672   -74.561715    -4366.388 
40089000    57.792777   -5267.6698   -5152.0771   -5267.6698            0    6044.3631    17.816901    22.586405    19.197518    7725.4601     6523.374     5721.893    5887.8222   -2.0162727   -502.13903   -240.05283   -4471.0714 
40090000    60.684867   -5264.0644   -5142.6872   -5264.0644            0    6443.8568    17.909563    22.540278    19.144288    7728.2913    5342.8061    6758.9575    7229.8067   -19.496556   -323.31147    409.20724   -4416.4052 
40091000     59.80483   -5264.2233   -5144.6063   -5264.2233            0    5972.8049    17.699319    22.648761    19.294876    7734.6916    7095.9301    6039.6405     4782.844     -396.818   -282.26746   -794.92923   -4470.8587 
40092000    61.985479   -5265.5144   -5141.5358   -5265.5144            0    6330.5025    17.855445    22.562842    19.175859    7725.3702    6490.2455    6578.0867    5923.1753    23.656187   -165.19781    420.80508   -4428.2996 
40093000    63.893806   -5266.0585    -5138.263   -5266.0585            0    5926.0732    17.842405    22.565863    19.228423     7741.926    5728.5648    6460.8043    5588.8504   -470.37304   -9.2732721   -175.92963   -4469.1617 
40094000    61.973297   -5264.9279   -5140.9736   -5264.9279            0    6593.2313    17.855748    22.643514    19.096325    7720.9661    6930.8317    6282.3494     6566.513   -708.76675   -481.05772   -1270.1504   -4398.5602 
40095000    59.565612   -5271.0065   -5151.8679   -5271.0065            0    6438.5422    17.924142    22.650524     19.05698    7736.9663    6427.9216    6177.6389     6710.066    227.54064   -326.88625   -849.34629   -4425.3704 
40096000    62.894671   -5262.7137   -5136.9166   -5262.7137            0    6080.1975    17.858175     22.66279    19.121497    7738.7769    5055.6595    6479.1449    6705.7881    423.41277    245.33143   -113.47824   -4450.6926 
40097000    60.649678   -5258.6902   -5137.3833   -5258.6902            0    7064.4784    17.721635    22.725228    19.134323    7705.9316    6905.8332    6643.5547    7644.0472   -875.78159   -500.11168   -462.04617   -4343.4553 
40098000    62.701614   -5266.9105   -5141.4995   -5266.9105            0    6423.8175    17.894278    22.556188    19.156992    7732.2733    7025.2114    6165.7213    6080.5198    739.09495   -710.49755   -680.26465   -4417.1031 
40099000     60.16767   -5259.7696   -5139.4269   -5259.7696            0    7086.8302    17.804335    22.598818    19.172826    7714.3194     5738.591    7626.9407     7894.959    478.35453    216.00675   -219.21166   -4342.1199 
40100000    62.280289   -5266.4531   -5141.8849   -5266.4531            0    6839.9672    17.810635    22.670032    19.131652    7724.7424    6675.9534    6504.7372     7339.211    656.52536   -155.19869   -25.165462   -4371.3116 
40101000    60.348473   -5269.9334    -5149.229   -5269.9334            0    7345.0822    17.849199    22.606399    19.111242    7711.5032    6374.6565     7752.685    7907.9049    596.31852    308.37836     326.2435    -4323.169 
40102000    63.351574   -5264.3734   -5137.6625   -5264.3734            0     7064.806    17.897355    22.609017    19.046168    7706.8717    7144.0659    7058.1655    6992.1866    314.46599     41.25496    144.82976   -4343.6007 
40103000    59.833458   -5252.8514   -5133.1771   -5252.8514            0    6398.7983    17.762822    22.788452    19.062303    7716.1766    6592.1686    6111.8575    6492.3687    578.57524   -86.941024   -56.086973   -4413.1042 
40104000    64.321278   -5262.8309   -5134.1804   -5262.8309            0    7096.8984    17.729642    22.661755    19.211734    7718.9826    7690.3202    6840.1931    6760.1818    538.16403    514.46161   -168.48832   -4335.2581 
40105000    64.718831   -5261.1308   -5131.6852   -5261.1308            0    5860.2706    17.853326    22.689631    19.153816    7758.9312    6351.8732    5659.8984      5569.04   -12.532568   -215.94495    831.44941   -4468.5601 
40106000    59.803706    -5265.757   -5146.1422    -5265.757            0    6998.7847    17.862074    22.564914    19.146153     7716.975    7620.7565    6596.0036     6779.594    329.81464   -516.11206   -146.05016   -4358.4699 
40107000    62.133221   -5263.0646   -5138.7904   -5263.0646            0    6660.4611    17.869767    22.583588    19.146443    7726.8046    7629.6365    6859.2493    5492.4975    35.662881    137.68033    13.047287   -4388.2396 
40108000    61.304203   -5258.2022   -5135.5862   -5258.2022            0    6493.5122    17.827513    22.699753    19.089334    7725.0741    5887.9734    6693.0215    6899.5418   -1082.8893   -282.27009     436.1308   -4404.0123 
40109000     59.88053   -5262.8556   -5143.0871   -5262.8556            0    7070.2604    17.852264    22.708021    19.061875    7727.4859    6802.9294    6883.8492    7524.0025    200.09019    425.81146    654.87799   -4346.2868 
40110000     61.15084   -5251.5709   -5129.2616   -5251.5709            0    7845.3372    17.721534    22.690759    19.108871    7683.9649    9134.4549    7284.0156    7117.5412    138.53403   -71.427583    575.97126   -4250.0916 
40111000    64.291331   -5259.4409   -5130.8503   -5259.4409            0    6588.9136    17.813111    22.596334    19.208078    7731.4628    6869.9879     6854.098    6042.6549   -45.107424    215.24294     648.8683   -4387.9143 
40112000    58.676414   -5256.0354   -5138.6753   -5256.0354            0    6408.2876     17.89683    22.602911    19.125174    7736.5243    6255.7811    6683.2161    6285.8655   -445.79623    595.06833    99.940313   -4415.6329 
40113000    61.747146   -5270.9169    -5147.415   -5270.9169            0    5246.9404    17.862997    22.757833    19.089312    7760.2466    4476.9659    5327.0782    5936.7772   -687.36997   -103.03344   -38.571275   -4553.5912 
40114000    63.311087   -5261.6718   -5135.0418   -5261.6718            0    6490.5608    17.802785    22.674808    19.148278     7729.676    6769.3379    6590.2538    6112.0907    -191.7071    138.61527   -922.35578   -4403.3648 
40115000    62.239813   -5265.0167   -5140.5294   -5265.0167            0     6632.278    17.850173    22.654533     19.10867    7727.3045    7238.7604    5808.8909    6849.1826   -1129.9812   -62.531539   -166.30603   -4393.1061 
40116000    61.406521   -5269.0969   -5146.2763   -5269.0969            0    6744.5463    17.800563    22.658445    19.134775    7717.6878    6817.5001     6938.519    6477.6197   -713.17924   -255.93665    803.41369   -4387.1469 
40117000    58.338743   -5263.1894   -5146.5047   -5263.1894            0    7140.5944    17.805177    22.662648    19.118497    7714.5521    6897.9267    6987.7518    7536.1048   -1048.3232   -143.60323   -171.29796   -4343.1248 
40118000    59.865626   -5264.5105   -5144.7718   -5264.5105            0    7590.9555    17.789563    22.662132    19.124716    7710.1185     8815.877    7283.0101    6673.9795   -55.312097    181.93385   -19.208761   -4291.2131 
40119000    61.967264    -5268.027   -5144.0848    -5268.027            0    7248.8264     17.81846    22.635758    19.103171    7704.9647    7286.3979    7122.1876    7337.8936   -298.54034   -297.84416   -502.61831   -4329.5414 
40120000    61.204873    -5265.489   -5143.0717    -5265.489            0    6213.4476    17.917805    22.582696    19.102103     7729.329    5694.8705    6573.4551    6372.0173     26.68615    153.11253   -996.37835   -4442.6649 
40121000    59.211436   -5264.3939   -5145.9637   -5264.3939            0    6664.9349    17.812148    22.660654     19.13367    7723.0173    6808.9922    6751.6065     6434.206   -154.71669     7.937037   -521.48553   -4395.2768 
40122000    63.390449   -5262.4397    -5135.651   -5262.4397            0    6927.2398    17.823155    22.627042    19.163715    7728.4445    7046.5761    7430.5352    6304.6082   -836.61891    205.50654   -4.4356155   -4354.8718 
40123000    61.991066   -5266.6779   -5142.6881   -5266.6779            0    6432.3039    17.813171    22.714291    19.131885    7741.0199    6367.0388    6754.1547    6175.7181    119.84081    528.29641   -404.92874   -4416.5142 
40124000    62.190749   -5259.5953   -5135.2061   -5259.5953            0    6749.2226    17.715759    22.903078    18.997587     7708.184    7727.4664    5830.2566    6689.9446    116.37869   -385.31974   -478.12712   -4376.4858 
40125000     64.29792   -5261.2126   -5132.6088   -5261.2126            0    7003.3932    17.838899    22.782183    18.976855    7712.3659    6623.8184    6516.0173     7870.344   -42.217543   -204.55582    502.33021   -4344.8885 
40126000    59.310105    -5262.453   -5143.8254    -5262.453            0     6842.642    17.815245    22.791049    19.039037    7730.3848    7080.3202    6526.3308    6921.2749   -85.608613    290.32613    675.22194   -4372.3878 
40127000    58.423319   -5259.8568    -5143.003   -5259.8568            0    7648.8244    17.754832    22.684014    19.128173    7703.8886    8565.0445    7132.8712    7248.5576    1258.4353    664.41423    287.99848   -4283.6322 
40128000    58.906916   -5261.5897   -5143.7686   -5261.5897            0    7609.9743    17.739407    22.663351    19.160072     7703.008    8394.4456    7408.3105     7027.167    1254.5286    378.88299    876.17432   -4288.8605 
40129000    65.875297   -5259.5374   -5127.7787   -5259.5374            0    6982.5085    17.742469    22.688227    19.138783    7704.2245    6486.9246    6891.6124    7568.9883     202.0766   -363.83595    116.76748   -4343.2365 
40130000    60.646281   -5267.4461   -5146.1461   -5267.4461            0    6940.7259    17.895278    22.526679    19.122817    7708.8125    6206.6522    7789.8175    6825.7082    1546.4999    220.76353    777.70379   -4365.8341 
40131000    58.596371    -5265.373   -5148.1731    -5265.373            0    6583.6178    17.797912    22.632934    19.152134    7714.8428    6642.3192    7618.9348    5489.5993    163.80333    308.51856    685.51094     -4407.43 
40132000    62.423313   -5256.8342   -5131.9798   -5256.8342            0     7108.957    17.745027    22.642975    19.186594    7709.1773    7692.1614    6687.0821    6947.6276   -133.17185   -96.092426    759.20137   -4332.7166 
40133000    61.555757   -5258.8436   -5135.7245   -5258.8436            0    6652.8237    17.825208    22.614355    19.169982    7727.5268     7146.864    6638.5378    6173.0694    993.23294    400.25095   -13.474409   -4385.9642 
40134000    60.502712   -5266.6453   -5145.6324   -5266.6453            0     6844.517    17.787446    22.725983    19.082586    7713.8911    6310.6283    7052.3184    7170.6043    407.18271    87.061479     -317.131   -4375.6297 
40135000     60.13393   -5262.6004   -5142.3251   -5262.6004            0    6933.2758     17.72568    22.717954    19.145395    7709.6821    7372.2288    6982.8501    6444.7485   -619.89451   -122.78143    351.33861   -4362.7628 
40136000    65.303937   -5265.5261   -5134.9102   -5265.5261            0    6729.1095    17.841195    22.590175     19.15699    7720.9513    6908.2709    6750.8841    6528.1735    245.70715    357.28925    245.09308   -4377.1979 
40137000     61.97414   -5265.6116   -5141.6557   -5265.6116            0    7399.3869    17.878042    22.575868    19.090525     7705.171    7083.5388    7522.7222    7591.8996    243.92218   -993.86091    989.82592   -4310.1717 
40138000    62.306726   -5262.0204   -5137.3992   -5262.0204            0    7629.6265    17.880104    22.560968    19.052779    7685.7474    6670.1869     8789.093    7429.5996     530.1622    869.66938    724.08672    -4282.204 
40139000    59.492321   -5266.6339   -5147.6419   -5266.6339            0      6862.05    17.808729    22.556501    19.205664    7714.9658    6652.7264    7505.8437    6427.5799    273.23533    110.77634    641.76772   -4375.5593 
40140000    61.912046   -5258.0205   -5134.1888   -5258.0205            0    7179.6982    17.797019    22.579974    19.172236    7704.4822    8406.0392    7182.5153      5950.54    285.24718   -412.94007    798.56806   -4327.4638 
40141000    61.100122   -5265.0529   -5142.8451   -5265.0529            0    7416.6177    17.860831    22.645253    19.061438     7709.647     8190.672    7060.2253    6998.9558    424.77139    257.14935    422.74507   -4308.9407 
40142000    61.431011     -5262.72   -5139.8504     -5262.72            0    6945.8863    17.840497    22.692645    19.043624    7709.7745    5922.3975    6989.2773    7925.9841   -246.44976   -355.27865    208.41958   -4358.8608 
40143000    60.446894    -5265.894   -5144.9928    -5265.894            0    6663.6972    17.788289    22.705376    19.129776     7726.321    7342.2822    6780.3598    5868.4495   -200.76895    345.96267    245.31371   -4394.1243 
40144000    59.670943   -5258.8384   -5139.4892   -5258.8384            0    6957.8819    17.743194     22.77816    19.107869    7722.5849    7963.4348    6476.3604    6433.8506   -146.05373    292.82685    599.72548   -4355.8509 
40145000     61.60603   -5262.5473   -5139.3276   -5262.5473            0    7167.6433    17.757043    22.745906     19.09567    7712.7415    7189.8526    7236.3479    7076.7292   -834.89456    268.76287    316.29008   -4333.0937 
40146000    61.498683   -5266.8198   -5143.8149   -5266.8198            0    6259.4846    17.751492    22.764782    19.129724    7730.4908    6797.7754    6098.3623    5882.3162    143.08241   -63.358741     909.8159   -4438.1126 
40147000    58.527246   -5264.2369   -5147.1751   -5264.2369            0    6882.3193    17.793659    22.770081    19.013529    7703.5794    8165.7064    5993.3435    6487.9081   -210.07671    255.34119    265.64387   -4373.9548 
40148000    58.868131    -5262.663   -5144.9194    -5262.663            0    6830.9447    17.765249    22.764715    19.081852    7717.0984    8170.1311    6355.3636    5967.3394    495.35152   -407.72206    61.130666   -4376.1242 
40149000    63.957271   -5259.9292   -5132.0067   -5259.9292            0    6429.5156    17.803444    22.789002    19.044956    7726.9716    7138.4231    5942.8622    6207.2616   -431.44229   -186.34731   -1157.1489   -4407.4649 
40150000    57.482586   -5256.3907   -5141.4185   -5256.3907            0    7368.2633    17.775476    22.751851    19.040141    7700.3085    7358.5227    7743.4075    7002.8598   -164.57936    457.65996   -382.72506   -4313.9544 
40151000    66.213817   -5259.1367   -5126.7009   -5259.1367            0    6976.7479    17.790655    22.781385    19.030182     7712.852    7404.6004    6682.9769    6842.6665   -257.16232    766.85338   -192.51806   -4341.9282 
40152000    61.694934   -5262.4267   -5139.0292   -5262.4267            0    7035.6777    17.772307    22.824461     19.00828    7710.5818    7245.8625    6616.2166    7244.9542    440.92768   -71.425109    357.11415   -4347.8607 
40153000    62.249766   -5259.8547   -5135.3475   -5259.8547            0    6739.3266     17.83751    22.777187    18.999553    7719.2964    6615.1074    6766.5609    6836.3116    478.30829   -83.046982    871.62606   -4376.6474 
40154000    61.739677   -5264.3488   -5140.8618   -5264.3488            0    7422.3058     17.79591    22.730285    19.046552    7704.4466    7036.4401    7511.6982    7718.7792    560.39644    286.52608    250.03261   -4306.8808 
40155000    61.177399   -5267.9117   -5145.5493   -5267.9117            0    6419.1148    17.754866    22.725352    19.132367    7719.6345    6801.0116    6508.8896    5947.4433    97.561577   -735.27793    664.23876   -4422.8665 
40156000    59.892478   -5271.4823   -5151.6899   -5271.4823            0    6106.5577    17.815703    22.692507    19.146494    7740.6016    5915.9795     6097.289    6306.4047   -47.658375    188.83111    223.95086   -4462.3284 
40157000    61.192837   -5260.5829   -5138.1897   -5260.5829            0    7924.3893    17.746191    22.616875    19.171858    7694.8818     8046.963    8584.1364    7142.0686    185.87592    206.59454    348.67572   -4248.8992 
40158000    60.459107   -5267.9869   -5147.0612   -5267.9869            0    6798.8999    17.764085    22.738183    19.095882     7713.266    6955.1002    6903.2765    6538.3229    -341.5337    515.66663   -512.46954   -4382.2525 
40159000    59.121395   -5263.5917   -5145.3416   -5263.5917            0    7256.4682    17.893104    22.590857    19.105275    7722.7449    6560.4281    7643.8716     7565.105   -61.607689    729.85782   -283.03964   -4328.0578 
40160000    61.024307   -5257.0937   -5135.0376   -5257.0937            0    7715.2871    17.926487    22.458965    19.126031    7700.3379    7366.0561    8372.9818    7406.8233    377.42831   -316.45471    -85.78912    -4268.599 
40161000    59.553079   -5262.5984   -5143.4849   -5262.5984            0    7509.1996     17.86628    22.550421    19.130286    7707.4416    7199.3901    7385.7261    7942.4825    847.66317    101.43177   -145.75615   -4299.4123 
40162000    59.435009    -5254.313   -5135.4357    -5254.313            0    7974.2272    17.846936     22.57674    19.084874     7689.785    7578.1702     8132.283    8212.2283    457.71075    209.21722   -339.40039    -4241.145 
40163000    62.320602   -5268.1143   -5143.4654   -5268.1143            0    6607.8612    17.859015    22.548561    19.196816    7730.4636    6511.8084    7129.9802    6181.7951   -58.125141   -370.43809     22.37546   -4398.4893 
40164000    59.904986   -5262.6775   -5142.8601   -5262.6775            0    6776.3982    17.846196    22.572905    19.126387    7704.8833    7078.7725    6772.3984    6478.0238    -46.80332   -74.701083   -597.14546    -4381.411 
40165000    62.053665   -5267.7374   -5143.6224   -5267.7374            0    6784.8446    17.914272    22.501536    19.151504    7719.9448    6648.4007    6677.0953    7029.0378   -301.74036   -751.76138     83.69685   -4379.7338 
40166000    64.379601   -5258.4735   -5129.7064   -5258.4735            0    7679.2676    17.841978    22.531361    19.178619    7709.8822    7612.9375    7606.7116    7818.1539    121.42546    -143.1831    329.94276    -4266.244 
40167000    61.833568   -5266.5118    -5142.837   -5266.5118            0    6816.4132     17.81275    22.585495    19.179156    7715.9621    6678.7962    6842.2907    6928.1526    318.49997   -745.68774   -254.79931   -4375.7901 
40168000    61.072179   -5259.9021   -5137.7502   -5259.9021            0    6391.6124    17.926122    22.591473    19.098689    7734.5396    6417.4965    6199.7452    6557.5955   -225.85746   -260.17031    185.71488   -4416.7742 
40169000    64.537745   -5262.2712   -5133.1877   -5262.2712            0    5942.8581     17.87359    22.633818    19.173533    7756.6067    5981.8876     6228.612    5618.0748    110.34935   -132.65514    144.19503   -4460.9188 
40170000    61.146392   -5259.3879   -5137.0876   -5259.3879            0    7597.2788    17.764283    22.594078    19.165028    7692.2211    7111.3065    8154.0528     7526.477    922.19361   -185.74661    -691.8815   -4284.8009 
40171000    62.668156   -5260.6374   -5135.2933   -5260.6374            0    7230.3834    17.849187    22.649881    19.053879    7703.1392     6540.437    7418.9744     7731.739    -212.3611    474.08533   -64.227099   -4323.0148 
40172000    61.416014    -5266.465   -5143.6254    -5266.465            0    6691.0347    17.806705    22.760528    19.062062    7725.6631     6452.462    6280.1996    7340.4426    555.03628    -59.79031   -247.68085   -4389.7407 
40173000    59.849818    -5266.747     -5147.04    -5266.747            0    6478.9887    17.725202    22.812078    19.091072    7719.4502     7199.413     5883.672    6353.8811    359.11072   -346.66154    29.983538   -4417.6338 
40174000    61.552395   -5265.8169   -5142.7045   -5265.8169            0    6679.2367    17.744453    22.830585     19.05161    7718.1169    6504.2833    6869.1095    6664.3173   -257.81706   -136.72878     495.7901   -4390.8841 
40175000    60.396363   -5262.8854   -5142.0852   -5262.8854            0    6990.1376    17.762141    22.823889     19.04539    7721.0224    7623.1657    6663.8016    6683.4455   -177.75823    323.09463   -511.25528   -4354.9734 
40176000    60.428034   -5260.3311   -5139.4676   -5260.3311            0    7396.9867     17.69869    22.873283    19.011173     7696.239    7386.3758     7159.435    7645.1492   -269.54939    573.59773   -334.02494   -4309.2168 
40177000    64.656713   -5264.3618   -5135.0404   -5264.3618            0    6225.8397     17.78249    22.740801    19.106912     7726.607    6396.7526     6280.865    5999.9013   -42.417786    335.32062   -395.54342   -4433.4839 
40178000     59.73469   -5257.1724   -5137.6956   -5257.1724            0      6579.07    17.753543    22.814688    19.090877    7732.5983    7996.6261     5637.363     6103.221    109.74906    -1427.867    1010.7669   -4395.7606 
40179000    64.566171   -5263.3603     -5134.22   -5263.3603            0    6704.6352    17.806129    22.724572    19.077832      7719.59    6942.6602    6358.4709    6812.7744   -1270.6318    33.885888    102.87808   -4379.3967 
40180000    58.419705   -5253.9728   -5137.1262   -5253.9728            0    7189.2296    17.874642    22.638815    19.071135    7717.3393    8018.4046    6512.3847    7036.8993    -1105.999   -760.05484    189.80321   -4327.9822 
40181000    60.805425   -5261.0895   -5139.4711   -5261.0895            0    8120.5034    17.823526    22.578568    19.096381     7684.951    7526.2476     8693.336    8141.9266   -183.47618   -155.79115    599.31217   -4229.3484 
40182000    62.698623   -5263.5182   -5138.1132   -5263.5182            0    7679.5474    17.839958    22.511315    19.168534    7698.1008     8385.647    7559.8169    7093.1784    142.30518    727.32323    385.56498   -4275.9388 
40183000    60.461298   -5265.5935   -5144.6635   -5265.5935            0    7392.1994    17.722789    22.687283    19.145818    7698.1873    8508.2451     7674.059     5994.294   -162.14518    308.94065   -190.29529     -4314.74 
40184000     59.12934   -5262.3796   -5144.1136   -5262.3796            0    7478.8408     17.86925    22.718532    18.946591    7691.6174    7194.1437    6909.0796     8333.299    365.37647   -226.23644    105.70598   -4305.1795 
40185000    62.329598   -5259.5199    -5134.853   -5259.5199            0     6354.284    17.976202    22.532353    19.091234    7732.8302    4587.8794    7339.9422    7135.0302    248.95299     107.3725    6.4627878   -4418.2461 
40186000     64.56455   -5262.7955   -5133.6584   -5262.7955            0    7552.9163    17.813237    22.576456    19.132243    7694.2181     7572.625    7234.8757    7851.2483    135.09648    73.039988   -1144.1479   -4286.1285 
40187000    60.218421   -5264.0147   -5143.5704   -5264.0147            0    7391.1664    17.747274    22.715815    19.129532    7711.9523    6593.8485    7384.4534    8195.1974    448.32284   -119.30066    248.40905   -4312.2792 
40188000    60.487986   -5259.2207   -5138.2372   -5259.2207            0    6253.3247    17.941095    22.578155    19.118308    7744.3834    6613.4416    5795.6335    6350.8989   -249.06392   -184.49421    128.99986   -4431.9624 
40189000    60.224532   -5268.3878   -5147.9313   -5268.3878            0    7009.3314    17.867764    22.597593    19.118682    7719.5208    6100.4353    6903.9284    8023.6306   -55.068781    81.777228    407.96489   -4358.8117 
40190000    63.856281   -5258.2126   -5130.4921   -5258.2126            0     6413.267    17.812245     22.66622    19.154999    7733.5679    6616.6541    6017.3246    6605.8222   -759.48261   -891.90019   -195.57308   -4407.1644 
40191000    61.172286   -5262.8653   -5140.5132   -5262.8653            0    6127.1326     17.85526    22.686403    19.102494    7737.8783    6168.9012    5919.4334    6293.0631     148.2281    191.19325     490.9017   -4449.0723 
40192000    63.167777   -5262.6953   -5136.3519   -5262.6953            0     6436.478    17.753975    22.826004    19.034656    7713.8381    6686.5336     5612.247    7010.6533   -657.62856   -626.07092   -904.19324   -4412.2583 
40193000    61.725139   -5262.8956   -5139.4377   -5262.8956            0    7536.6588    17.826435    22.663355    19.040252    7692.3917    7876.1902    7401.1089    7332.6773   -363.97363     -133.197    37.061656   -4293.9328 
40194000    63.510102   -5266.3271    -5139.299   -5266.3271            0    6512.9148    17.766877    22.799468    19.069264    7724.4884    6610.5526    5849.0137     7079.178   -160.84833   -535.74942   -228.87611   -4405.5948 
40195000     62.48177   -5265.9638   -5140.9926   -5265.9638            0    5947.6129    17.771285    22.804447    19.095255    7738.6259    5998.9411    5544.6089    6299.2886    80.770683   -532.38367    -333.1607   -4469.7455 
40196000    59.458468   -5263.6049   -5144.6806   -5263.6049            0    6761.6358    17.832829    22.622706    19.145462    7723.7937    7621.4327    6579.6669    6083.8078    2.3176796    101.38529   -125.53341   -4383.0256 
40197000    61.553051   -5265.2072   -5142.0935   -5265.2072            0    6097.6438    17.829917    22.565313    19.234559    7738.7875    5728.6897    6471.0469    6093.1947   -244.96053   -420.32008     844.2237   -4453.8995 
40198000    62.447481   -5263.5987    -5138.696   -5263.5987            0    6963.7219    17.795742    22.650908    19.147258    7718.0631    7076.2031    7327.3588    6487.6039    230.11615    274.41362   -520.39554   -4354.8592 
40199000    61.891553   -5259.3844   -5135.5936   -5259.3844            0    6859.6274    17.854066     22.66377    19.106621    7731.3115    6650.0684    7069.0316    6859.7821     122.1554     141.7251    605.94377   -4362.1483 
40200000    60.707615   -5259.7557    -5138.333   -5259.7557            0    7971.4202    17.718364    22.741666    19.055503    7678.3221    8173.8149     7760.949    7979.4968    5.5586788   -176.74032    589.94299   -4245.6897 
40201000     60.52312   -5263.4459   -5142.3922   -5263.4459            0    5760.0293     17.74768    22.814494    19.107882    7736.8641    5668.7305    5845.4346    5765.9228    90.699801    484.56267   -148.08933   -4492.4638 
40202000     59.24427   -5263.1713   -5144.6754   -5263.1713            0    6205.8705     17.81789    22.774235     19.04693    7729.0315    6698.9565    5587.0578    6331.5972    66.465432    17.935678   -20.979352   -4445.1497 
40203000    59.575419   -5266.7409   -5147.5827   -5266.7409            0    6319.7873    17.780718     22.78183    19.080165    7728.9418     6040.205    6404.3668    6514.7901    44.489616   -278.52455    -1409.442   -4435.2246 
40204000    60.936743   -5271.6347   -5149.7537   -5271.6347            0    5917.3452    17.879016    22.666668    19.097474    7739.3986     6150.558    6266.3302    5335.1472     352.9612    564.59995   -130.66722   -4481.8559 
40205000    59.730348   -5266.4833   -5147.0152   -5266.4833            0    6406.0488    17.720463    22.759254    19.139182    7718.9189    6808.1291    5779.7336    6630.2838   -93.183757   -868.77503    118.92292   -4425.8702 
40206000    62.070614   -5267.1818   -5143.0329   -5267.1818            0    6922.0382    17.783434    22.793958    19.007227    7704.6719    7172.6817    6012.7037    7580.7293    -154.1498   -687.40797   -328.65031   -4365.2399 
40207000    61.137238   -5264.4502   -5142.1681   -5264.4502            0    5694.4272    17.828163    22.694171    19.146337    7746.5198    5576.3451    6051.1378    5455.7987    157.86106   -192.01984    474.30129     -4498.84 
40208000    59.870714    -5253.806   -5134.0572    -5253.806            0    7207.9057      17.7231    22.818804    19.065309    7710.3911    8176.5291    6195.1071    7252.0808    69.865212   -665.04015   -47.045274   -4323.5415 
40209000    60.295268   -5258.7785   -5138.1805   -5258.7785            0    7698.4485    17.745169    22.792996    19.030613    7697.2275    8677.1377    6986.0353    7432.1726    893.10743    56.868476    237.49218   -4273.9822 
40210000    63.511019   -5264.4403   -5137.4104   -5264.4403            0     6680.289     17.79901    22.705808    19.121306    7727.7013    7206.5786     6622.087    6212.2014    944.38573   -578.43895    616.96996   -4384.5379 
40211000    61.609282   -5262.9431   -5139.7169   -5262.9431            0    6405.8622    17.782414    22.682893    19.154078    7725.9235    5480.7155    6968.5587    6768.3125   -220.28554    428.66738   -410.91708   -4417.9385 
40212000    61.171218   -5266.1911   -5143.8411   -5266.1911            0    5744.4151    17.903165    22.675314    19.112302    7758.8279    6323.7762    5409.1392      5500.33   -158.62887    166.63433    629.41846   -4493.8344 
40213000    63.139238   -5267.4311   -5141.1448   -5267.4311            0    6464.9355    17.826406    22.710817    19.087377    7727.5677    6815.5802    5983.1084    6596.1179    560.04443   -747.03882    1368.9253   -4412.5553 
40214000    62.143766   -5265.6457   -5141.3505   -5265.6457            0    7035.7717    17.814991    22.689455    19.104067    7722.1015    6996.2615    6905.0266    7206.0269    -384.8421    209.96659   -365.08148   -4348.9895 
40215000    56.559183   -5262.9643   -5149.8389   -5262.9643            0    7687.0746    17.837942    22.603749    19.105372    7703.3696    8306.9149    7634.2945    7120.0142   -286.80411    194.94045    219.63856   -4286.2288 
40216000    58.082957   -5255.9626   -5139.7895   -5255.9626            0     7392.714    17.788291    22.516983    19.234316    7704.0869    8892.3482    7804.8902    5480.9037   -164.55914    373.33861    161.78095   -4309.1722 
40217000    58.901664   -5265.4816   -5147.6709   -5265.4816            0    6689.4381    17.838156     22.49958    19.217121    7712.8112    7575.0798    7247.3397    5245.8948      539.011    353.43006     231.4822   -4395.2199 
40218000    62.002099   -5262.0551   -5138.0433   -5262.0551            0    6538.5512    17.888769    22.582133    19.135174    7729.9704    5904.6261    6454.1634    7256.8641    169.84529   -335.96098   -850.80677   -4400.9283 
40219000    59.619158   -5261.9177   -5142.6721   -5261.9177            0    6730.0896    17.803317    22.578369    19.219854    7725.8021    7609.7974    6794.6937    5785.7775   -26.252346    30.558111   -613.37282   -4384.3734 
40220000    57.830873   -5266.0828   -5150.4139   -5266.0828            0    6041.1756    17.916325    22.555583    19.178668    7750.3522    5332.4113    6502.8006    6288.3151    510.17495    222.31596     340.1093   -4467.5742 
40221000    59.035598   -5261.6816   -5143.6031   -5261.6816            0    7366.2598    17.749913    22.642539    19.199723    7716.4283    7826.6606    6875.2288      7396.89    233.11502    953.50909    79.364945   -4314.6323 
40222000    59.847973   -5271.5353   -5151.8319   -5271.5353            0    6562.6623    17.852045    22.653705    19.113569     7729.813    6668.3525    6737.5292    6282.1053   -117.36795    188.57364    319.12615   -4412.0138 
40223000    59.435749   -5269.1246   -5150.2457   -5269.1246            0    6166.8147    17.902066    22.637332    19.084716    7734.1768    5265.4932      6942.22    6292.7309   -153.58837   -21.703803    1054.9151   -4454.6597 
40224000    58.565496   -5256.2893   -5139.1511   -5256.2893            0    7573.0695    17.760634    22.808211     19.02631    7707.3353     7469.666    7141.1332    8108.4093   -140.53104    41.789222   -632.04977    -4287.911 
40225000    60.149222   -5262.0612   -5141.7553   -5262.0612            0    7374.5748    17.719858    22.779772    19.070984    7698.0854    7266.7604    7000.4777    7856.4864    -276.3657   -52.595446   -670.55976   -4313.8215 
40226000    59.074577   -5262.7697   -5144.6132   -5262.7697            0    6139.7885    17.752345    22.861545    19.072264    7740.4032    6618.7731    5507.0167    6293.5756   -448.71278    8.9903923    1111.9638    -4451.518 
40227000    65.356169   -5258.2419   -5127.5215   -5258.2419            0    6985.5727    17.739914    22.761794    19.135502    7726.7677    7809.8733     6350.224    6796.6209   -455.39545     561.8668   -1376.7787   -4340.3384 
40228000    64.731116   -5267.2384   -5137.7682   -5267.2384            0    5323.3213    17.684572    22.864342    19.177595    7754.3856    5784.8134      4657.11    5528.0407   -349.09059   -226.27747   -435.71805    -4535.755 
40229000     64.74996   -5264.7993   -5135.2914   -5264.7993            0    6746.7535    17.835844    22.695203    19.064108    7716.9236    7002.3645    6312.7009    6925.1952   -40.337342   -514.11405   -442.71845   -4375.9887 
40230000    64.230466   -5259.5802   -5131.1113   -5259.5802            0    6128.1698    17.854516    22.739174    19.057204    7737.1665    5583.8161    6495.8421    6304.8511    701.40648    154.72536    608.05526    -4439.617 
40231000    61.328897   -5254.3701   -5131.7047   -5254.3701            0    7543.7623    17.694738    22.764244    19.092267    7690.5051    7859.9122    7094.2334    7677.1412   -647.08085    39.490601   -91.883981   -4285.6105 
40232000    61.029818   -5262.1313   -5140.0641   -5262.1313            0    6757.8801    17.820504    22.610001    19.196894    7734.8436    7654.7045    6484.6149    6134.3209    88.299497   -189.97636    489.52868   -4377.7431 
40233000    61.623866   -5264.6744    -5141.419   -5264.6744            0    7336.2495     17.81778    22.602363     19.10751    7695.0514     7745.284    7694.8836    6568.5809   -375.47625   -243.27821   -230.69611   -4318.1126 
40234000    62.573823   -5260.7722   -5135.6168   -5260.7722            0    7114.4373    17.846556    22.577142    19.159826     7719.958    7929.8127    7056.3103    6357.1889    250.59384    33.235239   -170.61233   -4334.6189 
40235000    59.075421   -5266.3304   -5148.1723   -5266.3304            0    6680.4129    17.826606    22.622715    19.160704     7727.248    6215.5403    6856.3968    6969.3017     95.84522   -206.23826    321.55416   -4395.3299 
40236000    60.971435   -5265.2792   -5143.3288   -5265.2792            0    7024.5785    17.867127    22.606634    19.096439    7713.3497    6896.5178    7151.0448    7026.1731    16.627781   -115.54157    617.23358   -4353.1249 
40237000    58.946786   -5262.6793   -5144.7785   -5262.6793            0    6240.6751    17.917043    22.563294    19.128873    7733.1819    6686.6431    5905.7434    6129.6388   -299.06162    -463.3993   -401.92106   -4440.9519 
40238000    60.345102   -5257.3657   -5136.6681   -5257.3657            0      6607.45    17.824163    22.603076    19.188063    7730.5042    7759.9752    6635.8598    5426.5151    134.05583   -201.93971   -791.05003   -4391.7344 
40239000    61.390201   -5264.3187   -5141.5307   -5264.3187            0    6263.2868    17.887244    22.569486    19.177902    7742.2324    6982.9382    6150.6124    5656.3097   -896.16365    154.34063     428.7707   -4434.3272 
40240000    60.226758   -5256.7607   -5136.2998   -5256.7607            0    6966.7701    17.810901    22.657395     19.13382    7721.4265    7436.8119    6941.5686    6521.9297   -432.17457   -564.26342    54.324948   -4351.7782 
40241000    61.113155   -5267.8624   -5145.6285   -5267.8624            0    6947.8282     17.83093    22.583228    19.128124    7702.5125    7160.6612    6954.5782    6728.2451      385.487   -247.46801    1596.0211   -4365.1565 
40242000    59.744092   -5258.2614   -5138.7658   -5258.2614            0    8002.0373    17.892787    22.527553    19.092433    7695.7912     8458.707     7675.838     7871.567   -30.083891    597.43152    378.82006   -4240.6554 
40243000    63.459678   -5261.2108   -5134.2836   -5261.2108            0    6564.5992    17.832397    22.756453    19.025224    7720.4758    6233.4031    6547.5417    6912.8528    179.11823    -169.1087   -331.30212   -4395.1411 
40244000    61.608347   -5260.5792   -5137.3549   -5260.5792            0    5360.4058    17.805849    22.749899    19.148088    7756.5314    5897.7458     4781.956    5401.5155    499.61111    -187.0134   -680.51937   -4530.9802 
40245000    63.891509   -5258.9682   -5131.1773   -5258.9682            0     6712.762    17.831933    22.680617    19.090435    7720.9206    7002.4357    6347.4586    6788.3917   -277.59523   -298.05195   -29.401229   -4375.3088 
40246000    60.758739   -5262.8238   -5141.2989   -5262.8238            0    7249.1498    17.810369    22.737157    19.024288    7704.0213    7078.9679    7024.7268    7643.7545     897.7188    27.527679    767.87592   -4326.8188 
40247000    61.370832   -5262.7391   -5139.9899   -5262.7391            0    7295.1945    17.775194     22.74988    19.049364    7703.2487    7424.4758    7195.4333    7265.6745    364.79373   -408.14336    376.85561   -4320.4187 
40248000    62.599199   -5258.1804   -5132.9742   -5258.1804            0    7601.9128     17.78077    22.757168     19.02712    7699.1333    7613.4815    7110.0419    8082.2149    658.36326    229.81557   -302.27939   -4279.4014 
40249000    63.726366   -5270.4217   -5142.9611   -5270.4217            0    7085.0761    17.746245    22.750828    19.080393    7703.5514    6918.9356     6464.499    7871.7938    263.03049   -256.85882    423.44137   -4346.9642 
40250000    61.837425   -5258.2282   -5134.5457   -5258.2282            0    6307.4557    17.804594    22.777362    19.101111    7746.2967    6431.8658    5671.7699    6818.7313    80.789487   -563.92604    1301.1116   -4421.9811 
Loop time of 442.91 on 64 procs for 250000 steps with 1008 atoms

Performance: 97.537 ns/day, 0.246 hours/ns, 564.449 timesteps/s
193.6% CPU use with 32 MPI tasks x 2 OpenMP threads

MPI task timing breakdown:
Section |  min time  |  avg time  |  max time  |%varavg| %total
---------------------------------------------------------------
Pair    | 33.728     | 40.294     | 48.005     |  43.2 |  9.10
Bond    | 0.91966    | 1.2341     | 1.7817     |  13.8 |  0.28
Kspace  | 212.62     | 219.86     | 226.49     |  21.5 | 49.64
Neigh   | 0.49232    | 0.54639    | 0.57063    |   2.5 |  0.12
Comm    | 68.581     | 72.9       | 78.029     |  26.3 | 16.46
Output  | 0.56059    | 0.56096    | 0.56278    |   0.0 |  0.13
Modify  | 86.733     | 89.792     | 93.058     |  13.0 | 20.27
Other   |            | 17.73      |            |       |  4.00

Nlocal:        31.5000 ave          35 max          27 min
Histogram: 1 2 0 5 0 10 4 4 5 1
Nghost:        2959.94 ave        2971 max        2949 min
Histogram: 3 1 2 5 3 5 6 5 1 1
Neighs:        10784.2 ave       12161 max        9218 min
Histogram: 1 2 0 5 10 3 3 3 4 1

Total # of neighbors = 345095
Ave neighs/atom = 342.35615
Ave special neighs/atom = 2.0000000
Neighbor list builds = 1208
Dangerous builds = 0

unfix		3
unfix		2
unfix		1

write_data	data.final.${pid}
write_data	data.final.0
System init for write_data ...
PPPM initialization ...
  extracting TIP4P info from pair style
  using 12-bit tables for long-range coulomb (../kspace.cpp:340)
  G vector (1/distance) = 0.37958437
  grid = 24 27 32
  stencil order = 5
  estimated absolute RMS force accuracy = 0.0024354321
  estimated relative force accuracy = 7.3342315e-06
  using double precision FFTW3
  3d grid and FFT values/proc = 5355 672
Last active /omp style is kspace_style pppm/tip4p/omp
WARNING: Not all mixed pair coeffs generated from mixing. Use write_data with 'pair ij' option to store all pair coeffs. (../write_data.cpp:312)

write_restart   restart.lmp.${pid}
write_restart   restart.lmp.0
System init for write_restart ...
PPPM initialization ...
  extracting TIP4P info from pair style
  using 12-bit tables for long-range coulomb (../kspace.cpp:340)
  G vector (1/distance) = 0.37958437
  grid = 24 27 32
  stencil order = 5
  estimated absolute RMS force accuracy = 0.0024354321
  estimated relative force accuracy = 7.3342315e-06
  using double precision FFTW3
  3d grid and FFT values/proc = 5355 672
Last active /omp style is kspace_style pppm/tip4p/omp
Total wall time: 0:07:23
