LAMMPS (30 Jul 2021)
  using 1 OpenMP thread(s) per MPI task
package omp 0
using multi-threaded neighbor list subroutines
echo both

include		in.partitions
variable        pid world 0
include		in.temp
variable        temperature equal 228.14
variable	tempDamp equal 100.0
include		in.pressure
variable        pressure equal 2750.0
variable        pressureDamp equal 1000.0 # This is 1 ps
include		in.seed
variable        seed world 745823

units		real
atom_style	full
read_restart	restart.lmp.${pid}
read_restart	restart.lmp.0
Reading restart file ...
  restart file = 30 Jul 2021, LAMMPS = 30 Jul 2021
  restoring atom style full from restart
  orthogonal box = (0.35151749 1.5055724 0.42885052) to (17.856055 22.123605 21.784345)
  4 by 4 by 4 MPI processor grid
  restoring pair style lj/cut/tip4p/long/omp from restart
  restoring bond style harmonic/omp from restart
  restoring angle style harmonic/omp from restart
  864 atoms
  576 bonds
  288 angles
Finding 1-2 1-3 1-4 neighbors ...
  special bond factors lj:    0        0        0       
  special bond factors coul:  0        0        0       
     2 = max # of 1-2 neighbors
     1 = max # of 1-3 neighbors
     1 = max # of 1-4 neighbors
     2 = max # of special neighbors
  special bonds CPU = 1.544 seconds
  read_restart CPU = 1.742 seconds
include 	in.setup
variable	out_freq equal 1000
variable	out_freq2 equal 10000
variable	out_freq3 equal 1000

timestep	2.0

neigh_modify    delay 7 every 1

include		in.tip4p
# This is TIP4P/Ice

# create groups ###
group ox type 2
288 atoms in group ox
group hy type 1
576 atoms in group hy

# set charges - beside manually ###
set group ox charge -1.1794
Setting atom values ...
  288 settings made for charge
set group hy charge 0.5897
Setting atom values ...
  576 settings made for charge

# ### TIP3P Potential Parameters ###
pair_style lj/cut/tip4p/long/omp 2 1 1 1 0.1577 8.5
pair_coeff 1 1*2 0.000 0.000
pair_coeff 2 2 0.21084 3.1668
bond_style  harmonic
bond_coeff  1 450 0.9572
angle_style harmonic
angle_coeff 1 55 104.52
kspace_style pppm/tip4p/omp 1.0e-5
pair_modify tail yes

thermo          ${out_freq}
thermo          1000
thermo_style    custom step temp pe etotal epair emol press lx ly lz vol pxx pyy pzz pxy pxz pyz enthalpy

restart 	${out_freq3} restart.lmp.${pid} restart2.lmp.${pid}
restart 	1000 restart.lmp.${pid} restart2.lmp.${pid}
restart 	1000 restart.lmp.0 restart2.lmp.${pid}
restart 	1000 restart.lmp.0 restart2.lmp.0


include         in.dump
dump            myDump all atom ${out_freq2} dump.water.${pid}
dump            myDump all atom 10000 dump.water.${pid}
dump            myDump all atom 10000 dump.water.0
dump            myDump2 all dcd ${out_freq2} dump.dcd
dump            myDump2 all dcd 10000 dump.dcd
dump_modify     myDump append yes
dump_modify     myDump2 append yes


variable natoms 	equal  "count(all)"                        # NUMBER ATOMS
variable H      	equal  "enthalpy/v_natoms"                 # ENTHALPY-per-atom
variable Vol      	equal  "vol/v_natoms"                 # volume-per-atom
fix AVG all 		ave/time ${out_freq} 1 ${out_freq} v_Vol v_H file vol_enthalpy.dat
fix AVG all 		ave/time 1000 1 ${out_freq} v_Vol v_H file vol_enthalpy.dat
fix AVG all 		ave/time 1000 1 1000 v_Vol v_H file vol_enthalpy.dat


timer           timeout 23:50:00 every 1000
New timer settings: style=normal  mode=nosync  timeout=23:50:00

fix 		1 all shake 1e-6 200 0 b 1 a 1
       0 = # of size 2 clusters
       0 = # of size 3 clusters
       0 = # of size 4 clusters
     288 = # of frozen angles
  find clusters CPU = 0.668 seconds
fix             2 all nph iso ${pressure} ${pressure} ${pressureDamp}
fix             2 all nph iso 2750 ${pressure} ${pressureDamp}
fix             2 all nph iso 2750 2750 ${pressureDamp}
fix             2 all nph iso 2750 2750 1000
fix             3 all temp/csvr ${temperature} ${temperature} ${tempDamp} ${seed}
fix             3 all temp/csvr 228.14 ${temperature} ${tempDamp} ${seed}
fix             3 all temp/csvr 228.14 228.14 ${tempDamp} ${seed}
fix             3 all temp/csvr 228.14 228.14 100 ${seed}
fix             3 all temp/csvr 228.14 228.14 100 745823

run             250000
PPPM initialization ...
  extracting TIP4P info from pair style
  using 12-bit tables for long-range coulomb (../kspace.cpp:340)
  G vector (1/distance) = 0.37329025
  grid = 24 24 25
  stencil order = 5
  estimated absolute RMS force accuracy = 0.0031813349
  estimated relative force accuracy = 9.5804957e-06
  using double precision FFTW3
  3d grid and FFT values/proc = 2730 288
Last active /omp style is kspace_style pppm/tip4p/omp
Neighbor list info ...
  update every 1 steps, delay 7 steps, check yes
  max neighbors/atom: 2000, page size: 100000
  master list distance cutoff = 10.8154
  ghost atom cutoff = 10.8154
  binsize = 5.4077, bins = 4 4 4
  1 neighbor lists, perpetual/occasional/extra = 1 0 0
  (1) pair lj/cut/tip4p/long/omp, perpetual
      attributes: half, newton on, omp
      pair build: half/bin/newton/omp
      stencil: half/bin/3d
      bin: standard
Per MPI rank memory allocation (min/avg/max) = 9.236 | 9.241 | 9.248 Mbytes
Step Temp PotEng TotEng E_pair E_mol Press Lx Ly Lz Volume Pxx Pyy Pzz Pxy Pxz Pyz Enthalpy 
 5000000    240.78791   -3978.9658   -3566.2636   -3978.9658            0    3305.9804    17.504537    20.618033    21.355495     7707.393    3544.2708    4227.3175    2146.3529    1335.8845   -381.68326   -549.65974   -3194.6568 
 5001000    224.19384   -3991.8119   -3607.5513   -3991.8119            0    3293.7673    17.468297    20.575346    21.311281    7659.6206    2867.5414    3775.4312    3238.3294   -526.14095    365.26928   -433.96474   -3239.6121 
 5002000    221.29603   -4000.3871   -3621.0933   -4000.3871            0    1181.7057    17.557375    20.680269    21.419956    7777.3983    368.64375    1972.9798    1203.4936    89.343302    252.57294   -473.06835   -3487.0578 
 5003000    220.11757   -4009.9411   -3632.6671   -4009.9411            0     1951.824    17.553061    20.675188    21.414694    7771.6673    2096.4811    2864.4672    894.52367   -530.23807    1350.4069    238.74085   -3411.4439 
 5004000    210.16911   -4010.6289   -3650.4063   -4010.6289            0    2510.7081    17.494014    20.605638    21.342656     7693.501    1768.5418    3203.5655    2560.0172    1323.6956    16.766346     517.2072   -3368.7002 
 5005000    229.14811   -3988.4332   -3595.6812   -3988.4332            0    3088.5799    17.490859    20.601921    21.338807    7689.3386    3021.3473    4191.4845    2052.9078   -2482.1671    16.361951   -1330.3211   -3249.3244 
 5006000    228.73418   -3966.3755   -3574.3329   -3966.3755            0    2969.3197    17.472917    20.580789    21.316918    7665.7005    4746.9903    1838.7766    2322.1923    50.467788    111.10735    1487.4651   -3242.3737 
 5007000    223.17604    -3973.528   -3591.0119    -3973.528            0    2883.1392    17.484287     20.59418    21.330789    7680.6742    3360.2921    2490.4553    2798.6703    1153.8734   -144.85857    273.49865   -3268.0578 
 5008000    229.42701   -3988.5005   -3595.2704   -3988.5005            0    2651.9239    17.537733    20.657133    21.395994    7751.3253    696.91436      3582.44    3676.4173   -1319.1049   -870.40127   -83.210655   -3295.4833 
 5009000    236.93904   -3985.0354     -3578.93   -3985.0354            0    4392.6645    17.555838    20.678459    21.418082    7775.3566    3016.8655    4969.2894    5191.8385   -1149.9644   -380.67429   -173.73326   -3080.8211 
 5010000    238.41478   -4002.3325   -3593.6977   -4002.3325            0    3946.3472    17.509163    20.623482    21.361138     7713.505    4660.1068    1822.1117    5356.8232   -323.97431     246.0913    415.45243   -3149.7591 
 5011000    230.13321   -4012.9777   -3618.5372   -4012.9777            0    3019.8422    17.479109    20.588082    21.324472     7673.853    3269.6744    3054.1369    2735.7154    87.603305    -212.7314    656.06956   -3280.5707 
 5012000    228.65908    -3955.509   -3563.5952    -3955.509            0    3161.9011    17.461319    20.567128    21.302769     7650.446    2735.9853    2249.4447    4500.2732    492.39338    605.04887    891.45548   -3210.8095 
 5013000    235.24688    -3981.004   -3577.7989    -3981.004            0    2450.6402    17.516919    20.632617      21.3706    7723.7595    1721.6306      2749.26    2881.0301   -560.80397    384.86595   -549.25016   -3301.7511 
 5014000    227.04348   -4010.3872   -3621.2424   -4010.3872            0    2982.1425     17.52525     20.64243    21.380764    7734.7853    5206.4981    2898.6368    841.29262     1495.283    917.91599   -583.00396   -3284.8451 
 5015000    231.25865   -3999.8748   -3603.5054   -3999.8748            0    2078.3881    17.542422    20.662656    21.401714    7757.5444    2512.1595    649.42645    3073.5784    324.38273    801.50179   -263.73134   -3368.3653 
 5016000    232.22514   -3993.1775   -3595.1515   -3993.1775            0    3072.1691     17.49589    20.607848    21.344945    7695.9765    4005.5144    2431.9491    2779.0438    168.74295    1618.8862    480.61054   -3250.3376 
 5017000    234.37674   -4003.8888    -3602.175   -4003.8888            0    3146.4625    17.503191    20.616447    21.353853    7705.6152    3443.7865    3366.4415    2629.1594    151.94553    1118.7066     103.2754   -3248.5803 
 5018000    221.84282   -4019.3517   -3639.1207   -4019.3517            0    3593.9397    17.411091    20.507966    21.241491    7584.6156    4729.9042    2937.9902    3113.9249   -871.56584     1154.359   -578.14782   -3241.5812 
 5019000    228.16322   -4004.0104   -3612.9464   -4004.0104            0    2447.4824    17.424917     20.52425    21.258357    7602.6975    2715.7284    1598.6265    3028.0924    479.42131    196.39035   -1073.6005   -3341.5756 
 5020000    235.16647   -4020.3205   -3617.2532   -4020.3205            0    4503.9231    17.398314    20.492915    21.225902    7567.9293    6282.0481    2961.6753     4268.046    811.47404    814.17566   -959.03512    -3120.153 
 5021000    229.73792   -4021.2318   -3627.4689   -4021.2318            0    6816.9494    17.398067    20.492624    21.225601    7567.6069    8979.0759    5633.9713    5837.8011   -522.28625    88.242263    670.91976   -2875.1109 
 5022000    245.19934   -4010.8682   -3590.6049   -4010.8682            0    3232.9666    17.476976    20.585569    21.321869    7671.0432     3091.633     1867.296    4739.9708    -1193.015   -522.42765   -384.75259    -3228.919 
 5023000    218.20661   -4013.6183   -3639.6196   -4013.6183            0     2787.256    17.498866    20.611352    21.348575    7699.9033     2168.207     3243.554    2950.0069    954.05531    570.97484   -231.23081   -3326.6241 
 5024000    232.27838   -3967.9114   -3569.7942   -3967.9114            0    3261.8995    17.585448    20.713335    21.454205    7814.7643     4969.238    3076.0207    1740.4397    316.07598   -497.92923   -1386.8206   -3198.0345 
 5025000    230.42592   -4002.0718   -3607.1296   -4002.0718            0    2736.2896    17.530073     20.64811    21.386648    7741.1722    1990.2203    3838.9033    2379.7453   -56.238725    902.75997    -381.1578   -3298.2106 
 5026000     226.3384   -3975.6682   -3587.7319   -3975.6682            0    3336.4907     17.53411    20.652865    21.391573    7746.5215     1295.431    5087.4809    3626.5603    1.3560563   -1307.9735   -276.33306   -3210.7916 
 5027000    232.07383   -3996.4369   -3598.6703   -3996.4369            0    1961.9433    17.539582    20.659311     21.39825    7753.7775    2957.3755    1759.6702    1168.7843   -1407.5395   -418.02137     377.4412    -3376.812 
 5028000    220.22872   -3996.1471   -3618.6826   -3996.1471            0    3427.6704    17.433594    20.534471    21.268944    7614.0614    3951.8156    4353.9064    1977.2893   -4.1594896    528.69149    1077.3477   -3238.0629 
 5029000    217.42778   -3996.3597   -3623.6959   -3996.3597            0    1073.6193    17.529729    20.647706    21.386229    7740.7176     660.1409    574.15943    1986.5576    -45.30271   -239.80524   -125.47594   -3502.4946 
 5030000    223.31198   -3970.6417   -3587.8926   -3970.6417            0    3269.2253    17.454271    20.558826     21.29417    7641.1853    2110.3314    3915.0343    3782.3102   -436.31036     2229.222    767.63948   -3223.5739 
 5031000    233.95611   -3989.2228   -3588.2301   -3989.2228            0    639.39069    17.544363    20.664943    21.404082    7760.1198     1017.425    345.38868     555.3584   -456.45737   -11.544773    913.34599    -3515.868 
 5032000     223.0988   -3982.1747    -3599.791   -3982.1747            0    3732.7022    17.417069    20.515007    21.248784    7592.4306     5485.347    2844.9752    2867.7843    539.52545    140.56306    1486.0073    -3186.477 
 5033000    233.35959    -4028.587   -3628.6167    -4028.587            0    1512.8816    17.493181    20.604657     21.34164    7692.4018    1370.4143    2086.9405      1081.29   -281.95423   -929.09824   -1311.2944   -3458.8929 
 5034000    221.47995   -4039.4898   -3659.8808   -4039.4898            0    1441.1878    17.490364    20.601339    21.338203    7688.6863    1384.2351    2554.2752    385.05307    233.35949   -725.20898     223.7458   -3498.2781 
 5035000    218.32139   -4023.6817   -3649.4863   -4023.6817            0     3642.451    17.426732    20.526389    21.260573    7605.0745    3844.4682    4428.4349    2654.4497   -1396.7688    464.98434    1340.1636    -3245.494 
 5036000    226.50351   -4030.4548   -3642.2356   -4030.4548            0    3080.2818    17.416027     20.51378    21.247513     7591.068    3343.6277    2912.9071    2984.3106    679.75363   -221.73231   -517.37548   -3301.2239 
 5037000    236.52132   -4015.2555    -3609.866   -4015.2555            0    1863.9115    17.526482    20.643881    21.382267    7736.4168    1503.5306    2353.1594    1735.0444     14.13602   -132.03777    677.73793   -3399.5652 
 5038000    221.76577   -4004.0522   -3623.9533   -4004.0522            0    1815.7238    17.471562    20.579192    21.315264    7663.9165    1813.5645    2036.1919     1597.415    285.77062   -450.77258    828.63909   -3421.0092 
 5039000    231.16633   -4021.0939   -3624.8827   -4021.0939            0    4325.9814    17.455572    20.560358    21.295757    7642.8938     3392.135    4782.5315    4803.2778   -343.48036   -562.44069    1114.8369   -3142.6926 
 5040000    235.01005   -4043.3012    -3640.502   -4043.3012            0    3293.8522    17.485667    20.595805    21.332472    7682.4928    4550.7202    2446.9387    2883.8978    893.53834   -286.06164   -481.51584   -3271.4546 
 5041000    219.20888   -4023.6584   -3647.9419   -4023.6584            0    2043.0657    17.537189    20.656492     21.39533    7750.6042     1976.935     2680.733    1471.5291   -270.34582   -945.14343   -1649.0015   -3417.0047 
 5042000    225.42346   -4017.6535   -3631.2854   -4017.6535            0    2423.9993    17.482844     20.59248    21.329028    7678.7726    2637.9805    2281.7765     2352.241    190.30297   -1101.4671    175.87277    -3359.829 
 5043000    228.14375   -4010.2242   -3619.1936   -4010.2242            0    1928.0951    17.476983    20.585578    21.321879    7671.0533    2851.7213    3.5910658     2928.973   -136.98659   -730.15615    462.96168   -3403.4891 
 5044000    236.84198   -4039.6962   -3633.7572   -4039.6962            0    2712.4434      17.4925    20.603855     21.34081    7691.5039    4840.7784    558.26234    2738.2895   -558.62107    -745.7242    954.72416   -3329.4951 
 5045000      221.369   -4060.9644   -3681.5455   -4060.9644            0    3136.8275    17.480174    20.589336    21.325771    7675.2551    4451.3175    1695.7466    3263.4183   -556.29987   -154.81217     100.7094   -3330.4224 
 5046000    235.03136   -4034.8051   -3631.9694   -4034.8051            0    2978.6469    17.523329    20.640167     21.37842    7732.2419    2615.7236    2940.4689    3379.7482    755.25228   -675.76977    701.34833   -3296.0768 
 5047000    212.59976   -4005.3932   -3641.0044   -4005.3932            0     2574.508    17.458209    20.563464    21.298974    7646.3581    3733.5509    654.38709    3335.5859    621.08833   -1027.9213    305.45842     -3353.91 
 5048000    225.16125   -4008.6317   -3622.7131   -4008.6317            0    2082.7754    17.519223     20.63533    21.373411    7726.8076    2687.6897    811.35499    2749.2815   -988.53805    323.84483    9.5014387   -3388.0102 
 5049000    219.93186   -3985.0314   -3608.0757   -3985.0314            0    1995.1514    17.462114    20.568064    21.303738    7651.4905    2019.3956     1522.688    2443.3706   -848.95815    1125.6563   -548.65133   -3385.4385 
 5050000    224.38978   -4011.8975   -3627.3011   -4011.8975            0     2637.333    17.471401    20.579003    21.315068    7663.7051       3595.8    2207.5988    2108.6002    284.85614    1983.9468     1183.743   -3332.5336 
 5051000    241.47317   -4019.0443   -3605.1676   -4019.0443            0    1579.0481    17.529128    20.646997    21.385495    7739.9204    1537.9979    293.82671    2905.3198    -1068.717   -443.71643   -530.47498   -3426.9265 
 5052000    228.22412    -4012.501   -3621.3326    -4012.501            0    3473.2088    17.423055    20.522057    21.256086    7600.2605    4287.2385    3067.6405    3064.7473   -490.53366   -386.61584   -397.38074   -3236.3552 
 5053000    223.42094   -4015.8195   -3632.8837   -4015.8195            0    2513.1163    17.468793     20.57593    21.311886    7660.2732    2104.3323    2190.7394    3244.2771   -384.29134    1011.5321   -682.52725   -3352.1253 
 5054000    234.44025   -3989.9395   -3588.1169   -3989.9395            0    2164.5765    17.497539     20.60979    21.346957    7698.1523    2499.4785    2580.1878    1414.0633   -915.52788   -574.23837   -367.11813   -3345.1007 
 5055000    220.40479   -3974.3587   -3596.5924   -3974.3587            0    2250.9281    17.422858    20.521825    21.255846    7600.0033     2500.889    1539.9962     2711.899   -1105.8162   -1549.7573   -254.70552   -3347.1035 
 5056000     238.7547   -3995.7783   -3586.5609   -3995.7783            0     1244.195    17.509818    20.624252    21.361937    7714.3698    2631.5538    1345.2492   -244.21788    592.35914    139.72205   -67.899614   -3446.5813 
 5057000    238.69749   -4009.5182   -3600.3989   -4009.5182            0     3734.364    17.399352    20.494139    21.227169    7569.2844    3946.6217    3457.3145    3799.1556   -296.61719   -869.15076   -234.97393   -3188.1615 
 5058000    223.63168   -3996.7096   -3613.4125   -3996.7096            0    3528.4782    17.419769    20.518187    21.252077    7595.9613    4254.6797    3433.8721    2896.8829   -1029.7127   -314.36944    1071.8742   -3222.5302 
 5059000    228.77881   -3987.4423   -3595.3232   -3987.4423            0    3188.5922    17.405481    20.501358    21.234647    7577.2865    4956.3289     1567.481    3041.9666   -204.16287   -96.899279   -359.63507   -3242.9616 
 5060000    217.91982   -4026.7539   -3653.2468   -4026.7539            0    2255.0259    17.454056    20.558573    21.293908    7640.9033    2411.8144    1880.7193     2472.544   -295.64719   -821.01653    1384.0047   -3401.9586 
 5061000       225.55   -4007.8171   -3621.2321   -4007.8171            0     2452.534    17.480066    20.589208    21.325639    7675.1127    2354.3181    2633.8611    2369.4229    475.44256   -46.202893   -560.30192   -3346.7111 
 5062000    222.79975   -3980.7333   -3598.8622   -3980.7333            0    2047.6527    17.578735    20.705428    21.446016    7805.8184    3400.5878    -433.2301    3175.6004     901.5482   -1070.1504   -631.61761   -3365.7577 
 5063000     223.9869   -3965.3088   -3581.4029   -3965.3088            0    3020.2869    17.532031    20.650417    21.389037    7743.7675    3493.4667    1777.3364    3790.0576     772.2448   -295.87097   -309.93684   -3240.3071 
 5064000     220.5365   -3987.2638   -3609.2717   -3987.2638            0    1513.8422    17.551144    20.672929    21.412354    7769.1203     2411.434   -399.42526     2529.518    560.93328   -1721.6187    226.18135   -3437.7464 
 5065000    217.89762    -4018.532   -3645.0629    -4018.532            0    2176.7025    17.491643    20.602845    21.339764    7690.3734    1994.9904    2724.7646    1810.3524    476.74104    787.38466   -1232.7013   -3400.9322 
 5066000    248.24057   -4023.0603   -3597.5844   -4023.0603            0     2582.102    17.561265    20.684851    21.424703    7782.5696    1372.5346    3548.4559    2825.3154   -1816.9422    -645.9001   -368.92734   -3304.5138 
 5067000    223.69297    -4037.579   -3654.1769    -4037.579            0    3492.8482    17.470624    20.578087     21.31412    7662.6825    4543.7254    2956.7937    2978.0256    321.58896   -1972.3419   -90.206885   -3263.8428 
 5068000     225.9086   -4020.0522   -3632.8526   -4020.0522            0    2571.2204    17.544187    20.664735    21.403867    7759.8858    1571.1046    3516.5014    2626.0551   -504.75474    -1930.762    109.30261   -3341.8677 
 5069000     201.3248   -4014.5836   -3669.5197   -4014.5836            0    1938.3669    17.585057    20.712875    21.453729    7814.2437    1269.5975    2732.3322    1813.1709   -2028.9823    254.89275   -501.36524   -3448.6182 
 5070000    223.28094   -4014.9648   -3632.2689   -4014.9648            0    2267.9417     17.53319    20.651782    21.390451    7745.3035    3095.2577    1823.3481    1885.2194   -115.28784   -49.809714   -32.366509   -3376.0883 
 5071000      218.591   -4012.9671   -3638.3096   -4012.9671            0    2386.8025    17.497493    20.609735      21.3469    7698.0913    2489.6248    2543.7744    2127.0082    913.21026   -674.91011   -929.63816   -3370.3463 
 5072000    249.00965   -3998.7169   -3571.9228   -3998.7169            0    3114.8962    17.510341    20.624869    21.362575    7715.0615    2628.6925    3305.4929    3410.5031    95.128215   -524.75604   -179.44225   -3221.4464 
 5073000    215.20326   -4013.0343   -3644.1833   -4013.0343            0    2329.7508     17.50344    20.616741    21.354156     7705.944    4009.4531    566.83799    2412.9615   -1034.4784   -724.03183    1088.6592   -3382.3583 
 5074000     237.7199   -4035.1379   -3627.6941   -4035.1379            0    3932.4948    17.422738    20.521684      21.2557    7599.8462    2448.4345    4523.3092    4825.7406   -734.07235   -58.238561   -671.23187   -3191.8323 
 5075000     241.4746   -4062.1154   -3648.2362   -4062.1154            0     2103.771    17.468117    20.575135    21.311062    7659.3847    2439.4294    1913.5741    1958.3097    806.33319   -331.37131   -347.35265    -3413.236 
 5076000    231.70833    -4040.443   -3643.3028    -4040.443            0    1584.6924    17.514173    20.629382     21.36725    7720.1273   -36.886907    2310.0331    2480.9309   -159.97507   -246.16407    419.92707   -3464.8821 
 5077000    224.49213   -4038.0135   -3653.2417   -4038.0135            0    2801.1884    17.449042    20.552667    21.287791      7634.32    1126.8629    2608.8073    4667.8949   -2204.0384    1279.5606    130.56232    -3341.361 
 5078000    247.93192   -4026.5297   -3601.5828   -4026.5297            0    3212.6539    17.470925    20.578442    21.314488    7663.0786    3935.5165    1667.3176    4035.1275   -357.19281   -981.46284    978.59537   -3242.5426 
 5079000    222.25804   -4020.3287    -3639.386   -4020.3287            0    4045.1647    17.426507    20.526123    21.260298    7604.7793    2021.6331    5838.1674    4275.6937   -653.34666     696.3195    702.35189   -3190.7453 
 5080000    243.18364   -4016.7501   -3599.9416   -4016.7501            0    4249.8444    17.499608    20.612227    21.349481    7700.8834    3899.4616    4449.0133    4401.0583   -1253.2117    148.88451    172.67094   -3122.6438 
 5081000     232.9471   -4039.9083    -3640.645   -4039.9083            0    2237.3828    17.538629    20.658189    21.397087    7752.5136    2221.9354    1896.8976    2593.3154    1073.0792    45.300595   -492.72972    -3387.681 
 5082000    228.23664   -4044.2615   -3653.0717   -4044.2615            0    3260.0785    17.419186      20.5175    21.251366    7595.1987    3555.5758    2495.6095    3729.0501   -785.15581    1038.8402     60.19912   -3291.9587 
 5083000     224.9261   -4034.8534   -3649.3377   -4034.8534            0    1916.2108    17.493538    20.605077    21.342076    7692.8732    710.56919    2239.7123    2798.3511    -243.9386   -440.41397   -395.47716   -3434.3529 
 5084000    241.40028   -4014.2023   -3600.4505   -4014.2023            0    3858.8308    17.499552    20.612161    21.349413    7700.8095    3908.6034     4310.476     3357.413    1102.5209   -1068.2641   -814.03726   -3167.0713 
 5085000    226.27138   -4027.7731   -3639.9517   -4027.7731            0    4172.5682    17.477639     20.58635    21.322679     7671.917    3262.2787    4935.4195    4320.0065   -49.051084   -1020.9625   -795.18778   -3173.0954 
 5086000    220.27778   -4013.2164   -3635.6678   -4013.2164            0     1034.078    17.523614    20.640503    21.378768    7732.6195    840.36745    1611.7643     650.1021    275.50013   -1694.2893    470.63048   -3519.0525 
 5087000    229.86592   -4050.9816   -3656.9993   -4050.9816            0     1948.074    17.530163    20.648216    21.386757    7741.2915    2692.6168    2383.2091     768.3963   -681.55248   -536.29111   -326.99819   -3437.0641 
 5088000    241.19758   -4028.5942   -3615.1898   -4028.5942            0    3179.3138    17.480642    20.589888    21.326343    7675.8724    3605.6959    2817.1001    3115.1455    -1331.238    485.00776    129.48975   -3259.2824 
 5089000     228.6059   -4060.5629   -3668.7402   -4060.5629            0    2228.7169    17.522793    20.639535    21.377766    7731.5318    1406.3775    3491.0964    1788.6767    380.00924    879.42891   -851.24676    -3417.438 
 5090000    220.77547   -3987.4085   -3609.0069   -3987.4085            0    4106.2164    17.443833    20.546531    21.281436    7627.4848    2322.6336    4759.0041    5237.0115   -639.54013   -203.54146   -1100.8506   -3152.2353 
 5091000     227.7405   -4046.8541   -3656.5146   -4046.8541            0     4155.591    17.440213    20.542267    21.277019    7622.7369    2940.7764    6534.3097    2991.6868    934.58646    981.31955    94.197438   -3194.5384 
 5092000    233.64899   -4015.9696   -3615.5032   -4015.9696            0    2759.3985    17.489454    20.600267    21.337093    7687.4862    2901.9587    2942.7085    2433.5281    194.38331   -192.69293    92.399969   -3306.1358 
 5093000     230.6741   -4051.8813   -3656.5138   -4051.8813            0    2881.7875    17.448805    20.552388    21.287501    7634.0089    3379.4296    2439.9851    2825.9478    1484.5707   -853.07744   -672.27072   -3335.6723 
 5094000    222.52126   -4032.7469   -3651.3531   -4032.7469            0    2548.8802    17.470373    20.577792    21.313814    7662.3526    3371.8615    2135.7427    2139.0365    568.90767   -780.96378   -257.04802    -3366.522 
 5095000    227.48145   -4045.7309   -3655.8355   -4045.7309            0    4189.5035    17.391503    20.484893    21.217593    7559.0449    3672.3835    4142.1198    4754.0072    1001.0505   -535.22975   -896.57055   -3193.9808 
 5096000      233.078   -4016.1114   -3616.6236   -4016.1114            0    3911.8533    17.461383    20.567203    21.302847    7650.5298    2836.2973    4563.5695    4335.6932   -681.67591    308.91626     249.3136   -3180.1581 
 5097000    232.24868   -4036.7663   -3638.7001   -4036.7663            0    2325.5478    17.437033    20.538522     21.27314    7618.5687      1514.58      3991.66    1470.4032    281.21122    549.19243   -573.36658   -3380.3107 
 5098000    227.13155   -4065.0426   -3675.7469   -4065.0426            0    1203.9022    17.530905    20.649091    21.387663    7742.2754    1193.6558    573.49033    1844.5603    42.811747   -1464.9941    1589.9493   -3539.8105 
 5099000    230.32191   -4037.7314   -3642.9676   -4037.7314            0    1864.5077    17.478675    20.587571    21.323943    7673.2818    2561.6657    543.49757    2488.3598   -475.36868   -291.51053    183.40724   -3434.3162 
 5100000    224.96998   -4055.2406   -3669.6498   -4055.2406            0    2847.6126    17.513278    20.628328    21.366158    7718.9441    2374.8326    2857.1059    3310.8994    793.33498    1090.6632    402.26137   -3349.0858 
 5101000    212.95702   -4043.1025   -3678.1014   -4043.1025            0    2284.5107    17.511431    20.626152    21.363905    7716.5023    2638.7271    3112.5476    1102.2572    434.87134    1191.2881    979.25307   -3421.0088 
 5102000    229.48621   -4035.1726   -3641.8411   -4035.1726            0    2532.1544    17.490022    20.600936    21.337786     7688.235    1627.6845    2215.1332    3753.6454    16.221972    51.765067   -168.90908   -3357.9232 
 5103000    226.29102   -4024.5631    -3636.708   -4024.5631            0    2549.3432    17.456278     20.56119    21.296618    7643.8215    3822.1894    2775.8955    1049.9447    749.41918    24.119921   -224.39288   -3352.5141 
 5104000    227.95609   -4031.9669    -3641.258   -4031.9669            0    3731.4209    17.448839    20.552428    21.287543    7634.0536    4684.8129    4438.1663    2071.2835    608.27783   -368.35571   -1032.9403   -3225.8208 
 5105000    231.59348   -4006.0633     -3609.12   -4006.0633            0     2156.955    17.501199    20.614101    21.351422    7702.9843    3457.1784    783.84605    2229.8406     -202.376   -123.76143    597.00291   -3366.8074 
 5106000    218.76411   -4047.8956   -3672.9414   -4047.8956            0    2510.7266    17.459933    20.565495    21.301078     7648.624     159.8485     5025.114    2347.2174    796.52183    -1090.902   -1255.5801   -3392.8765 
 5107000    227.16198   -4049.9694   -3660.6216   -4049.9694            0    3905.7169    17.473909    20.581956    21.318128    7667.0054    4652.7538    3664.1222    3400.2747    338.78857    78.772884   -791.22785   -3223.9022 
 5108000    229.31702   -4021.0089   -3627.9674   -4021.0089            0    4248.7764    17.466055    20.572705    21.308546    7656.6719    5640.8565    2869.8487    4235.6241    1594.0026   -834.74067    538.64259    -3153.529 
 5109000    241.91617   -4047.4849   -3632.8489   -4047.4849            0    5244.7607    17.432417    20.533085    21.267508    7612.5195    5441.8601    5590.0796    4702.3424    793.27451   -36.211565   -744.93531   -3050.5714 
 5110000    225.02567   -4031.6452   -3645.9589   -4031.6452            0    1337.5874    17.539198    20.658858    21.397781    7753.2677    2316.4875    2506.6371    -810.3625    261.99867    522.44099    46.498524   -3494.7133 
 5111000    230.49913   -4020.3743   -3625.3066   -4020.3743            0    4039.3215    17.548761    20.670123    21.409448    7765.9569    4881.8494    4388.1189    2847.9962   -37.192684   -676.94319   -1383.1435   -3167.8191 
 5112000    229.64877   -4026.2848   -3632.6747   -4026.2848            0    3355.1966    17.504803    20.618346    21.355819    7707.7442    3054.7066    5008.6412    2002.2421    594.92652     696.3564    1389.8967   -3255.5186 
 5113000    220.16483   -4026.3552   -3649.0002   -4026.3552            0    2922.9514    17.592455    20.721588    21.462754    7824.1094    4773.6458    1966.0058    2029.2026   -587.07828    133.17019    35.712832   -3315.4722 
 5114000    231.90739   -3995.7096   -3598.2283   -3995.7096            0    1684.8877    17.557678    20.680626    21.420327    7777.8015    4324.8159    2317.6613   -1587.8142    484.77299    36.712272    -388.9297   -3407.1094 
 5115000    231.20154   -4008.8886   -3612.6171   -4008.8886            0    3732.2998    17.575838    20.702016    21.442482    7801.9605     3274.166    3687.8965    4234.8369    156.88191    1164.0097   -1345.8331   -3187.9426 
 5116000    226.12531   -4043.1306   -3655.5596   -4043.1306            0    2621.0208    17.573065     20.69875    21.439099     7798.268    3345.7443    2797.7326    1719.5854   -712.26188   -358.62025   -602.12987   -3357.4716 
 5117000    218.74383   -4036.8906   -3661.9711   -4036.8906            0    1543.9387    17.512595    20.627524    21.365325    7718.0415    3214.7126   -1389.3633    2806.4668   -143.21051   -317.59912   -577.90438   -3488.1858 
 5118000    226.49137   -4057.5026   -3669.3042   -4057.5026            0    2968.0346    17.553044    20.675168    21.414673    7771.6448     4953.655    1766.4598    2183.9888   -701.65077   -75.222541   -110.70023   -3332.9028 
 5119000    234.30198   -4035.0388   -3633.4532   -4035.0388            0    2957.3572    17.490046    20.600964    21.337816    7688.2672    4834.3068    1882.9324    2154.8323    125.82046   -696.03854   -1563.4879   -3301.8581 
 5120000    229.43193   -4047.5088   -3654.2703   -4047.5088            0     1623.853    17.611901    20.744493    21.486479    7850.0843    3098.4139     885.6821    887.46296    -1860.324    660.28589    526.21125   -3468.3628 
 5121000    232.81787   -4049.9547   -3650.9128   -4049.9547            0    3314.8858    17.569581    20.694645    21.434847      7793.63    3805.5501    4102.0784    2037.0288    104.19255   -1179.6596   -346.98487   -3274.1359 
 5122000    238.16034   -4020.5756   -3612.3769   -4020.5756            0    2901.3918    17.630121    20.765954    21.508707    7874.4731    3268.6651    3536.1515    1899.3589    357.01788    1017.4798     644.4997   -3279.1778 
 5123000    218.16089   -4036.6169   -3662.6966   -4036.6169            0    3236.9766    17.604377     20.73563    21.477298    7840.0267    5369.1182    2350.1803    1991.6314   -871.10333    135.61977   -654.61774   -3292.5847 
 5124000    227.38646   -3998.6005   -3608.8679   -3998.6005            0    3973.4727    17.529647    20.647608    21.386128     7740.608    4336.5935    3961.4996     3622.325   -195.50788   -1144.8593   -958.90687   -3160.3072 
 5125000    235.28666   -4004.7789   -3601.5057   -4004.7789            0    3666.8752    17.592679    20.721852    21.463027    7824.4085    5068.8005    3230.9217    2700.9032   -403.39913   -1084.9943   -308.20218    -3183.075 
 5126000    231.02715    -4039.307   -3643.3344    -4039.307            0    2582.6686    17.627139    20.762441    21.505068    7870.4768    1781.3459    1940.1799    4026.4799   -1200.9962   -679.63006   -129.43107   -3346.8884 
 5127000    231.19106   -4034.5866   -3638.3331   -4034.5866            0    1306.5338    17.595523    20.725202    21.466497    7828.2043    1204.1313     1380.487    1334.9832    734.63248   -556.29148   -90.801888   -3489.1709 
 5128000    231.49818    -4039.896   -3643.1161    -4039.896            0    3135.8964    17.578926    20.705652    21.446248    7806.0725     4562.278    2335.4888    2509.9224    406.77779   -263.10721   -835.46141   -3286.1145 
 5129000    229.40701   -4014.4754   -3621.2797   -4014.4754            0    3331.1974    17.563662    20.687674    21.427626     7785.756    4192.4899    3101.9726    2699.1297    1678.6741   -721.07933   -1310.5767   -3243.0313 
 5130000    228.48784   -4064.8215   -3673.2011   -4064.8215            0    4233.8897    17.586254    20.714285    21.455189    7815.8394    4095.7405    3907.2223    4698.7065   -23.584463   -204.62009    284.70793    -3190.597 
 5131000    215.56404   -4050.1973   -3680.7279   -4050.1973            0    2753.3742    17.660336    20.801543    21.545568    7915.0279    2124.4716    2518.9308    3616.7201   -1478.5416    693.88824    987.05338   -3362.8989 
 5132000    237.09676   -4031.5843   -3625.2086   -4031.5843            0     1293.008    17.721689    20.873809     21.62042    7997.8077    847.34291    1706.5988    1325.0824   -742.47423    293.97536   -902.50088   -3474.3924 
 5133000    229.15325   -4057.9153   -3665.1545   -4057.9153            0    1980.7092     17.55387     20.67614     21.41568    7772.7409    1153.2256    1448.7381    3340.1638    741.19826     838.4013    600.70633   -3440.6263 
 5134000    225.59822   -4063.4086    -3676.741   -4063.4086            0    3439.4807    17.561989    20.685703    21.425585    7783.5314    2665.9189    3877.4081    3775.1149   -1050.0335   -176.94481    634.68238    -3286.309 
 5135000     222.8913   -4072.1085   -3690.0804   -4072.1085            0    1569.7014    17.588751    20.717225    21.458235    7819.1684    1918.0408    1311.4076    1479.6559   -975.74065    627.18187    1178.0055   -3511.0802 
 5136000    236.64467   -4056.7025   -3651.1016   -4056.7025            0    2788.0048    17.601212    20.731903    21.473438    7835.7999    4865.0361    1125.7235    2373.2549   -436.52491    1146.4694   -539.96349   -3332.4965 
 5137000    220.41018   -4056.8192   -3679.0437   -4056.8192            0    2451.9005    17.628512    20.764059    21.506744    7872.3168    3604.3003    2196.8108    1554.5904   -820.98768    186.38937   -1004.4595   -3397.5418 
 5138000    232.04059   -4049.8028   -3652.0932   -4049.8028            0    3389.1807     17.55974    20.683054    21.422842    7780.5416    3800.0405    5048.7707    1318.7309     334.0734     1574.561    477.49978   -3267.5187 
 5139000    213.58012    -4064.006   -3697.9369    -4064.006            0    2234.6909    17.601039    20.731699    21.473227    7835.5689    2877.1724     3035.911    790.98929     685.3129    231.44165      842.792   -3442.5705 
 5140000    227.50278    -4036.557    -3646.625    -4036.557            0    2235.9367    17.587624    20.715898     21.45686    7817.6659    2561.5959    1769.1824    2377.0319   -330.12452     1114.693    478.45329      -3391.7 
 5141000    215.92534   -4057.7504   -3687.6617   -4057.7504            0    1093.7769    17.648031    20.787049    21.530556     7898.495   -221.38393      2627.12    875.59458    1368.8867    554.61256   -667.11732    -3561.668 
 5142000    218.54926   -4036.5528   -3661.9668   -4036.5528            0    2819.2338    17.600889    20.731523    21.473044    7835.3685    2929.0777      2640.56    2888.0637   -517.01778    836.38406    339.42178   -3339.8107 
 5143000    221.58988   -4043.3479   -3663.5505   -4043.3479            0    4765.2191     17.54811    20.669356    21.408654     7765.093    4332.6342    5146.7715    4816.2518    151.92695   -104.59888    -60.18367   -3123.9089 
 5144000    224.74884   -4032.3048   -3647.0929   -4032.3048            0    2238.0676    17.562757    20.686608    21.426523    7784.5529    2339.4641    1878.7395    2495.9991   -56.992513   -404.02409   -748.34195   -3393.0058 
 5145000    233.11841   -4017.0605   -3617.5035   -4017.0605            0    2111.9201    17.573507     20.69927    21.439638    7798.8564    2238.2943    2520.3896    1577.0765     143.2094   -617.45519    80.487339   -3377.2972 
 5146000      216.852   -4033.1962   -3661.5193   -4033.1962            0    3818.1778     17.55605    20.678708     21.41834    7775.6375    4590.2792    3829.1462     3035.108   -883.69557   -220.32172   -1688.5189   -3228.5391 
 5147000    207.53387   -4027.0731   -3671.3671   -4027.0731            0     4653.446    17.558237    20.681284    21.421008    7778.5442    4157.3199    5755.8759    4047.1423   -1146.3473    1.6196146   -226.18793   -3143.4705 
 5148000    216.85711   -4065.1745   -3693.4888   -4065.1745            0    1503.3748    17.649046    20.788245    21.531795    7899.8579    1594.2118    1820.7194    1095.1933    17.882791    686.03592    583.13757    -3520.283 
 5149000    239.36881   -4009.0068   -3598.7369   -4009.0068            0    3010.2492    17.604543    20.735827    21.477502    7840.2496    2383.7236    4874.4244    1772.5996    383.93514   -764.17175   -206.30905   -3254.5389 
 5150000    228.06095   -4040.2219   -3649.3333   -4040.2219            0    1646.3793    17.627296    20.762626     21.50526    7870.6877    2885.6643    1619.7395    433.73425    290.62067   -669.34716   -798.52029   -3460.3521 
 5151000    230.16216   -4012.6358   -3618.1457   -4012.6358            0    2919.4217    17.662122    20.803646    21.547747    7917.4296    2478.0895    2768.7921    3511.3836    1044.8674   -881.71851    782.66058   -3281.0471 
 5152000    217.71285   -4033.2014    -3660.049   -4033.2014            0     2651.674    17.560524    20.683978    21.423799    7781.5843    1444.7975    4650.5818    1859.6428    1470.6173    230.16592     567.9944     -3359.12 
 5153000    233.78116    -4033.754   -3633.0611    -4033.754            0    2700.9636    17.591367    20.720307    21.461427    7822.6587    2167.4459    3825.9756    2109.4693     394.1347    -41.52892   -764.64909   -3324.9204 
 5154000    212.48873   -4018.1623   -3653.9639   -4018.1623            0    3808.1804    17.535881    20.654951    21.393734    7748.8696    3573.8921    5500.9378    2349.7112   -311.83472   -50.361401   -653.94512   -3223.6041 
 5155000     229.7906   -4038.5341   -3644.6809   -4038.5341            0    4345.3948    17.564356    20.688491    21.428473    7786.6789    5228.6628    4326.1995     3481.322   -746.69441    243.52087   -651.91733   -3151.2147 
 5156000    214.61022   -4055.8993   -3688.0647   -4055.8993            0    3197.3384    17.620034    20.754072      21.4964    7860.9638    3965.4961     3039.591    2586.9282   -1449.9405   -231.91653   -650.89615   -3321.5087 
 5157000    226.74929   -4040.2834   -3651.6429   -4040.2834            0    1850.6621    17.620138    20.754195    21.496527    7861.1034    2555.3003    1955.0013    1041.6848   -1145.3902   -463.25854   -512.49094   -3439.4717 
 5158000    225.17808    -4027.211   -3641.2635    -4027.211            0    3233.3346    17.566506    20.691024    21.431097    7789.5392     4669.842    4479.7368    550.42503    850.20323    212.97965    -257.9104   -3273.9488 
 5159000    227.13413   -4024.1537   -3634.8535   -4024.1537            0    4677.4851    17.533684    20.652363    21.391053     7745.957    5024.7729    5734.2909    3273.3915   -456.71692    39.687893    1622.2502   -3106.4528 
 5160000    227.47654   -3992.7969   -3602.9099   -3992.7969            0    2588.5607    17.622236    20.756666    21.499086    7863.9113    3641.0354    4467.7289   -343.08213   -161.71419   -514.70687    1326.3172   -3306.0355 
 5161000    211.06296   -4030.5072   -3668.7525   -4030.5072            0    3157.0288    17.607215    20.738974    21.480762    7843.8202    2933.8507    3169.0605    3368.1752    434.46763   -761.13949    146.85085   -3307.6071 
 5162000    218.61167    -4017.454   -3642.7611    -4017.454            0    1747.3535    17.638311      20.7756    21.518698    7885.4511    2798.4631    1975.6002    467.99716    573.43287    -204.0157    260.48133   -3441.8133 
 5163000    229.23953   -4011.9414   -3619.0327   -4011.9414            0    5104.4857    17.577449    20.703914    21.444447    7804.1059    5105.0677    4315.4233    5892.9661   -980.86636    95.411441    1133.7158   -3038.0663 
 5164000    230.80101   -4034.5666   -3638.9815   -4034.5666            0    5008.3828    17.557238    20.680108     21.41979     7777.217     5556.308    4113.5315    5355.3089   -359.17567   -1399.0964   -29.964354   -3070.9171 
 5165000    227.72028   -4023.8201   -3633.5153   -4023.8201            0    2829.3767    17.599186    20.729516    21.470966     7833.094    3589.2109    1847.3993    3051.5198    901.96908    -513.0932    343.45605    -3310.294 
 5166000      230.093   -4011.7133   -3617.3417   -4011.7133            0    2466.5916    17.644013    20.782317    21.525655    7893.1018    3302.9172    2315.2439    1781.6137    202.94769   -765.11042    26.641228   -3333.4055 
 5167000     222.2887   -4042.4202    -3661.425   -4042.4202            0    4041.6871    17.549519    20.671016    21.410373    7766.9637    4825.4397    3443.3632    3856.2586   -64.702046   -1413.1133     116.8496   -3203.6102 
 5168000    239.43933   -3997.7634   -3587.3726   -3997.7634            0    3217.9579    17.572258    20.697798    21.438113     7797.193    3568.3285    2954.6129    3130.9324   -1276.7249   -606.35112   -1003.9475   -3221.4455 
 5169000    231.01915    -3985.466   -3589.5071    -3985.466            0    2823.4224    17.582937    20.710378    21.451142     7811.418    3813.9114    1643.0332    3013.3226   -239.34473    526.64173    415.31779   -3267.8585 
 5170000    234.60125   -4035.7705    -3633.672   -4035.7705            0    3637.7396    17.548993    20.670396    21.409731    7766.2652    4451.5557    2515.5298    3946.1333    732.04188   -680.40498    158.74165   -3221.6507 
 5171000     218.1262   -4013.3372   -3639.4764   -4013.3372            0    943.92816    17.693974    20.841164    21.586607    7960.3418    1792.3455    818.24743    221.19155   -508.82426    185.72397   -41.594881   -3529.8925 
 5172000    229.90956   -4036.9532   -3642.8961   -4036.9532            0    2582.7917    17.597502    20.727533    21.468911    7830.8454    1377.3388    2302.7468    4068.2895    630.46868   -118.64936   -16.582206   -3347.9288 
 5173000    230.01825   -4022.3377   -3628.0942   -4022.3377            0    4018.4122    17.544739    20.665386    21.404541     7760.619    4096.5517     3910.765    4047.9198    210.36342    1267.9446     220.7113   -3173.2877 
 5174000    219.38644   -4013.6553   -3637.6345   -4013.6553            0    3415.3167    17.597428    20.727445    21.468821    7830.7462    4962.4235    2944.0887    2339.4381     -1824.99    196.54394    385.79523   -3247.5937 
 5175000    235.49479   -4005.5679   -3601.9379   -4005.5679            0     3033.406    17.545527    20.666314    21.405502    7761.6646    2563.2902     2874.436    3662.4918   -169.61421   -829.48201    413.10818   -3258.5687 
 5176000    225.68964   -4013.1154    -3626.291   -4013.1154            0    3489.8732    17.478759    20.587669    21.324045    7673.3915     4006.975    2000.6315     4462.013   -1248.0599   -63.554725    205.47966   -3235.7444 
 5177000    234.16235   -3997.5304   -3596.1842   -3997.5304            0    2133.4654    17.526736     20.64418    21.382578    7736.7535    1489.3428    2137.8334    2773.2201   -272.09034   -755.28673    1411.8434   -3355.4597 
 5178000    228.51167     -3987.98   -3596.3188     -3987.98            0    3292.8261    17.583054    20.710515    21.451285    7811.5736    1830.7811    4653.6491    3394.0482   -1395.3679    671.45885    442.10156   -3221.1876 
 5179000    229.07802   -3995.1935   -3602.5617   -3995.1935            0    2861.4736    17.590971     20.71984    21.460944      7822.13    2124.3197    3545.6515    2914.4497   -90.122664    959.22137    249.30953   -3276.1312 
 5180000    220.41275   -4012.5812   -3634.8012   -4012.5812            0     1695.209     17.63118    20.767201    21.509998     7875.891    1044.5509    2788.2914    1252.7846   -678.91706   -200.92476    840.36899   -3440.0865 
 5181000    233.36039   -4015.8922   -3615.9204   -4015.8922            0    2646.1772    17.559444    20.682706    21.422481    7780.1482    2256.8264    3212.1504    2469.5546    460.78672    243.48536   -279.35172   -3315.6707 
 5182000    236.09584    -4005.411   -3600.7508    -4005.411            0    3143.2635    17.538746    20.658326    21.397229    7752.6679    3901.8405    3532.0609    1995.8892    2422.5074    471.17451   -524.49856   -3245.3586 
 5183000    223.78508   -4022.8785   -3639.3186   -4022.8785            0     3268.684     17.54154    20.661617    21.400637    7756.3735    3526.5024    2241.4856    4038.0641   -440.45311     886.5708   -1493.7213   -3269.5691 
 5184000    237.87003   -4061.6542   -3653.9531   -4061.6542            0    1106.7933    17.604202    20.735425    21.477086    7839.7939    183.52441    1145.9846    1990.8709    1088.1848   -1676.8098    169.41835   -3527.4075 
 5185000    230.37086   -4007.9779   -3613.1301   -4007.9779            0     1450.004    17.615846     20.74914    21.491291    7855.3606   -252.86084    2272.2363    2330.6366     1279.673    5.3270232   -444.35052   -3447.0142 
 5186000    227.92182   -4001.2389   -3610.5887   -4001.2389            0    1478.0265    17.584909    20.712701    21.453548    7814.0466    1708.2904    1534.9734    1190.8158   -239.76429   -904.44748   -364.79445   -3442.1531 
 5187000    225.55278   -4017.3459   -3630.7561   -4017.3459            0    1607.2209      17.6176    20.751205     21.49343    7857.7063    601.06007    2072.3767     2148.226    506.19952   -1358.4118     381.8032   -3446.5741 
 5188000    236.26351   -3990.1341   -3585.1865   -3990.1341            0    1831.4317    17.532827    20.651355    21.390009    7744.8225    1449.4086      1807.58    2237.3066    657.49541    598.58605     130.7267   -3378.3258 
 5189000    223.78138   -4036.3646    -3652.811   -4036.3646            0     1279.101    17.516171    20.631736    21.369688    7722.7708   -350.38762     1639.006    2548.6845    518.36622   -46.467539    1386.8084   -3508.7475 
 5190000    237.11944   -3984.6205   -3578.2059   -3984.6205            0    2480.7993    17.464514     20.57089    21.306666    7654.6452    1646.8572     2865.817    2929.7237    1190.0737   -584.59782    1232.9651   -3301.2615 
 5191000    230.61698   -4019.4316    -3624.162   -4019.4316            0    2507.2766    17.508002    20.622113    21.359721      7711.97    2520.4651    3294.4967    1706.8679   -630.71356   -970.54944    13.069058   -3342.1657 
 5192000     221.3766   -3984.1948   -3604.7629   -3984.1948            0    4290.0039    17.488999    20.599731    21.336538    7686.8862    3810.7695    4948.7056    4110.5365    -364.7149    262.12509   -119.73288   -3123.8305 
 5193000    222.99596   -3996.6443   -3614.4368   -3996.6443            0     3457.151    17.548615    20.669951     21.40927    7765.7632    2716.3478    3194.3703     4460.735   -190.64345   -958.67066    63.662805   -3222.8948 
 5194000    232.26586   -3991.5907    -3593.495   -3991.5907            0    3270.3013    17.476795    20.585356    21.321649    7670.8054    3226.4687    3033.9655    3550.4697   -168.34964    432.81853   -1377.0553   -3227.6437 
 5195000    219.87901   -3997.6896   -3620.8245   -3997.6896            0    2841.6504    17.540825    20.660775    21.399766    7755.4259    4441.1191    2570.6939    1513.1383   -2440.9437    45.268203   -773.94527   -3299.4198 
 5196000    238.33221   -4010.1746   -3601.6814   -4010.1746            0    2271.8014    17.487485    20.597947     21.33469    7684.8895    2308.6868    841.01136    3665.7061   -1718.5808    825.60509     383.3078   -3347.0664 
 5197000    226.70014   -3994.3023    -3605.746   -3994.3023            0    3349.1425    17.510135    20.624626    21.362324    7714.7895    3196.4479    4358.8147    2492.1649    931.81243    336.83578    974.68734   -3228.9263 
 5198000    232.73992   -3989.6044   -3590.6961   -3989.6044            0    2006.3047    17.473156     20.58107    21.317209    7666.0147    1238.5667    2853.2957    1927.0518    889.80594    355.83655    -900.1774   -3366.3893 
 5199000    246.55713   -4006.7387   -3584.1483   -4006.7387            0    3919.4909    17.569732    20.694823    21.435032    7793.8312    4447.8549    3170.1529    4140.4648   -1711.2139   -20.152362    645.11589   -3138.6392 
 5200000    239.91379   -4022.3867   -3611.1827   -4022.3867            0    2948.3047     17.52983    20.647824    21.386351    7740.8503    3469.0541    3319.7215    2056.1384    -162.2283    949.34787   -93.887756   -3278.3416 
 5201000    223.55704   -3989.6589   -3606.4898   -3989.6589            0    3580.8574    17.524055    20.641022    21.379306     7733.203    3187.0765    5356.5674    2198.9284    811.86208   -477.15581   -1147.0207   -3202.6377 
 5202000    229.00778   -3990.5252   -3598.0137   -3990.5252            0    2950.5836    17.511472    20.626201    21.363955    7716.5564    2173.2917    3550.4707    3127.9885    857.29474    185.28686    612.32316   -3265.9607 
 5203000    223.01354   -4003.3646    -3621.127   -4003.3646            0    4480.9766    17.400608    20.495617    21.228701     7570.923      3775.64    4472.6651    5194.6247   -359.26249   -1604.8337   -328.92046   -3126.3638 
 5204000    218.43471   -3998.1876    -3623.798   -3998.1876            0    3664.4338    17.490685    20.601717    21.338595    7689.1096    2730.3772    5390.3753    2872.5489    2.9268614    545.14686   -1834.7417   -3212.8765 
 5205000    215.05664   -4007.6034   -3639.0037   -4007.6034            0     3451.087    17.479824    20.588924    21.325344    7674.7944    4372.6508    4230.1637    1750.4465    -572.5372    39.272635    2384.9813    -3252.727 
 5206000    224.63612   -4015.3085   -3630.2899   -4015.3085            0    3670.1526    17.455473    20.560242    21.295637    7642.7645    2386.2576    3931.1012    4693.0991    856.99196   -428.33409    369.77358   -3221.2077 
 5207000    223.06763   -4002.8799   -3620.5496   -4002.8799            0    3589.9908    17.485627    20.595759    21.332424    7682.4405     4653.925    1865.0162    4251.0314   -670.28832    569.89245   -252.41342   -3218.3252 
 5208000    225.18971   -3984.3727   -3598.4052   -3984.3727            0    1670.4668    17.532824    20.651351    21.390005    7744.8184    1582.9856     1934.484    1493.9307   -1069.7079    944.51971    1694.5993   -3409.7256 
 5209000     222.1256   -4002.1697   -3621.4541   -4002.1697            0     1427.599    17.564456    20.688609    21.428595    7786.8121    2763.6837     1269.035    250.07842    554.40156    1157.1634    87.963995   -3459.3321 
 5210000    221.85402   -3970.3123   -3590.0621   -3970.3123            0    1590.5065    17.512222    20.627084     21.36487    7717.5483    696.84629     1751.131    2323.5421    1013.0979    858.57336    421.22605   -3411.0466 
 5211000    217.62087   -3995.6112   -3622.6165   -3995.6112            0    2777.4688    17.560286    20.683697    21.423507     7781.267    2695.9257    3624.1183    2012.3623    264.28207    853.77283    28.757722   -3307.4243 
 5212000    239.44723   -4031.7627   -3621.3584   -4031.7627            0    1181.0649     17.59752    20.727554    21.468933    7830.8693    1594.0048    1397.3889    551.80079    335.37471    1042.9037   -89.043344   -3486.4746 
 5213000    229.09476   -3994.8981   -3602.2376   -3994.8981            0    630.38419    17.623347    20.757975    21.500443    7865.3995    913.41727    1539.2599   -561.52458    125.16917    777.11782    1157.4325    -3529.927 
 5214000    226.80964    -4010.773    -3622.029    -4010.773            0    2620.5604    17.578658    20.705338    21.445922    7805.7164    1499.4477    4035.6766    2326.5568    75.175941    1647.8194   -477.96608   -3323.7087 
 5215000    224.81672   -4057.3438   -3672.0157   -4057.3438            0    1854.3138    17.531109    20.649331    21.387912    7742.5458    184.70875    3618.8645     1759.368   -248.71367    941.60312   -92.116429    -3462.632 
 5216000    221.09659   -4001.7176   -3622.7656   -4001.7176            0    3550.5135    17.570813    20.696097    21.436351      7795.27    4620.6009    5477.7857    553.15392   -591.90008    543.28343     39.88115   -3219.1219 
 5217000    225.78498   -4033.7313   -3646.7436   -4033.7313            0    2027.3339    17.599378    20.729743      21.4712    7833.3505    2331.6224    2356.0038    1394.3756   -994.36556    1864.7394    875.10761   -3415.1382 
 5218000    244.09006   -4029.1035   -3610.7415   -4029.1035            0    3401.0493    17.521903    20.638487     21.37668     7730.354    3022.5331     2991.059    4189.5557   -484.78508    221.76328     150.2283   -3227.3097 
 5219000    223.21526    -3980.936   -3598.3527    -3980.936            0    1716.2667     17.63542    20.772196    21.515172    7881.5755    2070.2527    2081.9872    996.56025    436.90354    788.46511   -773.71897   -3401.0769 
 5220000    217.93481   -4006.9521   -3633.4193   -4006.9521            0    2850.1854    17.539903    20.659689    21.398641    7754.2027    2655.6408    1508.0952    4386.8201   -704.52193    1409.1498   -310.44892   -3311.1001 
 5221000     230.5956   -4003.8508   -3608.6178   -4003.8508            0    2790.0115    17.537891    20.657319    21.396186    7751.5342      1384.45    3700.9159    3284.6687   -2034.0489   -160.18705    -1673.294   -3293.2121 
 5222000    231.15046   -4015.9485   -3619.7645   -4015.9485            0    3580.8111    17.482643    20.592244    21.328783    7678.5078    3840.2626     3410.969    3491.2017   -103.06572   -598.26238   -652.67527   -3218.7739 
 5223000    214.67344   -3995.3729     -3627.43   -3995.3729            0    3035.3067    17.555544    20.678112    21.417722    7774.9651    2474.8303    1623.9323    5007.1574   -1458.3782   -833.84939   -1705.9396   -3283.2569 
 5224000    225.28674   -3988.2507   -3602.1169   -3988.2507            0    3371.8261    17.489597    20.600435    21.337267    7687.6744    4575.8361    2734.6439    2804.9982    405.18033    655.98251   -371.79733   -3224.0784 
 5225000    223.39272    -3986.918   -3604.0305    -3986.918            0    3504.9432    17.531751    20.650087    21.388695    7743.3961    2713.0474     3386.744    4415.0382    29.054317    682.97957   -632.66837   -3208.2191 
 5226000    230.80284    -3999.397   -3603.8088    -3999.397            0    2173.2731    17.593825    20.723202    21.464426    7825.9381    3099.7345    3094.0434     326.0414   -172.96804   -698.82304    1631.4817    -3355.766 
 5227000      235.882   -3959.9391   -3555.6454   -3959.9391            0    1766.5942    17.604366    20.735618    21.477285    7840.0125    971.06205    2622.7532    1705.9673    1751.8424    643.17894   -320.64334   -3353.6556 
 5228000    230.81784   -3986.9928   -3591.3789   -3986.9928            0    3227.7334    17.531081    20.649297    21.387877    7742.5077    1473.4085    3337.1839    4872.6078    307.83724    296.96561   -1640.7008   -3226.9145 
 5229000    235.03229   -3990.3409   -3587.5036   -3990.3409            0    4155.5372    17.444088    20.546832    21.281747    7627.8197    4710.5721    3883.8954     3872.144    33.781958   -674.10122    683.93169   -3125.2253 
 5230000     237.3713    -4009.043   -3602.1967    -4009.043            0    3086.7869    17.576663    20.702988    21.443488    7803.0589    2872.9442    2454.1844    3933.2321    1028.3032    99.478971    1433.8022   -3250.9215 
 5231000    234.24935   -4013.5328   -3612.0374   -4013.5328            0     1915.765      17.5681    20.692901     21.43304     7791.659    2076.9646    977.04666    2693.2837   -578.88629   -1382.7511    1396.0034   -3394.3426 
 5232000     228.7724   -3997.8915   -3605.7834   -3997.8915            0    2616.7995    17.546882     20.66791    21.407156     7763.463    3078.6916    1697.4235    3074.2835   -612.58961   -343.30608    1264.8916   -3309.5038 
 5233000    231.36177   -4027.2021    -3630.656   -4027.2021            0    3320.6636    17.587352    20.715578    21.456529    7817.3038    3250.3048    2332.1479    4379.5381    96.619376   -61.423456    37.841662   -3252.0759 
 5234000    231.05746    -3984.556   -3588.5314    -3984.556            0    3226.5404     17.58072    20.707765    21.448437    7808.4624    3004.0349    1101.5125    5574.0739      350.715   -1316.6558     917.9334   -3221.0981 
 5235000    223.99586   -4018.8716   -3634.9503   -4018.8716            0    881.41564    17.604304    20.735545     21.47721    7839.9296    872.81774    183.11984    1588.3094    1057.9005    89.069114      -65.151   -3534.1716 
 5236000    222.42403   -3995.3823   -3614.1551   -3995.3823            0    2346.5533    17.555589    20.678165    21.417778    7775.0251     2837.197    2380.3255    1822.1373    186.77961    583.86712    884.71648   -3348.0776 
 5237000      230.592   -4020.7648    -3625.538   -4020.7648            0     3594.319    17.565519    20.689861    21.429892    7788.2263     4996.714    2629.8552     3156.388    978.99783    1665.7751    631.30882   -3217.2834 
 5238000    232.57564   -4002.9995   -3604.3728   -4002.9995            0    3410.8666    17.610422    20.742751    21.484674    7848.1068    3238.1357    4518.2176    2476.2466    456.84776   -701.92757    860.54189   -3213.9766 
 5239000    232.53367    -4023.183   -3624.6283    -4023.183            0    4072.7231    17.627937    20.763382    21.506043     7871.547    6289.3374    3531.8173    2397.0145    432.68632    652.88439     1039.581    -3157.086 
 5240000    227.30828   -3997.5709   -3607.9723   -3997.5709            0    3845.9487    17.631566    20.767656     21.51047    7876.4094    4335.9677    3691.0761    3510.8024   -101.18258    460.29334   -695.29326   -3166.1906 
 5241000     224.3474    -4023.297   -3638.7733    -4023.297            0    2859.1835    17.565125    20.689398    21.429412    7787.7026    2480.4943     3174.151    2922.9053     283.1283    637.39199   -324.15422   -3314.0396 
 5242000    224.15917   -3997.7786   -3613.5775   -3997.7786            0    2634.5455    17.595805    20.725534    21.466841    7828.5807    4209.2151    1642.9585    2051.4628    896.58112   -1717.8483    922.31348   -3312.7866 
 5243000    240.53286   -3998.9609   -3586.6958   -3998.9609            0    3095.6159    17.599606    20.730011    21.471478    7833.6542    2489.0406    2858.7795    3939.0275   -338.48467    87.457305    294.41151   -3233.0346 
 5244000    228.04364   -3977.8923   -3587.0333   -3977.8923            0    3716.8246    17.494019    20.605643    21.342662     7693.507    3383.4045    3749.3642    4017.7051    1450.8214   -749.43305   -1114.9259   -3169.9985 
 5245000    234.32938   -3986.4022   -3584.7697   -3986.4022            0    3133.6743    17.589363    20.717946    21.458981    7819.9848    2125.1909    3389.3059    3886.5262    163.03101    728.67993    509.00207   -3227.3852 
 5246000    218.03333   -3978.5152   -3604.8135   -3978.5152            0    2133.7533    17.572105    20.697619    21.437927    7796.9897    3730.8353    1759.7023    910.72223    1775.5625    550.94668   -209.09202   -3362.1821 
 5247000    220.01969   -3987.5573   -3610.4511   -3987.5573            0    3393.4775    17.554777    20.677208    21.416786    7773.9459    4352.0623     2754.342    3074.0282    341.24654    300.77408   -148.57556   -3225.7155 
 5248000     236.7877   -3999.5976   -3593.7516   -3999.5976            0     4107.772    17.542537    20.662791    21.401854    7757.6965    3489.4832    4958.3597     3875.473    760.00424    708.81031   -322.17697   -3129.0063 
 5249000    211.93864   -3998.0428   -3634.7872   -3998.0428            0    3212.3092    17.537933    20.657369    21.396237    7751.5904    4256.9501    2383.7604     2996.217    533.71079   -358.08076    972.31097   -3271.6389 
 5250000    249.58496   -4000.3345   -3572.5544   -4000.3345            0    2546.5723    17.562527    20.686336    21.426241    7784.2463    1673.1475     3269.422    2697.1475   -779.51131    491.10936    137.36972   -3283.4542 
Loop time of 470.902 on 64 procs for 250000 steps with 864 atoms

Performance: 91.739 ns/day, 0.262 hours/ns, 530.896 timesteps/s
99.0% CPU use with 64 MPI tasks x 1 OpenMP threads

MPI task timing breakdown:
Section |  min time  |  avg time  |  max time  |%varavg| %total
---------------------------------------------------------------
Pair    | 17.469     | 24.473     | 31.679     |  60.9 |  5.20
Bond    | 0.26886    | 0.28475    | 0.30182    |   1.2 |  0.06
Kspace  | 210.16     | 221.12     | 232.59     |  32.3 | 46.96
Neigh   | 3.4348     | 4.0198     | 4.5558     |  15.7 |  0.85
Comm    | 97.101     | 104.5      | 112.94     |  40.9 | 22.19
Output  | 0.9748     | 0.976      | 0.97746    |   0.0 |  0.21
Modify  | 105.38     | 107.93     | 111.76     |  13.2 | 22.92
Other   |            | 7.605      |            |       |  1.61

Nlocal:        13.5000 ave          18 max           9 min
Histogram: 2 3 5 10 13 11 6 11 2 1
Nghost:        2075.91 ave        2138 max        2004 min
Histogram: 3 2 2 13 6 11 13 6 5 3
Neighs:        3964.31 ave        5375 max        2298 min
Histogram: 4 0 6 7 11 9 8 11 5 3

Total # of neighbors = 253716
Ave neighs/atom = 293.65278
Ave special neighs/atom = 2.0000000
Neighbor list builds = 9579
Dangerous builds = 0

unfix		3
unfix		2
unfix		1

write_data	data.final.${pid}
write_data	data.final.0
System init for write_data ...
PPPM initialization ...
  extracting TIP4P info from pair style
  using 12-bit tables for long-range coulomb (../kspace.cpp:340)
  G vector (1/distance) = 0.37301667
  grid = 24 24 25
  stencil order = 5
  estimated absolute RMS force accuracy = 0.0032127974
  estimated relative force accuracy = 9.6752439e-06
  using double precision FFTW3
  3d grid and FFT values/proc = 2730 288
Last active /omp style is kspace_style pppm/tip4p/omp
WARNING: Not all mixed pair coeffs generated from mixing. Use write_data with 'pair ij' option to store all pair coeffs. (../write_data.cpp:312)

write_restart   restart.lmp.${pid}
write_restart   restart.lmp.0
System init for write_restart ...
PPPM initialization ...
  extracting TIP4P info from pair style
  using 12-bit tables for long-range coulomb (../kspace.cpp:340)
  G vector (1/distance) = 0.37301667
  grid = 24 24 25
  stencil order = 5
  estimated absolute RMS force accuracy = 0.0032127974
  estimated relative force accuracy = 9.6752439e-06
  using double precision FFTW3
  3d grid and FFT values/proc = 2730 288
Last active /omp style is kspace_style pppm/tip4p/omp
Total wall time: 0:07:55
