LAMMPS (30 Jul 2021)
  using 1 OpenMP thread(s) per MPI task
package omp 0
using multi-threaded neighbor list subroutines
echo both

include		in.partitions
variable        pid world 0
include		in.temp
variable        temperature equal 260.68
variable	tempDamp equal 100.0
include		in.pressure
variable        pressure equal 3000.0
variable        pressureDamp equal 1000.0 # This is 1 ps
include		in.seed
variable        seed world 745823

units		real
atom_style	full
read_restart	restart.lmp.${pid}
read_restart	restart.lmp.0
Reading restart file ...
  restart file = 30 Jul 2021, LAMMPS = 30 Jul 2021
  restoring atom style full from restart
  orthogonal box = (0.35627384 1.5111748 0.43465325) to (17.851299 22.118003 21.778543)
  4 by 4 by 4 MPI processor grid
  restoring pair style lj/cut/tip4p/long/omp from restart
  restoring bond style harmonic/omp from restart
  restoring angle style harmonic/omp from restart
  864 atoms
  576 bonds
  288 angles
Finding 1-2 1-3 1-4 neighbors ...
  special bond factors lj:    0        0        0       
  special bond factors coul:  0        0        0       
     2 = max # of 1-2 neighbors
     1 = max # of 1-3 neighbors
     1 = max # of 1-4 neighbors
     2 = max # of special neighbors
  special bonds CPU = 1.673 seconds
  read_restart CPU = 2.010 seconds
include 	in.setup
variable	out_freq equal 1000
variable	out_freq2 equal 10000
variable	out_freq3 equal 1000

timestep	2.0

neigh_modify    delay 7 every 1

include		in.tip4p
# This is TIP4P/Ice

# create groups ###
group ox type 2
288 atoms in group ox
group hy type 1
576 atoms in group hy

# set charges - beside manually ###
set group ox charge -1.1794
Setting atom values ...
  288 settings made for charge
set group hy charge 0.5897
Setting atom values ...
  576 settings made for charge

# ### TIP3P Potential Parameters ###
pair_style lj/cut/tip4p/long/omp 2 1 1 1 0.1577 8.5
pair_coeff 1 1*2 0.000 0.000
pair_coeff 2 2 0.21084 3.1668
bond_style  harmonic
bond_coeff  1 450 0.9572
angle_style harmonic
angle_coeff 1 55 104.52
kspace_style pppm/tip4p/omp 1.0e-5
pair_modify tail yes

thermo          ${out_freq}
thermo          1000
thermo_style    custom step temp pe etotal epair emol press lx ly lz vol pxx pyy pzz pxy pxz pyz enthalpy

restart 	${out_freq3} restart.lmp.${pid} restart2.lmp.${pid}
restart 	1000 restart.lmp.${pid} restart2.lmp.${pid}
restart 	1000 restart.lmp.0 restart2.lmp.${pid}
restart 	1000 restart.lmp.0 restart2.lmp.0


include         in.dump
dump            myDump all atom ${out_freq2} dump.water.${pid}
dump            myDump all atom 10000 dump.water.${pid}
dump            myDump all atom 10000 dump.water.0
dump            myDump2 all dcd ${out_freq2} dump.dcd
dump            myDump2 all dcd 10000 dump.dcd
dump_modify     myDump append yes
dump_modify     myDump2 append yes


variable natoms 	equal  "count(all)"                        # NUMBER ATOMS
variable H      	equal  "enthalpy/v_natoms"                 # ENTHALPY-per-atom
variable Vol      	equal  "vol/v_natoms"                 # volume-per-atom
fix AVG all 		ave/time ${out_freq} 1 ${out_freq} v_Vol v_H file vol_enthalpy.dat
fix AVG all 		ave/time 1000 1 ${out_freq} v_Vol v_H file vol_enthalpy.dat
fix AVG all 		ave/time 1000 1 1000 v_Vol v_H file vol_enthalpy.dat


timer           timeout 23:50:00 every 1000
New timer settings: style=normal  mode=nosync  timeout=23:50:00

fix 		1 all shake 1e-6 200 0 b 1 a 1
       0 = # of size 2 clusters
       0 = # of size 3 clusters
       0 = # of size 4 clusters
     288 = # of frozen angles
  find clusters CPU = 0.462 seconds
fix             2 all nph iso ${pressure} ${pressure} ${pressureDamp}
fix             2 all nph iso 3000 ${pressure} ${pressureDamp}
fix             2 all nph iso 3000 3000 ${pressureDamp}
fix             2 all nph iso 3000 3000 1000
fix             3 all temp/csvr ${temperature} ${temperature} ${tempDamp} ${seed}
fix             3 all temp/csvr 260.68 ${temperature} ${tempDamp} ${seed}
fix             3 all temp/csvr 260.68 260.68 ${tempDamp} ${seed}
fix             3 all temp/csvr 260.68 260.68 100 ${seed}
fix             3 all temp/csvr 260.68 260.68 100 745823

run             250000
PPPM initialization ...
  extracting TIP4P info from pair style
  using 12-bit tables for long-range coulomb (../kspace.cpp:340)
  G vector (1/distance) = 0.37333518
  grid = 24 24 25
  stencil order = 5
  estimated absolute RMS force accuracy = 0.0031761947
  estimated relative force accuracy = 9.5650159e-06
  using double precision FFTW3
  3d grid and FFT values/proc = 2730 288
Last active /omp style is kspace_style pppm/tip4p/omp
Neighbor list info ...
  update every 1 steps, delay 7 steps, check yes
  max neighbors/atom: 2000, page size: 100000
  master list distance cutoff = 10.8154
  ghost atom cutoff = 10.8154
  binsize = 5.4077, bins = 4 4 4
  1 neighbor lists, perpetual/occasional/extra = 1 0 0
  (1) pair lj/cut/tip4p/long/omp, perpetual
      attributes: half, newton on, omp
      pair build: half/bin/newton/omp
      stencil: half/bin/3d
      bin: standard
Per MPI rank memory allocation (min/avg/max) = 9.238 | 9.241 | 9.247 Mbytes
Step Temp PotEng TotEng E_pair E_mol Press Lx Ly Lz Volume Pxx Pyy Pzz Pxy Pxz Pyz Enthalpy 
 4250000    276.44845   -3869.9863   -3396.1631   -3869.9863            0    4358.9239    17.495025    20.606828    21.343889    7694.8343    4570.2281    3615.5384    4891.0052   -986.07327   -380.13441   -118.10078   -2906.9991 
 4251000    261.01439   -3867.1636   -3419.7938   -3867.1636            0     3721.172    17.447814     20.55122    21.286293    7632.7085    3284.5451    3339.7628     4539.208   -882.19308     393.6404   -984.28239   -3005.5707 
 4252000    263.59778   -3877.4404   -3425.6428   -3877.4404            0    562.61607    17.552138      20.6741    21.413567    7770.4404    657.91444   -248.79159    1278.7253    19.526057    905.26104     334.1144   -3361.8849 
 4253000    258.08416   -3868.8198   -3426.4724   -3868.8198            0    3837.4272    17.465658    20.572238    21.308062    7656.1506     2579.238    3624.9179    5308.1256   -667.60327    251.99402   -137.75342   -2997.9964 
 4254000    250.51654    -3904.729   -3475.3522    -3904.729            0    2425.6534    17.514796    20.630116     21.36801    7720.9516    497.05033    4635.3623    2144.5475   -635.02808    331.23788   -214.17241   -3202.2184 
 4255000    268.03313   -3888.3395   -3428.9399   -3888.3395            0    730.10771    17.580619    20.707646    21.448314    7808.3279    95.821579    1642.0917    452.40985    94.086641   -204.70681    -1397.478   -3345.7978 
 4256000    269.91017   -3883.4308    -3420.814   -3883.4308            0    2773.7541    17.566731    20.691289    21.431371    7789.8382    3770.8916    2701.9716     1848.399    511.59933   -143.22033    788.26725   -3105.6967 
 4257000    263.45493   -3881.7943   -3430.2416   -3881.7943            0    2443.6937    17.529825    20.647818    21.386346    7740.8442    1983.6024    1834.5984    3512.8803   -2011.2151    403.12972   -567.41377   -3154.3674 
 4258000    254.97593   -3855.3685   -3418.3485   -3855.3685            0    1314.7257    17.623608    20.758282    21.500761    7865.7486    514.41712    2684.6626    745.09736   -429.51947    1614.3823   -297.93586   -3267.5312 
 4259000    270.19646   -3863.8629   -3400.7555   -3863.8629            0    2261.8176    17.503212    20.616472    21.353878    7705.6425    137.24713    2474.6464    4173.5594   -772.09142    584.42884    672.00553   -3146.5749 
 4260000    258.08487   -3837.3035   -3394.9549   -3837.3035            0    2654.3187    17.549578    20.671085    21.410444    7767.0415    1235.8611    3656.9734    3070.1215    470.76682    431.49664    1423.2898   -3094.2887 
 4261000    260.16181    -3886.856   -3440.9476    -3886.856            0    5434.2981    17.482806    20.592436    21.328982    7678.7226    4035.5774    7523.4343    4743.8828   -12.073156    655.12493    1219.1106   -2832.3807 
 4262000    269.64798     -3852.14   -3389.9726     -3852.14            0    1396.0143    17.603109    20.734137    21.475752    7838.3331    2509.6648    3215.4917   -1537.1136   -764.07524   -76.104208    1134.4067   -3230.3885 
 4263000    261.26172   -3883.4718   -3435.6782   -3883.4718            0    3665.9561    17.531035    20.649244    21.387822    7742.4479    3340.6812    2746.8351    4910.3519   -551.99917   -99.233264   -320.94301   -3021.7343 
 4264000     256.3051   -3906.0778   -3466.7796   -3906.0778            0    1352.7778    17.607032    20.738758    21.480538    7843.5755    548.00568     870.7007    2639.6269    771.69571    531.28454    1157.3606   -3312.0347 
 4265000     266.0511   -3903.4476   -3447.4451   -3903.4476            0     3893.944    17.516314    20.631904    21.369862    7722.9591    3429.2741    3058.2344    5194.3234    873.56813    230.00546    1185.5918   -3008.8646 
 4266000    255.48645   -3878.8217   -3440.9266   -3878.8217            0    3444.3058    17.591271    20.720193    21.461309    7822.5297    3325.7778    4624.1553    2382.9842   -787.82404    157.00391    643.66668   -3047.9879 
 4267000    264.67567    -3863.342    -3409.697    -3863.342            0    1976.8212    17.549847    20.671401    21.410772    7767.3984     2571.032    2241.0885    1118.3433   -63.126192    17.049304   -239.36614   -3185.7636 
 4268000    248.32608    -3858.771   -3433.1486    -3858.771            0     3281.623    17.524861    20.641972     21.38029    7734.2706    2255.0504    4578.8647    3010.9538    -6.336437     838.5092    1205.3104   -3062.9933 
 4269000    252.98974   -3872.7089   -3439.0931   -3872.7089            0    2424.9155    17.571466    20.696866    21.437148    7796.1396    1323.4959    3532.9161    2418.3345    -29.31308    750.50497    409.29328   -3163.3834 
 4270000    262.93324   -3913.4901   -3462.8316   -3913.4901            0    4198.2516    17.457351    20.562454    21.297928    7645.2318    4586.8457     4162.148    3845.7611   -209.50453   -89.522585   -1109.3057   -2994.7355 
 4271000    259.31885   -3923.0932   -3478.6296   -3923.0932            0    2465.3831    17.572999    20.698672    21.439018    7798.1801     3869.705    1517.8738    2008.5706    144.24111    782.46754   -594.93885   -3198.2453 
 4272000    278.49212   -3910.6642   -3433.3383   -3910.6642            0    4989.7678    17.563163    20.687086    21.427018    7785.0929    5959.6789     6400.679    2608.9456   -1969.6854   -515.49138   -235.35749    -2866.812 
 4273000    248.54156   -3913.7435   -3487.7518   -3913.7435            0    2001.0429    17.572236    20.697773    21.438087    7797.1645    1841.6182    1962.5147    2198.9958    -482.6274   -96.589503   -776.68618   -3260.2059 
 4274000    271.01091   -3869.2704    -3404.767   -3869.2704            0    2464.7036    17.638892    20.776285    21.519407    7886.2309    3455.6592    2218.8555     1719.596    717.47214    7.7586143    1249.1203    -3121.295 
 4275000     255.6238    -3854.151   -3416.0206    -3854.151            0    2260.0374    17.629198    20.764866     21.50758    7873.2356    3071.0326     1190.268    2518.8116   -1864.6721    77.107514   -665.81434   -3156.5162 
 4276000    271.23785   -3832.1653    -3367.273   -3832.1653            0    2122.2465    17.581624    20.708831     21.44954    7809.6679    2453.8243    2515.3844    1397.5309   -999.18615   -45.303968    -874.5784   -3125.5576 
 4277000     271.1865   -3857.1177   -3392.3133   -3857.1177            0    1916.5772     17.55883    20.681982    21.421731    7779.3318    1335.6756    4232.6149    181.44109   -821.79639    637.71385   -176.48835   -3174.8708 
 4278000    249.35166   -3869.0272    -3441.647   -3869.0272            0    3847.9043    17.532174    20.650585    21.389212    7743.9567    3723.8646    4567.7722    3252.0761   -1169.8706    -430.9056    383.76723   -3007.0737 
 4279000     249.7573   -3880.0052   -3451.9297   -3880.0052            0     2415.365    17.494701    20.606447    21.343495    7694.4076    1577.8173     5057.837    610.44066   -1385.0242    205.38967   -32.812558   -3180.8894 
 4280000    272.53952   -3845.7171   -3378.5937   -3845.7171            0    4148.6907    17.462725    20.568783    21.304483    7652.2934    4804.8277    3330.6757    4310.5686   -251.35188   -1296.0267    147.90943   -2915.5963 
 4281000    264.82154    -3838.653    -3384.758    -3838.653            0    5433.5466    17.478021      20.5868    21.323144    7672.4192    6119.1852    4741.6845      5439.77    80.458638    780.58435   -336.37381   -2776.7747 
 4282000    259.80881   -3860.8091   -3415.5057   -3860.8091            0    1890.5335    17.602548    20.733477    21.475068    7837.5843    2404.5711    1562.9594      1704.07   -520.69088    645.93082    1332.2489   -3199.4118 
 4283000    266.29457   -3872.5785   -3416.1588   -3872.5785            0    3703.4528    17.582891    20.710323    21.451086    7811.3566    3563.7268    3935.2664    3611.3652    278.52465   -2858.2246    171.04506   -2994.2591 
 4284000    243.29408    -3867.715   -3450.7173    -3867.715            0    2692.7475     17.42869    20.528695    21.262961     7607.638    4077.6175    2436.6192    1564.0059      600.231   -88.775487   -770.93469    -3151.958 
 4285000    258.24543   -3923.7713   -3481.1475   -3923.7713            0    3319.5687    17.482044    20.591538    21.328053    7677.7187    4287.7089     2813.195    2857.8024    220.66861    351.71489   -1210.2707   -3109.4499 
 4286000    256.84789   -3865.8666   -3425.6381   -3865.8666            0    3541.3285    17.413434    20.510725    21.244348    7587.6769    2662.7763    4340.8515    3620.3577    10.431504    1153.8305   -1083.3768     -3033.76 
 4287000     264.4291   -3839.1728   -3385.9504   -3839.1728            0    3648.0978    17.404661    20.500392    21.233646    7576.2156    4530.5317    2463.2523    3950.5095   -761.15788    255.17409    586.32728   -2982.8672 
 4288000    262.62205   -3844.4244   -3394.2992   -3844.4244            0    3154.1082    17.424747     20.52405     21.25815    7602.4752     5162.462     1280.846    3019.0165   -301.23305   -1477.5823   -71.439731   -3044.5896 
 4289000    270.58705    -3846.184    -3382.407    -3846.184            0    2654.2026    17.513341    20.628402    21.366235    7719.0276    2814.8188    1238.7042    3909.0848    407.04095   -2216.8472    16.188645   -3083.6126 
 4290000    260.67499   -3818.8937   -3372.1057   -3818.8937            0    3516.7136    17.419354    20.517698    21.251571    7595.4189    1943.8106    4022.5363     4583.794   -193.37986    673.87615    1051.6149   -2982.5545 
 4291000    260.68377   -3843.3736   -3396.5705   -3843.3736            0    3378.4108    17.490757    20.601802    21.338683    7689.2049    2388.7198    3647.3022    4099.2104   -927.26814   -314.86758   -1023.7577   -3017.7184 
 4292000    251.38366   -3840.6069   -3409.7439   -3840.6069            0    2224.0037    17.489097    20.599846    21.336657    7687.0148    2647.0813    2521.7734    1503.1564   -434.99182    641.60067     -1098.27    -3160.417 
 4293000    256.72785    -3846.071   -3406.0483    -3846.071            0    2189.1074    17.496021    20.608001    21.345104    7696.1484     1059.486    1547.7826    3960.0534   -336.38527   -134.65814    144.14942   -3160.3419 
 4294000    264.86058   -3876.8065   -3422.8445   -3876.8065            0     4389.405    17.434855    20.535956    21.270482    7615.7134    2447.9014    5333.6339    5386.6797    127.87864    470.13531   -1129.8685   -2935.3249 
 4295000    257.13563   -3922.5651   -3481.8434   -3922.5651            0    4142.8874    17.441337    20.543591     21.27839    7624.2108    4305.2752    3323.0036    4800.3833   -857.12122    477.59631   -38.260142   -3021.1904 
 4296000    278.94428   -3876.1331   -3398.0322   -3876.1331            0    3939.1842    17.463936    20.570209    21.305961    7653.8854    3342.1055    5068.7596    3406.6876   -530.59446   -533.03016    70.129164   -2958.3244 
 4297000    259.49228   -3900.3546   -3455.5937   -3900.3546            0     2428.579    17.522483     20.63917    21.377388    7731.1216    1960.9541    2024.9177    3299.8653    86.240783    163.18192    -84.37306   -3181.7703 
 4298000    267.30224    -3857.596   -3399.4492    -3857.596            0    3627.6636    17.588545    20.716982    21.457983    7818.8935    3984.6188    3338.0567    3560.3152   -1118.6132   -124.52013   -204.10226   -2985.7847 
 4299000    262.28373   -3846.4459   -3396.9006   -3846.4459            0    4232.6151    17.532352    20.650795    21.389429    7744.1927    2420.1496    4945.0916    5332.6042   -177.47899    153.33434   -169.31452   -2918.8643 
 4300000     263.9055    -3873.517    -3421.192    -3873.517            0    5440.5943    17.389657    20.482719    21.215341    7556.6385    4309.9803    5577.1638    6434.6387     376.4004   -1293.6387    324.65847   -2821.6068 
 4301000    268.88798   -3859.2834   -3398.4186   -3859.2834            0    1729.2779    17.488544    20.599195    21.335983    7686.2865    2072.8267    1037.0686    2077.9384   -715.58134   -2139.3508    332.40004   -3204.5724 
 4302000    258.59853   -3878.6402   -3435.4112   -3878.6402            0    2900.6353    17.449763    20.553516     21.28867    7635.2659    1425.4969    2607.3376    4669.0714    240.22217   -180.97056    777.86287   -3112.4181 
 4303000     256.2651   -3879.4793   -3440.2497   -3879.4793            0    3283.2148    17.477299    20.585949    21.322264    7671.4688    1848.1143    4318.0819    3683.4482   -512.59303   -283.90151    553.85377    -3072.922 
 4304000    274.11678     -3866.52   -3396.6932     -3866.52            0    2311.1038    17.535251     20.65421    21.392965    7748.0348    1650.7497    3407.5257     1875.036    1167.6984   -123.97356   -702.23265   -3135.5451 
 4305000    252.52513   -3846.2175    -3413.398   -3846.2175            0    3540.3576    17.457089    20.562145    21.297607    7644.8865    4066.6348    4171.2415    2383.1964   -574.27528   -533.85691   -599.70862   -3018.6735 
 4306000    281.77687   -3856.3198   -3373.3638   -3856.3198            0      1331.94    17.503386    20.616677     21.35409    7705.8725   -1268.8372    3284.2527    1980.4044     1071.766    265.66441   -564.78983   -3223.6774 
 4307000    260.46171   -3825.7595   -3379.3371   -3825.7595            0    2670.5298    17.518152    20.634069    21.372104    7725.3906    724.01873    4233.4004    3054.1703    601.70539   -222.85727    2828.3859   -3078.4568 
 4308000    255.67875   -3843.2596    -3405.035   -3843.2596            0    2834.6742    17.575293    20.701374    21.441817    7801.2346    2317.7251    2493.0698    3693.2278    -109.4443    777.97017    312.25251   -3082.5256 
 4309000    262.23136   -3845.9042   -3396.4486   -3845.9042            0    3142.9715    17.480909    20.590201    21.326668    7676.2234    2255.8279    4303.0754    2870.0111    1873.5101    467.65043   -617.71277   -3044.5934 
 4310000    243.32536   -3850.6795   -3433.6282   -3850.6795            0     891.3268    17.582059    20.709343    21.450071    7810.2474    448.78391    1490.2241    734.97235   -549.05816    449.20483    728.39938   -3332.1021 
 4311000    254.25736   -3865.1794    -3429.391   -3865.1794            0    1779.4743    17.596078    20.725855    21.467174    7828.9441    1123.4936    2778.2831    1436.6461   -39.356288   -803.00741     707.0671   -3226.2157 
 4312000    257.80599   -3854.8739   -3413.0033   -3854.8739            0    1945.3143    17.589178    20.717729    21.458756    7819.7387    536.11055    2668.0052    2631.8271    779.33596    473.83602    576.10518   -3191.1541 
 4313000    269.15496   -3834.9341   -3373.6117   -3834.9341            0    1458.6788    17.584098    20.711745    21.452559    7812.9651    1226.6261    2424.4216    724.98871   -386.40344   -264.27508   -124.69685   -3207.4039 
 4314000    268.96855   -3843.3108   -3382.3079   -3843.3108            0    4243.0044    17.513367    20.628433    21.366267    7719.0624    4675.1937    2549.0298    5504.7896   -1217.7956   -180.17466   -388.73927   -2904.6533 
 4315000    251.79483   -3863.6326   -3432.0648   -3863.6326            0    3139.5029    17.522939    20.639707    21.377944    7731.7254    3175.6277    2491.6556    3751.2255    1276.2304   -121.43364   -230.98882   -3078.0567 
 4316000    267.17888   -3887.3491   -3429.4137   -3887.3491            0    1285.5527    17.612035     20.74465    21.486641    7850.2626    1881.2721    1258.5014    716.88446    282.55468   -18.293765     293.8654   -3282.2333 
 4317000    242.44202   -3896.5792   -3481.0418   -3896.5792            0    2271.1532    17.728532    20.881869    21.628768    8007.0752    3017.0792    1462.8371    2333.5432    556.07913    326.24866    268.77084    -3215.828 
 4318000    251.97434   -3877.8054     -3445.93   -3877.8054            0    2516.5527    17.632953     20.76929    21.512162    7878.2682    1564.3436      2846.38    3138.9345    874.75909   -202.15446    1068.8876   -3156.7871 
 4319000    256.50766   -3909.8704    -3470.225   -3909.8704            0    1918.9138    17.674291     20.81798    21.562593    7933.8058     1024.682    2217.2032    2514.8564    539.10398   -1426.7106   -138.72973   -3248.1944 
 4320000      265.551   -3875.3058   -3420.1604   -3875.3058            0    3221.1955    17.554131    20.676448    21.415999    7773.0885     4721.968    1108.0158    3833.6028   -266.07029   -465.67634    -502.8867   -3054.9976 
 4321000    256.23631   -3869.6953   -3430.5151   -3869.6953            0    3861.4558    17.477505    20.586192    21.322515    7671.7405    2931.3526    4199.3261    4453.6886    119.33219   -409.10655   -315.15471   -2998.4782 
 4322000    269.28255   -3834.0254   -3372.4843   -3834.0254            0    1989.7578     17.59957    20.729968    21.471434    7833.6061     3012.532    1762.3707    1194.3707    205.63982   -14.295967    879.12544   -3145.1642 
 4323000     252.4266   -3911.9932   -3479.3426   -3911.9932            0    2563.3136    17.606436    20.738056    21.479811    7842.7787    1512.4842    2219.3825     3958.074    -284.7872    382.75668    1209.0916   -3186.1537 
 4324000    264.59486   -3876.3046   -3422.7981   -3876.3046            0    3422.4185    17.609636    20.741825    21.483715    7847.0554    3392.9128    1243.3877     5630.955    200.03611    40.983859   -128.93348   -3031.1322 
 4325000    258.98481   -3862.9655   -3419.0744   -3862.9655            0    3145.7655    17.493811    20.605398    21.342408    7693.2324    1425.7978    3486.6031    4524.8954    1486.9041   -571.13305   -158.34434   -3066.1261 
 4326000    247.28689   -3847.6216   -3423.7804   -3847.6216            0    2018.9689    17.573041    20.698721    21.439069    7798.2355    3053.7891    1775.7782    1227.3393    757.94546   -445.21212   -53.783043   -3194.1645 
 4327000    257.67747    -3885.591   -3443.9406    -3885.591            0    2720.5315     17.51548    20.630922    21.368844    7721.8561    2297.1029    3633.7196     2230.772   -1273.7121   -285.80202    1017.6781    -3137.567 
 4328000    283.05792   -3873.1393   -3387.9877   -3873.1393            0    3841.0702    17.488457    20.599092    21.335876    7686.1711    4418.2908    2403.5263    4701.3936    1616.8358   -1477.9619   -357.97962   -2957.4232 
 4329000    255.06017   -3886.2543   -3449.0899   -3886.2543            0    2199.1209    17.494264    20.605933    21.342962    7693.8311    1925.4937    1290.9489    3380.9202   -845.03508   -647.45552   -1361.7835   -3202.3339 
 4330000    264.47914   -3836.7506   -3383.4424   -3836.7506            0    1718.4833    17.492232    20.603539    21.340482    7691.1502    1295.0854    2768.0751    1092.2892    149.92541    1545.1737    376.91021   -3190.6844 
 4331000    262.90909   -3862.4655   -3411.8483   -3862.4655            0    4205.9278    17.388762    20.481665     21.21425    7555.4722    2200.5508    5827.2588    4589.9738   -1866.3351    1180.6991    87.015744   -2948.4021 
 4332000    254.08266   -3873.8026   -3438.3136   -3873.8026            0    2315.4555    17.512488    20.627397    21.365194    7717.8996     2051.307    1239.0188    3656.0406    1202.2618    2060.0003    1024.4935   -3177.6914 
 4333000    265.62367   -3892.2993   -3437.0294   -3892.2993            0    2712.8012    17.527437    20.645005    21.383432    7737.6809    2131.1773    2217.2454     3789.981    393.21262    452.87599   -523.39585   -3130.9002 
 4334000     264.7944   -3830.7907   -3376.9421   -3830.7907            0    3493.1595    17.554597    20.676996    21.416567    7773.7071     3809.408    3690.2284     2979.842   -667.04173    744.89678     1148.089   -2980.9173 
 4335000    259.56652   -3877.1466   -3432.2584   -3877.1466            0    3358.1499     17.53168    20.650004    21.388609    7743.3024    3464.2441    3526.7214    3083.4843    -15.05981    -274.2997   -68.895313   -3053.0289 
 4336000    252.72802   -3874.8468   -3441.6796   -3874.8468            0    2784.7834    17.596326    20.726148    21.467477    7829.2756    3980.0337    2056.2505    2318.0659   -1284.9593    -885.9353    1037.7937   -3123.7076 
 4337000    256.34575   -3895.3745   -3456.0067   -3895.3745            0    2896.8748    17.484913    20.594918    21.331553    7681.5001    3253.0049    3780.3306    1657.2888    1409.9536    1892.5949   -1327.5607   -3131.4791 
 4338000    266.79813   -3849.3117   -3392.0288   -3849.3117            0    2594.2164    17.576687    20.703016    21.443518    7803.0911    3990.3618    2654.9276    1137.3599     930.8751   -1311.9864   -211.97085   -3096.8068 
 4339000    255.68101    -3918.048   -3479.8195    -3918.048            0    2020.7378    17.614526    20.747585    21.489681     7853.595    1665.5972    1690.9887    2705.6276   -848.19737   -611.24741   -310.81611    -3248.371 
 4340000     267.0065   -3902.4532   -3444.8132   -3902.4532            0     4136.818    17.523679    20.640579    21.378847     7732.705    4326.4599    5177.1917    2906.8022   -722.20046    896.86743    1253.6342   -2978.2895 
 4341000    249.59584   -3892.8337    -3465.035   -3892.8337            0    2614.3607    17.527852    20.645494    21.383938    7738.2303    1456.2745    3921.6182    2465.1895   -641.08698   -834.61922    1082.7613   -3169.9935 
 4342000    261.31189   -3865.1611   -3417.2815   -3865.1611            0    3666.5545    17.541361    20.661406     21.40042    7756.1368    4622.7235     1946.174     4430.766   -2.4801679    358.21184    -332.0221    -3002.538 
 4343000    240.90188   -3873.6274   -3460.7298   -3873.6274            0    2084.8345    17.596509    20.726364      21.4677    7829.5205    2547.7327    1232.6103    2474.1605   -540.08627    1874.8532    -947.7541   -3222.6719 
 4344000    256.88595   -3888.2271   -3447.9333   -3888.2271            0    3367.8658    17.637493    20.774637      21.5177    7884.3545    2575.4006    2659.9487     4868.248   -6.4141434   -103.27956   -425.98013   -3060.6785 
 4345000    263.41781   -3915.3978   -3463.9086   -3915.3978            0    4135.3256     17.57773    20.704244    21.444789    7804.4794    2775.8162    4806.5572    4823.6033   -490.84655    41.614161   -1409.0524   -2993.2245 
 4346000    263.50727   -3864.6363   -3412.9938   -3864.6363            0    2283.3352    17.653742    20.793776    21.537524    7906.1652     684.3672    3150.1985    3015.4399    16.529929    -1210.365   -314.17203   -3149.7177 
 4347000    269.90777   -3886.0304   -3423.4177   -3886.0304            0    2025.4056    17.571653    20.697086    21.437376    7796.3879    834.27854    2913.2979    2328.6405   -474.55499    29.487228    128.74384   -3193.1244 
 4348000    250.49625   -3887.7296   -3458.3876   -3887.7296            0     346.9412    17.630775    20.766724    21.509504    7875.3483   -933.96133    1441.4957    533.28924    240.86707   -963.05782    308.50823   -3418.5401 
 4349000    264.78735   -3854.1378   -3400.3013   -3854.1378            0    2939.8978    17.568219    20.693041    21.433186     7791.818    4262.6524    1700.4408    2856.6003    927.39034    73.793932    112.43604   -3066.2241 
 4350000    249.08722   -3854.8092   -3427.8822   -3854.8092            0    703.73406    17.694433    20.841705    21.587167    7960.9615    1424.4532    681.13012    5.6188881    16.609875    98.153352    984.58546    -3346.177 
 4351000    254.80675   -3890.7954   -3454.0654   -3890.7954            0    2974.1981    17.555433    20.677981    21.417588    7774.8182    3896.3893    2001.8945    3024.3104    769.15668   -1367.3416    -54.32717   -3116.8277 
 4352000    264.03166   -3853.0534   -3400.5121   -3853.0534            0    2956.1624    17.622359    20.756812    21.499237     7864.077    3931.7179    2125.1584    2811.6109    487.14928   -1126.4076   -389.44297   -3061.4713 
 4353000    264.36007    -3869.436   -3416.3319    -3869.436            0    1405.5456    17.575742    20.701902    21.442364    7801.8318    2896.8691   -523.39232      1843.16   -1313.9312    1289.5942   -879.53171   -3256.4065 
 4354000    251.31354   -3874.8799   -3444.1371   -3874.8799            0    3214.3807    17.571788    20.697245     21.43754    7796.5677    4760.3696    1701.4524    3181.3201     311.6159    1265.3684    899.29505   -3078.6461 
 4355000    268.94292   -3875.1149   -3414.1559   -3875.1149            0    4362.4713    17.511482    20.626213    21.363967    7716.5698    3284.0582    5481.3694    4321.9862   -732.07703    1014.4166    32.577443    -2923.211 
 4356000    254.27988      -3921.6    -3485.773      -3921.6            0    2276.9061    17.550982    20.672739    21.412157    7768.9059    2655.9353    1715.0282    2459.7547    277.95026     -671.783    662.53454    -3227.796 
 4357000    255.05528   -3891.3272   -3454.1712   -3891.3272            0    2402.3986    17.550441    20.672101    21.411497    7768.1869     2278.109    1939.1988    2989.8881   -91.114575    325.26139   -933.79298    -3182.001 
 4358000    261.28264   -3882.6114   -3434.7819   -3882.6114            0    2063.5786    17.595128    20.724737    21.466015    7827.6771    826.27735    2966.6938    2397.7648    868.03512    67.128054   -494.76484   -3199.2066 
 4359000     258.3024   -3884.2381   -3441.5166   -3884.2381            0    2781.6739     17.59239    20.721511    21.462674    7824.0226    3857.1793    2501.1425    1986.6998   -80.851389    -474.6381    1779.4025   -3124.1127 
 4360000     263.9278   -3897.2315   -3444.8683   -3897.2315            0    1923.1239    17.533967    20.652697    21.391399    7746.3329    2391.9524     1114.414    2263.0052    300.50776    337.43656     372.8455   -3227.6085 
 4361000    258.73274   -3871.5709   -3428.1118   -3871.5709            0    1033.1542    17.646759    20.785551    21.529005    7896.7874    532.25467    1581.9388    985.26929   -799.57865   -118.14103   -547.94838    -3309.127 
 4362000    247.57935   -3867.8493   -3443.5067   -3867.8493            0    2232.2892    17.547365    20.668478    21.407745    7764.1038    4246.0498    1867.0059    583.81189   -89.285711    533.57421   -825.10262   -3190.7413 
 4363000    264.45409    -3913.585   -3460.3197    -3913.585            0     2514.728    17.438804    20.540607      21.2753    7620.8892    3635.1017    2314.4282    1594.6542    233.43628   -639.95858    1230.6341   -3180.8257 
 4364000    267.94668   -3845.6484    -3386.397   -3845.6484            0    3375.3324    17.453284    20.557663    21.292966    7639.8893    2119.3618    3945.8707    4060.7647     1269.259   -738.22938    903.51447   -3010.3176 
 4365000    270.44663    -3891.284   -3427.7477    -3891.284            0    2027.1401    17.505707     20.61941    21.356921    7708.9375    2734.6256    1163.9267     2182.868   -762.85176    1048.8765   -629.63564   -3199.8425 
 4366000    254.62424   -3890.0661   -3453.6489   -3890.0661            0    3942.1693     17.50085     20.61369    21.350996    7702.5234    3712.8652    3613.1257    4500.5171   -71.175396     1121.062   -923.65165   -3010.8116 
 4367000    246.12981   -3895.7304   -3473.8723   -3895.7304            0    2455.1146    17.565764     20.69015    21.430191    7788.5523    1994.1586    1340.4032     4030.782   -1204.3164    403.14761   -907.62344   -3195.0006 
 4368000    250.16987   -3885.7328   -3456.9502   -3885.7328            0    2794.8539    17.440221    20.542277    21.277029    7622.7479     2305.152     2442.425    3636.9846    707.84282   -249.41623    577.27201   -3146.2464 
 4369000    270.60413   -3894.3206   -3430.5144   -3894.3206            0    1734.4135    17.520491    20.636824    21.374958    7728.4861    1794.4112    1366.7617    2042.0675   -126.27765   -699.41253    -1761.782   -3235.0251 
 4370000    247.86292   -3855.4599   -3430.6313   -3855.4599            0    1717.9969    17.552128    20.674088    21.413555    7770.4278    2750.8634    377.54562    2025.5817    721.54326   -721.76773    1096.9619   -3235.9415 
 4371000    263.40239   -3883.7604   -3432.2977   -3883.7604            0    2905.0628    17.511059    20.625714    21.363451    7716.0103    2390.8297    2679.3043    3645.0544   -561.01642   -467.43027    -2035.892   -3105.3907 
 4372000    270.01507   -3869.7057   -3406.9091   -3869.7057            0    2017.1223     17.49495     20.60674    21.343798    7694.7357    2344.8734    1690.1003    2016.3932   -96.948989    343.23197    367.34455    -3180.548 
 4373000    244.89497   -3876.8323   -3457.0907   -3876.8323            0    2194.3136    17.596952    20.726885    21.468241    7830.1118    2301.5455    967.09104    3314.3043    731.08021   -1311.4788    -5.848798    -3206.513 
 4374000    264.45486   -3858.2839   -3405.0173   -3858.2839            0    3262.1571     17.53286    20.651394    21.390049    7744.8661    3169.2535    3589.5344    3027.6833   -1323.0929     874.4858    1742.0358   -3036.5537 
 4375000     278.8154   -3830.6369   -3352.7569   -3830.6369            0    2835.8821    17.653124    20.793048     21.53677    7905.3351    2085.3936     2860.008    3562.2449    211.09542    494.54734    1518.9928   -3025.8046 
 4376000    267.66519   -3852.6507   -3393.8817   -3852.6507            0    2236.0281    17.549609    20.671121    21.410482    7767.0823    2601.7664    2376.5372    1729.7806    200.09065    681.54574    740.88405   -3140.5958 
 4377000    256.27789    -3831.469   -3392.2175    -3831.469            0    3703.7114    17.455574     20.56036    21.295759    7642.8964    4684.7094    2433.4143    3993.0104   -933.83084   -1522.3859   -358.61152   -2979.3877 
 4378000    259.15968   -3866.1007   -3421.9099   -3866.1007            0    3258.8951    17.512933    20.627922    21.365738    7718.4888    3365.3431    3849.3806    2561.9617    423.89718    1063.6548    54.108977   -3055.0683 
 4379000    270.11063    -3866.608   -3403.6477    -3866.608            0    2296.8536    17.556846    20.679646    21.419312     7776.696    2478.1976    1567.7451    2844.6183    38.272738    243.92046   -59.833126   -3143.1497 
 4380000    255.84021   -3884.4834    -3445.982   -3884.4834            0     3509.093    17.410904    20.507745    21.241262    7584.3707    4242.5525    3207.3176     3077.409    701.66558    24.535767   -1126.5237   -3057.8403 
 4381000    249.53453   -3876.8719   -3449.1783   -3876.8719            0    2243.3305    17.482854    20.592493    21.329041    7678.7861     3035.167    3126.4629    568.36144    940.42489   -793.61286   -650.61057   -3197.9539 
 4382000    262.30939   -3816.9811   -3367.3918   -3816.9811            0    3067.3915    17.446538    20.549717    21.284735    7631.0333    4248.3469    2976.0033    1977.8243   -321.92036   -890.32545    271.33786   -3026.0194 
 4383000    256.28833   -3847.7602   -3408.4908   -3847.7602            0     3587.456    17.449982    20.553774    21.288938    7635.5543    3895.7121    5423.6017     1443.054   -915.57675    2.6621058    542.95175   -3009.0035 
 4384000    258.40858   -3896.7126   -3453.8091   -3896.7126            0    1345.3868     17.55971    20.683019    21.422805    7780.5019    1087.7406       2448.9    499.51981    70.714528     1669.248   -113.58963   -3301.1472 
 4385000    249.57715   -3908.6859   -3480.9192   -3908.6859            0    2710.7854    17.551954    20.673884    21.413343    7770.1972    2781.2688    3188.8948    2162.1925   -640.28975    1679.4604    1169.1342    -3173.732 
 4386000    266.92635   -3871.4046    -3413.902   -3871.4046            0    3317.1301    17.593592    20.722928    21.464142    7825.6273    3331.2489    3039.7245     3580.417   -1180.6025    969.81023    327.90805   -3035.3221 
 4387000    253.06872   -3883.0954   -3449.3443   -3883.0954            0    2108.2095    17.579965    20.706877    21.447516    7807.4571    1621.9698    1505.4049    3197.2538    473.04319    1076.8793    1155.9815   -3209.2956 
 4388000    268.91942   -3888.0564   -3427.1377   -3888.0564            0    2338.3036    17.562548    20.686362    21.426268    7784.2749    1717.4959     3058.343     2239.072   -1532.9719    1104.9775    746.72545   -3161.6802 
 4389000    243.30096   -3910.4634   -3493.4538   -3910.4634            0     2261.793    17.576429    20.702712    21.443203    7802.7474    2775.3982    2165.1892    1844.7916   -723.57149    1452.2937    180.67046    -3236.073 
 4390000    264.47849   -3867.5181    -3414.211   -3867.5181            0     2290.631    17.548482    20.669794    21.409107    7765.5863    1699.8046    3490.8387    1681.2498   -933.38827     957.5407     957.1102   -3154.7899 
 4391000    247.53054   -3890.7772   -3466.5183   -3890.7772            0    2217.0408    17.558994    20.682176    21.421932    7779.5504    2035.7771    1779.2277    2836.1177    7.4581212    -746.9623    343.98065   -3214.9801 
 4392000    262.59984   -3904.9742    -3454.887   -3904.9742            0    1824.8442    17.628926    20.764547    21.507249    7872.8717    2337.2445    1461.9174    1675.3706    253.52825    628.50736    7.5043395   -3245.3625 
 4393000    249.40713    -3880.574   -3453.0987    -3880.574            0    2088.2427    17.573328     20.69906     21.43942    7798.6184    3102.5725    1615.8999    1546.2558   -938.67268    465.52501   -165.91816   -3215.5927 
 4394000    263.86288   -3900.9219   -3448.6699   -3900.9219            0    1446.0832    17.630318    20.766185    21.508946    7874.7359    1644.7826    471.16995    2222.2971   -166.54353   -116.86866     798.0701   -3282.5946 
 4395000    261.35429   -3859.7231   -3411.7708   -3859.7231            0    1418.4094    17.544734    20.665379    21.404535     7760.612    833.61267    2619.3581    802.25733    557.00957   -368.72722   -52.332435   -3251.2344 
 4396000     253.2029   -3864.5119   -3430.5308   -3864.5119            0    2187.0263    17.478805    20.587723    21.324101    7673.4519    3819.1427    2563.7658    178.17052   -16.967373   -670.56049    242.78305    -3185.782 
 4397000    255.15865   -3899.5649   -3462.2317   -3899.5649            0    3837.4344    17.455637    20.560435    21.295837    7642.9798    5188.3596     3847.767    2476.1767    782.87802   -826.08136   -155.53348    -3034.492 
 4398000    255.08192   -3893.7068   -3456.5052   -3893.7068            0    2382.1269    17.513836    20.628986    21.366839    7719.6824    2066.8511    3582.4031    1497.1263     674.0692   -1768.6311     645.8404   -3188.3166 
 4399000    277.93948   -3858.4463   -3382.0676   -3858.4463            0    1513.0504    17.648053    20.787076    21.530584    7898.5253    1254.1151    2008.3475    1276.6885     1661.326    928.52327    132.28189   -3207.7764 
 4400000    258.68712   -3872.4895   -3429.1086   -3872.4895            0    3515.6925    17.603598    20.734714    21.476349    7838.9871    3906.3361    1283.1916    5357.5499    762.69757    374.91709    -62.81779    -3027.182 
 4401000    270.52583   -3871.2318   -3407.5598   -3871.2318            0    1618.7097    17.637562    20.774718    21.517784    7884.4471    311.51621     3010.699    1533.9138    238.83078   -581.17661   -422.86127   -3221.4299 
 4402000    264.97471   -3903.1009   -3448.9433   -3903.1009            0    1981.3752    17.532732    20.651242    21.389892    7744.6958    889.89588    2605.8561    2448.3736    291.05639    1.4608728    643.35477   -3225.1501 
 4403000    267.48832   -3874.0259   -3415.5601   -3874.0259            0    3546.1695    17.590239    20.718978    21.460051    7821.1536    4829.1217    3588.5034    2220.8834   -101.46444    620.31141    477.52669   -3011.0716 
 4404000    252.96925   -3894.2902   -3460.7096   -3894.2902            0    3535.1889    17.511241    20.625929    21.363673    7716.2513    2284.1129     4291.015    4030.4389    1066.3027   -270.73806   -644.95878    -3062.882 
 4405000    253.70319   -3860.5058   -3425.6672   -3860.5058            0    4636.8843    17.489607    20.600447     21.33728    7687.6877    3347.5337    4957.6384    5605.4808    69.789926    768.50332   -849.96302   -2905.7934 
 4406000    246.11314   -3906.7323   -3484.9028   -3906.7323            0    1776.4193     17.50239    20.615503    21.352875    7704.5567    431.42233    3384.7978    1513.0378   -1229.5882    147.16959   -622.06875   -3285.2989 
 4407000    252.43965   -3876.3321   -3443.6592   -3876.3321            0    2594.6292    17.496101    20.608096    21.345203     7696.255    1868.7411    2589.7942    3325.3524    9.8740907    1546.0905   -935.37552   -3152.4329 
 4408000      263.004    -3898.258   -3447.4781    -3898.258            0    5678.8799    17.440849    20.543017    21.277796    7623.5717    6389.4376    5924.8845    4722.3175    335.96069    1935.3549    907.37342    -2816.089 
 4409000    264.31878   -3890.4458   -3437.4125   -3890.4458            0    3720.4379    17.495294    20.607146    21.344218    7695.1902    3563.2694    4511.0441    3087.0001   -318.07019    877.63278    768.99404   -3019.8809 
 4410000    265.64526   -3842.2581   -3386.9512   -3842.2581            0    2353.8923    17.577854     20.70439    21.444941    7804.6447    1981.3148    2112.2817    2968.0803       1178.4   -755.42951   -49.851279   -3119.0248 
 4411000     244.5007   -3858.9947   -3439.9288   -3858.9947            0    2412.9796    17.486053    20.596261    21.332944    7683.0021    3231.7785    2477.9584    1529.2018    518.64604   -385.19378    141.24426   -3169.5576 
 4412000    254.01309   -3864.3039   -3428.9342   -3864.3039            0    4361.2769    17.484044    20.593894    21.330492    7680.3538    3169.5894    6758.2987    3155.9427   -889.53607    88.821518    20.418891   -2940.4272 
 4413000    257.93967    -3856.972   -3414.8723    -3856.972            0    1749.7918    17.583432     20.71096    21.451746    7812.0771    1647.4866    2078.7461    1523.1425   -127.58969    952.94309   -726.49094   -3215.5165 
 4414000    258.59409   -3856.4839   -3413.2625   -3856.4839            0    2880.5526    17.459745    20.565273    21.300848    7648.3765    2651.6112    2298.1577    3691.8888   -234.12321   -126.81929   -468.33081   -3091.9549 
 4415000    257.78468   -3866.3189   -3424.4848   -3866.3189            0     4311.505    17.450965    20.554932    21.290136    7636.8441    3288.6967    5214.8399    4430.9784    1276.6257    287.66563    77.575021   -2944.2886 
 4416000    255.50799   -3861.4423   -3423.5103   -3861.4423            0    2505.2406    17.576407    20.702686    21.443175    7802.7176    2936.5338    2357.8657    2221.3223    551.55404   -443.86143    -1010.482   -3138.4274 
 4417000    251.47187   -3872.6504   -3441.6362   -3872.6504            0    2185.3574    17.481502      20.5909    21.327391    7677.0043   -440.77164    4283.0086    2713.8352    1954.5721   -544.54608   -374.87904   -3196.9609 
 4418000    266.75098   -3825.8126   -3368.6105   -3825.8126            0    3003.1523    17.505395    20.619043    21.356541    7708.5263    5031.5676    1416.0235    2561.8657   -304.49648   -1534.9758    716.56063   -3030.9933 
 4419000    268.16613   -3843.4531   -3383.8256   -3843.4531            0    4153.5621    17.496851    20.608979    21.346117    7697.2439    6214.0609     2033.933    4212.6925    289.92739   -288.66944   -1908.4812   -2917.5616 
 4420000    255.32834   -3850.8508   -3413.2268   -3850.8508            0    3632.7807     17.56198    20.685693    21.425575    7783.5197    4245.8493    1626.7131    5025.7796   -199.34746    729.12292    1269.8358    -3000.853 
 4421000    258.44339    -3874.916   -3431.9529    -3874.916            0    2630.5308    17.610647    20.743015    21.484948    7848.4065    2667.3348    2926.8188    2297.4387    -306.1553    98.674432   -302.29276   -3130.8598 
 4422000    256.91346    -3873.874   -3433.5331    -3873.874            0    1988.3066    17.576836    20.703191    21.443699    7803.2887    2202.3497    1598.8665    2163.7037    1300.0729    394.31123    406.15826   -3207.2579 
 4423000    254.57852   -3891.9076   -3455.5687   -3891.9076            0    1778.2654    17.663642    20.805437    21.549602    7919.4738    1038.0588    1206.0921    3090.6454   -218.59634     82.58611    1512.1121   -3250.1836 
 4424000    256.04534     -3898.34    -3459.487     -3898.34            0    2823.6645    17.529867    20.647867    21.386396    7740.8995    938.38905    4308.0789    3224.5255   -660.68868    753.25206   -1044.1488   -3140.7148 
 4425000    265.22171   -3865.3544   -3410.7735   -3865.3544            0    2866.9855    17.592184    20.721269    21.462424    7823.7484    1526.5072    2222.5833    4851.8658   -782.74506    343.39429    589.30222   -3083.6466 
 4426000    265.40364   -3922.4874   -3467.5947   -3922.4874            0    2980.0531    17.582746    20.710152    21.450909    7811.1629    3391.0962    3951.3805    1597.6827   -407.93165    226.53858    883.82876   -3128.1136 
 4427000    268.43974    -3889.755   -3429.6585    -3889.755            0    3544.9479    17.523126    20.639927    21.378172    7731.9727    2610.2094    3940.5352    4084.0992    665.55495    184.43954   -916.76027   -3029.9199 
 4428000     269.9099   -3888.7397   -3426.1234   -3888.7397            0    4185.9997    17.558616     20.68173    21.421471    7779.0478    4211.9915    3766.0214    4579.9863    289.18749    948.59859   -1060.1117   -2951.2241 
 4429000    253.22933   -3904.8253   -3470.7989   -3904.8253            0    2888.1501     17.69096    20.837614     21.58293    7956.2755    306.56924    4166.7252    4191.1558   -808.97847    441.77178    681.22262    -3135.675 
 4430000    258.28748   -3905.2777   -3462.5818   -3905.2777            0    1740.1698    17.640376    20.778032    21.521217    7888.2212    242.96907    1828.7447    3148.7957    304.29675    1315.4444   -514.53865   -3262.3899 
 4431000    265.53814   -3899.5382   -3444.4149   -3899.5382            0    2702.6885    17.566731    20.691288     21.43137    7789.8378    2956.6696    1009.8166    4141.5793    287.78914   -137.04191   -413.69069   -3137.3711 
 4432000    288.05208   -3916.3876   -3422.6762   -3916.3876            0    3592.3512    17.486231    20.596471    21.333161    7683.2371    2255.6145    4392.6005    4128.8388   -677.64364   -809.39876   -669.17297   -3020.1455 
 4433000    255.02115   -3916.0973   -3478.9998   -3916.0973            0    3798.5584     17.53449    20.653313    21.392037    7747.0261    4277.4267     3114.297    4003.9515    1720.1654    233.00353   -350.85492   -3049.8294 
 4434000    254.34344   -3896.5323   -3460.5964   -3896.5323            0    4525.6972    17.390508    20.483721    21.216379    7557.7479    5102.5321    3296.0695      5178.49   -1089.0015    470.40849    1887.3283    -2961.765 
 4435000    270.26733   -3889.5807   -3426.3517   -3889.5807            0    3238.6993    17.463632    20.569852    21.305591    7653.4867    2476.6839    4481.1587    2758.2553   -592.34845    2149.5165   -1107.0538   -3064.8537 
 4436000    257.92563   -3838.8364   -3396.7607   -3838.8364            0    2428.9834    17.557371    20.680264    21.419952    7777.3935    684.55861    3265.3115    3337.0802   -343.08978     1311.211    376.34049   -3121.2525 
 4437000    254.97646   -3880.3397   -3443.3188   -3880.3397            0    2281.3264    17.537896    20.657325    21.396192    7751.5409    2176.4338    2101.6862    2565.8592    655.16021    446.15618    87.787666   -3185.4188 
 4438000    280.00439   -3884.1663   -3404.2484   -3884.1663            0    4621.8582    17.506378    20.620201    21.357741    7709.8249    4849.6442    4179.6275    4836.3031    248.48426    1034.7688    353.76143   -2884.5672 
 4439000    258.61709   -3875.5659   -3432.3051   -3875.5659            0    4867.7441    17.399694    20.494541    21.227586    7569.7306    3097.8522    6517.7093    4987.6709   -1384.2003   -2195.7154      817.253   -2894.9219 
 4440000    290.04253   -3871.2134   -3374.0904   -3871.2134            0    3209.9784    17.537879    20.657305    21.396172    7751.5191    2832.1207     3495.412    3302.4026     173.4982    919.47668   -202.29826   -3011.2089 
 4441000    275.63768   -3855.5154   -3383.0819   -3855.5154            0    2308.6943    17.531074    20.649289    21.387869    7742.4988      2150.07    2651.4237    2124.5891     -43.4995    59.377954   -303.85116   -3122.3924 
 4442000    267.21882   -3851.9933   -3393.9894   -3851.9933            0    3311.0564    17.489774    20.600643    21.337483    7687.9077    2643.7407     4829.967    2459.4614   -139.94267   -541.80636    1525.0575   -3022.7529 
 4443000    268.73905    -3882.506   -3421.8965    -3882.506            0    1935.0163    17.538564    20.658112    21.397007    7752.4272     2283.554    1774.8687    1746.6263   -946.14545    663.05072     917.8194   -3203.1212 
 4444000     266.2246   -3851.0439    -3394.744   -3851.0439            0    3245.8904     17.50422    20.617659    21.355107    7706.9736    3576.4782    3776.2573    2384.9356    72.379584    962.71849    795.28107   -3029.9114 
 4445000    255.43029   -3871.6163   -3433.8175   -3871.6163            0    2602.5827    17.503088    20.616326    21.353727    7705.4788    3488.4189    2934.1747    1385.1547    1343.8336   -398.28553    210.11166   -3141.3483 
 4446000    246.96614   -3865.7427   -3442.4511   -3865.7427            0    2141.0093    17.620332    20.754423    21.496763    7861.3625     2386.578    2179.6238    1856.8263   -316.59403   -423.46117     66.62075   -3196.9846 
 4447000    269.00719    -3894.759   -3433.6899    -3894.759            0    4144.9388    17.461974    20.567899    21.303567    7651.3065    3585.6845    4192.0875    4657.0443   -165.41678    36.580767    1055.0267   -2971.1709 
 4448000    260.64766    -3863.407   -3416.6658    -3863.407            0     2079.599    17.599569    20.729968    21.471433    7833.6053    2721.3812    848.83421    2668.5814    2362.1875   -212.02351    195.37691   -3179.0818 
 4449000    272.36178   -3856.5055   -3389.6867   -3856.5055            0    3170.6061    17.559211    20.682431    21.422196    7779.8385    1569.1919    3103.8683    4838.7581   -563.40228    808.68014    164.99416   -3029.9467 
 4450000    259.34676   -3855.2365    -3410.725   -3855.2365            0    3709.2633    17.527166    20.644686    21.383101    7737.3218    2583.0466    4278.5448    4266.1986   -137.87186   -351.05766   -720.61506   -2992.1684 
 4451000    262.36184    -3866.506   -3416.8268    -3866.506            0    3602.4267    17.518044    20.633942    21.371973    7725.2482    1870.1031    3467.3375    5469.8394     548.5545   -687.62113    74.560339     -3010.96 
 4452000    259.13928   -3889.3079    -3445.152   -3889.3079            0    1629.2185    17.569604    20.694673    21.434876    7793.6613    1599.3562    1800.1653    1488.1341   -204.23472    244.81378    508.32325   -3259.9709 
 4453000    248.66341    -3900.772   -3474.5714    -3900.772            0    4093.0818    17.525541    20.642773    21.381119    7735.1707    4088.2038    3739.5095    4451.5321     463.0071     361.0555   -617.16152   -3012.8328 
 4454000    254.60344   -3898.2539   -3461.8723   -3898.2539            0    2488.7146    17.543364    20.663766    21.402863    7758.7941    1524.3426    2295.1699    3646.6312   -466.52318   -931.97885    -193.8718   -3180.2642 
 4455000    250.66567   -3908.0896   -3478.4573   -3908.0896            0    2803.8693    17.542004    20.662164    21.401204    7756.9897    2270.1311    2834.0228    3307.4541    483.84273   -325.70688   -611.19664   -3161.2619 
 4456000    254.86702   -3913.5177   -3476.6844   -3913.5177            0    2626.1628    17.620767    20.754936    21.497294    7861.9447    3099.9479    2396.5745    2381.9659   -33.439142    98.496531   -512.24839   -3175.5727 
 4457000    262.74797   -3916.8549   -3466.5138   -3916.8549            0    1379.6323    17.653282    20.793235    21.536963    7905.5482   -756.12553     2405.311    2489.7113    1297.0337   -375.02062    894.31605   -3307.4501 
 4458000     261.1988   -3888.3682   -3440.6824   -3888.3682            0    4886.6833    17.553113    20.675249    21.414757    7771.7365    5115.1848    4630.1914    4914.6736   -156.77579    968.35251    129.76778    -2886.812 
 4459000    258.72385   -3898.6823   -3455.2384   -3898.6823            0    3910.8408    17.521109    20.637552    21.375712    7729.3037    3927.0101    2791.5224    5013.9897    1249.7851   -169.13332    484.34281   -3014.3929 
 4460000    259.58906   -3840.7351   -3395.8083   -3840.7351            0    3268.1145    17.540175    20.660009    21.398973    7754.5636    2332.2546    1889.9187    5582.1702   -228.76278    -640.3775   -389.33741   -3026.2096 
 4461000    258.73276   -3898.0434   -3454.5843   -3898.0434            0     3540.709    17.514941    20.630288    21.368188    7721.1442    3216.2619    3055.6174    4350.2476   -1374.2271   -199.79594   -1142.8847   -3055.8829 
 4462000     263.8634   -3888.1973   -3435.9445   -3888.1973            0    3268.5723    17.558404     20.68148    21.421212    7778.7656    2656.8432    3246.6113    3902.2623    402.10345   -386.39121   -325.98929   -3065.1402 
 4463000    266.72306   -3859.9251   -3402.7709   -3859.9251            0    4194.0001    17.463218    20.569365    21.305086    7652.9424    4518.5266    3752.7364    4310.7375    1392.8266    505.22622   -141.94126   -2934.6772 
 4464000    262.93949   -3896.7855   -3446.1162   -3896.7855            0    1539.0171      17.5402    20.660039    21.399003    7754.5971    2284.8484    589.78924    1742.4138    556.50034    280.30137   -1712.1269   -3272.0644 
 4465000    233.60951   -3893.0641   -3492.6654   -3893.0641            0    3670.0166    17.496618    20.608705    21.345834    7696.9374    2360.2696    2936.1981    5713.5821   -130.26185   -1151.1347   -925.53314   -3080.6989 
 4466000     250.3039   -3879.6592   -3450.6469   -3879.6592            0    2484.3536    17.608983    20.741055    21.482918     7846.182    3537.4621    1783.6752    2131.9236   -44.849793    404.37261   -403.23213    -3166.366 
 4467000    244.76983   -3864.2882   -3444.7611   -3864.2882            0    4046.8282    17.577647    20.704147    21.444689    7804.3698    2909.3814     3922.883    5308.2202    503.97667   -196.89147   -689.37989   -2984.1562 
 4468000    258.36809    -3869.244   -3426.4099    -3869.244            0    1944.8705    17.568165    20.692977     21.43312    7791.7455    1765.0753    2171.6104    1897.9258    359.21033    947.26389    620.46941   -3205.4053 
 4469000    261.65739    -3847.273   -3398.8012    -3847.273            0    3171.5908    17.454245    20.558795    21.294138    7641.1515    2606.0199    2811.9064    4096.8459   -693.64155   -980.10761    1292.8621   -3045.3644 
 4470000    251.35963   -3892.3079   -3461.4861   -3892.3079            0    4169.4834    17.439501    20.541428     21.27615    7621.8034    2720.1211    5215.4036    4572.9255    102.62723   -1418.3476    60.505336   -2998.0223 
 4471000    255.04568   -3877.8201   -3440.6805   -3877.8201            0    3090.6525    17.540145    20.659974    21.398936    7754.5236    3252.3634    3694.2505    2325.3435    -627.1094   -53.739695     456.5102   -3091.1532 
 4472000    253.94178   -3897.7761   -3462.5286   -3897.7761            0    3464.5883     17.47208    20.579802    21.315897    7664.5984    2185.3107    3837.7969    4370.6573    61.759607    273.11307   -1899.2324   -3075.2558 
 4473000    243.22711   -3879.8536   -3462.9707   -3879.8536            0    2518.3911     17.55087    20.672607     21.41202     7768.757    2036.0097    2444.1387    3075.0249   -226.71965   -1390.4315   -571.20792   -3177.6386 
 4474000    259.30965   -3870.4014   -3425.9536   -3870.4014            0    2942.1888    17.523759    20.640673    21.378945    7732.8106    2109.1836    3061.5795    3655.8033   -1606.5833    -43.86519   -159.27909   -3094.1479 
 4475000     254.7731   -3874.2768   -3437.6044   -3874.2768            0    2182.9961     17.51204     20.62687    21.364648    7717.3081    2187.8513    1612.7134    2748.4234   -253.78368     -287.631   -618.36241   -3191.9103 
 4476000    254.25856   -3880.7604   -3444.9699   -3880.7604            0     2480.503    17.581479     20.70866    21.449364    7809.4748    3251.7368    1630.7656    2559.0065    900.10105    -22.77746    460.58366   -3162.4576 
 4477000    281.62911   -3852.3984   -3369.6957   -3852.3984            0    3525.9557     17.55007    20.671664    21.411044    7767.6945    6018.2885    984.58685    3574.9917   -703.16239    -265.4934   -1098.9437   -2970.2619 
 4478000    261.71383   -3868.9075   -3420.3389   -3868.9075            0    3101.1333    17.578328    20.704949     21.44552    7805.2769    5798.8338    1327.4427    2177.1233   -131.05632    307.07034   -1852.6286   -3067.3309 
 4479000    265.06666   -3888.4602    -3434.145   -3888.4602            0    2500.0316    17.587302    20.715519    21.456468    7817.2368    5172.9187    2745.9233   -418.74701    231.31805    1097.2816    -833.0495   -3149.1255 
 4480000    271.63216   -3855.2765   -3389.7083   -3855.2765            0    3259.1767    17.521424    20.637923    21.376096    7729.7203    4157.1723    3123.9122    2496.4457    -753.9639    -532.2182   -557.71149   -3022.3011 
 4481000    270.91654   -3884.2279   -3419.8862   -3884.2279            0    1688.0574    17.591777    20.720789    21.461926    7823.2048    431.50424    1501.3965    3131.2714    -814.5306   -120.52834   -1332.7322     -3227.29 
 4482000    269.05552   -3894.6299   -3433.4779   -3894.6299            0    2203.9758    17.582542    20.709911     21.45066    7810.8905    932.49012    4797.1974    882.24004   -486.18143    198.76197    1140.6481   -3182.4146 
 4483000    245.69639   -3881.5659   -3460.4507   -3881.5659            0    3397.2155    17.518469    20.634443    21.372492    7725.8106    3821.7436    3169.1304    3200.7724   -1665.1507    475.26419    265.07615   -3077.6761 
 4484000    275.07414   -3898.5054   -3427.0377   -3898.5054            0    3865.2477    17.453174    20.557533    21.292831    7639.7443    4786.9437    4546.3766    2262.4227     660.0003    765.01417    1017.6095   -2996.3802 
 4485000    258.32522   -3905.4976    -3462.737   -3905.4976            0    2106.9967    17.531736    20.650069    21.388677    7743.3763    3398.9669    2207.7202    714.30287   -870.06592    -212.3122     626.5853   -3224.7956 
 4486000    263.14663   -3878.8577   -3427.8334   -3878.8577            0    2301.3435    17.540888    20.660849    21.399843    7755.5094    2792.1472    1797.0104    2314.8728    269.31951   -740.05295   -150.46955   -3167.5373 
 4487000    264.67399   -3870.2185   -3416.5764   -3870.2185            0    1404.5236    17.601085    20.731753    21.473282    7835.6295    783.83906    1566.5545    1863.1772    420.96384    355.16175    1956.7652    -3256.075 
 4488000    265.22538    -3876.756   -3422.1688    -3876.756            0    1471.0527    17.571516    20.696925    21.437208    7796.2053    1240.7235   -193.96362    3366.3984     877.4983    389.84714   -203.64745   -3254.9106 
 4489000    266.24324    -3907.573   -3451.2412    -3907.573            0    4026.5301    17.525928    20.643228    21.381591    7735.6831    5835.4456    2143.8701    4100.2745     1246.748    270.62615   -114.53541   -2996.9801 
 4490000    256.88601   -3881.1307   -3440.8369   -3881.1307            0     2895.618    17.608877    20.740931    21.482789    7846.0407    3415.3665     3471.356    1800.1316   -105.88261    663.99539   -633.32855   -3109.5016 
 4491000    264.97448   -3916.0146   -3461.8574   -3916.0146            0     1844.476    17.620834    20.755016    21.497377    7862.0356    1222.6957    2534.3126    1776.4197   -617.95612    502.28039    516.69261   -3250.3703 
 4492000    253.63458   -3871.8781   -3437.1571   -3871.8781            0    2317.6611    17.738368    20.893454    21.640767    8020.4098    3456.9722    2674.4123    821.59871   -1146.4076   -266.51059    251.08763   -3166.0615 
 4493000    281.33792   -3878.3552   -3396.1517   -3878.3552            0    3408.7763     17.56368    20.687695    21.427649    7785.7802    3676.1536    3739.8304    2810.3448   -696.50639   -1241.6203    1413.9485   -3009.0932 
 4494000    251.65096   -3842.0916   -3410.7704   -3842.0916            0    3633.0561      17.5049    20.618461    21.355938    7707.8726     5558.576    3336.0885    2004.5038     85.28267   -249.96788      646.377   -3002.3735 
 4495000    261.17064   -3837.8362   -3390.1986   -3837.8362            0    2738.9093    17.523088    20.639883    21.378127    7731.9232    3078.4325    1433.1199    3705.1753   -82.157694    1409.3297    30.555628   -3081.3533 
 4496000    262.35204   -3895.2855   -3445.6231   -3895.2855            0     3035.759    17.467326    20.574202    21.310096    7658.3433    1610.8705    2706.7761    4789.6304    206.62782    133.92677   -1050.9732   -3106.5619 
 4497000    250.76876   -3898.0823   -3468.2732   -3898.0823            0    4478.8726    17.527047    20.644546    21.382956    7737.1642    4884.1648    4311.2172    4241.2358    774.89183   -125.96234    502.58095   -2962.8835 
 4498000    261.58403   -3850.1024   -3401.7563   -3850.1024            0    2065.1414    17.536182    20.655306    21.394101    7749.2683    2365.3271    794.05196    3036.0451   -1111.6476   -412.88313     1073.308   -3168.3641 
 4499000    240.99798   -3850.1863   -3437.1241   -3850.1863            0    2367.9982    17.451367    20.555405    21.290626    7637.3714    1722.0904    2633.4487    2748.4553   -85.266148   -903.69049    2491.0406   -3173.3688 
 4500000    272.03619   -3863.0954   -3396.8347   -3863.0954            0    1740.3089    17.503823    20.617191    21.354623    7706.4493    1718.9981     2116.008    1385.9206   -333.99257    731.49048   -1456.1162   -3201.2402 
Loop time of 426.366 on 64 procs for 250000 steps with 864 atoms

Performance: 101.321 ns/day, 0.237 hours/ns, 586.351 timesteps/s
99.0% CPU use with 64 MPI tasks x 1 OpenMP threads

MPI task timing breakdown:
Section |  min time  |  avg time  |  max time  |%varavg| %total
---------------------------------------------------------------
Pair    | 19.85      | 24.261     | 28.539     |  45.4 |  5.69
Bond    | 0.27169    | 0.27958    | 0.28767    |   0.7 |  0.07
Kspace  | 191.92     | 200.84     | 211.54     |  27.8 | 47.10
Neigh   | 4.6644     | 5.5248     | 6.4489     |  18.9 |  1.30
Comm    | 84.658     | 93.193     | 102.03     |  40.2 | 21.86
Output  | 1.6717     | 1.6744     | 1.6841     |   0.3 |  0.39
Modify  | 91.629     | 94.269     | 98.081     |  13.7 | 22.11
Other   |            | 6.324      |            |       |  1.48

Nlocal:        13.5000 ave          19 max           9 min
Histogram: 1 3 5 15 12 9 7 6 2 4
Nghost:        2088.22 ave        2123 max        2055 min
Histogram: 4 5 10 7 6 7 13 3 7 2
Neighs:        4007.52 ave        6107 max        2578 min
Histogram: 3 7 16 10 7 8 6 2 3 2

Total # of neighbors = 256481
Ave neighs/atom = 296.85301
Ave special neighs/atom = 2.0000000
Neighbor list builds = 13920
Dangerous builds = 1

unfix		3
unfix		2
unfix		1

write_data	data.final.${pid}
write_data	data.final.0
System init for write_data ...
PPPM initialization ...
  extracting TIP4P info from pair style
  using 12-bit tables for long-range coulomb (../kspace.cpp:340)
  G vector (1/distance) = 0.37329363
  grid = 24 24 25
  stencil order = 5
  estimated absolute RMS force accuracy = 0.0031809487
  estimated relative force accuracy = 9.5793325e-06
  using double precision FFTW3
  3d grid and FFT values/proc = 2730 288
Last active /omp style is kspace_style pppm/tip4p/omp
WARNING: Not all mixed pair coeffs generated from mixing. Use write_data with 'pair ij' option to store all pair coeffs. (../write_data.cpp:312)

write_restart   restart.lmp.${pid}
write_restart   restart.lmp.0
System init for write_restart ...
PPPM initialization ...
  extracting TIP4P info from pair style
  using 12-bit tables for long-range coulomb (../kspace.cpp:340)
  G vector (1/distance) = 0.37329363
  grid = 24 24 25
  stencil order = 5
  estimated absolute RMS force accuracy = 0.0031809487
  estimated relative force accuracy = 9.5793325e-06
  using double precision FFTW3
  3d grid and FFT values/proc = 2730 288
Last active /omp style is kspace_style pppm/tip4p/omp
Total wall time: 0:07:09
