LAMMPS (30 Jul 2021)
  using 1 OpenMP thread(s) per MPI task
package omp 0
using multi-threaded neighbor list subroutines
echo both

include		in.partitions
variable        pid world 0
include		in.temp
variable        temperature equal 269.11
variable	tempDamp equal 100.0
include		in.pressure
variable        pressure equal 11625.0
variable        pressureDamp equal 1000.0 # This is 1 ps
include		in.seed
variable        seed world 745823

units		real
atom_style	full
read_restart	restart.lmp.${pid}
read_restart	restart.lmp.0
Reading restart file ...
  restart file = 30 Jul 2021, LAMMPS = 30 Jul 2021
  restoring atom style full from restart
  orthogonal box = (0.72545646 1.9460232 0.88505519) to (17.482116 21.683155 21.328141)
  4 by 4 by 4 MPI processor grid
  restoring pair style lj/cut/tip4p/long/omp from restart
  restoring bond style harmonic/omp from restart
  restoring angle style harmonic/omp from restart
  864 atoms
  576 bonds
  288 angles
Finding 1-2 1-3 1-4 neighbors ...
  special bond factors lj:    0        0        0       
  special bond factors coul:  0        0        0       
     2 = max # of 1-2 neighbors
     1 = max # of 1-3 neighbors
     1 = max # of 1-4 neighbors
     2 = max # of special neighbors
  special bonds CPU = 0.172 seconds
  read_restart CPU = 0.428 seconds
include 	in.setup
variable	out_freq equal 1000
variable	out_freq2 equal 10000
variable	out_freq3 equal 1000

timestep	2.0

neigh_modify    delay 7 every 1

include		in.tip4p
# This is TIP4P/Ice

# create groups ###
group ox type 2
288 atoms in group ox
group hy type 1
576 atoms in group hy

# set charges - beside manually ###
set group ox charge -1.1794
Setting atom values ...
  288 settings made for charge
set group hy charge 0.5897
Setting atom values ...
  576 settings made for charge

# ### TIP3P Potential Parameters ###
pair_style lj/cut/tip4p/long/omp 2 1 1 1 0.1577 8.5
pair_coeff 1 1*2 0.000 0.000
pair_coeff 2 2 0.21084 3.1668
bond_style  harmonic
bond_coeff  1 450 0.9572
angle_style harmonic
angle_coeff 1 55 104.52
kspace_style pppm/tip4p/omp 1.0e-5
pair_modify tail yes

thermo          ${out_freq}
thermo          1000
thermo_style    custom step temp pe etotal epair emol press lx ly lz vol pxx pyy pzz pxy pxz pyz enthalpy

restart 	${out_freq3} restart.lmp.${pid} restart2.lmp.${pid}
restart 	1000 restart.lmp.${pid} restart2.lmp.${pid}
restart 	1000 restart.lmp.0 restart2.lmp.${pid}
restart 	1000 restart.lmp.0 restart2.lmp.0


include         in.dump
dump            myDump all atom ${out_freq2} dump.water.${pid}
dump            myDump all atom 10000 dump.water.${pid}
dump            myDump all atom 10000 dump.water.0
dump            myDump2 all dcd ${out_freq2} dump.dcd
dump            myDump2 all dcd 10000 dump.dcd
dump_modify     myDump append yes
dump_modify     myDump2 append yes


variable natoms 	equal  "count(all)"                        # NUMBER ATOMS
variable H      	equal  "enthalpy/v_natoms"                 # ENTHALPY-per-atom
variable Vol      	equal  "vol/v_natoms"                 # volume-per-atom
fix AVG all 		ave/time ${out_freq} 1 ${out_freq} v_Vol v_H file vol_enthalpy.dat
fix AVG all 		ave/time 1000 1 ${out_freq} v_Vol v_H file vol_enthalpy.dat
fix AVG all 		ave/time 1000 1 1000 v_Vol v_H file vol_enthalpy.dat


timer           timeout 23:50:00 every 1000
New timer settings: style=normal  mode=nosync  timeout=23:50:00

fix 		1 all shake 1e-6 200 0 b 1 a 1
       0 = # of size 2 clusters
       0 = # of size 3 clusters
       0 = # of size 4 clusters
     288 = # of frozen angles
  find clusters CPU = 0.024 seconds
fix             2 all nph iso ${pressure} ${pressure} ${pressureDamp}
fix             2 all nph iso 11625 ${pressure} ${pressureDamp}
fix             2 all nph iso 11625 11625 ${pressureDamp}
fix             2 all nph iso 11625 11625 1000
fix             3 all temp/csvr ${temperature} ${temperature} ${tempDamp} ${seed}
fix             3 all temp/csvr 269.11 ${temperature} ${tempDamp} ${seed}
fix             3 all temp/csvr 269.11 269.11 ${tempDamp} ${seed}
fix             3 all temp/csvr 269.11 269.11 100 ${seed}
fix             3 all temp/csvr 269.11 269.11 100 745823

run             250000
PPPM initialization ...
  extracting TIP4P info from pair style
  using 12-bit tables for long-range coulomb (../kspace.cpp:340)
  G vector (1/distance) = 0.37532641
  grid = 24 24 24
  stencil order = 5
  estimated absolute RMS force accuracy = 0.0030416153
  estimated relative force accuracy = 9.1597342e-06
  using double precision FFTW3
  3d grid and FFT values/proc = 2535 216
Last active /omp style is kspace_style pppm/tip4p/omp
Neighbor list info ...
  update every 1 steps, delay 7 steps, check yes
  max neighbors/atom: 2000, page size: 100000
  master list distance cutoff = 10.8154
  ghost atom cutoff = 10.8154
  binsize = 5.4077, bins = 4 4 4
  1 neighbor lists, perpetual/occasional/extra = 1 0 0
  (1) pair lj/cut/tip4p/long/omp, perpetual
      attributes: half, newton on, omp
      pair build: half/bin/newton/omp
      stencil: half/bin/3d
      bin: standard
Per MPI rank memory allocation (min/avg/max) = 9.239 | 9.242 | 9.244 Mbytes
Step Temp PotEng TotEng E_pair E_mol Press Lx Ly Lz Volume Pxx Pyy Pzz Pxy Pxz Pyz Enthalpy 
30750000    273.77721   -3788.5539   -3319.3091   -3788.5539            0    11209.929    16.756659    19.737131    20.443085    6761.1088    12568.643    12036.021    9025.1223   -2271.5595    1072.1457    187.23845   -2213.9672 
30751000    276.95648   -3835.4222   -3360.7282   -3835.4222            0    11909.232    16.766076    19.748223    20.454574    6772.5135    15075.346    11060.891    9591.4592    202.25177    52.264043    626.14998   -2184.4514 
30752000    269.74504   -3833.2155   -3370.8817   -3833.2155            0    11341.689    16.782156    19.767163    20.474191    6792.0179    11366.624    11615.543    11042.898   -956.37347     823.0932   -336.83404   -2247.4351 
30753000     271.2852   -3840.8597   -3375.8862   -3840.8597            0    12487.744    16.812159    19.802503    20.510795    6828.5121    12249.526    12390.981    12822.724   -314.16383   -146.56039    488.57828   -2132.2711 
30754000    250.17532   -3849.3417   -3420.5498   -3849.3417            0    10195.334    16.859162    19.857866    20.568139    6885.9453    7399.0682     7678.377    15508.557    521.61728   -371.02069    482.31057    -2396.689 
30755000    258.62813   -3783.3183   -3340.0385   -3783.3183            0    10644.339    16.813859    19.804505    20.512869    6830.5833    10197.945    11330.768    10404.303    1343.1361    393.37329    1867.4054   -2279.6809 
30756000    277.84874    -3836.211   -3359.9878    -3836.211            0    12807.673    16.728779    19.704292    20.409071    6727.4163    13423.336        14320    10679.684   -1192.5398    297.95019    1296.3423   -2103.3954 
30757000    267.47834   -3815.4506   -3357.0019   -3815.4506            0    14706.072    16.701665    19.672356    20.375993    6694.7587     17572.84    14995.453    11549.924   -286.51518    230.40614    527.83379   -1921.1571 
30758000    270.72111   -3830.2734   -3366.2667   -3830.2734            0    12511.925    16.812593    19.803014    20.511324    6829.0406    13573.337    12791.078    11171.361   -543.16736   -1377.6404    774.87737   -2120.1471 
30759000    290.98303   -3825.2358   -3326.5008   -3825.2358            0    13153.456     16.72916    19.704741    20.409536    6727.8762    12612.667    12403.947    14443.755    259.71212   -248.00044    13.259447   -2035.8946 
30760000    273.99691   -3823.3549   -3353.7336   -3823.3549            0    11819.218    16.774238    19.757837    20.464531    6782.4093    10837.846    11939.892    12679.915    1054.3337    157.60971   -462.02856   -2184.6418 
30761000    266.59026   -3803.8986   -3346.9721   -3803.8986            0    14199.592    16.752673    19.732436    20.438222    6756.2842     15631.82    10464.143    16502.812    894.48088    775.11891   -723.10586   -1947.8369 
30762000    276.92769   -3805.6064   -3330.9618   -3805.6064            0    13080.274    16.716621    19.689972    20.394239    6712.7594    11071.682    14371.452    13797.688    791.78458    681.19026    3337.7125   -2050.4198 
30763000    273.49826   -3809.3072   -3340.5406   -3809.3072            0    12211.332    16.737543    19.714615    20.419763    6737.9951    12106.339    11763.333    12764.322     1171.139   -230.34192   -810.91586   -2140.5727 
30764000     270.2134   -3865.9087   -3402.7722   -3865.9087            0    10786.656    16.765345    19.747362    20.453682    6771.6275    11167.977    9226.7793    11965.211   -1267.4534   -563.30448   -349.57566   -2337.5118 
30765000    268.00102   -3839.7334   -3380.3888   -3839.7334            0    11939.144    16.740337    19.717905    20.423172    6741.3698    11370.777    11869.541    12577.113    549.47682    32.234592    857.83903   -2206.5804 
30766000     271.5538   -3849.9783   -3384.5444   -3849.9783            0    12076.576    16.791238     19.77786    20.485271     6803.051    13779.671    11832.327    10617.729    -311.3187   -892.47517   -539.84017   -2186.3606 
30767000    280.58012   -3861.5768    -3380.672   -3861.5768            0    11938.599    16.758976     19.73986    20.445912    6763.9136    13136.014    8401.9363    14277.846    307.41011    242.67172     373.5816    -2202.992 
30768000    262.65747   -3854.8828   -3404.6969   -3854.8828            0    13571.709    16.706493    19.678042    20.381883    6700.5659    11553.488    13661.156    15500.484    1654.7216   -786.22432    717.11263   -2078.4575 
30769000    273.84048   -3856.5303    -3387.177   -3856.5303            0    9895.6984    16.801235    19.789636    20.497468    6815.2097    6015.0009     11971.97    11700.124   -123.25271   -303.04621    -1278.481   -2403.6154 
30770000    273.49862   -3885.8305   -3417.0633   -3885.8305            0    12514.659    16.770359    19.753268    20.459799    6777.7056    11852.289    12572.343    13119.346    1114.7334   -3000.9149   -579.14903   -2180.0407 
30771000    263.07761   -3848.6318   -3397.7258   -3848.6318            0    12654.607    16.757896    19.738588    20.444594    6762.6055    10298.348    14335.878    13329.596   -403.68025   -82.379683    952.93347   -2149.6567 
30772000    272.31065   -3859.0754   -3392.3442   -3859.0754            0    11977.239    16.833775    19.827963    20.537166    6854.8842    11287.068    12944.843    11699.807    2460.3241   -1646.3269   -1385.9046   -2194.9622 
30773000    258.98619   -3834.5923   -3390.6989   -3834.5923            0    11324.961    16.744402    19.722694    20.428132    6746.2828    11369.746    12286.347     10318.79   -577.82914    563.89026   -2694.2223   -2276.4629 
30774000    277.72665     -3794.41   -3318.3961     -3794.41            0    13113.708    16.708791    19.680749    20.384686    6703.3313     14613.05     14720.14    10007.934    1568.7449    1428.4311   -584.57475   -2036.3841 
30775000    266.70359   -3816.8285   -3359.7077   -3816.8285            0    11441.714    16.776847     19.76091    20.467715    6785.5749    12546.464    11143.492    10635.186    971.29502    122.24341   -356.43637   -2227.4282 
30776000    282.78769   -3804.1519   -3319.4635   -3804.1519            0    11398.184    16.738235     19.71543    20.420607    6738.8309    11675.004     12029.66    10489.888     1363.177   -491.67608   -649.52055   -2199.2621 
30777000    269.83168   -3795.3847   -3332.9024   -3795.3847            0     12063.26    16.777479    19.761654    20.468485    6786.3413    10575.609    14458.867    11155.303   -120.15603    518.00286    -1468.533   -2138.9795 
30778000    265.16616    -3866.036   -3411.5503    -3866.036            0    9294.2955    16.828282    19.821493    20.530465    6848.1762    10347.898    8248.3273    9286.6612   -197.34248    402.11856   -155.38111   -2483.2953 
30779000    269.79874   -3873.6937   -3411.2679   -3873.6937            0    13178.303    16.794284    19.781448    20.488987    6806.7544    12351.013    13529.131    13654.767    43.387619   -629.30471   -313.79964   -2103.0639 
30780000    276.31344   -3822.0518     -3348.46   -3822.0518            0     11229.74    16.783435    19.768669    20.475751    6793.5713    10384.866    11482.333    11822.019   -752.76534   -2378.7418    344.89821   -2235.8481 
30781000    276.93038   -3842.8449   -3368.1957   -3842.8449            0    11433.687    16.827949    19.821101    20.530058    6847.7694    9275.0953     11531.85    13494.117   -569.19454    772.59073    794.80461   -2226.3398 
30782000     273.0488   -3855.0523    -3387.056   -3855.0523            0    9411.2401      16.8024    19.791008    20.498889    6816.6276    10471.712    10666.714     7095.295   -83.754491   -552.40192   -1593.3376   -2451.4514 
30783000    275.59001   -3867.7362   -3395.3844   -3867.7362            0    12474.614    16.783963    19.769292    20.476396    6794.2129     12841.52    11583.191     12999.13   -1083.5501    411.89881    513.96861    -2159.317 
30784000    258.45027   -3877.6779    -3434.703   -3877.6779            0    12624.787    16.744086    19.722321    20.427746    6745.9003    12837.699    10663.248    14373.414    254.24407   -899.80809    132.44266   -2192.6507 
30785000    256.34963   -3886.6862   -3447.3117   -3886.6862            0    11840.901    16.757268    19.737848    20.443828    6761.8454      8443.38    13941.686    13137.637   -784.30643   -188.71925    946.78989   -2279.6262 
30786000    256.88954   -3847.0548   -3406.7549   -3847.0548            0    11850.672    16.778718    19.763113    20.469996    6787.8444    11648.303    13323.307    10580.405    78.681043   -953.49111   -114.40366   -2233.6125 
30787000     262.8208   -3803.8442   -3353.3783   -3803.8442            0    13688.481     16.74386    19.722056     20.42747    6745.6277     13357.86    14178.065    13529.519    510.37737    981.89775     -1184.67    -2006.732 
30788000    273.84497    -3854.783   -3385.4221    -3854.783            0    13109.124    16.783023    19.768185    20.475249    6793.0717    14025.598    11012.357    14289.418    1486.1164    249.39514    1171.2897   -2086.7014 
30789000     270.4168   -3833.7056   -3370.2205   -3833.7056            0    11026.721    16.755284    19.735511    20.441407    6759.4439    13956.564    8831.3695    10292.228    742.91796   -1368.2792   -1047.8056   -2283.2112 
30790000    259.86051   -3858.1826   -3412.7905   -3858.1826            0    11683.525    16.789122    19.775369     20.48269    6800.4802    10088.232    11572.416    13389.926    832.02596    112.99579    3216.6065   -2254.0416 
30791000    257.89084   -3800.6535   -3358.6374   -3800.6535            0     12446.26    16.718382    19.692046    20.396388    6714.8816    12074.568    13638.787    11625.426   -388.48297   -1046.5758   -376.96056   -2139.7794 
30792000    265.60805     -3846.44   -3391.1969     -3846.44            0    10758.582    16.767883    19.750351    20.456778     6774.703     10372.64    12299.823    9603.2838   -1516.9338    969.95776   -350.62161   -2328.2264 
30793000    272.31325   -3829.9888   -3363.2532   -3829.9888            0    12274.607     16.76181    19.743198    20.449369    6767.3455    10512.372    12962.451    13348.997    1579.4385   -1455.2126   -255.73007   -2151.8135 
30794000    272.83361   -3850.4655    -3382.838   -3850.4655            0      10899.2     16.82977    19.823245    20.532279    6849.9925    11431.057    11164.435    10102.109   -587.28473    1532.6214    257.58057   -2294.0066 
30795000     258.8953   -3863.4409   -3419.7032   -3863.4409            0    12906.494    16.752522    19.732258    20.438037    6756.1015    13837.777    12985.443    11896.262    1595.5317    253.78008     1434.364   -2148.0159 
30796000    273.87678   -3845.5067   -3376.0912   -3845.5067            0    11656.485    16.802624    19.791271    20.499162    6816.8997    11365.396    10759.428    12844.632   -2393.9912   -1331.5132   -22.273318   -2217.2327 
30797000    267.30402   -3826.8536   -3368.7037   -3826.8536            0    13637.629    16.750278    19.729615      20.4353    6753.3876    12386.097    15058.387    13468.405    841.37438    1514.5401    886.25837   -2025.5168 
30798000    269.49201   -3805.2022   -3343.3021   -3805.2022            0    11063.487    16.850277      19.8474    20.557298     6875.063    10121.048    12084.912    10984.501   -1464.8164    912.02956   -130.89826   -2234.0134 
30799000    270.29424   -3809.1016   -3345.8265   -3809.1016            0    12562.184    16.755308     19.73554    20.441437    6759.4734    10758.365    12882.636    14045.551    458.26113   -1962.3578    813.07773   -2107.4466 
30800000    260.76209   -3816.9343    -3369.997   -3816.9343            0    12614.046     16.76413    19.745931      20.4522    6770.1557    12826.183     12144.58    12871.376   -497.22468    142.19135    2095.7565   -2124.5393 
30801000    266.23025   -3809.2655    -3352.956   -3809.2655            0    10888.241    16.837876    19.832794    20.542169    6859.8955    10413.303    11361.166    10890.253    699.48488    1078.7733    810.78472   -2263.6469 
30802000    274.54071   -3849.7685   -3379.2152   -3849.7685            0    12270.626    16.807334    19.796819    20.504908    6822.6341    12680.513    11986.124     12145.24    82.586865    686.14161    1394.4298   -2158.2741 
30803000    262.08555   -3856.9226    -3407.717   -3856.9226            0    13179.169    16.758536    19.739342    20.445375     6763.381    12138.735     12957.19    14441.583    -1575.988   -54.468334    260.51429   -2107.7636 
30804000    272.60648   -3818.1426   -3350.9044   -3818.1426            0    11180.357    16.837155    19.831944    20.541289    6859.0141    12649.324    10709.394    10182.354    402.25412    1208.3045    14.338399   -2232.5145 
30805000    278.93189   -3861.1241   -3383.0444   -3861.1241            0    10327.386    16.820907    19.812807    20.521467    6839.1766    10268.801     10042.85    10670.506   -1620.0947   -188.47615   -128.39109   -2352.9664 
30806000    277.90629   -3834.1252   -3357.8033   -3834.1252            0    9103.1819    16.894998    19.900076    20.611858    6929.9483    9614.3432    7989.4873    9705.7152    1328.0158   -882.40926    1722.2203   -2437.7794 
30807000    280.81659   -3843.7789   -3362.4688   -3843.7789            0    13104.162     16.71532    19.688439    20.392651    6711.1922    14114.041    10673.503    14524.943    2475.5227   -220.15975    260.45902   -2079.8877 
30808000    272.07973   -3839.8854   -3373.5501   -3839.8854            0    12281.401    16.806142    19.795416    20.503454     6821.183    11113.282    12226.504    13504.416    1003.4068   -2207.3013   -2674.5041   -2151.7969 
30809000    288.80746   -3849.5188   -3354.5127   -3849.5188            0    13923.859    16.743365    19.721473    20.426867    6745.0296    14063.403      13580.4    14127.773    1367.2681    1152.1526    -400.8696   -1984.8319 
30810000    258.42409   -3864.1592   -3421.2292   -3864.1592            0    10791.583    16.790485    19.776974    20.484353    6802.1366    11818.225    10942.915    9613.6089     463.1843    209.48862    698.14513   -2350.6805 
30811000    270.90672   -3841.4086   -3377.0837   -3841.4086            0    11492.565    16.791622    19.778313     20.48574     6803.518    13396.224    11516.171    9565.3003   -491.22374    197.04307    -1205.266   -2236.7646 
30812000    268.24236   -3807.3754   -3347.6172   -3807.3754            0    11601.394    16.841605    19.837186    20.546719    6864.4545    11048.475    12863.699    10892.006    189.18738   -1197.4114    379.64007   -2186.1898 
30813000    281.19539   -3785.1692   -3303.2099   -3785.1692            0    12689.239     16.78651    19.772291    20.479502    6797.3056    13634.036    12053.215    12380.466      251.225    366.79445    -728.1659   -2045.3037 
30814000    265.13866   -3818.9318   -3364.4932   -3818.9318            0    12026.601    16.806491    19.795827     20.50388    6821.6078    10340.752    11840.268    13898.781   -982.50164     21.97027    419.60856    -2168.013 
30815000    262.90272   -3852.3807   -3401.7744   -3852.3807            0    11737.211    16.773016    19.756397     20.46304    6780.9272    12097.656    12355.732    10758.247   -65.552807   -2126.6983    605.37554   -2241.0479 
30816000    271.95873   -3819.9954   -3353.8674   -3819.9954            0    8349.5841    16.899762    19.905687     20.61767    6935.8126    6130.0328    8746.0006    10172.719   -979.14773    184.68146   -523.90704   -2509.2927 
30817000    263.34682   -3865.4564    -3414.089   -3865.4564            0    12737.205    16.830742    19.824391    20.533466    6851.1798    14347.227    13369.272    10495.117   -103.99022    1534.6775   -2761.0445   -2141.4202 
30818000    269.99811   -3854.4117   -3391.6442   -3854.4117            0    14274.808    16.779967    19.764584     20.47152    6789.3605    14937.703    13697.868    14188.854    1936.1045   -170.00167    334.85763   -1978.2118 
30819000    260.29105   -3848.1795   -3402.0496   -3848.1795            0    12896.288    16.715847    19.689059    20.393294    6711.8266    12447.898    12116.278    14124.688     2194.115   -1025.0841    281.07767   -2139.6951 
30820000    268.60853   -3823.9761   -3363.5903   -3823.9761            0    12098.244    16.814555    19.805325    20.513718    6831.4315    13928.263    13208.701    9157.7688   -880.26734   -53.360863   -1798.2771   -2158.2492 
30821000    266.39478   -3846.0892   -3389.4976   -3846.0892            0    9163.7236    16.799146    19.787174    20.494918    6812.6671    9665.3801    8579.5347    9246.2561    268.86645    1016.6442     686.3409   -2479.0289 
30822000    288.88251   -3831.2608   -3336.1261   -3831.2608            0        12392    16.758186    19.738929    20.444947    6762.9563    14843.538    9944.1599    12388.302     113.1403    981.56367    -1502.058   -2113.8935 
30823000    257.85363   -3852.2605   -3410.3082   -3852.2605            0    10737.927    16.834036     19.82827    20.537484    6855.2028    11649.865    9964.5091    10599.408    890.25655   -149.47919    394.54002   -2336.7721 
30824000    272.34182   -3852.5219   -3385.7373   -3852.5219            0    11682.123    16.791113    19.777713    20.485118    6802.8989    13306.732    9922.7874    11816.849    2075.1589    1232.3102   -1142.2277   -2226.7153 
30825000    264.76182   -3817.1711   -3363.3784   -3817.1711            0    13512.065    16.786738     19.77256    20.479781     6797.583    15412.325    14103.506    11020.366     770.0845    30.961633    1234.0575   -2023.8493 
30826000    269.35892   -3861.4812   -3399.8092   -3861.4812            0     13516.59    16.789012    19.775238    20.482555    6800.3454    12547.669    16653.712    11348.388    1278.0041    349.93388   -1143.8546   -2059.2871 
30827000     264.8083   -3862.8601   -3408.9877   -3862.8601            0    13904.761    16.755897    19.736234    20.442156    6760.1862    12982.921    14330.081    14401.282    817.68073    246.29186   -951.13902    -2038.112 
30828000    285.36112   -3829.3786   -3340.2794   -3829.3786            0    12164.607    16.812418    19.802808    20.511111    6828.8277      10842.3    13474.184    12177.338   -1140.2947    78.495264   -920.30544   -2128.7886 
30829000    275.62225   -3871.8929   -3399.4858   -3871.8929            0    10914.117    16.813701    19.804319    20.512676    6830.3906    11735.647    9472.0471    11534.657    1625.3174   -124.42469   -628.15787   -2312.2843 
30830000    278.97636   -3818.5485   -3340.3926   -3818.5485            0    12634.524    16.824304    19.816808    20.525612    6843.3209    12387.701    12293.392     13222.48   -1236.4459    841.98783    -841.2055   -2079.4315 
30831000     263.0368   -3831.2545   -3380.4184   -3831.2545            0    11002.089    16.844455    19.840543    20.550196    6867.9403    10003.582    10698.876    12303.809   -347.07792    264.22439   -985.19302   -2278.4287 
30832000    253.88856   -3840.6337   -3405.4774   -3840.6337            0    13562.811    16.829743    19.823215    20.532248    6849.9606    14474.634    14258.536    11955.263    878.60263   -1216.0849   -1452.8207   -2050.5573 
30833000    266.38697   -3850.1016   -3393.5234   -3850.1016            0    10486.811    16.856663    19.854922    20.565089    6882.8826    10575.065    11718.157    9167.2117   -991.94516    570.76304   -221.08574   -2340.8596 
30834000    288.24723   -3804.5792   -3310.5333   -3804.5792            0    11408.362    16.838685    19.833747    20.543156    6860.8844    13220.261    10992.485    10012.341    202.47179    317.69158   -135.04498   -2169.0244 
30835000    286.82378    -3825.211   -3333.6049    -3825.211            0     12027.35    16.759051    19.739948    20.446003    6764.0038    13835.229    11007.461    11239.361    18.143608   -190.66002   -842.31735   -2147.1542 
30836000    275.78695   -3845.7027   -3373.0133   -3845.7027            0    13860.739    16.739042     19.71638    20.421592    6739.8059    13923.248     14243.98     13414.99    382.28968    -597.1775   -432.46125   -2010.5975 
30837000      258.721   -3861.3272   -3417.8883   -3861.3272            0      11463.3    16.808615    19.798328    20.506471    6824.1945    13937.692    10354.391    10097.819   -1211.5012    593.84551    1316.8663   -2277.0162 
30838000    280.27136   -3826.4089   -3346.0334   -3826.4089            0    12784.436    16.700833    19.671375    20.374977    6693.7577    12137.086    13165.621    13050.602   -575.31025    891.22105    727.00413   -2097.9964 
30839000    263.59604   -3841.1255   -3389.3309   -3841.1255            0    14263.215    16.677112    19.643435    20.346038    6665.2757    14785.603    13612.281     14391.76   -982.76816   -97.245299   -530.23639   -2002.8578 
30840000    267.14634   -3802.5022   -3344.6225   -3802.5022            0    12536.908    16.749543     19.72875    20.434404    6752.4985    12683.185    12264.057    12663.482   -435.93368    28.193043    1012.9991   -2110.0096 
30841000    257.85124   -3830.4688   -3388.5206   -3830.4688            0    11612.487    16.770283    19.753178    20.459706    6777.6125    12302.697    11241.057    11293.708    -96.55342    42.448515    423.94407   -2240.6897 
30842000     273.4888   -3794.6044    -3325.854   -3794.6044            0    14845.491    16.759363    19.740316    20.446383    6764.3815    14432.377    15624.017    14480.079   -927.25779   -492.39754    66.899168    -1861.323 
30843000    267.78343   -3848.2178   -3389.2462   -3848.2178            0    10482.195    16.800363    19.788608    20.496404    6814.1483    9685.4027    9195.7389    12565.442    766.95019    105.07875   -1373.1752   -2347.5533 
30844000    264.83277   -3824.5078   -3370.5935   -3824.5078            0    12145.641    16.771919    19.755105    20.461702    6779.5968    11396.261    13473.043     11567.62    1428.7884    54.131603   -2196.5333   -2169.7119 
30845000    260.12451   -3823.3571   -3377.5126   -3823.3571            0     12607.56    16.735796    19.712557    20.417632    6735.8853    15084.219    10323.412    12415.049    -339.7127    285.19641    1532.0825   -2138.9966 
30846000    271.13382    -3835.325   -3370.6109    -3835.325            0    10106.862    16.791998    19.778755    20.486198    6803.9746    9227.5932    9763.5594    11329.434   -567.14092    896.86546    830.03555   -2367.7171 
30847000    274.52112   -3846.0748    -3375.555   -3846.0748            0    13193.669    16.792357    19.779179    20.486636    6804.4116    12403.704    11494.691    15682.613   -1169.9846    2639.9263   -1223.0849   -2066.2765 
30848000    262.82995   -3888.6419   -3438.1603   -3888.6419            0    9006.2157    16.871161       19.872    20.582777    6900.6583    10815.049     6778.041    9425.5567   -468.33706   -1353.3789   -652.35372   -2531.7836 
30849000    253.72723   -3837.1342   -3402.2544   -3837.1342            0    10012.342    16.855792    19.853897    20.564027    6881.8167    10802.364    9705.2862    9529.3746   -161.28323   -1415.9098    242.67444   -2397.3733 
30850000    264.27024   -3853.9575   -3401.0074   -3853.9575            0     11129.22    16.816659    19.807803    20.516285    6833.9965    9759.1476    10864.617    12763.895    96.704365    977.09073   -366.46199   -2291.7933 
30851000    274.80019   -3899.7911    -3428.793   -3899.7911            0    11644.513    16.788176    19.774254    20.481536    6799.3305    11178.143     12202.19    11553.207    1046.7899    935.10894    612.10611   -2274.1084 
30852000    277.39412   -3854.6851   -3379.2411   -3854.6851            0    10787.832    16.812471     19.80287    20.511175    6828.8915    11890.308    11003.895    9469.2925    763.61234   -2307.3504   -233.30904   -2304.8553 
30853000    280.60224   -3837.7686    -3356.826   -3837.7686            0    12338.251    16.774278    19.757884    20.464581    6782.4583    12741.836    10995.487     13277.43   -870.00967    2486.8343    2633.3619   -2136.3855 
30854000    271.21678   -3848.2033    -3383.347   -3848.2033            0    11557.236    16.797738    19.785516    20.493201    6810.9543    12652.922    10939.171    11079.615   -311.44434   -908.88431     1304.157   -2235.3578 
30855000    279.84046     -3845.89    -3366.253     -3845.89            0    8838.4074    16.856555    19.854795    20.564958    6882.7509    7013.9512    10757.146     8744.125    -864.5342    937.40869    316.93465   -2479.0726 
30856000    270.96042   -3873.6869     -3409.27   -3873.6869            0    10547.379    16.818315    19.809754    20.518305    6836.0157    9381.9601    9945.1477     12315.03    1270.2111   -1245.5032    1447.4778   -2357.7356 
30857000    269.93281   -3860.5257     -3397.87   -3860.5257            0    10631.075    16.770816    19.753805    20.460356    6778.2586    10190.049    10572.929    11130.246    962.46461   0.13159547    355.04179   -2346.9463 
30858000    270.65672   -3838.7643   -3374.8679   -3838.7643            0    10376.037    16.739222    19.716592    20.421812    6740.0232    9640.6895    10423.415    11064.005    375.42092    910.90675    247.20036   -2354.9417 
30859000    267.24934   -3852.9942    -3394.938   -3852.9942            0    9963.8695    16.797897    19.785704    20.493395    6811.1479    8751.0671    10616.909    10523.632    925.33388    1445.9457   -852.55753   -2405.1909 
30860000    272.77891    -3833.716   -3366.1823    -3833.716            0    10870.453    16.778083    19.762366    20.469222    6787.0746    11064.213    10083.619    11463.527    1204.9309   -1366.7481    141.52051   -2290.1975 
30861000    265.17581    -3865.733   -3411.2308    -3865.733            0    10489.639    16.871787    19.872737    20.583541    6901.4264    9803.0999    11504.257    10161.559   -570.34684    -971.8701    -642.8917   -2355.4463 
30862000    280.83134   -3883.0478   -3401.7125   -3883.0478            0    10391.514     16.77877    19.763175    20.470061    6787.9086    9663.5466    11753.119    9757.8751   -17.140185    1593.4333   -687.47327   -2373.0079 
30863000    263.61453   -3871.9058   -3420.0795   -3871.9058            0    14146.381    16.785227     19.77078    20.477938    6795.7479    14135.183    14075.131    14228.829    664.53944   -440.38109    66.961257   -2018.0457 
30864000    272.64835   -3850.0223   -3382.7123   -3850.0223            0    9888.2837    16.843851    19.839831    20.549459    6867.2008     9700.729    10729.891    9234.2305   -296.01854    334.94891    1588.4978     -2392.39 
30865000    269.82776    -3838.011   -3375.5355    -3838.011            0    10299.986    16.817275    19.808528    20.517036     6834.747    9748.3581     11499.36    9652.2387   -750.70065   -2361.0932    1260.8269   -2348.8558 
30866000    268.00445   -3883.0638   -3423.7134   -3883.0638            0    12345.513    16.776909    19.760982    20.467789    6785.6494    11552.827    10978.284    14505.429    1169.4271   -816.94116    86.212474     -2201.98 
30867000    257.64991   -3884.7831     -3443.18   -3884.7831            0    10095.647    16.810379    19.800406    20.508623    6826.3428    10747.513    9400.5594    10138.869    152.11171   -578.23842    291.44216   -2438.1058 
30868000    264.10221   -3883.8953   -3431.2332   -3883.8953            0    10982.121    16.798177    19.786034    20.493737    6811.4891    10918.062     11856.43     10171.87     404.8758    482.43137   -2187.7823   -2340.2849 
30869000    267.16788   -3839.7017   -3381.7851   -3839.7017            0    12034.713    16.823201    19.815509    20.524266    6841.9754    13565.597    12122.218    10416.323     891.5515   -694.08247    -276.6821    -2180.923 
30870000     264.7624   -3850.3617   -3396.5681   -3850.3617            0    12993.421    16.806744    19.796125    20.504189    6821.9159    14643.561    13022.814    11313.888    437.64653    1140.7012    1082.2442   -2103.8442 
30871000    263.39335    -3828.577   -3377.1298    -3828.577            0    14819.236    16.720934    19.695051      20.3995    6717.9559    15956.033    14177.464    14324.212   -153.46218   -1813.6842     555.5359   -1925.2226 
30872000    273.58675   -3808.0929   -3339.1746   -3808.0929            0    11694.745    16.810901     19.80102     20.50926    6826.9785    12074.904    11111.937    11897.394    585.83059   -1380.2969    1385.1292   -2174.7934 
30873000    263.03729   -3845.5131   -3394.6762   -3845.5131            0     10903.43    16.797264    19.784959    20.492623    6810.3786    10998.099    12226.916     9485.275   -126.68965    573.13501   -2104.5625   -2311.7216 
30874000    279.49127   -3824.4611   -3345.4226   -3824.4611            0    11685.075    16.830015    19.823534    20.532579    6850.2921    12803.782    11534.596    10716.848    2210.3904    1107.3227    374.95815   -2178.0312 
30875000    278.62381   -3794.9211   -3317.3694   -3794.9211            0    12117.158    16.846369    19.842798    20.552531    6870.2818    11435.636    12257.603    12658.234    282.63925    132.79047    1447.4322   -2103.2785 
30876000    268.13601   -3802.4183   -3342.8423   -3802.4183            0    12219.197    16.726233    19.701293    20.405965    6724.3452     13106.76    11118.539    12432.292   -654.06046   -937.51017    620.66562   -2144.5341 
30877000    275.70344   -3834.1916   -3361.6454   -3834.1916            0    10909.582    16.801647     19.79012     20.49797    6815.7104    12475.764    9546.1698    10706.811    1056.4974   -1179.9556    873.69258   -2277.2314 
30878000    272.03703   -3821.6738   -3355.4116   -3821.6738            0    11467.307    16.753181    19.733034    20.438842    6756.8992    13158.275    10323.849    10919.798    1357.6858   -10.206961    -283.4753   -2225.3952 
30879000    288.43488    -3851.223   -3356.8555    -3851.223            0    11813.604    16.759974    19.741035    20.447129    6765.1215     11586.11    12454.109    11400.594   -405.33101    1003.3372   -980.04259   -2191.2974 
30880000    267.72243   -3888.9043   -3430.0372   -3888.9043            0    12221.432    16.735031    19.711656    20.416698    6734.9617    12328.296    12945.973    11390.028   -218.48137    1176.6197    566.12423   -2229.6174 
30881000    266.78244   -3871.3379   -3414.0819   -3871.3379            0    13588.166    16.709569    19.681665    20.385635    6704.2675    15142.756      12086.9    13534.843    1691.2242    34.516912   -1711.5612   -2085.5008 
30882000    275.12978   -3824.8517   -3353.2887   -3824.8517            0     10769.92    16.810508    19.800558     20.50878    6826.4999    10446.034    10819.363    11044.361   -390.56066   -380.03207    969.81884   -2281.0624 
30883000    279.74543   -3859.9966   -3380.5225   -3859.9966            0    14012.454     16.75985     19.74089    20.446978    6764.9718    13091.164    14696.611    14249.587    665.86361    -40.82812   -84.384067   -1998.0514 
30884000    268.24866   -3866.8306   -3407.0615   -3866.8306            0    10241.676    16.757127    19.737682    20.443655    6761.6743    9796.8355    10872.879    10055.314   -1045.6381    681.96396   -514.17443   -2397.1085 
30885000    255.22433   -3853.6292   -3416.1834   -3853.6292            0    12486.217    16.795588    19.782984    20.490578    6808.3398     13252.05    12573.741     11632.86    1093.8235    1385.6301   -754.93542   -2176.3938 
30886000    265.33106   -3829.1889   -3374.4205   -3829.1889            0    11590.267    16.775468    19.759285    20.466032    6783.9011    12366.832    9777.0288    12626.939    1354.9459    1393.9304    1234.8004   -2227.7231 
30887000    262.76421   -3852.1793   -3401.8104   -3852.1793            0    12021.018    16.831382    19.825144    20.534246     6851.961    12789.701    11220.049    12053.304   -1986.8571   -87.852525    340.60611   -2200.5643 
30888000    264.54053   -3800.3999   -3346.9865   -3800.3999            0    13465.257    16.773395    19.756844    20.463503    6781.3867     15361.23    14817.329    10217.213   -2179.7456    -882.2127    862.67514   -2015.2783 
30889000    246.25457   -3823.6226   -3401.5506   -3823.6226            0    13141.944     16.73627    19.713115     20.41821    6736.4579     12609.79    13090.178    13725.864    179.27186    -385.3239     -759.969   -2110.4292 
30890000    276.93323   -3825.5328   -3350.8787   -3825.5328            0     11621.62    16.792585    19.779447    20.486914    6804.6884    11268.949    11860.397    11735.516   -340.67683   -1175.6384    782.27494   -2197.5561 
30891000    267.02887   -3868.9459   -3411.2675   -3868.9459            0    9406.5667    16.831648    19.825458    20.534572    6852.2869    10880.696    7904.6982    9434.3056   -353.24185   -274.61782   -871.98351   -2471.2357 
30892000    270.19318   -3864.7959   -3401.6941   -3864.7959            0    10002.034    16.823909    19.816343     20.52513     6842.839    9117.3584    11988.879    8899.8652   -920.39208   -649.38672   -1775.1145   -2403.5332 
30893000    258.92471   -3851.2316   -3407.4435   -3851.2316            0    10365.049    16.802491    19.791115       20.499    6816.7381    10878.407    11218.376    8998.3636   -995.28222    -282.6342   -1022.8206   -2377.0008 
30894000    275.42392    -3860.055   -3387.9878    -3860.055            0    10829.685    16.769249     19.75196    20.458444     6776.359    11738.862    10351.614     10398.58    855.27121   -25.754148   -2136.1469   -2317.7306 
30895000    274.37933   -3830.4106   -3360.1338   -3830.4106            0    10553.825     16.80702    19.796449    20.504525    6822.2512    13106.227    9667.5989    8887.6494    9.4261242    1327.5684    282.80236   -2310.0753 
30896000    250.83679   -3831.2601   -3401.3345   -3831.2601            0     10994.24    16.775115     19.75887    20.465601    6783.4734    10100.089    12237.251    10645.379   -57.331698    602.25603   -2636.0668   -2313.6743 
30897000    262.30956   -3874.9182   -3425.3286   -3874.9182            0    10620.493    16.813885    19.804535      20.5129    6830.6146    10169.941    11570.255    10121.284   -1003.9054   -1598.3035    134.05916   -2367.3415 
30898000    264.84712   -3868.7758    -3414.837   -3868.7758            0    12801.402    16.762997    19.744596    20.450817    6768.7827    11099.171    12085.574    15219.462    101.49591    1385.7647    256.58027   -2151.1369 
30899000    280.33472   -3790.9489   -3310.4648   -3790.9489            0    11210.156    16.750531    19.729912    20.435608    6753.6926    13326.959    10038.595    10264.916     -125.299    197.52133    -1288.569   -2206.3128 
30900000    263.92519   -3843.6495   -3391.2907   -3843.6495            0    12040.686    16.767795    19.750247     20.45667    6774.5964    11719.274    12815.739    11587.044    535.47509   -300.01313    934.07055   -2201.6645 
30901000    276.38927   -3818.1906   -3344.4688   -3818.1906            0    11782.644    16.784063    19.769409    20.476517    6794.3337     11253.82    10981.638    13112.473    539.86673   -506.79254    649.24541   -2176.9457 
30902000    252.05899   -3834.3727   -3402.3523   -3834.3727            0    11009.275    16.769704    19.752496       20.459     6776.911    10357.554    9767.4391    12902.832    1714.7028   -424.09199    -2199.575   -2314.2583 
30903000    277.51386   -3829.1652   -3353.5159   -3829.1652            0    10504.979    16.755881    19.736214    20.442136    6760.1664    11201.245    8533.6673    11780.026   -563.64618   -1336.1718   -125.51031    -2317.829 
30904000    262.54701   -3825.8071   -3375.8105   -3825.8071            0    13737.557    16.643792    19.604188    20.305387    6625.4045    12144.082     14415.96    14652.628   -2037.9311    1355.9243    255.70525   -2048.4228 
30905000    269.99258   -3848.5827   -3385.8246   -3848.5827            0    11444.902    16.780615    19.765348    20.472311    6790.1477    12802.672    11319.806    10212.227    -1196.397    902.68222     2221.185   -2252.4665 
30906000    256.06692    -3898.095   -3459.2051    -3898.095            0    9880.0224    16.774005    19.757562    20.464247    6782.1269    9612.1491    7260.4811    12767.437    54.858811    471.45988   -829.54671   -2481.9685 
30907000    262.02366   -3866.5412   -3417.4417   -3866.5412            0    10767.374    16.781745    19.766679     20.47369    6791.5193     8212.806    11597.203    12492.112   -1249.5158    40.418851   -1804.6969   -2350.9619 
30908000    269.71187   -3861.2937   -3399.0168   -3861.2937            0    12603.514    16.725552    19.700491    20.405134    6723.5238     13145.68    13474.988    11189.875   -212.19143   -142.92754    1415.5011   -2163.1704 
30909000    259.21056   -3839.2654   -3394.9874   -3839.2654            0    10714.551    16.825068    19.817708    20.526543    6844.2531    11457.896     10735.65    9950.1073    935.11852   -1701.3187   -215.65486   -2325.4994 
30910000    269.08137    -3808.602   -3347.4058    -3808.602            0    12061.904    16.832475    19.826432     20.53558    6853.2967    11177.751    14052.719    10955.242    -2925.622   -511.16541    1289.5176   -2141.8389 
30911000    264.56269   -3855.1124    -3401.661   -3855.1124            0    10580.997    16.794349    19.781525    20.489066     6806.833    11421.656    10458.274    9863.0609    845.76466   -2556.4713     -284.178   -2351.2783 
30912000    255.36901   -3827.0008   -3389.3071   -3827.0008            0    12181.786    16.821007    19.812924    20.521589    6839.2986    11053.721    11616.595    13875.043    777.14385   -1298.1067     539.9081   -2174.2451 
30913000    267.50745    -3832.412   -3373.9134    -3832.412            0    10880.246    16.848462    19.845263    20.555085    6872.8429    11624.238    9645.9669    11370.533   -543.36842   -803.31074   -1722.7998   -2283.3498 
30914000    259.70221   -3813.4071   -3368.2863   -3813.4071            0    12479.594    16.763833    19.745581    20.451837    6769.7954     12870.15    12046.574    12522.058   -893.20668   -1378.0141    603.60626   -2136.1695 
30915000    261.59394   -3815.8194   -3367.4564   -3815.8194            0     13893.58    16.770958    19.753974     20.46053    6778.4319    13306.815    14492.393    13881.532    832.83964   -100.91918    905.87929    -1993.986 
30916000    286.84077   -3829.8455   -3338.2103   -3829.8455            0    13467.824    16.774045    19.757609    20.464295    6782.1747    13506.423    14033.345    12863.704   -1111.0305   -1384.6864    113.46099   -2006.0935 
30917000    259.65244   -3832.8656   -3387.8302   -3832.8656            0    10768.679     16.76328    19.744929    20.451162    6769.1257    9519.4678    10894.471    11892.098   -157.58106    2298.3999   -270.45265   -2324.7381 
30918000    278.01611   -3787.8367   -3311.3266   -3787.8367            0    13873.576    16.733172    19.709467    20.414431    6732.7184    12115.955    13366.047    16138.725   -785.71615   -1690.2043    115.74201    -1949.083 
30919000    287.09886    -3825.953   -3333.8754    -3825.953            0    11756.753    16.788029    19.774081    20.481357     6799.152    11673.058    11964.545    11632.657    -799.6193   -174.99741    20.987613   -2168.0915 
30920000    280.99054   -3855.4479   -3373.8398   -3855.4479            0     12951.92    16.754142    19.734166    20.440014    6758.0621    13782.456    11556.125    13517.179   -519.40031   -73.375185   -1162.0697   -2097.3062 
30921000    265.39347   -3860.7622   -3405.8869   -3860.7622            0    11104.521    16.790732    19.777264    20.484654    6802.4362    12003.514    9457.8666    11852.182   -760.89382   -628.70392    346.06127   -2304.2457 
30922000    261.70333   -3853.0754   -3404.5248   -3853.0754            0    12614.309    16.706106    19.677586     20.38141    6700.0995    13004.912     11432.74    13405.276   -9.1889591    733.52462   -991.79163   -2171.9292 
30923000    263.16032   -3844.2532   -3393.2054   -3844.2532            0    13067.412    16.716086    19.689342    20.393586    6712.1153    13101.369    13777.778     12323.09   -2130.4279   -454.63362    1594.5199   -2114.0453 
30924000    252.60485   -3841.4518   -3408.4958   -3841.4518            0    10354.898    16.774097    19.757671    20.464359    6782.2385    11329.547    9107.2958    10627.852   -1133.7465   -605.55384   -2622.8515   -2384.2722 
30925000    284.27732   -3842.7976    -3355.556   -3842.7976            0    14022.058    16.723224    19.697749    20.402295    6720.7176    13226.295    12872.063    15967.816   -1245.7386   -544.12757    387.65813   -1981.1872 
30926000    265.18202     -3828.68   -3374.1671     -3828.68            0    12898.149    16.713107    19.685833    20.389952    6708.5275    11891.179    14377.676    12425.592   -3009.1286    2077.3718   -1201.5939    -2112.251 
30927000    282.96974   -3829.1413   -3344.1409   -3829.1413            0    12010.104    16.754188     19.73422     20.44007     6758.117    12460.687    11919.281    11650.345    162.49848   -973.93901    447.59301   -2160.4225 
30928000    284.04313   -3853.0069   -3366.1667   -3853.0069            0    10923.113    16.796573    19.784145     20.49178    6809.5381    11062.514    9588.2928    12118.532    1564.6148   -1662.0905   -310.93394   -2281.3909 
30929000    265.17847   -3850.1381   -3395.6312   -3850.1381            0    9597.1975    16.848805    19.845667    20.555503    6873.2626    10969.228    10114.762    7707.6023     1568.869    1119.5235   -769.32608   -2433.6131 
30930000    269.97873   -3837.8875   -3375.1532   -3837.8875            0    12893.307    16.753045    19.732875    20.438676    6756.7349    14649.121    13062.997    10967.804    1198.4911   -1051.8265   -478.84849   -2104.6461 
30931000    270.74636    -3832.012    -3367.962    -3832.012            0    12341.194    16.778844    19.763262    20.470151    6787.9982    13119.094    12942.872    10961.616    2308.6213    148.90252    781.92038   -2146.2333 
30932000    274.05385   -3803.4189      -3333.7   -3803.4189            0    11446.955     16.80751    19.797027    20.505123    6822.8483    11114.073    12682.014    10544.778    15.483364    38.325045   -1639.1108   -2194.6794 
30933000    257.93102   -3839.3857   -3397.3007   -3839.3857            0    12926.421    16.796729    19.784328     20.49197    6809.7279    11892.589    13841.067    13045.606    530.10482    803.77982    -699.6734   -2113.5405 
30934000    266.32811   -3861.3557   -3404.8785   -3861.3557            0    11218.742    16.806383    19.795699    20.503748    6821.4761    11917.503    10968.608    10770.114    308.23551    712.69334   -1574.1919   -2288.7906 
30935000    268.88195   -3838.4605   -3377.6061   -3838.4605            0    11854.209    16.829172    19.822542    20.531551    6849.2634    10046.884    11900.366    13615.378    -167.9106   -1137.0768   -1492.3294   -2193.4953 
30936000     280.2596   -3825.7431   -3345.3878   -3825.7431            0    12775.264    16.772127    19.755351    20.461956    6779.8494    12988.955      13514.3    11822.538   -298.50588   -348.72277   -9.1060531    -2082.206 
30937000    267.06304   -3836.9548   -3379.2179   -3836.9548            0    13218.695    16.699056    19.669282     20.37281    6691.6215    11730.708    14247.532    13677.846    784.92062   -73.857424   -1078.4966   -2089.1997 
30938000    271.30305   -3818.2893   -3353.2852   -3818.2893            0    12769.409    16.802611    19.791257    20.499146    6816.8843    11758.194    15883.979    10666.055    1013.5893   -1028.3945   -1218.5444   -2083.7854 
30939000    250.77746   -3832.3356   -3402.5116   -3832.3356            0    13898.919    16.797077    19.784738    20.492394    6810.1503    12067.885    13257.875    16370.998   -913.14464   -1103.8976     681.0886   -2022.0841 
30940000    275.82754   -3802.6896   -3329.9306   -3802.6896            0    12510.846    16.798285     19.78616    20.493868    6811.6197    12781.771    11893.643    12857.125    -81.27335   -559.41298   -264.79868   -2087.0971 
30941000    271.55842   -3816.6343   -3351.1925   -3816.6343            0     10624.62    16.826103    19.818927    20.527806    6845.5163    10437.221    12140.802    9295.8379    264.36348   -342.68824    190.34564   -2290.4853 
30942000    267.83487   -3820.3431   -3361.2833   -3820.3431            0    13905.815    16.756701     19.73718    20.443136    6761.1586     14798.23    14447.403    12471.813    473.06972    588.81323   -357.50293   -1990.1065 
30943000    266.12942   -3820.2184   -3364.0817   -3820.2184            0    10655.591     16.83583    19.830384    20.539673    6857.3952    13073.378    9102.9348      9790.46     1587.185    721.50822   -973.47074   -2298.4366 
30944000    275.56348   -3818.0306   -3345.7242   -3818.0306            0    11846.383    16.778143    19.762436    20.469295    6787.1471    11813.753    12487.855     11237.54   -463.12784   -231.75993   -1006.6414   -2173.1269 
30945000    257.64364   -3823.7305   -3382.1381   -3823.7305            0    9493.5658    16.834429    19.828734    20.537964    6855.6838    9188.1927    11354.751     7937.754    541.73234   -1536.1767   -2235.3391   -2432.9418 
30946000    259.84495   -3818.3989   -3373.0336   -3818.3989            0    9929.1824    16.826657    19.819579    20.528482    6846.1923    8849.8359    11057.164    9880.5471   -699.58443    660.92628   -534.04751   -2381.6574 
30947000    265.95958   -3826.5872   -3370.7416   -3826.5872            0    12371.199    16.811043    19.801188    20.509433    6827.1522     14997.74      11705.6    10410.257    2767.4308    903.78499   -380.36153   -2138.9783 
30948000    267.37371   -3844.9808   -3386.7114   -3844.9808            0    10627.774    16.842302    19.838007    20.547569    6865.3063    9129.4683    12146.243    10607.611   -1491.3342    1674.5179   -674.17187    -2322.622 
30949000    291.04218   -3848.1444   -3349.3081   -3848.1444            0     11160.75    16.786839    19.772679    20.479904    6797.7057    12187.409    12061.905    9232.9354    1134.6596   -1464.5538     -82.7145   -2242.8585 
30950000    268.44714   -3817.3315   -3357.2223   -3817.3315            0    11884.538    16.761952    19.743365    20.449542    6767.5171    13590.351    10182.265    11880.997    2223.0539    144.36183    1882.4949   -2184.2506 
30951000    267.15503   -3827.3169   -3369.4223   -3827.3169            0    11583.625    16.788245    19.774335    20.481619    6799.4135    9055.1984    14248.506    11447.172   -1741.4193    1132.2106    633.49405   -2220.7614 
30952000    258.70658   -3812.9796   -3369.5654   -3812.9796            0    9088.6603    16.909961      19.9177    20.630113    6948.3776    7910.3975    9921.2752    9434.3082    857.09526    449.96868    254.34723   -2448.5664 
30953000    265.42771   -3855.0084   -3400.0744   -3855.0084            0     11709.86      16.8308     19.82446    20.533537    6851.2512    12254.301     12405.35    10469.929    3129.6025    508.55274    1882.1879   -2230.0431 
30954000    268.23377   -3871.6104   -3411.8669   -3871.6104            0    9757.8076    16.856708    19.854976    20.565144    6882.9385    10291.471    9755.8566    9226.0949    903.62959   -942.00135   -225.03166   -2432.3724 
30955000    261.37642   -3852.2522    -3404.262   -3852.2522            0    12094.274    16.816451    19.807558    20.516031    6833.7429    12130.271    13328.718    10823.832   -1612.0577    302.03469    1188.3549   -2198.9088 
30956000    259.09337   -3823.0993   -3379.0221   -3823.0993            0    10546.211    16.807672    19.797217     20.50532    6823.0456    8772.9773    12784.371    10081.285    90.620819   -413.01231    1408.1746    -2329.599 
30957000    276.01944   -3844.7088   -3371.6209   -3844.7088            0    12432.199    16.794702     19.78194    20.489497    6807.2619    12248.841      13566.8    11480.957    1031.0804   -511.84659    -253.1754   -2137.3903 
30958000    268.45064   -3800.5985   -3340.4832   -3800.5985            0    14277.634     16.77552    19.759346    20.466095    6783.9642    15399.253     13435.49    13998.159    556.55375    245.27063    1923.1187   -1927.8947 
30959000    265.12996   -3818.8052   -3364.3815   -3818.8052            0    12022.933    16.747226     19.72602    20.431577    6749.6965    11104.831    14474.525    10489.445     1427.832    441.50414     261.7926   -2180.8752 
30960000    286.22117   -3845.4271   -3354.8538   -3845.4271            0    11316.206    16.790415    19.776891    20.484268    6802.0514    12425.361    10866.612    10656.645   -144.60037    410.58582   -115.99841   -2232.2755 
30961000      274.951   -3858.9596    -3387.703   -3858.9596            0    10182.398    16.805307    19.794432    20.502435    6820.1656    9698.9376    10663.693    10184.564    165.64507   -604.00267   -1034.4066   -2374.9095 
30962000    264.69534   -3810.0193   -3356.3406   -3810.0193            0    12429.296    16.809915    19.799859    20.508057    6825.7776    12833.707    10913.666    13540.514    985.91699   -7.9312977    1416.4425   -2119.0419 
30963000    278.39193   -3831.8539   -3354.6996   -3831.8539            0    9141.6428    16.868508    19.868874     20.57954    6897.4028    9616.3276    8031.0985    9777.5023    281.09491    538.33111    574.83674   -2435.1277 
30964000    254.68738    -3815.918   -3379.3926    -3815.918            0    11364.468    16.801136    19.789519    20.497347    6815.0893    11070.024    10917.019    12106.361    563.01247   -386.23667     784.1267   -2249.8657 
30965000    256.06475   -3861.9097   -3423.0235   -3861.9097            0    12370.776    16.737832    19.714955    20.420116    6738.3447    12509.269    12918.237    11684.822   -448.65655    578.20927    1633.5079   -2207.3245 
30966000    264.69488   -3834.5842   -3380.9062   -3834.5842            0    11748.855     16.74414    19.722385    20.427812    6745.9658    11427.171    12329.659    11489.735   -375.00994   -13.705171   -742.62976   -2225.0187 
30967000    257.73915    -3865.299   -3423.5429    -3865.299            0     13310.19    16.811419    19.801632    20.509893    6827.6106    14082.859    12901.358    12946.354    1386.7597    -3.086854   -947.78224    -2098.198 
30968000     267.2474   -3831.1498   -3373.0969   -3831.1498            0    10651.728    16.811725    19.801991    20.510265    6827.9826     10164.81    11782.901    10007.475    -1519.318     220.9523   -107.87259   -2312.4071 
30969000    273.41971   -3815.5952   -3346.9631   -3815.5952            0    12375.847    16.789056     19.77529    20.482609    6800.3991     10859.98     12886.08     13381.48   -197.79473    -423.2308     1214.024   -2119.5657 
30970000    261.67447   -3845.8734   -3397.3723   -3845.8734            0    13761.374    16.729759    19.705446    20.410267    6728.5989     12790.36    13769.163    14724.599    1493.1586    628.31189    582.64433   -2046.9726 
30971000    266.25048   -3816.0452    -3359.701   -3816.0452            0    11402.407    16.760574    19.741743    20.447861    6765.8485    10556.103    12007.457    11643.661   -682.69737    910.21978    587.58429   -2234.5917 
30972000    272.23202   -3865.5461   -3398.9498   -3865.5461            0    8742.6963    16.895221    19.900339     20.61213    6930.2232    7786.0223    9491.6235    8950.4431   -656.25993    463.44715    -1347.436   -2515.3237 
30973000    271.92934   -3827.2645   -3361.1869   -3827.2645            0    11988.381    16.769433    19.752176    20.458669    6776.5819    11027.247    12597.392    12340.504   -608.73695   -1002.9777     1219.482   -2176.3813 
30974000    275.33546   -3834.8089   -3362.8933   -3834.8089            0    12204.915    16.788446    19.774571    20.481864    6799.6577    11655.779    13008.836    11950.132    916.14922    1276.3275    1640.5496   -2152.5803 
30975000    275.00428   -3880.4151   -3409.0672   -3880.4151            0    10384.388    16.841999     19.83765    20.547199    6864.9362    11062.804    10457.491    9632.8704      160.273    188.97726    312.53525   -2369.4025 
30976000     280.1392   -3856.9921   -3376.8431   -3856.9921            0    10856.417    16.813833    19.804474    20.512836     6830.551    10824.858    9390.5052    12353.888    263.47574    1979.8755   -913.80542    -2295.364 
30977000    284.24472   -3801.1501   -3313.9644   -3801.1501            0    10924.634    16.842846    19.838648    20.548233     6865.972    11742.664    9762.5095    11268.728   -519.64574   -1578.6935    380.29247   -2220.0463 
30978000    263.87121   -3794.9986   -3342.7324   -3794.9986            0    12817.093    16.779967    19.764584     20.47152    6789.3605    11698.196    15111.731    11641.352     1207.404    294.60375    459.93522   -2073.6369 
30979000    279.27982    -3840.241   -3361.5649    -3840.241            0    11655.545    16.799964    19.788138    20.495916    6813.6623    10549.223    12212.117    12205.296    517.77028    343.95333   -83.385221   -2203.3502 
30980000    267.51841   -3792.2091   -3333.6917   -3792.2091            0    9475.0415    16.850698    19.847897    20.557813    6875.5794     8670.416    9702.4925    10052.216   -476.02966    2562.3345    1766.5764   -2383.5982 
30981000    278.65625   -3823.5859   -3345.9787   -3823.5859            0    12543.917    16.783274     19.76848    20.475555    6793.3756    13225.706     13697.86    10708.185    63.974665    734.50451      1706.31   -2103.1975 
30982000     273.2738   -3839.5806   -3371.1986   -3839.5806            0    13108.249       16.764    19.745778    20.452041    6769.9982    11532.367    13514.873    14277.507    -1270.104    623.11964    484.93137   -2076.9756 
30983000    253.58717   -3830.3067   -3395.6669   -3830.3067            0    11726.691    16.777865    19.762109    20.468956    6786.8102    10234.257    12401.132    12544.685    420.96765   -1140.5511     85.04398   -2234.9747 
30984000    278.97399   -3862.0638   -3383.9119   -3862.0638            0    12187.798    16.826255    19.819106    20.527992    6845.7026    13135.364    11433.694    11994.336   -378.66345    687.70585     440.1612    -2167.112 
30985000    266.92329   -3871.4465   -3413.9491   -3871.4465            0    10053.932    16.837101    19.831881    20.541224    6858.9485    9253.6098    11787.369    9120.8169   -720.28096   -440.98784    874.00865    -2408.247 
30986000    269.16769   -3869.9885   -3408.6443   -3869.9885            0    10844.757    16.832196    19.826103     20.53524    6852.9555     13530.98    9530.3912    9472.9006   -1900.2413   -412.64102   -1159.6697   -2324.7832 
30987000    269.54133   -3840.2126    -3378.228   -3840.2126            0    11645.854    16.767788     19.75024    20.456663     6774.589    12058.861    11657.826    11220.875    1906.3611    881.48243   -744.90017   -2227.6126 
30988000    270.49079   -3840.4615   -3376.8495   -3840.4615            0    11247.452    16.789989    19.776389    20.483747    6801.5332    11308.085    12121.348    10312.924   -2541.9248    -1249.143   -824.98687   -2261.1767 
30989000    265.12866   -3839.1952   -3384.7737   -3839.1952            0    10597.697    16.824645     19.81721    20.526028    6843.7372    11273.325    11037.748    9482.0192    -1194.166    527.27257    1470.8658   -2327.0294 
30990000    272.66871    -3856.324   -3388.9792    -3856.324            0    11910.871    16.839085    19.834218    20.543644    6861.3733    11161.489    11425.661    13145.463   -2350.1461   -271.22056   -880.14368   -2197.1049 
30991000    259.06258   -3862.5583   -3418.5339   -3862.5583            0    12343.655    16.789428    19.775729    20.483063    6800.8516     12284.09    13219.419    11527.457     1816.259   -1373.0598    398.39903   -2194.2477 
30992000    266.83623   -3844.4402   -3387.0921   -3844.4402            0    10534.477    16.851776    19.849166    20.559127    6876.8986    12812.695    9602.6508    9188.0862   -68.166151    536.48682    866.32128   -2330.5629 
30993000    272.33799   -3790.9568   -3324.1788   -3790.9568            0    13958.805    16.812666      19.8031    20.511413    6829.1296    13631.681     13986.83    14257.903   -1400.8082    -442.5515   -2085.7651   -1933.9398 
30994000     268.4999   -3800.5475   -3340.3479   -3800.5475            0    12909.487    16.794871    19.782139    20.489703    6807.4678    11744.206    13066.599    13917.657    243.15665   -604.39651     416.6897   -2058.6948 
30995000    276.05836   -3805.5509   -3332.3963   -3805.5509            0    12414.252    16.815313    19.806218    20.514643    6832.3556    13377.069    10959.201    12906.487   -87.225952    1507.0767    -1032.366   -2095.4042 
30996000    265.37902   -3836.6581   -3381.8075   -3836.6581            0    7374.4289    16.925182    19.935629    20.648683     6967.158    7094.2714    5954.2955    9074.7197    1365.4796   -366.93472    57.103063   -2632.5002 
30997000    261.48436   -3820.4799   -3372.3047   -3820.4799            0    10030.424    16.786605    19.772403    20.479618    6797.4211    8314.9324    12073.063    9703.2782   -90.198063   -1098.5038   -52.085666   -2377.9545 
30998000    277.50817   -3799.9959   -3324.3564   -3799.9959            0    13108.088    16.768838    19.751476    20.457943    6775.8613     13002.59    11000.446    15321.228    -228.4612   -21.920139   -449.11524   -2029.0284 
30999000    265.19969   -3846.0493   -3391.5061   -3846.0493            0    9406.8999    16.832005    19.825879    20.535007     6852.723    9518.3573    10096.351    8605.9913    1080.6484     472.8258   -1170.8593   -2451.3812 
31000000    278.82992    -3801.955   -3324.0501    -3801.955            0     12998.94    16.749697     19.72893    20.434591     6752.684    14704.332     13337.26    10955.227   -1171.2095   -1522.4253   -330.57198   -2043.9019 
Loop time of 423.898 on 64 procs for 250000 steps with 864 atoms

Performance: 101.911 ns/day, 0.235 hours/ns, 589.765 timesteps/s
99.1% CPU use with 64 MPI tasks x 1 OpenMP threads

MPI task timing breakdown:
Section |  min time  |  avg time  |  max time  |%varavg| %total
---------------------------------------------------------------
Pair    | 22.903     | 28.028     | 33.087     |  49.3 |  6.61
Bond    | 0.27358    | 0.28499    | 0.30278    |   1.2 |  0.07
Kspace  | 177.09     | 186.94     | 195.41     |  29.8 | 44.10
Neigh   | 5.4643     | 6.2293     | 7.029      |  16.9 |  1.47
Comm    | 90.39      | 97.717     | 105.43     |  34.3 | 23.05
Output  | 1.4741     | 1.4773     | 1.4897     |   0.3 |  0.35
Modify  | 97.003     | 98.878     | 100.54     |   9.1 | 23.33
Other   |            | 4.343      |            |       |  1.02

Nlocal:        13.5000 ave          20 max           8 min
Histogram: 2 2 6 10 13 22 5 3 0 1
Nghost:        2344.03 ave        2372 max        2313 min
Histogram: 2 4 5 7 12 8 11 7 5 3
Neighs:        4562.97 ave        7260 max        2932 min
Histogram: 6 5 9 14 14 10 3 2 0 1

Total # of neighbors = 292030
Ave neighs/atom = 337.99769
Ave special neighs/atom = 2.0000000
Neighbor list builds = 14758
Dangerous builds = 1

unfix		3
unfix		2
unfix		1

write_data	data.final.${pid}
write_data	data.final.0
System init for write_data ...
PPPM initialization ...
  extracting TIP4P info from pair style
  using 12-bit tables for long-range coulomb (../kspace.cpp:340)
  G vector (1/distance) = 0.3753605
  grid = 24 24 24
  stencil order = 5
  estimated absolute RMS force accuracy = 0.0030378616
  estimated relative force accuracy = 9.14843e-06
  using double precision FFTW3
  3d grid and FFT values/proc = 2535 216
Last active /omp style is kspace_style pppm/tip4p/omp
WARNING: Not all mixed pair coeffs generated from mixing. Use write_data with 'pair ij' option to store all pair coeffs. (../write_data.cpp:312)

write_restart   restart.lmp.${pid}
write_restart   restart.lmp.0
System init for write_restart ...
PPPM initialization ...
  extracting TIP4P info from pair style
  using 12-bit tables for long-range coulomb (../kspace.cpp:340)
  G vector (1/distance) = 0.3753605
  grid = 24 24 24
  stencil order = 5
  estimated absolute RMS force accuracy = 0.0030378616
  estimated relative force accuracy = 9.14843e-06
  using double precision FFTW3
  3d grid and FFT values/proc = 2535 216
Last active /omp style is kspace_style pppm/tip4p/omp
Total wall time: 0:07:06
