LAMMPS (30 Jul 2021)
  using 1 OpenMP thread(s) per MPI task
package omp 0
using multi-threaded neighbor list subroutines
echo both

include		in.partitions
variable        pid world 0
include		in.temp
variable        temperature equal 257.19
variable	tempDamp equal 100.0
include		in.pressure
variable        pressure equal 2125.0
variable        pressureDamp equal 1000.0 # This is 1 ps
include		in.seed
variable        seed world 745823

units		real
atom_style	full

read_restart	restart.lmp.${pid}
read_restart	restart.lmp.0
Reading restart file ...
  restart file = 30 Jul 2021, LAMMPS = 30 Jul 2021
  restoring atom style full from restart
  orthogonal box = (-0.024547880 -0.0097292405 -0.17459634) to (20.024549 20.009730 20.874594)
  4 by 4 by 4 MPI processor grid
  restoring pair style lj/cut/tip4p/long/omp from restart
  restoring bond style harmonic/omp from restart
  restoring angle style harmonic/omp from restart
  972 atoms
  648 bonds
  324 angles
Finding 1-2 1-3 1-4 neighbors ...
  special bond factors lj:    0        0        0       
  special bond factors coul:  0        0        0       
     2 = max # of 1-2 neighbors
     1 = max # of 1-3 neighbors
     1 = max # of 1-4 neighbors
     2 = max # of special neighbors
  special bonds CPU = 0.810 seconds
  read_restart CPU = 1.002 seconds
include 	in.setup
variable	out_freq equal 1000
variable	out_freq2 equal 10000
variable	out_freq3 equal 1000

timestep	2.0

neigh_modify    delay 7 every 1

include		in.tip4p
# This is TIP4P/Ice

# create groups ###
group ox type 2
324 atoms in group ox
group hy type 1
648 atoms in group hy

# set charges - beside manually ###
set group ox charge -1.1794
Setting atom values ...
  324 settings made for charge
set group hy charge 0.5897
Setting atom values ...
  648 settings made for charge

# ### TIP3P Potential Parameters ###
pair_style lj/cut/tip4p/long/omp 2 1 1 1 0.1577 8.5
pair_coeff 1 1*2 0.000 0.000
pair_coeff 2 2 0.21084 3.1668
bond_style  harmonic
bond_coeff  1 450 0.9572
angle_style harmonic
angle_coeff 1 55 104.52
kspace_style pppm/tip4p/omp 1.0e-5
pair_modify tail yes

thermo          ${out_freq}
thermo          1000
thermo_style    custom step temp pe etotal epair emol press lx ly lz vol pxx pyy pzz pxy pxz pyz enthalpy

restart 	${out_freq3} restart.lmp.${pid} restart2.lmp.${pid}
restart 	1000 restart.lmp.${pid} restart2.lmp.${pid}
restart 	1000 restart.lmp.0 restart2.lmp.${pid}
restart 	1000 restart.lmp.0 restart2.lmp.0


include         in.dump
dump            myDump all atom ${out_freq2} dump.water.${pid}
dump            myDump all atom 10000 dump.water.${pid}
dump            myDump all atom 10000 dump.water.0
dump            myDump2 all dcd ${out_freq2} dump.dcd
dump            myDump2 all dcd 10000 dump.dcd
dump_modify     myDump append yes
dump_modify     myDump2 append yes


variable natoms 	equal  "count(all)"                        # NUMBER ATOMS
variable H      	equal  "enthalpy/v_natoms"                 # ENTHALPY-per-atom
variable Vol      	equal  "vol/v_natoms"                 # volume-per-atom
fix AVG all 		ave/time ${out_freq} 1 ${out_freq} v_Vol v_H file vol_enthalpy.dat
fix AVG all 		ave/time 1000 1 ${out_freq} v_Vol v_H file vol_enthalpy.dat
fix AVG all 		ave/time 1000 1 1000 v_Vol v_H file vol_enthalpy.dat


timer           timeout 02:55:00 every 1000
New timer settings: style=normal  mode=nosync  timeout=02:55:00

fix 		1 all shake 1e-6 200 0 b 1 a 1
       0 = # of size 2 clusters
       0 = # of size 3 clusters
       0 = # of size 4 clusters
     324 = # of frozen angles
  find clusters CPU = 0.656 seconds
fix             2 all nph aniso ${pressure} ${pressure} ${pressureDamp}
fix             2 all nph aniso 2125 ${pressure} ${pressureDamp}
fix             2 all nph aniso 2125 2125 ${pressureDamp}
fix             2 all nph aniso 2125 2125 1000
fix             3 all temp/csvr ${temperature} ${temperature} ${tempDamp} ${seed}
fix             3 all temp/csvr 257.19 ${temperature} ${tempDamp} ${seed}
fix             3 all temp/csvr 257.19 257.19 ${tempDamp} ${seed}
fix             3 all temp/csvr 257.19 257.19 100 ${seed}
fix             3 all temp/csvr 257.19 257.19 100 745823


run             250000
PPPM initialization ...
  extracting TIP4P info from pair style
  using 12-bit tables for long-range coulomb (../kspace.cpp:340)
  G vector (1/distance) = 0.37198255
  grid = 24 24 25
  stencil order = 5
  estimated absolute RMS force accuracy = 0.0034591417
  estimated relative force accuracy = 1.0417103e-05
  using double precision FFTW3
  3d grid and FFT values/proc = 2366 288
Last active /omp style is kspace_style pppm/tip4p/omp
Neighbor list info ...
  update every 1 steps, delay 7 steps, check yes
  max neighbors/atom: 2000, page size: 100000
  master list distance cutoff = 10.8154
  ghost atom cutoff = 10.8154
  binsize = 5.4077, bins = 4 4 4
  1 neighbor lists, perpetual/occasional/extra = 1 0 0
  (1) pair lj/cut/tip4p/long/omp, perpetual
      attributes: half, newton on, omp
      pair build: half/bin/newton/omp
      stencil: half/bin/3d
      bin: standard
Per MPI rank memory allocation (min/avg/max) = 9.227 | 9.231 | 9.238 Mbytes
Step Temp PotEng TotEng E_pair E_mol Press Lx Ly Lz Volume Pxx Pyy Pzz Pxy Pxz Pyz Enthalpy 
 7500000     264.2202   -4670.2007   -4160.6298   -4670.2007            0    4284.3313    20.049097    20.019459    21.049191    8448.5575    5418.2539    3630.6955    3804.0445    112.36373   -585.82154      1065.42   -3632.7422 
 7501000    250.06277    -4693.278   -4211.0109    -4693.278            0    1178.9526    20.159899    20.345682     20.82168    8540.3641    1019.8066    642.81527    1874.2358    516.95616    146.38923     1440.824   -4064.1695 
 7502000    259.15114   -4705.6806   -4205.8858   -4705.6806            0     2221.111    20.250612    20.061498     20.94393    8508.6309   -26.219518    4812.9018    1876.6508    433.18856    935.10244   -202.75638   -3930.2689 
 7503000    258.53749   -4717.9615   -4219.3502   -4717.9615            0    1824.3697     20.03405    20.211474    21.216108    8590.7772    1518.9236    1274.4575    2679.7279   -95.385759    134.34637   -1468.0076   -3990.7791 
 7504000    250.78961   -4724.5141   -4240.8452   -4724.5141            0    2214.0032    20.133864    20.066243    20.798571    8402.8516    1800.5793    2535.9637    2305.4666   -286.94814   -416.96649   -1020.3645   -3969.5259 
 7505000    251.78284   -4683.4859   -4197.9015   -4683.4859            0    3092.8056    20.150786     20.16308    20.832775    8464.3961    3160.6946    3176.4322      2941.29   -375.25273    851.62508      -1068.9   -3816.1115 
 7506000    255.07644   -4683.0771   -4191.1407   -4683.0771            0    519.50803    20.218587     20.00493    21.003888    8495.4722    531.20454    536.22965     491.0899    -448.7508    416.65309   -981.45243   -4126.7748 
 7507000    264.12046   -4708.9144   -4199.5358   -4708.9144            0     1740.245    20.007466    20.202444    21.138775    8544.2865    1135.7241    1951.9371    2133.0737   -620.61546   -626.64807    -36.13987   -3982.6845 
 7508000     256.9825   -4695.6129   -4200.0006   -4695.6129            0    1473.7042    20.214733    20.185234    20.979501    8560.4576    1787.2229    1062.4662    1571.4234    323.25593    626.30729    209.58586   -4016.0152 
 7509000    268.40711   -4689.6182   -4171.9725   -4689.6182            0    4244.8626    20.351412    19.893796    20.846256    8439.9581    2343.9455    6284.8392    4105.8031   -67.723001    1368.2224    932.47481   -3649.4803 
 7510000    267.22973   -4703.4128   -4188.0378   -4703.4128            0    2238.9464     20.18811    20.192507    20.965077    8546.3829    2545.4952    1411.5479     2759.796   -989.53359     405.9042     208.3958    -3908.975 
 7511000    263.29498   -4716.3928   -4208.6063   -4716.3928            0      2669.59    20.321429    20.004803    20.819039    8463.4845    1883.4367    3723.7556    2401.5777   -100.17117    1453.0656   -854.24083   -3879.0955 
 7512000    267.48808   -4677.4514   -4161.5781   -4677.4514            0    2370.1738    20.132529    20.185872    21.054632    8556.4481    1250.9347    2158.8767      3700.71   -342.34761   -298.11044    1481.4976   -3865.8112 
 7513000    279.01715   -4690.2871   -4152.1791   -4690.2871            0    1431.8665    20.071967    19.930459    21.409629    8564.7835    1441.0063    2107.1667    747.42652   -91.834708    75.325646   -77.149747   -3973.3267 
 7514000    255.43084   -4717.2838   -4224.6639   -4717.2838            0    728.06245    20.149092    20.089072     21.09355    8538.1749    -435.6397    1172.2632    1447.5639   -199.14355     820.9675    850.93315   -4134.0052 
 7515000    247.35551   -4684.4801   -4207.4342   -4684.4801            0    4620.4472    20.181793    20.090749    20.822027    8442.6517    3882.6727    5638.4082    4340.2608    1117.0651   -1228.7393    272.36348   -3638.5305 
 7516000    250.10294    -4681.212   -4198.8675    -4681.212            0    1937.8445    19.977426    20.390333    20.875735    8503.6548     2386.261    1438.0864    1989.1863    656.25689   -101.68034    354.29949   -3958.5416 
 7517000    262.23533   -4717.7982   -4212.0553   -4717.7982            0    1280.6247    20.136049    20.227178    20.922775    8521.7513     1817.342    868.84579    1155.6863   -338.94746    193.38203    -9.253512   -4052.8979 
 7518000    252.97214   -4717.3987   -4229.5206   -4717.3987            0    5452.4387    19.986273    20.217655    20.718503    8371.8408    4302.4825     6502.175    5552.6587   -86.322487    464.78678    225.00597   -3563.8067 
 7519000    255.28909   -4709.1418   -4216.7953   -4709.1418            0    1506.9323    20.167317    20.162815    21.059069    8563.2469    2277.4548    899.27621     1344.066   -280.46091   -43.830288    103.62276   -4028.6003 
 7520000    249.88263   -4691.8703   -4209.9506   -4691.8703            0    3716.9013    20.005095    20.027614    21.074347    8443.5283    4520.1948    3967.0099    2663.4991   -800.97361   -755.72014   -7.3094075   -3752.2507 
 7521000    255.42176   -4725.8574   -4233.2551   -4725.8574            0    2484.0202     20.14651    20.277777    20.774155    8486.7917     761.5747    4093.9791    2596.5068    10.258989    765.12787    429.27145    -3925.805 
 7522000    256.00766      -4694.4   -4200.6677      -4694.4            0    2367.9177    20.278808     20.37263     20.60398    8512.1768    2321.7712    1167.2209     3614.761   -252.35832    1059.5845   -358.07958   -3906.7111 
 7523000    247.36387   -4712.2438   -4235.1818   -4712.2438            0     2572.238    20.077456    20.207813    20.883771    8472.9946     2380.953    2647.1456    2688.6153    562.77311    135.44197    841.97601   -3917.3305 
 7524000    271.76586   -4679.4251   -4155.3017   -4679.4251            0    2577.7358    20.238181    20.054898     21.13526    8578.2662    968.74084     4482.125    2282.3416    537.29293   -1330.8209   -504.63455   -3832.8135 
 7525000    262.01818   -4680.5445   -4175.2204   -4680.5445            0    2683.5839    20.262316    20.014725    20.824578    8445.2971    1817.6657    4039.1771    2193.9091   -279.14068    779.77647    917.05799   -3844.6941 
 7526000    276.24199   -4706.8895   -4174.1336   -4706.8895            0    1637.3777    20.376165    20.077629    20.943432    8568.0644     1566.821    1346.8343    1998.4777     307.6348   -217.97825    133.37258   -3969.5328 
 7527000    263.77721   -4676.6497   -4167.9331   -4676.6497            0    3193.9542    19.951377    20.086463    21.026691    8426.5007    5726.4116    1331.5259    2523.9252   -239.69191   -536.15569   -492.14373   -3775.4221 
 7528000    239.00879     -4679.97   -4219.0215     -4679.97            0    1229.1641    20.241991     20.19448     20.96041    8568.1226    2152.3408    545.02475    990.12674   -351.17565   -288.51172   -355.42883   -4065.4285 
 7529000    254.25203    -4684.524   -4194.1776    -4684.524            0    3182.1877     20.13392    20.036537     21.05614    8494.3422     2832.907    3612.4141    3101.2421   -31.597524   -664.42064    686.41332   -3799.9641 
 7530000    262.04959   -4692.3878   -4187.0032   -4692.3878            0     2702.933     19.89175    20.276904    21.206147    8553.3532    3783.0812    2182.4518    2143.2662    1330.1419      347.575   -100.10438   -3849.8342 
 7531000     265.6423   -4687.9562   -4175.6426   -4687.9562            0     2132.801    20.215891    20.147465    20.805918     8474.229    2150.9495     2353.393    1894.0605    -170.2846    709.62317   -467.30893   -3912.0542 
 7532000     247.2312   -4676.4402    -4199.634   -4676.4402            0    1347.2163    20.126369    20.250836    21.025904    8569.6494    982.67438    791.77492    2267.1996    172.54711    889.17146    1260.8086   -4031.2595 
 7533000    259.75956   -4707.8545   -4206.8863   -4707.8545            0    2137.3463    20.223078    20.133171    20.995961    8548.6041    824.85453    2000.0412    3587.1431   -37.400785    472.85126   -1015.0288   -3940.4178 
 7534000    246.78411   -4703.5306   -4227.5867   -4703.5306            0     2675.581    20.495792    20.023962    20.646377    8473.4164    1036.7796    3462.1239    3527.8394    379.79636    550.78177   -1101.0135   -3896.9489 
 7535000    242.32611   -4723.5489   -4256.2027   -4723.5489            0    1899.0329    20.171658    20.208879    20.734332    8452.2799    2606.3838    429.97039    2660.7446    459.87216   -718.94758     923.4122    -4022.113 
 7536000    246.94984   -4709.3138   -4233.0503   -4709.3138            0    3663.9426    20.086884    20.120662    21.006526     8490.027    1333.3032    5876.7368    3781.7879   -113.78797   -765.17477   -451.11728    -3779.387 
 7537000    253.11373   -4698.7929   -4210.6418   -4698.7929            0    360.08522    20.085317    20.075782    21.374085    8618.6389   -159.92498    370.71519    869.46544    139.55684   -188.07931    -560.3969   -4165.3812 
 7538000    261.70054   -4690.0086   -4185.2971   -4690.0086            0     652.4712    20.344121    20.107723    21.002171    8591.4414    255.48643    666.47096    1035.4562    301.33114     1046.079    192.78845   -4103.5442 
 7539000    248.23256   -4701.8402   -4223.1028   -4701.8402            0    2668.9647    20.112881    20.086654    20.850481    8423.6042    3102.7042    2718.1551    2186.0347   -210.96071    262.40151    965.57331   -3895.2215 
 7540000    261.30428   -4716.6105   -4212.6632   -4716.6105            0    2536.9438    20.224842    19.891633    21.090589     8484.852    2044.7032    3905.0925    1661.0357    12.398641    729.64447   -88.992001   -3898.7345 
 7541000    246.15233   -4676.6784   -4201.9529   -4676.6784            0    1594.0137    20.293038    20.029297    21.207559    8619.9248    1437.1381    1631.7016    1713.2015   -704.80581   -1013.6736     192.6886   -4001.5651 
 7542000    258.93176   -4711.4402   -4212.0686   -4711.4402            0    2653.3473    20.314013    20.076966    20.918224    8531.3667    2045.0474    3262.1511    2652.8435   -35.840011    1408.0861   -482.83549   -3881.9358 
 7543000    257.54464    -4691.234   -4194.5375    -4691.234            0    1619.6944    20.166373    20.263189    20.764108    8484.9416    826.09043     3007.836    1025.1567    338.48703    369.35811    135.02531   -3994.1098 
 7544000    247.35695   -4695.4588   -4218.4101   -4695.4588            0    3390.2315    20.052731    20.255892    20.794441    8446.4098    3419.4424    3256.5813    3494.6706   -558.12814   -647.16924    816.29354   -3800.7939 
 7545000    248.67705   -4715.7014   -4236.1068   -4715.7014            0    1348.2175    20.119876    20.188996    21.114674    8576.7825    2147.9729    1670.0535    226.62619    15.680581    662.79967    475.97431   -4067.4669 
 7546000    255.58431   -4720.6494   -4227.7336   -4720.6494            0    732.97421    20.127889     20.25532    21.015035    8567.7635    764.62144     358.6728    1075.6284   -283.84444   -1023.1283    451.35306    -4136.147 
 7547000    253.42178   -4701.8269   -4213.0816   -4701.8269            0    2719.4096     20.33197    20.072565    20.741863    8465.0613    3304.8973    1079.5844     3773.747   -1292.7186   -31.490816    942.64914    -3877.359 
 7548000    247.47655   -4716.2749   -4238.9955   -4716.2749            0    1885.3777    20.337569    20.011404    20.858227    8488.9503    969.17309    2880.9023    1806.0578    624.37008    -911.6556    801.41595   -4005.5808 
 7549000    271.46741   -4725.2188   -4201.6711   -4725.2188            0    934.87231    20.243825    20.120693    21.009294    8557.5016    1227.0856    420.84465    1156.6866    64.273575    1283.1508    1495.4566   -4084.9968 
 7550000    246.82891   -4710.3155   -4234.2852   -4710.3155            0    1360.0806    20.194647    20.339498      20.9382    8600.3444    1303.1149    796.22882    1980.8982   -8.9024469    1423.4245   -971.00819   -4063.6941 
 7551000    272.46697    -4659.796   -4134.3206    -4659.796            0    3532.5827    20.132379    20.026715    21.135427    8521.4964    3308.8681    5223.1463    2065.7338    871.04809    198.35565   -472.73784   -3695.3008 
 7552000    253.37584   -4716.0395   -4227.3828   -4716.0395            0    1177.7082    20.386872    20.078529     20.81166    8519.0115    197.66837    1359.8591    1975.5972    379.41395   -239.09198   -195.15806   -4081.0631 
 7553000    259.16962   -4736.2674    -4236.437   -4736.2674            0     801.7912    20.110232    20.477616    20.752414    8546.0435     1095.227   -39.562739    1349.7094    154.98587    360.90676   -905.68029   -4136.5055 
 7554000    260.17322    -4678.958   -4177.1921    -4678.958            0     2250.103    20.022737    20.161204      20.9315    8449.6799    2406.7819    2186.1692    2157.3578   -493.78739    13.128126     1577.882   -3899.9121 
 7555000    269.19301   -4724.5911   -4205.4297   -4724.5911            0    901.16763    20.096968    20.107051    21.168638     8554.051   -31.122683    1986.1471    748.47851    331.95222    829.66159    625.97608   -4093.0072 
 7556000    273.46725   -4686.9467   -4159.5421   -4686.9467            0    3920.4307    20.212572    20.165864    20.716043    8443.9415    4164.9269    2061.7721    5534.5932   -226.80364    1491.1535   -269.06866   -3676.7558 
 7557000    250.42145   -4724.3944   -4241.4356   -4724.3944            0    1336.2276    20.076307    20.285563    20.852288    8492.2859    3217.0464   -1588.3428    2379.9791    197.07021    142.00586    1310.3026   -4075.9421 
 7558000    254.16907   -4690.4628   -4200.2764   -4690.4628            0    2291.9495    20.225618    19.986932    21.240677    8586.5022    2428.2463     2085.484    2362.1182    293.60148   -526.25116   -327.30624   -3913.2663 
 7559000    254.26695    -4702.126   -4211.7509    -4702.126            0    1167.4235    20.203446    19.998161    21.222432    8574.5366   -310.77384    2624.2907    1188.7537    343.54584   -569.52637   -728.25042   -4065.7636 
 7560000    273.23681   -4731.7092    -4204.749   -4731.7092            0    1559.2992    20.202191    20.284722    20.803018    8524.9898    1916.9543    54.704041    2706.2392    233.29058    797.25232    642.44399   -4010.8841 
 7561000    247.86783   -4675.1625   -4197.1285   -4675.1625            0    2524.5677    20.198401    20.224507    20.820543    8505.2482    2489.9887     2419.378    2664.3363    13.916121  -0.75882042    122.49572   -3883.9803 
 7562000    264.66656   -4673.2116   -4162.7799   -4673.2116            0    2515.3666    20.236928    20.104486    20.998606    8543.3469    2229.2897    4421.3783    895.43191   -739.28858   -665.16303   -2623.7661   -3849.3754 
 7563000    265.51977   -4684.9802    -4172.903   -4684.9802            0    2447.7974    20.118138     20.38188    20.722572     8497.197    352.73872     2972.056    4018.5974   -240.23674   -907.62715   -543.54295   -3869.5648 
 7564000    249.27056   -4679.6426   -4198.9034   -4679.6426            0    2696.0859    20.066766    19.945366    21.077524    8436.0469    4550.0393     793.6735    2744.5449   -503.69254   -532.70333    137.66211    -3867.201 
 7565000     261.0058   -4721.0563   -4217.6847   -4721.0563            0    3103.7339    20.022723    20.182441    20.948504    8465.4463    1643.9414    4317.5705    3349.6898    436.40021   -370.80168   -767.13247   -3834.4982 
 7566000    266.98233   -4683.9821   -4169.0842   -4683.9821            0    1077.3937    20.276758    20.281046    20.865715    8580.6886    670.52564    1262.7888    1298.8667   -326.31297   -844.70772   -1852.9307   -4034.2586 
 7567000    247.26496   -4694.6199   -4217.7486   -4694.6199            0    1949.0367    20.183267    19.904481    21.187698    8511.8918    1859.6016    2659.2219    1328.2866    166.59204   -520.79376   -1026.5218   -3975.8007 
 7568000    253.45831   -4704.1704   -4215.3548   -4704.1704            0    2655.0755    20.117541    20.155177    20.990821     8511.203    3899.5184    454.39663    3611.3115   -669.11822    -301.8057   -857.74208   -3885.7878 
 7569000    249.42764   -4728.5513   -4247.5091   -4728.5513            0    2750.4132    20.258222    20.069206     20.90429    8498.9825    3221.2845    2048.3243    2981.6306    84.508652    854.07502   -21.446436   -3906.5983 
 7570000    257.96559   -4692.3821   -4194.8738   -4692.3821            0     2027.692    20.031181     20.30453     20.84475    8478.0544    1996.8853    1621.2425    2464.9484     422.3807   -59.187721   -1145.7281   -3944.1624 
 7571000    258.93584   -4700.7352   -4201.3556   -4700.7352            0    1442.0609    20.367342    20.107938    20.949555     8579.791    104.42904    2385.1942    1836.5593   -117.75729     -115.555    1056.4516   -4020.9142 
 7572000     271.9465   -4668.9138   -4144.4421   -4668.9138            0    2000.7383    20.069844      20.0474    21.175378     8519.875    2772.5167    1374.9264    1854.7717     290.5406   -356.73271    314.91162   -3895.8431 
 7573000    242.97794   -4708.9415   -4240.3381   -4708.9415            0    1558.0743    20.236738    20.046318    21.041431    8535.9214    3092.1891    1434.8737     147.1601   -835.33443   -63.496598    -124.0899   -4046.3771 
 7574000    250.76414   -4717.8788    -4234.259   -4717.8788            0    1278.6364     20.29639    20.118011    20.765638    8479.0878   -306.70468    2781.2231    1361.3908    921.35508    317.12362   -957.61729   -4076.1444 
 7575000    249.75006   -4706.6889   -4225.0249   -4706.6889            0    995.59352    20.264744    20.175161    20.922417    8554.0146   -584.94759    2064.6879    1507.0402    348.29478    271.41418    829.99906    -4100.823 
 7576000    250.63702   -4701.3237   -4217.9491   -4701.3237            0    -458.4805    20.159792    20.256442    21.093816    8613.9903   -97.143004   -634.36039   -643.93809    49.947938    -8.522309    388.58004   -4275.5463 
 7577000    250.20265   -4730.1123   -4247.5754   -4730.1123            0    3318.4219    19.942988    20.229366    20.929749    8443.7723    5178.8524    2083.4114    2693.0018    211.60604   -1318.4098   -295.57223   -3838.9325 
 7578000    272.88205    -4695.679    -4169.403    -4695.679            0     440.1947    20.349291    20.370879     20.74107    8597.8567    216.71411   -313.69547    1417.5655   -357.15624   -600.25268   -1034.7082   -4114.2066 
 7579000    263.39466   -4745.8617   -4237.8829   -4745.8617            0    1222.8024    20.141766    20.088832    21.019721    8505.0954    1051.8343    1086.8164    1529.7566  -0.41146632    74.622571   -563.44158   -4086.2089 
 7580000    265.96364   -4698.6953   -4185.7621   -4698.6953            0    2952.7337    20.208544    20.139826    20.926443    8516.9905    2296.4898    2728.6766    3833.0347   -441.01522   -1084.8115    -142.5363   -3818.9984 
 7581000    264.91875   -4705.0295   -4194.1114   -4705.0295            0    836.95005    20.210027    20.184429    20.735152    8458.4465     1329.525   -159.22893    1340.5541   -311.05153   -630.92602   -1104.1865   -4090.8671 
 7582000    247.29327   -4708.9247   -4231.9989   -4708.9247            0    1184.7116    20.025018    20.309499    20.899708    8499.8713    4127.2657   -1579.9246    1006.7938   -292.76426   -618.99669   -148.24701   -4085.1397 
 7583000    265.93238   -4706.9268   -4194.0538   -4706.9268            0    2462.4923    20.128362    20.089113    21.093971    8529.5778    2620.6564    2390.1338    2376.6868   -522.61389   -888.91592   -871.72753   -3887.7317 
 7584000    273.93115   -4698.9817   -4170.6825   -4698.9817            0    1626.7662    20.192727    20.110707    21.167736    8596.0062     1477.743    2502.1033    900.45221    253.18148     1003.819   -365.74458   -3966.7447 
 7585000    253.85651   -4721.1911   -4231.6075   -4721.1911            0    1820.3114     20.09771     20.06202    21.004435    8469.0019    1895.9984    1987.2643    1577.6716    203.77129    533.26855    -89.14445   -4006.7777 
 7586000    258.59843    -4731.322   -4232.5932    -4731.322            0    2325.0236    20.271666    20.187833    20.722999    8480.7006     637.3767    3530.4072    2807.2868    -336.9889   -1439.5711   -80.333301   -3945.0289 
 7587000     254.2764   -4714.1223   -4223.7288   -4714.1223            0    1880.5507     20.14958    20.180491    20.958503    8522.3228    2134.3626    2045.5839    1461.7057   -185.00189   -370.61035   -1258.0015   -3989.9964 
 7588000    247.51666    -4679.204   -4201.8473    -4679.204            0    179.89156    20.092571     20.24794    21.154232    8606.2436    672.19304   -52.605509   -79.912864    -411.6017    -686.8841   -188.67067   -4179.2685 
 7589000    259.34365   -4764.1451    -4263.979   -4764.1451            0    2232.7063     20.08508    20.136815    20.965364    8479.4318    4127.3632    366.83536    2203.9203   -726.64294    132.10917    288.97051   -3987.8741 
 7590000    253.39083   -4698.3379   -4209.6523   -4698.3379            0    2727.1438    20.447132    20.178358     20.63493    8513.7564    2787.3946    1930.5423    3463.4945    417.37991   -644.50921   -415.47793   -3871.0382 
 7591000    253.01432   -4716.2201   -4228.2607   -4716.2201            0    725.40612    20.191731    20.123277    20.920837     8500.634    388.10943    683.30449    1104.8044    406.06934    2037.0417    -3.493649   -4138.3299 
 7592000    257.76653   -4711.8058   -4214.6814   -4711.8058            0    840.78278    20.131891    20.029211    21.316497    8595.3637    803.31899    1879.5917   -160.56235   -350.94518    860.28642    259.79862   -4109.2855 
 7593000    264.02545   -4689.6905   -4180.4952   -4689.6905            0    1294.6268    20.280574    20.121789    21.101161    8610.9919    3664.1461   -422.09573    641.82988    351.49731   -565.16783    285.93455   -4017.9127 
 7594000    253.21039   -4694.8256   -4206.4881   -4694.8256            0     1342.706    20.271166     20.18766    20.828922    8523.7662    8.3325178    2735.1184     1284.667    87.537709   -994.73838    137.10836   -4039.5758 
 7595000     240.9626   -4712.1689   -4247.4523   -4712.1689            0    2160.2655    20.327559    20.207715    20.533723      8434.71    691.49858    2356.8766    3432.4213    368.68379    171.64216   -843.23256   -3981.7146 
 7596000     263.5222   -4703.2621   -4195.0374   -4703.2621            0     3123.545    20.112757    20.089989    20.974653    8475.1244    2181.2161    5124.8938    2064.5253   -106.68717   -65.646597    1453.4926   -3808.9641 
 7597000    271.79364   -4736.5407   -4212.3638   -4736.5407            0     2430.801    19.988944    20.074278    21.196274    8505.2936     3361.721    2251.5448    1679.1371   -342.99449   -224.19386   -572.95329   -3910.8448 
 7598000    261.28929     -4709.34   -4205.4217     -4709.34            0    4467.8831    19.989567    19.823179    21.026665    8331.9585    5271.3806    5836.5621    2295.7067    -116.9938    69.715723    595.31785   -3662.5155 
 7599000    265.21045   -4731.2991   -4219.8184   -4731.2991            0    1970.4863     20.17382    20.175649    20.906412    8509.3263    1885.7168    1879.8767    2145.8654    540.87967   -1031.9143   -573.88662   -3975.2815 
 7600000    257.62186   -4705.1543   -4208.3089   -4705.1543            0    2757.9409    20.251572    20.201131    20.645994    8446.3722    2150.1862    3158.9569    2964.6797   -293.17081    281.89253   -310.46765   -3868.5811 
 7601000    256.77059   -4742.0058   -4246.8021   -4742.0058            0    1819.0852    20.104596    20.257488    20.919033    8519.6655     865.4759    2070.9366     2520.843   -84.313141   -850.23328    740.36834   -4020.7797 
 7602000    255.22245   -4703.6845   -4211.4665   -4703.6845            0    1670.8503    20.117082    20.034915    21.214864    8550.5245    1879.0248    2094.6862      1038.84    668.83593    32.855527     530.6368   -4003.1104 
 7603000    258.87096   -4689.6868   -4190.4324   -4689.6868            0    198.97942    20.299111     20.10889    20.998056     8571.251   -1275.6876     1651.219    221.40689   -619.69841    287.80923    1327.2156   -4165.5594 
 7604000    261.79886   -4704.5454   -4199.6443   -4704.5454            0    1078.3765     20.38492    20.155768    20.793103    8543.3396   -840.91862    2486.3457    1589.7024   -401.44165    886.47731   -777.63192    -4065.283 
 7605000    262.55197   -4666.3794   -4160.0259   -4666.3794            0    1595.9258    20.055501    20.258447    21.023361    8541.6509    2616.4694    1678.7294    492.57852    96.711947   -347.31011    70.980054   -3961.2194 
 7606000    245.89494   -4713.5167   -4239.2876   -4713.5167            0    1881.2826    20.344806    20.039288    21.027848    8572.9574    1394.2728     2703.273    1546.3019   -529.27974    349.41977   -90.322392    -4004.075 
 7607000    252.57072   -4702.9254   -4215.8215   -4702.9254            0    2719.7283    19.973786    20.315764    20.831124    8452.9102    2730.4691    3062.4377     2366.278   -739.31614    377.73693   -225.82983   -3880.5415 
 7608000    255.64597   -4684.3611   -4191.3263   -4684.3611            0     2740.958    20.124433    20.235599    20.946051    8529.8591    2440.6373    2914.2202    2868.0165    -200.6258   -195.54811    1195.2776   -3850.3532 
 7609000    256.31371   -4702.8457   -4208.5232   -4702.8457            0    2506.3808     20.22293     19.96757    20.984416    8473.5651    101.93032    4904.8069    2512.4051    13.477364   -653.75893   -300.43438    -3898.789 
 7610000    268.25764   -4697.3778   -4180.0204   -4697.3778            0    2120.3517    20.269542    19.983969     21.05888    8530.2343    2343.2585    2101.3605    1916.4359    417.75766    553.66688    2485.6677   -3916.2387 
 7611000    268.06216   -4699.3501   -4182.3697   -4699.3501            0    1982.4917    20.082114     20.08027    21.013924    8473.9551    2536.2776    1284.8358    2126.3617   -607.33943    644.05689    468.15374   -3937.3655 
 7612000      251.713   -4676.3147    -4190.865   -4676.3147            0     4802.374    20.088644     19.90331    21.027076    8407.2662    4860.9565    6270.5666    3275.5991    463.22634    388.97492    283.99869   -3602.0395 
 7613000    251.61204   -4716.1285   -4230.8735   -4716.1285            0    1860.8509    20.348816    20.021712    20.839632    8490.4437    1257.9061    2217.3398    2107.3068   -313.83661    24.191214     217.9269   -4000.4548 
 7614000    258.43667   -4696.1369     -4197.72   -4696.1369            0     2230.361    20.238177      20.1216    20.859623    8494.5498    1972.4584    1656.0972    3062.5276   -35.976897    594.46827   -1473.8059   -3921.4133 
 7615000    260.87454   -4711.5123   -4208.3938   -4711.5123            0      1869.84    20.129089    20.186829    21.093223    8571.0726    1616.1316    2839.1227    1154.2658   -43.731573    1958.3491    1319.2677   -3974.6632 
 7616000    236.95489   -4695.1899   -4238.2025   -4695.1899            0    1566.3952    20.174025    20.023871     21.13603    8538.1547    2166.4338    1690.8938     841.8579    124.83002    -12.16991   -611.48322   -4043.1546 
 7617000    242.73646   -4703.4961   -4235.3584   -4703.4961            0    2237.7734    20.110315    20.395534    20.745797    8509.1085    3634.7004    760.68946    2317.9302   -519.70667    316.49952    235.71948   -3957.6583 
 7618000    247.69123   -4701.1587   -4223.4653   -4701.1587            0    2934.5566    20.115212    20.316315     20.65017    8439.0422    1247.6192    3861.5154    3694.5353   -86.434516    765.38701    144.76583   -3862.2954 
 7619000    256.55862   -4732.6797   -4237.8848   -4732.6797            0    74.197107    20.241494    20.187289    20.952274    8561.5366    807.10876    204.78679   -789.30422    104.34014    594.14552   -171.92458   -4228.6205 
 7620000    264.47849   -4714.8594   -4204.7904   -4714.8594            0    2677.4834    20.059543    20.070581    21.071317     8483.453    4486.4192    2067.5062    1478.5248   -112.01504   -1007.2714   -639.24583   -3873.5256 
 7621000    251.18388   -4728.9137   -4244.4845   -4728.9137            0    1438.4674    20.101668    20.191771    21.142302    8581.4124    2915.9677   -218.81447    1618.2488   -48.996062   -1258.6195    -22.44245   -4064.4587 
 7622000    258.14466   -4679.5671   -4181.7134   -4679.5671            0    2615.9943    20.302645    19.996054    21.037715    8540.7397    2468.5094    2033.6096    3345.8639   -186.49515    1381.1679    551.95908   -3855.8706 
 7623000    258.95154   -4703.7391   -4204.3292   -4703.7391            0    1285.2649    20.316264    20.227179    20.901199    8589.1536    460.22756    1414.9142     1980.653   -178.97997    499.96555    138.02743   -4043.3318 
 7624000      253.372   -4694.8212    -4206.172   -4694.8212            0    2317.2688    20.110571    20.124407    20.944367    8476.4641    3232.5132    1816.2472    1903.0461    52.109958   -401.91627    661.22566     -3919.71 
 7625000    270.24509   -4697.8748   -4176.6844   -4697.8748            0    162.76322    20.038317    20.384646    21.074943    8608.5665    1275.9937   -559.92608     -227.778    80.707876   -269.52872   -1404.7508     -4156.25 
 7626000    234.19976   -4692.8071   -4241.1332   -4692.8071            0    806.05977    20.293854    20.102861    20.849574    8505.8863    994.97713    219.05092    1204.1513    -74.12885    467.96155    1200.5216   -4141.1418 
 7627000     256.0913   -4694.3024   -4200.4088   -4694.3024            0    3754.0251    19.849314     20.07565    21.244865     8465.821    4849.3158    3655.6346    2757.1248   -6.1392412     -408.084   -58.938651   -3736.9169 
 7628000    260.32892   -4726.3989   -4224.3326   -4726.3989            0    1423.3533    20.015185    20.271611    21.010804    8524.9247    1869.2557    1260.0775    1140.7268    143.48485    116.25045    1352.4795    -4047.371 
 7629000    267.89334   -4667.9921   -4151.3372   -4667.9921            0    1848.3842    20.513212    20.025808    20.776127    8534.7009    -169.3243    3791.1894    1923.2876   -586.87756   -620.61602    725.74419   -3921.2691 
 7630000    247.57757   -4723.0117   -4245.5375   -4723.0117            0    2628.0808    20.034151    20.200061    20.901158     8458.512    3691.1322    1515.0618    2678.0483    5.1917863    455.94269    2867.4072   -3921.3408 
 7631000    243.38537   -4715.9718   -4246.5827   -4715.9718            0    2233.3732    20.152428     20.14199    20.909468    8487.3622    836.43182    3620.0811    2243.6066     351.0977    65.954341   -283.57219   -3970.1369 
 7632000     264.9313    -4684.703   -4173.7608    -4684.703            0    1834.1543    20.154122    20.183637    21.019591    8550.4222    1252.2378    3317.5674    932.65758   -287.36189    873.95512   -338.98972   -3945.0433 
 7633000    260.85877   -4670.8168   -4167.7288   -4670.8168            0    3737.4163    20.164147    20.141153    20.809702    8451.4273    2642.7067    2893.3477    5676.1944    480.60678   -411.58556    -1701.351    -3707.072 
 7634000    259.18237   -4726.7258   -4226.8708   -4726.7258            0    902.15468    20.245623    20.265725      20.7677    8520.8257    1644.9573    -69.80169    1131.3084   -300.43718    484.78796    374.93307   -4114.7623 
 7635000    250.69378    -4700.522   -4217.0379    -4700.522            0    2935.7388    20.241075    19.992102    20.918082    8464.7457    2538.7465    2218.1089    4050.3611   -381.73709    134.99462    423.43078    -3854.622 
 7636000    266.11951   -4722.2846   -4209.0507   -4722.2846            0    2536.8563    20.008574    20.077293    21.143002    8493.5247     4562.735    748.59613    2299.2377   -281.21482     574.2403    944.35092    -3894.812 
 7637000    258.93514    -4725.043   -4225.6648    -4725.043            0    2723.6453    20.170765     20.07634    20.962529    8488.8839    2558.5846    2978.2426    2634.1089   -510.35613   -349.98497    563.86934   -3888.4729 
 7638000    256.05411   -4717.3178   -4223.4959   -4717.3178            0     1519.686    20.389124    20.168493    20.698477    8511.5844   -1048.4849    3293.0783    2314.4647   -26.658062    1124.4365   -348.49009   -4034.8532 
 7639000    241.29728    -4714.814   -4249.4519    -4714.814            0    1643.3476    20.288417    20.149686    20.831541    8516.0428    2973.6838    263.97696    1692.3822   -660.54815     1007.414   -772.38518   -4045.3518 
 7640000    266.30361    -4708.607   -4195.0181    -4708.607            0    2469.4435    20.125127     20.21128    20.797123    8459.3247    2121.5567    1737.1899    3549.5838   -195.24496    905.70453    1876.2863   -3890.3614 
 7641000    245.16874   -4691.3113   -4218.4828   -4691.3113            0      531.216    20.028065    20.067127    21.229575     8532.288    1486.3887   -520.65771    627.91701   -729.31432   -57.999413   -58.948543   -4152.3811 
 7642000    260.66741   -4718.0344   -4215.3153   -4718.0344            0    2120.4763    20.096612    20.098707    21.077751    8513.6389    998.76393    3818.1177    1544.5473   -111.70767   -996.88173    522.39828   -3952.0313 
 7643000     250.4634   -4700.4165   -4217.3768   -4700.4165            0    2705.6175    20.454289    19.944912    20.710288    8448.9483    247.42069    3943.1944    3926.2376     88.81013    852.44734   -943.98143   -3883.9926 
 7644000    262.49599   -4714.7173   -4208.4717   -4714.7173            0    1166.4305    20.159167    20.389942     20.84969    8570.1449    2832.5001   -236.24634    903.03784    278.86228    1329.5334    131.65617   -4062.6833 
 7645000    253.90222   -4703.1707   -4213.4989   -4703.1707            0    1271.1172    20.230552    19.930086    21.130271    8519.6541    1788.3212     2285.854   -260.82374   -22.671163   -1279.6568     78.29761   -4055.5621 
 7646000    241.54105   -4690.9884   -4225.1562   -4690.9884            0    1872.8618     20.24326     19.88589    21.108182    8497.2093    1785.3173    1509.5407    2323.7274    632.47411    958.23151   -141.61118   -3993.0654 
 7647000    254.25763   -4728.1735   -4237.8163   -4728.1735            0    988.33654    20.272186    20.067016    20.952856    8523.6692    895.14128    1505.1427    564.72562   -700.27647     418.9155     454.7262   -4114.9572 
 7648000    252.53145      -4709.2   -4222.1718      -4709.2            0    3799.0945    20.147884    20.105216    20.826778    8436.4603    3087.5054    3987.7773    4322.0008    440.94305   -1232.9954   -241.21015   -3754.7422 
 7649000    269.26907   -4709.8001    -4190.492   -4709.8001            0    1551.2427     20.14243    19.956136    21.192314    8518.5703    1962.4019    1510.3392    1180.9869   -310.57704    370.67806    110.55742    -3997.774 
 7650000    254.77983   -4713.4357   -4222.0714   -4713.4357            0    2956.7117    20.066915    20.105121    20.800485    8391.9091    3845.4406    474.77487    4549.9196   -527.43731   -709.48493   -1759.9036   -3860.2072 
 7651000    270.07642   -4686.9762   -4166.1111   -4686.9762            0    1878.9575    20.499497    19.784922    20.976602    8507.7105   -141.10008    4278.1688    1499.8038   -255.10313    754.53703    908.16518   -3932.9772 
 7652000    259.74698    -4688.428   -4187.4841    -4688.428            0    3346.3621    19.917292     20.08133    21.141113    8455.7205    2609.6959    4641.5285    2787.8618    160.33441    711.95969   -94.910728   -3774.8174 
 7653000     268.7477   -4729.6319   -4211.3293   -4729.6319            0    1721.0123    20.026644    20.208121    20.964089    8484.1846    3246.0991   -210.02721    2126.9649   -226.46336    188.99592    172.46544   -3998.3831 
 7654000    252.95063   -4700.5887   -4212.7522   -4700.5887            0    3045.4737    20.238667    20.180641    20.756959    8477.7499    2364.9969    3045.0619    3726.3623      7.17882    61.237345    262.18111    -3836.212 
 7655000    255.37089   -4709.3853   -4216.8811   -4709.3853            0    2139.5696    20.321419    20.061734    20.830497    8492.2375    1826.6221    2700.7596    1891.3272    118.33914   -1147.4048   -1094.8995   -3951.8941 
 7656000    255.25746   -4727.1283   -4234.8429   -4727.1283            0    942.59291    20.100811    20.165842    21.093687    8550.3214    846.03235    1992.5552   -10.808846   -15.914772    87.720772   -307.62821   -4117.3037 
 7657000    257.23755   -4699.8789   -4203.7747   -4699.8789            0    2320.5469    20.194247    20.075499     20.89614    8471.4954    1372.0407    2184.6581    3404.9417   -704.15654   -1084.7724    659.31767   -3917.0756 
 7658000    248.21693   -4721.9304   -4243.2232   -4721.9304            0    2936.0917     20.13949    20.170798    20.787615    8444.5444    3054.5928    2736.0257    3017.6567    117.61669   -1401.7344   -1812.1681   -3881.6287 
 7659000    254.98281   -4725.1386   -4233.3828   -4725.1386            0    1694.4079    20.015309     20.37293    21.011713    8567.9565    3847.1029   -274.61085    1510.7316     137.1155    25.253046   -522.51148   -4021.6583 
 7660000    250.49789   -4688.2858   -4205.1796   -4688.2858            0      2148.95    20.137357    20.138384    20.928538    8487.2306     2087.749    1974.8227    2384.2782    707.36677    514.74754    1500.0368   -3939.1878 
 7661000    260.02385   -4728.3513   -4226.8735   -4728.3513            0    3081.4791    20.244339    19.969009    20.952461    8470.2287    4302.7894    1988.1403    2953.5075    153.62194    694.10105    31.885392   -3846.2196 
 7662000    252.31514   -4694.2437   -4207.6327   -4694.2437            0    2402.1007    20.070109    20.291142    20.896735       8510.1    2336.7989    1790.0435    3079.4598   -3.5772638     1363.506    1249.1383   -3909.5054 
 7663000    269.90188   -4720.8749   -4200.3464   -4720.8749            0    1711.6521    20.273215    20.069459    20.993227    8541.5657    2537.0603    1112.0894    1485.8065   -197.44533    30.930551   -1165.6768   -3987.1259 
 7664000    261.60318   -4732.3764   -4227.8527   -4732.3764            0    3192.8449    20.039327    20.204919     20.86094    8446.4481    3968.2712     2800.668    2809.5953   -994.26474    251.14321    686.58125   -3834.5492 
 7665000    260.03507   -4722.3685    -4220.869   -4722.3685            0    2260.4996    20.127118    20.405684    20.717417    8508.8011     2360.311    1782.3897    2638.7982    496.69812    267.53172   -883.13375   -3940.3588 
 7666000    264.24679   -4706.2554   -4196.6333   -4706.2554            0    2147.1246    20.061621    20.215408    21.232374    8610.8711    3748.7492    82.491823    2610.1327    546.46021   -837.99901    1388.7919   -3926.9958 
 7667000    266.37802   -4727.7711   -4214.0387   -4727.7711            0    3355.2607     20.14408    20.035731    20.965214    8461.5893    4064.8557    3328.5871    2672.3393    163.24802   -602.33074   -47.618223   -3799.9874 
 7668000    263.93554    -4686.616   -4177.5941    -4686.616            0    3471.2863    20.269847    19.809871    21.022234    8441.3322    3194.4037    3413.5166    3805.9387   -315.63809    175.61334    451.10156   -3750.2504 
 7669000    258.91067   -4671.6283   -4172.2973   -4671.6283            0    1382.0595    19.972129    20.224464    21.345323    8621.9226    3037.6121   -1291.5484    2400.1147   -355.49517    254.36164    1442.9725   -3998.5145 
 7670000    263.19001   -4710.9699   -4203.3859   -4710.9699            0     2053.856    20.282507    20.124488      20.8314    8502.8582   -7.2983805    4017.1796    2151.6868   -4.7257405    -55.55714   -921.99807   -3948.6965 
 7671000    264.18038   -4703.8078   -4194.3137   -4703.8078            0    3011.3893    20.121583    20.240115    20.813102    8476.4096    2562.2534    2509.4802    3962.4342   -497.99078     566.0582    1220.4435   -3822.0466 
 7672000    256.56188   -4719.8109   -4225.0097   -4719.8109            0    2601.5184    19.978802    20.460347    20.872904    8532.2839    1430.0177      3726.31    2648.2276   -372.31564    167.15056   -361.96706   -3901.2908 
 7673000    241.06812   -4702.7471    -4237.827   -4702.7471            0    2320.8339    20.124396    20.128278    20.907447    8468.9673    3470.5074    1550.9925    1941.0019    113.64544     1354.719    16.746723    -3951.178 
 7674000    266.56926   -4723.8295   -4209.7283   -4723.8295            0      1525.75    20.368181    19.874071    21.013073    8506.0644    896.40803    2254.2235    1426.6185   -48.559029   -531.28925   -205.62029   -4020.4556 
 7675000    259.16982   -4725.0194   -4225.1886   -4725.0194            0     1779.069    20.071382    20.082145    20.997673    8463.6663    2404.1164    2238.0203    695.07023   -621.63554    97.114101   -615.86594   -4005.5912 
 7676000    251.00999   -4716.4578   -4232.3639   -4716.4578            0    1085.0259    20.405094    20.039399    20.911441    8550.8101    1652.2965    870.72441    732.05671    19.137898    72.962479    -77.71435    -4097.056 
 7677000    255.71339     -4708.22   -4215.0553     -4708.22            0     2192.516    20.325877    19.998652     21.05633    8559.1908    389.96377    4753.1695    1434.4146   -332.16904    574.62418    335.07297     -3941.37 
 7678000    256.95061    -4709.173   -4213.6221    -4709.173            0    3605.1343    19.977952    20.074397    20.957446    8404.8858    3598.1975    2860.4444    4356.7609   -406.54678   -293.17265   -769.09422   -3771.7169 
 7679000    254.71542   -4665.7798   -4174.5397   -4665.7798            0    2326.3795    20.209005    20.149118    20.852462    8490.9896     2943.036    1344.5384    2691.5641    395.88074   -774.93939   -549.21692   -3886.4586 
 7680000    262.42163   -4705.9081   -4199.8059   -4705.9081            0    2479.5623    20.406394    20.120962    20.659595    8482.7531    240.34452    4586.3233    2612.0191    259.23648    324.29669   -1432.8323   -3893.0537 
 7681000    250.84745   -4701.0548   -4217.2744   -4701.0548            0    3989.5983    20.080953     20.15497    20.943367    8476.4299     4500.398    3339.5902    4128.8067   -166.30703   -1556.1994   -1763.3029   -3724.0801 
 7682000    259.63068   -4704.2788   -4203.5591   -4704.2788            0    2320.3658    19.920006    20.188332    21.107274    8488.3261    4332.0687    1388.8879    1240.1409   -187.31301   -106.30558     241.1372   -3916.3129 
 7683000    251.84215   -4730.2742   -4244.5754   -4730.2742            0    3839.9121    20.053925     20.04842    21.010323    8447.1903    2607.2003    5079.0758    3833.4604   -231.13915   -205.06435    1430.2326   -3771.5228 
 7684000    239.31288   -4694.6668   -4233.1318   -4694.6668            0    2704.2042    20.198024     20.10831    20.754476    8429.3915     1587.278    3758.1161    2767.2185    114.29372   -1048.6431    280.42672   -3900.6931 
 7685000    265.37405   -4697.2699   -4185.4737   -4697.2699            0    1615.1723    20.283233    20.050435    20.961091    8524.6169    881.26572    2444.6215    1519.6298   -811.18784    695.54151    931.98467    -3984.671 
 7686000    257.26485   -4675.5534   -4179.3965   -4675.5534            0    3431.9182    19.979547    20.215187    21.264339    8588.4598    4368.1633    4008.7687    1918.8225   -65.988314   -1404.5619     507.2298   -3749.5354 
 7687000    249.99557   -4700.1146   -4217.9771   -4700.1146            0    2165.6692    20.174997    20.166434    20.956386    8526.2679    1731.8716    3090.4307    1674.7053    58.553448   -337.69132   -393.20433   -3948.6829 
 7688000    259.47631   -4694.1377   -4193.7158   -4694.1377            0    2015.1121    20.207097    20.069741    20.995365    8514.6954    1871.2151    2661.1877    1512.9335   -193.39538   -335.62947    642.41286    -3943.483 
 7689000     238.3803   -4695.6744   -4235.9379   -4695.6744            0    3213.9565    20.055654    20.101353    21.000602    8466.3039    3122.4819    3336.6712    3182.7163    405.55479    405.96837   -1475.1277   -3839.1032 
 7690000     268.0263    -4686.708   -4169.7968    -4686.708            0    519.80973    20.376823     19.98487    21.152855    8614.0381    66.789432    1907.2924   -414.65266   -426.66039   -1257.4885   -290.99045   -4104.4947 
 7691000    257.36103   -4706.3969   -4210.0545   -4706.3969            0    2964.4956    20.066543     20.19376    20.658529    8371.2279    3990.7986    2854.4872     2048.201   -404.80375   -440.53062    859.92526   -3848.1318 
 7692000    258.47512   -4696.6185   -4198.1275   -4696.6185            0    690.83242    20.351597    20.129258     20.94256    8579.3829   -186.31345    347.41487    1911.3958   -92.339652    422.25094    992.75328   -4111.6895 
 7693000    249.86835    -4682.085   -4200.1929    -4682.085            0   -115.46551    20.118327    20.277863    21.200057    8648.7046   -260.97773    404.06537   -489.48418    940.91704    4.4788504    247.63941   -4214.7568 
 7694000     257.2089   -4680.3851   -4184.3361   -4680.3851            0     2274.003    20.246347    20.124156    20.927148    8526.5712    1268.0876    2650.9922     2902.929    113.53894    400.51097    683.82862   -3901.5609 
 7695000    258.65417   -4707.0789   -4208.2425   -4707.0789            0    4084.9857    20.177843    20.100631    20.684381    8389.3237    3612.3571    3556.4383    5086.1619    710.22683    412.48953   -1485.5677   -3708.4458 
 7696000    252.26978    -4696.845   -4210.3215    -4696.845            0    1307.3889    20.250185    20.361599    20.782201    8569.0449    2545.7083   -461.41229    1837.8707   -476.95614    134.41287   -18.521741   -4046.9362 
 7697000    263.08322   -4717.9645   -4210.5863   -4717.9645            0    2733.5586    20.325739    19.979563    20.775274    8436.8258    2096.0946    4152.8182    1951.7628   -167.78962    349.53398   -718.56189   -3874.2426 
 7698000    242.15911   -4670.8973   -4203.8731   -4670.8973            0    4967.8132    20.026545    20.114739    20.929245    8430.9008    5876.7564    3911.9523    5114.7307    407.21953   -669.51401    228.62936   -3593.0504 
 7699000    263.19157   -4691.0334   -4183.4464   -4691.0334            0    993.15335    20.173792    20.115939    21.110011    8566.7543    1499.5061     1134.273    345.68087   -57.559454    728.04025    774.57335   -4059.3645 
 7700000     242.8189   -4692.6643   -4224.3677   -4692.6643            0    -198.2293    20.379101    20.209432    20.908945    8611.3502   -88.530254    -873.3887    367.23106   -596.52513   -182.69531   -155.60612   -4249.2628 
 7701000    246.80606   -4694.5325   -4218.5462   -4694.5325            0    493.48451    20.261272    20.224118    20.981765    8597.6212   -1423.0907    1003.0704    1900.4738    211.77501    576.37716   -886.02267   -4156.6695 
 7702000    253.15945   -4691.1671   -4202.9278   -4691.1671            0    2945.5044    20.184118    19.991411    21.079556    8505.7904    1497.0718    5249.1894    2090.2521   -818.39101    40.574074   -1980.9622   -3837.5432 
 7703000    247.27309   -4714.8418   -4237.9549   -4714.8418            0    4101.3779    19.970626    20.073209    20.906355    8380.8257    4035.8397    3906.7808    4361.5133   -249.50146   -681.19609   -768.89726   -3736.6609 
 7704000    244.33989   -4709.8779   -4238.6479   -4709.8779            0    1943.9203    20.253148    19.918909    21.020026    8479.9114    1067.1884    3145.5925      1618.98   -910.92509    985.13755   -384.29235   -3998.2417 
 7705000    253.37536   -4736.6436   -4247.9879   -4736.6436            0    1808.8938    20.206659    19.987476    20.827008    8411.6138    646.83967    2049.3123    2730.5294   -331.86309     638.7391   -594.12586   -4026.0823 
 7706000    261.00487   -4742.6928   -4239.3229   -4742.6928            0    1225.6249    20.268119    20.273302    20.834709    8561.0176   -1223.0237    2743.4859    2156.4127   -380.71565    1118.3441    134.33549   -4086.2992 
 7707000     260.6917   -4723.6357   -4220.8698   -4723.6357            0    2867.3308    20.188022    19.956358    20.921651     8428.902    2952.8924    2999.7346    2649.3655   -347.63744    496.17102    16.787578   -3868.3977 
 7708000    266.77549    -4716.292   -4201.7931    -4716.292            0    2841.3058    20.174351    20.152405    20.861332    8481.4186    1783.4072    3490.1452    3250.3651   -469.00319   -106.46753    1085.5035    -3850.344 
 7709000    263.21634   -4730.6443   -4223.0095   -4730.6443            0    3089.9825    19.902488    20.067427    21.026765    8397.9162    3048.5764    2952.6912    3268.6799    453.87757    -16.79594     841.4751   -3844.5639 
 7710000    258.94112   -4674.0044   -4174.6146   -4674.0044            0    2995.5451    20.346613    20.113117    20.930542    8565.4854    2402.8509    4154.3173    2429.4672    841.42729    374.56852     125.6672   -3800.4147 
 7711000    261.33989   -4716.1202   -4212.1042   -4716.1202            0    1647.3687    20.317722    20.154356    20.728855    8488.2714     1622.246    772.45391    2547.4062    178.79779    1867.3799   -277.85359    -4008.172 
 7712000    256.36965   -4701.8722   -4207.4418   -4701.8722            0    2030.7401    20.007505    20.334605    20.838047    8477.8493    3185.8812    1775.7606    1130.5785     180.4337    249.67468    1418.0735   -3956.3596 
 7713000    265.23163   -4699.6197   -4188.0982   -4699.6197            0    1820.0061    20.393734    19.965036    21.019229    8558.2236    1075.1047    2742.0797    1642.8338   -219.02725   -929.72103    190.69701    -3960.938 
 7714000    259.96387   -4710.3661   -4209.0039   -4710.3661            0    1728.1639    20.013451    20.256629    20.960501     8497.493    1911.9802    1965.3636    1307.1479   -227.40696   -534.86905    549.03801   -3994.8373 
 7715000    248.48625   -4730.3171   -4251.0905   -4730.3171            0    4477.5629    20.166341    19.822708    21.138533    8450.1603    4084.1277    6054.3442    3294.2167   -26.032659    1300.2607    204.30364   -3699.2894 
 7716000    252.19589    -4717.861   -4231.4801    -4717.861            0    1754.1817    20.188047    20.068572     20.91659    8474.2578    757.24214    3061.8806    1443.4223   -292.97558    233.15563    386.59373   -4014.6836 
 7717000    242.26024   -4718.3871   -4251.1679   -4718.3871            0    621.11195    20.259758    20.218421    20.816255    8526.7609    1791.9448    -914.9375    986.32854   -177.97075    730.87426    133.83114   -4173.9301 
 7718000    263.00755   -4700.1732    -4192.941   -4700.1732            0    760.92464    20.124509    20.369518    20.915672    8573.8891    1398.1974    375.38964     509.1869   -283.49863   -1797.4192    561.40932    -4097.794 
 7719000     261.4567    -4700.807   -4196.5657    -4700.807            0    2737.3951    19.917172    20.010721    21.277711    8480.3801    3607.4634    2387.0948    2217.6271    301.64271   -529.62772    628.85259   -3858.0112 
 7720000    248.08838    -4716.985   -4238.5257    -4716.985            0      2247.15    20.167003    20.108913    21.010976    8520.7177    2042.9115    2307.8369    2390.7016    292.34196   -1041.2743   -235.69169   -3959.2816 
 7721000    252.53511   -4703.2072    -4216.172   -4703.2072            0    1341.4181    20.195403    20.245077    20.809757    8508.2251    2147.5125     821.9713    1054.7705   -724.76524   -158.64071   -314.24723   -4049.7238 
 7722000    256.30596   -4725.3557   -4231.0481   -4725.3557            0    2376.6876    20.328037    20.002517    20.831413    8470.3005    3062.1622    722.63726    3345.2633   -542.55993   -490.93482   -560.87498   -3937.4543 
 7723000     243.2057   -4696.4937   -4227.4511   -4696.4937            0    1896.1505    20.109992     20.10462    21.029739    8502.4024    3159.5713    1852.9754    675.90488     329.9308    407.13917   -1485.9268   -3992.3307 
 7724000    255.26569   -4696.7903   -4204.4889   -4696.7903            0    2218.3763    20.168188    20.059679    20.973229    8485.0841    1948.3106    2728.3141    1978.5042    36.675612   -1509.2008     138.8048   -3929.9732 
 7725000      257.813   -4729.7483   -4232.5343   -4729.7483            0    3627.7857     20.12441    19.996485    20.998401    8450.1233    4021.5357    3919.0615    2942.7599    393.38293     1135.432   -1780.4131   -3785.4591 
 7726000    254.33069   -4698.4969   -4207.9987   -4698.4969            0    3156.4071    20.203368     20.11524    20.923079    8503.0467    3972.9249    1079.8875     4416.409   -205.60919    91.017631   -247.97986   -3816.5783 
 7727000    269.18524    -4663.511   -4144.3646    -4663.511            0    3154.8578    20.283206     20.10291    20.788355     8476.482    4074.6621    1554.1205    3835.7909    -347.6245    -126.6719   -77.262798   -3754.3586 
 7728000    270.99191   -4706.9632   -4184.3325   -4706.9632            0    2553.2136    20.163148    20.027371    21.103485    8521.9008    581.08604    3275.7136     3802.841    676.11876    912.73562    389.49868    -3867.011 
 7729000    249.98426   -4673.7415   -4191.6259   -4673.7415            0    3016.9219    20.082271    19.983674      21.0989    8467.3592    3425.2793    2693.0163      2932.47   -257.11938    174.42656    68.549017    -3819.073 
 7730000    273.79775   -4699.4632   -4171.4212   -4699.4632            0    1608.3938    20.244216    20.192314     20.88778    8538.4556    823.54287    917.98229    3083.6563      348.928    734.18483    290.83874   -3971.1366 
 7731000    265.49766   -4700.9705    -4188.936   -4700.9705            0    1803.6355    20.321205    20.237259    20.674762    8502.4026    1498.3299    2002.5607    1910.0159    427.38186   -52.866869   -304.39488   -3965.2873 
 7732000    257.54451   -4699.3131   -4202.6168   -4699.3131            0    1444.1001    20.225132     20.14433    20.960425    8539.7325    1124.8072    218.84079    2988.6524   -109.78755    20.248562   -75.756139   -4022.7639 
 7733000    247.86861   -4696.2968   -4218.2614   -4696.2968            0      1516.36    19.929615     20.07091    21.153366    8461.4629    3323.4303    963.53891    262.11072    -93.92174   -372.84019   -563.72425   -4031.1399 
 7734000    263.24355   -4696.3749   -4188.6875   -4696.3749            0    2020.6847    20.264887    20.178958     20.88489    8540.3389    3029.3394    2033.1364    999.57815    1123.8098   -976.38619    98.277537   -3937.0071 
 7735000    241.08615   -4698.1426   -4233.1877   -4698.1426            0    2610.7058     20.07379    20.335806    20.778191    8482.0045    1129.0488    3301.0005    3402.0679    513.14871   -1194.5321   -504.97626   -3910.2399 
 7736000    246.67757   -4707.6344    -4231.896   -4707.6344            0    1965.3818     20.15523     20.25334    20.944749    8549.8712    2886.0592    1579.8031     1430.283    500.01552   -682.73134     -866.669   -3986.8303 
 7737000    254.45734   -4703.2989   -4212.5565   -4703.2989            0    3437.0187    20.231792    19.934272    21.147786    8529.0298    2687.2768    4559.5144     3064.265   -237.88612    864.33041   -979.41855   -3785.0356 
 7738000     270.4135    -4713.568   -4192.0528    -4713.568            0    2373.7396    20.028333    20.199036     21.10773    8539.1961    2957.5944    2246.1247    1917.4998    66.725291    532.69169    1388.7203   -3896.4381 
 7739000    246.69065   -4690.8699   -4215.1063   -4690.8699            0    1706.5944    20.189833    20.157138     20.88996    8501.5713     1902.205    1638.5349    1579.0434    622.26956    1076.4826    286.65215   -4003.5113 
 7740000    254.46678   -4685.8855   -4195.1249   -4685.8855            0    2067.1002    19.973851    20.189033    20.968444    8455.5825    2133.5361    2758.2552    1309.5094   -276.68332   -708.83029    278.44464   -3940.2184 
 7741000    246.83032   -4709.0048   -4232.9718   -4709.0048            0    770.85262    20.068267    20.086127    21.275906    8576.1847    385.07226     2699.995   -772.50943   -3.4622098   -350.01738    687.07133   -4136.5575 
 7742000    256.67778   -4694.8603   -4199.8356   -4694.8603            0     3165.473    20.188508     20.06624    20.777293    8417.0361    3308.2609     2125.784    4062.3741   -391.48453    419.53135   -420.96879   -3811.2617 
 7743000    254.24894   -4672.6322   -4182.2918   -4672.6322            0    2796.6315    20.230125    20.241362    20.884265    8551.7992    2307.5672     2635.672    3446.6553   -487.22277    -1383.532   -650.07693   -3833.4981 
 7744000    257.60126   -4689.6556   -4192.8499   -4689.6556            0    2153.0939    20.081994    20.269813    21.032231    8561.3433    2395.5364    914.70553    3149.0397   -506.31917   -343.82108   -111.65974    -3924.018 
 7745000    275.20749   -4696.2091   -4165.4483   -4696.2091            0      1674.84    20.219417    19.963768    21.321572    8606.5752    166.64242    2572.7839    2285.0936   -1217.9473    197.68756    69.492158   -3955.2257 
 7746000    271.32256   -4711.3407   -4188.0723   -4711.3407            0    2021.7398    20.193555    19.918068    21.098917    8486.3345    1535.2704     3587.871     942.0781   -925.99921    976.76608   -839.60005   -3937.8527 
 7747000    260.60065   -4720.4175   -4217.8272   -4720.4175            0     1523.935    20.257447    20.263882    20.686332    8491.6261    2513.1496   -253.14866    2311.8041   -48.871635    1436.3349    31.158293   -4029.1006 
 7748000    270.52187    -4711.734   -4190.0098    -4711.734            0    2244.2424    20.311035    20.099344    20.731997    8463.5991      1688.93    2774.7698    2269.0275    -1105.185    909.26558    180.62472   -3912.9964 
 7749000    243.32501    -4699.281   -4230.0082    -4699.281            0    2981.6563    20.085429    20.096807    21.073301    8506.3009    5307.7407    998.56602    2638.6622    -112.8206    690.72412    171.23411   -3860.1168 
 7750000    261.97895   -4660.4409   -4155.1925   -4660.4409            0    2996.2562    19.939213    20.217718    21.084469    8499.6848    4460.8676    2313.9001    2214.0009   -130.22009   -555.84019   -284.07924    -3783.779 
Loop time of 472.169 on 64 procs for 250000 steps with 972 atoms

Performance: 91.493 ns/day, 0.262 hours/ns, 529.471 timesteps/s
99.2% CPU use with 64 MPI tasks x 1 OpenMP threads

MPI task timing breakdown:
Section |  min time  |  avg time  |  max time  |%varavg| %total
---------------------------------------------------------------
Pair    | 19.488     | 27.552     | 35.572     |  77.3 |  5.84
Bond    | 0.27116    | 0.27942    | 0.29497    |   1.0 |  0.06
Kspace  | 194.74     | 206.15     | 222.95     |  50.8 | 43.66
Neigh   | 2.9715     | 3.5703     | 4.4323     |  22.6 |  0.76
Comm    | 97.529     | 110.03     | 120.75     |  64.0 | 23.30
Output  | 1.9856     | 1.9877     | 2.0001     |   0.2 |  0.42
Modify  | 112.91     | 115.08     | 118.77     |  11.6 | 24.37
Other   |            | 7.519      |            |       |  1.59

Nlocal:        15.1875 ave          19 max          11 min
Histogram: 1 3 8 14 0 10 12 9 3 4
Nghost:        2165.02 ave        2193 max        2132 min
Histogram: 1 5 4 3 19 7 8 4 7 6
Neighs:        4632.53 ave        6273 max        3211 min
Histogram: 4 3 12 7 13 7 6 7 4 1

Total # of neighbors = 296482
Ave neighs/atom = 305.02263
Ave special neighs/atom = 2.0000000
Neighbor list builds = 7987
Dangerous builds = 0

unfix		3
unfix		2
unfix		1

write_data	data.final.${pid}
write_data	data.final.0
System init for write_data ...
PPPM initialization ...
  extracting TIP4P info from pair style
  using 12-bit tables for long-range coulomb (../kspace.cpp:340)
  G vector (1/distance) = 0.37180636
  grid = 24 24 25
  stencil order = 5
  estimated absolute RMS force accuracy = 0.0034815829
  estimated relative force accuracy = 1.0484684e-05
  using double precision FFTW3
  3d grid and FFT values/proc = 2366 288
Last active /omp style is kspace_style pppm/tip4p/omp
WARNING: Not all mixed pair coeffs generated from mixing. Use write_data with 'pair ij' option to store all pair coeffs. (../write_data.cpp:312)

write_restart   restart.lmp.${pid}
write_restart   restart.lmp.0
System init for write_restart ...
PPPM initialization ...
  extracting TIP4P info from pair style
  using 12-bit tables for long-range coulomb (../kspace.cpp:340)
  G vector (1/distance) = 0.37180636
  grid = 24 24 25
  stencil order = 5
  estimated absolute RMS force accuracy = 0.0034815829
  estimated relative force accuracy = 1.0484684e-05
  using double precision FFTW3
  3d grid and FFT values/proc = 2366 288
Last active /omp style is kspace_style pppm/tip4p/omp
Total wall time: 0:07:55
