LAMMPS (30 Jul 2021)
Processor partition = 1
  using 2 OpenMP thread(s) per MPI task
using multi-threaded neighbor list subroutines
variable        pid world 0 1
variable        phase world IceV IceIII

shell cd ${phase}
shell cd IceIII
include Restart.lmp
echo both
log log.lammps
#include		in.partitions
include		in.temp
variable        temperature equal 206.47
variable	tempDamp equal 100.0
include		in.pressure
variable        pressure equal 7529.2
variable        pressureDamp equal 1000.0 # This is 1 ps
include		in.seed
variable        seed equal 745823

units		real
atom_style	full

read_restart	restart.lmp.${pid}
read_restart	restart.lmp.1
Reading restart file ...
  restart file = 30 Jul 2021, LAMMPS = 30 Jul 2021
  restoring atom style full from restart
  orthogonal box = (-0.00026382945 0.15484004 0.14014947) to (20.000265 19.845161 20.559849)
  4 by 2 by 4 MPI processor grid
  restoring pair style lj/cut/tip4p/long/omp from restart
  restoring bond style harmonic/omp from restart
  restoring angle style harmonic/omp from restart
  972 atoms
  648 bonds
  324 angles
Finding 1-2 1-3 1-4 neighbors ...
  special bond factors lj:    0        0        0       
  special bond factors coul:  0        0        0       
     2 = max # of 1-2 neighbors
     1 = max # of 1-3 neighbors
     1 = max # of 1-4 neighbors
     2 = max # of special neighbors
  special bonds CPU = 0.002 seconds
  read_restart CPU = 0.007 seconds
include 	in.setup
variable	out_freq equal 1000
variable	out_freq2 equal 10000
variable	out_freq3 equal 1000

timestep	2.0

neigh_modify    delay 7 every 1

include		in.tip4p
# This is TIP4P/Ice

# create groups ###
group ox type 2
324 atoms in group ox
group hy type 1
648 atoms in group hy

# set charges - beside manually ###
set group ox charge -1.1794
Setting atom values ...
  324 settings made for charge
set group hy charge 0.5897
Setting atom values ...
  648 settings made for charge

# ### TIP3P Potential Parameters ###
pair_style lj/cut/tip4p/long/omp 2 1 1 1 0.1577 8.5
pair_coeff 1 1*2 0.000 0.000
pair_coeff 2 2 0.21084 3.1668
bond_style  harmonic
bond_coeff  1 450 0.9572
angle_style harmonic
angle_coeff 1 55 104.52
kspace_style pppm/tip4p/omp 1.0e-5
pair_modify tail yes

thermo          ${out_freq}
thermo          1000
thermo_style    custom step temp pe etotal epair emol press lx ly lz vol pxx pyy pzz pxy pxz pyz enthalpy

restart 	${out_freq3} restart.lmp.${pid} restart2.lmp.${pid}
restart 	1000 restart.lmp.${pid} restart2.lmp.${pid}
restart 	1000 restart.lmp.1 restart2.lmp.${pid}
restart 	1000 restart.lmp.1 restart2.lmp.1


include         in.dump
dump            myDump all atom ${out_freq2} dump.water.${pid}
dump            myDump all atom 10000 dump.water.${pid}
dump            myDump all atom 10000 dump.water.1
dump            myDump2 all dcd ${out_freq2} dump.dcd
dump            myDump2 all dcd 10000 dump.dcd
dump_modify     myDump append yes
dump_modify     myDump2 append yes


variable natoms 	equal  "count(all)"                        # NUMBER ATOMS
variable H      	equal  "enthalpy/v_natoms"                 # ENTHALPY-per-atom
variable Vol      	equal  "vol/v_natoms"                 # volume-per-atom
fix AVG all 		ave/time ${out_freq} 1 ${out_freq} v_Vol v_H file vol_enthalpy.dat
fix AVG all 		ave/time 1000 1 ${out_freq} v_Vol v_H file vol_enthalpy.dat
fix AVG all 		ave/time 1000 1 1000 v_Vol v_H file vol_enthalpy.dat


timer           timeout 02:55:00 every 1000
New timer settings: style=normal  mode=nosync  timeout=02:55:00

fix 		1 all shake 1e-6 200 0 b 1 a 1
Finding SHAKE clusters ...
       0 = # of size 2 clusters
       0 = # of size 3 clusters
       0 = # of size 4 clusters
     324 = # of frozen angles
  find clusters CPU = 0.000 seconds
fix             2 all nph aniso ${pressure} ${pressure} ${pressureDamp}
fix             2 all nph aniso 7529.2 ${pressure} ${pressureDamp}
fix             2 all nph aniso 7529.2 7529.2 ${pressureDamp}
fix             2 all nph aniso 7529.2 7529.2 1000
fix             3 all temp/csvr ${temperature} ${temperature} ${tempDamp} ${seed}
fix             3 all temp/csvr 206.47 ${temperature} ${tempDamp} ${seed}
fix             3 all temp/csvr 206.47 206.47 ${tempDamp} ${seed}
fix             3 all temp/csvr 206.47 206.47 100 ${seed}
fix             3 all temp/csvr 206.47 206.47 100 745823


run             250000
PPPM initialization ...
  extracting TIP4P info from pair style
  using 12-bit tables for long-range coulomb (../kspace.cpp:340)
  G vector (1/distance) = 0.37215923
  grid = 24 24 24
  stencil order = 5
  estimated absolute RMS force accuracy = 0.0035122023
  estimated relative force accuracy = 1.0576893e-05
  using double precision FFTW3
  3d grid and FFT values/proc = 3211 432
Last active /omp style is kspace_style pppm/tip4p/omp
Neighbor list info ...
  update every 1 steps, delay 7 steps, check yes
  max neighbors/atom: 2000, page size: 100000
  master list distance cutoff = 10.8154
  ghost atom cutoff = 10.8154
  binsize = 5.4077, bins = 4 4 4
  1 neighbor lists, perpetual/occasional/extra = 1 0 0
  (1) pair lj/cut/tip4p/long/omp, perpetual
      attributes: half, newton on, omp
      pair build: half/bin/newton/omp
      stencil: half/bin/3d
      bin: standard
Setting up Verlet run ...
  Unit style    : real
  Current step  : 11250000
  Time step     : 2
  Walltime left : 2:54:59.93
Per MPI rank memory allocation (min/avg/max) = 10.18 | 10.19 | 10.19 Mbytes
Step Temp PotEng TotEng E_pair E_mol Press Lx Ly Lz Volume Pxx Pyy Pzz Pxy Pxz Pyz Enthalpy 
11250000    209.70529   -4783.1996   -4378.7653   -4783.1996            0    8389.5561    20.000529    19.690321    20.419699    8041.6211     7440.055    8982.7363    8745.8769   -151.37035    -9.083975    1377.2992   -3394.8483 
11251000    198.80833   -4799.7656    -4416.347   -4799.7656            0    8080.9139    19.603915    19.889759    20.702428    8072.2317     10337.89    7198.3505    6706.5008    205.23126    1173.0008    81.523659   -3465.0196 
11252000    201.11267   -4811.6787    -4423.816   -4811.6787            0    5589.8167    19.809696    20.023616     20.51303    8136.7343    5548.8928     3830.207    7390.3504    -919.6632    582.21543   -953.68588   -3760.4953 
11253000    212.38617   -4827.6179   -4418.0133   -4827.6179            0    6909.5795    19.867459    19.473644      20.7378     8023.285    8180.9064    5632.1189    6915.7131   -530.58096    515.07263   -204.42411   -3609.5139 
11254000    195.55889   -4824.4965   -4447.3447   -4824.4965            0    6830.0153    19.609286    20.153621    20.433831    8075.4114    7753.1788    4882.3812     7854.486    26.997434   -241.69917     236.7036   -3642.9629 
11255000    204.57334   -4810.0274   -4415.4906   -4810.0274            0    7033.7877    19.795545    19.854847    20.621249    8104.9241    7778.6892    6528.8651    6793.8089    303.03514    515.68683   -356.29403   -3584.0828 
11256000    208.97945   -4804.4685   -4401.4341   -4804.4685            0    9035.2075    19.826587    19.935218    20.374904    8053.1269    8886.8499    8993.1976    9225.5751     191.0175     192.2911   -345.98277   -3340.2797 
11257000    214.81668   -4825.0476   -4410.7556   -4825.0476            0    7858.3962    19.920211    19.687978    20.496721    8038.5815    8138.8573    8146.4651    7289.8663   -379.39559    660.45438   -612.17848   -3489.4807 
11258000    209.03025    -4808.584   -4405.4516    -4808.584            0    8786.5491    19.954319    19.681891    20.489193    8046.8998    6162.5879    10286.437    9910.6223   -898.02722   -75.121222   -1029.6999   -3374.2993 
11259000    222.15875   -4823.9539   -4395.5021   -4823.9539            0    8494.6962    19.842002    19.733207    20.610031    8069.7819    9239.5317    8293.8996    7950.6572   -367.07666    485.03974    996.10487   -3395.7656 
11260000    208.09088   -4813.4865   -4412.1657   -4813.4865            0    6284.4294    19.900173    20.040027    20.489459    8171.1963    6339.3691     6003.292    6510.6271   -1237.2416    -398.6998     1102.782   -3663.2596 
11261000    207.32916   -4817.4631   -4417.6114   -4817.4631            0    8265.1189    19.643477     19.98423    20.482575    8040.6347    8983.0511    5877.2873    9935.0185    242.42947    1181.5981    1087.5873   -3448.4071 
11262000    208.69541   -4785.8558   -4383.3692   -4785.8558            0    6338.0148    19.750253    19.929389     20.56969    8096.4453    5794.0184    7294.0223    5926.0037    36.468028    463.46738   -239.56419   -3634.9869 
11263000    224.00229   -4813.0663    -4381.059   -4813.0663            0     8526.942     19.84372    19.744339    20.463087    8017.4609    6497.7139    10531.273     8551.839   -397.88182     1004.232   -122.83388    -3384.034 
11264000    209.71218    -4824.331   -4419.8835    -4824.331            0    6969.6418    19.719966    19.875532    20.521038    8043.1144    7286.9484    5991.7043    7630.2725   -551.46089    940.31898    46.183895   -3602.3405 
11265000    201.03837   -4808.3587   -4420.6392   -4808.3587            0    7167.9122    19.674787     20.03525    20.485824    8075.2922    6488.2926    7833.2728    7182.1712   -117.55588   -302.44443    433.11174   -3576.4753 
11266000    214.34992   -4831.3239    -4417.932   -4831.3239            0    6569.4693    19.760849    20.004943    20.443836    8081.7483    6866.5504    5293.3653    7548.4923    458.65766   -853.98607     124.2718    -3643.628 
11267000     216.6759   -4835.0193   -4417.1416   -4835.0193            0    8823.9911    19.802108    19.835974    20.543278    8069.2782     9275.186    9298.9826    7897.8046    325.01464    92.347083    149.82391   -3378.7154 
11268000    197.43482   -4819.7204   -4438.9507   -4819.7204            0    7037.7313    19.905885    19.930469     20.46658    8119.7805    8327.6482    5299.0523    7486.4933    642.31794    1050.5688   -1866.5331    -3605.552 
11269000    202.39978   -4809.6699   -4419.3249   -4809.6699            0    6861.2481    19.914633    19.767246    20.545374    8087.8396    5572.4064    7602.2651    7409.0727   -558.67195    598.13328    -255.5025   -3610.0212 
11270000    203.49934   -4820.2668   -4427.8012   -4820.2668            0    6631.5464    19.810262    19.818709    20.666873    8114.0999    6749.2419    6909.7481    6235.6493    -408.2235   -720.44026    809.37359   -3643.0517 
11271000    196.97673   -4826.5149   -4446.6287   -4826.5149            0    6686.4601    20.132041    19.719061    20.437852    8113.5196    5160.6806    7502.2381    7396.4616   -186.24983    143.65456    1759.4182   -3655.4375 
11272000    208.91936   -4816.0807   -4413.1622   -4816.0807            0    6794.4071    19.699908    19.889958     20.53734    8047.1532    6753.7844    7149.1904    6480.2465   -808.79723   -266.68825    712.85589   -3615.7741 
11273000    201.88042   -4827.6046   -4438.2612   -4827.6046            0    8458.5544    19.859721    19.670786    20.620142    8055.3888    9008.7827    7439.2562    8927.6244    332.39406    1782.6406    609.99384   -3444.5538 
11274000    218.21688   -4802.7966    -4381.947   -4802.7966            0    6471.2264    19.828074    19.914293    20.537249    8109.3809    6881.8745     6365.969    6165.8356   -316.37775    831.30275    185.30849   -3616.6144 
11275000    217.86562   -4813.8692    -4393.697   -4813.8692            0     8141.029    19.882247    19.674349    20.707943    8100.3314    8481.6814    8829.8999    7111.5056   -1171.6734    -355.1781    877.71714   -3431.9563 
11276000     204.6473   -4784.1018   -4389.4223   -4784.1018            0     7195.682    19.914841      19.8103    20.472122    8076.6406    6134.0376     7068.993    8384.0154   -19.889015    412.86399    61.000521   -3541.8464 
11277000    209.01728   -4797.6108   -4394.5034   -4797.6108            0    6120.7684     19.92849    19.812284     20.64511    8151.2862    7382.6066     4357.957    6621.7416   -30.613681    895.28683    383.96686   -3666.8778 
11278000    212.48905   -4837.7745   -4427.9715   -4837.7745            0    8499.9054    19.991095    19.663648    20.511107    8062.8724    5492.8545    11741.332      8265.53   -374.50614    656.60639   -802.62418   -3428.4784 
11279000    209.14373   -4819.0079   -4415.6566   -4819.0079            0    6142.0653    19.918837    19.965281    20.418935    8120.3079    4884.5363      6967.55    6574.1096   -34.290196   -779.21829   -871.36003   -3688.2742 
11280000    202.43424   -4786.5793   -4396.1678   -4786.5793            0    8062.3309    19.741842    19.923579    20.664877     8128.078    7840.4851    8791.0981    7555.4093    169.09328   -397.51161   -111.11447   -3440.4617 
11281000    207.90588   -4798.3442   -4397.3802   -4798.3442            0    7123.3052    19.934126    19.929858    20.555064    8166.2042    8046.9808    7409.4404    5913.4944   -362.34745    568.74524   -673.84947   -3549.0251 
11282000    195.79222   -4782.6257    -4405.024   -4782.6257            0    7474.3808    19.855317    19.816258     20.55176    8086.2563    6722.5735    8639.9737    7060.5954   -481.67622   -11.974173   -384.83542   -3523.5721 
11283000    210.11927   -4817.5414   -4412.3087   -4817.5414            0    8063.0444    20.070584    19.723821    20.422826    8084.7555    9918.0464    6725.6332    7545.4537    -286.8216    1443.7901    242.17318   -3461.6123 
11284000    199.01998   -4821.7461   -4437.9193   -4821.7461            0    6451.9891    19.805472    19.868052     20.63351    8119.2064    6973.9129    6051.2666    6330.7877   -537.60417   -725.68939   -660.62775   -3673.9374 
11285000    197.84047   -4836.9463   -4455.3943   -4836.9463            0    8478.5491    19.954126    19.948837     20.27196    8069.4894    9318.6362    7867.8895    8249.1216    264.74601    1949.5438   -469.37714   -3457.5943 
11286000    197.65707   -4816.2935   -4435.0953   -4816.2935            0    7705.3776    19.895892    19.632037    20.645659    8064.1304    7353.1655    8426.4988    7336.4684    122.05154    361.84333   -1638.9007   -3528.8884 
11287000    211.73763   -4819.4385   -4411.0847   -4819.4385            0    8899.1415    19.651645    19.995867    20.499335     8055.248    9746.0601    8353.4731    8597.8912    548.19729   -1609.1125   -279.12536   -3365.6355 
11288000    203.44343   -4791.7199   -4399.3621   -4791.7199            0    9253.9759    19.636839    19.806853    20.636442      8026.42    8979.9193    10249.752    8532.2558    15.892873    331.80085    708.63662   -3316.1185 
11289000    204.36708   -4831.4358   -4437.2967   -4831.4358            0    8460.0337    19.932691    19.884962    20.414036    8091.3237    8655.1117    7950.2882    8774.7011   -489.24149    1594.6386   -22.911132   -3438.9818 
11290000    209.07751   -4821.4386   -4418.2151   -4821.4386            0     6465.324    20.024951    19.650059    20.575651    8096.3432    6552.2107    6903.7304    5940.0309    -602.1141    911.64106   -141.22628   -3654.8099 
11291000    205.36971   -4812.7923   -4416.7196   -4812.7923            0    6920.6063    19.987519     19.74596    20.542596    8107.6031    5512.3303    8148.7976     7100.691    -208.8571    312.59495    1303.3139   -3598.4196 
11292000    206.04631    -4822.931   -4425.5534    -4822.931            0    8125.5848    19.792465    19.918954    20.439093    8058.0146    9124.6902     7292.308    7959.7562    -225.5147     189.9813   -555.63564   -3470.6519 
11293000    209.86765   -4810.4806   -4405.7332   -4810.4806            0    7335.5667    19.995747    19.605308    20.637014    8090.1793    7889.2215    8118.2885      5999.19   -225.37212    538.12775     20.51378   -3540.2319 
11294000    206.13318   -4825.8008   -4428.2557   -4825.8008            0    8425.3538    19.636672    20.024046    20.256732    7965.0611    9197.6409    7338.4631    8739.9572    188.17448   -388.55547   -244.27327   -3449.5476 
11295000    205.53762   -4833.3878   -4436.9912   -4833.3878            0    7991.4679    19.748599    19.701977    20.632756    8027.9258    8854.0061    7186.9327     7933.465    513.86322   -204.40169    210.77255   -3501.3576 
11296000    201.15622   -4819.3894   -4431.4427   -4819.3894            0    7485.6849    20.012187    19.830083    20.354916    8077.7128     5511.829     7810.518    9134.7078     117.4055    490.15689    448.10064   -3549.5904 
11297000     209.9223   -4826.2317   -4421.3789   -4826.2317            0    8232.2661    19.891342    19.735555    20.644754    8104.4423    11065.817    6621.8825    7009.0992    152.87332    353.35763    172.88886   -3448.3664 
11298000    201.23578   -4825.9692   -4437.8691   -4825.9692            0    8091.3685    19.905354     19.68551      20.5737    8061.7432    9003.3488    7178.0485     8092.708   -320.53902   -725.25705   -740.61334   -3486.5487 
11299000    208.63076   -4811.3845   -4409.0226   -4811.3845            0    6363.3271    19.923754    19.670176    20.702784    8113.4986    4909.9268    8168.9009    6011.1536   -989.67937     379.5933   -12.946834   -3656.0688 
11300000    200.46193   -4826.0321   -4439.4244   -4826.0321            0    9180.9986    19.930848    19.889401    20.287897    8042.3782    8783.9874    8808.1973    9950.8109    153.46035    -561.5448   -1215.6715   -3362.5866 
11301000    214.64176   -4783.9549   -4370.0003   -4783.9549            0     6392.359    19.950328     19.88289     20.66038    8195.3567     7802.926    5954.9038    5419.2473     362.2184   -297.27656   -361.49003   -3605.9799 
11302000    202.12511   -4820.3351   -4430.5198   -4820.3351            0     8792.959    19.781549    19.934699    20.347731    8023.9086     8210.801    8625.9763    9542.0997    234.86178   -702.27749    1138.8691   -3401.5635 
11303000    198.11874   -4825.8041   -4443.7154   -4825.8041            0    8615.6858    19.820503    19.804229    20.495502    8045.0947    10227.501    6222.1665    9397.3901   -264.36182    962.10964    1935.3222   -3432.8417 
11304000    208.33503   -4792.1144   -4390.3228   -4792.1144            0    7612.0837    20.054274    19.847412      20.3571     8102.644     5086.041    8964.3906    8785.8195   -600.68003    1293.3259    268.53381   -3490.8124 
11305000    201.11916   -4810.9699   -4423.0947   -4810.9699            0    7659.9879    19.903601    19.706002    20.747758    8137.6939    6594.5352    7682.1666     8703.262   -201.75823   -559.44463    114.27245   -3514.0079 
11306000    222.25588   -4807.0771   -4378.4379   -4807.0771            0    7498.3789    19.967912    19.889562    20.451889    8122.5295    6738.5202    7191.6666    8564.9498    339.30076    543.05546    766.16367   -3490.1892 
11307000    195.14308   -4817.2104   -4440.8606   -4817.2104            0    7268.6552     19.76347    19.867011    20.584862    8082.4624    8129.4878    7123.3899    6553.0879    438.73641   -62.002628   -419.50762    -3584.072 
11308000    207.73936   -4812.8918    -4412.249   -4812.8918            0    6887.1747    19.700484    19.621776    20.850377    8059.8899    7718.0718    6940.8678    6002.5846   -627.14995    1229.4304    378.01067   -3602.6945 
11309000    203.00824   -4811.8841   -4420.3656   -4811.8841            0    8281.1148    19.846667    19.978147    20.268423    8036.4221     7351.896    8152.4968    9338.9516   -1438.7717    736.18713      170.776   -3449.7943 
11310000    207.27457   -4823.5824   -4423.8359   -4823.5824            0    8469.6276    19.705522      19.9108    20.582105    8075.4449    10098.639    8748.1965    6562.0477   -761.07324    111.51981    493.88957   -3426.3503 
11311000    207.10551   -4814.0414    -4414.621   -4814.0414            0    6287.0184    19.909803    20.040399    20.379109    8131.2727    8119.4292    5151.8494    5589.7767   -384.65825    445.17771   -1259.6023   -3669.0669 
11312000     208.1297    -4790.656   -4389.2604    -4790.656            0    5888.1321    19.903367    19.982169    20.486008    8147.5402    6172.6988    5836.8121    5654.8855    492.17688   -88.824752   -1560.0669   -3689.6118 
11313000     201.0081   -4780.0856   -4392.4246   -4780.0856            0    8095.9032    19.970827    19.632088    20.575908    8067.1763    8113.9635    7502.3267    8671.4194   -1090.0315    610.76696    283.72096   -3439.9295 
11314000    208.73749    -4815.862   -4413.2941    -4815.862            0    8747.9991    19.821267     19.70577     20.52634    8017.4515    8834.3207    9117.3834    8292.2933   -365.71348    870.05475   -93.006466   -3390.4229 
11315000    207.98551   -4823.4293   -4422.3118   -4823.4293            0    8016.0753    19.821545    19.710474    20.596205    8046.7739    8937.4343    7567.6833    7543.1082   -284.07469    366.72169    356.44998   -3481.5937 
11316000    217.10386   -4797.0029   -4378.2999   -4797.0029            0    7745.0932    19.589577    19.718142    20.821331     8042.657    8413.3158    7316.8126    7505.1512   -351.82561    -62.93466   -791.02031   -3469.8477 
11317000    195.62038   -4808.4531   -4431.1828   -4808.4531            0    6225.9135    20.015652    19.965348    20.306796    8114.9906     5808.148    5145.8041    7723.7884    251.74746    758.34917    616.77749   -3694.3533 
11318000    199.48933   -4809.3167   -4424.5848   -4809.3167            0    6920.5478    19.843442    19.763912      20.7436    8135.3087    6754.7143    7980.4839    6026.4453    116.76688   -21.539211   -352.79201   -3603.4955 
11319000    203.19887   -4838.4684   -4446.5823   -4838.4684            0    6046.9438    19.651202    19.996412    20.651246      8114.98    6928.0964    4603.9891    6608.7458   -628.04689    450.68527    595.09115   -3730.9346 
11320000    201.73644   -4805.6672   -4416.6015   -4805.6672            0    6880.5628    19.881543    19.933948    20.467327    8111.5628    8094.3619    6074.3684    6472.9582   -353.72906   -962.83726   -466.96152    -3602.639 
11321000    208.90982   -4810.1866   -4407.2864   -4810.1866            0    8811.7292    19.894202    19.656626    20.508728    8019.9973    7616.3876    11030.245    7788.5555   -496.13662   -984.88391     626.1013   -3376.6363 
11322000    230.89793   -4816.5317   -4371.2257   -4816.5317            0    7850.9504    19.815408    19.883444    20.572793    8105.6512    9029.4356    7469.7537     7053.662    22.823615    225.51308   -580.92994   -3443.1443 
11323000    203.72033   -4844.5838    -4451.692   -4844.5838            0    6364.6222    19.775648    20.017713    20.566147    8141.3817    5818.2128    7892.6999    5382.9539   -303.65562    343.04018    239.06667   -3695.9968 
11324000    205.19464   -4828.3218   -4432.5867   -4828.3218            0    7920.3798    19.872612     19.81815    20.382809    8027.5328    7489.9259    7881.0768    8390.1367    413.30522   -1498.8649    236.90397   -3505.3214 
11325000     207.4213   -4825.7706   -4425.7412   -4825.7706            0    9488.9534    19.802607    19.727777    20.559733    8031.8947    9765.1179     9841.205    8860.5372   -23.790242   -553.45077    376.92481   -3314.2342 
11326000    214.02648   -4826.7765   -4414.0084   -4826.7765            0    8491.8284    19.673765    20.011861    20.493838    8068.6015    9331.5972    7445.5894    8698.2988   -945.06262    1088.7087    691.59882   -3414.7556 
11327000    210.37698    -4861.054   -4455.3243    -4861.054            0    6832.2515    19.708863    19.985918    20.526633    8085.4351    7177.6256    6413.1776    6905.9514    374.94463    467.46875   -684.69002   -3649.6804 
11328000     217.9088   -4806.4199   -4386.1644   -4806.4199            0    8281.0041    19.914766    19.716365    20.495541    8047.5081    8342.7513     7913.947    8586.3141   -1021.8058   -2106.5002    566.36765   -3414.2672 
11329000     202.8079   -4832.1022   -4440.9702   -4832.1022            0    6428.0273    19.881998    19.802552    20.565124    8096.7837    7332.2383    5287.1026     6664.741   -442.74914    739.83436    350.32168   -3681.9276 
11330000    209.52033   -4801.8953   -4397.8177   -4801.8953            0    6930.1817    19.776294    20.067608     20.53649    8150.1715    7329.3074    7201.1063    6260.1314    145.87662   -667.78481    401.72141   -3574.0832 
11331000    218.72385   -4835.2434   -4413.4161   -4835.2434            0    7534.6385    19.806113    19.932322    20.515959    8099.3278    6687.4868    7818.3883    8098.0405   -251.23806   -1417.8593   -821.07051   -3523.4217 
11332000    201.97787   -4829.5061   -4439.9748   -4829.5061            0    7078.5765    19.863018    19.749921    20.570215    8069.5523    8928.0833    5463.4899    6844.1564   -58.464353   -43.863559    997.15772   -3606.9245 
11333000    193.82089   -4788.8631   -4415.0632   -4788.8631            0    6273.0695    20.046222    20.043458    20.198615    8115.7149    4805.6975    5958.0024    8055.5086   -298.19688     13.78983   -1011.0181   -3672.5866 
11334000     210.0411    -4792.202   -4387.1201    -4792.202            0    7068.7253    19.722921    19.901012    20.630246     8097.497    8148.3205    6781.0838    6276.7717   -437.45582    1559.4718   -139.05088   -3552.3483 
11335000     204.1412   -4810.9405   -4417.2371   -4810.9405            0    10535.534    19.841389    19.580398    20.485542      7958.68    9565.2502    11884.822    10156.529    469.75246    142.73275   -190.07177   -3194.3863 
11336000     203.6243   -4820.6201   -4427.9135   -4820.6201            0    7020.3441    19.951475    19.728359    20.581367     8101.029    6392.7261    8093.1995    6575.1068   -615.51839   -937.99762   -176.77857   -3598.4935 
11337000    210.86623   -4839.4711   -4432.7978   -4839.4711            0    7680.8033    19.907035    19.731823    20.623542    8100.9702    7715.3611    8422.7506    6904.2983   -189.98872    456.04468   -304.03338   -3525.3544 
11338000    211.03366     -4829.59   -4422.5939     -4829.59            0    6807.3226    19.939606    20.099322    20.278947    8127.2458    5540.0676    6759.3755    8122.5247   -457.35292    168.87167    733.55119   -3615.7387 
11339000    192.17266   -4827.2173   -4456.5962   -4827.2173            0    5416.3997     19.75315    19.987767    20.523276     8103.028    6036.7888    4463.2469    5749.1635   -693.78778   -48.209247   -82.801087   -3816.5167 
11340000    196.53599   -4808.6864   -4429.6502   -4808.6864            0    6720.5068    19.878605    19.886741    20.618398    8150.8788    5943.2186     7856.241     6362.061   -46.128356     119.0327    413.77082   -3630.7687 
11341000    205.06535   -4818.8712   -4423.3854   -4818.8712            0    7574.2739    19.762838      19.7707    20.457063    7993.0892    6898.6234    9174.6181    6649.5804     44.50518   -213.23376    445.95637   -3540.4447 
11342000    210.98704   -4831.8638   -4424.9576   -4831.8638            0    8060.6945    19.598332    19.833028    20.717499    8052.7731    8238.7263    8594.5452    7348.8118   -235.85095   -760.64445    839.11813   -3478.2981 
11343000    216.52679   -4818.1849   -4400.5948   -4818.1849            0    7206.1676    19.738371    19.984391    20.505053     8088.409    7498.8104    7543.9795    6575.7129    21.214146    118.14075    23.083533    -3550.547 
11344000     211.1906   -4825.3066   -4418.0078   -4825.3066            0    7964.5133    19.693723    19.842595    20.642397    8066.5236    8677.2752    9151.7895    6064.4753   -526.80058   -376.86759   -1552.3704   -3481.0467 
11345000    202.11073   -4844.2907   -4454.5031   -4844.2907            0    7231.6796    19.833284    19.824463    20.546304    8078.4826    5899.2451    8237.4714    7558.3224   -100.86216    653.76365    389.75639   -3602.4928 
11346000     205.8046   -4803.0909   -4406.1795   -4803.0909            0    9011.5321    19.534941    19.967379    20.666118    8061.0586    9782.2803    8557.0291    8695.2868   -463.26983    90.078508    281.87128   -3346.7633 
11347000    207.20273   -4815.9602   -4416.3523   -4815.9602            0    8597.9522    20.028659    19.697427    20.428926    8059.4778    7992.0138    9300.7457     8501.097     108.1175   -301.74385    417.82103   -3405.7557 
11348000    203.58163   -4816.7879   -4424.1636   -4816.7879            0     8702.471    19.845576    19.734492    20.634107    8081.1903     7310.963    9953.6709     8842.779   -198.80305    -783.2328   -166.39757   -3398.5263 
11349000    200.11405   -4806.3646   -4420.4278   -4806.3646            0    9094.8861    19.696757    19.874126    20.498917    8024.4204     10689.21     8321.658    8273.7899    691.33199   -777.97795    1085.0996    -3356.072 
11350000    205.76859   -4807.3907   -4410.5487   -4807.3907            0    10819.235    19.906461    19.623624     20.46126    7992.9231    11031.621    10860.096    10565.988    234.58121     -785.449    83.468773   -3149.3657 
11351000    192.72097   -4822.2091   -4450.5305   -4822.2091            0    8170.9736    19.768914     19.79266    20.560964    8045.0813    8380.6943    8588.1777    7544.0487    609.22493     39.58697   -1048.0641   -3491.8363 
11352000    201.69692   -4807.7267   -4418.7372   -4807.7267            0    7363.3393    19.674029    19.971989    20.606413    8096.8673    7501.9115    6310.4286    8277.6779   -347.29072    527.53883   -151.83803   -3549.2409 
11353000     210.6146   -4807.3418   -4401.1538   -4807.3418            0    7339.8359    19.870254    19.768542     20.60046    8091.9836    7613.3052    7063.0023    7343.2003   -132.89798    160.13823    638.08972   -3534.9557 
11354000     207.9628   -4804.2631   -4403.1894   -4804.2631            0    6831.0602    20.103461    19.655865    20.563391    8125.6429    6523.5658    7248.9902    6720.6246   -830.35993    702.80281    921.07371   -3593.6803 
11355000    217.21107   -4801.6582   -4382.7484   -4801.6582            0    8470.7244    19.821898    19.815372    20.563019    8076.7077    10004.864    8342.2758    7065.0329   -99.405006    230.23437    1661.5097   -3384.9775 
11356000     203.1848   -4827.2742   -4435.4153   -4827.2742            0    7870.9782    19.682916    19.760307    20.667143    8038.2876    9579.4077    6931.3574    7102.1694    505.92362    174.32978     439.4903   -3512.6991 
11357000    202.92596   -4807.5699   -4416.2101   -4807.5699            0    7972.6236      19.8566    19.838962    20.472198    8064.7021     10147.67    5990.0686    7780.1319   -266.18875    737.74369   -45.742014   -3478.5067 
11358000    195.95434   -4790.3991   -4412.4846   -4790.3991            0    7316.6629    19.993065    19.869668    20.448375    8123.2306    7103.7453    6824.1022    8022.1412    873.42447   -1432.7573    -341.8994    -3545.687 
11359000     210.3611   -4824.4755   -4418.7765   -4824.4755            0     7521.312    19.870501    19.688948    20.708782    8101.8817    5685.7492    10035.394    6842.7929   -324.40237    1024.0935    215.50691    -3530.076 
11360000     215.8614   -4820.2112   -4403.9043   -4820.2112            0    5971.8455    19.718623    20.050138    20.574922    8134.5243    6968.7917    5381.4149      5565.33   -2.0834839   -363.38026    146.85631   -3695.4422 
11361000     215.7187   -4809.2164   -4393.1848   -4809.2164            0    7107.8987    19.992244    19.906093    20.402602    8119.5718    5763.2459     8025.793    7534.6571    78.889332   -30.498854     1330.431   -3551.4985 
11362000    205.67592   -4806.1438   -4409.4805   -4806.1438            0    6206.3391    19.848424    19.897477    20.519687    8103.9134    5583.3401    5841.7647    7193.9124    911.64786    964.22274    803.64314   -3675.9702 
11363000    203.77856   -4829.6799   -4436.6758   -4829.6799            0    7650.4366    19.632456     19.90838     20.50526    8014.4888    7519.7419    8033.9008    7397.6672   -317.52762   -67.071668   -380.92339    -3542.469 
11364000    211.23805   -4818.0216   -4410.6312   -4818.0216            0    6078.5681    19.920279    19.891674     20.47484    8113.1081    7544.8418    4283.4777    6407.3849    -704.1565   -763.85492    454.98486   -3691.4068 
11365000    202.26423   -4816.3197   -4426.2361   -4816.3197            0    6481.7476    19.787973    19.917378    20.701329    8158.9015    7666.6981    4903.7642    6874.7805    367.34813    977.32224   -527.09069   -3654.9781 
11366000    198.64362   -4837.8949    -4454.794   -4837.8949            0    7841.8794    19.817623    19.920705     20.59396    8130.1044    9300.9401    6558.9435    7665.7545    52.832924   -52.621516    178.53509   -3524.9883 
11367000    194.28813   -4819.5213   -4444.8203   -4819.5213            0    6309.1018    20.097617    19.903193    20.283343    8113.4739    6553.8692    5384.6415    6988.7949     405.7554   -59.252108    983.35966   -3698.2851 
11368000     204.1846   -4824.6955   -4430.9083   -4824.6955            0    8524.0173     19.82531    19.714998    20.560365    8036.1407    9384.5186    8269.5438    7917.9894   -1349.5394    828.08825    1672.6424   -3431.9031 
11369000    210.66743   -4847.5477   -4441.2579   -4847.5477            0    8132.7771    19.933952    19.860105    20.397311    8075.0988    8148.2568     7789.377    8460.6977    458.03232    432.16684   -409.63555   -3483.4848 
11370000    202.69879   -4811.6826   -4420.7609   -4811.6826            0    8276.7247    19.939329    19.766987    20.528201    8090.9947    7300.5433    9127.5445    8402.0863    353.21642    -124.4854   -1020.4941   -3444.1168 
11371000    211.51307   -4858.8867    -4450.966   -4858.8867            0    7720.5008    19.910933    19.850959    20.487931    8097.8777     7638.064    7607.8693    7915.5692   -328.47373    691.01036   -345.75338   -3539.1807 
11372000    213.46249   -4814.5266   -4402.8462   -4814.5266            0    5941.4081    19.986117     19.82435    20.601284    8162.4712    6149.7811    6526.4211    5148.0219   -502.64633     36.09165   -672.18733   -3695.5735 
11373000    203.45297   -4805.8048   -4413.4286   -4805.8048            0    9467.6884    19.810392    19.877744    20.460759    8057.1581    10627.703    8953.6201    8821.7422   -278.66357    826.03889    758.78459   -3300.9243 
11374000     212.0091   -4815.8552   -4406.9778   -4815.8552            0    8234.2166    19.796602    19.744257    20.444021    7990.9381    8389.8887    9222.7012    7090.0601     487.2393    431.38277    755.39813   -3447.3652 
11375000    210.07829   -4803.7363   -4398.5826   -4803.7363            0    6764.6017     19.96963    19.905284    20.414825    8114.9162    6129.9227    7380.6977    6783.1848    290.27072   -232.97744    1966.8562   -3598.0074 
11376000    202.45858   -4831.2814    -4440.823   -4831.2814            0     6272.124    20.058131    19.548693    20.571144    8066.1562    5354.1397    7828.4895    5633.7428   -15.726085   -261.60845   -578.29868   -3702.9916 
11377000    205.62866    -4819.253   -4422.6808    -4819.253            0    7360.5465    19.766798    19.914009    20.486931    8064.3976    7252.8909     7208.394    7620.3545    -93.60243   -147.02241     1420.195   -3556.9999 
11378000     205.8692   -4840.7853   -4443.7492   -4840.7853            0    6289.9557    19.620282     19.93176    20.894107    8170.9903    9007.1879    5004.4896    4858.1896     417.0843    193.41945    766.08237   -3694.2035 
11379000    221.91736   -4809.8422   -4381.8559   -4809.8422            0    8369.5046    19.713052    19.893217    20.444345    8017.3729    7581.2214    9279.4054     8247.887   -259.87962       2253.5    408.90741   -3403.2502 
11380000    193.03452   -4820.4147   -4448.1314   -4820.4147            0    8458.7212    19.831441    19.753481    20.474473    8020.6701    7968.8325    8261.9675    9145.3635   -254.45483    459.78477   -355.60232   -3458.6874 
11381000    196.84969   -4822.5678   -4442.9266   -4822.5678            0     8479.816    19.747089    19.697361    20.638895    8027.8189    8171.7569    9831.9369    7435.7544    -608.1588    985.58934    699.93441   -3450.1309 
11382000    206.01836   -4787.3459   -4390.0222   -4787.3459            0    7988.8404    19.763103    19.942909    20.535777    8093.8433    7309.0735    8221.0413    8436.4063   -171.65074    771.95586    934.77265   -3447.0162 
11383000    213.25072   -4801.8998   -4390.6279   -4801.8998            0    8635.2844    19.828738     19.90683    20.432845    8065.4022    8367.0578    9966.7191    7572.0763    219.56021    811.58008    -51.43785   -3374.8972 
11384000      201.034   -4829.6647   -4441.9538   -4829.6647            0    5328.9757    19.853717    20.013451    20.435676    8119.9402    5119.8285    4742.4676    6124.6309   -594.96655   -568.37831   -590.13304   -3810.8911 
11385000    204.14995   -4823.0117   -4429.2914   -4823.0117            0    7194.1337    19.882117    19.719823    20.670208    8104.2061    6491.0337    8554.0406    6537.3269   -248.29208    1157.4407   -290.51549   -3579.0057 
11386000     217.2291   -4834.2736    -4415.329   -4834.2736            0    6772.9403    19.927751    19.936991    20.319015    8072.7328    5452.5087    7264.3107    7602.0014   -214.40271   -825.05759   -374.36102   -3617.9337 
11387000    198.95421   -4820.9821   -4437.2822   -4820.9821            0    7450.9041    19.721839    19.870047    20.608742    8076.0277    7850.3859     6915.148    7587.1783   -2.0879377   -466.00507   -208.27791   -3559.7104 
11388000    205.31732   -4820.6634   -4424.6917   -4820.6634            0    6989.2466    19.744634    19.958075     20.44957    8058.4576     7544.585    6630.3858     6792.769     357.8457    1089.3927   -285.56864   -3603.2851 
11389000    199.13214   -4837.0005   -4452.9574   -4837.0005            0    7891.3996     19.76924    19.766943    20.631391    8062.2822    7589.8502    7557.5325     8526.816    165.22926    712.79873   -1174.9782   -3525.0857 
11390000    216.87972   -4821.9245   -4403.6537   -4821.9245            0    8580.3384    19.869015    19.792789    20.352118    8003.7392    7816.6676    8006.5921    9917.7555    38.789841    830.95614   -819.13205   -3402.1023 
11391000    207.69018   -4820.6282   -4420.0803   -4820.6282            0    7087.7086    19.829872    19.984585    20.357974    8067.6974    9133.0875    4883.4209    7246.6173   -249.07853    517.39614   -115.75465   -3586.1469 
11392000    205.42429   -4816.2969   -4420.1189   -4816.2969            0    8908.7887    19.708785    19.789602    20.629997    8046.2974    9996.2303    7413.5618    9316.5742   -327.33218    676.08836   -454.32843   -3374.6993 
11393000    199.17381   -4820.6831   -4436.5597   -4820.6831            0    6201.8612    19.936705     20.01801    20.416963    8148.2704    7126.4381    4104.4079    7374.7375    523.41725   -891.21642    370.95957   -3699.5667 
11394000    207.58104   -4824.9615    -4424.624   -4824.9615            0    7022.9226    19.617183    19.834052    20.750196    8073.6571    6248.3112    6904.3696    7916.0871   -185.84523   -615.52335    564.77335   -3597.7029 
11395000    213.43747   -4831.4831   -4419.8509   -4831.4831            0     7835.494    19.922596    19.781018    20.494744    8076.7578    6043.4441    9317.6448     8145.393    81.521265   -412.84861    18.310999   -3496.8985 
11396000     192.5457   -4805.1677   -4433.8271   -4805.1677            0    6727.6704    19.942541    19.804324    20.456919    8079.4302    5699.4739    8041.2895    6442.2476    35.123723    529.05265   -172.66911   -3641.1043 
11397000    206.17488   -4844.1164   -4446.4908   -4844.1164            0    7143.3231    19.887951    19.932199     20.43129    8099.1799    8737.0152    5760.3887    6932.5653    547.73404   -906.30766   -522.66987   -3602.7342 
11398000    201.97732   -4822.2296   -4432.6993   -4822.2296            0    8466.3125    19.722318    19.738476    20.616365    8025.7139    7183.9962    10043.928    8171.0137   -490.17806    194.63231   -401.34874   -3441.7445 
11399000    205.67723   -4797.6321   -4400.9663   -4797.6321            0    8203.0918    19.858483    19.979484    20.373714    8083.5203    6557.2789    8385.7017    9666.2948   -354.84395   -535.19224    827.67755    -3433.905 
11400000    196.94688   -4807.1624   -4427.3337   -4807.1624            0    7649.4596    19.809298    19.819818    20.624174    8097.3945    8566.9164    7715.8489    6665.6137    680.28873   -252.59632   -308.44396   -3523.9923 
11401000    220.89275   -4820.7942   -4394.7839   -4820.7942            0    6753.8119    19.808904    19.985942    20.540282    8131.8894    7706.5379    5597.3709    6957.5269   -839.53061   -20.930891   -312.34148   -3593.8138 
11402000    206.23475   -4806.6685   -4408.9274   -4806.6685            0    7261.2528    20.044008    19.837393    20.433448    8124.7652    7825.2519     6402.983    7555.5237   -652.41436    1423.5117    464.01159   -3548.5317 
11403000    210.18854   -4823.6922    -4418.326   -4823.6922            0    6977.9319    19.770719    19.789602    20.548234    8039.5923    9806.9109    4375.7453    6751.1394    385.77316    512.26102    245.88133    -3600.169 
11404000    204.80581    -4815.279   -4420.2937    -4815.279            0    7037.3962    19.917714    19.740554    20.549291    8079.7078    7206.7906    6686.4014    7218.9965    766.51682   -804.33345    -676.3549   -3591.0474 
11405000    203.08724   -4818.1052   -4426.4344   -4818.1052            0    7524.0038    19.963075    19.799856      20.5012    8103.4279    5496.5505    8424.1449    8651.3159   -970.51941     634.3974    243.38345   -3537.2463 
11406000    201.83484   -4810.9057   -4421.6503   -4810.9057            0     9697.644    19.728438    19.727205    20.556928    8000.4879    9766.5843     10164.03    9162.3181    140.33752    380.30394   -1215.8251   -3290.1397 
11407000    214.56821   -4821.0296   -4407.2168   -4821.0296            0     6566.954    19.655741    20.147291    20.384448    8072.4437    7446.2074    4633.5832    7621.0715   -135.73943   -2323.4468    1043.6063   -3634.1003 
11408000    191.01581   -4816.7988   -4448.4087   -4816.7988            0    7417.7311    19.809558    19.808809    20.557529    8066.8517    5354.7314    8427.5603    8470.9015    204.37083    333.96511    808.23875   -3575.7367 
11409000    203.21974   -4829.8381   -4437.9117   -4829.8381            0    7134.6637    20.014529    19.682246    20.578238    8106.4035    7030.3249     7275.959    7097.7072   -899.37514    903.61599   -289.14901   -3594.4262 
11410000    206.07095   -4822.6292   -4425.2041   -4822.6292            0    6293.7287    19.903852     19.69387    20.807328     8156.137    6320.9331    7729.1366    4831.1162    462.24201    872.31338    494.44197    -3676.572 
11411000    201.92973   -4834.4799   -4445.0414   -4834.4799            0     6520.007    19.856432    20.122823     20.36824    8138.4861    7258.6841    5862.1682    6439.1686   -91.076553   -124.63156   -404.99166   -3671.1722 
11412000    204.72029   -4804.7084   -4409.8881   -4804.7084            0    8165.7714    19.866808    19.600578    20.746401    8078.6676    8730.1623    8641.7084    7125.4435      689.108   -204.89702   -541.21079   -3447.8044 
11413000    213.93887   -4831.0259   -4418.4268   -4831.0259            0    5831.4293    19.862925    20.051786    20.439595    8140.8273    5577.1876    5736.1524    6180.9479    65.526947    645.05144    941.78308   -3726.0867 
11414000    200.22965   -4823.8001   -4437.6403   -4823.8001            0    7174.1122    19.771031    19.830292    20.612212    8081.3333     7912.627    7802.7266    5806.9831   -484.83619   -154.94677   -429.69746   -3592.1141 
11415000    207.99012   -4820.9036   -4419.7772   -4820.9036            0    7791.1586     19.75541    19.816738    20.685187     8097.998    8737.0302    7942.4794    6693.9661    43.978567   -370.29294   -23.018992   -3499.6336 
11416000     205.0324    -4800.899   -4405.4768    -4800.899            0    7287.3177    19.885625    19.802436    20.557748    8095.3087    7974.1392    7462.7937    6425.0203    -605.9174    94.696616    205.72216   -3545.1232 
11417000    212.06838   -4823.8093   -4414.8176   -4823.8093            0    8969.2332    19.658797    19.845351    20.501082    7998.2046    10183.321    7862.0036    8862.3748   -342.31407   -345.25501     52.05649   -3368.5959 
11418000    215.64301   -4807.5609   -4391.6752   -4807.5609            0    6431.4833    19.778728    19.869345    20.599539    8095.4206      6687.03    5566.0128    7041.4072     282.9685    956.73838    260.08605   -3632.3524 
11419000    210.01502   -4798.4254   -4393.3938   -4798.4254            0    6992.1809     19.76182    19.794691    20.662646     8082.796    8546.0636    6451.4747    5979.0045   -838.39432    1171.8627    -688.5508   -3569.1605 
11420000    204.66064   -4810.8525   -4416.1472   -4810.8525            0    7138.4185    19.927176    19.807871    20.559227    8115.0337    6855.6478    7568.2265    6991.3812   -412.17851    101.88904    1612.4308   -3571.3194 
11421000    212.81995    -4817.441   -4406.9998    -4817.441            0    6608.8562    20.228223    19.701725    20.379264    8121.7661    6732.1147    5881.7597    7212.6942   -242.23739   -278.03931   -675.54908   -3624.1965 
11422000    194.58033   -4808.3039   -4433.0393   -4808.3039            0    7369.0821    19.902018     19.78561    20.608161    8114.9489    7069.9021    8442.1219    6595.2222    575.23303   -194.22782   -1488.2898   -3560.9217 
11423000    209.43772   -4843.1813   -4439.2631   -4843.1813            0    7428.7909    19.775359    20.018333    20.374644    8065.7044    7667.9154    6290.9445    8327.5127    326.56516    2033.4961   -1064.7401   -3565.4142 
11424000    202.87953   -4811.5763   -4420.3061   -4811.5763            0     8924.184    19.765273    19.818246    20.568228    8056.8433    9158.1579    9024.4386    8589.9555    64.430345   -1100.7457    1066.2949   -3371.7074 
11425000     200.2059    -4809.994   -4423.8801    -4809.994            0    7264.8204    19.945719    19.645231    20.614394    8077.5084    7872.6669    7217.8709    6703.9233    334.87912    456.91973    663.03447   -3568.0684 
11426000    201.73044   -4830.0857   -4441.0316   -4830.0857            0    8239.8991    20.092716    19.739232    20.273542    8040.7863    7326.1353    7251.6461    10141.916    339.48475   -912.11016    -737.5044   -3474.7665 
11427000    214.18449   -4834.7563   -4421.6835   -4834.7563            0    7481.6609    19.757309    19.906807    20.629703    8113.7641    8012.4632    7510.3193    6922.2002   -285.32495    358.64289   -350.62986   -3536.3716 
11428000    210.50022   -4824.5889   -4418.6215   -4824.5889            0    7272.0659    19.852693    19.816727    20.519968    8072.8712    7062.4766    6711.3024    8042.4187    473.11899    505.19637   -233.99104   -3562.4482 
11429000    215.81369   -4815.8779   -4399.6631   -4815.8779            0     5516.694    19.887778    19.802672    20.551426    8093.7912    5177.8491    6335.6582    5036.5745    179.42085    70.121765     33.34336   -3748.4745 
11430000    201.54529   -4796.7888   -4408.0917   -4796.7888            0    6473.1154    19.811138    19.917372      20.5895    8124.3245    7182.2862    6007.2419    6229.8181   -698.03929   -134.12396    82.181415    -3641.125 
11431000    212.15231   -4834.4267   -4425.2731   -4834.4267            0    8719.1412    19.837823    19.919756    20.341376    8038.1919    9747.4731    8196.2961    8213.6543   -289.76515    155.84612    289.66105   -3403.1388 
11432000    195.40546   -4803.9081   -4427.0522   -4803.9081            0    7724.0659    19.971994      19.7822    20.559691    8122.9277    5846.6413    9413.5297    7912.0267    211.88912    68.278931   -934.65632   -3512.0241 
11433000    203.40357   -4834.3801   -4442.0992   -4834.3801            0    8860.8929    19.446487    19.897751    20.802203    8049.2329     10893.31    7416.2972    8273.0712   -55.577368   -446.57641   -1395.9239   -3401.9207 
11434000    199.50761   -4820.7348   -4435.9676   -4820.7348            0    8241.1149    19.856084    19.879248    20.413557    8057.7215    9646.7466    6275.6155    8800.9825   -241.88348    454.34295    327.89777   -3467.5245 
11435000    212.82096   -4810.1362   -4399.6931   -4810.1362            0    7707.0209     20.05687    19.775397    20.426519    8101.8224     6292.262    10179.599     6649.202   -203.38273    954.95746   -576.52778   -3489.0564 
11436000    211.60391   -4800.5424   -4392.4465   -4800.5424            0    7669.1533    19.831379    19.960952    20.385669    8069.7325    6627.4661    8175.5699    8204.4238   -408.07673    1113.2049    626.86703   -3489.8732 
11437000    207.85777   -4832.4004   -4431.5292   -4832.4004            0    7950.8975    19.873175      19.8014    20.611626    8111.0188    7999.3623    9967.9528    5885.3774   -970.61978    1475.2548    52.120752   -3491.0105 
11438000    211.15762   -4821.0493   -4413.8141   -4821.0493            0    6690.0068    19.936216    19.975808    20.433867    8137.6244    7690.8051    6480.2127    5899.0026   -607.43601    61.255774    744.66407   -3619.8514 
11439000    193.89727   -4817.7234   -4443.7762   -4817.7234            0    6373.2945    19.937933    19.680563    20.656799     8105.516    6910.4286    6548.1995    5661.2554    312.33625   -409.80706   -1283.3666    -3690.385 
11440000    215.59484   -4807.3476   -4391.5548   -4807.3476            0    6970.9799    19.939563    19.900454    20.414032    8100.4178     6235.761    6338.8126     8338.366   -256.39457   -97.451542   -329.81419   -3568.0291 
11441000    214.81604   -4831.7208     -4417.43   -4831.7208            0    6688.9387    19.933995    19.727296    20.560182    8085.1645    6313.0555    7371.9997    6381.7609    -393.4355    469.17543    188.75167   -3628.7117 
11442000      214.669    -4821.424   -4407.4168    -4821.424            0    6930.7138    19.662551    19.855458    20.573844    8032.2124    5225.4001    7941.2745    7625.4668   -17.995908    320.21515    761.29273    -3595.542 
11443000    211.88141   -4823.2129   -4414.5818   -4823.2129            0    6484.6699    19.880968    19.803773     20.52501    8081.0695    5281.3253    7618.3946    6554.2899    222.25684   -148.16531   -632.32006   -3650.3368 
11444000    215.68389   -4813.8976   -4397.9331   -4813.8976            0    9299.7374    19.816895    19.807348    20.428559    8018.6207    6682.2371    10770.431    10446.544   -410.06596   -1.1758295   -224.16649   -3310.3906 
11445000    200.99372   -4810.8032   -4423.1699   -4810.8032            0    6300.2701    19.930701    19.725928     20.74588    8156.2752    6177.4484    7572.2412    5151.1206   -268.36286   -122.27073    618.15942    -3673.747 
11446000    205.51399   -4825.8716   -4429.5206   -4825.8716            0    5625.7642    19.899401    20.137309    20.344359    8152.3994    5474.6362    5001.6278    6401.0286    473.66999    -434.4417    -121.0645   -3760.6488 
11447000    200.93819   -4801.8217   -4414.2955   -4801.8217            0    8515.7051    19.715491    19.838986    20.549551    8037.6557    8020.7978    8939.2012    8587.1162    319.53012    1263.4657    783.94375   -3416.0764 
11448000    211.58823   -4821.3445   -4413.2788   -4821.3445            0    9262.3829    19.832568    19.876494    20.493608    8078.6193    9491.5203    9796.8844    8498.7439    16.064534     64.88256   -306.45833   -3321.9998 
11449000    211.98918   -4795.9017   -4387.0627   -4795.9017            0    8925.7396    19.956433     19.61018    20.567451    8049.0563    8043.7165     9918.668    8814.8341   -19.530543   -1223.2134   -449.93075   -3339.2948 
11450000    202.35306   -4823.6293   -4433.3744   -4823.6293            0    6908.0068    19.798744    19.916608    20.556978    8106.1062    7446.9878    6741.0352    6535.9974   -672.50949   -211.60523    158.09218   -3616.7151 
11451000    199.32113   -4815.3042   -4430.8967   -4815.3042            0    6096.7681    19.901874    19.984477    20.521597    8162.0251    3309.8493    8446.0682    6534.3867    21.987113   -715.32058     1397.165   -3705.1693 
11452000    209.97064    -4833.046      -4428.1    -4833.046            0    5873.2847    20.123848    19.797071    20.524091    8176.6592    4384.7909     6744.061    6491.0022     104.5886    1068.5781    941.14377   -3727.7214 
11453000    198.47471   -4825.9341   -4443.1589   -4825.9341            0    6756.2943    19.865698    19.813772    20.621094    8116.7596    6706.3163    7234.3641    6328.2024   -422.42121   -747.92239   -378.06158   -3643.3852 
11454000    202.34047   -4831.0714   -4440.8407   -4831.0714            0    8775.2045    19.953185    19.871848     20.29468    8046.9756    8163.9631    8888.3071    9273.3434    516.77322   -181.79484    49.527448   -3411.0101 
11455000    199.12315   -4834.6361   -4450.6103   -4834.6361            0    6395.6799    19.747622    19.857213     20.64072    8093.9021    6062.6234    6662.4488    6461.9675   -70.849469    735.62722    738.68815   -3695.6562 
11456000    198.30958    -4825.222   -4442.7653    -4825.222            0    7147.4403    19.792682    19.651639    20.761906    8075.5228    6994.6343    7006.1237    7441.5631     210.3841   -1371.7568   -385.44816   -3600.9883 
11457000    201.52499    -4805.097   -4416.4391    -4805.097            0    7211.3002    19.973018     19.78787    20.316326    8029.4894    5538.7124    7471.6283    8623.5597   -292.56902   -376.00699    105.08939   -3571.9824 
11458000    207.37353   -4804.4146   -4404.4773   -4804.4146            0    7841.9133    19.842585    19.746812    20.555258    8054.1214     9003.695     6599.121    7922.9237   -266.98179   -562.77348    964.89165   -3483.3575 
11459000    199.27256   -4811.5617   -4427.2478   -4811.5617            0    7733.5269    19.759359    20.003736    20.514694    8108.6583    8637.0047      6302.09    8261.4858    728.85002   -1856.6787   -418.93295   -3512.7083 
11460000    210.97513   -4803.2921   -4396.4088   -4803.2921            0    7184.1119    19.592053     20.01503    20.588582    8073.5146    6464.8958    7182.3572    7905.0825   -499.39374   -109.16984    -1126.478   -3550.5232 
11461000    204.42378   -4804.1347   -4409.8863   -4804.1347            0    8937.7595    19.906207    19.567804    20.561705     8009.211    8235.3499    9988.0558    8589.8729     292.7324   -744.90496    261.98061   -3365.9012 
11462000    209.98789   -4827.7226   -4422.7433   -4827.7226            0    6311.3364    20.138542    19.781658    20.390262    8122.9452    5701.0827    6349.0544    6883.8722    716.86149    1199.9955   -174.42026   -3675.0719 
11463000    214.16454   -4815.1782   -4402.1439   -4815.1782            0    7033.5711    19.805279    19.817792    20.666736      8111.63     7487.115    7665.4279    5948.1704   -136.48171   -339.64603   -599.87554   -3570.0738 
11464000    219.26926    -4837.202   -4414.3228    -4837.202            0    6322.0314    19.769986    19.822024    20.601941    8073.5123    7541.3596    5517.2119    5907.5227   -410.33483    702.91244   -794.67705   -3669.9421 
11465000    199.98475   -4840.5829   -4454.8955   -4840.5829            0    7516.2883    19.982248    19.938014    20.191389    8044.3773    7851.9823    5974.5652    8722.3174   -52.591084   -166.78237    488.73092   -3573.0922 
11466000    202.51314   -4829.3601   -4438.7965   -4829.3601            0    7443.3052    19.847086    19.710678    20.712877    8102.8679    7688.1647    6559.2127    8082.5382   -32.816838   -240.26149   -669.12632   -3559.2061 
11467000    196.37689   -4830.4631   -4451.7337   -4830.4631            0    7653.8139     19.92938    19.879038    20.478159    8112.9737    8176.3651    6859.8086    7925.2681   -35.520243   -76.171468    240.24247   -3546.1391 
11468000    222.51966   -4828.2853   -4399.1374   -4828.2853            0    7630.6433    19.916403    19.799337    20.414202    8049.9647    9352.8596    6160.6646    7378.4058   -457.09296   -76.140387    1063.4837   -3503.2962 
11469000     209.1328   -4818.4807   -4415.1505   -4818.4807            0    6834.2037    20.009336    19.713545    20.568699    8113.4251    5549.3864    8278.3625    6674.8623    31.012708   -310.48518   -285.57728   -3606.4866 
11470000    200.49221   -4822.5902   -4435.9241   -4822.5902            0    8223.3207     19.81066    19.854014    20.334876    7998.1362    10239.619    5983.5477    8446.7956   -476.70737   -612.41051    98.463034   -3476.7181 
11471000    209.06991   -4826.6601   -4423.4513   -4826.6601            0    6808.4645    19.767233    19.896678    20.491644    8059.4099    6553.4155    6440.9249    7431.0533   -398.85434    1023.7388    185.35877   -3623.1964 
11472000    202.67881   -4832.9829   -4442.0998   -4832.9829            0    8436.9672    19.913777    19.798522    20.558238    8105.3599    7986.5926    9041.4672    8282.8419   -392.00567    521.39103   -1432.9629   -3444.7797 
11473000    204.07983   -4823.1811    -4429.596   -4823.1811            0    7912.3058    20.019253    19.687444    20.439711    8055.8606    7992.2121     8137.797    7606.9083    172.49067    151.54246   -384.90522   -3500.0072 
11474000    199.12368   -4804.8223   -4420.7956   -4804.8223            0    6355.2629    19.790881    19.849135    20.574028    8082.1338    5940.5211    6183.2238    6942.0437   -485.76099    225.21639     -932.971   -3671.7031 
11475000     199.3615   -4823.1189   -4438.6335   -4823.1189            0    7232.3421    19.861316    19.928599    20.410767     8078.749    6381.2724     7481.234    7834.5198   -174.06603    539.79655    348.52203    -3586.517 
11476000    203.42912   -4819.7366   -4427.4065   -4819.7366            0     7722.783     19.96211    19.795256    20.456742    8083.5854    8052.7936    7331.0596    7784.4958   -31.201462    1591.2784    718.43905   -3516.9614 
11477000    227.80831   -4808.4964   -4369.1489   -4808.4964            0    6929.0364    19.741642    19.859905    20.604169    8078.2175    7396.5144    7365.4422    6025.1525    138.76116    258.00053    954.47069   -3552.8217 
11478000    211.80693   -4808.9243   -4400.4369   -4808.9243            0    6973.8166    19.723922    19.563247    20.932177    8076.9726    8570.7122    7501.6832    4849.0544    -328.3581    449.12083    109.19119   -3578.9606 
11479000    200.42223   -4797.0532   -4410.5221   -4797.0532            0    7189.5342    20.046126    19.678408    20.546274    8105.0087    4719.9307    9809.0598    7039.6122    283.52463   -267.78625    192.41116   -3560.6958 
11480000    216.05773   -4803.2711   -4386.5856   -4803.2711            0    7360.8063    19.643324    19.804579    20.752743    8073.3934    8864.9085    8007.8795    5209.6309   -632.15183   -598.75964    177.57966   -3519.9083 
11481000    209.71446   -4817.4799   -4413.0279   -4817.4799            0    7141.9065    19.958754    19.840913    20.510852    8122.2953    7739.8079     6744.053    6941.8586     285.3763    -897.8838    1699.4878   -3567.0309 
11482000    215.24437   -4832.5034   -4417.3865   -4832.5034            0    8049.1441    19.855158    19.889584     20.45542    8078.0672    7920.7104    8219.2662    8007.4557    71.530764    2029.6831    687.30368   -3469.1142 
11483000    206.22275   -4817.2513   -4419.5334   -4817.2513            0     8787.251    19.665474    19.815937    20.509489    7992.3386    11577.402    6041.7911    8742.5595   -126.19023    918.09204   -656.17151   -3395.2909 
11484000    215.28441   -4820.8019   -4405.6078   -4820.8019            0    7307.1981    19.812788    20.143272    20.313121    8106.8521    7637.6787    5805.2737     8478.642   -607.21128    507.67937   -462.66549   -3541.6768 
11485000    193.82244    -4820.919   -4447.1161    -4820.919            0     6852.714    19.771389    19.887509    20.623296    8109.1558    7178.5355    6302.2453    7077.3611   -29.070237    1478.3699    309.92583   -3636.6887 
11486000    200.36461    -4823.103    -4436.683    -4823.103            0    7386.1591    20.004251    19.871956    20.370811    8097.8779    6207.7131    8558.7573    7392.0069    365.23122    70.649523     1423.074   -3564.3832 
11487000    208.13372   -4826.1585   -4424.7551   -4826.1585            0    7064.4574    19.751666    19.856911    20.630106    8091.2734    9280.3474    5497.3355    6415.6893   -863.24873    289.84867   -1269.7582   -3591.1285 
11488000    202.70258   -4798.2238   -4407.2948   -4798.2238            0    7157.1627    19.711585    20.049924    20.556804    8124.3733    8488.9434    5400.9598    7581.5849   -301.72228     791.4734     180.2848   -3559.2737 
11489000    205.50311   -4818.5957   -4422.2656   -4818.5957            0    6388.4152    19.942265    19.680343    20.560722    8069.4791    6248.9432    7079.5655    5836.7369    208.75763   -202.34812    816.86618   -3670.4445 
11490000    210.43438   -4811.2667   -4405.4263   -4811.2667            0    6909.4648    19.793007     19.92046    20.465377     8069.208    6797.5971    7187.7324    6743.0648   -699.03402   -19.398193    635.97667   -3592.3128 
11491000    205.15222   -4833.8909   -4438.2376   -4833.8909            0    8606.2047    19.850909    19.794476    20.583286    8087.9625    7075.2515    9890.0681    8853.2945   -553.68556   -226.41405    -332.6883   -3423.0958 
11492000    199.35224   -4803.1268   -4418.6593   -4803.1268            0    7198.4523    19.894261    19.849356    20.506382    8097.7296     7664.779    7393.9088     6536.669   -287.62428   -1013.8888    549.50276   -3568.5431 
11493000    211.85595   -4807.4952   -4398.9132   -4807.4952            0      6860.19     19.89057    19.918545    20.431186    8094.6564    6801.8918     7700.695    6077.9834   -292.11667   -110.87104   -283.80914   -3589.0523 
11494000    211.60523   -4810.2457   -4402.1472   -4810.2457            0     9303.579    19.790859    19.899308    20.409205    8037.6429     10962.57    6523.8439    10424.323     -561.642    226.31624    414.86972   -3311.5744 
11495000    220.51178   -4810.0594   -4384.7839   -4810.0594            0    6669.6465    19.809835    19.659872    20.795199    8098.8741    8182.5076     6451.877    5374.5548   -318.19097   -3.9499317    1442.8418   -3597.0068 
11496000    212.90786   -4826.8535   -4416.2427   -4826.8535            0    6835.8971    19.987626    19.924962    20.461459    8148.8314    6488.4066    7518.3654    6500.9193    -107.3617    1724.0279    1243.6628   -3603.8487 
11497000     202.0959   -4811.7204   -4421.9614   -4811.7204            0    7962.2174    19.848719    19.860854    20.416937    8048.6122    7107.8075    7597.3852    9181.4595    33.082537    1349.2912    1211.7624   -3487.3503 
11498000    210.50655   -4805.2671   -4399.2875   -4805.2671            0    7277.8244    19.759443    19.928955    20.514433    8078.2769    9443.3617    6465.7349    5924.3765   -315.00401    753.58233   -60.431316   -3541.8624 
11499000    199.07045   -4826.6568   -4442.7327   -4826.6568            0    6572.0088    20.036851    19.810509    20.476152    8127.8084    6756.1392    5627.0854    7332.8017    149.19551   -791.71473     -550.007   -3663.7147 
11500000    208.55095   -4786.3937   -4384.1856   -4786.3937            0    8319.4079    19.868755    19.751098    20.524278     8054.337    8062.3577    8557.4416    8338.4244   -561.92853    471.64086    448.58188   -3406.9527 
Loop time of 398.506 on 64 procs for 250000 steps with 972 atoms

Performance: 108.405 ns/day, 0.221 hours/ns, 627.342 timesteps/s
191.9% CPU use with 32 MPI tasks x 2 OpenMP threads

MPI task timing breakdown:
Section |  min time  |  avg time  |  max time  |%varavg| %total
---------------------------------------------------------------
Pair    | 28.215     | 36.541     | 45.757     |  75.5 |  9.17
Bond    | 1.0595     | 1.2011     | 1.4783     |   9.8 |  0.30
Kspace  | 174.27     | 185.23     | 194.68     |  39.1 | 46.48
Neigh   | 1.7808     | 1.9229     | 2.021      |   5.6 |  0.48
Comm    | 69.842     | 74.278     | 78.564     |  25.2 | 18.64
Output  | 0.66096    | 0.66213    | 0.66361    |   0.1 |  0.17
Modify  | 78.031     | 80.053     | 82.243     |  12.1 | 20.09
Other   |            | 18.62      |            |       |  4.67

Nlocal:        30.3750 ave          36 max          25 min
Histogram: 2 2 5 4 5 3 1 6 2 2
Nghost:        2703.94 ave        2749 max        2668 min
Histogram: 2 1 8 5 3 4 4 2 1 2
Neighs:        9753.88 ave       12531 max        7104 min
Histogram: 1 2 4 2 5 11 3 2 1 1

Total # of neighbors = 312124
Ave neighs/atom = 321.11523
Ave special neighs/atom = 2.0000000
Neighbor list builds = 5108
Dangerous builds = 0

unfix		3
unfix		2
unfix		1

write_data	data.final.${pid}
write_data	data.final.1
System init for write_data ...
PPPM initialization ...
  extracting TIP4P info from pair style
  using 12-bit tables for long-range coulomb (../kspace.cpp:340)
  G vector (1/distance) = 0.37209572
  grid = 24 24 24
  stencil order = 5
  estimated absolute RMS force accuracy = 0.0035214524
  estimated relative force accuracy = 1.0604749e-05
  using double precision FFTW3
  3d grid and FFT values/proc = 3211 432
Last active /omp style is kspace_style pppm/tip4p/omp
WARNING: Not all mixed pair coeffs generated from mixing. Use write_data with 'pair ij' option to store all pair coeffs. (../write_data.cpp:312)

write_restart   restart.lmp.${pid}
write_restart   restart.lmp.1
System init for write_restart ...
PPPM initialization ...
  extracting TIP4P info from pair style
  using 12-bit tables for long-range coulomb (../kspace.cpp:340)
  G vector (1/distance) = 0.37209572
  grid = 24 24 24
  stencil order = 5
  estimated absolute RMS force accuracy = 0.0035214524
  estimated relative force accuracy = 1.0604749e-05
  using double precision FFTW3
  3d grid and FFT values/proc = 3211 432
Last active /omp style is kspace_style pppm/tip4p/omp
Total wall time: 0:06:38
