LAMMPS (30 Jul 2021)
Processor partition = 1
  using 2 OpenMP thread(s) per MPI task
using multi-threaded neighbor list subroutines
variable        pid world 0 1
variable        phase world IceIII Liquid

shell cd ${phase}
shell cd Liquid
include Restart.lmp
echo both
log log.lammps
#include		in.partitions
include		in.temp
variable        temperature equal 261.19
variable	tempDamp equal 100.0
include		in.pressure
variable        pressure equal 8125.0
variable        pressureDamp equal 1000.0 # This is 1 ps
include		in.seed
variable        seed equal 745823

units		real
atom_style	full
read_restart	restart.lmp.${pid}
read_restart	restart.lmp.1
Reading restart file ...
  restart file = 30 Jul 2021, LAMMPS = 30 Jul 2021
  restoring atom style full from restart
  orthogonal box = (0.59301319 1.7900225 0.72347471) to (17.614559 21.839155 21.489721)
  2 by 4 by 4 MPI processor grid
  restoring pair style lj/cut/tip4p/long/omp from restart
  restoring bond style harmonic/omp from restart
  restoring angle style harmonic/omp from restart
  864 atoms
  576 bonds
  288 angles
Finding 1-2 1-3 1-4 neighbors ...
  special bond factors lj:    0        0        0       
  special bond factors coul:  0        0        0       
     2 = max # of 1-2 neighbors
     1 = max # of 1-3 neighbors
     1 = max # of 1-4 neighbors
     2 = max # of special neighbors
  special bonds CPU = 0.002 seconds
  read_restart CPU = 0.009 seconds
include 	in.setup
variable	out_freq equal 1000
variable	out_freq2 equal 10000
variable	out_freq3 equal 1000

timestep	2.0

neigh_modify    delay 7 every 1

include		in.tip4p
# This is TIP4P/Ice

# create groups ###
group ox type 2
288 atoms in group ox
group hy type 1
576 atoms in group hy

# set charges - beside manually ###
set group ox charge -1.1794
Setting atom values ...
  288 settings made for charge
set group hy charge 0.5897
Setting atom values ...
  576 settings made for charge

# ### TIP3P Potential Parameters ###
pair_style lj/cut/tip4p/long/omp 2 1 1 1 0.1577 8.5
pair_coeff 1 1*2 0.000 0.000
pair_coeff 2 2 0.21084 3.1668
bond_style  harmonic
bond_coeff  1 450 0.9572
angle_style harmonic
angle_coeff 1 55 104.52
kspace_style pppm/tip4p/omp 1.0e-5
pair_modify tail yes

thermo          ${out_freq}
thermo          1000
thermo_style    custom step temp pe etotal epair emol press lx ly lz vol pxx pyy pzz pxy pxz pyz enthalpy

restart 	${out_freq3} restart.lmp.${pid} restart2.lmp.${pid}
restart 	1000 restart.lmp.${pid} restart2.lmp.${pid}
restart 	1000 restart.lmp.1 restart2.lmp.${pid}
restart 	1000 restart.lmp.1 restart2.lmp.1


include         in.dump
dump            myDump all atom ${out_freq2} dump.water.${pid}
dump            myDump all atom 10000 dump.water.${pid}
dump            myDump all atom 10000 dump.water.1
dump            myDump2 all dcd ${out_freq2} dump.dcd
dump            myDump2 all dcd 10000 dump.dcd
dump_modify     myDump append yes
dump_modify     myDump2 append yes


variable natoms 	equal  "count(all)"                        # NUMBER ATOMS
variable H      	equal  "enthalpy/v_natoms"                 # ENTHALPY-per-atom
variable Vol      	equal  "vol/v_natoms"                 # volume-per-atom
fix AVG all 		ave/time ${out_freq} 1 ${out_freq} v_Vol v_H file vol_enthalpy.dat
fix AVG all 		ave/time 1000 1 ${out_freq} v_Vol v_H file vol_enthalpy.dat
fix AVG all 		ave/time 1000 1 1000 v_Vol v_H file vol_enthalpy.dat


timer           timeout 23:50:00 every 1000
New timer settings: style=normal  mode=nosync  timeout=23:50:00

fix 		1 all shake 1e-6 200 0 b 1 a 1
Finding SHAKE clusters ...
       0 = # of size 2 clusters
       0 = # of size 3 clusters
       0 = # of size 4 clusters
     288 = # of frozen angles
  find clusters CPU = 0.001 seconds
fix             2 all nph iso ${pressure} ${pressure} ${pressureDamp}
fix             2 all nph iso 8125 ${pressure} ${pressureDamp}
fix             2 all nph iso 8125 8125 ${pressureDamp}
fix             2 all nph iso 8125 8125 1000
fix             3 all temp/csvr ${temperature} ${temperature} ${tempDamp} ${seed}
fix             3 all temp/csvr 261.19 ${temperature} ${tempDamp} ${seed}
fix             3 all temp/csvr 261.19 261.19 ${tempDamp} ${seed}
fix             3 all temp/csvr 261.19 261.19 100 ${seed}
fix             3 all temp/csvr 261.19 261.19 100 745823

run             250000
PPPM initialization ...
  extracting TIP4P info from pair style
  using 12-bit tables for long-range coulomb (../kspace.cpp:340)
  G vector (1/distance) = 0.37403556
  grid = 24 24 24
  stencil order = 5
  estimated absolute RMS force accuracy = 0.0031868896
  estimated relative force accuracy = 9.5972235e-06
  using double precision FFTW3
  3d grid and FFT values/proc = 3549 432
Last active /omp style is kspace_style pppm/tip4p/omp
Neighbor list info ...
  update every 1 steps, delay 7 steps, check yes
  max neighbors/atom: 2000, page size: 100000
  master list distance cutoff = 10.8154
  ghost atom cutoff = 10.8154
  binsize = 5.4077, bins = 4 4 4
  1 neighbor lists, perpetual/occasional/extra = 1 0 0
  (1) pair lj/cut/tip4p/long/omp, perpetual
      attributes: half, newton on, omp
      pair build: half/bin/newton/omp
      stencil: half/bin/3d
      bin: standard
Setting up Verlet run ...
  Unit style    : real
  Current step  : 24750000
  Time step     : 2
  Walltime left : 23:49:59.93
Per MPI rank memory allocation (min/avg/max) = 10.19 | 10.20 | 10.20 Mbytes
Step Temp PotEng TotEng E_pair E_mol Press Lx Ly Lz Volume Pxx Pyy Pzz Pxy Pxz Pyz Enthalpy 
24750000    268.46992   -3826.2779   -3366.1297   -3826.2779            0    7175.3708    17.021546    20.049133    20.766246    7086.8395     6458.021    6645.5136    8422.5779   -949.32872   0.40194169   -795.00868   -2624.5244 
24751000    267.76822   -3858.0864   -3399.1409   -3858.0864            0    7707.0825    17.049825    20.082442    20.800747    7122.2199    6576.8441       7031.7    9512.7033    729.01119   -537.97298   -331.17739   -2598.6041 
24752000    256.63254   -3872.4383   -3432.5789   -3872.4383            0    9192.9141    17.101013    20.142734    20.863196    7186.5608    8877.6472    9270.7945    9430.3005   -1829.8868    5.8112866   -1252.9699   -2469.0823 
24753000    260.89109   -3874.4903   -3427.3319   -3874.4903            0    9067.0871     17.06353    20.098584    20.817466     7139.408    8922.2591    10202.366     8076.636    347.11431   -1293.8489   -187.61891   -2483.2582 
24754000    246.04744   -3875.3312   -3453.6143   -3875.3312            0    8099.3192    17.021912    20.049564    20.766693    7087.2967    5818.3726    9289.6686    9189.9164    216.30006    782.80393    1284.4878    -2616.461 
24755000    266.39922   -3887.0905   -3430.4913   -3887.0905            0    7576.8441     17.12778    20.174262    20.895851     7220.359    5441.2266     9656.357    7632.9486   -447.75558    662.09886   -637.84159   -2632.6381 
24756000    251.20074   -3828.9499   -3398.4004   -3828.9499            0    10354.938    17.034389     20.06426    20.781915     7102.893    7602.0555    12501.826    10960.931    -1577.091   -1454.0604   -365.78432   -2325.7489 
24757000    251.16639   -3854.3775   -3423.8869   -3854.3775            0    7337.0853    17.065401    20.100789     20.81975    7141.7576    8684.6745    7479.7536    5846.8278    -310.1152   -1022.4995    1074.6287   -2659.6913 
24758000     267.8553   -3887.0742   -3427.9794   -3887.0742            0    8951.8731    16.985127    20.006236    20.721815    7041.4482    8999.6485    8284.1314    9571.8393    10.757507   -202.05122   -477.55511   -2508.6909 
24759000    273.83907   -3851.7891   -3382.4383   -3851.7891            0    10292.538    16.959038    19.975507    20.689987    7009.0512     9488.459     8080.781    13308.374   -968.59787     771.8395    1059.8484   -2330.3369 
24760000    270.86935   -3884.1245   -3419.8637   -3884.1245            0    7460.5802    16.994371    20.017124    20.733093    7052.9512     7771.971    5581.3998      9028.37   -22.270509    901.51027   -1805.6745    -2652.468 
24761000    257.42259   -3880.7839   -3439.5704   -3880.7839            0    9954.2763    16.942434     19.95595    20.669731     6988.485    11800.929    7512.4234    10549.477   -629.46142    973.61588    805.08423   -2425.0317 
24762000    263.88357   -3851.6489   -3399.3615   -3851.6489            0    8659.6578     16.92072    19.930373    20.643238    6961.6483    7459.6989    8247.1732    10272.101      21.5583   -387.94391    1046.7227   -2520.1594 
24763000    271.11382   -3890.1464   -3425.4666   -3890.1464            0    7684.5484    16.960345    19.977047    20.691582    7010.6724    8278.4536    6780.0985    7995.0931    -25.89164   -1415.7531    493.19532   -2639.7717 
24764000    244.75307   -3894.9757   -3475.4773   -3894.9757            0    8312.1493    17.001747    20.025812    20.742091    7062.1384    7805.3797    7179.2671    9951.8011    1050.8439    459.76559   -1605.7689   -2619.3754 
24765000    264.46841   -3889.5396   -3436.2498   -3889.5396            0    8777.3355    16.995332    20.018256    20.734265    7054.1471    9003.9171    8626.2154    8701.8739     -642.709    1920.5034    1575.5484   -2533.2595 
24766000    256.13092   -3895.7872   -3456.7876   -3895.7872            0    6166.1842    17.018439    20.045473    20.762456    7082.9597    3261.3635     5346.619      9890.57    1177.9805   -488.40487   -833.16857    -2819.835 
24767000    275.53889   -3920.7953   -3448.5311   -3920.7953            0    7522.5485    17.007864    20.033017    20.749554    7069.7634    7296.6441    7465.8044     7805.197   -371.55125    555.95505    991.31511   -2672.9169 
24768000    244.55322   -3890.6848    -3471.529   -3890.6848            0    7757.8792    16.953748    19.969275    20.683533     7002.494     7378.103    8000.0838    7895.4508    1344.1459   -314.12106    178.92749   -2679.2618 
24769000    259.54468   -3899.1013   -3454.2506   -3899.1013            0    8310.9998    16.991156    20.013338    20.729171    7048.9495    7273.7903    7321.0947    10338.115   -1240.9678   -210.07526   -950.27975   -2599.8657 
24770000    261.25394   -3899.7781   -3451.9978   -3899.7781            0    9482.8387    16.884921    19.888207    20.599564     6917.556    9871.3927    8636.3179    9940.8054    2419.0531   -488.08345    50.790692   -2495.3173 
24771000    251.43576   -3885.8736   -3454.9214   -3885.8736            0    8138.0712    17.000068    20.023835    20.740044    7060.0469    9525.0531    7178.9251    7710.2355    119.01935   -67.581249    766.31402   -2616.9967 
24772000    267.59871   -3882.9345   -3424.2795   -3882.9345            0    9070.3042     17.02047    20.047865    20.764933    7085.4951    8087.7475    10662.703    8460.4621    75.571706    802.25232    884.83985   -2487.0025 
24773000    255.02775   -3898.0822   -3460.9733   -3898.0822            0    6371.4174    17.022627    20.050406    20.767565    7088.1899    5731.4968    6514.3976    6868.3578    -1047.994   -992.34061    642.02205   -2802.3346 
24774000    275.11593   -3844.6698   -3373.1305   -3844.6698            0    9510.9138    17.000054    20.023818    20.740026    7060.0291    6997.4252    9641.6353    11893.681   -520.77937     -619.931    386.08503   -2393.8556 
24775000    258.71462   -3859.1269   -3415.6989   -3859.1269            0    7393.5487    17.005629    20.030385    20.746828    7066.9775     7961.976    6508.3305    7710.3394   -116.44861    1337.9173   -291.93451   -2653.6857 
24776000    265.37609    -3836.886   -3382.0405    -3836.886            0    5420.5474    17.059712    20.094087    20.812808    7134.6168    3620.4602    7301.4582    5339.7239   -986.89658   -131.11152    1109.4058   -2818.0267 
24777000    264.29183   -3856.0124   -3403.0253   -3856.0124            0      8454.32    17.000584    20.024443    20.740673    7060.6897    7434.0246    8889.0712    9039.8642   -2129.4009    250.81182   -81.017077   -2532.4593 
24778000    256.91492   -3881.4383   -3441.0949   -3881.4383            0    9097.4364    17.019352    20.046548    20.763569     7084.099    7758.8486    8981.1718    10552.289   -782.80129    145.30467   -343.19326   -2501.1995 
24779000    250.05345   -3898.6715   -3470.0884   -3898.6715            0    6319.5711    17.040131    20.071023     20.78892    7110.0778    6613.9775    6584.7428    5759.9929   -1915.1919   -38.884654    -210.3029   -2814.7919 
24780000    263.25784   -3861.9344   -3410.7195   -3861.9344            0    6568.9947    17.096702    20.137657    20.857937    7181.1272    5854.2797    6409.3132     7443.391   -842.54066   -438.72345     702.3783   -2722.7528 
24781000    258.41744   -3813.5723   -3370.6537   -3813.5723            0     7625.176    17.095169    20.135851    20.856067    7179.1961    6864.8497    7229.7938    8780.8845     1008.861   -1370.3679    2373.0474   -2572.2885 
24782000    257.38708   -3833.9754   -3392.8227   -3833.9754            0    7579.9355    16.974808    19.994081    20.709226     7028.622    7313.5474    8602.1767    6824.0825   -1193.5541     368.2263    210.65266   -2615.8396 
24783000    254.14876   -3842.3245   -3406.7222   -3842.3245            0    9196.0495    16.949157    19.963868    20.677931    6996.8065    9927.4348     8286.232    9374.4816   -780.21517   -235.84686   -647.87173   -2468.3458 
24784000     261.8277   -3895.9315   -3447.1678   -3895.9315            0    7551.6204    16.988188    20.009842     20.72555    7045.2559    8211.6108    7554.5332    6888.7173   -751.25265   -65.306386   -770.27902   -2671.2552 
24785000    256.12231   -3914.3748     -3475.39   -3914.3748            0    8208.9586    17.055757    20.089428    20.807983    7129.6557    7431.3301    8470.8828     8724.663    457.18477    238.04055    -1058.186    -2621.833 
24786000    263.79267   -3897.9808   -3445.8492   -3897.9808            0    8623.5457    16.982271    20.002872    20.718331    7037.8965     8878.888    9405.8818    7585.8674    267.51673   -568.51044   -705.67241   -2560.7241 
24787000    264.80946    -3870.882   -3417.0077    -3870.882            0    8443.5784    16.998972    20.022543    20.738706    7058.6809    8401.5764    8338.3862    8590.7726    403.57869   -1451.0863    82.321333   -2547.7952 
24788000    270.20234   -3889.7296    -3426.612   -3889.7296            0    9066.9074    16.971976    19.990746    20.705771    7025.1052    10302.137    8060.4387     8838.147   -471.49415   -297.83732    1045.3986   -2497.6715 
24789000    241.45683   -3844.6379   -3430.7891   -3844.6379            0    8230.1793    17.035072    20.065064    20.782748     7103.747    10441.995    7913.7934    6334.7499   -292.52428    820.00658   -642.23174   -2578.1354 
24790000    252.04663   -3844.4911   -3412.4918   -3844.4911            0     7819.707    17.022407    20.050147    20.767296    7087.9145    7433.7334    7267.5761    8757.8114    681.11518   -579.63417   -757.01361    -2604.169 
24791000     260.1379   -3845.2109   -3399.3434   -3845.2109            0    8790.1484    17.011732    20.037573    20.754273    7074.5883    6645.3878    8633.4825    11091.575    893.07199    -28.66061   -820.71945   -2492.4144 
24792000    269.78824   -3864.8888    -3402.481   -3864.8888            0    8708.7938    16.962661    19.979774    20.694406    7013.5438    8315.9934    9902.6124    7907.7757    673.95863   -1440.5024    737.07617    -2511.699 
24793000    256.54511   -3866.2204   -3426.5108   -3866.2204            0    6379.8148     17.10478    20.147172    20.867792    7191.3114     4463.464    7269.5604    7406.4199    1275.1608    1968.4247   -740.37798   -2757.4092 
24794000    276.18566    -3882.914   -3409.5412    -3882.914            0    9583.9594    16.931206    19.942724    20.656032    6974.5992    9591.6495    8751.6177    10408.611    499.90957   -1841.0352    195.78627    -2434.686 
24795000     258.6367    -3887.469   -3444.1746    -3887.469            0    10292.217    16.888328     19.89222    20.603721    6921.7445    10990.821    11049.183    8836.6474   -1704.9587   -173.63609   -87.455326   -2405.2108 
24796000    262.94058    -3837.074   -3386.4029    -3837.074            0    9402.8592    16.984304    20.005267    20.720811    7040.4248    9642.9199    10105.169    8460.4882    397.13313   -504.12975    1058.3229    -2420.942 
24797000    256.14852   -3868.4983   -3429.4685   -3868.4983            0    7722.3923    16.987903    20.009505    20.725201    7044.9006    3679.4483    7615.6644    11872.064    122.15959    534.15196   -2567.2367   -2636.0495 
24798000    275.87986   -3875.5379   -3402.6893   -3875.5379            0    8866.6739    16.989512    20.011401    20.727165    7046.9029    7535.7132    10537.338    8526.9705   -494.02246   -2060.7064   -1137.2488   -2491.4448 
24799000    259.22959   -3852.1607   -3407.8501   -3852.1607            0    6889.6031    17.069799    20.105968    20.825115    7147.2801    6158.9245     7078.015    7431.8697   -84.379742   -994.93143    1928.0616   -2689.7071 
24800000    269.35549   -3879.6185   -3417.9524   -3879.6185            0     8909.797    16.980738    20.001066     20.71646    7035.9906    9116.2946    8266.3407    9346.7556    55.761409    2048.1052    408.60921    -2503.694 
24801000    270.21442   -3871.4557   -3408.3174   -3871.4557            0    7924.6913    17.072753    20.109448    20.828719    7150.9916    8528.7632    8624.7285    6620.5821   -364.18768   -1079.1561   -2171.7737   -2581.8523 
24802000     267.6444   -3888.0195   -3429.2862   -3888.0195            0    7526.8395     16.96938    19.987689    20.702605    7021.8824    8796.7288    6869.8351    6913.9546   -382.74242   -130.44063    417.37226   -2658.4855 
24803000    267.54906   -3887.1596   -3428.5897   -3887.1596            0    8546.0631    16.930454    19.941839    20.655115    6973.6704    8896.4599    9675.0875    7066.6418    181.50017    530.11131    1013.1052   -2559.4224 
24804000    260.13151   -3841.5038   -3395.6473   -3841.5038            0    8447.4156    16.975578    19.994989    20.710166    7029.5792    9747.0279     8065.234    7529.9848   -679.65353    181.79088    404.41415   -2529.6249 
24805000    265.63817   -3885.6652   -3430.3705   -3885.6652            0     7207.044    17.026795    20.055315     20.77265    7093.3976     7328.026    6765.0872    7528.0188   -351.98601   -699.77161   -599.82258   -2684.8023 
24806000     282.9637   -3839.8786   -3354.8885   -3839.8786            0     9577.228    16.955106    19.970876     20.68519    7004.1774    9502.6581    9442.6622    9786.3636   -1084.2948   -357.34872    1380.1705   -2376.5867 
24807000    259.21369   -3856.3149   -3412.0315   -3856.3149            0    9283.1939    17.017079    20.043871    20.760797    7081.2616    10669.298    9940.9439    7239.3395   -456.04651    525.70643     977.7768   -2453.3288 
24808000    263.99446   -3837.6494   -3385.1719   -3837.6494            0    9273.8005    16.977288    19.997002    20.712251    7031.7028    7856.5483    8197.0107    11767.843   -333.39273    911.83816     609.8104   -2434.1421 
24809000    266.81547   -3859.1871   -3401.8746   -3859.1871            0    8237.7319    17.005033    20.029682      20.7461    7066.2336     8920.576     8257.652    7534.9677   -214.37346    1432.8248   -1067.4168   -2552.9452 
24810000    248.53417   -3876.7009   -3450.7218   -3876.7009            0     8577.864    16.992054    20.014395    20.730266    7050.0665    7273.2944    10635.156    7825.1422    401.62073   -407.36496    278.36873   -2568.7631 
24811000    253.88102   -3851.6191   -3416.4758   -3851.6191            0    6021.7392    17.054766    20.088262    20.806775    7128.4141    7441.8044    6467.0977    4156.3155    1300.2064   -624.25828   -1214.4895   -2790.4521 
24812000    250.47918   -3794.6067   -3365.2939   -3794.6067            0    8937.4104    17.031282    20.060601    20.778125    7099.0074    8274.3781    10932.353    7605.4999    635.01834    1236.8482    1301.7018   -2439.9883 
24813000    258.26153   -3790.1655   -3347.5141   -3790.1655            0     6996.423    17.088812    20.128363     20.84831     7171.189     8299.888    6590.6121    6098.7689   -68.815426    1605.4861   -1025.7505   -2615.7971 
24814000    267.66779   -3844.2123   -3385.4389   -3844.2123            0    6501.1272    17.110587    20.154011    20.874876    7198.6378    6897.0579    4742.8068    7863.5169    112.75414   -114.12303   -1140.2923   -2702.9197 
24815000    250.78203   -3878.8728    -3449.041   -3878.8728            0    6530.9821     17.10716    20.149975    20.870695    7194.3133    6349.9229    5174.1125     8068.911   -256.60606   -1252.9225   -405.17168   -2763.7994 
24816000    266.83685   -3830.8381   -3373.4888   -3830.8381            0    9315.9863    17.050598    20.083353     20.80169    7123.1889    7993.3375    7493.3077    12461.314   -691.60785    452.26911   -399.63723   -2405.7032 
24817000    261.12058   -3900.9274   -3453.3757   -3900.9274            0    8728.8147    16.986945    20.008377    20.724033     7043.709    7993.0183    9303.3677    8890.0581    683.78347   -889.15035   -156.13636   -2556.7058 
24818000    255.75379   -3867.7571   -3429.4038   -3867.7571            0    7472.6894    17.016609    20.043318    20.760223    7080.6748    7543.8936    8556.4421    6317.7326   -1384.8329    257.97889   -32.422709   -2657.7412 
24819000     242.6243    -3887.117   -3471.2672    -3887.117            0     8163.086    16.999073    20.022663    20.738829    7058.8071    8133.1957    8146.5482    8209.5139   -692.02076    56.356806    691.01609   -2630.9146 
24820000    269.34806   -3910.0192   -3448.3659   -3910.0192            0    8245.6754    17.144696    20.194187    20.916489     7241.774    8104.5278    8740.9825    7891.5159   -1332.6878    -536.0398    1226.0112   -2577.5084 
24821000     261.0521   -3881.9112   -3434.4769   -3881.9112            0    6336.8342    17.047136    20.079275    20.797466    7118.8506    4880.1136    6443.1748    7687.2144   -581.55412    -671.4343    715.10412   -2776.5795 
24822000     268.9368    -3815.758   -3354.8096    -3815.758            0    7738.6219    17.122922     20.16854    20.889924    7214.2168    7854.5044    8529.4174    6831.9439    691.07001     419.1255   -266.53767    -2540.614 
24823000    251.83429   -3867.8162   -3436.1808   -3867.8162            0    9566.0779    16.947603    19.962038    20.676037    6994.8832    10001.256    9891.2691    8805.7081   -603.42886    473.04114    59.883827   -2460.3146 
24824000    258.43747   -3874.3076   -3431.3546   -3874.3076            0    7247.5027    17.021031    20.048526    20.765618    7086.1962    6369.2169    7489.5385    7883.7527   -852.71225   -479.73619   -201.09479   -2682.3622 
24825000    256.81703   -3835.7091   -3395.5335   -3835.7091            0    8203.0434    16.979254    19.999319    20.714651     7034.147    7918.1558     8137.805    8553.1694   -803.08849    875.11033   -180.53978   -2554.0176 
24826000    259.07821     -3862.92   -3418.8688     -3862.92            0    6105.9745    17.042853     20.07423    20.792241    7113.4864    6755.3836    5902.1256    5660.4144    689.05327    203.01957   -59.960506   -2785.4173 
24827000    266.20052   -3894.7184   -3438.4598   -3894.7184            0    10121.195    16.898276    19.903937    20.615857    6933.9829    12407.827     8505.863    9449.8942   -24.168773    402.86064    471.81229   -2414.9537 
24828000    274.94417     -3834.02   -3362.7751     -3834.02            0    6860.3898    16.944601    19.958501    20.672373    6991.1657    7489.7409    8408.7076    4682.7209   -1467.8598   -710.01075   -1859.8789   -2663.2967 
24829000    259.43982   -3871.1949   -3426.5239   -3871.1949            0    7193.2604    16.997378    20.020667    20.736762    7056.6961    8900.3567    6022.5078    6656.9168     744.3546   -2608.9395   -158.15943   -2686.2319 
24830000    272.92241   -3861.2098   -3393.4301   -3861.2098            0    6549.3864    17.030714    20.059932    20.777432    7098.2971    5299.2862    7948.4319    6400.4412    1243.1031   -37.427287    1385.5599   -2715.4286 
24831000    256.23236   -3859.3705    -3420.197   -3859.3705            0     8843.492    16.959853    19.976466    20.690981    7010.0615    8616.9115    8300.9393    9612.6253    618.02702   -37.773724    2142.8948   -2516.0866 
24832000      261.871   -3924.8816   -3476.0436   -3924.8816            0    6159.1355    17.035589    20.065673    20.783378    7104.3936    6694.2885     6702.256     5080.862    1199.5397   -205.19681   -948.16473   -2837.8938 
24833000    254.53472   -3876.7855   -3440.5217   -3876.7855            0    9517.6845     17.00544    20.030162    20.746597    7066.7414    10341.317    9873.2026    8338.5337    2115.0925    1851.2885    38.913744   -2459.6179 
24834000    267.89813    -3842.904   -3383.7358    -3842.904            0    7607.6705    17.023511    20.051447    20.768643    7089.2936    7726.4731     8123.587    6972.9514    935.23057   -503.63761     289.0216   -2597.1781 
24835000    253.75389    -3834.295   -3399.3695    -3834.295            0    8006.2855    16.997647    20.020984     20.73709    7057.0313     7132.929    7157.5517    9728.3758    370.43863    64.867896   -438.24907   -2575.3661 
24836000    256.26438   -3874.6207   -3435.3923   -3874.6207            0    7418.2185    17.045328    20.077145     20.79526    7116.5852    9110.5333    6740.8495    6403.2727    1622.8578    -728.2227   -1160.3883   -2665.4696 
24837000    245.32821   -3853.0665   -3432.5824   -3853.0665            0    10166.337    16.941622    19.954993    20.668739    6987.4798    12774.967    8441.6769    9282.3665   -397.53851    1154.8773    83.438457   -2396.5796 
24838000    265.98576   -3848.5564   -3392.6659   -3848.5564            0    9718.7881    17.016423    20.043098    20.759996    7080.4425    11383.398    8223.7161    9549.2501    1073.4875    713.06865   -227.03468   -2389.0943 
24839000    248.04799   -3903.5787   -3478.4329   -3903.5787            0    6884.2698    17.030471    20.059645    20.777134    7097.9924     7988.849    6721.4632    5942.4973    1020.0514   -1591.2086     896.6955   -2765.7944 
24840000    256.46251   -3871.6997   -3432.1317   -3871.6997            0    8552.2442     16.96761    19.985603    20.700444    7019.6845     7640.498    7928.4488    10087.786   -81.200103    104.72206    218.97207   -2556.5966 
24841000    258.95692   -3872.7027   -3428.8594   -3872.7027            0    9599.7079    16.881071    19.883672    20.594867    6912.8251    10081.495    7688.5067    11029.122     814.3366    765.61166    545.63963   -2461.0508 
24842000    275.13326   -3889.1083   -3417.5393   -3889.1083            0    8416.9683    16.988047    20.009676    20.725378    7045.0806    8609.6608    9240.8386    7400.4054    458.41408   -553.56339    1234.7408   -2552.7356 
24843000    266.56045   -3932.3929   -3475.5174   -3932.3929            0    8081.0598     16.99744    20.020739    20.736837    7056.7726    8371.7263    8262.4839    7608.9693    188.35315   -85.373802   -246.18168   -2643.8488 
24844000    246.17556   -3850.2365      -3428.3   -3850.2365            0    9659.1935    16.924201    19.934473    20.647486     6965.946    11193.228    7273.9391    10510.413   -1193.3163    1000.2021   -537.38773   -2447.0112 
24845000    254.35656   -3891.5032   -3455.5447   -3891.5032            0    7880.0989    17.008498    20.033763    20.750327     7070.554    9098.2247     6950.619     7591.453    2174.3391   -1199.4299   -683.60698   -2642.9743 
24846000    266.45558   -3880.4088   -3423.7131   -3880.4088            0    7466.5261    17.034772    20.064711    20.782382    7103.3717    8374.6709    6619.1808    7405.7266   -1454.9087   -1176.4447    208.06994   -2650.2154 
24847000    274.10953   -3910.4241   -3440.6098   -3910.4241            0    9516.9267    16.982976    20.003702    20.719191    7038.7729    10808.279    6809.8335    10932.668    314.45837    94.408774    1168.9239    -2463.666 
24848000    247.67736   -3911.7515    -3487.241   -3911.7515            0    8098.1711    16.971724    19.990449    20.705463    7024.7916     9859.913    6901.9725    7532.6278    -240.1318    693.97249     152.9873   -2657.5884 
24849000    266.63769   -3907.5987   -3450.5908   -3907.5987            0    8685.0026    16.970974    19.989565    20.704548    7023.8605    9059.5257    8258.2606    8737.2216   -437.03039   -1678.5453   -230.40451   -2560.9356 
24850000    248.49214   -3879.3827   -3453.4757   -3879.3827            0    6300.6309    16.978691    19.998655    20.713963    7033.4466    8951.0171    4644.9698    5305.9058   -110.11193     1104.154    809.40023   -2807.1846 
24851000    254.15105   -3899.8534   -3464.2472   -3899.8534            0    8882.5197    16.999108    20.022704    20.738872    7058.8506    9204.1596    9314.3407    8129.0589   -120.70841   -176.88019   -177.79032   -2549.8265 
24852000    275.43957   -3881.1017   -3409.0077   -3881.1017            0    7502.1101    16.973485    19.992524    20.707613    7026.9795    7013.1662    8121.8582    7371.3059   -950.54919    -517.8421    482.03239   -2640.1818 
24853000    268.61249   -3895.1745   -3434.7819   -3895.1745            0    6372.2239    17.019732    20.046996    20.764034    7084.5742    7364.9174    5844.7333    5907.0209   -219.64143   -839.78695    276.72388   -2776.3958 
24854000    274.56465   -3912.5159   -3441.9214   -3912.5159            0    8968.6973    16.937163    19.949741    20.663299    6981.9637    8139.3874    10486.563    8280.1415    497.97405   -447.68172   -939.27735   -2528.6858 
24855000     271.4246   -3862.8215    -3397.609   -3862.8215            0    7643.0544    16.972971    19.991917    20.706984    7026.3401    6977.8605    7634.6364    8316.6663    746.55128    1646.5989   -585.03844   -2614.4103 
24856000    255.08077   -3870.9949   -3433.7952   -3870.9949            0    8997.0958    16.925901    19.936476     20.64956    6968.0459    8753.1241     8021.323     10216.84    450.69637    -605.5321    999.45121   -2519.4941 
24857000    262.47327   -3892.9382    -3443.068   -3892.9382            0    8826.9195    16.917529    19.926614    20.639346    6957.7108    10341.559     10365.93    5773.2698     750.4452    552.68988    1151.0269   -2547.3909 
24858000    258.82481   -3872.1503   -3428.5334   -3872.1503            0    7321.7039    16.995152    20.018045    20.734046     7053.924    6677.8921    7969.1968    7318.0228   -2899.8888   -1960.6234    813.26593   -2675.3186 
24859000    259.45083   -3887.1787   -3442.4888   -3887.1787            0    7654.0014    17.018143    20.045124    20.762094    7082.5893    8836.3184    7456.8619    6668.8238    109.39123   -1314.7504   -904.41128   -2651.8894 
24860000    245.88286   -3869.5805   -3448.1457   -3869.5805            0    9017.7192     17.03029    20.059432    20.776914    7097.7665    8945.6129    10554.386    7553.1589   -1124.2723    365.76943   -88.734282   -2514.6887 
24861000    261.97081   -3875.9211   -3426.9121   -3875.9211            0    9126.4065    16.999504    20.023171    20.739356    7059.3444    11168.863    9711.4215    6498.9346      321.251    794.78461    699.27284   -2487.3185 
24862000    270.81308   -3891.3278   -3427.1635   -3891.3278            0    6957.5436    17.002376    20.026553    20.742859    7062.9223     6646.147    7341.7228    6884.7611   -1383.4948   -191.71314    -492.0121   -2710.4984 
24863000    257.37116   -3899.6914   -3458.5661   -3899.6914            0    7157.7982    17.016511    20.043202    20.760104    7080.5523    7200.0595     6235.256    8038.0792    786.09023   -1839.1152    533.04967   -2719.4333 
24864000    279.48634   -3887.9267   -3408.8967   -3887.9267            0    5382.1253    17.087463    20.126775    20.846665     7169.492     4515.449    7153.9985    4476.9283    269.25884     108.1989   -100.37211   -2846.1434 
24865000    266.80407   -3876.0513   -3418.7583   -3876.0513            0    8695.3661    17.045689     20.07757      20.7957    7117.0374    9182.8138     9665.509    7237.7754   -1404.2666    228.49336    555.61583   -2516.2255 
24866000     252.0943   -3861.9431   -3429.8621   -3861.9431            0     7544.453    17.013095    20.039179    20.755936     7076.289    6584.9035    7592.1398    8456.3158    820.96931   -1118.4078   -1601.0453   -2651.2714 
24867000    251.88694   -3904.4621   -3472.7365   -3904.4621            0    9158.2971    17.024015    20.052041    20.769258    7089.9236    9835.7854    8666.5386    8972.5674    292.15258    537.71636    386.67869   -2525.7753 
24868000    258.74685   -3894.7023    -3451.219   -3894.7023            0    7764.7546     17.03572    20.065828    20.783538    7104.5579     7245.434    8353.6766    7695.1533   -1170.2399    31.038993   -1358.5988   -2646.6919 
24869000    270.63373   -3906.9008   -3443.0439   -3906.9008            0    7085.9942    17.072703    20.109389    20.828658    7150.9285    6543.9219    7542.8552    7171.2054    2488.4215    1042.5536   -513.79606   -2704.0529 
24870000    253.21957   -3876.8602   -3442.8505   -3876.8602            0    8582.1614    16.993234    20.015785    20.731705    7051.5351    8873.4295    9378.8116    7494.2431    419.62633    -1253.296    2017.9782   -2560.2661 
24871000    244.81084   -3865.1124    -3445.515   -3865.1124            0    8796.9917    17.056612    20.090435    20.809026     7130.728    7873.1187     9959.115    8558.7413   -194.81491   -576.39095    902.29768   -2530.6775 
24872000    278.06981   -3850.8608   -3374.2586   -3850.8608            0    8850.1094    17.003787    20.028215     20.74458    7064.6809     9098.968    8811.5691    8639.7912   -2519.7768    422.89035   -1277.8975   -2462.4219 
24873000    260.79759   -3878.0628   -3431.0647   -3878.0628            0    10836.413    16.945044    19.959023    20.672914    6991.7142    11075.042    10706.882    10727.316   -1713.0753   -1811.5852    779.21638   -2326.1084 
24874000    266.72898   -3844.9843     -3387.82   -3844.9843            0    9781.7694    16.968397    19.986531    20.701405    7020.6621    8143.6367    11220.593    9981.0783    268.67177   -254.29521    1503.8777   -2386.2729 
24875000     273.1253   -3815.2791   -3347.1516   -3815.2791            0    10127.312    16.955183    19.970966    20.685284    7004.2725    9947.3017    10302.377    10132.256   -383.03547    5.4578366   -762.74441   -2312.6454 
24876000    258.99604   -3856.6163    -3412.706   -3856.6163            0    8124.1586     16.98496    20.006039    20.721611    7041.2403    7245.0404    8886.2659    8241.1696    -202.2976    314.47458    669.27381   -2578.4421 
24877000    267.89679   -3846.7385   -3387.5725   -3846.7385            0    8628.1103    16.928899    19.940007    20.653217    6971.7484    8412.5768    10049.898    7421.8557   -1553.5062    1006.2637    2425.8102   -2510.3025 
24878000    260.92201     -3838.59   -3391.3787     -3838.59            0    6962.1472    16.986341    20.007666    20.723296    7042.9579    7058.4436    6532.8119     7295.186    642.75944   -810.14526   -14.871115   -2676.2665 
24879000    271.25201   -3824.1287    -3359.212   -3824.1287            0    9133.1441    16.989319    20.011174     20.72693    7046.6635    9700.2617    8482.5891    9216.5814    150.74796    697.42753    283.63349   -2420.6138 
24880000    253.78637   -3879.0628   -3444.0816   -3879.0628            0    8196.9109    17.014417    20.040736    20.757549    7077.9388    8724.6296    7304.1407    8561.9623    1510.0861    133.93791    379.86721   -2597.9598 
24881000    252.58018   -3878.7472   -3445.8334   -3878.7472            0    8588.2731     16.96508    19.982623    20.697358    7016.5449    8218.3479    8151.9261    9394.5454    -509.0423    779.94829    9.5182909   -2567.0031 
24882000    275.89923   -3889.4422   -3416.5603   -3889.4422            0    8469.5341     17.00118    20.025144      20.7414    7061.4321     7460.541    8771.8818    9176.1795    275.23115   -381.14713   -443.62379    -2544.336 
24883000    261.20107   -3882.2779   -3434.5882   -3882.2779            0    8373.5845    16.937271    19.949868    20.663432    6982.0978      10701.1    6996.6902     7422.963   -388.75634   -50.506647    -19.86062   -2581.9334 
24884000    254.66821   -3911.9442   -3475.4516   -3911.9442            0    7988.7583    17.017712    20.044617    20.761569    7082.0524    7893.4403    7895.1137    8177.7208   -1064.1463    1242.0637     1960.477   -2650.3369 
24885000    245.17077   -3899.7453    -3479.531   -3899.7453            0    7642.2343    16.924642    19.934993    20.648024    6966.4911    9744.4404    7083.0305    6099.2319   -318.43081   -57.734222    1383.3357   -2703.0866 
24886000    250.87314   -3878.4916   -3448.5036   -3878.4916            0     6783.401    16.982125    20.002701    20.718153    7037.7158    6986.8783    5246.9392    8116.3856   -503.09147    137.55086   -555.02954   -2752.2698 
24887000    248.43293    -3886.411   -3460.6054    -3886.411            0    7105.4932    16.977203    19.996903    20.712148    7031.5981    8701.0506    8975.1614    3640.2678   -80.054264    12.010584    1992.0582   -2731.9467 
24888000    265.55115   -3899.6924   -3444.5468   -3899.6924            0    8666.1546    16.944984    19.958953    20.672841      6991.64    8189.6766     8151.984    9656.8032    353.49564   -239.32894    -1370.237   -2560.8945 
24889000    243.24415   -3930.9364   -3514.0243   -3930.9364            0     7480.101     17.00164    20.025686    20.741961     7062.005    8832.0135    6448.3616    7159.9277    1043.6277    226.46457   -409.92737    -2743.633 
24890000    260.22535   -3885.2063    -3439.189   -3885.2063            0     7153.159    16.981219    20.001633    20.717048     7036.589    5428.8198    6783.3932     9247.264     1233.177    638.80561   -938.68083   -2705.1216 
24891000    258.24331    -3896.798   -3454.1778    -3896.798            0    7453.0276    16.975604    19.995019    20.710197     7029.611    6722.9249    6706.3023    8929.8555   -785.53686   -924.41869    158.75478   -2690.0959 
24892000    259.01838   -3905.7037    -3461.755   -3905.7037            0    6016.6631    17.026843    20.055372    20.772709    7093.4577     6358.406    6065.6187    5625.9646    1509.6287    35.006757    259.57818   -2839.3264 
24893000    249.80694   -3863.9363   -3435.7757   -3863.9363            0    6524.4311    17.010139    20.035696    20.752329    7072.6008    5889.8919    7668.1097    6015.2916    1204.6151   -330.66498    271.78048   -2762.8027 
24894000    252.58849   -3825.4053   -3392.4772   -3825.4053            0    7842.0596     16.92135    19.931115    20.644007    6962.4264    9220.0425    7936.1126    6370.0236   -1142.5437    558.50396    86.591917   -2596.1957 
24895000    266.33781   -3849.6841   -3393.1902   -3849.6841            0    9046.1757    16.922044    19.931932    20.644854    6963.2829    10289.542    9730.5823     7118.403    212.02573    819.53048    35.156568   -2474.5299 
24896000    254.87301   -3876.6852   -3439.8415   -3876.6852            0    9388.5564    16.980977    20.001348    20.716752    7036.2878    9745.1556    10010.807    8409.7065    290.65238   -1926.9633   -676.15041   -2476.4157 
24897000    249.41083    -3888.409   -3460.9274    -3888.409            0    7604.7052    16.971537    19.990229    20.705235    7024.5596    6630.7015    8679.6927    7503.7214    1668.5048   -15.833776    933.48467   -2681.8558 
24898000     255.3567   -3905.3244   -3467.6518   -3905.3244            0    7520.5507    17.011847    20.037708    20.754413    7074.7315    7413.5724    8341.9427    6806.1369    1867.0032    861.58387   -141.57769   -2691.6986 
24899000    277.46217   -3861.1601   -3385.5994   -3861.1601            0    8601.8984    16.918795    19.928105     20.64089    6959.2726    6728.6568    10423.499    8653.5398   -381.34381    472.78418   -1792.4071   -2512.5596 
24900000    250.39982   -3845.6369   -3416.4601   -3845.6369            0    8457.3424    16.982682    20.003356    20.718832    7038.4076     10904.36    8355.5153    6112.1515   -281.21931    1722.6208   -711.30634   -2548.3312 
24901000    266.71783   -3845.8949   -3388.7496   -3845.8949            0    7668.0413    17.040479    20.071434    20.789345    7110.5143    8890.9449     6691.444    7421.7349   -569.14668    149.33881    381.53322   -2593.5771 
24902000    252.87677   -3893.9228   -3460.5006   -3893.9228            0    7715.9972    16.938591    19.951423    20.665042    6983.7304    9687.8797    6403.6523    7056.4595   -469.27314    1522.2812    1278.9164   -2674.6221 
24903000    264.87611   -3883.3836    -3429.395   -3883.3836            0    6030.0714    17.042809    20.074178    20.792187    7113.4311    5945.5746    7003.6513    5140.9882   -365.49568   -534.91237   -515.93534   -2803.8228 
24904000    244.52124    -3877.083   -3457.9819    -3877.083            0    7520.4664    17.049091    20.081577    20.799851    7121.2998    7160.8939    7617.8444    7782.6609    1058.3482    -187.7563    333.41918   -2676.9299 
24905000    258.58924   -3871.2726   -3428.0595   -3871.2726            0    9196.5282    16.950543      19.9655    20.679622    6998.5231    10835.249    7981.7835    8772.5522    273.67395     593.1537   -23.044836   -2489.4041 
24906000    248.46433   -3914.9318   -3489.0724   -3914.9318            0    7292.1523     17.00804    20.033224    20.749769    7069.9833    6922.0514    7600.5176    7353.8879    378.71505    476.36602     -318.795   -2737.1899 
24907000    254.91718   -3896.6897   -3459.7704   -3896.6897            0    7729.3904    16.914359    19.922881    20.635479    6953.8006    8700.1132    6966.2792    7521.7788    1407.7207    -463.9904     37.70798   -2675.9016 
24908000    264.49713   -3905.1097   -3451.7707   -3905.1097            0    8376.1798    16.921608    19.931419    20.644322    6962.7443    9624.9275    8884.0788    6619.5331   -520.54609   -1119.5816   -1124.9713   -2601.2158 
24909000    250.50722   -3884.7709   -3455.4101   -3884.7709            0    7051.3839    17.016737    20.043469     20.76038    7080.8349    7155.9605    7183.5528    6814.6383   -536.19684    224.60608   -120.39309   -2727.2369 
24910000    261.01315   -3857.7168   -3410.3492   -3857.7168            0    8272.6314    17.008561    20.033838    20.750404    7070.6327    6854.2509    8008.1794     9955.464    700.88089   -2409.8771    59.899748   -2557.2926 
24911000    258.74796   -3905.5097   -3462.0246   -3905.5097            0    8664.1446    16.977585    19.997353    20.712614    7032.0727    8230.9433    6909.8856    10851.605    708.88836   -134.93097      1800.95   -2573.4683 
24912000    251.90562   -3877.8756    -3446.118   -3877.8756            0    9934.4839     16.96902    19.987264    20.702165    7021.4347    9184.6031    9663.2441    10955.604    1155.5261    1818.6303   -816.68941   -2428.8226 
24913000    255.79246   -3869.8414   -3431.4219   -3869.8414            0    7790.3211    16.991771    20.014062    20.729921    7049.7145    8529.2495    7520.2301    7321.4837    133.00229   -126.97353    702.47816   -2630.4768 
24914000    245.51768   -3881.9723   -3461.1634   -3881.9723            0     8914.941    16.991964    20.014289    20.730157    7049.9549    9449.2572    10566.784    6728.7824    52.073828   -595.79251    196.79895   -2544.5616 
24915000    266.41526   -3908.0436    -3451.417   -3908.0436            0    7807.1175    16.976023    19.995512    20.710708    7030.1312    7268.9258    7819.5233    8332.9033    72.134241    147.87855    434.47097   -2650.9747 
24916000    261.39857   -3886.3868   -3438.3586   -3886.3868            0    7818.7311    16.998304    20.021757    20.737891     7057.849     8377.224    7793.1426    7285.8266   -209.68913    819.42718     623.6346    -2633.565 
24917000    245.61387   -3906.3107   -3485.3369   -3906.3107            0    7520.0739    16.996243    20.019329    20.735377    7055.2819    7468.2413    7878.3196    7213.6607    -155.6179     590.9712   -1657.8047   -2711.5661 
24918000     274.9442   -3864.1294   -3392.8844   -3864.1294            0    8168.4601    16.987945    20.009555    20.725253    7044.9533    9622.1768    6588.5094    8294.6941    1423.6321    578.41212   -951.50102   -2553.6289 
24919000    258.35143   -3851.1542   -3408.3487   -3851.1542            0    6991.5516    16.967438      19.9854    20.700234    7019.4709    8158.3023     6598.899    6217.4535   -1029.8254   -240.79228     296.2312   -2692.6111 
24920000    267.52958   -3888.5755   -3430.0389   -3888.5755            0    7385.6887    17.021329    20.048878    20.765982    7086.5689    8228.9543    7866.6687    6061.4429   -3148.9069   -844.47509    -1110.252   -2666.7255 
24921000    271.49435   -3930.4425   -3465.1105   -3930.4425            0    6234.6333    17.024329    20.052411    20.769642    7090.3163    6946.7998    6315.1964    5441.9037    493.09101   -1232.2019   -527.15476   -2820.4183 
24922000    254.13879   -3885.6307   -3450.0455   -3885.6307            0    8340.7705    17.012357    20.038309    20.755036    7075.3681     7009.596    9292.9956    8719.7199   -1416.7398   -270.69688    201.97077   -2589.3865 
24923000    256.39523   -3900.7584   -3461.3057   -3900.7584            0    6620.1473    16.993897    20.016566    20.732515    7052.3611    6988.4064     7710.478    5161.5574   -1138.9875    623.67664    936.74966    -2780.414 
24924000    257.33034   -3879.3505   -3438.2951   -3879.3505            0    9047.0056    16.904792    19.911612    20.623807    6942.0075     10020.45    9036.1481     8084.419   -453.71295     220.9048   -163.34415   -2522.3577 
24925000      258.234   -3865.6647   -3423.0605   -3865.6647            0    8389.1152    16.970836    19.989403     20.70438    7023.6891    6500.1624     8348.655    10318.528   -637.49198   -797.59719    2076.2675   -2563.7357 
24926000    253.83264   -3880.1277   -3445.0672   -3880.1277            0    7722.0278    16.983428    20.004235    20.719743    7039.3357    8997.8814    7118.0497    7050.1522    709.27202   -652.23191     1156.951   -2652.3124 
24927000    266.72263   -3854.1286   -3396.9751   -3854.1286            0    10515.002    16.963063    19.980247    20.694897    7014.0425    10259.666    10124.705    11160.635   -865.35281    1048.3003   -587.06326   -2321.3681 
24928000    256.92587   -3855.8945   -3415.5323   -3855.8945            0    7428.7229    16.973277    19.992279    20.707359    7026.7209    5637.8132    8102.4611    8545.8943   -882.42263    178.16064    1397.4315   -2654.2553 
24929000    256.63399   -3869.7312   -3429.8693   -3869.7312            0    7168.2298    17.023714    20.051686    20.768891    7089.5477    8676.2144    5654.2861    7174.1889   -40.408406   -828.46531    1092.6163   -2688.7189 
24930000    255.40749   -3864.4937    -3426.734   -3864.4937            0    11211.542    16.959273    19.975784    20.690274     7009.343    10877.269    10853.675    11903.683    449.20859   -99.835716    1152.8146   -2280.6444 
24931000    264.97388   -3891.8247   -3437.6685   -3891.8247            0    8875.8734     16.98089    20.001245    20.716646    7036.1794    8417.2659    7865.9802    10344.374    140.08052   -215.23668   -821.01931   -2526.8667 
24932000     269.4118    -3872.917   -3411.1544    -3872.917            0    7523.9279    17.018809    20.045909    20.762908    7083.4219    6602.5086     8116.034    7853.2411    478.74341   -349.04043   -777.75224   -2633.8992 
24933000    256.64276   -3888.9126   -3449.0357   -3888.9126            0    8254.5056    16.994127    20.016837    20.732796    7052.6479     8857.236    8265.1914    7641.0894   -733.54735    365.32734    1409.7098   -2600.0132 
24934000    245.85348     -3877.72   -3456.3356     -3877.72            0    9170.5477    17.028575    20.057412    20.774822    7095.6226    7279.6911    8799.9151    11432.037    -770.1935    426.39342   -381.52159   -2507.3455 
24935000    274.96703   -3872.8158   -3401.5317   -3872.8158            0    8800.7418    17.013774    20.039979    20.756765    7077.1368     9733.368    8988.6791    7680.1782     -633.372    709.16979    1533.6397   -2493.1827 
24936000    263.89527    -3843.773   -3391.4656    -3843.773            0    8789.0826    16.925723    19.936266    20.649342    6967.8253    7805.4396    10353.174    8208.6344    855.94011   -149.36788    864.27415   -2498.3314 
24937000    264.84933   -3899.4291   -3445.4864   -3899.4291            0    6106.0041    17.024994    20.053195    20.770453    7091.1475    4421.3119    7091.1765     6805.524    695.43991   -821.63752    782.07514   -2814.0211 
24938000    271.78934   -3859.0697   -3393.2321   -3859.0697            0    8126.7549    17.005237    20.029923    20.746349    7066.4885    8593.2026    6231.7383    9555.3238    666.80692   -2105.9778    -620.8291   -2555.7091 
24939000     249.0214   -3864.4338   -3437.6197   -3864.4338            0    8116.5999    17.041075    20.072135    20.790072    7111.2598    8680.7524     8930.446    6738.6013    674.44156   -872.24329    65.314591   -2595.8436 
24940000    274.56004    -3853.585   -3382.9985    -3853.585            0    8160.5591    17.083207    20.121761    20.841472    7164.1353    8359.3051    7960.0916    8162.2808   -412.29698    -826.8048   -979.48899   -2530.3705 
24941000    261.23516   -3845.7466   -3397.9985   -3845.7466            0    8801.5999    16.960619    19.977369    20.691915    7011.0115     8469.691    8292.6624    9642.4463     274.8059   -503.95457    235.99931   -2498.0489 
24942000    251.59814   -3839.0019   -3407.7713   -3839.0019            0    7617.8367    17.012291    20.038232    20.754955    7075.2861    7822.9555    6493.3755     8537.179   -1823.3191   -567.34022   -294.87973   -2621.7188 
24943000     255.2182   -3853.5223    -3416.087   -3853.5223            0     8237.879    16.968564    19.986728    20.701609    7020.8694    8090.5734    7630.0058    8993.0576     -321.014   -1861.6683    856.74776   -2572.5927 
24944000    264.49051   -3855.2794   -3401.9518   -3855.2794            0    7658.5914    17.006256    20.031123    20.747593    7067.7592    9038.6031    8029.2665    5907.9046   -276.98163    499.74249   -64.060463   -2612.5347 
24945000    265.35061   -3877.1736   -3422.3717   -3877.1736            0    8976.0697    16.946668    19.960937    20.674896    6993.7253    7819.9479    8426.0231    10682.238    158.47458    752.44908    895.73924   -2506.8457 
24946000    269.52238   -3868.8099   -3406.8578   -3868.8099            0    7167.6084    16.887574    19.891331      20.6028    6920.8167    7082.9096    5559.4643    8860.4514   -412.27546    452.19101    785.54093   -2683.4095 
24947000    261.33582   -3862.9877   -3415.0671   -3862.9877            0    7775.4887    17.028744    20.057611    20.775028    7095.8342    8204.6432     7165.283    7956.5399    534.58796    412.38505     1431.162    -2610.417 
24948000    258.28772   -3852.9758   -3410.2795   -3852.9758            0    6116.2198    17.055057    20.088605     20.80713    7128.7789    7054.2619    6308.3134    4986.0842     918.7412    1466.0329   -124.96773   -2774.4011 
24949000    275.66411   -3854.8023   -3382.3234   -3854.8023            0    8839.0606    16.989341    20.011199    20.726956    7046.6898    10035.697    8000.3362    8481.1492   -160.57131    275.73699   -853.17187   -2473.9443 
24950000     259.8814   -3845.3752   -3399.9474   -3845.3752            0    8348.9087    17.032716     20.06229    20.779874    7100.8006    8414.1925    7955.0044    8677.5291    1422.0964    178.26898    228.39448    -2535.352 
24951000    259.69261   -3860.5529   -3415.4486   -3860.5529            0    7733.7982     17.03502    20.065004    20.782685    7103.6827     7639.545    8724.2202    6837.6292   -4.2228337    798.88512    380.17513   -2614.2277 
24952000    263.76071   -3884.6766   -3432.5997   -3884.6766            0    7748.1691    17.024027    20.052056    20.769274    7089.9392    8773.4014    8053.5249    6417.5811    317.68799    408.06823   -464.08462    -2631.443 
24953000    244.84363   -3876.0002   -3456.3466   -3876.0002            0    9319.1845    16.948592    19.963203    20.677243    6996.1078    9020.6115    10525.006    8411.9359    893.94955    844.83397    408.14949   -2505.5003 
24954000    253.05919   -3886.5575   -3452.8227   -3886.5575            0    6996.5996    16.962768    19.979901    20.694538    7013.6775    6577.6057    7763.9187    6648.2743   -1519.0091   -581.80937   -723.30196   -2737.1595 
24955000    250.07695   -3877.8421   -3449.2188   -3877.8421            0    8906.0316    16.942669    19.956226    20.670016    6988.7746    8818.0878    8234.6576    9665.3495   -840.86455    452.39307   -198.79784   -2541.4795 
24956000    266.38055   -3905.1121    -3448.545   -3905.1121            0    6737.7325    16.997389    20.020679    20.736775    7056.7098    8760.5572    6265.8236    5186.8168    408.65882   -852.04788   -1015.9445   -2755.1321 
24957000    263.83831   -3901.1343   -3448.9245   -3901.1343            0    7617.3902    17.030677    20.059888    20.777386    7098.2504    7760.1517    7721.5704    7370.4484    1207.4967    1105.9856   -371.57123   -2660.3669 
24958000    271.94585   -3887.4225   -3421.3166   -3887.4225            0    7121.1366    16.988473    20.010177    20.725897    7045.6103    5696.4287    7326.6211      8340.36   -266.95091     950.6306   -994.61882   -2689.5985 
24959000    259.40876   -3871.2844   -3426.6666   -3871.2844            0    8614.0352    16.961595    19.978518    20.693106    7012.2217    7081.4444    8644.6142    10116.047    60.494703   -631.40922   -2384.2247   -2545.7432 
24960000    264.79754   -3874.2831   -3420.4291   -3874.2831            0    7284.1562    16.954633    19.970318    20.684612    7003.5903    6584.3755    8464.4338    6803.6593    1918.3934   -509.51623    370.77968   -2676.4241 
24961000    265.93409   -3892.1129   -3436.3109   -3892.1129            0    8215.9573    16.918778    19.928086     20.64087    6959.2526    8713.0929    7709.8845    8224.8945   -379.73038   -285.27027    348.83147   -2602.4442 
24962000    247.96023   -3852.5083   -3427.5129   -3852.5083            0    9103.5083    17.018369    20.045391     20.76237     7082.872    8070.6633    8973.3658    10266.496    1178.8752    1184.7539    894.90075   -2487.1531 
24963000    262.80185   -3862.4644    -3412.031   -3862.4644            0    9111.5523    17.010272    20.035853    20.752492    7072.7667    8415.5795    10581.527    8337.5499   -670.34725    1209.9951    -326.4069    -2472.183 
24964000    259.21135   -3881.0835   -3436.8041   -3881.0835            0    7507.3027    17.075714    20.112936    20.832332    7154.7134    8647.3973    6921.8971    6952.6138   -467.00564   -1218.1932   -1471.3478   -2653.4609 
24965000    260.48134   -3932.9874   -3486.5313   -3932.9874            0    7122.5815    17.092151    20.132296    20.852384    7175.3941    7343.8448    7433.0204    6590.8792   -458.51548   -13.230399    -1056.676   -2741.1833 
24966000    251.56279   -3864.4371   -3433.2671   -3864.4371            0    9393.5987    17.028448    20.057263    20.774667    7095.4639    9452.0823    7521.2908    11207.423    470.15984    947.40502    1033.1579   -2461.2169 
24967000    264.77964   -3914.8083   -3460.9851   -3914.8083            0     8690.674    17.053213    20.086432    20.804879    7126.4658    9116.2852    8962.7835    7992.9533     496.2501   -382.27492   -624.06679   -2557.7443 
24968000    264.85711   -3887.8947   -3433.9386   -3887.8947            0    8379.8169    17.100532    20.142168    20.862609    7185.9541    7741.6114    8928.7687    8469.0705    821.58569    474.47034   -982.39463   -2555.7358 
24969000    259.13803   -3850.4421   -3406.2883   -3850.4421            0    6300.2801    17.096573    20.137504    20.857779    7180.9642    6118.1472    7565.3492    5217.3439   -855.89302   -1670.8612   -1906.4324   -2746.4789 
24970000    251.40717   -3880.5147   -3449.6114   -3880.5147            0     10470.47    17.028169    20.056933    20.774326    7095.1145    10888.009    10757.375    9766.0249    746.98965   -27.446442   -748.76806   -2366.1799 
24971000    263.76462    -3876.377   -3424.2935    -3876.377            0    6995.7958    17.088028    20.127439    20.847354    7170.2021     8352.127    5115.4807    7519.7798    915.40167   -1686.3521   -89.479699   -2692.7428 
24972000    264.21458   -3889.7915   -3436.9367   -3889.7915            0    7534.9924    17.072199    20.108795    20.828043    7150.2954     6002.889     8990.508    7611.5802   -356.21345    1239.4039   -316.10107   -2651.1898 
24973000    248.21289   -3857.9323   -3432.5039   -3857.9323            0    8925.6144    16.989188    20.011019     20.72677    7046.4999    9805.8097    9578.7683    7392.2654   -778.80871    959.90443   -31.281513   -2515.2545 
24974000    248.24623    -3848.709   -3423.2234    -3848.709            0    8689.7398    16.941341    19.954662    20.668397    6987.1324    8200.5055    7477.9788    10390.735   -381.92321     1347.291    691.58663   -2537.7376 
24975000    264.12748   -3880.2765    -3427.571   -3880.2765            0    8014.9146    16.956552    19.972578    20.686953    7005.9687    8122.8609    8969.9668    6951.9162   -522.02623    183.10297   -337.50162   -2608.6482 
24976000    259.09355   -3855.8167   -3411.7392   -3855.8167            0     7588.641    17.073556    20.110394    20.829698    7152.0005    7580.5928    6017.1896    9168.1406    47.407381    -800.7509    478.33326   -2620.2091 
24977000    286.42324   -3843.2759   -3352.3562   -3843.2759            0    9571.9996    17.018013    20.044972    20.761936    7082.4279    9463.6982    11188.336    8063.9647    556.96194    237.55256   -1281.8856   -2363.6649 
24978000    265.85229   -3857.9754   -3402.3137   -3857.9754            0    7076.5637    17.071791    20.108314    20.827545    7149.7824    6420.0999     7650.424    7159.1672    1192.4625     771.4058    -427.5585   -2664.4245 
24979000    263.94721   -3878.1701   -3425.7736   -3878.1701            0    8277.7493    17.060583    20.095113    20.813872    7135.7102    7845.6206    6864.4984    10123.129    696.47752    617.22124   -1351.6696    -2564.333 
24980000     265.6875   -3850.5959   -3395.2166   -3850.5959            0    5607.0583    17.069748    20.105908    20.825052     7147.216    6452.9909    6630.0358    3738.1483    284.48797    -72.03498   -410.86933   -2810.7659 
24981000    263.75593   -3846.7737   -3394.7051   -3846.7737            0    9692.1644    16.999232     20.02285    20.739023    7059.0051    8454.4935    10696.545    9925.4543    332.94566   -113.25346   -897.41369   -2396.9128 
24982000    266.38773   -3870.8867   -3414.3072   -3870.8867            0     9298.681    17.075162    20.112286    20.831658    7154.0196    10576.615    9446.3118    7873.1164   -1236.6729     308.5487     339.5209   -2444.1383 
24983000    263.50029   -3873.5216   -3421.8911   -3873.5216            0    8394.3007    17.001625    20.025669    20.741943    7061.9872     9001.477    9769.2599    6412.1653    18.003465   -2546.7352   -122.36182   -2557.3467 
24984000    262.03786   -3844.4263   -3395.3024   -3844.4263            0    8345.5563    16.998804    20.022346    20.738501    7058.4717    7016.9212    9045.4027     8974.345   -397.68748    1187.7427    1111.8559    -2536.206 
24985000    248.10606   -3880.9446   -3455.6993   -3880.9446            0    7506.1411     17.00005    20.023814    20.740022    7060.0244    6889.6274    6862.4984    8766.2974   -1034.4047    1.2370044    72.416814   -2682.8429 
24986000     265.8235   -3881.5301   -3425.9178   -3881.5301            0    7584.2732    17.029741    20.058785    20.776244    7097.0797    8093.9951    8039.6275    6619.1971   -896.44365   -44.241296    222.37572    -2640.918 
24987000    255.72863   -3858.3857   -3420.0756   -3858.3857            0    9754.4634    16.949551    19.964332    20.678412    6997.2945    11180.348    8869.0391    9214.0027     4.834385    184.00124    406.27506   -2424.6486 
24988000    253.54781   -3844.6848   -3410.1125   -3844.6848            0    7103.3378    17.019303    20.046491     20.76351    7084.0385    5737.4046    6532.5367    9040.0721   -96.959373    1218.2528   -143.62572   -2676.2423 
24989000    248.62885    -3827.499   -3401.3577    -3827.499            0    6267.1556    17.015894    20.042476    20.759351    7079.7828    7113.5751    7345.3811    4342.5105    990.46898   -1218.9287     621.7962   -2754.2653 
24990000    256.57951   -3856.9475    -3417.179   -3856.9475            0    7880.0693    17.083434    20.122028    20.841749    7164.4208    7821.8635    6566.7464     9251.598   -223.97756    305.11284    2979.7511   -2593.8242 
24991000    258.21879   -3877.5961    -3435.018   -3877.5961            0    7536.4508    17.062952    20.097904    20.816762    7138.6832    7620.2802    5597.3732     9391.699    432.56481    794.10979    -1083.042   -2650.3953 
24992000    260.73854   -3837.9296   -3391.0327   -3837.9296            0    10359.754    16.957744    19.973983    20.688408    7007.4469    10436.496    9403.0263    11239.741    350.59137    -1213.271    -127.7654   -2332.3028 
24993000     282.9204   -3865.0267   -3380.1108   -3865.0267            0    8314.9153    17.048229    20.080562    20.798799    7120.2196    8232.6067    8837.6898    7874.4494   -651.49344    570.12112   -282.12633   -2516.6809 
24994000    261.39607   -3843.4812   -3395.4573   -3843.4812            0    8263.9369    16.995596    20.018567    20.734587    7054.4759    9632.2599    6864.9596    8294.5911   -35.701246    2296.5765   -436.12187   -2545.2445 
24995000    269.59026   -3838.0006   -3375.9321   -3838.0006            0     8293.457    16.963781    19.981094    20.695774     7014.934    7227.0243    8056.5024    9596.8444    613.49835    1355.7541    1793.4099   -2527.4649 
24996000    256.90214   -3852.2114   -3411.8899   -3852.2114            0    6507.6459     17.08273      20.1212    20.840891    7163.5357    7102.4215    7181.7577    5238.7584    1240.8563     761.6328    1076.2465   -2732.0178 
24997000    256.23589   -3852.4116    -3413.232   -3852.4116            0    7106.6662    17.023282    20.051178    20.768364    7089.0082    8627.4396    6584.5117    6108.0473   -222.68676    344.57682   -466.84955   -2678.5028 
24998000    266.66372   -3825.9923   -3368.9398   -3825.9923            0    7939.7309    17.000618    20.024483    20.740715    7060.7322    7675.7994    7481.8135    8661.5799     1297.048    713.74887   -838.39446   -2551.3577 
24999000    257.06464   -3884.1814   -3443.5814   -3884.1814            0     7368.863    17.036992    20.067327    20.785091    7106.1501    7788.3013    6324.4021    7993.8856   -1209.9355    694.15491    341.09958   -2679.9026 
25000000    273.58548   -3841.4334   -3372.5173   -3841.4334            0    9514.8821    16.943899    19.957674    20.671517    6990.2968    8978.9495    10049.313    9516.3837   -109.30058   -1054.4426    587.15881   -2402.5102 
Loop time of 369.24 on 64 procs for 250000 steps with 864 atoms

Performance: 116.997 ns/day, 0.205 hours/ns, 677.066 timesteps/s
192.6% CPU use with 32 MPI tasks x 2 OpenMP threads

MPI task timing breakdown:
Section |  min time  |  avg time  |  max time  |%varavg| %total
---------------------------------------------------------------
Pair    | 26.503     | 33.247     | 46.983     |  65.9 |  9.00
Bond    | 0.81596    | 1.1444     | 2.2851     |  23.8 |  0.31
Kspace  | 156.77     | 169.26     | 176.43     |  28.9 | 45.84
Neigh   | 3.8139     | 4.0238     | 4.1754     |   5.4 |  1.09
Comm    | 74.251     | 77.915     | 81.008     |  19.1 | 21.10
Output  | 0.45903    | 0.45934    | 0.46087    |   0.0 |  0.12
Modify  | 67.933     | 70.307     | 73.737     |  16.5 | 19.04
Other   |            | 12.89      |            |       |  3.49

Nlocal:        27.0000 ave          32 max          23 min
Histogram: 3 3 2 6 7 3 1 3 3 1
Nghost:        2617.00 ave        2658 max        2574 min
Histogram: 1 3 2 7 2 5 4 3 4 1
Neighs:        8823.38 ave       11050 max        6479 min
Histogram: 2 0 6 4 4 2 5 6 1 2

Total # of neighbors = 282348
Ave neighs/atom = 326.79167
Ave special neighs/atom = 2.0000000
Neighbor list builds = 13942
Dangerous builds = 0

unfix		3
unfix		2
unfix		1

write_data	data.final.${pid}
write_data	data.final.1
System init for write_data ...
PPPM initialization ...
  extracting TIP4P info from pair style
  using 12-bit tables for long-range coulomb (../kspace.cpp:340)
  G vector (1/distance) = 0.37441271
  grid = 24 24 24
  stencil order = 5
  estimated absolute RMS force accuracy = 0.003143804
  estimated relative force accuracy = 9.4674724e-06
  using double precision FFTW3
  3d grid and FFT values/proc = 3549 432
Last active /omp style is kspace_style pppm/tip4p/omp
WARNING: Not all mixed pair coeffs generated from mixing. Use write_data with 'pair ij' option to store all pair coeffs. (../write_data.cpp:312)

write_restart   restart.lmp.${pid}
write_restart   restart.lmp.1
System init for write_restart ...
PPPM initialization ...
  extracting TIP4P info from pair style
  using 12-bit tables for long-range coulomb (../kspace.cpp:340)
  G vector (1/distance) = 0.37441271
  grid = 24 24 24
  stencil order = 5
  estimated absolute RMS force accuracy = 0.003143804
  estimated relative force accuracy = 9.4674724e-06
  using double precision FFTW3
  3d grid and FFT values/proc = 3549 432
Last active /omp style is kspace_style pppm/tip4p/omp
Total wall time: 0:06:09
